label=Stress xy
num_items=9

0:1.8504240696716056e-17
1:2.2038318006868946e-17
2:3.0878787851373985e-17
3:3.5160080926550924e-17
4:2.9029755548379575e-17
5:2.5901721814417606e-17
6:6.6194197248243959e-17
7:1.0115215628493242e-16
8:3.9978879513818186e-17
9:4.1697849987369496e-17
10:5.3257171993143198e-17
11:-6.9316297889131818e-18
12:1.2080329636641386e-16
13:8.9448529914059149e-17
14:5.7151647447768916e-17
15:3.3052073620401375e-17
16:-2.2644194521794124e-17
17:-9.1285472650533682e-18
18:1.6191146465287491e-16
19:1.0508905248560152e-16
20:6.1240047543465966e-17
21:-2.2393020632031765e-17
22:-1.6530301229703631e-17
23:-3.0952531454790599e-17
24:2.1652056377104480e-16
25:1.8825311620720990e-16
26:7.1636551899382306e-17
27:2.8425208911721251e-18
28:-3.3139361436839942e-17
29:1.1743297273547139e-17
30:1.2190898518385025e-16
31:6.4079047144241281e-17
32:2.4832469043042678e-17
33:-2.1112896149164112e-17
34:6.1391789630030616e-17
35:-2.4584065237207632e-17
