x	y	stress_yy
 1.000000000000000e+000	 0.000000000000000e+000	 3.149940551768579e+001
 9.999607948607566e-001	 8.854871081647989e-003	 3.149347359295875e+001
 9.998426119589265e-001	 1.774123199891274e-002	 3.147665453941736e+001
 9.996446072361988e-001	 2.665819249913576e-002	 3.144883326746421e+001
 9.993659466433188e-001	 3.560484091004572e-002	 3.140989731274915e+001
 9.990058067093818e-001	 4.458024417780557e-002	 3.135973698369364e+001
 9.985633751160035e-001	 5.358344792087626e-002	 3.129824551080071e+001
 9.980378512759272e-001	 6.261347650004139e-002	 3.122531919759786e+001
 9.974284469156017e-001	 7.166933310492560e-002	 3.114085757304973e+001
 9.967343866612562e-001	 8.074999985732717e-002	 3.104476354526856e+001
 9.959549086279672e-001	 8.985443793167208e-002	 3.093694355634000e+001
 1.025000000000000e+000	 0.000000000000000e+000	 2.952412965369210e+001
 1.024959814732242e+000	 9.076242858200138e-003	 2.952214236024948e+001
 1.024838677257766e+000	 1.818476279791112e-002	 2.950979599576134e+001
 1.024635722416802e+000	 2.732464731015810e-002	 2.948696960548215e+001
 1.024350095308862e+000	 3.649496193086307e-002	 2.945354449148902e+001
 1.023980951876270e+000	 4.569475027984317e-002	 2.940940436123011e+001
 1.023527459492681e+000	 5.492303411602097e-002	 2.935443547836796e+001
 1.022988797556156e+000	 6.417881340919977e-002	 2.928852681577490e+001
 1.022364158086304e+000	 7.346106642874495e-002	 2.921157021052800e+001
 1.021652746325009e+000	 8.276874984949986e-002	 2.912346052074092e+001
 1.020853781340225e+000	 9.210079887525120e-002	 2.902409578405804e+001
 1.050000000000000e+000	 0.000000000000000e+000	 2.776859604375982e+001
 1.049958834603733e+000	 9.297614634757053e-003	 2.776992286296169e+001
 1.049834742556624e+000	 1.862829359692863e-002	 2.776141092244184e+001
 1.049626837597447e+000	 2.799110212122364e-002	 2.774293343310246e+001
 1.049334243974483e+000	 3.738508295175749e-002	 2.771436549743169e+001
 1.048956097043280e+000	 4.680925638200162e-002	 2.767558425921848e+001
 1.048491543869534e+000	 5.626262031134031e-002	 2.762646905607489e+001
 1.047939743836623e+000	 6.574415031859668e-002	 2.756690157463404e+001
 1.047299869257318e+000	 7.525279975287688e-002	 2.749676600828124e+001
 1.046571105989159e+000	 8.478749984206949e-002	 2.741594921726398e+001
 1.045752654052973e+000	 9.434715981932203e-002	 2.732434089101498e+001
 1.075000000000000e+000	 0.000000000000000e+000	 2.621727145536116e+001
 1.074957854475228e+000	 9.518986411318733e-003	 2.622135572096488e+001
 1.074830807855502e+000	 1.907182439596528e-002	 2.621611461597275e+001
 1.074617952778136e+000	 2.865755693233238e-002	 2.620141552549715e+001
 1.074318392640181e+000	 3.827520397272898e-002	 2.617712736334164e+001
 1.073931242210410e+000	 4.792376248428091e-002	 2.614312072302644e+001
 1.073455628246560e+000	 5.760220650683429e-002	 2.609926803213948e+001
 1.072890690117328e+000	 6.730948722823207e-002	 2.604544370989128e+001
 1.072235580428645e+000	 7.704453307732143e-002	 2.598152432774132e+001
 1.071489465653705e+000	 8.680624983503610e-002	 2.590738877295020e+001
 1.070651526766214e+000	 9.659352076388458e-002	 2.582291841490023e+001
 1.100000000000000e+000	 0.000000000000000e+000	 2.485603476801335e+001
 1.099956874346727e+000	 9.740358187885179e-003	 2.486238810399927e+001
 1.099826873154398e+000	 1.951535519502105e-002	 2.485992329431592e+001
 1.099609067958868e+000	 2.932401174348432e-002	 2.484850188601549e+001
 1.099302541305955e+000	 3.916532499377757e-002	 2.482798659350063e+001
 1.098906387377661e+000	 4.903826858668107e-002	 2.479824145100796e+001
 1.098419712623762e+000	 5.894179270250287e-002	 2.475913196894052e+001
 1.097841636398272e+000	 6.887482413810600e-002	 2.471052529393897e+001
 1.097171291600285e+000	 7.883626640207853e-002	 2.465229037256766e+001
 1.096407825318649e+000	 8.882499982839963e-002	 2.458429811847982e+001
 1.095550399479947e+000	 9.883988170893882e-002	 2.450642158291135e+001
 1.125000000000000e+000	 0.000000000000000e+000	 2.367202007194085e+001
 1.124955894218232e+000	 9.961729964456389e-003	 2.368021744835705e+001
 1.124822938453314e+000	 1.995888599409595e-002	 2.368009843894292e+001
 1.124600183139643e+000	 2.999046655467946e-002	 2.367151872083148e+001
 1.124286689971807e+000	 4.005544601490320e-002	 2.365433477798446e+001
 1.123881532545033e+000	 5.015277468920206e-002	 2.362840405528349e+001
 1.123383797001138e+000	 6.028137889834612e-002	 2.359358511700071e+001
 1.122792582679455e+000	 7.044016104821843e-002	 2.354973780954949e+001
 1.122107002772237e+000	 8.062799972714824e-002	 2.349672342840094e+001
 1.121326184983990e+000	 9.084374982216013e-002	 2.343440488903873e+001
 1.120449272194170e+000	 1.010862426544848e-001	 2.336264690181000e+001
 1.150000000000000e+000	 0.000000000000000e+000	 2.265348023212895e+001
 1.149954914089741e+000	 1.018310174103236e-002	 2.266315555834465e+001
 1.149819003752249e+000	 2.040241679318999e-002	 2.266501144010629e+001
 1.149591298320462e+000	 3.065692136591780e-002	 2.265889763428956e+001
 1.149270838637736e+000	 4.094556703610592e-002	 2.264466434420759e+001
 1.148856677712526e+000	 5.126728079184391e-002	 2.262216237546172e+001
 1.148347881378689e+000	 6.162096509436398e-002	 2.259124329671086e+001
 1.147743528960876e+000	 7.200549795856938e-002	 2.255175960526968e+001
 1.147042713944502e+000	 8.241973305253054e-002	 2.250356489743130e+001
 1.146244544649727e+000	 9.286249981631760e-002	 2.244651404339519e+001
 1.145348144908886e+000	 1.033326036005224e-001	 2.238046336666610e+001
 1.175000000000000e+000	 0.000000000000000e+000	 2.178966786973255e+001
 1.174953933961256e+000	 1.040447351761311e-002	 2.180051005649431e+001
 1.174815069051203e+000	 2.084594759230317e-002	 2.180402552143758e+001
 1.174582413501324e+000	 3.132337617719934e-002	 2.180005803335513e+001
 1.174254987303741e+000	 4.183568805738571e-002	 2.178845144656862e+001
 1.173831822880139e+000	 5.238178689460660e-002	 2.176904985869464e+001
 1.173311965756415e+000	 6.296055129055647e-002	 2.174169777387661e+001
 1.172694475242536e+000	 7.357083486915882e-002	 2.170624027140298e+001
 1.171978425117080e+000	 8.421146637822542e-002	 2.166252317961726e+001
 1.171162904315861e+000	 9.488124981087201e-002	 2.161039325500888e+001
 1.170247017624094e+000	 1.055789645470518e-001	 2.154969836635789e+001
 1.200000000000000e+000	 0.000000000000000e+000	 2.107073122080865e+001
 1.199952953832774e+000	 1.062584529419862e-002	 2.108248065249898e+001
 1.199811134350176e+000	 2.128947839143546e-002	 2.108739242397083e+001
 1.199573528682229e+000	 3.198983098852408e-002	 2.108530423150849e+001
 1.199239135969825e+000	 4.272580907874258e-002	 2.107605349488984e+001
 1.198806968047874e+000	 5.349629299749015e-002	 2.105947751722566e+001
 1.198276050134315e+000	 6.430013748692358e-002	 2.103541365082163e+001
 1.197645421524434e+000	 7.513617177998677e-002	 2.100369946899379e+001
 1.196914136289970e+000	 8.600319970423290e-002	 2.096417294375235e+001
 1.196081263982393e+000	 9.689999980582338e-002	 2.091667262925130e+001
 1.195145890339793e+000	 1.078253254940729e-001	 2.086103785088445e+001
 1.225000000000000e+000	 0.000000000000000e+000	 2.048762274704079e+001
 1.224951973704298e+000	 1.084721707078889e-002	 2.050006811391064e+001
 1.224807199649169e+000	 2.173300919058689e-002	 2.050616174110171e+001
 1.224564643863177e+000	 3.265628579989203e-002	 2.050573515216212e+001
 1.224223284635985e+000	 4.361593010017651e-002	 2.049861923039488e+001
 1.223782113215730e+000	 5.461079910049455e-002	 2.048464438093175e+001
 1.223240134512389e+000	 6.563972368346535e-002	 2.046364069939649e+001
 1.222596367806571e+000	 7.670150869105327e-002	 2.043543814709938e+001
 1.221849847463172e+000	 8.779493303055296e-002	 2.039986673268648e+001
 1.220999623649321e+000	 9.891874980117170e-002	 2.035675670015024e+001
 1.220044763055984e+000	 1.100716864415856e-001	 2.030593872308872e+001
 1.250000000000000e+000	 0.000000000000000e+000	 2.003201871317654e+001
 1.249950993575827e+000	 1.106858884738393e-002	 2.004499416035447e+001
 1.249803264948180e+000	 2.217653998975746e-002	 2.005210113335162e+001
 1.249555759044169e+000	 3.332274061130316e-002	 2.005316486766766e+001
 1.249207433302222e+000	 4.450605112168751e-002	 2.004800959256889e+001
 1.248757258383706e+000	 5.572530520361980e-002	 2.003645869556045e+001
 1.248204218890639e+000	 6.697930988018173e-002	 2.001833489402642e+001
 1.247547314088946e+000	 7.826684560235826e-002	 1.999346041398907e+001
 1.246785558636687e+000	 8.958666635718561e-002	 1.996165717592100e+001
 1.245917983316646e+000	 1.009374997969170e-001	 1.992274698752461e+001
 1.244943635772666e+000	 1.123180473895901e-001	 1.987655174337370e+001
 9.959549086279672e-001	 8.985443793167208e-002	 3.093694355634000e+001
 9.950892650105072e-001	 9.898158769347730e-002	 3.081588991068560e+001
 9.941367226775285e-001	 1.081303688543235e-001	 3.068319559601936e+001
 9.930965637671555e-001	 1.172996806447691e-001	 3.053888294906527e+001
 9.919680862820068e-001	 1.264884020066532e-001	 3.038298024753004e+001
 9.907506046851591e-001	 1.356953918032302e-001	 3.021552180428564e+001
 9.894434504957537e-001	 1.449194890479377e-001	 3.003654805775311e+001
 9.880459728836375e-001	 1.541595131519814e-001	 2.984610565824215e+001
 9.865575392624050e-001	 1.634142641909075e-001	 2.964424755000164e+001
 9.849775358802030e-001	 1.726825231903044e-001	 2.943103304873248e+001
 9.833053684076398e-001	 1.819630524307584e-001	 2.920652791431548e+001
 1.020853781340225e+000	 9.210079887525120e-002	 2.902409578405804e+001
 1.019966496631707e+000	 1.014561273807282e-001	 2.892122365648711e+001
 1.018990140739942e+000	 1.108336280703762e-001	 2.880712822580146e+001
 1.017923977856507e+000	 1.202321726555192e-001	 2.868180984490007e+001
 1.016767288434090e+000	 1.296506120515437e-001	 2.854527428685335e+001
 1.015519369797344e+000	 1.390877765932872e-001	 2.839753285336464e+001
 1.014179536753393e+000	 1.485424762695244e-001	 2.823860248040358e+001
 1.012747122201329e+000	 1.580135009767428e-001	 2.806850584076683e+001
 1.011221477740089e+000	 1.674996207923786e-001	 2.788727144331627e+001
 1.009601974274024e+000	 1.769995862676611e-001	 2.769493372864312e+001
 1.007888002615511e+000	 1.865121287401930e-001	 2.749153316090199e+001
 1.045752654052973e+000	 9.434715981932203e-002	 2.732434089101498e+001
 1.044843728253489e+000	 1.039306670685564e-001	 2.723770890984245e+001
 1.043843558803008e+000	 1.135368872870630e-001	 2.714026267070609e+001
 1.042751391946564e+000	 1.231646646669310e-001	 2.703198109472092e+001
 1.041566490586910e+000	 1.328128220970941e-001	 2.691284801476514e+001
 1.040288134910280e+000	 1.424801613839724e-001	 2.678285229814749e+001
 1.038915623011773e+000	 1.521654634916778e-001	 2.664198796740663e+001
 1.037448271519734e+000	 1.618674888019789e-001	 2.649025431899597e+001
 1.035885416218438e+000	 1.715849773942019e-001	 2.632765603960201e+001
 1.034226412668443e+000	 1.813166493452170e-001	 2.615420331983756e+001
 1.032470636823890e+000	 1.910612050496422e-001	 2.596991196504816e+001
 1.070651526766214e+000	 9.659352076388458e-002	 2.582291841490023e+001
 1.069720959875853e+000	 1.064052067569619e-001	 2.575075237790588e+001
 1.068696976866728e+000	 1.162401465043839e-001	 2.566817344451069e+001
 1.067578806037326e+000	 1.260971566790045e-001	 2.557513959196584e+001
 1.066365692740468e+000	 1.359750321433043e-001	 2.547161321197519e+001
 1.065056900023964e+000	 1.458725461752858e-001	 2.535756124752683e+001
 1.063651709270896e+000	 1.557884507143977e-001	 2.523295532880748e+001
 1.062149420838853e+000	 1.657214766276897e-001	 2.509777190795057e+001
 1.060549354697454e+000	 1.756703339963775e-001	 2.495199239236310e+001
 1.058850851063458e+000	 1.856337124229718e-001	 2.479560327636675e+001
 1.057053271032776e+000	 1.956102813591062e-001	 2.462859627088387e+001
 1.095550399479947e+000	 9.883988170893882e-002	 2.450642158291135e+001
 1.094598191498799e+000	 1.088797464459448e-001	 2.444710046858575e+001
 1.093550394931101e+000	 1.189434057223389e-001	 2.437776071677182e+001
 1.092406220128793e+000	 1.290296486917397e-001	 2.429833978970182e+001
 1.091164894894763e+000	 1.391372421901744e-001	 2.420877907664804e+001
 1.089825665138398e+000	 1.492649309672275e-001	 2.410902404490645e+001
 1.088387795530761e+000	 1.594114379376843e-001	 2.399902439080522e+001
 1.086850570158686e+000	 1.695754644538753e-001	 2.387873419048825e+001
 1.085213293177134e+000	 1.797556905989053e-001	 2.374811205021391e+001
 1.083475289459071e+000	 1.899507755009255e-001	 2.360712125589947e+001
 1.081635905242169e+000	 2.001593576685848e-001	 2.345572992163275e+001
 1.120449272194170e+000	 1.010862426544848e-001	 2.336264690181000e+001
 1.119475423122327e+000	 1.113542861355051e-001	 2.331469043490596e+001
 1.118403812996127e+000	 1.216466649409280e-001	 2.325710301773896e+001
 1.117233634220965e+000	 1.319621407051365e-001	 2.318980197177698e+001
 1.115964097049795e+000	 1.422994522377043e-001	 2.311270806690773e+001
 1.114594430253582e+000	 1.526573157597975e-001	 2.302574568658833e+001
 1.113123881791367e+000	 1.630344251615375e-001	 2.292884299395688e+001
 1.111551719479234e+000	 1.734294522805356e-001	 2.282193209865350e+001
 1.109877231657481e+000	 1.838410472017855e-001	 2.270494922408746e+001
 1.108099727855280e+000	 1.942678385790784e-001	 2.257783487487415e+001
 1.106218539452070e+000	 2.047084339780781e-001	 2.244053400415498e+001
 1.145348144908886e+000	 1.033326036005224e-001	 2.238046336666610e+001
 1.144352654746438e+000	 1.138288258256427e-001	 2.234252093532025e+001
 1.143257231061806e+000	 1.243499241601512e-001	 2.229532915567094e+001
 1.142061048313842e+000	 1.348946327191951e-001	 2.223878553208383e+001
 1.140763299205563e+000	 1.454616622858941e-001	 2.217279054649406e+001
 1.139363195369515e+000	 1.560497005529956e-001	 2.209724783776142e+001
 1.137859968052715e+000	 1.666574123859574e-001	 2.201206438292014e+001
 1.136252868800494e+000	 1.772834401076706e-001	 2.191715068006919e+001
 1.134541170138493e+000	 1.879264038050179e-001	 2.181242093263396e+001
 1.132724166252086e+000	 1.985849016574302e-001	 2.169779323471761e+001
 1.130801173662478e+000	 2.092575102875861e-001	 2.157318975724568e+001
 1.170247017624094e+000	 1.055789645470518e-001	 2.154969836635789e+001
 1.169229886371130e+000	 1.163033655163576e-001	 2.152053911824167e+001
 1.168110649128139e+000	 1.270531833800085e-001	 2.148250648513311e+001
 1.166888462407425e+000	 1.378271247339154e-001	 2.143547843093744e+001
 1.165562501362070e+000	 1.486238723347436e-001	 2.137933543310124e+001
 1.164131960486198e+000	 1.594420853468220e-001	 2.131396067623645e+001
 1.162596054314805e+000	 1.702803996109438e-001	 2.123924024856962e+001
 1.160954018122470e+000	 1.811374279352804e-001	 2.115506334095914e+001
 1.159205108620171e+000	 1.920117604086026e-001	 2.106132244820714e+001
 1.157348604649489e+000	 2.029019647359810e-001	 2.095791357237687e+001
 1.155383807873393e+000	 2.138065865971087e-001	 2.084473642781033e+001
 1.195145890339793e+000	 1.078253254940729e-001	 2.086103785088445e+001
 1.194107117996405e+000	 1.187779052076498e-001	 2.083954182100559e+001
 1.192964067195126e+000	 1.297564426004999e-001	 2.080954314175746e+001
 1.191715876501712e+000	 1.407596167492974e-001	 2.077090046940650e+001
 1.190361703519314e+000	 1.517860823842530e-001	 2.072347451567395e+001
 1.188900725603630e+000	 1.628344701412766e-001	 2.066712825571425e+001
 1.187332140577637e+000	 1.739033868364969e-001	 2.060172713984863e+001
 1.185655167445159e+000	 1.849914157633649e-001	 2.052713930879306e+001
 1.183869047102515e+000	 1.960971170125395e-001	 2.044323581210243e+001
 1.181973043047488e+000	 2.072190278147308e-001	 2.034989082953447e+001
 1.179966442084816e+000	 2.183556629066459e-001	 2.024698189501850e+001
 1.220044763055984e+000	 1.100716864415856e-001	 2.030593872308872e+001
 1.218984349622261e+000	 1.212524448995195e-001	 2.029108886691905e+001
 1.217817485262765e+000	 1.324597018216254e-001	 2.026810224825643e+001
 1.216543290596704e+000	 1.436921087653410e-001	 2.023681840760386e+001
 1.215160905677295e+000	 1.549482924344223e-001	 2.019707848795317e+001
 1.213669490721811e+000	 1.662268549363595e-001	 2.014872545722504e+001
 1.212068226841211e+000	 1.775263740626166e-001	 2.009160433539422e+001
 1.210356316768562e+000	 1.888454035919240e-001	 2.002556242603612e+001
 1.208532985585524e+000	 2.001824736168288e-001	 1.995044955201093e+001
 1.206597481446085e+000	 2.115360908936797e-001	 1.986611829498131e+001
 1.204549076296746e+000	 2.229047392161979e-001	 1.977242423843890e+001
 1.244943635772666e+000	 1.123180473895901e-001	 1.987655174337370e+001
 1.243861581248701e+000	 1.237269845919664e-001	 1.986742676666392e+001
 1.242670903331058e+000	 1.351629610433850e-001	 1.985052641571513e+001
 1.241370704692402e+000	 1.466246007820463e-001	 1.982567126878208e+001
 1.239960107836013e+000	 1.581105024852513e-001	 1.979268305799636e+001
 1.238438255840743e+000	 1.696192397320706e-001	 1.975138490639523e+001
 1.236804313105526e+000	 1.811493612893030e-001	 1.970160157056739e+001
 1.235057466092679e+000	 1.926993914209580e-001	 1.964315968864889e+001
 1.233196924069199e+000	 2.042678302214703e-001	 1.957588803337910e+001
 1.231221919845279e+000	 2.158531539728276e-001	 1.949961776990492e+001
 1.229131710509183e+000	 2.274538155257646e-001	 1.941418271799847e+001
 9.833053684076398e-001	 1.819630524307584e-001	 2.920652791431548e+001
 9.815404625233627e-001	 1.912545957719429e-001	 2.897943909368327e+001
 9.796822644929402e-001	 2.005558789966087e-001	 2.874062250844517e+001
 9.777302417428043e-001	 2.098656101739950e-001	 2.849022656063023e+001
 9.756838834310224e-001	 2.191824800423045e-001	 2.822840792885983e+001
 9.735427010105086e-001	 2.285051624109132e-001	 2.795533157955504e+001
 9.713062287851814e-001	 2.378323145820489e-001	 2.767117076921146e+001
 9.689740244583480e-001	 2.471625777918797e-001	 2.737610703749939e+001
 9.665456696725904e-001	 2.564945776709277e-001	 2.707033019095698e+001
 9.640207705404181e-001	 2.658269247236918e-001	 2.675403827705541e+001
 9.613989581649598e-001	 2.751582148273362e-001	 2.642743754842454e+001
 1.007888002615511e+000	 1.865121287401930e-001	 2.749153316090199e+001
 1.006078974084998e+000	 1.960359606660597e-001	 2.729200845884813e+001
 1.004174321104526e+000	 2.055697759725002e-001	 2.708110259953013e+001
 1.002173497786187e+000	 2.151122504304847e-001	 2.685893668306636e+001
 1.000075980516999e+000	 2.246620420466706e-001	 2.662563960752178e+001
 9.978812685361965e-001	 2.342177914756685e-001	 2.638134810180747e+001
 9.955888845052953e-001	 2.437781224522616e-001	 2.612620675064119e+001
 9.931983750701838e-001	 2.533416422435220e-001	 2.586036801131090e+001
 9.907093114145075e-001	 2.629069421207347e-001	 2.558399222198830e+001
 9.881212898035868e-001	 2.724725978510111e-001	 2.529724760134926e+001
 9.854339321181277e-001	 2.820371702084442e-001	 2.500031023926506e+001
 1.032470636823890e+000	 1.910612050496422e-001	 2.596991196504816e+001
 1.030617485647049e+000	 2.008173255599959e-001	 2.579569009891900e+001
 1.028666377716457e+000	 2.105836729480256e-001	 2.561042341230222e+001
 1.026616753829864e+000	 2.203588906864322e-001	 2.541420641891426e+001
 1.024468077603237e+000	 2.301416040503285e-001	 2.520714096814266e+001
 1.022219836062135e+000	 2.399304205395593e-001	 2.498933629948062e+001
 1.019871540225668e+000	 2.497239303214634e-001	 2.476090908999783e+001
 1.017422725682307e+000	 2.595207066940173e-001	 2.452198349457063e+001
 1.014872953156760e+000	 2.693193065692688e-001	 2.427269117859940e+001
 1.012221809067160e+000	 2.791182709769418e-001	 2.401317134294657e+001
 1.009468906071790e+000	 2.889161255880586e-001	 2.374357074083486e+001
 1.057053271032776e+000	 1.956102813591062e-001	 2.462859627088387e+001
 1.055155997209518e+000	 2.055986904537517e-001	 2.447760481398991e+001
 1.053158434328735e+000	 2.155975699231847e-001	 2.431589510353720e+001
 1.051060009873835e+000	 2.256055309418376e-001	 2.414353570374603e+001
 1.048860174689739e+000	 2.356211660532781e-001	 2.396060206733650e+001
 1.046558403588324e+000	 2.456430496025855e-001	 2.376717661139060e+001
 1.044154195946299e+000	 2.556697381896545e-001	 2.356334878720810e+001
 1.041647076294716e+000	 2.656997711433656e-001	 2.334921514386070e+001
 1.039036594899347e+000	 2.757316710165301e-001	 2.312487938515264e+001
 1.036322328331137e+000	 2.857639441014842e-001	 2.289045241969684e+001
 1.033503880025945e+000	 2.957950809661792e-001	 2.264605240382174e+001
 1.081635905242169e+000	 2.001593576685848e-001	 2.345572992163275e+001
 1.079694508772404e+000	 2.103800553473268e-001	 2.332606932333491e+001
 1.077650490941359e+000	 2.206114668979778e-001	 2.318600771712356e+001
 1.075503265918101e+000	 2.308521711967009e-001	 2.303558828229182e+001
 1.073252271776503e+000	 2.411007280555194e-001	 2.287486065341022e+001
 1.070896971114763e+000	 2.513556786647472e-001	 2.270388101755399e+001
 1.068436851667188e+000	 2.616155460568348e-001	 2.252271220646664e+001
 1.065871426907412e+000	 2.718788355915671e-001	 2.233142378334567e+001
 1.063200236642269e+000	 2.821440354625184e-001	 2.213009212393677e+001
 1.060422847595518e+000	 2.924096172246379e-001	 2.191880049162328e+001
 1.057538853980594e+000	 3.026740363428060e-001	 2.169763910619896e+001
 1.106218539452070e+000	 2.047084339780781e-001	 2.244053400415498e+001
 1.104233020335707e+000	 2.151614202407214e-001	 2.233046338549705e+001
 1.102142547554328e+000	 2.256253638724046e-001	 2.221030008549247e+001
 1.099946521962661e+000	 2.360988114510220e-001	 2.208006239630940e+001
 1.097644368863529e+000	 2.465802900570525e-001	 2.193977464506244e+001
 1.095235538641453e+000	 2.570683077260444e-001	 2.178946731238573e+001
 1.092719507388336e+000	 2.675613539230043e-001	 2.162917714687119e+001
 1.090095777520394e+000	 2.780579000386215e-001	 2.145894727503922e+001
 1.087363878385527e+000	 2.885563999072340e-001	 2.127882730650635e+001
 1.084523366860303e+000	 2.990552903464032e-001	 2.108887343401255e+001
 1.081573827935737e+000	 3.095529917179392e-001	 2.088914852796988e+001
 1.130801173662478e+000	 2.092575102875861e-001	 2.157318975724568e+001
 1.128771531899427e+000	 2.199427851339355e-001	 2.148111425053971e+001
 1.126634604167643e+000	 2.306392608464652e-001	 2.137924583086121e+001
 1.124389778007517e+000	 2.413454517048012e-001	 2.126757833925311e+001
 1.122036465950817e+000	 2.520598520578772e-001	 2.114611124329569e+001
 1.119574106168393e+000	 2.627809367864770e-001	 2.101484977704560e+001
 1.117002163109742e+000	 2.735071617881630e-001	 2.087380507775745e+001
 1.114320128133663e+000	 2.842369644845291e-001	 2.072299431903656e+001
 1.111527520129119e+000	 2.949687643506766e-001	 2.056244084006470e+001
 1.108623886125492e+000	 3.057009634667800e-001	 2.039217427053716e+001
 1.105608801891373e+000	 3.164319470915787e-001	 2.021223065094586e+001
 1.155383807873393e+000	 2.138065865971087e-001	 2.084473642781033e+001
 1.153310043463564e+000	 2.247241500269691e-001	 2.076919586307482e+001
 1.151126660781304e+000	 2.356531578201598e-001	 2.068415391950975e+001
 1.148833034052665e+000	 2.465920919580380e-001	 2.058958036566637e+001
 1.146428563038369e+000	 2.575394140579937e-001	 2.048545019925494e+001
 1.143912673695583e+000	 2.684935658460451e-001	 2.037174380850640e+001
 1.141284818831406e+000	 2.794529696523109e-001	 2.024844713122567e+001
 1.138544478747219e+000	 2.904160289292898e-001	 2.011555181116390e+001
 1.135691161873047e+000	 3.013811287928465e-001	 1.997305535132954e+001
 1.132724405391086e+000	 3.123466365857683e-001	 1.982096126385119e+001
 1.129643775847504e+000	 3.233109024637244e-001	 1.965927921599932e+001
 1.179966442084816e+000	 2.183556629066459e-001	 2.024698189501850e+001
 1.177848555028117e+000	 2.295055149198221e-001	 2.018664066491260e+001
 1.175618717395311e+000	 2.406670547934880e-001	 2.011708164677271e+001
 1.173276290098108e+000	 2.518387322107329e-001	 2.003825086190037e+001
 1.170820660126183e+000	 2.630189760574019e-001	 1.995009917358657e+001
 1.168251241223024e+000	 2.742061949047486e-001	 1.985258246998899e+001
 1.165567474553330e+000	 2.853987775154480e-001	 1.974566184560152e+001
 1.162768829361061e+000	 2.965950933729035e-001	 1.962930378092204e+001
 1.159854803617310e+000	 3.077934932337433e-001	 1.950348031991597e+001
 1.156824924657083e+000	 3.189923097033681e-001	 1.936816924486218e+001
 1.153678749804127e+000	 3.301898578343763e-001	 1.922335424816071e+001
 1.204549076296746e+000	 2.229047392161979e-001	 1.977242423843890e+001
 1.202387066593088e+000	 2.342868798124946e-001	 1.972606219738711e+001
 1.200110774009665e+000	 2.456809517664502e-001	 1.967075827693085e+001
 1.197719546143846e+000	 2.570853724628856e-001	 1.960643502654062e+001
 1.195212757214259e+000	 2.684985380561020e-001	 1.953301945995746e+001
 1.192589808750716e+000	 2.799188239625877e-001	 1.945044325971142e+001
 1.189850130275511e+000	 2.913445853775743e-001	 1.935864298112636e+001
 1.186993179975190e+000	 3.027741578153702e-001	 1.925756025539616e+001
 1.184018445361908e+000	 3.142058576733673e-001	 1.914714199130501e+001
 1.180925443923484e+000	 3.256379828195793e-001	 1.902734057515321e+001
 1.177713723761245e+000	 3.370688132035347e-001	 1.889811406843811e+001
 1.229131710509183e+000	 2.274538155257646e-001	 1.941418271799847e+001
 1.226925578158476e+000	 2.390682447049866e-001	 1.938068699140278e+001
 1.224602830624363e+000	 2.506948487390461e-001	 1.933851784631516e+001
 1.222162802189878e+000	 2.623320127144961e-001	 1.928757458918259e+001
 1.219604854302598e+000	 2.739781000540936e-001	 1.922776062175217e+001
 1.216928376278658e+000	 2.856314530195622e-001	 1.915898366738822e+001
 1.214132785997951e+000	 2.972903932386898e-001	 1.908115599776476e+001
 1.211217530589606e+000	 3.089532222566900e-001	 1.899419465949650e+001
 1.208182087106841e+000	 3.206182221117185e-001	 1.889802170025639e+001
 1.205025963190290e+000	 3.322836559344022e-001	 1.879256439391458e+001
 1.201748697718857e+000	 3.439477685711992e-001	 1.867775546421871e+001
 9.613989581649598e-001	 2.751582148273362e-001	 2.642743754842454e+001
 9.586798891490923e-001	 2.844870297499801e-001	 2.609321917559054e+001
 9.558632460948671e-001	 2.938119376861946e-001	 2.574944490078551e+001
 9.529487380907489e-001	 3.031314938110319e-001	 2.539649154766747e+001
 9.499361011842371e-001	 3.124442408536596e-001	 2.503474569108359e+001
 9.468250988417171e-001	 3.217487096881426e-001	 2.466460344785864e+001
 9.436155223939605e-001	 3.310434199417802e-001	 2.428647025243197e+001
 9.403071914665515e-001	 3.403268806206379e-001	 2.390076061734976e+001
 9.368999543945392e-001	 3.495975907518841e-001	 2.350789787865266e+001
 9.333936886206079e-001	 3.588540400425037e-001	 2.310831392622535e+001
 9.297883010760839e-001	 3.680947095539379e-001	 2.270244891920840e+001
 9.854339321181277e-001	 2.820371702084442e-001	 2.500031023926506e+001
 9.826468863761853e-001	 2.915992055051701e-001	 2.470756702925288e+001
 9.797598272449696e-001	 3.011572361404365e-001	 2.440529020279682e+001
 9.767724565401573e-001	 3.107097811686687e-001	 2.409380709249404e+001
 9.736845037104360e-001	 3.202553468872610e-001	 2.377345435387639e+001
 9.704957263088511e-001	 3.297924274421272e-001	 2.344457780165559e+001
 9.672059104494433e-001	 3.393195054512463e-001	 2.310753223202889e+001
 9.638148712484377e-001	 3.488350526458336e-001	 2.276268123099812e+001
 9.603224532492585e-001	 3.583375305287336e-001	 2.241039696867974e+001
 9.567285308306592e-001	 3.678253910496042e-001	 2.205105997961171e+001
 9.530330085972487e-001	 3.772970772964199e-001	 2.168505892908821e+001
 1.009468906071790e+000	 2.889161255880586e-001	 2.374357074083486e+001
 1.006613883603867e+000	 2.987113812587859e-001	 2.348832073622449e+001
 1.003656408395746e+000	 3.085025345930624e-001	 2.322355563979627e+001
 1.000596174990316e+000	 3.182880685246870e-001	 2.294955487625943e+001
 9.974329062374505e-001	 3.280664529192809e-001	 2.266660678735996e+001
 9.941663537768565e-001	 3.378361451946070e-001	 2.237500851272257e+001
 9.907962985058438e-001	 3.475955909593247e-001	 2.207506585792628e+001
 9.873225510312766e-001	 3.573432246697985e-001	 2.176709314971027e+001
 9.837449521049575e-001	 3.670774703045501e-001	 2.145141307822890e+001
 9.800633730417054e-001	 3.767967420559097e-001	 2.112835652629752e+001
 9.762777161194137e-001	 3.864994450383867e-001	 2.079826238559510e+001
 1.033503880025945e+000	 2.957950809661792e-001	 2.264605240382174e+001
 1.030580880832138e+000	 3.058235570108274e-001	 2.242461909453031e+001
 1.027552989547197e+000	 3.158478330440721e-001	 2.219368521604147e+001
 1.024419893441225e+000	 3.258663558790867e-001	 2.195348372978796e+001
 1.021181308765282e+000	 3.358775589497192e-001	 2.170425612943059e+001
 1.017836981245734e+000	 3.458798629455819e-001	 2.144625236554248e+001
 1.014386686563162e+000	 3.558716764660150e-001	 2.117973075866247e+001
 1.010830230815070e+000	 3.658513966925323e-001	 2.090495790055974e+001
 1.007167450961636e+000	 3.758174100793332e-001	 2.062220854356855e+001
 1.003398215253746e+000	 3.857680930614207e-001	 2.033176547787210e+001
 9.995224236425787e-001	 3.957018127798380e-001	 2.003391939663592e+001
 1.057538853980594e+000	 3.026740363428060e-001	 2.169763910619896e+001
 1.054547878060998e+000	 3.129357327612945e-001	 2.150662474409923e+001
 1.051449570699323e+000	 3.231931314934659e-001	 2.130612009872383e+001
 1.048243611892883e+000	 3.334446432318680e-001	 2.109631298599927e+001
 1.044929711293928e+000	 3.436886649785759e-001	 2.087739938921598e+001
 1.041507608715483e+000	 3.539235806950523e-001	 2.064958342689576e+001
 1.037977074621398e+000	 3.641477619713174e-001	 2.041307731013123e+001
 1.034337910599817e+000	 3.743595687140354e-001	 2.016810128918232e+001
 1.030589949819293e+000	 3.845573498530832e-001	 1.991488358913018e+001
 1.026733057466782e+000	 3.947394440661367e-001	 1.965366033440525e+001
 1.022767131166744e+000	 4.049041805207738e-001	 1.938467546202314e+001
 1.081573827935737e+000	 3.095529917179392e-001	 2.088914852796988e+001
 1.078514875290446e+000	 3.200479085101873e-001	 2.072541040655155e+001
 1.075346151852123e+000	 3.305384299412435e-001	 2.055218782208641e+001
 1.072067330345292e+000	 3.410229305830306e-001	 2.036962464634238e+001
 1.068678113823391e+000	 3.514997710058511e-001	 2.017787257249437e+001
 1.065178236186105e+000	 3.619672984430177e-001	 1.997709112560613e+001
 1.061567462680552e+000	 3.724238474752318e-001	 1.976744766365463e+001
 1.057845590385517e+000	 3.828677407343076e-001	 1.954911736882615e+001
 1.054012448677930e+000	 3.932972896257999e-001	 1.932228322882534e+001
 1.050067899680813e+000	 4.037107950700578e-001	 1.908713600795133e+001
 1.046011838691909e+000	 4.141065482611943e-001	 1.884387420770990e+001
 1.105608801891373e+000	 3.164319470915787e-001	 2.021223065094586e+001
 1.102481872520483e+000	 3.271600842575055e-001	 2.007285996327500e+001
 1.099242733005597e+000	 3.378837283874052e-001	 1.992400594317872e+001
 1.095891048798451e+000	 3.486012179325746e-001	 1.976576961247689e+001
 1.092426516353670e+000	 3.593108770315449e-001	 1.959825948640656e+001
 1.088848863657598e+000	 3.700110161894785e-001	 1.942159162623186e+001
 1.085157850740624e+000	 3.806999329777582e-001	 1.923588968343725e+001
 1.081353270172171e+000	 3.913759127533490e-001	 1.904128493517796e+001
 1.077434947537546e+000	 4.020372293974834e-001	 1.883791631066899e+001
 1.073402741895838e+000	 4.126821460731841e-001	 1.862593040820538e+001
 1.069256546218074e+000	 4.233089160010993e-001	 1.840548150251620e+001
 1.129643775847504e+000	 3.233109024637244e-001	 1.965927921599932e+001
 1.126448869751110e+000	 3.342722600032497e-001	 1.954158216183138e+001
 1.123139314159746e+000	 3.452290268319507e-001	 1.941439799687679e+001
 1.119714767252360e+000	 3.561795052805002e-001	 1.927778588837828e+001
 1.116174918884764e+000	 3.671219830556570e-001	 1.913181218611984e+001
 1.112519491129963e+000	 3.780547339344345e-001	 1.897655051675434e+001
 1.108748238801613e+000	 3.889760184788967e-001	 1.881208187072865e+001
 1.104860949959779e+000	 3.998840847711595e-001	 1.863849468142368e+001
 1.100857446398142e+000	 4.107771691681337e-001	 1.845588489613164e+001
 1.096737584111859e+000	 4.216534970755158e-001	 1.826435603850016e+001
 1.092501253745239e+000	 4.325112837404888e-001	 1.806401926208094e+001
 1.153678749804127e+000	 3.301898578343763e-001	 1.922335424816071e+001
 1.150415866982325e+000	 3.413844357474193e-001	 1.912483510906310e+001
 1.147035895314569e+000	 3.525743252748803e-001	 1.901681995652579e+001
 1.143538485707019e+000	 3.637577926268072e-001	 1.889932700717976e+001
 1.139923321416674e+000	 3.749330890781875e-001	 1.877238136565858e+001
 1.136190118603200e+000	 3.860984516778857e-001	 1.863601516030514e+001
 1.132338626863521e+000	 3.972521039786472e-001	 1.849026767246499e+001
 1.128368629748340e+000	 4.083922567877391e-001	 1.833518545892672e+001
 1.124279945259717e+000	 4.195171089377507e-001	 1.817082246707213e+001
 1.120072426328874e+000	 4.306248480770524e-001	 1.799724014230353e+001
 1.115745961273404e+000	 4.417136514793630e-001	 1.781450752731988e+001
 1.177713723761245e+000	 3.370688132035347e-001	 1.889811406843811e+001
 1.174382864214129e+000	 3.484966114900147e-001	 1.881646000994116e+001
 1.170932476470067e+000	 3.599196237161938e-001	 1.872529569940204e+001
 1.167362204162428e+000	 3.713360799714957e-001	 1.862459922207463e+001
 1.163671723949401e+000	 3.827441950991367e-001	 1.851435527230686e+001
 1.159860746077309e+000	 3.941421694198320e-001	 1.839455533035527e+001
 1.155929014926346e+000	 4.055281894770098e-001	 1.826519783375086e+001
 1.151876309537855e+000	 4.169004288030879e-001	 1.812628834272080e+001
 1.147702444122272e+000	 4.282570487063346e-001	 1.797783969916848e+001
 1.143407268546884e+000	 4.395961990777945e-001	 1.781987217871629e+001
 1.138990668802569e+000	 4.509160192177217e-001	 1.765241363531701e+001
 1.201748697718857e+000	 3.439477685711992e-001	 1.867775546421871e+001
 1.198349861446522e+000	 3.556087872310357e-001	 1.861082285775189e+001
 1.194829057626238e+000	 3.672649221558912e-001	 1.853436021631968e+001
 1.191185922618588e+000	 3.789143673145657e-001	 1.844830623430996e+001
 1.187420126482944e+000	 3.905553011185042e-001	 1.835260595128254e+001
 1.183531373552289e+000	 4.021858871602737e-001	 1.824721096968149e+001
 1.179519402990089e+000	 4.138042749739844e-001	 1.813207966804274e+001
 1.175383989328324e+000	 4.254086008172058e-001	 1.800717740914360e+001
 1.171124942985805e+000	 4.369969884738851e-001	 1.787247674253678e+001
 1.166742110765889e+000	 4.485675500777415e-001	 1.772795760090972e+001
 1.162235376332733e+000	 4.601183869555650e-001	 1.757360748970909e+001
 9.297883010760839e-001	 3.680947095539379e-001	 2.270244891920840e+001
 9.260837285441588e-001	 3.773180723910820e-001	 2.231252921716751e+001
 9.222799380044704e-001	 3.865225944084202e-001	 2.191447314516620e+001
 9.183769269585734e-001	 3.957067349304587e-001	 2.150866787504253e+001
 9.143747237357484e-001	 4.048689474837915e-001	 2.109550928087875e+001
 9.102733877783561e-001	 4.140076805434687e-001	 2.067540168024507e+001
 9.060730099062140e-001	 4.231213782919207e-001	 2.024875756082107e+001
 9.017737125594310e-001	 4.322084813897780e-001	 1.981599729254555e+001
 8.973756500191497e-001	 4.412674277578940e-001	 1.937754882548058e+001
 8.928790086056802e-001	 4.502966533698553e-001	 1.893384737360536e+001
 8.882840068535240e-001	 4.592945930542355e-001	 1.848533508479135e+001
 9.530330085972487e-001	 3.772970772964199e-001	 2.168505892908821e+001
 9.492358217518436e-001	 3.867510242020995e-001	 2.133133132342671e+001
 9.453369364486188e-001	 3.961856592678930e-001	 2.096979959467751e+001
 9.413363501266671e-001	 4.055994033014218e-001	 2.060083363746248e+001
 9.372340918235037e-001	 4.149906711674479e-001	 2.022481177413878e+001
 9.330302224675480e-001	 4.243578725528999e-001	 1.984212051126671e+001
 9.287248351491141e-001	 4.336994127447715e-001	 1.945315428188071e+001
 9.243180553693137e-001	 4.430136934202114e-001	 1.905831517369202e+001
 9.198100412663191e-001	 4.522991134480962e-001	 1.865801264338228e+001
 9.152009838184486e-001	 4.615540697013547e-001	 1.825266321717849e+001
 9.104911070235671e-001	 4.707769578792765e-001	 1.784269017793330e+001
 9.762777161194137e-001	 3.864994450383867e-001	 2.079826238559510e+001
 9.723879149605194e-001	 3.961839760128773e-001	 2.047921563370975e+001
 9.683939348937277e-001	 4.058487241273528e-001	 2.015267602999858e+001
 9.642957732956735e-001	 4.154920716725499e-001	 1.981899666355758e+001
 9.600934599121022e-001	 4.251123948513972e-001	 1.947853879864992e+001
 9.557870571574938e-001	 4.347080645627024e-001	 1.913167164638124e+001
 9.513766603926590e-001	 4.442774471980220e-001	 1.877877212257404e+001
 9.468623981797121e-001	 4.538189054510224e-001	 1.842022459194481e+001
 9.422444325138554e-001	 4.633307991386039e-001	 1.805642059871743e+001
 9.375229590314146e-001	 4.728114860330361e-001	 1.768775858383787e+001
 9.326982071936175e-001	 4.822593227043255e-001	 1.731464358898568e+001
 9.995224236425787e-001	 3.957018127798380e-001	 2.003391939663592e+001
 9.955400081701847e-001	 4.056169278234152e-001	 1.974816907256524e+001
 9.914509333397977e-001	 4.155117889867996e-001	 1.945521688974108e+001
 9.872551964655910e-001	 4.253847400438425e-001	 1.915539954735881e+001
 9.829528280015432e-001	 4.352341185356398e-001	 1.884906168836362e+001
 9.785438918481941e-001	 4.450582565728766e-001	 1.853655568636025e+001
 9.740284856368491e-001	 4.548554816516726e-001	 1.821824141908942e+001
 9.694067409906274e-001	 4.646241174822118e-001	 1.789448602854786e+001
 9.646788237617590e-001	 4.743624848294172e-001	 1.756566366786046e+001
 9.598449342445783e-001	 4.840689023649001e-001	 1.723215523504191e+001
 9.549053073636764e-001	 4.937416875293824e-001	 1.689434809381504e+001
 1.022767131166744e+000	 4.049041805207738e-001	 1.938467546202314e+001
 1.018692101380841e+000	 4.150498796337134e-001	 1.913095331680627e+001
 1.014507931786828e+000	 4.251748538462336e-001	 1.887030063792433e+001
 1.010214619636420e+000	 4.352774084153001e-001	 1.860303809857757e+001
 1.005812196091827e+000	 4.453558422201752e-001	 1.832949410474955e+001
 1.001300726539648e+000	 4.554084485834224e-001	 1.805000459742046e+001
 9.966803108816846e-001	 4.654335161057233e-001	 1.776491284168564e+001
 9.919510838020585e-001	 4.754293295137790e-001	 1.747456920283147e+001
 9.871132150100294e-001	 4.853941705205361e-001	 1.717933090944938e+001
 9.821669094579395e-001	 4.953263186969460e-001	 1.687956180369739e+001
 9.771124075337430e-001	 5.052240523544471e-001	 1.657563207884830e+001
 1.046011838691909e+000	 4.141065482611943e-001	 1.884387420770990e+001
 1.041844194592487e+000	 4.244828314437720e-001	 1.862101871192744e+001
 1.037564930234820e+000	 4.348379187056547e-001	 1.839148487226517e+001
 1.033174042808162e+000	 4.451700767869224e-001	 1.815557765197579e+001
 1.028671564182954e+000	 4.554775659050036e-001	 1.791360955596131e+001
 1.024057561231856e+000	 4.657586405943395e-001	 1.766590044839708e+001
 1.019332136127165e+000	 4.760115505601737e-001	 1.741277735757350e+001
 1.014495426614006e+000	 4.862345415457245e-001	 1.715457426798071e+001
 1.009547606258667e+000	 4.964258562119604e-001	 1.689163189968964e+001
 1.004488884671499e+000	 5.065837350291744e-001	 1.662429747510947e+001
 9.993195077038174e-001	 5.167064171795196e-001	 1.635292447323180e+001
 1.069256546218074e+000	 4.233089160010993e-001	 1.840548150251620e+001
 1.064996287805123e+000	 4.339157832535907e-001	 1.821242941681530e+001
 1.060621928683773e+000	 4.445009835650630e-001	 1.801293250529935e+001
 1.056133465980814e+000	 4.550627451587095e-001	 1.780728029290526e+001
 1.051530932274924e+000	 4.655992895901252e-001	 1.759576967437143e+001
 1.046814395924818e+000	 4.761088326056281e-001	 1.737870474741628e+001
 1.041983961373291e+000	 4.865895850150241e-001	 1.715639663342124e+001
 1.037039769426470e+000	 4.970397535780479e-001	 1.692916328561636e+001
 1.031981997507672e+000	 5.074575419036904e-001	 1.669732928479220e+001
 1.026810859885255e+000	 5.178411513615848e-001	 1.646122562258988e+001
 1.021526607873900e+000	 5.281887820046000e-001	 1.622118947244814e+001
 1.092501253745239e+000	 4.325112837404888e-001	 1.806401926208094e+001
 1.088148381018750e+000	 4.433487350631697e-001	 1.789979810445281e+001
 1.083678927133686e+000	 4.541640484244581e-001	 1.772934736918925e+001
 1.079092889154379e+000	 4.649554135306615e-001	 1.755294137320335e+001
 1.074390300367736e+000	 4.757210132755397e-001	 1.737086165016620e+001
 1.069571230618534e+000	 4.864590246172885e-001	 1.718339679941810e+001
 1.064635786620062e+000	 4.971676194702746e-001	 1.699084232264687e+001
 1.059584112239450e+000	 5.078449656107494e-001	 1.679350044830188e+001
 1.054416388757044e+000	 5.184892275957259e-001	 1.659167994373881e+001
 1.049132835099209e+000	 5.290985676941776e-001	 1.638569591511567e+001
 1.043733708043990e+000	 5.396711468296881e-001	 1.617586959508836e+001
 1.115745961273404e+000	 4.417136514793630e-001	 1.781450752731988e+001
 1.111300474233367e+000	 4.527816868725090e-001	 1.767822882503566e+001
 1.106735925584561e+000	 4.638271132838406e-001	 1.753591786993054e+001
 1.102052312328856e+000	 4.748480819027782e-001	 1.738783396260159e+001
 1.097249668461392e+000	 4.858427369612474e-001	 1.723424348574045e+001
 1.092328065313005e+000	 4.968092166293202e-001	 1.707541976898868e+001
 1.087287611867478e+000	 5.077456539259249e-001	 1.691164294179831e+001
 1.082128455052946e+000	 5.186501776438288e-001	 1.674319977423700e+001
 1.076850780006782e+000	 5.295209132880669e-001	 1.657038350570173e+001
 1.071454810313361e+000	 5.403559840269526e-001	 1.639349366153035e+001
 1.065940808214088e+000	 5.511535116547843e-001	 1.621283585752788e+001
 1.138990668802569e+000	 4.509160192177217e-001	 1.765241363531701e+001
 1.134452567448973e+000	 4.622146386816085e-001	 1.754326686544142e+001
 1.129792924036396e+000	 4.734901781432100e-001	 1.742826754104364e+001
 1.125011735504244e+000	 4.847407502750597e-001	 1.730766010200254e+001
 1.120109036555891e+000	 4.959644606472480e-001	 1.718169595363624e+001
 1.115084900008229e+000	 5.071594086417234e-001	 1.705063334774376e+001
 1.109939437115540e+000	 5.183236883819750e-001	 1.691473725186718e+001
 1.104672797866959e+000	 5.294553896772863e-001	 1.677427920668266e+001
 1.099285171256888e+000	 5.405525989807135e-001	 1.662953717145253e+001
 1.093776785527711e+000	 5.516134003599099e-001	 1.648079535749610e+001
 1.088147908384193e+000	 5.626358764798881e-001	 1.632834404966213e+001
 1.162235376332733e+000	 4.601183869555650e-001	 1.757360748970909e+001
 1.157604660665571e+000	 4.716475904904681e-001	 1.749085462556252e+001
 1.152849922489192e+000	 4.831532430025667e-001	 1.740241153082198e+001
 1.147971158680544e+000	 4.946334186475059e-001	 1.730850790636329e+001
 1.142968404651231e+000	 5.060861843335416e-001	 1.720938031952842e+001
 1.137841734704208e+000	 5.175096006544980e-001	 1.710527210162603e+001
 1.132591262364247e+000	 5.289017228384252e-001	 1.699643323384451e+001
 1.127217140681487e+000	 5.402606017111219e-001	 1.688312022145484e+001
 1.121719562507361e+000	 5.515842846736656e-001	 1.676559595620233e+001
 1.116098760742258e+000	 5.628708166930494e-001	 1.664412956681168e+001
 1.110355008554307e+000	 5.741182413050000e-001	 1.651899625755453e+001
 8.882840068535240e-001	 4.592945930542355e-001	 1.848533508479135e+001
 8.835908956630776e-001	 4.682596813065159e-001	 1.801633212563516e+001
 8.787999584278389e-001	 4.771903531077780e-001	 1.755184603185525e+001
 8.739115111371586e-001	 4.860850447508235e-001	 1.709275313899664e+001
 8.689259024546857e-001	 4.949421946742139e-001	 1.663993078995054e+001
 8.638435137714190e-001	 5.037602443012850e-001	 1.619425646469714e+001
 8.586647592332958e-001	 5.125376388839766e-001	 1.575660689978909e+001
 8.533900857430298e-001	 5.212728283505859e-001	 1.532785719886167e+001
 8.480199729359590e-001	 5.299642681565353e-001	 1.490887993549206e+001
 8.425549331296910e-001	 5.386104201372433e-001	 1.450054424976445e+001
 8.369955112473729e-001	 5.472097533621585e-001	 1.410371493993052e+001
 9.104911070235671e-001	 4.707769578792765e-001	 1.784269017793330e+001
 9.056806680544064e-001	 4.799661733393891e-001	 1.743749794601711e+001
 9.007699573891274e-001	 4.891201119369574e-001	 1.703386420874474e+001
 8.957592989168137e-001	 4.982371708721023e-001	 1.663253071558889e+001
 8.906490500177037e-001	 5.073157495443472e-001	 1.623424203962817e+001
 8.854396016175711e-001	 5.163542504126110e-001	 1.583974486171503e+001
 8.801313782159997e-001	 5.253510798601304e-001	 1.544978724329116e+001
 8.747248378882713e-001	 5.343046490634090e-001	 1.506511788886691e+001
 8.692204722606065e-001	 5.432133748642543e-001	 1.468648539921615e+001
 8.636188064585517e-001	 5.520756806439684e-001	 1.431463751637424e+001
 8.579203990283327e-001	 5.608899971987366e-001	 1.395032036155773e+001
 9.326982071936175e-001	 4.822593227043255e-001	 1.731464358898568e+001
 9.277704404455582e-001	 4.916726653720899e-001	 1.696326074858790e+001
 9.227399563500828e-001	 5.010498707658233e-001	 1.661059846980319e+001
 9.176070866960092e-001	 5.103892969929658e-001	 1.625726902390536e+001
 9.123721975801660e-001	 5.196893044140037e-001	 1.590388928449098e+001
 9.070356894631004e-001	 5.289482565234378e-001	 1.555108016140696e+001
 9.015979971980448e-001	 5.381645208358032e-001	 1.519946602223057e+001
 8.960595900328476e-001	 5.473364697758095e-001	 1.484967410205317e+001
 8.904209715846124e-001	 5.564624815716490e-001	 1.450233390235766e+001
 8.846826797868249e-001	 5.655409411505087e-001	 1.415807657981330e+001
 8.788452868087893e-001	 5.745702410353089e-001	 1.381753432584577e+001
 9.549053073636764e-001	 4.937416875293824e-001	 1.689434809381504e+001
 9.498602128365320e-001	 5.033791574046180e-001	 1.658748385358734e+001
 9.447099553107050e-001	 5.129796295943757e-001	 1.627661331772181e+001
 9.394548744747452e-001	 5.225414231134140e-001	 1.596222401686547e+001
 9.340953451420719e-001	 5.320628592831831e-001	 1.564480982890385e+001
 9.286317773080073e-001	 5.415422626337657e-001	 1.532487055833931e+001
 9.230646161794308e-001	 5.509779618109950e-001	 1.500291150212143e+001
 9.173943421767584e-001	 5.603682904877874e-001	 1.467944300242373e+001
 9.116214709079762e-001	 5.697115882787196e-001	 1.435497998690004e+001
 9.057465531145107e-001	 5.790062016568640e-001	 1.403004149698752e+001
 8.997701745887435e-001	 5.882504848718763e-001	 1.370515020485981e+001
 9.771124075337430e-001	 5.052240523544471e-001	 1.657563207884830e+001
 9.719499852273285e-001	 5.150856494369737e-001	 1.630464221658949e+001
 9.666799542709936e-001	 5.249093884226143e-001	 1.602702173605526e+001
 9.613026622530214e-001	 5.346935492334473e-001	 1.574313782769296e+001
 9.558184927034219e-001	 5.444364141518853e-001	 1.545336574373399e+001
 9.502278651522912e-001	 5.541362687435947e-001	 1.515808851903927e+001
 9.445312351601576e-001	 5.637914027857061e-001	 1.485769667728941e+001
 9.387290943200036e-001	 5.734001111993425e-001	 1.455258792276394e+001
 9.328219702306989e-001	 5.829606949854662e-001	 1.424316681799147e+001
 9.268104264416097e-001	 5.924714621630345e-001	 1.392984444758847e+001
 9.206950623681951e-001	 6.019307287084381e-001	 1.361303806863941e+001
 9.993195077038174e-001	 5.167064171795196e-001	 1.635292447323180e+001
 9.940397576179476e-001	 5.267921414691568e-001	 1.610975446902038e+001
 9.886499532309492e-001	 5.368391472505394e-001	 1.585742424690367e+001
 9.831504500308382e-001	 5.468456753530651e-001	 1.559618474988224e+001
 9.775416402642159e-001	 5.568099690201106e-001	 1.532629667007268e+001
 9.718239529959529e-001	 5.667302748529245e-001	 1.504803030733253e+001
 9.659978541402254e-001	 5.766048437599363e-001	 1.476166541211515e+001
 9.600638464625833e-001	 5.864319319104749e-001	 1.446749101255441e+001
 9.540224695527798e-001	 5.962098016918889e-001	 1.416580522581535e+001
 9.478742997681207e-001	 6.059367226690197e-001	 1.385691505378322e+001
 9.416199501471442e-001	 6.156109725449948e-001	 1.354113616320151e+001
 1.021526607873900e+000	 5.281887820046000e-001	 1.622118947244814e+001
 1.016129530008389e+000	 5.384986335011673e-001	 1.599832382295636e+001
 1.010619952190571e+000	 5.487689060781508e-001	 1.576385591759188e+001
 1.004998237808195e+000	 5.589978014722677e-001	 1.551792426325562e+001
 9.992647878244538e-001	 5.691835238878588e-001	 1.526067877899349e+001
 9.934200408389919e-001	 5.793242809617556e-001	 1.499228078898464e+001
 9.874644731196336e-001	 5.894182847336852e-001	 1.471290299863681e+001
 9.813985986044971e-001	 5.994637526211848e-001	 1.442272945354793e+001
 9.752229688742190e-001	 6.094589083979873e-001	 1.412195548113011e+001
 9.689381730940443e-001	 6.194019831748200e-001	 1.381078761472856e+001
 9.625448379255903e-001	 6.292912163815461e-001	 1.359966220114792e+001
 1.043733708043990e+000	 5.396711468296881e-001	 1.617586959508836e+001
 1.038219302398653e+000	 5.502051255330052e-001	 1.596628651999068e+001
 1.032589951149860e+000	 5.606986649054486e-001	 1.574274013245392e+001
 1.026846025585093e+000	 5.711499275910553e-001	 1.550526005669437e+001
 1.020987935384136e+000	 5.815570787551299e-001	 1.525388897049029e+001
 1.015016128681408e+000	 5.919182870700874e-001	 1.498868272936715e+001
 1.008931092098383e+000	 6.022317257069533e-001	 1.470971047275690e+001
 1.002733350745746e+000	 6.124955733314719e-001	 1.441705471165516e+001
 9.964234681950166e-001	 6.227080151037618e-001	 1.411081139733563e+001
 9.900020464193808e-001	 6.328672436804355e-001	 1.399521171290412e+001
 9.834697257035339e-001	 6.429714602180920e-001	 1.392411199729392e+001
 1.065940808214088e+000	 5.511535116547843e-001	 1.621283585752788e+001
 1.060309074788740e+000	 5.619116175646708e-001	 1.600996672399203e+001
 1.054559950108815e+000	 5.726284237324327e-001	 1.579084814314428e+001
 1.048693813361531e+000	 5.833020537094278e-001	 1.555540417302816e+001
 1.042711082943262e+000	 5.939306336219241e-001	 1.530357354754803e+001
 1.036612216523202e+000	 6.045122931779202e-001	 1.503530992891522e+001
 1.030397711076473e+000	 6.150451666797403e-001	 1.475058214092319e+001
 1.024068102886329e+000	 6.255273940413364e-001	 1.446312849646094e+001
 1.017623967515173e+000	 6.359571218092122e-001	 1.441763096298718e+001
 1.011065919744130e+000	 6.463325041858656e-001	 1.435450988134355e+001
 1.004394613480975e+000	 6.566517040546329e-001	 1.427359097244721e+001
 1.088147908384193e+000	 5.626358764798881e-001	 1.632834404966213e+001
 1.082398847178649e+000	 5.736181095961634e-001	 1.612603693719822e+001
 1.076529949067438e+000	 5.845581825591033e-001	 1.590526357197257e+001
 1.070541601137510e+000	 5.954541798273849e-001	 1.566584554434638e+001
 1.064434230501831e+000	 6.063041884882412e-001	 1.540762072604153e+001
 1.058208304364373e+000	 6.171062992852540e-001	 1.513044364812124e+001
 1.051864330053904e+000	 6.278586076520466e-001	 1.490878486221086e+001
 1.045402855026247e+000	 6.385592147507784e-001	 1.487312036844052e+001
 1.038824466834687e+000	 6.492062285143386e-001	 1.481751670738246e+001
 1.032129793068291e+000	 6.597977646911112e-001	 1.474169837504306e+001
 1.025319501257913e+000	 6.703319478911681e-001	 1.464539679850475e+001
 1.110355008554307e+000	 5.741182413050000e-001	 1.651899625755453e+001
 1.104488619568381e+000	 5.853246016274840e-001	 1.631148316637947e+001
 1.098499948025726e+000	 5.964879413854602e-001	 1.608335117483759e+001
 1.092389388913029e+000	 6.076063059449269e-001	 1.583432230307224e+001
 1.086157378059845e+000	 6.186777433540810e-001	 1.556413644344644e+001
 1.079804392204922e+000	 6.297003053920890e-001	 1.539476134534030e+001
 1.073330949030676e+000	 6.406720486238721e-001	 1.536779905670904e+001
 1.066737607165499e+000	 6.515910354597975e-001	 1.531890037008795e+001
 1.060024966153559e+000	 6.624553352191407e-001	 1.524768943304200e+001
 1.053193666391866e+000	 6.732630251961717e-001	 1.515379812837071e+001
 1.046244389034349e+000	 6.840121917276982e-001	 1.503686646027036e+001
 8.369955112473729e-001	 5.472097533621585e-001	 1.410371493993052e+001
 8.313422847138690e-001	 5.557607449888236e-001	 1.373363464035248e+001
 8.255958633264966e-001	 5.642618811166034e-001	 1.334993110705415e+001
 8.197568890991045e-001	 5.727116576387266e-001	 1.295271589104729e+001
 8.138260360782970e-001	 5.811085810912835e-001	 1.254211438282622e+001
 8.078040101335782e-001	 5.894511694987999e-001	 1.211826579947867e+001
 8.016915487208972e-001	 5.977379532152195e-001	 1.168132315165564e+001
 7.954894206196911e-001	 6.059674757593236e-001	 1.123145319026931e+001
 7.891984256435694e-001	 6.141382946436214e-001	 1.076883633283623e+001
 7.828193943248221e-001	 6.222489821957408e-001	 1.029366656942562e+001
 7.763531875729710e-001	 6.302981263713646e-001	 9.918494960806573e+000
 8.579203990283327e-001	 5.608899971987366e-001	 1.395032036155773e+001
 8.521258418306248e-001	 5.696547636152222e-001	 1.356300369219084e+001
 8.462357599078701e-001	 5.783684281454594e-001	 1.316328488518911e+001
 8.402508113242636e-001	 5.870294490800073e-001	 1.275130880370032e+001
 8.341716869775759e-001	 5.956362956183594e-001	 1.232723330432154e+001
 8.279991103840489e-001	 6.041874487356548e-001	 1.189122918611026e+001
 8.217338374360311e-001	 6.126814020446862e-001	 1.144348012020540e+001
 8.153766561324449e-001	 6.211166626522042e-001	 1.098418255999581e+001
 8.089283862822418e-001	 6.294917520085318e-001	 1.061387874695684e+001
 8.023898791810186e-001	 6.378052067494873e-001	 1.031571513672170e+001
 7.957620172610354e-001	 6.460555795296462e-001	 1.000237263471886e+001
 8.788452868087893e-001	 5.745702410353089e-001	 1.381753432584577e+001
 8.729093989469730e-001	 5.835487822418006e-001	 1.341483994036025e+001
 8.668756564889211e-001	 5.924749751746506e-001	 1.300088546765860e+001
 8.607447335491761e-001	 6.013472405217495e-001	 1.257584802718201e+001
 8.545173378766735e-001	 6.101640101459926e-001	 1.213991693940538e+001
 8.481942106343934e-001	 6.189237279731327e-001	 1.169329363795238e+001
 8.417761261510836e-001	 6.276248508748117e-001	 1.129740959387184e+001
 8.352638916451532e-001	 6.362658495457498e-001	 1.103005764063444e+001
 8.286583469208936e-001	 6.448452093740826e-001	 1.074877634057849e+001
 8.219603640372099e-001	 6.533614313038200e-001	 1.045360382864162e+001
 8.151708469490998e-001	 6.618130326884288e-001	 1.014458605330103e+001
 8.997701745887435e-001	 5.882504848718763e-001	 1.370515020485981e+001
 8.936929560629136e-001	 5.974428008685592e-001	 1.328880978073256e+001
 8.875155530696498e-001	 6.065815222041773e-001	 1.286227674407714e+001
 8.812386557738414e-001	 6.156650319639527e-001	 1.242575948688551e+001
 8.748629887755890e-001	 6.246917246741829e-001	 1.197947786098405e+001
 8.683893108846116e-001	 6.336600072112341e-001	 1.173194215012026e+001
 8.618184148660554e-001	 6.425682997055963e-001	 1.147909261371921e+001
 8.551511271578163e-001	 6.514150364399606e-001	 1.121352187049059e+001
 8.483883075595256e-001	 6.601986667402745e-001	 1.093527570697989e+001
 8.415308488933959e-001	 6.689176558587388e-001	 1.064440608260006e+001
 8.345796766371638e-001	 6.775704858477131e-001	 1.034097116705626e+001
 9.206950623681951e-001	 6.019307287084381e-001	 1.361303806863941e+001
 9.144765131784466e-001	 6.113368194954976e-001	 1.318466814781164e+001
 9.081554496500564e-001	 6.206880692340399e-001	 1.274710254303856e+001
 9.017325779982595e-001	 6.299828234066174e-001	 1.242395838131390e+001
 8.952086396743232e-001	 6.392194392029306e-001	 1.219623564662586e+001
 8.885844111347037e-001	 6.483962864499585e-001	 1.195687927290168e+001
 8.818607035809464e-001	 6.575117485370403e-001	 1.170594028140937e+001
 8.750383626704336e-001	 6.665642233348363e-001	 1.144347425448151e+001
 8.681182681981372e-001	 6.755521241071069e-001	 1.116954134681234e+001
 8.611013337495770e-001	 6.844738804142437e-001	 1.088420630071174e+001
 8.539885063252279e-001	 6.933279390074986e-001	 1.058753846530501e+001
 9.416199501471442e-001	 6.156109725449948e-001	 1.354113616320151e+001
 9.352600702935722e-001	 6.252308381226158e-001	 1.310809235643785e+001
 9.287953462301402e-001	 6.347946162642376e-001	 1.290250324647410e+001
 9.222265002224308e-001	 6.443006148497432e-001	 1.268627860524090e+001
 9.155542905728753e-001	 6.537471537322354e-001	 1.245947986040028e+001
 9.087795113846693e-001	 6.631325656893063e-001	 1.222217149465595e+001
 9.019029922957563e-001	 6.724551973691435e-001	 1.197442102144905e+001
 8.949255981830057e-001	 6.817134102303772e-001	 1.171629896710303e+001
 8.878482288367287e-001	 6.909055814745805e-001	 1.144787885952831e+001
 8.806718186057532e-001	 7.000301049703350e-001	 1.116923722356191e+001
 8.733973360132922e-001	 7.090853921677851e-001	 1.088045358298288e+001
 9.625448379255903e-001	 6.292912163815461e-001	 1.359966220114792e+001
 9.560436274082902e-001	 6.391248567499139e-001	 1.340378200620551e+001
 9.494352428099019e-001	 6.489011632947709e-001	 1.319824459287340e+001
 9.427204224463547e-001	 6.586184062933302e-001	 1.298312838423693e+001
 9.358999414712462e-001	 6.682748682620973e-001	 1.275851341060922e+001
 9.289746116345087e-001	 6.778688449292772e-001	 1.252448124938294e+001
 9.219452810104857e-001	 6.873986462019059e-001	 1.228111497373073e+001
 9.148128336955315e-001	 6.968625971265827e-001	 1.202849911036845e+001
 9.075781894752996e-001	 7.062590388426943e-001	 1.176671960655484e+001
 9.002423034619242e-001	 7.155863295270125e-001	 1.149586380645935e+001
 8.928061657013564e-001	 7.248428453285732e-001	 1.121602043698655e+001
 9.834697257035339e-001	 6.429714602180920e-001	 1.392411199729392e+001
 9.768271845226005e-001	 6.530188753773920e-001	 1.372849646517634e+001
 9.700751393893412e-001	 6.630077103256394e-001	 1.352423618979765e+001
 9.632143446700322e-001	 6.729361977373788e-001	 1.331142883602550e+001
 9.562455923694354e-001	 6.828025827925167e-001	 1.309017218063662e+001
 9.491697118842221e-001	 6.926051241698716e-001	 1.286056402328382e+001
 9.419875697251342e-001	 7.023420950353277e-001	 1.262270210891757e+001
 9.347000692080125e-001	 7.120117840234539e-001	 1.237668406194475e+001
 9.273081501138503e-001	 7.216124962114487e-001	 1.212260733236055e+001
 9.198127883180901e-001	 7.311425540842760e-001	 1.186056915404010e+001
 9.122149953894206e-001	 7.406002984898628e-001	 1.159066651532700e+001
 1.004394613480975e+000	 6.566517040546329e-001	 1.427359097244721e+001
 9.976107416365034e-001	 6.669128940050499e-001	 1.407939779020401e+001
 9.907150359684585e-001	 6.771142573568437e-001	 1.387755256352592e+001
 9.837082668934620e-001	 6.872539891818885e-001	 1.366817141041709e+001
 9.765912432674427e-001	 6.973302973234932e-001	 1.345136904532595e+001
 9.693648121338088e-001	 7.073414034110890e-001	 1.322725866182305e+001
 9.620298584397017e-001	 7.172855438694087e-001	 1.299595182940448e+001
 9.545873047204478e-001	 7.271609709209900e-001	 1.275755840477209e+001
 9.470381107523809e-001	 7.369659535808441e-001	 1.251218645788827e+001
 9.393832731742510e-001	 7.466987786421258e-001	 1.225994221304584e+001
 9.316238250774851e-001	 7.563577516516536e-001	 1.200093000513820e+001
 1.025319501257913e+000	 6.703319478911681e-001	 1.464539679850475e+001
 1.018394298749999e+000	 6.808069126328878e-001	 1.445369846263754e+001
 1.011354932547253e+000	 6.912208043883834e-001	 1.425532515755475e+001
 1.004202189116645e+000	 7.015717806268595e-001	 1.405041071256553e+001
 9.969368941652685e-001	 7.118580118550271e-001	 1.383908601470889e+001
 9.895599123832697e-001	 7.220776826529298e-001	 1.362147886368130e+001
 9.820721471541882e-001	 7.322289927041487e-001	 1.339771384363132e+001
 9.744745402328375e-001	 7.423101578191911e-001	 1.316791221223993e+001
 9.667680713908915e-001	 7.523194109508806e-001	 1.293219180744560e+001
 9.589537580304068e-001	 7.622550032005616e-001	 1.269066697210903e+001
 9.510326547655491e-001	 7.721152048139458e-001	 1.244344849684832e+001
 1.046244389034349e+000	 6.840121917276982e-001	 1.503686646027036e+001
 1.039177855863086e+000	 6.947009312609056e-001	 1.484865634587186e+001
 1.031994829125725e+000	 7.053273514202587e-001	 1.465473664087642e+001
 1.024696111339581e+000	 7.158895720722919e-001	 1.445525818743382e+001
 1.017282545062913e+000	 7.263857263871183e-001	 1.425036732048647e+001
 1.009755012632604e+000	 7.368139618953938e-001	 1.404020569543375e+001
 1.002114435868594e+000	 7.471724415395479e-001	 1.382491013547846e+001
 9.943617757451818e-001	 7.574593447180572e-001	 1.360461249914211e+001
 9.864980320293816e-001	 7.676728683215576e-001	 1.337943956836842e+001
 9.785242428865577e-001	 7.778112277595839e-001	 1.314951295756368e+001
 9.704414844536136e-001	 7.878726579767392e-001	 1.291494904385008e+001
 7.763531875729710e-001	 6.302981263713646e-001	 9.918494960806573e+000
 7.698006963084499e-001	 6.382843315578651e-001	 9.502076662313161e+000
 7.631628410692363e-001	 6.462062193673844e-001	 9.089511608312270e+000
 7.564405715924579e-001	 6.540624294185955e-001	 8.681385877756423e+000
 7.496348663729668e-001	 6.618516201064839e-001	 8.278279098515695e+000
 7.427467321968387e-001	 6.695724693589141e-001	 7.880763913698692e+000
 7.357772036510777e-001	 6.772236753791964e-001	 7.489405462723235e+000
 7.287273426100213e-001	 6.848039573737852e-001	 7.104760877930914e+000
 7.215982376989777e-001	 6.923120562642573e-001	 6.727378797494466e+000
 7.143910037356573e-001	 6.997467353827421e-001	 6.357798895318370e+000
 7.071067811500000e-001	 7.071067811500000e-001	 5.996551428586659e+000
 7.957620172610354e-001	 6.460555795296462e-001	 1.000237263471886e+001
 7.890457137156018e-001	 6.542414398460118e-001	 9.626199880080065e+000
 7.822419120960088e-001	 6.623613748509768e-001	 9.252691535793735e+000
 7.753515858828121e-001	 6.704139901536806e-001	 8.882372407906949e+000
 7.683757380332352e-001	 6.783979106089841e-001	 8.515761277490290e+000
 7.613154005030054e-001	 6.863117810929479e-001	 8.153370434961877e+000
 7.541716337438018e-001	 6.941542672639653e-001	 7.795705229307902e+000
 7.469455261768200e-001	 7.019240563086515e-001	 7.443263632874489e+000
 7.396381936430017e-001	 7.096198576716234e-001	 7.096535822355143e+000
 7.322507788304987e-001	 7.172404037683132e-001	 6.756003776553431e+000
 7.247844506799999e-001	 7.247844506800000e-001	 6.422140891447471e+000
 8.151708469490998e-001	 6.618130326884288e-001	 1.014458605330103e+001
 8.082907311227530e-001	 6.701985481345644e-001	 9.804369366148031e+000
 8.013209831227810e-001	 6.785165303348899e-001	 9.465687161599313e+000
 7.942626001731662e-001	 6.867655508890120e-001	 9.129004664848166e+000
 7.871166096935036e-001	 6.949442011116654e-001	 8.794781441936934e+000
 7.798840688091724e-001	 7.030510928271078e-001	 8.463471000810859e+000
 7.725660638365259e-001	 7.110848591488147e-001	 8.135520407520096e+000
 7.651637097436191e-001	 7.190441552435632e-001	 7.811369918123892e+000
 7.576781495870251e-001	 7.269276590790097e-001	 7.491452626802131e+000
 7.501105539253400e-001	 7.347340721538892e-001	 7.176194130629718e+000
 7.424621202100000e-001	 7.424621202100000e-001	 6.866012211417779e+000
 8.345796766371638e-001	 6.775704858477131e-001	 1.034097116705626e+001
 8.275357485299048e-001	 6.861556564235237e-001	 1.003273466031870e+001
 8.204000541495530e-001	 6.946716858191245e-001	 9.724959890933333e+000
 8.131736144635205e-001	 7.031171116245892e-001	 9.418054032490765e+000
 8.058574813537724e-001	 7.114904916145273e-001	 9.112418905259128e+000
 7.984527371153392e-001	 7.197904045613931e-001	 8.808450642849541e+000
 7.909604939292499e-001	 7.280154510337445e-001	 8.506539374384323e+000
 7.833818933104180e-001	 7.361642541785204e-001	 8.207068922604741e+000
 7.757181055310489e-001	 7.442354604864162e-001	 7.910416518304352e+000
 7.679703290201809e-001	 7.522277405394702e-001	 7.616952531420667e+000
 7.601397897400000e-001	 7.601397897400000e-001	 7.327040219066755e+000
 8.539885063252279e-001	 6.933279390074986e-001	 1.058753846530501e+001
 8.467807659370565e-001	 7.021127647128891e-001	 1.030759169484287e+001
 8.394791251763255e-001	 7.108268413036801e-001	 1.002708965016504e+001
 8.320846287538747e-001	 7.194686723604122e-001	 9.746382833498618e+000
 8.245983530140408e-001	 7.280367821175700e-001	 9.465816639706356e+000
 8.170214054215058e-001	 7.365297162958036e-001	 9.185731087585447e+000
 8.093549240219742e-001	 7.449460429187544e-001	 8.906460567129393e+000
 8.016000768772170e-001	 7.532843531135226e-001	 8.628333603073099e+000
 7.937580614750727e-001	 7.615432618938425e-001	 8.351672634988413e+000
 7.858301041150225e-001	 7.697214089250561e-001	 8.076793814142171e+000
 7.778174592700000e-001	 7.778174592700000e-001	 7.804006817274861e+000
 8.733973360132922e-001	 7.090853921677851e-001	 1.088045358298288e+001
 8.660257833442079e-001	 7.180698730026608e-001	 1.062536652859288e+001
 8.585581962030977e-001	 7.269819967885570e-001	 1.036876171780983e+001
 8.509956430442287e-001	 7.358202330964818e-001	 1.011093422498264e+001
 8.433392246743089e-001	 7.445830726207935e-001	 9.852174203168655e+000
 8.355900737276727e-001	 7.532690280303399e-001	 9.592766679218110e+000
 8.277493541146984e-001	 7.618766348038450e-001	 9.332991365387949e+000
 8.198182604440162e-001	 7.704044520485703e-001	 9.073122487689803e+000
 8.117980174190966e-001	 7.788510633012893e-001	 8.813428631121038e+000
 8.036898792098638e-001	 7.872150773106473e-001	 8.554172601870132e+000
 7.954951288000000e-001	 7.954951288000000e-001	 8.295611306532528e+000
 8.928061657013564e-001	 7.248428453285732e-001	 1.121602043698655e+001
 8.852708007513596e-001	 7.340269812928388e-001	 1.098260120286436e+001
 8.776372672298698e-001	 7.431371522737549e-001	 1.074675527320930e+001
 8.699066573345831e-001	 7.521717938327970e-001	 1.050872341214808e+001
 8.620800963345776e-001	 7.611293631241980e-001	 1.026874158856374e+001
 8.541587420338394e-001	 7.700083397650016e-001	 1.002704083423786e+001
 8.461437842074225e-001	 7.788072266890158e-001	 9.783847119195997e+000
 8.380364440108148e-001	 7.875245509836628e-001	 9.539381244346229e+000
 8.298379733631203e-001	 7.961588647087557e-001	 9.293858751441643e+000
 8.215496543047051e-001	 8.047087456962433e-001	 9.047489850338263e+000
 8.131727983300000e-001	 8.131727983300000e-001	 8.800479363461001e+000
 9.122149953894206e-001	 7.406002984898628e-001	 1.159066651532700e+001
 9.045158181585112e-001	 7.499840895834230e-001	 1.137594140282055e+001
 8.967163382566421e-001	 7.592923077592741e-001	 1.115793340708127e+001
 8.888176716249373e-001	 7.685233545693583e-001	 1.093682998360339e+001
 8.808209679948459e-001	 7.776756536277827e-001	 1.071281385840836e+001
 8.727274103400066e-001	 7.867476514997894e-001	 1.048606294862893e+001
 8.645382143001467e-001	 7.957378185742671e-001	 1.025675030107772e+001
 8.562546275776137e-001	 8.046446499188008e-001	 1.002504404877794e+001
 8.478779293071440e-001	 8.134666661162425e-001	 9.791107385367566e+000
 8.394094293995461e-001	 8.222024140818445e-001	 9.555098557229918e+000
 8.308504678599999e-001	 8.308504678599999e-001	 9.317170873138565e+000
 9.316238250774851e-001	 7.563577516516536e-001	 1.200093000513820e+001
 9.237608355656627e-001	 7.659411978744137e-001	 1.180212566125609e+001
 9.157954092834143e-001	 7.754474632451146e-001	 1.159923438075168e+001
 9.077286859152912e-001	 7.848749153061655e-001	 1.139239120475574e+001
 8.995618396551142e-001	 7.942219441315488e-001	 1.118172645006845e+001
 8.912960786461730e-001	 8.034869632347023e-001	 1.096736569167199e+001
 8.829326443928710e-001	 8.126684104595988e-001	 1.074942976411957e+001
 8.744728111444128e-001	 8.217647488539838e-001	 1.052803478166421e+001
 8.659178852511675e-001	 8.307744675237494e-001	 1.030329217692315e+001
 8.572692044943875e-001	 8.396960824674506e-001	 1.007530875780809e+001
 8.485281373899998e-001	 8.485281373899998e-001	 9.844186782386551e+000
 9.510326547655491e-001	 7.721152048139458e-001	 1.244344849684832e+001
 9.430058529728143e-001	 7.818983061658105e-001	 1.225797588434885e+001
 9.348744803101866e-001	 7.916026187312760e-001	 1.206766395568416e+001
 9.266397002056452e-001	 8.012264760432185e-001	 1.187259613242336e+001
 9.183027113153827e-001	 8.107682346354952e-001	 1.167285105587649e+001
 9.098647469523398e-001	 8.202262749697410e-001	 1.146850263111839e+001
 9.013270744855951e-001	 8.295990023450108e-001	 1.125962009089247e+001
 8.926909947112116e-001	 8.388848477892122e-001	 1.104626807914407e+001
 8.839578411951915e-001	 8.480822689312765e-001	 1.082850675386180e+001
 8.751289795892289e-001	 8.571897508530619e-001	 1.060639190883617e+001
 8.662058069199999e-001	 8.662058069199999e-001	 1.037997511387700e+001
 9.704414844536136e-001	 7.878726579767392e-001	 1.291494904385008e+001
 9.622508703799659e-001	 7.978554144576137e-001	 1.274038901432153e+001
 9.539535513369589e-001	 8.077577742177586e-001	 1.256028864346633e+001
 9.455507144959997e-001	 8.175780367805178e-001	 1.237468043569456e+001
 9.370435829756513e-001	 8.273145251396229e-001	 1.218359199763489e+001
 9.284334152585064e-001	 8.369655867049053e-001	 1.198704614334254e+001
 9.197215045783193e-001	 8.465295942305033e-001	 1.178506102050343e+001
 9.109091782780108e-001	 8.560049467244858e-001	 1.157765025727030e+001
 9.019977971392151e-001	 8.653900703388234e-001	 1.136482312929272e+001
 8.929887546840701e-001	 8.746834192386782e-001	 1.114658474642772e+001
 8.838834764499999e-001	 8.838834764499999e-001	 1.092293625854779e+001
 7.071067811500000e-001	 7.071067811500000e-001	 5.996551428586659e+000
 6.997467353827424e-001	 7.143910037356571e-001	 5.695889157295865e+000
 6.923120562642576e-001	 7.215982376989775e-001	 5.397638312074128e+000
 6.848039573737854e-001	 7.287273426100208e-001	 5.102181487008413e+000
 6.772236753791966e-001	 7.357772036510774e-001	 4.809896415212554e+000
 6.695724693589144e-001	 7.427467321968385e-001	 4.521155722776599e+000
 6.618516201064841e-001	 7.496348663729666e-001	 4.236326694836399e+000
 6.540624294185958e-001	 7.564405715924577e-001	 3.955771053891977e+000
 6.462062193673847e-001	 7.631628410692362e-001	 3.679844750463821e+000
 6.382843315578655e-001	 7.698006963084497e-001	 3.408897766139654e+000
 6.302981263713646e-001	 7.763531875729710e-001	 3.143273929031561e+000
 7.247844506799999e-001	 7.247844506800000e-001	 6.422140891447471e+000
 7.172404037683134e-001	 7.322507788304985e-001	 6.139436047357089e+000
 7.096198576716237e-001	 7.396381936430012e-001	 5.858448319856697e+000
 7.019240563086520e-001	 7.469455261768198e-001	 5.579525626404474e+000
 6.941542672639656e-001	 7.541716337438016e-001	 5.303011143374707e+000
 6.863117810929484e-001	 7.613154005030052e-001	 5.029243105618416e+000
 6.783979106089845e-001	 7.683757380332349e-001	 4.758554618380511e+000
 6.704139901536809e-001	 7.753515858828121e-001	 4.491273481606797e+000
 6.623613748509768e-001	 7.822419120960085e-001	 4.227722026633155e+000
 6.542414398460121e-001	 7.890457137156015e-001	 3.968216965213530e+000
 6.460555795296461e-001	 7.957620172610354e-001	 3.713069250807880e+000
 7.424621202100000e-001	 7.424621202100000e-001	 6.866012211417779e+000
 7.347340721538893e-001	 7.501105539253395e-001	 6.599239012471819e+000
 7.269276590790101e-001	 7.576781495870252e-001	 6.333510371710099e+000
 7.190441552435638e-001	 7.651637097436188e-001	 6.069139837007039e+000
 7.110848591488148e-001	 7.725660638365257e-001	 5.806436300628593e+000
 7.030510928271080e-001	 7.798840688091719e-001	 5.545703844810470e+000
 6.949442011116658e-001	 7.871166096935036e-001	 5.287241599996102e+000
 6.867655508890121e-001	 7.942626001731660e-001	 5.031343615669045e+000
 6.785165303348903e-001	 8.013209831227807e-001	 4.778298743673735e+000
 6.701985481345649e-001	 8.082907311227530e-001	 4.528390533882158e+000
 6.618130326884288e-001	 8.151708469490996e-001	 4.281897142027251e+000
 7.601397897400000e-001	 7.601397897400000e-001	 7.327040219066755e+000
 7.522277405394704e-001	 7.679703290201808e-001	 7.074349930088437e+000
 7.442354604864165e-001	 7.757181055310487e-001	 6.822053645729553e+000
 7.361642541785206e-001	 7.833818933104179e-001	 6.570430749773390e+000
 7.280154510337445e-001	 7.909604939292501e-001	 6.319756020918901e+000
 7.197904045613931e-001	 7.984527371153388e-001	 6.070299524890702e+000
 7.114904916145276e-001	 8.058574813537719e-001	 5.822326519578829e+000
 7.031171116245893e-001	 8.131736144635202e-001	 5.576097373041344e+000
 6.946716858191248e-001	 8.204000541495526e-001	 5.331867494164444e+000
 6.861556564235243e-001	 8.275357485299045e-001	 5.089887275735690e+000
 6.775704858477131e-001	 8.345796766371638e-001	 4.850402049648031e+000
 7.778174592700000e-001	 7.778174592700000e-001	 7.804006817274861e+000
 7.697214089250566e-001	 7.858301041150223e-001	 7.563713139213406e+000
 7.615432618938427e-001	 7.937580614750724e-001	 7.323185250273659e+000
 7.532843531135228e-001	 8.016000768772167e-001	 7.082668481078595e+000
 7.449460429187547e-001	 8.093549240219740e-001	 6.842403572143419e+000
 7.365297162958037e-001	 8.170214054215056e-001	 6.602626613132896e+000
 7.280367821175702e-001	 8.245983530140403e-001	 6.363568995584765e+000
 7.194686723604128e-001	 8.320846287538743e-001	 6.125457378830958e+000
 7.108268413036804e-001	 8.394791251763250e-001	 5.888513668808368e+000
 7.021127647128895e-001	 8.467807659370562e-001	 5.652955009409264e+000
 6.933279390074987e-001	 8.539885063252281e-001	 5.418993785985596e+000
 7.954951288000000e-001	 7.954951288000000e-001	 8.295611306532528e+000
 7.872150773106477e-001	 8.036898792098633e-001	 8.066177389126985e+000
 7.788510633012895e-001	 8.117980174190961e-001	 7.835903787268675e+000
 7.704044520485704e-001	 8.198182604440156e-001	 7.605001801002673e+000
 7.618766348038453e-001	 8.277493541146982e-001	 7.373678119047268e+000
 7.532690280303401e-001	 8.355900737276725e-001	 7.142134805908909e+000
 7.445830726207940e-001	 8.433392246743090e-001	 6.910569302967746e+000
 7.358202330964820e-001	 8.509956430442286e-001	 6.679174443163165e+000
 7.269819967885574e-001	 8.585581962030974e-001	 6.448138478863915e+000
 7.180698730026613e-001	 8.660257833442077e-001	 6.217645122466657e+000
 7.090853921677852e-001	 8.733973360132923e-001	 5.987873599228384e+000
 8.131727983300000e-001	 8.131727983300000e-001	 8.800479363461001e+000
 8.047087456962437e-001	 8.215496543047046e-001	 8.580506229570890e+000
 7.961588647087559e-001	 8.298379733631198e-001	 8.359111146385795e+000
 7.875245509836631e-001	 8.380364440108147e-001	 8.136471323145052e+000
 7.788072266890160e-001	 8.461437842074221e-001	 7.912759299652544e+000
 7.700083397650022e-001	 8.541587420338392e-001	 7.688142982047967e+000
 7.611293631241981e-001	 8.620800963345772e-001	 7.462785693125812e+000
 7.521717938327973e-001	 8.699066573345825e-001	 7.236846236722641e+000
 7.431371522737553e-001	 8.776372672298695e-001	 7.010478975649670e+000
 7.340269812928392e-001	 8.852708007513591e-001	 6.783833922603884e+000
 7.248428453285735e-001	 8.928061657013564e-001	 6.557056843451682e+000
 8.308504678599999e-001	 8.308504678599999e-001	 9.317170873138565e+000
 8.222024140818448e-001	 8.394094293995459e-001	 9.105387074529261e+000
 8.134666661162426e-001	 8.478779293071436e-001	 8.891622793578783e+000
 8.046446499188011e-001	 8.562546275776136e-001	 8.676021010633395e+000
 7.957378185742673e-001	 8.645382143001462e-001	 8.458719940867111e+000
 7.867476514997895e-001	 8.727274103400060e-001	 8.239853119596452e+000
 7.776756536277830e-001	 8.808209679948457e-001	 8.019549502789769e+000
 7.685233545693584e-001	 8.888176716249369e-001	 7.797933582183287e+000
 7.592923077592746e-001	 8.967163382566420e-001	 7.575125514367763e+000
 7.499840895834233e-001	 9.045158181585108e-001	 7.351241263167068e+000
 7.406002984898628e-001	 9.122149953894206e-001	 7.126392754587168e+000
 8.485281373899998e-001	 8.485281373899998e-001	 9.844186782386551e+000
 8.396960824674509e-001	 8.572692044943873e-001	 9.639439133036442e+000
 8.307744675237496e-001	 8.659178852511674e-001	 9.432176773554870e+000
 8.217647488539841e-001	 8.744728111444123e-001	 9.222508243880874e+000
 8.126684104595990e-001	 8.829326443928707e-001	 9.010537184642436e+000
 8.034869632347024e-001	 8.912960786461726e-001	 8.796362472982656e+000
 7.942219441315490e-001	 8.995618396551139e-001	 8.580078374301284e+000
 7.848749153061657e-001	 9.077286859152911e-001	 8.361774709209508e+000
 7.754474632451148e-001	 9.157954092834140e-001	 8.141537034949360e+000
 7.659411978744141e-001	 9.237608355656626e-001	 7.919446840480698e+000
 7.563577516516535e-001	 9.316238250774851e-001	 7.695581754396414e+000
 8.662058069199999e-001	 8.662058069199999e-001	 1.037997511387700e+001
 8.571897508530622e-001	 8.751289795892283e-001	 1.018122036886589e+001
 8.480822689312767e-001	 8.839578411951911e-001	 9.979441609901832e+000
 8.388848477892126e-001	 8.926909947112113e-001	 9.774712655557289e+000
 8.295990023450112e-001	 9.013270744855947e-001	 9.567102251744556e+000
 8.202262749697412e-001	 9.098647469523393e-001	 9.356674259100586e+000
 8.107682346354957e-001	 9.183027113153826e-001	 9.143487857081025e+000
 8.012264760432187e-001	 9.266397002056450e-001	 8.927597763946864e+000
 7.916026187312764e-001	 9.348744803101864e-001	 8.709054471776275e+000
 7.818983061658108e-001	 9.430058529728141e-001	 8.487904495584290e+000
 7.721152048139458e-001	 9.510326547655491e-001	 8.264190635590088e+000
 8.838834764499999e-001	 8.838834764499999e-001	 1.092293625854779e+001
 8.746834192386785e-001	 8.929887546840698e-001	 1.072923362505624e+001
 8.653900703388238e-001	 9.019977971392147e-001	 1.053202325719984e+001
 8.560049467244862e-001	 9.109091782780103e-001	 1.033134390536315e+001
 8.465295942305037e-001	 9.197215045783189e-001	 1.012722903387274e+001
 8.369655867049055e-001	 9.284334152585062e-001	 9.919707061063093e+000
 8.273145251396232e-001	 9.370435829756509e-001	 9.708801616920908e+000
 8.175780367805180e-001	 9.455507144959993e-001	 9.494531817374174e+000
 8.077577742177590e-001	 9.539535513369584e-001	 9.276912554235858e+000
 7.978554144576140e-001	 9.622508703799657e-001	 9.055954799761267e+000
 7.878726579767392e-001	 9.704414844536136e-001	 8.831665924733240e+000
 6.302981263713646e-001	 7.763531875729710e-001	 3.143273929031561e+000
 6.222489821957411e-001	 7.828193943248218e-001	 2.897926077827540e+000
 6.141382946436216e-001	 7.891984256435691e-001	 2.659487047460820e+000
 6.059674757593239e-001	 7.954894206196910e-001	 2.431262638013773e+000
 5.977379532152197e-001	 8.016915487208970e-001	 2.213850334488898e+000
 5.894511694988003e-001	 8.078040101335779e-001	 2.007838911496180e+000
 5.811085810912838e-001	 8.138260360782966e-001	 1.813807712394902e+000
 5.727116576387268e-001	 8.197568890991044e-001	 1.632325941458539e+000
 5.642618811166037e-001	 8.255958633264965e-001	 1.463951970433900e+000
 5.557607449888239e-001	 8.313422847138690e-001	 1.309232660834221e+000
 5.472097533621585e-001	 8.369955112473729e-001	 1.168702703262170e+000
 6.460555795296461e-001	 7.957620172610354e-001	 3.713069250807880e+000
 6.378052067494876e-001	 8.023898791810181e-001	 3.481269159932983e+000
 6.294917520085319e-001	 8.089283862822417e-001	 3.256969426015211e+000
 6.211166626522043e-001	 8.153766561324445e-001	 3.038088015862130e+000
 6.126814020446862e-001	 8.217338374360307e-001	 2.825522911536846e+000
 6.041874487356550e-001	 8.279991103840486e-001	 2.622955713865062e+000
 5.956362956183596e-001	 8.341716869775757e-001	 2.430965618461689e+000
 5.870294490800078e-001	 8.402508113242636e-001	 2.250122809011048e+000
 5.783684281454596e-001	 8.462357599078700e-001	 2.080987745527866e+000
 5.696547636152226e-001	 8.521258418306247e-001	 1.924110466904196e+000
 5.608899971987366e-001	 8.579203990283327e-001	 1.780029909105088e+000
 6.618130326884288e-001	 8.151708469490996e-001	 4.281897142027251e+000
 6.533614313038202e-001	 8.219603640372094e-001	 4.060440752416252e+000
 6.448452093740830e-001	 8.286583469208937e-001	 3.845260875387832e+000
 6.362658495457501e-001	 8.352638916451532e-001	 3.636644463727456e+000
 6.276248508748119e-001	 8.417761261510836e-001	 3.434870117144043e+000
 6.189237279731330e-001	 8.481942106343930e-001	 3.235346071488559e+000
 6.101640101459929e-001	 8.545173378766732e-001	 3.042652814095827e+000
 6.013472405217497e-001	 8.607447335491757e-001	 2.859717425772209e+000
 5.924749751746509e-001	 8.668756564889208e-001	 2.687104468296474e+000
 5.835487822418011e-001	 8.729093989469728e-001	 2.525369163685259e+000
 5.745702410353087e-001	 8.788452868087893e-001	 2.375056688767174e+000
 6.775704858477131e-001	 8.345796766371638e-001	 4.850402049648031e+000
 6.689176558587390e-001	 8.415308488933956e-001	 4.637540640394108e+000
 6.601986667402746e-001	 8.483883075595253e-001	 4.429764555462270e+000
 6.514150364399609e-001	 8.551511271578162e-001	 4.227328486488228e+000
 6.425682997055967e-001	 8.618184148660554e-001	 4.030479450515855e+000
 6.336600072112343e-001	 8.683893108846114e-001	 3.839456786695252e+000
 6.246917246741831e-001	 8.748629887755888e-001	 3.654145927726030e+000
 6.156650319639528e-001	 8.812386557738409e-001	 3.466501443233395e+000
 6.065815222041778e-001	 8.875155530696496e-001	 3.287805378884150e+000
 5.974428008685595e-001	 8.936929560629136e-001	 3.118620120526297e+000
 5.882504848718763e-001	 8.997701745887436e-001	 2.959499058851606e+000
 6.933279390074987e-001	 8.539885063252281e-001	 5.418993785985596e+000
 6.844738804142442e-001	 8.611013337495768e-001	 5.213148636301623e+000
 6.755521241071072e-001	 8.681182681981370e-001	 5.011228963617044e+000
 6.665642233348365e-001	 8.750383626704334e-001	 4.813457023238876e+000
 6.575117485370404e-001	 8.818607035809462e-001	 4.620048041570997e+000
 6.483962864499588e-001	 8.885844111347033e-001	 4.431210259446837e+000
 6.392194392029307e-001	 8.952086396743229e-001	 4.247144988034503e+000
 6.299828234066175e-001	 9.017325779982593e-001	 4.068046676725549e+000
 6.206880692340401e-001	 9.081554496500560e-001	 3.888250534324746e+000
 6.113368194954979e-001	 9.144765131784466e-001	 3.709119047966711e+000
 6.019307287084381e-001	 9.206950623681951e-001	 3.538705162592580e+000
 7.090853921677852e-001	 8.733973360132923e-001	 5.987873599228384e+000
 7.000301049703352e-001	 8.806718186057527e-001	 5.787623220750023e+000
 6.909055814745804e-001	 8.878482288367283e-001	 5.590168688654159e+000
 6.817134102303775e-001	 8.949255981830054e-001	 5.395699554022296e+000
 6.724551973691439e-001	 9.019029922957562e-001	 5.204398952668455e+000
 6.631325656893067e-001	 9.087795113846692e-001	 5.016443696375752e+000
 6.537471537322357e-001	 9.155542905728752e-001	 4.832004375949557e+000
 6.443006148497434e-001	 9.222265002224305e-001	 4.651245475396689e+000
 6.347946162642378e-001	 9.287953462301400e-001	 4.474325496515332e+000
 6.252308381226162e-001	 9.352600702935721e-001	 4.301397093161417e+000
 6.156109725449946e-001	 9.416199501471442e-001	 4.117696144672943e+000
 7.248428453285735e-001	 8.928061657013564e-001	 6.557056843451682e+000
 7.155863295270126e-001	 9.002423034619237e-001	 6.361125600333378e+000
 7.062590388426944e-001	 9.075781894752993e-001	 6.166889835644295e+000
 6.968625971265833e-001	 9.148128336955314e-001	 5.974506040683735e+000
 6.873986462019063e-001	 9.219452810104855e-001	 5.784124873683585e+000
 6.778688449292777e-001	 9.289746116345086e-001	 5.595891300310597e+000
 6.682748682620977e-001	 9.358999414712461e-001	 5.409944745275813e+000
 6.586184062933308e-001	 9.427204224463548e-001	 5.226419254249380e+000
 6.489011632947711e-001	 9.494352428099017e-001	 5.045443665262009e+000
 6.391248567499143e-001	 9.560436274082900e-001	 4.867141788753140e+000
 6.292912163815461e-001	 9.625448379255903e-001	 4.691632595416219e+000
 7.406002984898628e-001	 9.122149953894206e-001	 7.126392754587168e+000
 7.311425540842764e-001	 9.198127883180900e-001	 6.933640694226418e+000
 7.216124962114491e-001	 9.273081501138502e-001	 6.741512205047052e+000
 7.120117840234544e-001	 9.347000692080125e-001	 6.550130279871215e+000
 7.023420950353280e-001	 9.419875697251338e-001	 6.359612629719128e+000
 6.926051241698719e-001	 9.491697118842216e-001	 6.170071875033845e+000
 6.828025827925170e-001	 9.562455923694352e-001	 5.981615747342620e+000
 6.729361977373792e-001	 9.632143446700319e-001	 5.794347300444143e+000
 6.630077103256398e-001	 9.700751393893409e-001	 5.608365130190396e+000
 6.530188753773923e-001	 9.768271845226001e-001	 5.423763601918009e+000
 6.429714602180920e-001	 9.834697257035339e-001	 5.240633084571170e+000
 7.563577516516535e-001	 9.316238250774851e-001	 7.695581754396414e+000
 7.466987786421260e-001	 9.393832731742509e-001	 7.504995497457119e+000
 7.369659535808448e-001	 9.470381107523809e-001	 7.313988699441668e+000
 7.271609709209903e-001	 9.545873047204474e-001	 7.122650336909556e+000
 7.172855438694089e-001	 9.620298584397016e-001	 6.931064625352365e+000
 7.073414034110893e-001	 9.693648121338085e-001	 6.739311262682302e+000
 6.973302973234935e-001	 9.765912432674426e-001	 6.547465682531188e+000
 6.872539891818889e-001	 9.837082668934617e-001	 6.355599316332113e+000
 6.771142573568441e-001	 9.907150359684579e-001	 6.163779863138046e+000
 6.669128940050503e-001	 9.976107416365030e-001	 5.972071566119630e+000
 6.566517040546327e-001	 1.004394613480975e+000	 5.780535494675515e+000
 7.721152048139458e-001	 9.510326547655491e-001	 8.264190635590088e+000
 7.622550032005621e-001	 9.589537580304064e-001	 8.074875195616041e+000
 7.523194109508807e-001	 9.667680713908911e-001	 7.884122353922502e+000
 7.423101578191916e-001	 9.744745402328375e-001	 7.691986477568550e+000
 7.322289927041491e-001	 9.820721471541880e-001	 7.498517663056054e+000
 7.220776826529302e-001	 9.895599123832692e-001	 7.303762033710899e+000
 7.118580118550275e-001	 9.969368941652685e-001	 7.107762046289359e+000
 7.015717806268598e-001	 1.004202189116645e+000	 6.910556805660419e+000
 6.912208043883839e-001	 1.011354932547253e+000	 6.712182386400144e+000
 6.808069126328884e-001	 1.018394298749998e+000	 6.512672160122665e+000
 6.703319478911681e-001	 1.025319501257913e+000	 6.312057127367755e+000
 7.878726579767392e-001	 9.704414844536136e-001	 8.831665924733240e+000
 7.778112277595841e-001	 9.785242428865572e-001	 8.642837345799592e+000
 7.676728683215578e-001	 9.864980320293814e-001	 8.451581322847892e+000
 7.574593447180578e-001	 9.943617757451815e-001	 8.257916948018206e+000
 7.471724415395483e-001	 1.002114435868594e+000	 8.061859503408774e+000
 7.368139618953942e-001	 1.009755012632604e+000	 7.863420814060950e+000
 7.263857263871186e-001	 1.017282545062913e+000	 7.662609609625082e+000
 7.158895720722922e-001	 1.024696111339581e+000	 7.459431893432190e+000
 7.053273514202589e-001	 1.031994829125725e+000	 7.253891317683634e+000
 6.947009312609062e-001	 1.039177855863086e+000	 7.045989563462782e+000
 6.840121917276981e-001	 1.046244389034349e+000	 6.835726724268073e+000
 5.472097533621585e-001	 8.369955112473729e-001	 1.168702703262170e+000
 5.386104201372436e-001	 8.425549331296908e-001	 1.052109038950391e+000
 5.299642681565356e-001	 8.480199729359587e-001	 9.323020116269195e-001
 5.212728283505861e-001	 8.533900857430294e-001	 8.096219184226509e-001
 5.125376388839769e-001	 8.586647592332954e-001	 6.844128409233031e-001
 5.037602443012851e-001	 8.638435137714188e-001	 5.570220886295204e-001
 4.949421946742142e-001	 8.689259024546853e-001	 4.277996420549441e-001
 4.860850447508239e-001	 8.739115111371586e-001	 2.970975966719134e-001
 4.771903531077782e-001	 8.787999584278387e-001	 1.652696089037206e-001
 4.682596813065162e-001	 8.835908956630775e-001	 3.267034533228883e-002
 4.592945930542355e-001	 8.882840068535240e-001	-1.003450637274555e-001
 5.608899971987366e-001	 8.579203990283327e-001	 1.780029909105088e+000
 5.520756806439687e-001	 8.636188064585515e-001	 1.643942263167582e+000
 5.432133748642545e-001	 8.692204722606064e-001	 1.507649259206005e+000
 5.343046490634094e-001	 8.747248378882714e-001	 1.371527849101204e+000
 5.253510798601307e-001	 8.801313782159999e-001	 1.235955614189173e+000
 5.163542504126112e-001	 8.854396016175710e-001	 1.101310187152321e+000
 5.073157495443477e-001	 8.906490500177036e-001	 9.679686778957209e-001
 4.982371708721027e-001	 8.957592989168134e-001	 8.363071046259277e-001
 4.891201119369577e-001	 9.007699573891272e-001	 7.066998313217872e-001
 4.799661733393895e-001	 9.056806680544066e-001	 5.795190127573611e-001
 4.707769578792765e-001	 9.104911070235670e-001	 4.551340482001733e-001
 5.745702410353087e-001	 8.788452868087893e-001	 2.375056688767174e+000
 5.655409411505090e-001	 8.846826797868248e-001	 2.220640886974688e+000
 5.564624815716492e-001	 8.904209715846120e-001	 2.068838561048869e+000
 5.473364697758097e-001	 8.960595900328475e-001	 1.920064284320139e+000
 5.381645208358035e-001	 9.015979971980446e-001	 1.774730224447048e+000
 5.289482565234381e-001	 9.070356894631005e-001	 1.633245541168217e+000
 5.196893044140040e-001	 9.123721975801654e-001	 1.496015792268051e+000
 5.103892969929661e-001	 9.176070866960089e-001	 1.363442348985866e+000
 5.010498707658238e-001	 9.227399563500829e-001	 1.235921822059187e+000
 4.916726653720901e-001	 9.277704404455577e-001	 1.113845499552974e+000
 4.822593227043255e-001	 9.326982071936176e-001	 9.975987975849953e-001
 5.882504848718763e-001	 8.997701745887436e-001	 2.959499058851606e+000
 5.790062016568643e-001	 9.057465531145107e-001	 2.787755112772121e+000
 5.697115882787198e-001	 9.116214709079761e-001	 2.621265566995678e+000
 5.603682904877877e-001	 9.173943421767583e-001	 2.460483636623854e+000
 5.509779618109953e-001	 9.230646161794306e-001	 2.305857208541036e+000
 5.415422626337660e-001	 9.286317773080069e-001	 2.157828212446458e+000
 5.320628592831833e-001	 9.340953451420716e-001	 2.016832004220795e+000
 5.225414231134143e-001	 9.394548744747449e-001	 1.883296762870724e+000
 5.129796295943760e-001	 9.447099553107049e-001	 1.757642902253440e+000
 5.033791574046184e-001	 9.498602128365317e-001	 1.640282498731140e+000
 4.937416875293824e-001	 9.549053073636764e-001	 1.531618735856622e+000
 6.019307287084381e-001	 9.206950623681951e-001	 3.538705162592580e+000
 5.924714621630346e-001	 9.268104264416094e-001	 3.350479590193655e+000
 5.829606949854665e-001	 9.328219702306987e-001	 3.169981621890331e+000
 5.734001111993428e-001	 9.387290943200031e-001	 2.997704186849410e+000
 5.637914027857065e-001	 9.445312351601574e-001	 2.834132069452359e+000
 5.541362687435950e-001	 9.502278651522911e-001	 2.679741251016878e+000
 5.444364141518856e-001	 9.558184927034217e-001	 2.534998267866941e+000
 5.346935492334475e-001	 9.613026622530213e-001	 2.400359587022618e+000
 5.249093884226146e-001	 9.666799542709933e-001	 2.276271000723824e+000
 5.150856494369740e-001	 9.719499852273283e-001	 2.163167040946668e+000
 5.052240523544471e-001	 9.771124075337430e-001	 2.061470415008986e+000
 6.156109725449946e-001	 9.416199501471442e-001	 4.117696144672943e+000
 6.059367226690199e-001	 9.478742997681203e-001	 3.913692921968553e+000
 5.962098016918892e-001	 9.540224695527798e-001	 3.719732021690978e+000
 5.864319319104754e-001	 9.600638464625831e-001	 3.536347209870852e+000
 5.766048437599364e-001	 9.659978541402249e-001	 3.364061391173030e+000
 5.667302748529249e-001	 9.718239529959529e-001	 3.203385918696215e+000
 5.568099690201109e-001	 9.775416402642156e-001	 3.054819924043020e+000
 5.468456753530654e-001	 9.831504500308380e-001	 2.918849668959751e+000
 5.368391472505396e-001	 9.886499532309486e-001	 2.795947919784212e+000
 5.267921414691571e-001	 9.940397576179475e-001	 2.686573345870387e+000
 5.167064171795196e-001	 9.993195077038174e-001	 2.591169943093769e+000
 6.292912163815461e-001	 9.625448379255903e-001	 4.691632595416219e+000
 6.194019831748203e-001	 9.689381730940442e-001	 4.481992016846339e+000
 6.094589083979877e-001	 9.752229688742187e-001	 4.274989279652770e+000
 5.994637526211853e-001	 9.813985986044971e-001	 4.080769257856554e+000
 5.894182847336855e-001	 9.874644731196336e-001	 3.899894242943428e+000
 5.793242809617558e-001	 9.934200408389917e-001	 3.732912318241961e+000
 5.691835238878591e-001	 9.992647878244535e-001	 3.580356658274011e+000
 5.589978014722682e-001	 1.004998237808195e+000	 3.442744853544980e+000
 5.487689060781512e-001	 1.010619952190571e+000	 3.320578262037691e+000
 5.384986335011676e-001	 1.016129530008389e+000	 3.214341388600888e+000
 5.281887820046000e-001	 1.021526607873900e+000	 3.124501293344673e+000
 6.429714602180920e-001	 9.834697257035339e-001	 5.240633084571170e+000
 6.328672436804357e-001	 9.900020464193806e-001	 5.038199397783767e+000
 6.227080151037622e-001	 9.964234681950164e-001	 4.839982145764477e+000
 6.124955733314724e-001	 1.002733350745746e+000	 4.635090322258643e+000
 6.022317257069536e-001	 1.008931092098383e+000	 4.445649574438890e+000
 5.919182870700878e-001	 1.015016128681408e+000	 4.272246112400883e+000
 5.815570787551302e-001	 1.020987935384135e+000	 4.115448634317183e+000
 5.711499275910558e-001	 1.026846025585093e+000	 3.975807621565408e+000
 5.606986649054490e-001	 1.032589951149860e+000	 3.853854664388130e+000
 5.502051255330056e-001	 1.038219302398653e+000	 3.750101819299657e+000
 5.396711468296881e-001	 1.043733708043990e+000	 3.665040999371174e+000
 6.566517040546327e-001	 1.004394613480975e+000	 5.780535494675515e+000
 6.463325041858661e-001	 1.011065919744129e+000	 5.575753851034853e+000
 6.359571218092126e-001	 1.017623967515172e+000	 5.382746818996617e+000
 6.255273940413370e-001	 1.024068102886329e+000	 5.201624242266703e+000
 6.150451666797407e-001	 1.030397711076473e+000	 5.005140186557350e+000
 6.045122931779204e-001	 1.036612216523202e+000	 4.825111903077032e+000
 5.939306336219243e-001	 1.042711082943261e+000	 4.663739361012695e+000
 5.833020537094281e-001	 1.048693813361531e+000	 4.521607523490842e+000
 5.726284237324332e-001	 1.054559950108815e+000	 4.399279877800683e+000
 5.619116175646711e-001	 1.060309074788740e+000	 4.297297767872450e+000
 5.511535116547843e-001	 1.065940808214088e+000	 4.216179763452786e+000
 6.703319478911681e-001	 1.025319501257913e+000	 6.312057127367755e+000
 6.597977646911116e-001	 1.032129793068291e+000	 6.106659328812478e+000
 6.492062285143391e-001	 1.038824466834687e+000	 5.914743771651744e+000
 6.385592147507786e-001	 1.045402855026246e+000	 5.736416019094700e+000
 6.278586076520470e-001	 1.051864330053904e+000	 5.571766197094547e+000
 6.171062992852544e-001	 1.058208304364372e+000	 5.395053747744010e+000
 6.063041884882415e-001	 1.064434230501831e+000	 5.228695759112145e+000
 5.954541798273856e-001	 1.070541601137510e+000	 5.083540866240774e+000
 5.845581825591038e-001	 1.076529949067437e+000	 4.960186143418256e+000
 5.736181095961640e-001	 1.082398847178649e+000	 4.859203978689195e+000
 5.626358764798881e-001	 1.088147908384193e+000	 4.781141418919851e+000
 6.840121917276981e-001	 1.046244389034349e+000	 6.835726724268073e+000
 6.732630251961720e-001	 1.053193666391865e+000	 6.631405012390681e+000
 6.624553352191411e-001	 1.060024966153559e+000	 6.442168108483948e+000
 6.515910354597979e-001	 1.066737607165498e+000	 6.268115834864673e+000
 6.406720486238724e-001	 1.073330949030676e+000	 6.109330398921123e+000
 6.297003053920893e-001	 1.079804392204921e+000	 5.965876821836731e+000
 6.186777433540814e-001	 1.086157378059845e+000	 5.813625820087164e+000
 6.076063059449275e-001	 1.092389388913029e+000	 5.664848037539215e+000
 5.964879413854606e-001	 1.098499948025726e+000	 5.539752243543412e+000
 5.853246016274843e-001	 1.104488619568381e+000	 5.438943649137896e+000
 5.741182413050000e-001	 1.110355008554307e+000	 5.362999617048736e+000
 4.592945930542355e-001	 8.882840068535240e-001	-1.003450637274555e-001
 4.502966533698555e-001	 8.928790086056798e-001	-2.274897180128268e-001
 4.412674277578943e-001	 8.973756500191494e-001	-3.461801672191949e-001
 4.322084813897783e-001	 9.017737125594308e-001	-4.561791465468402e-001
 4.231213782919210e-001	 9.060730099062139e-001	-5.572572992625875e-001
 4.140076805434690e-001	 9.102733877783561e-001	-6.491934904845791e-001
 4.048689474837919e-001	 9.143747237357484e-001	-7.317751050548811e-001
 3.957067349304591e-001	 9.183769269585731e-001	-8.047983290089799e-001
 3.865225944084205e-001	 9.222799380044702e-001	-8.680684141965274e-001
 3.773180723910823e-001	 9.260837285441587e-001	-9.213999256576295e-001
 3.680947095539379e-001	 9.297883010760839e-001	-9.646169714081236e-001
 4.707769578792765e-001	 9.104911070235670e-001	 4.551340482001733e-001
 4.615540697013549e-001	 9.152009838184482e-001	 3.319377967610135e-001
 4.522991134480965e-001	 9.198100412663188e-001	 2.161637435352406e-001
 4.430136934202115e-001	 9.243180553693133e-001	 1.080713835506977e-001
 4.336994127447718e-001	 9.287248351491138e-001	 7.912851752463307e-003
 4.243578725529003e-001	 9.330302224675480e-001	-8.406743197176632e-002
 4.149906711674483e-001	 9.372340918235038e-001	-1.676331018030250e-001
 4.055994033014224e-001	 9.413363501266676e-001	-2.425561684607001e-001
 3.961856592678934e-001	 9.453369364486188e-001	-3.086173246059216e-001
 3.867510242020997e-001	 9.492358217518436e-001	-3.656062327038708e-001
 3.772970772964199e-001	 9.530330085972488e-001	-4.133217949251588e-001
 4.822593227043255e-001	 9.326982071936176e-001	 9.975987975849953e-001
 4.728114860330365e-001	 9.375229590314141e-001	 8.772102294384959e-001
 4.633307991386043e-001	 9.422444325138553e-001	 7.632416416785123e-001
 4.538189054510228e-001	 9.468623981797121e-001	 6.559759145024829e-001
 4.442774471980224e-001	 9.513766603926590e-001	 5.556890862150581e-001
 4.347080645627028e-001	 9.557870571574939e-001	 4.626499556456971e-001
 4.251123948513977e-001	 9.600934599121022e-001	 3.771197006466264e-001
 4.154920716725502e-001	 9.642957732956731e-001	 2.993515133333253e-001
 4.058487241273531e-001	 9.683939348937276e-001	 2.295902526771815e-001
 3.961839760128776e-001	 9.723879149605192e-001	 1.680721150030873e-001
 3.864994450383867e-001	 9.762777161194137e-001	 1.150243228909172e-001
 4.937416875293824e-001	 9.549053073636764e-001	 1.531618735856622e+000
 4.840689023649002e-001	 9.598449342445778e-001	 1.412878412772055e+000
 4.743624848294175e-001	 9.646788237617586e-001	 1.299582863071616e+000
 4.646241174822121e-001	 9.694067409906272e-001	 1.192039549906566e+000
 4.548554816516731e-001	 9.740284856368491e-001	 1.090549584257966e+000
 4.450582565728770e-001	 9.785438918481938e-001	 9.954072832602425e-001
 4.352341185356400e-001	 9.829528280015428e-001	 9.068997447848771e-001
 4.253847400438429e-001	 9.872551964655910e-001	 8.253064390334520e-001
 4.155117889868000e-001	 9.914509333397975e-001	 7.508988178336252e-001
 4.056169278234155e-001	 9.955400081701846e-001	 6.839399422742486e-001
 3.957018127798380e-001	 9.995224236425787e-001	 6.246841292565415e-001
 5.052240523544471e-001	 9.771124075337430e-001	 2.061470415008986e+000
 4.953263186969465e-001	 9.821669094579394e-001	 1.943198785041563e+000
 4.853941705205365e-001	 9.871132150100292e-001	 1.829421190397957e+000
 4.754293295137795e-001	 9.919510838020585e-001	 1.720470917181338e+000
 4.654335161057235e-001	 9.966803108816844e-001	 1.616675361763960e+000
 4.554084485834228e-001	 1.001300726539648e+000	 1.518355543464649e+000
 4.453558422201756e-001	 1.005812196091827e+000	 1.425825633727285e+000
 4.352774084153004e-001	 1.010214619636420e+000	 1.339392502640260e+000
 4.251748538462340e-001	 1.014507931786828e+000	 1.259355283576697e+000
 4.150498796337138e-001	 1.018692101380841e+000	 1.186004956676156e+000
 4.049041805207738e-001	 1.022767131166744e+000	 1.119623951826336e+000
 5.167064171795196e-001	 9.993195077038174e-001	 2.591169943093769e+000
 5.065837350291749e-001	 1.004488884671498e+000	 2.472166100551381e+000
 4.964258562119608e-001	 1.009547606258667e+000	 2.356727692405681e+000
 4.862345415457248e-001	 1.014495426614006e+000	 2.245215109363172e+000
 4.760115505601740e-001	 1.019332136127165e+000	 2.137983288615508e+000
 4.657586405943398e-001	 1.024057561231856e+000	 2.035381179252100e+000
 4.554775659050040e-001	 1.028671564182954e+000	 1.937751224478006e+000
 4.451700767869229e-001	 1.033174042808162e+000	 1.845428861567727e+000
 4.348379187056552e-001	 1.037564930234820e+000	 1.758742040425242e+000
 4.244828314437724e-001	 1.041844194592487e+000	 1.678010761556911e+000
 4.141065482611941e-001	 1.046011838691909e+000	 1.603546634198705e+000
 5.281887820046000e-001	 1.021526607873900e+000	 3.124501293344673e+000
 5.178411513615852e-001	 1.026810859885255e+000	 3.003541873541033e+000
 5.074575419036908e-001	 1.031981997507672e+000	 2.885239279769931e+000
 4.970397535780482e-001	 1.037039769426470e+000	 2.769982330148127e+000
 4.865895850150245e-001	 1.041983961373291e+000	 2.658154800216430e+000
 4.761088326056285e-001	 1.046814395924818e+000	 2.550134839407037e+000
 4.655992895901255e-001	 1.051530932274924e+000	 2.446294404680480e+000
 4.550627451587098e-001	 1.056133465980814e+000	 2.346998712358405e+000
 4.445009835650633e-001	 1.060621928683773e+000	 2.252605709115851e+000
 4.339157832535910e-001	 1.064996287805123e+000	 2.163465563026119e+000
 4.233089160010993e-001	 1.069256546218074e+000	 2.079920175486547e+000
 5.396711468296881e-001	 1.043733708043990e+000	 3.665040999371174e+000
 5.290985676941781e-001	 1.049132835099209e+000	 3.540879190958206e+000
 5.184892275957262e-001	 1.054416388757043e+000	 3.418483615526665e+000
 5.078449656107498e-001	 1.059584112239450e+000	 3.298272882119310e+000
 4.971676194702749e-001	 1.064635786620062e+000	 3.180660943712773e+000
 4.864590246172889e-001	 1.069571230618535e+000	 3.066056462995364e+000
 4.757210132755402e-001	 1.074390300367736e+000	 2.954862195740792e+000
 4.649554135306619e-001	 1.079092889154379e+000	 2.847474392903821e+000
 4.541640484244586e-001	 1.083678927133686e+000	 2.744282222493909e+000
 4.433487350631701e-001	 1.088148381018749e+000	 2.645667212213317e+000
 4.325112837404888e-001	 1.092501253745239e+000	 2.552002713772298e+000
 5.511535116547843e-001	 1.065940808214088e+000	 4.216179763452786e+000
 5.403559840269530e-001	 1.071454810313361e+000	 4.087544423635015e+000
 5.295209132880673e-001	 1.076850780006782e+000	 3.959800911701251e+000
 5.186501776438292e-001	 1.082128455052946e+000	 3.833399031446354e+000
 5.077456539259251e-001	 1.087287611867478e+000	 3.708784293436560e+000
 4.968092166293206e-001	 1.092328065313005e+000	 3.586397228293093e+000
 4.858427369612477e-001	 1.097249668461392e+000	 3.466672718060344e+000
 4.748480819027786e-001	 1.102052312328856e+000	 3.350039346886375e+000
 4.638271132838410e-001	 1.106735925584561e+000	 3.236918772168696e+000
 4.527816868725094e-001	 1.111300474233366e+000	 3.127725117244906e+000
 4.417136514793630e-001	 1.115745961273404e+000	 3.022864386631559e+000
 5.626358764798881e-001	 1.088147908384193e+000	 4.781141418919851e+000
 5.516134003599104e-001	 1.093776785527711e+000	 4.646736278952942e+000
 5.405525989807140e-001	 1.099285171256888e+000	 4.512363056963132e+000
 5.294553896772867e-001	 1.104672797866958e+000	 4.378504195274602e+000
 5.183236883819754e-001	 1.109939437115540e+000	 4.245638182825388e+000
 5.071594086417237e-001	 1.115084900008229e+000	 4.114238814091460e+000
 4.959644606472484e-001	 1.120109036555890e+000	 3.984774466648395e+000
 4.847407502750601e-001	 1.125011735504244e+000	 3.857707398698999e+000
 4.734901781432104e-001	 1.129792924036396e+000	 3.733493067822598e+000
 4.622146386816088e-001	 1.134452567448973e+000	 3.612579472121433e+000
 4.509160192177217e-001	 1.138990668802569e+000	 3.495406514857542e+000
 5.741182413050000e-001	 1.110355008554307e+000	 5.362999617048736e+000
 5.628708166930497e-001	 1.116098760742258e+000	 5.221502567188295e+000
 5.515842846736662e-001	 1.121719562507361e+000	 5.079190448961229e+000
 5.402606017111223e-001	 1.127217140681487e+000	 4.936579826627466e+000
 5.289017228384256e-001	 1.132591262364247e+000	 4.794183628511585e+000
 5.175096006544985e-001	 1.137841734704207e+000	 4.652510349645437e+000
 5.060861843335420e-001	 1.142968404651231e+000	 4.512063273661373e+000
 4.946334186475063e-001	 1.147971158680544e+000	 4.373339715373382e+000
 4.831532430025670e-001	 1.152849922489192e+000	 4.236830285403762e+000
 4.716475904904685e-001	 1.157604660665570e+000	 4.103018178129767e+000
 4.601183869555650e-001	 1.162235376332733e+000	 3.972378484138956e+000
 3.680947095539379e-001	 9.297883010760839e-001	-9.646169714081236e-001
 3.588540400425035e-001	 9.333936886206078e-001	-1.030975195525219e+000
 3.495975907518841e-001	 9.368999543945393e-001	-1.093007393724722e+000
 3.403268806206379e-001	 9.403071914665515e-001	-1.150415694771572e+000
 3.310434199417802e-001	 9.436155223939605e-001	-1.202908651004915e+000
 3.217487096881428e-001	 9.468250988417173e-001	-1.250201589353112e+000
 3.124442408536598e-001	 9.499361011842370e-001	-1.292016944980554e+000
 3.031314938110321e-001	 9.529487380907488e-001	-1.328084577201817e+000
 2.938119376861949e-001	 9.558632460948670e-001	-1.358142067350473e+000
 2.844870297499803e-001	 9.586798891490923e-001	-1.381934998342836e+000
 2.751582148273362e-001	 9.613989581649598e-001	-1.399217215730063e+000
 3.772970772964199e-001	 9.530330085972488e-001	-4.133217949251588e-001
 3.678253910496041e-001	 9.567285308306593e-001	-4.772805661846629e-001
 3.583375305287336e-001	 9.603224532492585e-001	-5.370701742833227e-001
 3.488350526458336e-001	 9.638148712484372e-001	-5.924000357924374e-001
 3.393195054512464e-001	 9.672059104494429e-001	-6.429859033021349e-001
 3.297924274421274e-001	 9.704957263088510e-001	-6.885502201864289e-001
 3.202553468872612e-001	 9.736845037104359e-001	-7.288224577521966e-001
 3.107097811686690e-001	 9.767724565401574e-001	-7.635394343980620e-001
 3.011572361404367e-001	 9.797598272449695e-001	-7.924456164597409e-001
 2.915992055051704e-001	 9.826468863761853e-001	-8.152934004743091e-001
 2.820371702084442e-001	 9.854339321181277e-001	-8.318433766495937e-001
 3.864994450383867e-001	 9.762777161194137e-001	 1.150243228909172e-001
 3.767967420559097e-001	 9.800633730417054e-001	 5.024561720234182e-002
 3.670774703045501e-001	 9.837449521049575e-001	-1.050717713974475e-002
 3.573432246697985e-001	 9.873225510312768e-001	-6.694870285304572e-002
 3.475955909593249e-001	 9.907962985058438e-001	-1.187998894442091e-001
 3.378361451946071e-001	 9.941663537768565e-001	-1.657883135356850e-001
 3.280664529192809e-001	 9.974329062374506e-001	-2.076485412406386e-001
 3.182880685246873e-001	 1.000596174990316e+000	-2.441224521950391e-001
 3.085025345930627e-001	 1.003656408395746e+000	-2.749595449174186e-001
 2.987113812587863e-001	 1.006613883603867e+000	-2.999172232157601e-001
 2.889161255880585e-001	 1.009468906071790e+000	-3.187610634216830e-001
 3.957018127798380e-001	 9.995224236425787e-001	 6.246841292565415e-001
 3.857680930614206e-001	 1.003398215253747e+000	 5.559908368489067e-001
 3.758174100793333e-001	 1.007167450961636e+000	 4.911933465040252e-001
 3.658513966925324e-001	 1.010830230815070e+000	 4.305738160522594e-001
 3.558716764660150e-001	 1.014386686563162e+000	 3.744081278911915e-001
 3.458798629455820e-001	 1.017836981245734e+000	 3.229655212932033e-001
 3.358775589497193e-001	 1.021181308765282e+000	 2.765082430924177e-001
 3.258663558790869e-001	 1.024419893441224e+000	 2.352912171558537e-001
 3.158478330440724e-001	 1.027552989547197e+000	 1.995617329826906e-001
 3.058235570108276e-001	 1.030580880832138e+000	 1.695591537198988e-001
 2.957950809661792e-001	 1.033503880025945e+000	 1.455146438243611e-001
 4.049041805207738e-001	 1.022767131166744e+000	 1.119623951826336e+000
 3.947394440661366e-001	 1.026733057466782e+000	 1.044031700367199e+000
 3.845573498530832e-001	 1.030589949819293e+000	 9.722178733840572e-001
 3.743595687140354e-001	 1.034337910599817e+000	 9.044634270428550e-001
 3.641477619713174e-001	 1.037977074621398e+000	 8.410430159118990e-001
 3.539235806950524e-001	 1.041507608715483e+000	 7.822246161050659e-001
 3.436886649785762e-001	 1.044929711293928e+000	 7.282691673230793e-001
 3.334446432318681e-001	 1.048243611892883e+000	 6.794302342119089e-001
 3.231931314934661e-001	 1.051449570699323e+000	 6.359536873973062e-001
 3.129357327612948e-001	 1.054547878060998e+000	 5.980774044943412e-001
 3.026740363428060e-001	 1.057538853980594e+000	 5.660309913318887e-001
 4.141065482611941e-001	 1.046011838691909e+000	 1.603546634198705e+000
 4.037107950700578e-001	 1.050067899680813e+000	 1.518168482389129e+000
 3.932972896257999e-001	 1.054012448677930e+000	 1.436463749513698e+000
 3.828677407343075e-001	 1.057845590385517e+000	 1.358714164339072e+000
 3.724238474752319e-001	 1.061567462680552e+000	 1.285195090612944e+000
 3.619672984430179e-001	 1.065178236186105e+000	 1.216175139246904e+000
 3.514997710058514e-001	 1.068678113823391e+000	 1.151915800005510e+000
 3.410229305830307e-001	 1.072067330345292e+000	 1.092671093138244e+000
 3.305384299412438e-001	 1.075346151852123e+000	 1.038687241328122e+000
 3.200479085101875e-001	 1.078514875290446e+000	 9.902023622691256e-001
 3.095529917179391e-001	 1.081573827935737e+000	 9.474461821207594e-001
 4.233089160010993e-001	 1.069256546218074e+000	 2.079920175486547e+000
 4.126821460731842e-001	 1.073402741895839e+000	 1.981955160759941e+000
 4.020372293974833e-001	 1.077434947537546e+000	 1.887570617435568e+000
 3.913759127533490e-001	 1.081353270172171e+000	 1.797051002423917e+000
 3.806999329777584e-001	 1.085157850740624e+000	 1.710674307124885e+000
 3.700110161894786e-001	 1.088848863657598e+000	 1.628711656853052e+000
 3.593108770315451e-001	 1.092426516353670e+000	 1.551426930467587e+000
 3.486012179325749e-001	 1.095891048798451e+000	 1.479076400663363e+000
 3.378837283874055e-001	 1.099242733005597e+000	 1.411908395312903e+000
 3.271600842575059e-001	 1.102481872520483e+000	 1.350162980184047e+000
 3.164319470915787e-001	 1.105608801891373e+000	 1.294071663294599e+000
 4.325112837404888e-001	 1.092501253745239e+000	 2.552002713772298e+000
 4.216534970755158e-001	 1.096737584111859e+000	 2.438725618322733e+000
 4.107771691681337e-001	 1.100857446398142e+000	 2.328947831483703e+000
 3.998840847711595e-001	 1.104860949959779e+000	 2.222958479419331e+000
 3.889760184788968e-001	 1.108748238801613e+000	 2.121040085337691e+000
 3.780547339344346e-001	 1.112519491129963e+000	 2.023468154357005e+000
 3.671219830556572e-001	 1.116174918884764e+000	 1.930510779366683e+000
 3.561795052805005e-001	 1.119714767252360e+000	 1.842428268360003e+000
 3.452290268319511e-001	 1.123139314159746e+000	 1.759472793645169e+000
 3.342722600032499e-001	 1.126448869751110e+000	 1.681888063275130e+000
 3.233109024637242e-001	 1.129643775847504e+000	 1.609909014968504e+000
 4.417136514793630e-001	 1.115745961273404e+000	 3.022864386631559e+000
 4.306248480770524e-001	 1.120072426328874e+000	 2.891616569481217e+000
 4.195171089377507e-001	 1.124279945259717e+000	 2.763798446138292e+000
 4.083922567877392e-001	 1.128368629748340e+000	 2.639705742540008e+000
 3.972521039786474e-001	 1.132338626863521e+000	 2.519627407321014e+000
 3.860984516778858e-001	 1.136190118603200e+000	 2.403845180314003e+000
 3.749330890781878e-001	 1.139923321416675e+000	 2.292633182926194e+000
 3.637577926268075e-001	 1.143538485707019e+000	 2.186257530890095e+000
 3.525743252748805e-001	 1.147035895314569e+000	 2.084975969816175e+000
 3.413844357474197e-001	 1.150415866982325e+000	 1.989037533901679e+000
 3.301898578343763e-001	 1.153678749804127e+000	 1.898682228080967e+000
 4.509160192177217e-001	 1.138990668802569e+000	 3.495406514857542e+000
 4.395961990777943e-001	 1.143407268546884e+000	 3.343587679427142e+000
 4.282570487063345e-001	 1.147702444122272e+000	 3.195140267030664e+000
 4.169004288030879e-001	 1.151876309537855e+000	 3.050368526756950e+000
 4.055281894770099e-001	 1.155929014926346e+000	 2.909569719142557e+000
 3.941421694198321e-001	 1.159860746077309e+000	 2.773033666490928e+000
 3.827441950991368e-001	 1.163671723949401e+000	 2.641042326040788e+000
 3.713360799714960e-001	 1.167362204162428e+000	 2.513869386506004e+000
 3.599196237161940e-001	 1.170932476470066e+000	 2.391779888434053e+000
 3.484966114900150e-001	 1.174382864214129e+000	 2.275029868755084e+000
 3.370688132035346e-001	 1.177713723761245e+000	 2.163866029820126e+000
 4.601183869555650e-001	 1.162235376332733e+000	 3.972378484138956e+000
 4.485675500777414e-001	 1.166742110765889e+000	 3.797439269061700e+000
 4.369969884738851e-001	 1.171124942985806e+000	 3.625824375827798e+000
 4.254086008172059e-001	 1.175383989328324e+000	 3.457848496021592e+000
 4.138042749739846e-001	 1.179519402990089e+000	 3.293819084467797e+000
 4.021858871602738e-001	 1.183531373552290e+000	 3.134035889544257e+000
 3.905553011185043e-001	 1.187420126482944e+000	 2.978790507409353e+000
 3.789143673145659e-001	 1.191185922618587e+000	 2.828365960691619e+000
 3.672649221558915e-001	 1.194829057626238e+000	 2.683036302111703e+000
 3.556087872310361e-001	 1.198349861446522e+000	 2.543066243425164e+000
 3.439477685711992e-001	 1.201748697718857e+000	 2.408710809999253e+000
 2.751582148273362e-001	 9.613989581649598e-001	-1.399217215730063e+000
 2.658269247236917e-001	 9.640207705404181e-001	-1.407748073736056e+000
 2.564945776709277e-001	 9.665456696725904e-001	-1.413355872928899e+000
 2.471625777918798e-001	 9.689740244583481e-001	-1.415911624828665e+000
 2.378323145820490e-001	 9.713062287851813e-001	-1.415290106534655e+000
 2.285051624109133e-001	 9.735427010105086e-001	-1.411370037419405e+000
 2.191824800423046e-001	 9.756838834310223e-001	-1.404034243543226e+000
 2.098656101739952e-001	 9.777302417428042e-001	-1.393169809747562e+000
 2.005558789966090e-001	 9.796822644929403e-001	-1.378668219417088e+000
 1.912545957719432e-001	 9.815404625233627e-001	-1.360425481936416e+000
 1.819630524307584e-001	 9.833053684076398e-001	-1.338342247896344e+000
 2.820371702084442e-001	 9.854339321181277e-001	-8.318433766495937e-001
 2.724725978510110e-001	 9.881212898035869e-001	-8.500913798512253e-001
 2.629069421207347e-001	 9.907093114145075e-001	-8.654429370985567e-001
 2.533416422435220e-001	 9.931983750701838e-001	-8.777557287498060e-001
 2.437781224522617e-001	 9.955888845052949e-001	-8.868915514908698e-001
 2.342177914756686e-001	 9.978812685361965e-001	-8.927165081754882e-001
 2.246620420466708e-001	 1.000075980516999e+000	-8.951011843527181e-001
 2.151122504304848e-001	 1.002173497786187e+000	-8.939208114379214e-001
 2.055697759725005e-001	 1.004174321104526e+000	-8.890554165250757e-001
 1.960359606660600e-001	 1.006078974084998e+000	-8.803899588694110e-001
 1.865121287401930e-001	 1.007888002615511e+000	-8.678144531067911e-001
 2.889161255880585e-001	 1.009468906071790e+000	-3.187610634216830e-001
 2.791182709769418e-001	 1.012221809067160e+000	-3.477738355958620e-001
 2.693193065692688e-001	 1.014872953156760e+000	-3.738974293206988e-001
 2.595207066940173e-001	 1.017422725682307e+000	-3.969753158415416e-001
 2.497239303214635e-001	 1.019871540225668e+000	-4.168554688872706e-001
 2.399304205395594e-001	 1.022219836062135e+000	-4.333905681930361e-001
 2.301416040503286e-001	 1.024468077603237e+000	-4.464381886051953e-001
 2.203588906864324e-001	 1.026616753829864e+000	-4.558609747280360e-001
 2.105836729480258e-001	 1.028666377716458e+000	-4.615268011125328e-001
 2.008173255599963e-001	 1.030617485647050e+000	-4.633089180258589e-001
 1.910612050496423e-001	 1.032470636823890e+000	-4.610860828763956e-001
 2.957950809661792e-001	 1.033503880025945e+000	 1.455146438243611e-001
 2.857639441014841e-001	 1.036322328331137e+000	 1.046721168258610e-001
 2.757316710165300e-001	 1.039036594899347e+000	 6.673095356770040e-002
 2.656997711433657e-001	 1.041647076294716e+000	 3.186279073204065e-002
 2.556697381896546e-001	 1.044154195946299e+000	 2.343403130442400e-004
 2.456430496025857e-001	 1.046558403588324e+000	-2.799282814127120e-002
 2.356211660532782e-001	 1.048860174689739e+000	-5.266248969246742e-002
 2.256055309418379e-001	 1.051060009873836e+000	-7.362395054257809e-002
 2.155975699231850e-001	 1.053158434328735e+000	-9.073221893976566e-002
 2.055986904537520e-001	 1.055155997209519e+000	-1.038481605035761e-001
 1.956102813591062e-001	 1.057053271032776e+000	-1.128386380584701e-001
 3.026740363428060e-001	 1.057538853980594e+000	 5.660309913318887e-001
 2.924096172246379e-001	 1.060422847595518e+000	 5.122750964694025e-001
 2.821440354625185e-001	 1.063200236642269e+000	 4.614523419722771e-001
 2.718788355915671e-001	 1.065871426907411e+000	 4.137503924194944e-001
 2.616155460568349e-001	 1.068436851667188e+000	 3.693515287842540e-001
 2.513556786647473e-001	 1.070896971114763e+000	 3.284324158720769e-001
 2.411007280555196e-001	 1.073252271776503e+000	 2.911638866043700e-001
 2.308521711967011e-001	 1.075503265918101e+000	 2.577107431800564e-001
 2.206114668979780e-001	 1.077650490941359e+000	 2.282315751034117e-001
 2.103800553473271e-001	 1.079694508772404e+000	 2.028785940219573e-001
 2.001593576685848e-001	 1.081635905242169e+000	 1.817974852750646e-001
 3.095529917179391e-001	 1.081573827935737e+000	 9.474461821207594e-001
 2.990552903464032e-001	 1.084523366860303e+000	 8.796735546209787e-001
 2.885563999072340e-001	 1.087363878385527e+000	 8.148856016260448e-001
 2.780579000386217e-001	 1.090095777520394e+000	 7.532869569925121e-001
 2.675613539230043e-001	 1.092719507388336e+000	 6.950763746563021e-001
 2.570683077260445e-001	 1.095235538641453e+000	 6.404464806837932e-001
 2.465802900570527e-001	 1.097644368863529e+000	 5.895835434919781e-001
 2.360988114510223e-001	 1.099946521962662e+000	 5.426672622680808e-001
 2.256253638724049e-001	 1.102142547554328e+000	 4.998705735683201e-001
 2.151614202407218e-001	 1.104233020335707e+000	 4.613594760296172e-001
 2.047084339780781e-001	 1.106218539452070e+000	 4.272928730813878e-001
 3.164319470915787e-001	 1.105608801891373e+000	 1.294071663294599e+000
 3.057009634667799e-001	 1.108623886125492e+000	 1.211158184338750e+000
 2.949687643506767e-001	 1.111527520129120e+000	 1.131300862359070e+000
 2.842369644845292e-001	 1.114320128133663e+000	 1.054722263511303e+000
 2.735071617881630e-001	 1.117002163109742e+000	 9.816385396184060e-001
 2.627809367864772e-001	 1.119574106168393e+000	 9.122591642339846e-001
 2.520598520578775e-001	 1.122036465950817e+000	 8.467866882758590e-001
 2.413454517048013e-001	 1.124389778007516e+000	 7.854165152553791e-001
 2.306392608464655e-001	 1.126634604167643e+000	 7.283366960740461e-001
 2.199427851339359e-001	 1.128771531899427e+000	 6.757277433099403e-001
 2.092575102875861e-001	 1.130801173662478e+000	 6.277624648658108e-001
 3.233109024637242e-001	 1.129643775847504e+000	 1.609909014968504e+000
 3.123466365857683e-001	 1.132724405391085e+000	 1.510708916009112e+000
 3.013811287928464e-001	 1.135691161873047e+000	 1.414656617662741e+000
 2.904160289292899e-001	 1.138544478747219e+000	 1.321993603251958e+000
 2.794529696523110e-001	 1.141284818831407e+000	 1.232954368540751e+000
 2.684935658460452e-001	 1.143912673695583e+000	 1.147766141193899e+000
 2.575394140579940e-001	 1.146428563038369e+000	 1.066648621286367e+000
 2.465920919580383e-001	 1.148833034052665e+000	 9.898137428813915e-001
 2.356531578201600e-001	 1.151126660781304e+000	 9.174654566414109e-001
 2.247241500269694e-001	 1.153310043463564e+000	 8.497995333799852e-001
 2.138065865971087e-001	 1.155383807873393e+000	 7.870033884115332e-001
 3.301898578343763e-001	 1.153678749804127e+000	 1.898682228080967e+000
 3.189923097033681e-001	 1.156824924657083e+000	 1.782027288459109e+000
 3.077934932337433e-001	 1.159854803617310e+000	 1.668632186808918e+000
 2.965950933729035e-001	 1.162768829361061e+000	 1.558758330517692e+000
 2.853987775154481e-001	 1.165567474553330e+000	 1.452659526643641e+000
 2.742061949047488e-001	 1.168251241223025e+000	 1.350581684140184e+000
 2.630189760574022e-001	 1.170820660126182e+000	 1.252762538688932e+000
 2.518387322107331e-001	 1.173276290098108e+000	 1.159431400153606e+000
 2.406670547934883e-001	 1.175618717395311e+000	 1.070808922609905e+000
 2.295055149198224e-001	 1.177848555028117e+000	 9.871068968452106e-001
 2.183556629066459e-001	 1.179966442084816e+000	 9.085280651677996e-001
 3.370688132035346e-001	 1.177713723761245e+000	 2.163866029820126e+000
 3.256379828195793e-001	 1.180925443923485e+000	 2.028564856258380e+000
 3.142058576733674e-001	 1.184018445361908e+000	 1.896656202015659e+000
 3.027741578153703e-001	 1.186993179975190e+000	 1.768422427636332e+000
 2.913445853775744e-001	 1.189850130275511e+000	 1.644137640278360e+000
 2.799188239625878e-001	 1.192589808750716e+000	 1.524067378054810e+000
 2.684985380561021e-001	 1.195212757214259e+000	 1.408468318623980e+000
 2.570853724628858e-001	 1.197719546143846e+000	 1.297588012034750e+000
 2.456809517664505e-001	 1.200110774009664e+000	 1.191664637768757e+000
 2.342868798124949e-001	 1.202387066593088e+000	 1.090926785860609e+000
 2.229047392161979e-001	 1.204549076296746e+000	 9.955932619171637e-001
 3.439477685711992e-001	 1.201748697718857e+000	 2.408710809999253e+000
 3.322836559344022e-001	 1.205025963190290e+000	 2.253548188145450e+000
 3.206182221117185e-001	 1.208182087106841e+000	 2.101931677152606e+000
 3.089532222566901e-001	 1.211217530589606e+000	 1.954165642158237e+000
 2.972903932386899e-001	 1.214132785997952e+000	 1.810545500814656e+000
 2.856314530195623e-001	 1.216928376278658e+000	 1.671357389084617e+000
 2.739781000540938e-001	 1.219604854302597e+000	 1.536877853009686e+000
 2.623320127144964e-001	 1.222162802189878e+000	 1.407373566447763e+000
 2.506948487390464e-001	 1.224602830624363e+000	 1.283101074712250e+000
 2.390682447049869e-001	 1.226925578158476e+000	 1.164306563975958e+000
 2.274538155257646e-001	 1.229131710509183e+000	 1.051225656242482e+000
 1.819630524307584e-001	 9.833053684076398e-001	-1.338342247896344e+000
 1.726825231903044e-001	 9.849775358802030e-001	-1.318681066692764e+000
 1.634142641909075e-001	 9.865575392624050e-001	-1.300589377448154e+000
 1.541595131519815e-001	 9.880459728836374e-001	-1.283945443594661e+000
 1.449194890479378e-001	 9.894434504957537e-001	-1.268628212076713e+000
 1.356953918032303e-001	 9.907506046851591e-001	-1.254517495037501e+000
 1.264884020066533e-001	 9.919680862820067e-001	-1.241494142374530e+000
 1.172996806447693e-001	 9.930965637671554e-001	-1.229440205158695e+000
 1.081303688543237e-001	 9.941367226775285e-001	-1.218239089933080e+000
 9.898158769347758e-002	 9.950892650105071e-001	-1.207775703934174e+000
 8.985443793167208e-002	 9.959549086279671e-001	-1.197936591295497e+000
 1.865121287401930e-001	 1.007888002615511e+000	-8.678144531067911e-001
 1.769995862676611e-001	 1.009601974274025e+000	-8.589907663491809e-001
 1.674996207923786e-001	 1.011221477740089e+000	-8.508527414227782e-001
 1.580135009767428e-001	 1.012747122201329e+000	-8.432763672933068e-001
 1.485424762695244e-001	 1.014179536753393e+000	-8.361392371480106e-001
 1.390877765932874e-001	 1.015519369797345e+000	-8.293207169928335e-001
 1.296506120515439e-001	 1.016767288434090e+000	-8.227021040179755e-001
 1.202321726555194e-001	 1.017923977856507e+000	-8.161667747778822e-001
 1.108336280703764e-001	 1.018990140739942e+000	-8.096003232560153e-001
 1.014561273807284e-001	 1.019966496631707e+000	-8.028906889093332e-001
 9.210079887525120e-002	 1.020853781340225e+000	-7.959282748089885e-001
 1.910612050496423e-001	 1.032470636823890e+000	-4.610860828763956e-001
 1.813166493452170e-001	 1.034226412668443e+000	-4.638541292101638e-001
 1.715849773942018e-001	 1.035885416218438e+000	-4.664353454439534e-001
 1.618674888019790e-001	 1.037448271519734e+000	-4.687026109782977e-001
 1.521654634916778e-001	 1.038915623011773e+000	-4.705313510566075e-001
 1.424801613839725e-001	 1.040288134910280e+000	-4.717996927222327e-001
 1.328128220970943e-001	 1.041566490586910e+000	-4.723886093906602e-001
 1.231646646669312e-001	 1.042751391946564e+000	-4.721820541371914e-001
 1.135368872870632e-001	 1.043843558803008e+000	-4.710670818236167e-001
 1.039306670685567e-001	 1.044843728253489e+000	-4.689339602136792e-001
 9.434715981932204e-002	 1.045752654052973e+000	-4.656762702501860e-001
 1.956102813591062e-001	 1.057053271032776e+000	-1.128386380584701e-001
 1.856337124229718e-001	 1.058850851063458e+000	-1.279726036237075e-001
 1.756703339963775e-001	 1.060549354697454e+000	-1.420556611803891e-001
 1.657214766276897e-001	 1.062149420838853e+000	-1.549567543877768e-001
 1.557884507143978e-001	 1.063651709270896e+000	-1.665483371911915e-001
 1.458725461752860e-001	 1.065056900023964e+000	-1.767065175492124e-001
 1.359750321433046e-001	 1.066365692740468e+000	-1.853111885705437e-001
 1.260971566790047e-001	 1.067578806037326e+000	-1.922461472142037e-001
 1.162401465043842e-001	 1.068696976866727e+000	-1.973992007309049e-001
 1.064052067569623e-001	 1.069720959875853e+000	-2.006622610540280e-001
 9.659352076388458e-002	 1.070651526766214e+000	-2.019314273668920e-001
 2.001593576685848e-001	 1.081635905242169e+000	 1.817974852750646e-001
 1.899507755009255e-001	 1.083475289459071e+000	 1.535029339185888e-001
 1.797556905989053e-001	 1.085213293177134e+000	 1.271176717813456e-001
 1.695754644538754e-001	 1.086850570158686e+000	 1.027775103504117e-001
 1.594114379376844e-001	 1.088387795530760e+000	 8.061376173958933e-002
 1.492649309672277e-001	 1.089825665138398e+000	 6.075310681593435e-002
 1.391372421901746e-001	 1.091164894894762e+000	 4.331747717673816e-002
 1.290296486917399e-001	 1.092406220128793e+000	 2.842395077058430e-002
 1.189434057223391e-001	 1.093550394931100e+000	 1.618466092575058e-002
 1.088797464459452e-001	 1.094598191498799e+000	 6.706718522752285e-003
 9.883988170893882e-002	 1.095550399479947e+000	 9.214702340126497e-005
 2.047084339780781e-001	 1.106218539452070e+000	 4.272928730813878e-001
 1.942678385790784e-001	 1.108099727855280e+000	 3.850221152429709e-001
 1.838410472017855e-001	 1.109877231657481e+000	 3.455158645950910e-001
 1.734294522805357e-001	 1.111551719479233e+000	 3.089155023180332e-001
 1.630344251615376e-001	 1.113123881791367e+000	 2.753568947429274e-001
 1.526573157597976e-001	 1.114594430253582e+000	 2.449702729859991e-001
 1.422994522377045e-001	 1.115964097049794e+000	 2.178801277526995e-001
 1.319621407051368e-001	 1.117233634220965e+000	 1.942051190470605e-001
 1.216466649409282e-001	 1.118403812996127e+000	 1.740580004930335e-001
 1.113542861355054e-001	 1.119475423122327e+000	 1.575455579450918e-001
 1.010862426544848e-001	 1.120449272194170e+000	 1.447685620408266e-001
 2.092575102875861e-001	 1.130801173662478e+000	 6.277624648658108e-001
 1.985849016574302e-001	 1.132724166252086e+000	 5.706785035032835e-001
 1.879264038050179e-001	 1.134541170138493e+000	 5.172134736402168e-001
 1.772834401076707e-001	 1.136252868800495e+000	 4.675151375452397e-001
 1.666574123859575e-001	 1.137859968052715e+000	 4.217246990949408e-001
 1.560497005529958e-001	 1.139363195369515e+000	 3.799766946013658e-001
 1.454616622858942e-001	 1.140763299205563e+000	 3.423989001858001e-001
 1.348946327191954e-001	 1.142061048313842e+000	 3.091122553772400e-001
 1.243499241601514e-001	 1.143257231061806e+000	 2.802308025819540e-001
 1.138288258256430e-001	 1.144352654746437e+000	 2.558616420431694e-001
 1.033326036005224e-001	 1.145348144908886e+000	 2.361049018800925e-001
 2.138065865971087e-001	 1.155383807873393e+000	 7.870033884115332e-001
 2.029019647359810e-001	 1.157348604649489e+000	 7.142474728270311e-001
 1.920117604086025e-001	 1.159205108620171e+000	 6.459663425196045e-001
 1.811374279352804e-001	 1.160954018122470e+000	 5.823149506119369e-001
 1.702803996109440e-001	 1.162596054314806e+000	 5.234406186100583e-001
 1.594420853468221e-001	 1.164131960486198e+000	 4.694829381354695e-001
 1.486238723347438e-001	 1.165562501362070e+000	 4.205736906396322e-001
 1.378271247339157e-001	 1.166888462407425e+000	 3.768367847219031e-001
 1.270531833800087e-001	 1.168110649128139e+000	 3.383882106353818e-001
 1.163033655163579e-001	 1.169229886371130e+000	 3.053360115377830e-001
 1.055789645470518e-001	 1.170247017624094e+000	 2.777802710149196e-001
 2.183556629066459e-001	 1.179966442084816e+000	 9.085280651677996e-001
 2.072190278147308e-001	 1.181973043047488e+000	 8.192193530064513e-001
 1.960971170125395e-001	 1.183869047102514e+000	 7.352448013073741e-001
 1.849914157633649e-001	 1.185655167445159e+000	 6.567673635491526e-001
 1.739033868364970e-001	 1.187332140577637e+000	 5.839412571270567e-001
 1.628344701412768e-001	 1.188900725603630e+000	 5.169118757249540e-001
 1.517860823842533e-001	 1.190361703519314e+000	 4.558157211694129e-001
 1.407596167492976e-001	 1.191715876501712e+000	 4.007803543242045e-001
 1.297564426005002e-001	 1.192964067195126e+000	 3.519243645494610e-001
 1.187779052076502e-001	 1.194107117996405e+000	 3.093573572180913e-001
 1.078253254940729e-001	 1.195145890339793e+000	 2.731799587519143e-001
 2.229047392161979e-001	 1.204549076296746e+000	 9.955932619171637e-001
 2.115360908936796e-001	 1.206597481446085e+000	 8.888285156556133e-001
 2.001824736168288e-001	 1.208532985585524e+000	 7.882628005829677e-001
 1.888454035919241e-001	 1.210356316768562e+000	 6.940678809977129e-001
 1.775263740626167e-001	 1.212068226841211e+000	 6.064056478943352e-001
 1.662268549363596e-001	 1.213669490721812e+000	 5.254280417348785e-001
 1.549482924344224e-001	 1.215160905677294e+000	 4.512769962639158e-001
 1.436921087653412e-001	 1.216543290596704e+000	 3.840844028643179e-001
 1.324597018216257e-001	 1.217817485262765e+000	 3.239720949134170e-001
 1.212524448995198e-001	 1.218984349622261e+000	 2.710518515674680e-001
 1.100716864415856e-001	 1.220044763055984e+000	 2.254254203700611e-001
 2.274538155257646e-001	 1.229131710509183e+000	 1.051225656242482e+000
 2.158531539728275e-001	 1.231221919845279e+000	 9.260789700282115e-001
 2.042678302214702e-001	 1.233196924069199e+000	 8.080035493808455e-001
 1.926993914209580e-001	 1.235057466092678e+000	 6.971807819471408e-001
 1.811493612893031e-001	 1.236804313105527e+000	 5.937810106293808e-001
 1.696192397320707e-001	 1.238438255840743e+000	 4.979634665359580e-001
 1.581105024852516e-001	 1.239960107836013e+000	 4.098762246023807e-001
 1.466246007820466e-001	 1.241370704692402e+000	 3.296561813160137e-001
 1.351629610433853e-001	 1.242670903331058e+000	 2.574290539397800e-001
 1.237269845919668e-001	 1.243861581248700e+000	 1.933094005936801e-001
 1.123180473895901e-001	 1.244943635772666e+000	 1.374006605231470e-001
 8.985443793167208e-002	 9.959549086279671e-001	-1.197936591295497e+000
 8.074999985732721e-002	 9.967343866612564e-001	-1.181951978329670e+000
 7.166933310492567e-002	 9.974284469156016e-001	-1.166771705795858e+000
 6.261347650004150e-002	 9.980378512759273e-001	-1.152358842545243e+000
 5.358344792087640e-002	 9.985633751160036e-001	-1.138676697104131e+000
 4.458024417780574e-002	 9.990058067093818e-001	-1.125688888568803e+000
 3.560484091004591e-002	 9.993659466433187e-001	-1.113359411974113e+000
 2.665819249913598e-002	 9.996446072361988e-001	-1.101652698268285e+000
 1.774123199891299e-002	 9.998426119589264e-001	-1.090533669037486e+000
 8.854871081648272e-003	 9.999607948607566e-001	-1.079967786128077e+000
 0.000000000000000e+000	 1.000000000000000e+000	-1.069921096325902e+000
 9.210079887525120e-002	 1.020853781340225e+000	-7.959282748089885e-001
 8.276874984949990e-002	 1.021652746325009e+000	-7.888882000192566e-001
 7.346106642874500e-002	 1.022364158086303e+000	-7.818996090951229e-001
 6.417881340919990e-002	 1.022988797556156e+000	-7.749179541327336e-001
 5.492303411602111e-002	 1.023527459492681e+000	-7.678998387464839e-001
 4.569475027984334e-002	 1.023980951876270e+000	-7.608030761663718e-001
 3.649496193086327e-002	 1.024350095308862e+000	-7.535867408351193e-001
 2.732464731015833e-002	 1.024635722416802e+000	-7.462112136934821e-001
 1.818476279791137e-002	 1.024838677257766e+000	-7.386382213476860e-001
 9.076242858200427e-003	 1.024959814732242e+000	-7.308308693256529e-001
 0.000000000000000e+000	 1.025000000000000e+000	-7.227536696313622e-001
 9.434715981932204e-002	 1.045752654052973e+000	-4.656762702501860e-001
 8.478749984206953e-002	 1.046571105989159e+000	-4.671286166078564e-001
 7.525279975287695e-002	 1.047299869257318e+000	-4.678811648342699e-001
 6.574415031859678e-002	 1.047939743836623e+000	-4.678816623997953e-001
 5.626262031134045e-002	 1.048491543869533e+000	-4.670799361908535e-001
 4.680925638200178e-002	 1.048956097043280e+000	-4.654279375353558e-001
 3.738508295175770e-002	 1.049334243974482e+000	-4.628797797281804e-001
 2.799110212122388e-002	 1.049626837597447e+000	-4.593917683010907e-001
 1.862829359692890e-002	 1.049834742556624e+000	-4.549224242878446e-001
 9.297614634757350e-003	 1.049958834603732e+000	-4.494325007450661e-001
 0.000000000000000e+000	 1.050000000000000e+000	-4.428849927956717e-001
 9.659352076388458e-002	 1.070651526766214e+000	-2.019314273668920e-001
 8.680624983503614e-002	 1.071489465653705e+000	-2.115050395080756e-001
 7.704453307732150e-002	 1.072235580428645e+000	-2.196265594023203e-001
 6.730948722823218e-002	 1.072890690117328e+000	-2.262359315961031e-001
 5.760220650683443e-002	 1.073455628246560e+000	-2.312761259693701e-001
 4.792376248428110e-002	 1.073931242210410e+000	-2.346931693804092e-001
 3.827520397272920e-002	 1.074318392640181e+000	-2.364361687860137e-001
 2.865755693233262e-002	 1.074617952778136e+000	-2.364573261358759e-001
 1.907182439596554e-002	 1.074830807855502e+000	-2.347119453511257e-001
 9.518986411319036e-003	 1.074957854475228e+000	-2.311584317038697e-001
 0.000000000000000e+000	 1.075000000000000e+000	-2.257582839230140e-001
 9.883988170893882e-002	 1.095550399479947e+000	 9.214702340126497e-005
 8.882499982839968e-002	 1.096407825318649e+000	-1.730688355880191e-002
 7.883626640207862e-002	 1.097171291600285e+000	-3.249809559491038e-002
 6.887482413810608e-002	 1.097841636398272e+000	-4.541352243677967e-002
 5.894179270250304e-002	 1.098419712623762e+000	-5.598918857108892e-002
 4.903826858668123e-002	 1.098906387377661e+000	-6.416512754606357e-002
 3.916532499377777e-002	 1.099302541305955e+000	-6.988539031893735e-002
 2.932401174348456e-002	 1.099609067958868e+000	-7.309804438154340e-002
 1.951535519502132e-002	 1.099826873154398e+000	-7.375516403270489e-002
 9.740358187885490e-003	 1.099956874346727e+000	-7.181281217472518e-002
 0.000000000000000e+000	 1.100000000000000e+000	-6.723101401634070e-002
 1.010862426544848e-001	 1.120449272194170e+000	 1.447685620408266e-001
 9.084374982216018e-002	 1.121326184983990e+000	 1.197696777995663e-001
 8.062799972714832e-002	 1.122107002772237e+000	 9.774004254120873e-002
 7.044016104821856e-002	 1.122792582679455e+000	 7.875565194892602e-002
 6.028137889834626e-002	 1.123383797001138e+000	 6.288752310821238e-002
 5.015277468920224e-002	 1.123881532545033e+000	 5.020169066501203e-002
 4.005544601490342e-002	 1.124286689971807e+000	 4.075921364923828e-002
 2.999046655467971e-002	 1.124600183139643e+000	 3.461619254371248e-002
 1.995888599409624e-002	 1.124822938453314e+000	 3.182379617009138e-002
 9.961729964456708e-003	 1.124955894218232e+000	 3.242829795357032e-002
 0.000000000000000e+000	 1.125000000000000e+000	 3.647112112226939e-002
 1.033326036005224e-001	 1.145348144908886e+000	 2.361049018800925e-001
 9.286249981631764e-002	 1.146244544649727e+000	 2.036659254162191e-001
 8.241973305253061e-002	 1.147042713944502e+000	 1.749654724527231e-001
 7.200549795856950e-002	 1.147743528960876e+000	 1.500876947582378e-001
 6.162096509436412e-002	 1.148347881378689e+000	 1.291107546796017e-001
 5.126728079184410e-002	 1.148856677712526e+000	 1.121068357806094e-001
 4.094556703610614e-002	 1.149270838637736e+000	 9.914216526276415e-002
 3.065692136591806e-002	 1.149591298320462e+000	 9.027704768596573e-002
 2.040241679319028e-002	 1.149819003752249e+000	 8.556590949732014e-002
 1.018310174103269e-002	 1.149954914089742e+000	 8.505735386734142e-002
 0.000000000000000e+000	 1.150000000000000e+000	 8.879422532643069e-002
 1.055789645470518e-001	 1.170247017624094e+000	 2.777802710149196e-001
 9.488124981087207e-002	 1.171162904315862e+000	 2.379991631222132e-001
 8.421146637822551e-002	 1.171978425117080e+000	 2.027357193034309e-001
 7.357083486915894e-002	 1.172694475242536e+000	 1.720823833518747e-001
 6.296055129055662e-002	 1.173311965756414e+000	 1.461245738240391e-001
 5.238178689460680e-002	 1.173831822880140e+000	 1.249407095812899e-001
 4.183568805738594e-002	 1.174254987303741e+000	 1.086022482628912e-001
 3.132337617719960e-002	 1.174582413501324e+000	 9.717373714475702e-002
 2.084594759230346e-002	 1.174815069051203e+000	 9.071287582644588e-002
 1.040447351761344e-002	 1.174953933961256e+000	 8.927059018125473e-002
 0.000000000000000e+000	 1.175000000000000e+000	 9.289111699765139e-002
 1.078253254940729e-001	 1.195145890339793e+000	 2.731799587519143e-001
 9.689999980582342e-002	 1.196081263982393e+000	 2.260964653362925e-001
 8.600319970423299e-002	 1.196914136289970e+000	 1.843215589204016e-001
 7.513617177998691e-002	 1.197645421524434e+000	 1.479561198621122e-001
 6.430013748692375e-002	 1.198276050134315e+000	 1.170929409098296e-001
 5.349629299749035e-002	 1.198806968047874e+000	 9.181676809457361e-002
 4.272580907874281e-002	 1.199239135969825e+000	 7.220435573789591e-002
 3.198983098852434e-002	 1.199573528682229e+000	 5.832453496295156e-002
 2.128947839143576e-002	 1.199811134350176e+000	 5.023829508487748e-002
 1.062584529419896e-002	 1.199952953832775e+000	 4.799887724802839e-002
 0.000000000000000e+000	 1.200000000000000e+000	 5.165187967109108e-002
 1.100716864415856e-001	 1.220044763055984e+000	 2.254254203700611e-001
 9.891874980117174e-002	 1.220999623649321e+000	 1.710242923107915e-001
 8.779493303055304e-002	 1.221849847463172e+000	 1.227362779300107e-001
 7.670150869105340e-002	 1.222596367806571e+000	 8.067084703215546e-002
 6.563972368346552e-002	 1.223240134512389e+000	 4.492829137129754e-002
 5.461079910049475e-002	 1.223782113215730e+000	 1.559978136561443e-002
 4.361593010017675e-002	 1.224223284635985e+000	-7.232561851190812e-003
 3.265628579989229e-002	 1.224564643863177e+000	-2.349557972462517e-002
 2.173300919058720e-002	 1.224807199649169e+000	-3.312497561208597e-002
 1.084721707078924e-002	 1.224951973704298e+000	-3.606520085589300e-002
 0.000000000000000e+000	 1.225000000000000e+000	-3.226932830413997e-002
 1.123180473895901e-001	 1.244943635772666e+000	 1.374006605231470e-001
 1.009374997969171e-001	 1.245917983316647e+000	 7.561455154820815e-002
 8.958666635718569e-002	 1.246785558636688e+000	 2.076142267777958e-002
 7.826684560235840e-002	 1.247547314088946e+000	-2.704050584516863e-002
 6.697930988018191e-002	 1.248204218890639e+000	-6.768331179806338e-002
 5.572530520362001e-002	 1.248757258383706e+000	-1.010692979447989e-001
 4.450605112168776e-002	 1.249207433302222e+000	-1.271109024079928e-001
 3.332274061130344e-002	 1.249555759044169e+000	-1.457305932004331e-001
 2.217653998975778e-002	 1.249803264948180e+000	-1.568607476803397e-001
 1.106858884738428e-002	 1.249950993575827e+000	-1.604435177027204e-001
 0.000000000000000e+000	 1.250000000000000e+000	-1.564306812465378e-001
 1.250000000000000e+000	 0.000000000000000e+000	 2.003201871317654e+001
 1.249950993575827e+000	 1.106858884738393e-002	 2.004499416035447e+001
 1.249803264948180e+000	 2.217653998975746e-002	 2.005210113335162e+001
 1.249555759044169e+000	 3.332274061130316e-002	 2.005316486766766e+001
 1.249207433302222e+000	 4.450605112168751e-002	 2.004800959256889e+001
 1.248757258383706e+000	 5.572530520361980e-002	 2.003645869556045e+001
 1.248204218890639e+000	 6.697930988018173e-002	 2.001833489402642e+001
 1.247547314088946e+000	 7.826684560235826e-002	 1.999346041398907e+001
 1.246785558636687e+000	 8.958666635718561e-002	 1.996165717592100e+001
 1.245917983316646e+000	 1.009374997969170e-001	 1.992274698752461e+001
 1.244943635772666e+000	 1.123180473895901e-001	 1.987655174337370e+001
 1.275000000000000e+000	 0.000000000000000e+000	 1.935838451249736e+001
 1.274950013447356e+000	 1.128996062397897e-002	 1.937291034695282e+001
 1.274799330247192e+000	 2.262007078892803e-002	 1.938195039408419e+001
 1.274546874225160e+000	 3.398919542271432e-002	 1.938534006312528e+001
 1.274191581968459e+000	 4.539617214319853e-002	 1.938291347259705e+001
 1.273732403551682e+000	 5.683981130674506e-002	 1.937450352183077e+001
 1.273168303268888e+000	 6.831889607689813e-002	 1.935994196587685e+001
 1.272498260371322e+000	 7.983218251366328e-002	 1.933905949384654e+001
 1.271721269810203e+000	 9.137839968381827e-002	 1.931168581073026e+001
 1.270836342983972e+000	 1.029562497926623e-001	 1.927764972273346e+001
 1.269842508489349e+000	 1.145644083375946e-001	 1.923677922616674e+001
 1.300000000000000e+000	 0.000000000000000e+000	 1.874397972927561e+001
 1.299949033318879e+000	 1.151133240056925e-002	 1.875963523325792e+001
 1.299795395546183e+000	 2.306360158807946e-002	 1.877003712480055e+001
 1.299537989406108e+000	 3.465565023408224e-002	 1.877501725318447e+001
 1.299175730634619e+000	 4.628629316463247e-002	 1.877440596604064e+001
 1.298707548719537e+000	 5.795431740974946e-002	 1.876803217854734e+001
 1.298132387646963e+000	 6.965848227343988e-002	 1.875572344619134e+001
 1.297449206653458e+000	 8.139751942472973e-002	 1.873730604114995e+001
 1.296656980983405e+000	 9.317013301013832e-002	 1.871260503234897e+001
 1.295754702650900e+000	 1.049749997880106e-001	 1.868144436924762e+001
 1.294741381205540e+000	 1.168107692851074e-001	 1.864364696939814e+001
 1.325000000000000e+000	 0.000000000000000e+000	 1.818527329793234e+001
 1.324948053190397e+000	 1.173270417715475e-002	 1.820172361325110e+001
 1.324791460845157e+000	 2.350713238721176e-002	 1.821315342832760e+001
 1.324529104587013e+000	 3.532210504540698e-002	 1.821939123456788e+001
 1.324159879300702e+000	 4.717641418598934e-002	 1.822026381197332e+001
 1.323682693887272e+000	 5.906882351263301e-002	 1.821559629579235e+001
 1.323096472024863e+000	 7.099806846980700e-002	 1.820521224690701e+001
 1.322400152935356e+000	 8.296285633555769e-002	 1.818893372602221e+001
 1.321592692156295e+000	 9.496186633614580e-002	 1.816658137172346e+001
 1.320673062317432e+000	 1.069937497829620e-001	 1.813797448246512e+001
 1.319640253921239e+000	 1.190571302321284e-001	 1.810293110254803e+001
 1.350000000000000e+000	 0.000000000000000e+000	 1.767899571330143e+001
 1.349947073061912e+000	 1.195407595373549e-002	 1.769591935210589e+001
 1.349787526144111e+000	 2.395066318632493e-002	 1.770805672525475e+001
 1.349520219767875e+000	 3.598855985668854e-002	 1.771523316653167e+001
 1.349144027966708e+000	 4.806653520726912e-002	 1.771727208958262e+001
 1.348657839054886e+000	 6.018332961539571e-002	 1.771399505179869e+001
 1.348060556402588e+000	 7.233765466599949e-002	 1.770522182209768e+001
 1.347351099217016e+000	 8.452819324614716e-002	 1.769077045268386e+001
 1.346528403328873e+000	 9.675359966184070e-002	 1.767045735486251e+001
 1.345591421983566e+000	 1.090124997775164e-001	 1.764409737898255e+001
 1.344539126636447e+000	 1.213034911786578e-001	 1.761150389857743e+001
 1.375000000000000e+000	 0.000000000000000e+000	 1.722211525241027e+001
 1.374946092933421e+000	 1.217544773031147e-002	 1.723920272546496e+001
 1.374783591443046e+000	 2.439419398541897e-002	 1.725173946543551e+001
 1.374511334948693e+000	 3.665501466792687e-002	 1.725954784732775e+001
 1.374128176632637e+000	 4.895665622847185e-002	 1.726244811814967e+001
 1.373632984222379e+000	 6.129783571803756e-002	 1.726025845779807e+001
 1.373024640780139e+000	 7.367724086201738e-002	 1.725279504400153e+001
 1.372302045498437e+000	 8.609353015649812e-002	 1.723987212141038e+001
 1.371464114501138e+000	 9.854533298722298e-002	 1.722130207492158e+001
 1.370509781649304e+000	 1.110312497716739e-001	 1.719689550732351e+001
 1.369437999351162e+000	 1.235498521246955e-001	 1.716646132134236e+001
 1.400000000000000e+000	 0.000000000000000e+000	 1.681181674392682e+001
 1.399945112804926e+000	 1.239681950688268e-002	 1.682876931136249e+001
 1.399779656741962e+000	 2.483772478449388e-002	 1.684140814323169e+001
 1.399502450129468e+000	 3.732146947912201e-002	 1.684955285357916e+001
 1.399112325298488e+000	 4.984677724959747e-002	 1.685302072132651e+001
 1.398608129389751e+000	 6.241234182055856e-002	 1.685162674793179e+001
 1.397988725157516e+000	 7.501682705786059e-002	 1.684518371925638e+001
 1.397252991779620e+000	 8.765886706661052e-002	 1.683350227174141e+001
 1.396399825673090e+000	 1.003370663122927e-001	 1.681639096299301e+001
 1.395428141314644e+000	 1.130499997654344e-001	 1.679365634687353e+001
 1.394336872065386e+000	 1.257962130702414e-001	 1.676510305319217e+001
 1.425000000000000e+000	 0.000000000000000e+000	 1.644548257240164e+001
 1.424944132676425e+000	 1.261819128344913e-002	 1.646201110404955e+001
 1.424775722040858e+000	 2.528125558354965e-002	 1.647446452167934e+001
 1.424493565310201e+000	 3.798792429027395e-002	 1.648265987551062e+001
 1.424096473964263e+000	 5.073689827064606e-002	 1.648641167412104e+001
 1.423583274557002e+000	 6.352684792295871e-002	 1.648553193864448e+001
 1.422952809534717e+000	 7.635641325352920e-002	 1.647983026132059e+001
 1.422203938060564e+000	 8.922420397648445e-002	 1.646911386851008e+001
 1.421335536844730e+000	 1.021287996370498e-001	 1.645318768828692e+001
 1.420346500979588e+000	 1.150687497587979e-001	 1.643185442271660e+001
 1.419235744779119e+000	 1.280425740152957e-001	 1.640491462492623e+001
 1.450000000000000e+000	 0.000000000000000e+000	 1.612067564758847e+001
 1.449943152547921e+000	 1.283956306001081e-002	 1.613649958156152e+001
 1.449771787339736e+000	 2.572478638258629e-002	 1.614848879898239e+001
 1.449484680490890e+000	 3.865437910138269e-002	 1.615645798301731e+001
 1.449080622629961e+000	 5.162701929161755e-002	 1.616021906915942e+001
 1.448558419724132e+000	 6.464135402523800e-002	 1.615958129572691e+001
 1.447916893911744e+000	 7.769599944902315e-002	 1.615435125885053e+001
 1.447154884341269e+000	 9.078954088611986e-002	 1.614433297207624e+001
 1.446271248016056e+000	 1.039205329614943e-001	 1.612932793070715e+001
 1.445264860644134e+000	 1.170874997517645e-001	 1.610913518100579e+001
 1.444134617492359e+000	 1.302889349598582e-001	 1.608355139437554e+001
 1.475000000000000e+000	 0.000000000000000e+000	 1.583512410569816e+001
 1.474942172419411e+000	 1.306093483656772e-002	 1.584997049522796e+001
 1.474767852638594e+000	 2.616831718160380e-002	 1.586122448688814e+001
 1.474475795671536e+000	 3.932083391244823e-002	 1.586869859348937e+001
 1.474064771295581e+000	 5.251714031251198e-002	 1.587220237451488e+001
 1.473533564891141e+000	 6.575586012739645e-002	 1.587154248267638e+001
 1.472880978288596e+000	 7.903558564434252e-002	 1.586652271509050e+001
 1.472105830621736e+000	 9.235487779551677e-002	 1.585694406921391e+001
 1.471206959187071e+000	 1.057122662856263e-001	 1.584260480367363e+001
 1.470183220308284e+000	 1.191062497443342e-001	 1.582330050412681e+001
 1.469033490205108e+000	 1.325352959039290e-001	 1.579882415428130e+001
 1.500000000000000e+000	 0.000000000000000e+000	 1.558670754052727e+001
 1.499941192290897e+000	 1.328230661311987e-002	 1.560031018023144e+001
 1.499763917937433e+000	 2.661184798060218e-002	 1.561056480122540e+001
 1.499466910852138e+000	 3.998728872347057e-002	 1.561728194285398e+001
 1.499048919961124e+000	 5.340726133332931e-002	 1.562026898575387e+001
 1.498508710058030e+000	 6.687036622943403e-002	 1.561933019422114e+001
 1.497845062665274e+000	 8.037517183948720e-002	 1.561426676332371e+001
 1.497056776901965e+000	 9.392021470467514e-002	 1.560487687091000e+001
 1.496142670357773e+000	 1.075039996094456e-001	 1.559095573466268e+001
 1.495101579972037e+000	 1.211249997365068e-001	 1.557229567434517e+001
 1.493932362917365e+000	 1.347816568475081e-001	 1.554868617938564e+001
 1.244943635772666e+000	 1.123180473895901e-001	 1.987655174337370e+001
 1.243861581248701e+000	 1.237269845919664e-001	 1.986742676666392e+001
 1.242670903331058e+000	 1.351629610433850e-001	 1.985052641571513e+001
 1.241370704692402e+000	 1.466246007820463e-001	 1.982567126878208e+001
 1.239960107836013e+000	 1.581105024852513e-001	 1.979268305799636e+001
 1.238438255840743e+000	 1.696192397320706e-001	 1.975138490639523e+001
 1.236804313105526e+000	 1.811493612893030e-001	 1.970160157056739e+001
 1.235057466092679e+000	 1.926993914209580e-001	 1.964315968864889e+001
 1.233196924069199e+000	 2.042678302214703e-001	 1.957588803337910e+001
 1.231221919845279e+000	 2.158531539728276e-001	 1.949961776990492e+001
 1.229131710509183e+000	 2.274538155257646e-001	 1.941418271799847e+001
 1.269842508489349e+000	 1.145644083375946e-001	 1.923677922616674e+001
 1.268738812875140e+000	 1.262015242844133e-001	 1.923381621426237e+001
 1.267524321399351e+000	 1.378662202651446e-001	 1.922358163192622e+001
 1.266198118788100e+000	 1.495570927987517e-001	 1.920589920633702e+001
 1.264759309994731e+000	 1.612727125360804e-001	 1.918059242336881e+001
 1.263207020959674e+000	 1.730116245277817e-001	 1.914748463909633e+001
 1.261540399369842e+000	 1.847723485159893e-001	 1.910639919481620e+001
 1.259758615416796e+000	 1.965533792499919e-001	 1.905715953557592e+001
 1.257860862552875e+000	 2.083531868261118e-001	 1.899958933219686e+001
 1.255846358244472e+000	 2.201702170519754e-001	 1.893351260677090e+001
 1.253714344721621e+000	 2.320028918353312e-001	 1.885875386160424e+001
 1.294741381205540e+000	 1.168107692851074e-001	 1.864364696939814e+001
 1.293616044500996e+000	 1.286760639762829e-001	 1.864432977248439e+001
 1.292377739466991e+000	 1.405694794862700e-001	 1.863797030166346e+001
 1.291025532883092e+000	 1.524895848147953e-001	 1.862438695118448e+001
 1.289558512152712e+000	 1.644349225862497e-001	 1.860339762404149e+001
 1.287975786077856e+000	 1.764040093228646e-001	 1.857481984249745e+001
 1.286276485633416e+000	 1.883953357421090e-001	 1.853847086241573e+001
 1.284459764740199e+000	 2.004073670785511e-001	 1.849416779140347e+001
 1.282524801035884e+000	 2.124385434304010e-001	 1.844172771076385e+001
 1.280470796643069e+000	 2.244872801309243e-001	 1.838096780124879e+001
 1.278296978933551e+000	 2.365519681448832e-001	 1.831170547259633e+001
 1.319640253921239e+000	 1.190571302321284e-001	 1.810293110254803e+001
 1.318493276126270e+000	 1.311506036675752e-001	 1.810694235648407e+001
 1.317231157533977e+000	 1.432727387067615e-001	 1.810414206034412e+001
 1.315852946977379e+000	 1.554220768301773e-001	 1.809434346443051e+001
 1.314357714309955e+000	 1.675971326357590e-001	 1.807735907722008e+001
 1.312744551195288e+000	 1.797963941173192e-001	 1.805300077465529e+001
 1.311012571896248e+000	 1.920183229676621e-001	 1.802107991353101e+001
 1.309160914062888e+000	 2.042613549066356e-001	 1.798140744899349e+001
 1.307188739518228e+000	 2.165239000343380e-001	 1.793379405616086e+001
 1.305095235041068e+000	 2.288043432096741e-001	 1.787805025586806e+001
 1.302879613144973e+000	 2.411010444544205e-001	 1.781398654453210e+001
 1.344539126636447e+000	 1.213034911786578e-001	 1.761150389857743e+001
 1.343370507750963e+000	 1.336251433582901e-001	 1.761854141742045e+001
 1.342084575600310e+000	 1.459759979266188e-001	 1.761899978295972e+001
 1.340680361070961e+000	 1.583545688448975e-001	 1.761268728774322e+001
 1.339156916466462e+000	 1.707593426846086e-001	 1.759941123107423e+001
 1.337513316311972e+000	 1.831887789111456e-001	 1.757897802681408e+001
 1.335748658158338e+000	 1.956413101926486e-001	 1.755119331556566e+001
 1.333862063384863e+000	 2.081153427342453e-001	 1.751586208126635e+001
 1.331852677999906e+000	 2.206092566379227e-001	 1.747278877221227e+001
 1.329719673438471e+000	 2.331214062882249e-001	 1.742177742652908e+001
 1.327462247355889e+000	 2.456501207639431e-001	 1.736263180209691e+001
 1.369437999351162e+000	 1.235498521246955e-001	 1.716646132134236e+001
 1.368247739375074e+000	 1.360996830484277e-001	 1.717623664670181e+001
 1.366937993665990e+000	 1.486792571458420e-001	 1.717966712303549e+001
 1.365507775163839e+000	 1.612870608589561e-001	 1.717655626901320e+001
 1.363956118622231e+000	 1.739215527327984e-001	 1.716670635757590e+001
 1.362282081427904e+000	 1.865811637043437e-001	 1.714991852199124e+001
 1.360484744419686e+000	 1.992642974170684e-001	 1.712599286657146e+001
 1.358563212706124e+000	 2.119693305613803e-001	 1.709472858209514e+001
 1.356516616480918e+000	 2.246946132411551e-001	 1.705592406596764e+001
 1.354344111835278e+000	 2.374384693665767e-001	 1.700937704714807e+001
 1.352044881566296e+000	 2.501991970734510e-001	 1.695488471586320e+001
 1.394336872065386e+000	 1.257962130702414e-001	 1.676510305319217e+001
 1.393124970998602e+000	 1.385742227379879e-001	 1.677734013310606e+001
 1.391791411731016e+000	 1.513825163644311e-001	 1.678346880026126e+001
 1.390335189256011e+000	 1.642195528723530e-001	 1.678328798144073e+001
 1.388755320777263e+000	 1.770837627803283e-001	 1.677659510394555e+001
 1.387050846543088e+000	 1.899735484969137e-001	 1.676318619964057e+001
 1.385220830680293e+000	 2.028872846409217e-001	 1.674285601394066e+001
 1.383264362026671e+000	 2.158233183880406e-001	 1.671539811979240e+001
 1.381180554961264e+000	 2.287799698440352e-001	 1.668060503669973e+001
 1.378968550231487e+000	 2.417555324447296e-001	 1.663826835483449e+001
 1.376627515776197e+000	 2.547482733829443e-001	 1.658817886426519e+001
 1.419235744779119e+000	 1.280425740152957e-001	 1.640491462492623e+001
 1.418002202621548e+000	 1.410487624269708e-001	 1.641934860862538e+001
 1.416644829795389e+000	 1.540857755823861e-001	 1.642791296310854e+001
 1.415162603347478e+000	 1.671520448850881e-001	 1.643040220377175e+001
 1.413554522931558e+000	 1.802459728271983e-001	 1.642660909131459e+001
 1.411819611657522e+000	 1.933659332888554e-001	 1.641632473350888e+001
 1.409956916940157e+000	 2.065102718642082e-001	 1.639933869218330e+001
 1.407965511346504e+000	 2.196773062142262e-001	 1.637543909549270e+001
 1.405844493440945e+000	 2.328653264465631e-001	 1.634441275553432e+001
 1.403592988627099e+000	 2.460725955226834e-001	 1.630604529136566e+001
 1.401210149985591e+000	 2.592973496924230e-001	 1.626012125747107e+001
 1.444134617492359e+000	 1.302889349598582e-001	 1.608355139437554e+001
 1.442879434243912e+000	 1.435233021153764e-001	 1.609992753094770e+001
 1.441498247859108e+000	 1.567890347997070e-001	 1.611067537600436e+001
 1.439990017438240e+000	 1.700845368971616e-001	 1.611558521292324e+001
 1.438353725085116e+000	 1.834081828734086e-001	 1.611444531352622e+001
 1.436588376771207e+000	 1.967583180801688e-001	 1.610704203730035e+001
 1.434693003199280e+000	 2.101332590869282e-001	 1.609315993610678e+001
 1.432666660665624e+000	 2.235312940399371e-001	 1.607258186446135e+001
 1.430508431919961e+000	 2.369506830487387e-001	 1.604508909546306e+001
 1.428217427022114e+000	 2.503896586004382e-001	 1.601046144243972e+001
 1.425792784194477e+000	 2.638464260018870e-001	 1.596847738637157e+001
 1.469033490205108e+000	 1.325352959039290e-001	 1.579882415428130e+001
 1.467756665865694e+000	 1.459978418032046e-001	 1.581689678466873e+001
 1.466351665922175e+000	 1.594922940163938e-001	 1.582958521458935e+001
 1.464817431528297e+000	 1.730170289085734e-001	 1.583667567396872e+001
 1.463152927237936e+000	 1.865703929189590e-001	 1.583795212249888e+001
 1.461357141884141e+000	 2.001507028708540e-001	 1.583319634603624e+001
 1.459429089457661e+000	 2.137562463090816e-001	 1.582218805875691e+001
 1.457367809984029e+000	 2.273852818651732e-001	 1.580470501116813e+001
 1.455172370398310e+000	 2.410360396505621e-001	 1.578052310406693e+001
 1.452841865416533e+000	 2.547067216779940e-001	 1.574941650853002e+001
 1.450375418402855e+000	 2.683955023113362e-001	 1.571115779201070e+001
 1.493932362917365e+000	 1.347816568475081e-001	 1.554868617938564e+001
 1.492633897486894e+000	 1.484723814904555e-001	 1.556821781238294e+001
 1.491205083984588e+000	 1.621955532324464e-001	 1.558261228144979e+001
 1.489644845617649e+000	 1.759495209193235e-001	 1.559165194112518e+001
 1.487952129390019e+000	 1.897326029638495e-001	 1.559511661505329e+001
 1.486125906996327e+000	 2.035430876609110e-001	 1.559278368927846e+001
 1.484165175715299e+000	 2.173792335306682e-001	 1.558442821156477e+001
 1.482068959301720e+000	 2.312392696899346e-001	 1.556982299685376e+001
 1.479836308875994e+000	 2.451213962520331e-001	 1.554873873896720e+001
 1.477466303810354e+000	 2.590237847553507e-001	 1.552094412865412e+001
 1.474958052610726e+000	 2.729445786207708e-001	 1.548620597807302e+001
 1.229131710509183e+000	 2.274538155257646e-001	 1.941418271799847e+001
 1.226925578158476e+000	 2.390682447049866e-001	 1.938068699140278e+001
 1.224602830624363e+000	 2.506948487390461e-001	 1.933851784631516e+001
 1.222162802189878e+000	 2.623320127144961e-001	 1.928757458918259e+001
 1.219604854302598e+000	 2.739781000540936e-001	 1.922776062175217e+001
 1.216928376278658e+000	 2.856314530195622e-001	 1.915898366738822e+001
 1.214132785997951e+000	 2.972903932386898e-001	 1.908115599776476e+001
 1.211217530589606e+000	 3.089532222566900e-001	 1.899419465949650e+001
 1.208182087106841e+000	 3.206182221117185e-001	 1.889802170025639e+001
 1.205025963190290e+000	 3.322836559344022e-001	 1.879256439391458e+001
 1.201748697718857e+000	 3.439477685711992e-001	 1.867775546421871e+001
 1.253714344721621e+000	 2.320028918353312e-001	 1.885875386160424e+001
 1.251464089723864e+000	 2.438496095974737e-001	 1.884013736078480e+001
 1.249094887239062e+000	 2.557087457116228e-001	 1.881102624692098e+001
 1.246606058235910e+000	 2.675786529660630e-001	 1.876963946172508e+001
 1.243996951390936e+000	 2.794576620520075e-001	 1.871920145325202e+001
 1.241266943806600e+000	 2.913440820764148e-001	 1.865959340838018e+001
 1.238415441720392e+000	 3.032362010996294e-001	 1.859070094558739e+001
 1.235441881204021e+000	 3.151322866977698e-001	 1.851241437081606e+001
 1.232345728851775e+000	 3.270305865497554e-001	 1.842462893353899e+001
 1.229126482457096e+000	 3.389293290488262e-001	 1.832724508252143e+001
 1.225783671676468e+000	 3.508267239383701e-001	 1.822016872075977e+001
 1.278296978933551e+000	 2.365519681448832e-001	 1.831170547259633e+001
 1.276002601288834e+000	 2.486309744901317e-001	 1.830156637156886e+001
 1.273586943853415e+000	 2.607226426845269e-001	 1.828300957306890e+001
 1.271049314281647e+000	 2.728252932180849e-001	 1.825588224332598e+001
 1.268389048479012e+000	 2.849372240504742e-001	 1.822003255859086e+001
 1.265605511334292e+000	 2.970567111338884e-001	 1.817530982559135e+001
 1.262698097442573e+000	 3.091820089612281e-001	 1.812156460459840e+001
 1.259666231818150e+000	 3.213113511395163e-001	 1.805864883505281e+001
 1.256509370596372e+000	 3.334429509884362e-001	 1.798641596369715e+001
 1.253227001723497e+000	 3.455750021638407e-001	 1.790472107514933e+001
 1.249818645633586e+000	 3.577056793060471e-001	 1.781294186009249e+001
 1.302879613144973e+000	 2.411010444544205e-001	 1.781398654453210e+001
 1.300541112853388e+000	 2.534123393829606e-001	 1.781115932592332e+001
 1.298079000467422e+000	 2.657365396577586e-001	 1.779990615454296e+001
 1.295492570327091e+000	 2.780719334705618e-001	 1.778005331509446e+001
 1.292781145566826e+000	 2.904167860494935e-001	 1.775142779286570e+001
 1.289944078861733e+000	 3.027693401919828e-001	 1.771385740824258e+001
 1.286980753164496e+000	 3.151278168234857e-001	 1.766717095454340e+001
 1.283890582431992e+000	 3.274904155819298e-001	 1.761119833912193e+001
 1.280673012340635e+000	 3.398553154277612e-001	 1.754577072767874e+001
 1.277327520989495e+000	 3.522206752794461e-001	 1.747072069171136e+001
 1.273853619590210e+000	 3.645846346742306e-001	 1.738588235902558e+001
 1.327462247355889e+000	 2.456501207639431e-001	 1.736263180209691e+001
 1.325079624417525e+000	 2.581937042759605e-001	 1.736601680722328e+001
 1.322571057081084e+000	 2.707504366313178e-001	 1.736097528582406e+001
 1.319935826372239e+000	 2.833185737234933e-001	 1.734731318629996e+001
 1.317173242654377e+000	 2.958963480490658e-001	 1.732483684706867e+001
 1.314282646388923e+000	 3.084819692506980e-001	 1.729335314459289e+001
 1.311263408886161e+000	 3.210736246864024e-001	 1.725266964543413e+001
 1.308114933045548e+000	 3.336694800250100e-001	 1.720259476227785e+001
 1.304836654084563e+000	 3.462676798677306e-001	 1.714293791386555e+001
 1.301428040255088e+000	 3.588663483956419e-001	 1.707350968875960e+001
 1.297888593546341e+000	 3.714635900429203e-001	 1.699412201285574e+001
 1.352044881566296e+000	 2.501991970734510e-001	 1.695488471586320e+001
 1.349618135981244e+000	 2.629750691691311e-001	 1.696344308786514e+001
 1.347063113694399e+000	 2.757643336052045e-001	 1.696358201243332e+001
 1.344379082417094e+000	 2.885652139768798e-001	 1.695508762157622e+001
 1.341565339741666e+000	 3.013759100491908e-001	 1.693774612524704e+001
 1.338621213915864e+000	 3.141945983100343e-001	 1.691134397235676e+001
 1.335546064607567e+000	 3.270194325499778e-001	 1.687566801651255e+001
 1.332339283658817e+000	 3.398485444687570e-001	 1.683050568642546e+001
 1.329000295828156e+000	 3.526800443083439e-001	 1.677564516092047e+001
 1.325528559520277e+000	 3.655120215124287e-001	 1.671087554847006e+001
 1.321923567501977e+000	 3.783425454121162e-001	 1.663598707116067e+001
 1.376627515776197e+000	 2.547482733829443e-001	 1.658817886426519e+001
 1.374156647544547e+000	 2.677564340624728e-001	 1.660092794274704e+001
 1.371555170307368e+000	 2.807782305794187e-001	 1.660527228821515e+001
 1.368822338461654e+000	 2.938118542307213e-001	 1.660097871290500e+001
 1.365957436828692e+000	 3.068554720498686e-001	 1.658781379306525e+001
 1.362959781442554e+000	 3.199072273699915e-001	 1.656554404243830e+001
 1.359828720328715e+000	 3.329652404142125e-001	 1.653393609116126e+001
 1.356563634271800e+000	 3.460276089131709e-001	 1.649275687003040e+001
 1.353163937571413e+000	 3.590924087496013e-001	 1.644177380006018e+001
 1.349629078785063e+000	 3.721576946298061e-001	 1.638075498725475e+001
 1.345958541457119e+000	 3.852215007818184e-001	 1.630946942249613e+001
 1.401210149985591e+000	 2.592973496924230e-001	 1.626012125747107e+001
 1.398695159107433e+000	 2.725377989559853e-001	 1.627613037711988e+001
 1.396047226919992e+000	 2.857921275539604e-001	 1.628375710618625e+001
 1.393265594505920e+000	 2.990584944850177e-001	 1.628274941230514e+001
 1.390349533915456e+000	 3.123350340510991e-001	 1.627285471099661e+001
 1.387298348968993e+000	 3.256198564305695e-001	 1.625382005110763e+001
 1.384111376049605e+000	 3.389110482791060e-001	 1.622539230636485e+001
 1.380787984884495e+000	 3.522066733582516e-001	 1.618731837298206e+001
 1.377327579314336e+000	 3.655047731915030e-001	 1.613934537325217e+001
 1.373729598049444e+000	 3.788033677477742e-001	 1.608122086503902e+001
 1.369993515411769e+000	 3.921004561520270e-001	 1.601269305706925e+001
 1.425792784194477e+000	 2.638464260018870e-001	 1.596847738637157e+001
 1.423233670669902e+000	 2.773191638496688e-001	 1.598686403776405e+001
 1.420539283532269e+000	 2.908060245288296e-001	 1.599689827102103e+001
 1.417708850549891e+000	 3.043051347397688e-001	 1.599830966458802e+001
 1.414741631001957e+000	 3.178145960528824e-001	 1.599082692615015e+001
 1.411636916495181e+000	 3.313324854917684e-001	 1.597417808953838e+001
 1.408394031770235e+000	 3.448568561446586e-001	 1.594809071843392e+001
 1.405012335496905e+000	 3.583857378039991e-001	 1.591229211681575e+001
 1.401491221056923e+000	 3.719171376340487e-001	 1.586650954608106e+001
 1.397830117313421e+000	 3.854490408663330e-001	 1.581047044875185e+001
 1.394028489365924e+000	 3.989794115227418e-001	 1.574390267866512e+001
 1.450375418402855e+000	 2.683955023113362e-001	 1.571115779201070e+001
 1.447772182231955e+000	 2.821005287435232e-001	 1.573108410777530e+001
 1.445031340144201e+000	 2.958199215040264e-001	 1.574269561840278e+001
 1.442152106593569e+000	 3.095517749949749e-001	 1.574570395034145e+001
 1.439133728088196e+000	 3.232941580552186e-001	 1.573981953781009e+001
 1.435975484021120e+000	 3.370451145535882e-001	 1.572475183068037e+001
 1.432676687490608e+000	 3.508026640108701e-001	 1.570020950984190e+001
 1.429236686109027e+000	 3.645648022504134e-001	 1.566590070999694e+001
 1.425654862799175e+000	 3.783295020772385e-001	 1.562153324981490e+001
 1.421930636576994e+000	 3.920947139854825e-001	 1.556681486935933e+001
 1.418063463319586e+000	 4.058583668939629e-001	 1.550145347468252e+001
 1.474958052610726e+000	 2.729445786207708e-001	 1.548620597807302e+001
 1.472310693793589e+000	 2.868818936375483e-001	 1.550687551187193e+001
 1.469523396755786e+000	 3.008338184795506e-001	 1.551927551243972e+001
 1.466595362636951e+000	 3.147984152506359e-001	 1.552310007461507e+001
 1.463525825174173e+000	 3.287737200581075e-001	 1.551804177642137e+001
 1.460314051546808e+000	 3.427577436160289e-001	 1.550379189744495e+001
 1.456959343210721e+000	 3.567484718777407e-001	 1.548004064537819e+001
 1.453461036720863e+000	 3.707438666974945e-001	 1.544647739067707e+001
 1.449818504541092e+000	 3.847418665210725e-001	 1.540279090926488e+001
 1.446031155840162e+000	 3.987403871052226e-001	 1.534866963319493e+001
 1.442098437272754e+000	 4.127373222656903e-001	 1.528380190916601e+001
 1.201748697718857e+000	 3.439477685711992e-001	 1.867775546421871e+001
 1.198349861446522e+000	 3.556087872310357e-001	 1.861082285775189e+001
 1.194829057626238e+000	 3.672649221558912e-001	 1.853436021631968e+001
 1.191185922618588e+000	 3.789143673145657e-001	 1.844830623430996e+001
 1.187420126482944e+000	 3.905553011185042e-001	 1.835260595128254e+001
 1.183531373552289e+000	 4.021858871602737e-001	 1.824721096968149e+001
 1.179519402990089e+000	 4.138042749739844e-001	 1.813207966804274e+001
 1.175383989328324e+000	 4.254086008172058e-001	 1.800717740914360e+001
 1.171124942985805e+000	 4.369969884738851e-001	 1.787247674253678e+001
 1.166742110765889e+000	 4.485675500777415e-001	 1.772795760090972e+001
 1.162235376332733e+000	 4.601183869555650e-001	 1.757360748970909e+001
 1.225783671676468e+000	 3.508267239383701e-001	 1.822016872075977e+001
 1.222316858678915e+000	 3.627209629714752e-001	 1.816120498083849e+001
 1.218725638782410e+000	 3.746102205949435e-001	 1.809278227049638e+001
 1.215009641074746e+000	 3.864926546569513e-001	 1.801483198167625e+001
 1.211168529016486e+000	 3.983664071371730e-001	 1.792729183426981e+001
 1.207202001027271e+000	 4.102296049000269e-001	 1.783010610555313e+001
 1.203109791053832e+000	 4.220803604703062e-001	 1.772322585528021e+001
 1.198891669118793e+000	 4.339167728307316e-001	 1.760660914585685e+001
 1.194547441849339e+000	 4.457369282409295e-001	 1.748022125701247e+001
 1.190076952984894e+000	 4.575389010772938e-001	 1.734403489438411e+001
 1.185480083862899e+000	 4.693207546931507e-001	 1.719803039142618e+001
 1.249818645633586e+000	 3.577056793060471e-001	 1.781294186009249e+001
 1.246283855910719e+000	 3.698331387123256e-001	 1.776211166813309e+001
 1.242622219937908e+000	 3.819555190343213e-001	 1.770188138945891e+001
 1.238833359530156e+000	 3.940709419995868e-001	 1.763217479163324e+001
 1.234916931549213e+000	 4.061775131560259e-001	 1.755292196067637e+001
 1.230872628501380e+000	 4.182733226399084e-001	 1.746405954282530e+001
 1.226700179116658e+000	 4.303564459667100e-001	 1.736553098211341e+001
 1.222399348908309e+000	 4.424249448443035e-001	 1.725728675316664e+001
 1.217969940711894e+000	 4.544768680079944e-001	 1.713928458860717e+001
 1.213411795202904e+000	 4.665102520768513e-001	 1.701148970045146e+001
 1.208724791392063e+000	 4.785231224307363e-001	 1.687387499488782e+001
 1.273853619590210e+000	 3.645846346742306e-001	 1.738588235902558e+001
 1.270250853141934e+000	 3.769453144535873e-001	 1.735339495284010e+001
 1.266518801092730e+000	 3.893008174740247e-001	 1.731208405653841e+001
 1.262657077984815e+000	 4.016492293424722e-001	 1.726183393038258e+001
 1.258665334081123e+000	 4.139886191750625e-001	 1.720253059891158e+001
 1.254543255974617e+000	 4.263170403799179e-001	 1.713406195967156e+001
 1.250290567178565e+000	 4.386325314631963e-001	 1.705631789386708e+001
 1.245907028696870e+000	 4.509331168579218e-001	 1.695739562014133e+001
 1.241392439573469e+000	 4.632168077750800e-001	 1.684787502623165e+001
 1.236746637419919e+000	 4.754816030764139e-001	 1.672855327456002e+001
 1.231969498920228e+000	 4.877254901683218e-001	 1.659939557618800e+001
 1.297888593546341e+000	 3.714635900429203e-001	 1.699412201285574e+001
 1.294217850372561e+000	 3.840574901952600e-001	 1.697057900973126e+001
 1.290415382246879e+000	 3.966461159140538e-001	 1.693841945623213e+001
 1.286480796438724e+000	 4.092275166856075e-001	 1.689752253195444e+001
 1.282413736612218e+000	 4.217997251942835e-001	 1.684776889234172e+001
 1.278213883446982e+000	 4.343607581200555e-001	 1.678904077717289e+001
 1.273880955239555e+000	 4.469086169597644e-001	 1.672122212141924e+001
 1.269414708484477e+000	 4.594412888715865e-001	 1.664419866841737e+001
 1.264814938434064e+000	 4.719567475421861e-001	 1.655785808529597e+001
 1.260081479635940e+000	 4.844529540759816e-001	 1.646209008058573e+001
 1.255214206447393e+000	 4.969278579059074e-001	 1.635678652393208e+001
 1.321923567501977e+000	 3.783425454121162e-001	 1.663598707116067e+001
 1.318184847602598e+000	 3.911696659373439e-001	 1.662136562093411e+001
 1.314311963400354e+000	 4.039914143544086e-001	 1.659833468760471e+001
 1.310304514891883e+000	 4.168058040289927e-001	 1.656676836249866e+001
 1.306162139142497e+000	 4.296108312136883e-001	 1.652654191977950e+001
 1.301884510918475e+000	 4.424044758603212e-001	 1.647753192459518e+001
 1.297471343299627e+000	 4.551847024564149e-001	 1.641961634405077e+001
 1.292922388271132e+000	 4.679494608852973e-001	 1.635267466096544e+001
 1.288237437293681e+000	 4.806966873093129e-001	 1.627658799036350e+001
 1.283416321850965e+000	 4.934243050755545e-001	 1.619123919863866e+001
 1.278458913973558e+000	 5.061302256434931e-001	 1.609651302532175e+001
 1.345958541457119e+000	 3.852215007818184e-001	 1.630946942249613e+001
 1.342151844832046e+000	 3.982818416798387e-001	 1.630375251681697e+001
 1.338208544553154e+000	 4.113367127950889e-001	 1.628983373262868e+001
 1.334128233344292e+000	 4.243840913726280e-001	 1.626758206532401e+001
 1.329910541671959e+000	 4.374219372332774e-001	 1.623686739521251e+001
 1.325555138389096e+000	 4.504481936007150e-001	 1.619756059522331e+001
 1.321061731358780e+000	 4.634607879531473e-001	 1.614953364189839e+001
 1.316430068056832e+000	 4.764576328990545e-001	 1.609265972964795e+001
 1.311659936152317e+000	 4.894366270764604e-001	 1.602681338822896e+001
 1.306751164064996e+000	 5.023956560751326e-001	 1.595187060339784e+001
 1.301703621498723e+000	 5.153325933810786e-001	 1.586770894067633e+001
 1.369993515411769e+000	 3.921004561520270e-001	 1.601269305706925e+001
 1.366118842060906e+000	 4.053940174227450e-001	 1.601586895988002e+001
 1.362105125705279e+000	 4.186820112360948e-001	 1.601105151782733e+001
 1.357951951795951e+000	 4.319623787165131e-001	 1.599810462277135e+001
 1.353658944200606e+000	 4.452330432530504e-001	 1.597689274834058e+001
 1.349225765858845e+000	 4.584919113412370e-001	 1.594728105708178e+001
 1.344652119417017e+000	 4.717368734499621e-001	 1.590913551137418e+001
 1.339937747841579e+000	 4.849658049128583e-001	 1.586232298809283e+001
 1.335082435009975e+000	 4.981765668436284e-001	 1.580671139699465e+001
 1.330086006278031e+000	 5.113670070747158e-001	 1.574216980278913e+001
 1.324948329022888e+000	 5.245349611186642e-001	 1.566856855084367e+001
 1.394028489365924e+000	 3.989794115227418e-001	 1.574390267866512e+001
 1.390085839289178e+000	 4.125061931660621e-001	 1.575596440577841e+001
 1.386001706856731e+000	 4.260273096774265e-001	 1.576024262595139e+001
 1.381775670246860e+000	 4.395406660606481e-001	 1.575659612009014e+001
 1.377407346728437e+000	 4.530441492730074e-001	 1.574488394218665e+001
 1.372896393327723e+000	 4.665356290818870e-001	 1.572496552580195e+001
 1.368242507474335e+000	 4.800129589468590e-001	 1.569670079479689e+001
 1.363445427625372e+000	 4.934739769267081e-001	 1.565995027830912e+001
 1.358504933866654e+000	 5.069165066108172e-001	 1.561457522996231e+001
 1.353420848490073e+000	 5.203383580743043e-001	 1.556043775128152e+001
 1.348193036546053e+000	 5.337373288562498e-001	 1.549740091927559e+001
 1.418063463319586e+000	 4.058583668939629e-001	 1.550145347468252e+001
 1.414052836516859e+000	 4.196183689097904e-001	 1.552239831746162e+001
 1.409898288007508e+000	 4.333726081190837e-001	 1.553577115562054e+001
 1.405599388697018e+000	 4.471189534050329e-001	 1.554142565197155e+001
 1.401155749255452e+000	 4.608552552931484e-001	 1.553921542789997e+001
 1.396567020795728e+000	 4.745793468226651e-001	 1.552899416906206e+001
 1.391832895530735e+000	 4.882890444438381e-001	 1.551061573582352e+001
 1.386953107408211e+000	 5.019821489406043e-001	 1.548393427845112e+001
 1.381927432722353e+000	 5.156564463780266e-001	 1.544880435705698e+001
 1.376755690701119e+000	 5.293097090738980e-001	 1.540508106628172e+001
 1.371437744068218e+000	 5.429396965938355e-001	 1.535262016468855e+001
 1.442098437272754e+000	 4.127373222656903e-001	 1.528380190916601e+001
 1.438019833743952e+000	 4.267305446539297e-001	 1.531363099789884e+001
 1.433794869157610e+000	 4.407179065610665e-001	 1.533610159500121e+001
 1.429423107146426e+000	 4.546972407496676e-001	 1.535106223842829e+001
 1.424904151781650e+000	 4.686663613134736e-001	 1.535836110407872e+001
 1.420237648262862e+000	 4.826230645635711e-001	 1.535784611058336e+001
 1.415423283586218e+000	 4.965651299408994e-001	 1.534936502933793e+001
 1.410460787190097e+000	 5.104903209545468e-001	 1.533276559980637e+001
 1.405349931577071e+000	 5.243963861452564e-001	 1.530789565010832e+001
 1.400090532911170e+000	 5.382810600734967e-001	 1.527460322288933e+001
 1.394682451589383e+000	 5.521420643314209e-001	 1.523273670645828e+001
 1.162235376332733e+000	 4.601183869555650e-001	 1.757360748970909e+001
 1.157604660665571e+000	 4.716475904904681e-001	 1.749085462556252e+001
 1.152849922489192e+000	 4.831532430025667e-001	 1.740241153082198e+001
 1.147971158680544e+000	 4.946334186475059e-001	 1.730850790636329e+001
 1.142968404651231e+000	 5.060861843335416e-001	 1.720938031952842e+001
 1.137841734704208e+000	 5.175096006544980e-001	 1.710527210162603e+001
 1.132591262364247e+000	 5.289017228384252e-001	 1.699643323384451e+001
 1.127217140681487e+000	 5.402606017111219e-001	 1.688312022145484e+001
 1.121719562507361e+000	 5.515842846736656e-001	 1.676559595620233e+001
 1.116098760742258e+000	 5.628708166930494e-001	 1.664412956681168e+001
 1.110355008554307e+000	 5.741182413050000e-001	 1.651899625755453e+001
 1.185480083862899e+000	 4.693207546931507e-001	 1.719803039142618e+001
 1.180756753882166e+000	 4.810805422992081e-001	 1.713412421303083e+001
 1.175906920941978e+000	 4.928163078619167e-001	 1.706236148317306e+001
 1.170930581856822e+000	 5.045260870200347e-001	 1.698288056701864e+001
 1.165827772746534e+000	 5.162079080199817e-001	 1.689582785165172e+001
 1.160598569400124e+000	 5.278597926674586e-001	 1.680135775518915e+001
 1.155243087612865e+000	 5.394797572950754e-001	 1.669963272414528e+001
 1.149761483495895e+000	 5.510658137451465e-001	 1.659082321872998e+001
 1.144153953757676e+000	 5.626159703667706e-001	 1.647510768578324e+001
 1.138420735956605e+000	 5.741282330262800e-001	 1.635267251907229e+001
 1.132562108724172e+000	 5.856006061301156e-001	 1.622371200670088e+001
 1.208724791392063e+000	 4.785231224307363e-001	 1.687387499488782e+001
 1.203908847097765e+000	 4.905134941079478e-001	 1.682402993304897e+001
 1.198963919393784e+000	 5.024793727212670e-001	 1.676422055514666e+001
 1.193890005032145e+000	 5.144187553925634e-001	 1.669449626261480e+001
 1.188687140840915e+000	 5.263296317064221e-001	 1.661491562450065e+001
 1.183355404095165e+000	 5.382099846804193e-001	 1.652554649624217e+001
 1.177894912860660e+000	 5.500577917517255e-001	 1.642646612651516e+001
 1.172305826309545e+000	 5.618710257791709e-001	 1.631776125164222e+001
 1.166588345007307e+000	 5.736476560598756e-001	 1.619952817707298e+001
 1.160742711170352e+000	 5.853856493595105e-001	 1.607187284546582e+001
 1.154769208893534e+000	 5.970829709552312e-001	 1.593491089092352e+001
 1.231969498920228e+000	 4.877254901683218e-001	 1.659939557618800e+001
 1.227060940312370e+000	 4.999464459166876e-001	 1.655912167148681e+001
 1.222020917844610e+000	 5.121424375806170e-001	 1.650683010871892e+001
 1.216849428206511e+000	 5.243114237650922e-001	 1.644248353827071e+001
 1.211546508934374e+000	 5.364513553928624e-001	 1.636605491539263e+001
 1.206112238789327e+000	 5.485601766933796e-001	 1.627752772684291e+001
 1.200546738107633e+000	 5.606358262083755e-001	 1.617689620540401e+001
 1.194850169122437e+000	 5.726762378131957e-001	 1.606416553157342e+001
 1.189022736256255e+000	 5.846793417529804e-001	 1.593935202174759e+001
 1.183064686383501e+000	 5.966430656927413e-001	 1.580248330223564e+001
 1.176976309062392e+000	 6.085653357803470e-001	 1.565359846845983e+001
 1.255214206447393e+000	 4.969278579059074e-001	 1.635678652393208e+001
 1.250213033525979e+000	 5.093793977254275e-001	 1.633743588562395e+001
 1.245077916294454e+000	 5.218055024399670e-001	 1.628915575448054e+001
 1.239808851379922e+000	 5.342040921376208e-001	 1.622607459995998e+001
 1.234405877026911e+000	 5.465730790793024e-001	 1.614874038382565e+001
 1.228869073482613e+000	 5.589103687063400e-001	 1.605705427265508e+001
 1.223198563353783e+000	 5.712138606650258e-001	 1.595092952130260e+001
 1.217394511934570e+000	 5.834814498472204e-001	 1.583029178018835e+001
 1.211457127504519e+000	 5.957110274460854e-001	 1.569507938848870e+001
 1.205386661596051e+000	 6.079004820259717e-001	 1.554524365237318e+001
 1.199183409230746e+000	 6.200477006054626e-001	 1.538074910745222e+001
 1.278458913973558e+000	 5.061302256434931e-001	 1.609651302532175e+001
 1.273365126738593e+000	 5.188123495341673e-001	 1.608068220999363e+001
 1.268134914743319e+000	 5.314685672993172e-001	 1.604926205508114e+001
 1.262768274552376e+000	 5.440967605101497e-001	 1.600196456286495e+001
 1.257265245118527e+000	 5.566948027657426e-001	 1.593850776959842e+001
 1.251625908175022e+000	 5.692605607193008e-001	 1.585861610251363e+001
 1.245850388599111e+000	 5.817918951216760e-001	 1.574861244928434e+001
 1.239938854745945e+000	 5.942866618812448e-001	 1.561641800122723e+001
 1.233891518752100e+000	 6.067427131391905e-001	 1.546721551598302e+001
 1.227708636808003e+000	 6.191578983592024e-001	 1.530088184682275e+001
 1.221390509398596e+000	 6.315300654305784e-001	 1.527268609597541e+001
 1.301703621498723e+000	 5.153325933810786e-001	 1.586770894067633e+001
 1.296517219950213e+000	 5.282453013429074e-001	 1.585154655403145e+001
 1.291191913191203e+000	 5.411316321586673e-001	 1.581810209964684e+001
 1.285727697723875e+000	 5.539894288826783e-001	 1.576700672762051e+001
 1.280124613209222e+000	 5.668165264521828e-001	 1.569789828891221e+001
 1.274382742866554e+000	 5.796107527322612e-001	 1.561042178536463e+001
 1.268502213843616e+000	 5.923699295783261e-001	 1.550422982031065e+001
 1.262483197556562e+000	 6.050918739152694e-001	 1.537898304908323e+001
 1.256325909998997e+000	 6.177743988322954e-001	 1.523435062872728e+001
 1.250030612019355e+000	 6.304153146924331e-001	 1.519457658832158e+001
 1.243597609565942e+000	 6.430124302556941e-001	 1.528199647520826e+001
 1.324948329022888e+000	 5.245349611186642e-001	 1.566856855084367e+001
 1.319669313160837e+000	 5.376782531516471e-001	 1.564843439440893e+001
 1.314248911638107e+000	 5.507946970180175e-001	 1.560938159111602e+001
 1.308687120894418e+000	 5.638820972552071e-001	 1.555096233146836e+001
 1.302983981298996e+000	 5.769382501386230e-001	 1.547273615026986e+001
 1.297139577557209e+000	 5.899609447452218e-001	 1.537427046778750e+001
 1.291154039087298e+000	 6.029479640349763e-001	 1.525514113199578e+001
 1.285027540366422e+000	 6.158970859492940e-001	 1.511493296107829e+001
 1.278760301245211e+000	 6.288060845254002e-001	 1.503758338323668e+001
 1.272352587230109e+000	 6.416727310256637e-001	 1.514226945337116e+001
 1.265804709732784e+000	 6.544947950808098e-001	 1.522870490927091e+001
 1.348193036546053e+000	 5.337373288562498e-001	 1.549740091927559e+001
 1.342821406370466e+000	 5.471112049603871e-001	 1.546985137742488e+001
 1.337305910084030e+000	 5.604577618773676e-001	 1.542180024845387e+001
 1.331646544064004e+000	 5.737747656277357e-001	 1.535272255161243e+001
 1.325843349387848e+000	 5.870599738250631e-001	 1.526210127101070e+001
 1.319896412246986e+000	 6.003111367581823e-001	 1.514942798614534e+001
 1.313805864330157e+000	 6.135259984916263e-001	 1.501420350401492e+001
 1.307571883175523e+000	 6.267022979833186e-001	 1.489225231184106e+001
 1.301194692490741e+000	 6.398377702185053e-001	 1.499335341320718e+001
 1.294674562440264e+000	 6.529301473588941e-001	 1.507444585863002e+001
 1.288011809899122e+000	 6.659771599059257e-001	 1.513524854157197e+001
 1.371437744068218e+000	 5.429396965938355e-001	 1.535262016468855e+001
 1.365973499579100e+000	 5.565441567691268e-001	 1.531439483005371e+001
 1.360362908528973e+000	 5.701208267367177e-001	 1.525413627787893e+001
 1.354605967232635e+000	 5.836674340002644e-001	 1.517124404732085e+001
 1.348702717475778e+000	 5.971816975115032e-001	 1.506512624059726e+001
 1.342653246935887e+000	 6.106613287711427e-001	 1.493520024118863e+001
 1.336457689572195e+000	 6.241040329482765e-001	 1.478089343414813e+001
 1.330116225983865e+000	 6.375075100173433e-001	 1.486045298611511e+001
 1.323629083735587e+000	 6.508694559116101e-001	 1.493682606034854e+001
 1.316996537649820e+000	 6.641875636921250e-001	 1.499127284865890e+001
 1.310218910064956e+000	 6.774595247310413e-001	 1.502345264303978e+001
 1.394682451589383e+000	 5.521420643314209e-001	 1.523273670645828e+001
 1.389125592786738e+000	 5.659771085778665e-001	 1.518074611988934e+001
 1.383419906972935e+000	 5.797838915960678e-001	 1.510523983225860e+001
 1.377565390400310e+000	 5.935601023727930e-001	 1.500554350308718e+001
 1.371562085562787e+000	 6.073034211979435e-001	 1.488099193127165e+001
 1.365410081623910e+000	 6.210115207841032e-001	 1.473092985935629e+001
 1.359109514813409e+000	 6.346820674049265e-001	 1.474726677255696e+001
 1.352660568791450e+000	 6.483127220513676e-001	 1.481932527904852e+001
 1.346063474979750e+000	 6.619011416047149e-001	 1.486801100978612e+001
 1.339318512858777e+000	 6.754449800253554e-001	 1.489290994422485e+001
 1.332426010230286e+000	 6.889418895561570e-001	 1.489362346765400e+001
 1.110355008554307e+000	 5.741182413050000e-001	 1.651899625755453e+001
 1.104488619568381e+000	 5.853246016274840e-001	 1.631148316637947e+001
 1.098499948025726e+000	 5.964879413854602e-001	 1.608335117483759e+001
 1.092389388913029e+000	 6.076063059449269e-001	 1.583432230307224e+001
 1.086157378059845e+000	 6.186777433540810e-001	 1.556413644344644e+001
 1.079804392204922e+000	 6.297003053920890e-001	 1.539476134534030e+001
 1.073330949030676e+000	 6.406720486238721e-001	 1.536779905670904e+001
 1.066737607165499e+000	 6.515910354597975e-001	 1.531890037008795e+001
 1.060024966153559e+000	 6.624553352191407e-001	 1.524768943304200e+001
 1.053193666391866e+000	 6.732630251961717e-001	 1.515379812837071e+001
 1.046244389034349e+000	 6.840121917276982e-001	 1.503686646027036e+001
 1.132562108724172e+000	 5.856006061301156e-001	 1.622371200670088e+001
 1.126578391957822e+000	 5.970310936587155e-001	 1.598171354680439e+001
 1.120469946983697e+000	 6.084177002116505e-001	 1.572049875628926e+001
 1.114237176688216e+000	 6.197584320622394e-001	 1.543984811163985e+001
 1.107880525617529e+000	 6.310512982196433e-001	 1.529562505053204e+001
 1.101400480045157e+000	 6.422943114986125e-001	 1.526693837671515e+001
 1.094797568007167e+000	 6.534854895953677e-001	 1.521872902056549e+001
 1.088072359304516e+000	 6.646228561684838e-001	 1.515066726949844e+001
 1.081225465472260e+000	 6.757044419236223e-001	 1.506242868266228e+001
 1.074257539715345e+000	 6.867282857009384e-001	 1.495369439561138e+001
 1.067169276810782e+000	 6.976924355639771e-001	 1.482415143467066e+001
 1.154769208893534e+000	 5.970829709552312e-001	 1.593491089092352e+001
 1.148668164346859e+000	 6.087375856899423e-001	 1.566188253705348e+001
 1.142439945941363e+000	 6.203474590378212e-001	 1.537096331254733e+001
 1.136084964463200e+000	 6.319105581795070e-001	 1.523797234228142e+001
 1.129603673175109e+000	 6.434248530851262e-001	 1.520598542327644e+001
 1.122996567885389e+000	 6.548883176050125e-001	 1.515674607493738e+001
 1.116264186983754e+000	 6.662989305666851e-001	 1.508997368784819e+001
 1.109407111443731e+000	 6.776546768769276e-001	 1.500539060928024e+001
 1.102425964791258e+000	 6.889535486277861e-001	 1.490272236135875e+001
 1.095321413039221e+000	 7.001935462053028e-001	 1.478169787189808e+001
 1.088094164587713e+000	 7.113726793997586e-001	 1.464204971796168e+001
 1.176976309062392e+000	 6.085653357803470e-001	 1.565359846845983e+001
 1.170757936735493e+000	 6.204440777211642e-001	 1.535281561334467e+001
 1.164409944898726e+000	 6.322772178639721e-001	 1.521750728035635e+001
 1.157932752237980e+000	 6.440626842967306e-001	 1.518072489121991e+001
 1.151326820732587e+000	 6.557984079505302e-001	 1.512882006329780e+001
 1.144592655725618e+000	 6.674823237112890e-001	 1.506156416267479e+001
 1.137730805960439e+000	 6.791123715378246e-001	 1.497872934804373e+001
 1.130741863583143e+000	 6.906864975851281e-001	 1.488008869760551e+001
 1.123626464110552e+000	 7.022026553316326e-001	 1.476541635128165e+001
 1.116385286363495e+000	 7.136588067092649e-001	 1.463448766852359e+001
 1.109019052365140e+000	 7.250529232350426e-001	 1.448707940194489e+001
 1.199183409230746e+000	 6.200477006054626e-001	 1.538074910745222e+001
 1.192847709123722e+000	 6.321505697523810e-001	 1.523028245848550e+001
 1.186379943855785e+000	 6.442069766901031e-001	 1.518728293988832e+001
 1.179780540012557e+000	 6.562148104139098e-001	 1.513115341245385e+001
 1.173049968289960e+000	 6.681719628158551e-001	 1.506171999839749e+001
 1.166188743565844e+000	 6.800763298174418e-001	 1.497880760219589e+001
 1.159197424937220e+000	 6.919258125087856e-001	 1.488223994173272e+001
 1.152076615722752e+000	 7.037183182930858e-001	 1.477183959705678e+001
 1.144826963430145e+000	 7.154517620351613e-001	 1.464742807727132e+001
 1.137449159688166e+000	 7.271240672128243e-001	 1.450882590601585e+001
 1.129943940143065e+000	 7.387331670698292e-001	 1.435585272593696e+001
 1.221390509398596e+000	 6.315300654305784e-001	 1.527268609597541e+001
 1.214937481511548e+000	 6.438570617835928e-001	 1.522211530519399e+001
 1.208349942812540e+000	 6.561367355162148e-001	 1.516027161630724e+001
 1.201628327786929e+000	 6.683669365310444e-001	 1.508703859495817e+001
 1.194773115847230e+000	 6.805455176811015e-001	 1.500229673541630e+001
 1.187784831406066e+000	 6.926703359234707e-001	 1.490592339176976e+001
 1.180664043914098e+000	 7.047392534795686e-001	 1.479779272867214e+001
 1.173411367862558e+000	 7.167501390008007e-001	 1.467777569240755e+001
 1.166027462750034e+000	 7.287008687383724e-001	 1.454574000297714e+001
 1.158513033013235e+000	 7.405893277159814e-001	 1.440155016784390e+001
 1.150868827921487e+000	 7.524134109041186e-001	 1.424506751790455e+001
 1.243597609565942e+000	 6.430124302556941e-001	 1.528199647520826e+001
 1.237027253898969e+000	 6.555635538147999e-001	 1.521301339801054e+001
 1.230319941768991e+000	 6.680664943423065e-001	 1.513442463105290e+001
 1.223476115561099e+000	 6.805190626481347e-001	 1.504616900975910e+001
 1.216496263404397e+000	 6.929190725462685e-001	 1.494818043174866e+001
 1.209380919246286e+000	 7.052643420293764e-001	 1.484038770530891e+001
 1.202130662891074e+000	 7.175526944501734e-001	 1.472271442001155e+001
 1.194746120002561e+000	 7.297819597082726e-001	 1.459507884042672e+001
 1.187227962070220e+000	 7.419499754412658e-001	 1.445739382382106e+001
 1.179576906338700e+000	 7.540545882187359e-001	 1.430956676265506e+001
 1.171793715700407e+000	 7.660936547379107e-001	 1.415149955262043e+001
 1.265804709732784e+000	 6.544947950808098e-001	 1.522870490927091e+001
 1.259117026285987e+000	 6.672700458460021e-001	 1.516829094561060e+001
 1.252289940725139e+000	 6.799962531683786e-001	 1.509958067901150e+001
 1.245323903335064e+000	 6.926711887651808e-001	 1.500634041852605e+001
 1.238219410961460e+000	 7.052926274113565e-001	 1.489701825932928e+001
 1.230977007086501e+000	 7.178583481351585e-001	 1.477970333310216e+001
 1.223597281868146e+000	 7.303661354205998e-001	 1.465436771764475e+001
 1.216080872142761e+000	 7.428137804155021e-001	 1.452097603022984e+001
 1.208428461390704e+000	 7.551990821438418e-001	 1.437948527122791e+001
 1.200640779664564e+000	 7.675198487210884e-001	 1.422984469575040e+001
 1.192718603479824e+000	 7.797738985712054e-001	 1.407199571422433e+001
 1.288011809899122e+000	 6.659771599059257e-001	 1.513524854157197e+001
 1.281206798672601e+000	 6.789765378771995e-001	 1.506427281396931e+001
 1.274259939680982e+000	 6.919260119944309e-001	 1.498631652549667e+001
 1.267171691108825e+000	 7.048233148821824e-001	 1.490153064769651e+001
 1.259942558518420e+000	 7.176661822763657e-001	 1.481007148723485e+001
 1.252573094926714e+000	 7.304523542408168e-001	 1.471210053987009e+001
 1.245063900845315e+000	 7.431795763908479e-001	 1.459014821155926e+001
 1.237415624283159e+000	 7.558456011224886e-001	 1.445273549255940e+001
 1.229628960711485e+000	 7.684481888461001e-001	 1.430915945434927e+001
 1.221704652990824e+000	 7.809851092230381e-001	 1.415941026420081e+001
 1.213643491259739e+000	 7.934541424040027e-001	 1.400346786610486e+001
 1.310218910064956e+000	 6.774595247310413e-001	 1.502345264303978e+001
 1.303296571058811e+000	 6.906830299083917e-001	 1.494412150861274e+001
 1.296229938636522e+000	 7.038557708204638e-001	 1.485908306512165e+001
 1.289019478882384e+000	 7.169754409991397e-001	 1.476853878884008e+001
 1.281665706075276e+000	 7.300397371412957e-001	 1.467269468283006e+001
 1.274169182766923e+000	 7.430463603463514e-001	 1.457176106966340e+001
 1.266530519822581e+000	 7.559930173609181e-001	 1.446595237548697e+001
 1.258750376423753e+000	 7.688774218292318e-001	 1.435548690572569e+001
 1.250829460032563e+000	 7.816972955480408e-001	 1.424058661274036e+001
 1.242768526317482e+000	 7.944503697245857e-001	 1.409534220161224e+001
 1.234568379040151e+000	 8.071343862363026e-001	 1.394288734418362e+001
 1.332426010230286e+000	 6.889418895561570e-001	 1.489362346765400e+001
 1.325386343444616e+000	 7.023895219395790e-001	 1.480803019246410e+001
 1.318199937591758e+000	 7.157855296464767e-001	 1.471796249979693e+001
 1.310867266655738e+000	 7.291275671160524e-001	 1.462367130780544e+001
 1.303388853632028e+000	 7.424132920061466e-001	 1.452541127429993e+001
 1.295765270607129e+000	 7.556403664517626e-001	 1.442344052926628e+001
 1.287997138799943e+000	 7.688064583308097e-001	 1.431802039913432e+001
 1.280085128564544e+000	 7.819092425357325e-001	 1.420941512319601e+001
 1.272029959353938e+000	 7.949464022496640e-001	 1.409789156259711e+001
 1.263832399644536e+000	 8.079156302257307e-001	 1.398371890234985e+001
 1.255493266821059e+000	 8.208146300681053e-001	 1.386716834683678e+001
 1.046244389034349e+000	 6.840121917276982e-001	 1.503686646027036e+001
 1.039177855863086e+000	 6.947009312609056e-001	 1.484865634587186e+001
 1.031994829125725e+000	 7.053273514202587e-001	 1.465473664087642e+001
 1.024696111339581e+000	 7.158895720722919e-001	 1.445525818743382e+001
 1.017282545062913e+000	 7.263857263871183e-001	 1.425036732048647e+001
 1.009755012632604e+000	 7.368139618953938e-001	 1.404020569543375e+001
 1.002114435868594e+000	 7.471724415395479e-001	 1.382491013547846e+001
 9.943617757451818e-001	 7.574593447180572e-001	 1.360461249914211e+001
 9.864980320293816e-001	 7.676728683215576e-001	 1.337943956836842e+001
 9.785242428865577e-001	 7.778112277595839e-001	 1.314951295756368e+001
 9.704414844536136e-001	 7.878726579767392e-001	 1.291494904385008e+001
 1.067169276810782e+000	 6.976924355639771e-001	 1.482415143467066e+001
 1.059961412976264e+000	 7.085949498887223e-001	 1.465071506608091e+001
 1.052634725704365e+000	 7.194338984519825e-001	 1.447189002532904e+001
 1.045190033562748e+000	 7.302073635176232e-001	 1.428780940280909e+001
 1.037628195960836e+000	 7.409134409191581e-001	 1.409860073319430e+001
 1.029950112882250e+000	 7.515502411378567e-001	 1.390438583499241e+001
 1.022156724583329e+000	 7.621158903749963e-001	 1.370528067213300e+001
 1.014249011257859e+000	 7.726085316170226e-001	 1.350139523807454e+001
 1.006227992668192e+000	 7.830263256923838e-001	 1.329283346284388e+001
 9.980947277430015e-001	 7.933674523188051e-001	 1.307969314334230e+001
 9.898503141419284e-001	 8.036301111397820e-001	 1.286206589717492e+001
 1.088094164587713e+000	 7.113726793997586e-001	 1.464204971796168e+001
 1.080744970090029e+000	 7.224889685159561e-001	 1.448236310980479e+001
 1.073274622283663e+000	 7.335404454830685e-001	 1.431763287694178e+001
 1.065683955786623e+000	 7.445251549622904e-001	 1.414797470035465e+001
 1.057973846859497e+000	 7.554411554505387e-001	 1.397349761042714e+001
 1.050145213132646e+000	 7.662865203796947e-001	 1.379430383786096e+001
 1.042199013298805e+000	 7.770593392098837e-001	 1.361048868906903e+001
 1.034136246771246e+000	 7.877577185155213e-001	 1.342214044653581e+001
 1.025957953307664e+000	 7.983797830628679e-001	 1.322934029455056e+001
 1.017665212600037e+000	 8.089236768778390e-001	 1.303216227063716e+001
 1.009259143830745e+000	 8.193875643028223e-001	 1.283067324291549e+001
 1.109019052365140e+000	 7.250529232350426e-001	 1.448707940194489e+001
 1.101528527204382e+000	 7.363829871426078e-001	 1.434016048317568e+001
 1.093914518863619e+000	 7.476469925135162e-001	 1.418856887224157e+001
 1.086177878011206e+000	 7.588429464062944e-001	 1.403240316344308e+001
 1.078319497758898e+000	 7.699688699812600e-001	 1.387175415741161e+001
 1.070340313383791e+000	 7.810227996209073e-001	 1.370670472286599e+001
 1.062241302015021e+000	 7.920027880442102e-001	 1.353732968538864e+001
 1.054023482285344e+000	 8.029069054135530e-001	 1.336369574371466e+001
 1.045687913947796e+000	 8.137332404330094e-001	 1.318586141393627e+001
 1.037235697457663e+000	 8.244799014366854e-001	 1.300387700193364e+001
 1.028667973520062e+000	 8.351450174658596e-001	 1.281778460424952e+001
 1.129943940143065e+000	 7.387331670698292e-001	 1.435585272593696e+001
 1.122312084319322e+000	 7.502770057686764e-001	 1.422075754423731e+001
 1.114554415444232e+000	 7.617535395433264e-001	 1.408138821262043e+001
 1.106671800236498e+000	 7.731607378496347e-001	 1.393782654355069e+001
 1.098665148659037e+000	 7.844965845113215e-001	 1.379014536275745e+001
 1.090535413635686e+000	 7.957590788614946e-001	 1.363840838131792e+001
 1.082283590731976e+000	 8.069462368779755e-001	 1.348267009740381e+001
 1.073910717800153e+000	 8.180560923111186e-001	 1.332297572818844e+001
 1.065417874588589e+000	 8.290866978028090e-001	 1.315936117231531e+001
 1.056806182315881e+000	 8.400361259953443e-001	 1.299185300322803e+001
 1.048076803209881e+000	 8.509024706288946e-001	 1.282046849356110e+001
 1.150868827921487e+000	 7.524134109041186e-001	 1.424506751790455e+001
 1.143095641434849e+000	 7.641710243941629e-001	 1.412088678913493e+001
 1.135194312025504e+000	 7.758600865724981e-001	 1.399285975843839e+001
 1.127165722462498e+000	 7.874785292923111e-001	 1.386105174497544e+001
 1.119010799559916e+000	 7.990242990407236e-001	 1.372551783633193e+001
 1.110730513888330e+000	 8.104953581014566e-001	 1.358630277042171e+001
 1.102325879449672e+000	 8.218896857111799e-001	 1.344344084979935e+001
 1.093797953315672e+000	 8.332052792082173e-001	 1.329695588888740e+001
 1.085147835230044e+000	 8.444401551722667e-001	 1.314686119451688e+001
 1.076376667174689e+000	 8.555923505538156e-001	 1.299315958007207e+001
 1.067485632900202e+000	 8.666599237919267e-001	 1.283584341342185e+001
 1.171793715700407e+000	 7.660936547379107e-001	 1.415149955262043e+001
 1.163879198550964e+000	 7.780650430190667e-001	 1.403735551835589e+001
 1.155834208607433e+000	 7.899666336010321e-001	 1.391982400590151e+001
 1.147659644689206e+000	 8.017963207343241e-001	 1.379895411476346e+001
 1.139356450461533e+000	 8.135520135694663e-001	 1.367478341450473e+001
 1.130925614141723e+000	 8.252316373407933e-001	 1.354733783596469e+001
 1.122368168168108e+000	 8.368331345438231e-001	 1.341663159774241e+001
 1.113685188831901e+000	 8.483544661048491e-001	 1.328266716845634e+001
 1.104877795872160e+000	 8.597936125413818e-001	 1.314543526517849e+001
 1.095947152034090e+000	 8.711485751120991e-001	 1.300491488832700e+001
 1.086894462591023e+000	 8.824173769549563e-001	 1.286107339318156e+001
 1.192718603479824e+000	 7.797738985712054e-001	 1.407199571422433e+001
 1.184662755667667e+000	 7.919590616433879e-001	 1.396703927494547e+001
 1.176474105190020e+000	 8.040731806289281e-001	 1.385918680321553e+001
 1.168153566916623e+000	 8.161141121756732e-001	 1.374847143895926e+001
 1.159702101363890e+000	 8.280797280975498e-001	 1.363491343852486e+001
 1.151120714395866e+000	 8.399679165795047e-001	 1.351852007472178e+001
 1.142410456887284e+000	 8.517765833759055e-001	 1.339928557508596e+001
 1.133572424348842e+000	 8.635036530010144e-001	 1.327719109889369e+001
 1.124607756514936e+000	 8.751470699101543e-001	 1.315220475332442e+001
 1.115517636894081e+000	 8.867047996701951e-001	 1.302428164904879e+001
 1.106303292282346e+000	 8.981748301179827e-001	 1.289336399539116e+001
 1.213643491259739e+000	 7.934541424040027e-001	 1.400346786610486e+001
 1.205446312784956e+000	 8.058530802671269e-001	 1.390687596152741e+001
 1.197114001773265e+000	 8.181797276561860e-001	 1.380791371679276e+001
 1.188647489144748e+000	 8.304319036163587e-001	 1.370659855993344e+001
 1.180047752266984e+000	 8.426074426249737e-001	 1.360293362478959e+001
 1.171315814650759e+000	 8.547041958175911e-001	 1.349690765937022e+001
 1.162452745607200e+000	 8.667200322074268e-001	 1.338849497551636e+001
 1.153459659866493e+000	 8.786528398967128e-001	 1.327765544040034e+001
 1.144337717158373e+000	 8.905005272785853e-001	 1.316433451026313e+001
 1.135088121754663e+000	 9.022610242281036e-001	 1.304846330666096e+001
 1.125712121974170e+000	 9.139322832810067e-001	 1.292995873535440e+001
 1.234568379040151e+000	 8.071343862363026e-001	 1.394288734418362e+001
 1.226229869902834e+000	 8.197470988902831e-001	 1.385386055559396e+001
 1.217753898357167e+000	 8.322862746828059e-001	 1.376302497038719e+001
 1.209141411373581e+000	 8.447496950563804e-001	 1.367038254110062e+001
 1.200393403170818e+000	 8.571351571517381e-001	 1.357591945678122e+001
 1.191510914906401e+000	 8.694404750550522e-001	 1.347960605917593e+001
 1.182495034327856e+000	 8.816634810383871e-001	 1.338139680341514e+001
 1.173346895384854e+000	 8.938020267919447e-001	 1.328123026373529e+001
 1.164067677802472e+000	 9.058539846466738e-001	 1.317902918464820e+001
 1.154658606615837e+000	 9.178172487858248e-001	 1.307470057782192e+001
 1.145120951666496e+000	 9.296897364440285e-001	 1.296813586479299e+001
 1.255493266821059e+000	 8.208146300681053e-001	 1.386716834683678e+001
 1.247013427021299e+000	 8.336411175128567e-001	 1.380504035326679e+001
 1.238393794941728e+000	 8.463928217087878e-001	 1.372159089031585e+001
 1.229635333603122e+000	 8.590674864957385e-001	 1.363691831516602e+001
 1.220739054075391e+000	 8.716628716778430e-001	 1.355099203780979e+001
 1.211706015162792e+000	 8.841767542918875e-001	 1.346376409861107e+001
 1.202537323049252e+000	 8.966069298687862e-001	 1.337516913963428e+001
 1.193234130903926e+000	 9.089512136867098e-001	 1.328512442433606e+001
 1.183797638447231e+000	 9.212074420144201e-001	 1.319352990603292e+001
 1.174229091477602e+000	 9.333734733433581e-001	 1.310026834540524e+001
 1.164529781359323e+000	 9.454471896070471e-001	 1.300520547714494e+001
 9.704414844536136e-001	 7.878726579767392e-001	 1.291494904385008e+001
 9.622508703799659e-001	 7.978554144576137e-001	 1.274038901432153e+001
 9.539535513369589e-001	 8.077577742177586e-001	 1.256028864346633e+001
 9.455507144959997e-001	 8.175780367805178e-001	 1.237468043569456e+001
 9.370435829756513e-001	 8.273145251396229e-001	 1.218359199763489e+001
 9.284334152585064e-001	 8.369655867049053e-001	 1.198704614334254e+001
 9.197215045783193e-001	 8.465295942305033e-001	 1.178506102050343e+001
 9.109091782780108e-001	 8.560049467244858e-001	 1.157765025727030e+001
 9.019977971392151e-001	 8.653900703388234e-001	 1.136482312929272e+001
 8.929887546840701e-001	 8.746834192386782e-001	 1.114658474642772e+001
 8.838834764499999e-001	 8.838834764499999e-001	 1.092293625854779e+001
 9.898503141419284e-001	 8.036301111397820e-001	 1.286206589717492e+001
 9.814958877873232e-001	 8.138125227497113e-001	 1.270049326960926e+001
 9.730326223639019e-001	 8.239129297045711e-001	 1.253272428474982e+001
 9.644617287864992e-001	 8.339295975181714e-001	 1.235875757040453e+001
 9.557844546360500e-001	 8.438608156441199e-001	 1.217858675163732e+001
 9.470020835647985e-001	 8.537048984404441e-001	 1.199220059911650e+001
 9.381159346711736e-001	 8.634601861163657e-001	 1.179958319955122e+001
 9.291273618449546e-001	 8.731250456601144e-001	 1.160071414776845e+001
 9.200377530834090e-001	 8.826978717467007e-001	 1.139556875990375e+001
 9.108485297791161e-001	 8.921770876245893e-001	 1.118411830710235e+001
 9.015611459802497e-001	 9.015611459802499e-001	 1.096633026905145e+001
 1.009259143830745e+000	 8.193875643028223e-001	 1.283067324291549e+001
 1.000740905195092e+000	 8.297696310419911e-001	 1.268098496427815e+001
 9.921116933911856e-001	 8.400680851917207e-001	 1.252449840808029e+001
 9.833727430772900e-001	 8.502811582562883e-001	 1.236117837623855e+001
 9.745253262967095e-001	 8.604071061491755e-001	 1.219098449751698e+001
 9.655707518713412e-001	 8.704442101766072e-001	 1.201387141928115e+001
 9.565103647642882e-001	 8.803907780028872e-001	 1.182978902255164e+001
 9.473455454121889e-001	 8.902451445964075e-001	 1.163868265982579e+001
 9.380777090279429e-001	 9.000056731552174e-001	 1.144049341505146e+001
 9.287083048745726e-001	 9.096707560110856e-001	 1.123515838505667e+001
 9.192388155110001e-001	 9.192388155110001e-001	 1.102261098165908e+001
 1.028667973520062e+000	 8.351450174658596e-001	 1.281778460424952e+001
 1.019985922603272e+000	 8.457267393344534e-001	 1.267895468263417e+001
 1.011190764418811e+000	 8.562232406792081e-001	 1.253277851522130e+001
 1.002283757368371e+000	 8.666327189948679e-001	 1.237918708117945e+001
 9.932661979576301e-001	 8.769533966547899e-001	 1.221810595009476e+001
 9.841394201781343e-001	 8.871835219133940e-001	 1.204945551744566e+001
 9.749047948576630e-001	 8.973213698900683e-001	 1.187315126470962e+001
 9.655637289797133e-001	 9.073652435333653e-001	 1.168910404348574e+001
 9.561176649728167e-001	 9.173134745643741e-001	 1.149722038292788e+001
 9.465680799704389e-001	 9.271644243981667e-001	 1.129740281969656e+001
 9.369164850422498e-001	 9.369164850422498e-001	 1.108955024955453e+001
 1.048076803209881e+000	 8.509024706288946e-001	 1.282046849356110e+001
 1.039230940011862e+000	 8.616838476270980e-001	 1.269154258471754e+001
 1.030269835446777e+000	 8.723783961670335e-001	 1.255477637728721e+001
 1.021194771659744e+000	 8.829842797339111e-001	 1.241006698596552e+001
 1.012007069618811e+000	 8.934996871609621e-001	 1.225730581277501e+001
 1.002708088485178e+000	 9.039228336508046e-001	 1.209637882662135e+001
 9.932992249512984e-001	 9.142519617779084e-001	 1.192716686893834e+001
 9.837819125475279e-001	 9.244853424709876e-001	 1.174954598471853e+001
 9.741576209180305e-001	 9.346212759741704e-001	 1.156338777813304e+001
 9.644278550667154e-001	 9.446580927858329e-001	 1.136855979185249e+001
 9.545941545740001e-001	 9.545941545740000e-001	 1.116492590909267e+001
 1.067485632900202e+000	 8.666599237919267e-001	 1.283584341342185e+001
 1.058475957420865e+000	 8.776409559199254e-001	 1.271593389941820e+001
 1.049348906475084e+000	 8.885335516551964e-001	 1.258774401025664e+001
 1.040105785951407e+000	 8.993358404734171e-001	 1.245113691202194e+001
 1.030747941280253e+000	 9.100459776676934e-001	 1.230596968767442e+001
 1.021276756792472e+000	 9.206621453888393e-001	 1.215209366109410e+001
 1.011693655045194e+000	 9.311825536664080e-001	 1.198935474879503e+001
 1.002000096115633e+000	 9.416054414092745e-001	 1.181759383851910e+001
 9.921975768635849e-001	 9.519290773846070e-001	 1.163664719381981e+001
 9.822876301634016e-001	 9.621517611740839e-001	 1.144634688365011e+001
 9.722718241062499e-001	 9.722718241062499e-001	 1.124652123587454e+001
 1.086894462591023e+000	 8.824173769549563e-001	 1.286107339318156e+001
 1.077720974830279e+000	 8.935980642129352e-001	 1.274935490047097e+001
 1.068427977503733e+000	 9.046887071436971e-001	 1.262897008168110e+001
 1.059016800243362e+000	 9.156874012133862e-001	 1.249974802997082e+001
 1.049488812941955e+000	 9.265922681749825e-001	 1.236151131680838e+001
 1.039845425100016e+000	 9.374014571274981e-001	 1.221407636095347e+001
 1.030088085139350e+000	 9.481131455555667e-001	 1.205725382681612e+001
 1.020218279684028e+000	 9.587255403482260e-001	 1.189084905131531e+001
 1.010237532809479e+000	 9.692368787956833e-001	 1.171466249825154e+001
 1.000147405260498e+000	 9.796454295629198e-001	 1.152849023910882e+001
 9.899494936390003e-001	 9.899494936390003e-001	 1.133212445910034e+001
 1.106303292282346e+000	 8.981748301179827e-001	 1.289336399539116e+001
 1.096965992240104e+000	 9.095551725061274e-001	 1.278906930603095e+001
 1.087507048532722e+000	 9.208438626325353e-001	 1.267577669563494e+001
 1.077927814535607e+000	 9.320389619538184e-001	 1.255328102198233e+001
 1.068229684603918e+000	 9.431385586828309e-001	 1.242137011367884e+001
 1.058414093407812e+000	 9.541407688667805e-001	 1.227982518456591e+001
 1.048482515233766e+000	 9.650437374453846e-001	 1.212842127934369e+001
 1.038436463252713e+000	 9.758456392878420e-001	 1.196692774943887e+001
 1.028277488755713e+000	 9.865446802073991e-001	 1.179510875803800e+001
 1.018007180358004e+000	 9.971390979523406e-001	 1.161272381309838e+001
 1.007627163172250e+000	 1.007627163172250e+000	 1.141952832704327e+001
 1.125712121974170e+000	 9.139322832810067e-001	 1.292995873535440e+001
 1.116211009650340e+000	 9.255122807995019e-001	 1.283237505070619e+001
 1.106586119562053e+000	 9.369990181217114e-001	 1.272551651025622e+001
 1.096838828828143e+000	 9.483905226947137e-001	 1.260914353767576e+001
 1.086970556266141e+000	 9.596848491912374e-001	 1.248300895021487e+001
 1.076982761715857e+000	 9.708800806066867e-001	 1.234685841906842e+001
 1.066876945328443e+000	 9.819743293358620e-001	 1.220043096292151e+001
 1.056654646821688e+000	 9.929657382281226e-001	 1.204345947361624e+001
 1.046317444702288e+000	 1.003852481619755e+000	 1.187567127276070e+001
 1.035866955455921e+000	 1.014632766342347e+000	 1.169678869798984e+001
 1.025304832706000e+000	 1.025304832706000e+000	 1.150652971747409e+001
 1.145120951666496e+000	 9.296897364440285e-001	 1.296813586479299e+001
 1.135456027060987e+000	 9.414693890930587e-001	 1.287660138585821e+001
 1.125665190591725e+000	 9.531541736112253e-001	 1.277557014841950e+001
 1.115749843120970e+000	 9.647420834360720e-001	 1.266476790874251e+001
 1.105711427928626e+000	 9.762311397002026e-001	 1.254391216877079e+001
 1.095551430024153e+000	 9.876193923472171e-001	 1.241271268301466e+001
 1.085271375423380e+000	 9.989049212269989e-001	 1.227087200071855e+001
 1.074872830390953e+000	 1.010085837169068e+000	 1.211808604215556e+001
 1.064357400649202e+000	 1.021160283032751e+000	 1.195404470777179e+001
 1.053726730554248e+000	 1.032126434732938e+000	 1.177843251878226e+001
 1.042982502240250e+000	 1.042982502240250e+000	 1.159092928770392e+001
 1.164529781359323e+000	 9.454471896070471e-001	 1.300520547714494e+001
 1.154701044472046e+000	 9.574264973867980e-001	 1.291910626987283e+001
 1.144744261621738e+000	 9.693093291010766e-001	 1.282334386734102e+001
 1.134660857414088e+000	 9.810936441778934e-001	 1.271760909210671e+001
 1.124452299591371e+000	 9.927774302097261e-001	 1.260158379292372e+001
 1.114120098332699e+000	 1.004358704088371e+000	 1.247494139875727e+001
 1.103665805518577e+000	 1.015835513118795e+000	 1.233734751031017e+001
 1.093091013960509e+000	 1.027205936110678e+000	 1.218846052781479e+001
 1.082397356596456e+000	 1.038468084446386e+000	 1.202793231371306e+001
 1.071586505652984e+000	 1.049620103124114e+000	 1.185540888871728e+001
 1.060660171775000e+000	 1.060660171775000e+000	 1.167053115962211e+001
 8.838834764499999e-001	 8.838834764499999e-001	 1.092293625854779e+001
 8.746834192386785e-001	 8.929887546840698e-001	 1.072923362505624e+001
 8.653900703388238e-001	 9.019977971392147e-001	 1.053202325719984e+001
 8.560049467244862e-001	 9.109091782780103e-001	 1.033134390536315e+001
 8.465295942305037e-001	 9.197215045783189e-001	 1.012722903387274e+001
 8.369655867049055e-001	 9.284334152585062e-001	 9.919707061063093e+000
 8.273145251396232e-001	 9.370435829756509e-001	 9.708801616920908e+000
 8.175780367805180e-001	 9.455507144959993e-001	 9.494531817374174e+000
 8.077577742177590e-001	 9.539535513369584e-001	 9.276912554235858e+000
 7.978554144576140e-001	 9.622508703799657e-001	 9.055954799761267e+000
 7.878726579767392e-001	 9.704414844536136e-001	 8.831665924733240e+000
 9.015611459802497e-001	 9.015611459802499e-001	 1.096633026905145e+001
 8.921770876245896e-001	 9.108485297791160e-001	 1.078138603883830e+001
 8.826978717467009e-001	 9.200377530834085e-001	 1.059235192710196e+001
 8.731250456601146e-001	 9.291273618449544e-001	 1.039923731191204e+001
 8.634601861163660e-001	 9.381159346711733e-001	 1.020204621294895e+001
 8.537048984404446e-001	 9.470020835647984e-001	 1.000077757814264e+001
 8.438608156441203e-001	 9.557844546360496e-001	 9.795425588593606e+000
 8.339295975181719e-001	 9.644617287864988e-001	 9.585979980732811e+000
 8.239129297045714e-001	 9.730326223639015e-001	 9.372426384618583e+000
 8.138125227497115e-001	 9.814958877873230e-001	 9.154746677217837e+000
 8.036301111397820e-001	 9.898503141419285e-001	 8.932919349469117e+000
 9.192388155110001e-001	 9.192388155110001e-001	 1.102261098165908e+001
 9.096707560110861e-001	 9.287083048745725e-001	 1.084606258547314e+001
 9.000056731552177e-001	 9.380777090279423e-001	 1.066487808300481e+001
 8.902451445964078e-001	 9.473455454121887e-001	 1.047903681484785e+001
 8.803907780028876e-001	 9.565103647642879e-001	 1.028851264356291e+001
 8.704442101766075e-001	 9.655707518713408e-001	 1.009327428833847e+001
 8.604071061491759e-001	 9.745253262967092e-001	 9.893285678722220e+000
 8.502811582562885e-001	 9.833727430772894e-001	 9.688506326266845e+000
 8.400680851917209e-001	 9.921116933911853e-001	 9.478891712873001e+000
 8.297696310419914e-001	 1.000740905195092e+000	 9.264393694558597e+000
 8.193875643028225e-001	 1.009259143830745e+000	 9.044960919332954e+000
 9.369164850422498e-001	 9.369164850422498e-001	 1.108955024955453e+001
 9.271644243981670e-001	 9.465680799704386e-001	 1.092109693930393e+001
 9.173134745643742e-001	 9.561176649728163e-001	 1.074749747532531e+001
 9.073652435333655e-001	 9.655637289797128e-001	 1.056870044960688e+001
 8.973213698900685e-001	 9.749047948576630e-001	 1.038464880854598e+001
 8.871835219133946e-001	 9.841394201781341e-001	 1.019528023713865e+001
 8.769533966547897e-001	 9.932661979576292e-001	 1.000052756311409e+001
 8.666327189948685e-001	 1.002283757368371e+000	 9.800319179740955e+000
 8.562232406792086e-001	 1.011190764418811e+000	 9.594579485968879e+000
 8.457267393344540e-001	 1.019985922603271e+000	 9.383229342512179e+000
 8.351450174658597e-001	 1.028667973520062e+000	 9.166186542430710e+000
 9.545941545740001e-001	 9.545941545740000e-001	 1.116492590909267e+001
 9.446580927858330e-001	 9.644278550667149e-001	 1.100432538802502e+001
 9.346212759741711e-001	 9.741576209180304e-001	 1.083810516267113e+001
 9.244853424709878e-001	 9.837819125475276e-001	 1.066618232089341e+001
 9.142519617779087e-001	 9.932992249512981e-001	 1.048846808884780e+001
 9.039228336508052e-001	 1.002708088485177e+000	 1.030486826626396e+001
 8.934996871609626e-001	 1.012007069618810e+000	 1.011528368263256e+001
 8.829842797339111e-001	 1.021194771659743e+000	 9.919610672904907e+000
 8.723783961670338e-001	 1.030269835446777e+000	 9.717741571245410e+000
 8.616838476270986e-001	 1.039230940011862e+000	 9.509565221316027e+000
 8.509024706288946e-001	 1.048076803209881e+000	 9.294967501519940e+000
 9.722718241062499e-001	 9.722718241062499e-001	 1.124652123587454e+001
 9.621517611740841e-001	 9.822876301634012e-001	 1.109358659510467e+001
 9.519290773846075e-001	 9.921975768635845e-001	 1.093459557473214e+001
 9.416054414092748e-001	 1.002000096115632e+000	 1.076943296001871e+001
 9.311825536664083e-001	 1.011693655045194e+000	 1.059797740916189e+001
 9.206621453888395e-001	 1.021276756792471e+000	 1.042010194128319e+001
 9.100459776676937e-001	 1.030747941280252e+000	 1.023567444637348e+001
 8.993358404734174e-001	 1.040105785951407e+000	 1.004455821567675e+001
 8.885335516551967e-001	 1.049348906475084e+000	 9.846612490923207e+000
 8.776409559199258e-001	 1.058475957420865e+000	 9.641693030760902e+000
 8.666599237919266e-001	 1.067485632900202e+000	 9.429652692678063e+000
 9.899494936390003e-001	 9.899494936390003e-001	 1.133212445910034e+001
 9.796454295629200e-001	 1.000147405260498e+000	 1.118672138766220e+001
 9.692368787956835e-001	 1.010237532809479e+000	 1.103486256843405e+001
 9.587255403482263e-001	 1.020218279684027e+000	 1.087639964395413e+001
 9.481131455555671e-001	 1.030088085139350e+000	 1.071117781437720e+001
 9.374014571274983e-001	 1.039845425100016e+000	 1.053903637984090e+001
 9.265922681749832e-001	 1.049488812941954e+000	 1.035980930593025e+001
 9.156874012133863e-001	 1.059016800243361e+000	 1.017332581059192e+001
 9.046887071436974e-001	 1.068427977503733e+000	 9.979410970775563e+000
 8.935980642129355e-001	 1.077720974830278e+000	 9.777886347016469e+000
 8.824173769549563e-001	 1.086894462591023e+000	 9.568570624112828e+000
 1.007627163172250e+000	 1.007627163172250e+000	 1.141952832704327e+001
 9.971390979523412e-001	 1.018007180358004e+000	 1.128157256667414e+001
 9.865446802073997e-001	 1.028277488755713e+000	 1.113679947818063e+001
 9.758456392878422e-001	 1.038436463252712e+000	 1.098502668079940e+001
 9.650437374453851e-001	 1.048482515233766e+000	 1.082606498535015e+001
 9.541407688667807e-001	 1.058414093407811e+000	 1.065971899270323e+001
 9.431385586828313e-001	 1.068229684603917e+000	 1.048578771657816e+001
 9.320389619538186e-001	 1.077927814535606e+000	 1.030406522888953e+001
 9.208438626325358e-001	 1.087507048532722e+000	 1.011434132578147e+001
 9.095551725061275e-001	 1.096965992240103e+000	 9.916402212422527e+000
 8.981748301179828e-001	 1.106303292282346e+000	 9.710031204571921e+000
 1.025304832706000e+000	 1.025304832706000e+000	 1.150652971747409e+001
 1.014632766342347e+000	 1.035866955455920e+000	 1.137598473681395e+001
 1.003852481619755e+000	 1.046317444702287e+000	 1.123829916089866e+001
 9.929657382281232e-001	 1.056654646821688e+000	 1.109325566571984e+001
 9.819743293358627e-001	 1.066876945328443e+000	 1.094062970132145e+001
 9.708800806066874e-001	 1.076982761715857e+000	 1.078019014814431e+001
 9.596848491912375e-001	 1.086970556266141e+000	 1.061169999902590e+001
 9.483905226947140e-001	 1.096838828828143e+000	 1.043491706493440e+001
 9.369990181217119e-001	 1.106586119562053e+000	 1.024959470243572e+001
 9.255122807995023e-001	 1.116211009650340e+000	 1.005548256081934e+001
 9.139322832810067e-001	 1.125712121974170e+000	 9.852327346744701e+000
 1.042982502240250e+000	 1.042982502240250e+000	 1.159092928770392e+001
 1.032126434732938e+000	 1.053726730554247e+000	 1.146780415359635e+001
 1.021160283032751e+000	 1.064357400649201e+000	 1.133725403650225e+001
 1.010085837169069e+000	 1.074872830390953e+000	 1.119902571085594e+001
 9.989049212269993e-001	 1.085271375423379e+000	 1.105285825530707e+001
 9.876193923472173e-001	 1.095551430024153e+000	 1.089848376876724e+001
 9.762311397002028e-001	 1.105711427928626e+000	 1.073562811353142e+001
 9.647420834360724e-001	 1.115749843120970e+000	 1.056401168340972e+001
 9.531541736112257e-001	 1.125665190591725e+000	 1.038335019472194e+001
 9.414693890930591e-001	 1.135456027060987e+000	 1.019335549792849e+001
 9.296897364440283e-001	 1.145120951666496e+000	 9.993736407606082e+000
 1.060660171775000e+000	 1.060660171775000e+000	 1.167053115962211e+001
 1.049620103124114e+000	 1.071586505652983e+000	 1.155487858580736e+001
 1.038468084446386e+000	 1.082397356596456e+000	 1.143155612431037e+001
 1.027205936110678e+000	 1.093091013960508e+000	 1.130027365224214e+001
 1.015835513118795e+000	 1.103665805518576e+000	 1.116073282795027e+001
 1.004358704088372e+000	 1.114120098332699e+000	 1.101262786864348e+001
 9.927774302097264e-001	 1.124452299591371e+000	 1.085564635660596e+001
 9.810936441778938e-001	 1.134660857414088e+000	 1.068947007179046e+001
 9.693093291010769e-001	 1.144744261621738e+000	 1.051377584848849e+001
 9.574264973867984e-001	 1.154701044472046e+000	 1.032823645369655e+001
 9.454471896070471e-001	 1.164529781359323e+000	 1.013252148472602e+001
 7.878726579767392e-001	 9.704414844536136e-001	 8.831665924733240e+000
 7.778112277595841e-001	 9.785242428865572e-001	 8.642837345799592e+000
 7.676728683215578e-001	 9.864980320293814e-001	 8.451581322847892e+000
 7.574593447180578e-001	 9.943617757451815e-001	 8.257916948018206e+000
 7.471724415395483e-001	 1.002114435868594e+000	 8.061859503408774e+000
 7.368139618953942e-001	 1.009755012632604e+000	 7.863420814060950e+000
 7.263857263871186e-001	 1.017282545062913e+000	 7.662609609625082e+000
 7.158895720722922e-001	 1.024696111339581e+000	 7.459431893432190e+000
 7.053273514202589e-001	 1.031994829125725e+000	 7.253891317683634e+000
 6.947009312609062e-001	 1.039177855863086e+000	 7.045989563462782e+000
 6.840121917276981e-001	 1.046244389034349e+000	 6.835726724268073e+000
 8.036301111397820e-001	 9.898503141419285e-001	 8.932919349469117e+000
 7.933674523188057e-001	 9.980947277430013e-001	 8.747811445977591e+000
 7.830263256923841e-001	 1.006227992668192e+000	 8.559702222422413e+000
 7.726085316170229e-001	 1.014249011257858e+000	 8.368583910218877e+000
 7.621158903749967e-001	 1.022156724583329e+000	 8.174445023175487e+000
 7.515502411378573e-001	 1.029950112882250e+000	 7.977270759411569e+000
 7.409134409191585e-001	 1.037628195960835e+000	 7.777043411937127e+000
 7.302073635176236e-001	 1.045190033562748e+000	 7.573742786500619e+000
 7.194338984519830e-001	 1.052634725704365e+000	 7.367346625298286e+000
 7.085949498887226e-001	 1.059961412976264e+000	 7.157831035130799e+000
 6.976924355639771e-001	 1.067169276810782e+000	 6.945170918590726e+000
 8.193875643028225e-001	 1.009259143830745e+000	 9.044960919332954e+000
 8.089236768778395e-001	 1.017665212600036e+000	 8.863632836208202e+000
 7.983797830628682e-001	 1.025957953307663e+000	 8.678745298920704e+000
 7.877577185155218e-001	 1.034136246771246e+000	 8.490262594455942e+000
 7.770593392098842e-001	 1.042199013298805e+000	 8.298145362608773e+000
 7.662865203796951e-001	 1.050145213132645e+000	 8.102351048917903e+000
 7.554411554505389e-001	 1.057973846859497e+000	 7.902834366273807e+000
 7.445251549622911e-001	 1.065683955786622e+000	 7.699547763681595e+000
 7.335404454830686e-001	 1.073274622283663e+000	 7.492441900647630e+000
 7.224889685159565e-001	 1.080744970090029e+000	 7.281466125653363e+000
 7.113726793997586e-001	 1.088094164587713e+000	 7.066568957177918e+000
 8.351450174658597e-001	 1.028667973520062e+000	 9.166186542430710e+000
 8.244799014366857e-001	 1.037235697457663e+000	 8.988754132037448e+000
 8.137332404330099e-001	 1.045687913947796e+000	 8.807220306666935e+000
 8.029069054135536e-001	 1.054023482285344e+000	 8.621520277016318e+000
 7.920027880442107e-001	 1.062241302015020e+000	 8.431585654576384e+000
 7.810227996209075e-001	 1.070340313383791e+000	 8.237344957732205e+000
 7.699688699812601e-001	 1.078319497758898e+000	 8.038724126578382e+000
 7.588429464062950e-001	 1.086177878011206e+000	 7.835647044800824e+000
 7.476469925135166e-001	 1.093914518863618e+000	 7.628036066964495e+000
 7.363829871426080e-001	 1.101528527204381e+000	 7.415812549541562e+000
 7.250529232350426e-001	 1.109019052365140e+000	 7.198897384015518e+000
 8.509024706288946e-001	 1.048076803209881e+000	 9.294967501519940e+000
 8.400361259953446e-001	 1.056806182315880e+000	 9.121601075965641e+000
 8.290866978028095e-001	 1.065417874588589e+000	 8.943607908991302e+000
 8.180560923111190e-001	 1.073910717800152e+000	 8.760892956001529e+000
 8.069462368779758e-001	 1.082283590731976e+000	 8.573357598311738e+000
 7.957590788614948e-001	 1.090535413635685e+000	 8.380900204627888e+000
 7.844965845113219e-001	 1.098665148659037e+000	 8.183416701312881e+000
 7.731607378496351e-001	 1.106671800236498e+000	 7.980801149655652e+000
 7.617535395433266e-001	 1.114554415444232e+000	 7.772946328348258e+000
 7.502770057686767e-001	 1.122312084319321e+000	 7.559744319371178e+000
 7.387331670698292e-001	 1.129943940143065e+000	 7.341087095489485e+000
 8.666599237919266e-001	 1.067485632900202e+000	 9.429652692678063e+000
 8.555923505538157e-001	 1.076376667174689e+000	 9.260574980451654e+000
 8.444401551722667e-001	 1.085147835230044e+000	 9.086362322865767e+000
 8.332052792082176e-001	 1.093797953315671e+000	 8.906888194799032e+000
 8.218896857111803e-001	 1.102325879449672e+000	 8.722022498835120e+000
 8.104953581014568e-001	 1.110730513888329e+000	 8.531632184397664e+000
 7.990242990407239e-001	 1.119010799559915e+000	 8.335581875774796e+000
 7.874785292923118e-001	 1.127165722462497e+000	 8.133734507108519e+000
 7.758600865724986e-001	 1.135194312025504e+000	 7.925951962413519e+000
 7.641710243941634e-001	 1.143095641434849e+000	 7.712095718686023e+000
 7.524134109041186e-001	 1.150868827921488e+000	 7.492027490167483e+000
 8.824173769549563e-001	 1.086894462591023e+000	 9.568570624112828e+000
 8.711485751120995e-001	 1.095947152034089e+000	 9.404054909166568e+000
 8.597936125413821e-001	 1.104877795872159e+000	 9.233913680186017e+000
 8.483544661048494e-001	 1.113685188831901e+000	 9.057987660896000e+000
 8.368331345438236e-001	 1.122368168168108e+000	 8.876113980722867e+000
 8.252316373407937e-001	 1.130925614141723e+000	 8.688126853923164e+000
 8.135520135694666e-001	 1.139356450461533e+000	 8.493858267736641e+000
 8.017963207343244e-001	 1.147659644689206e+000	 8.293138677491941e+000
 7.899666336010327e-001	 1.155834208607433e+000	 8.085797706583236e+000
 7.780650430190672e-001	 1.163879198550964e+000	 7.871664849232809e+000
 7.660936547379107e-001	 1.171793715700407e+000	 7.650570173961413e+000
 8.981748301179828e-001	 1.106303292282346e+000	 9.710031204571921e+000
 8.867047996701954e-001	 1.115517636894080e+000	 9.550399628641578e+000
 8.751470699101551e-001	 1.124607756514936e+000	 9.384670140497445e+000
 8.635036530010147e-001	 1.133572424348841e+000	 9.212649397449500e+000
 8.517765833759061e-001	 1.142410456887283e+000	 9.034140416216353e+000
 8.399679165795053e-001	 1.151120714395866e+000	 8.848943314447874e+000
 8.280797280975500e-001	 1.159702101363889e+000	 8.656856061439459e+000
 8.161141121756733e-001	 1.168153566916622e+000	 8.457675235812973e+000
 8.040731806289283e-001	 1.176474105190019e+000	 8.251196787930169e+000
 7.919590616433885e-001	 1.184662755667666e+000	 8.037216804803169e+000
 7.797738985712054e-001	 1.192718603479824e+000	 7.815532275272753e+000
 9.139322832810067e-001	 1.125712121974170e+000	 9.852327346744701e+000
 9.022610242281041e-001	 1.135088121754663e+000	 9.697949358021576e+000
 8.905005272785858e-001	 1.144337717158373e+000	 9.537019785163109e+000
 8.786528398967133e-001	 1.153459659866492e+000	 9.369309859866606e+000
 8.667200322074272e-001	 1.162452745607199e+000	 9.194587102147384e+000
 8.547041958175916e-001	 1.171315814650759e+000	 9.012616126718262e+000
 8.426074426249740e-001	 1.180047752266984e+000	 8.823159458759220e+000
 8.304319036163591e-001	 1.188647489144747e+000	 8.625978356694898e+000
 8.181797276561865e-001	 1.197114001773264e+000	 8.420833639586668e+000
 8.058530802671273e-001	 1.205446312784956e+000	 8.207486516747126e+000
 7.934541424040027e-001	 1.213643491259739e+000	 7.985699417191604e+000
 9.296897364440283e-001	 1.145120951666496e+000	 9.993736407606082e+000
 9.178172487858249e-001	 1.154658606615837e+000	 9.845027340877312e+000
 9.058539846466741e-001	 1.164067677802471e+000	 9.689332318904889e+000
 8.938020267919450e-001	 1.173346895384854e+000	 9.526385745274773e+000
 8.816634810383874e-001	 1.182495034327856e+000	 9.355918215481509e+000
 8.694404750550524e-001	 1.191510914906401e+000	 9.177657390687134e+000
 8.571351571517384e-001	 1.200393403170818e+000	 8.991328881102394e+000
 8.447496950563811e-001	 1.209141411373581e+000	 8.796657136443850e+000
 8.322862746828065e-001	 1.217753898357167e+000	 8.593366340908679e+000
 8.197470988902837e-001	 1.226229869902834e+000	 8.381181310112046e+000
 8.071343862363025e-001	 1.234568379040151e+000	 8.159828387438571e+000
 9.454471896070471e-001	 1.164529781359323e+000	 1.013252148472602e+001
 9.333734733433584e-001	 1.174229091477602e+000	 9.989941259836671e+000
 9.212074420144205e-001	 1.183797638447231e+000	 9.839960601189935e+000
 9.089512136867101e-001	 1.193234130903926e+000	 9.682275639045061e+000
 8.966069298687867e-001	 1.202537323049252e+000	 9.516578573306747e+000
 8.841767542918881e-001	 1.211706015162792e+000	 9.342558617246223e+000
 8.716628716778435e-001	 1.220739054075391e+000	 9.159902951111500e+000
 8.590674864957391e-001	 1.229635333603122e+000	 8.968297682908446e+000
 8.463928217087883e-001	 1.238393794941727e+000	 8.767428813624299e+000
 8.336411175128573e-001	 1.247013427021299e+000	 8.556983204168104e+000
 8.208146300681053e-001	 1.255493266821059e+000	 8.368980105568474e+000
 6.840121917276981e-001	 1.046244389034349e+000	 6.835726724268073e+000
 6.732630251961720e-001	 1.053193666391865e+000	 6.631405012390681e+000
 6.624553352191411e-001	 1.060024966153559e+000	 6.442168108483948e+000
 6.515910354597979e-001	 1.066737607165498e+000	 6.268115834864673e+000
 6.406720486238724e-001	 1.073330949030676e+000	 6.109330398921123e+000
 6.297003053920893e-001	 1.079804392204921e+000	 5.965876821836731e+000
 6.186777433540814e-001	 1.086157378059845e+000	 5.813625820087164e+000
 6.076063059449275e-001	 1.092389388913029e+000	 5.664848037539215e+000
 5.964879413854606e-001	 1.098499948025726e+000	 5.539752243543412e+000
 5.853246016274843e-001	 1.104488619568381e+000	 5.438943649137896e+000
 5.741182413050000e-001	 1.110355008554307e+000	 5.362999617048736e+000
 6.976924355639771e-001	 1.067169276810782e+000	 6.945170918590726e+000
 6.867282857009388e-001	 1.074257539715344e+000	 6.746998316369839e+000
 6.757044419236228e-001	 1.081225465472260e+000	 6.560316525473658e+000
 6.646228561684843e-001	 1.088072359304516e+000	 6.385186345354345e+000
 6.534854895953681e-001	 1.094797568007166e+000	 6.221654049463459e+000
 6.422943114986129e-001	 1.101400480045156e+000	 6.069751851554542e+000
 6.310512982196438e-001	 1.107880525617529e+000	 5.929498386261782e+000
 6.197584320622396e-001	 1.114237176688216e+000	 5.777814686949125e+000
 6.084177002116509e-001	 1.120469946983696e+000	 5.617448355427987e+000
 5.970310936587159e-001	 1.126578391957822e+000	 5.477965198995883e+000
 5.856006061301156e-001	 1.132562108724173e+000	 5.359978861237210e+000
 7.113726793997586e-001	 1.088094164587713e+000	 7.066568957177918e+000
 7.001935462053034e-001	 1.095321413039221e+000	 6.872965977384941e+000
 6.889535486277866e-001	 1.102425964791257e+000	 6.687371458755642e+000
 6.776546768769279e-001	 1.109407111443731e+000	 6.509806376577566e+000
 6.662989305666857e-001	 1.116264186983754e+000	 6.340280198220999e+000
 6.548883176050131e-001	 1.122996567885389e+000	 6.178791389360386e+000
 6.434248530851268e-001	 1.129603673175110e+000	 6.025327930191923e+000
 6.319105581795076e-001	 1.136084964463200e+000	 5.879867840005158e+000
 6.203474590378216e-001	 1.142439945941363e+000	 5.719088224063809e+000
 6.087375856899427e-001	 1.148668164346859e+000	 5.538438171274374e+000
 5.970829709552312e-001	 1.154769208893534e+000	 5.376023929219983e+000
 7.250529232350426e-001	 1.109019052365140e+000	 7.198897384015518e+000
 7.136588067092652e-001	 1.116385286363495e+000	 7.008442135957902e+000
 7.022026553316330e-001	 1.123626464110552e+000	 6.822618500805659e+000
 6.906864975851287e-001	 1.130741863583143e+000	 6.641406756032762e+000
 6.791123715378250e-001	 1.137730805960439e+000	 6.464778622655262e+000
 6.674823237112892e-001	 1.144592655725618e+000	 6.292697813762655e+000
 6.557984079505307e-001	 1.151326820732587e+000	 6.125120588820271e+000
 6.440626842967311e-001	 1.157932752237980e+000	 5.961996312039994e+000
 6.322772178639726e-001	 1.164409944898726e+000	 5.803268013136591e+000
 6.204440777211645e-001	 1.170757936735492e+000	 5.623239948532267e+000
 6.085653357803471e-001	 1.176976309062392e+000	 5.414042603263678e+000
 7.387331670698292e-001	 1.129943940143065e+000	 7.341087095489485e+000
 7.271240672128245e-001	 1.137449159688166e+000	 7.152506060364086e+000
 7.154517620351615e-001	 1.144826963430144e+000	 6.965279636567392e+000
 7.037183182930865e-001	 1.152076615722752e+000	 6.779346460215708e+000
 6.919258125087863e-001	 1.159197424937220e+000	 6.594639499698869e+000
 6.800763298174423e-001	 1.166188743565844e+000	 6.411086648964759e+000
 6.681719628158557e-001	 1.173049968289960e+000	 6.228611322399309e+000
 6.562148104139101e-001	 1.179780540012556e+000	 6.047133049532623e+000
 6.442069766901035e-001	 1.186379943855784e+000	 5.866568067830364e+000
 6.321505697523815e-001	 1.192847709123722e+000	 5.686829911869805e+000
 6.200477006054628e-001	 1.199183409230746e+000	 5.476827019367764e+000
 7.524134109041186e-001	 1.150868827921488e+000	 7.492027490167483e+000
 7.405893277159817e-001	 1.158513033013234e+000	 7.304187135018248e+000
 7.287008687383727e-001	 1.166027462750033e+000	 7.114519025955304e+000
 7.167501390008011e-001	 1.173411367862558e+000	 6.922919146528896e+000
 7.047392534795690e-001	 1.180664043914099e+000	 6.729280642167256e+000
 6.926703359234713e-001	 1.187784831406066e+000	 6.533494460710831e+000
 6.805455176811017e-001	 1.194773115847230e+000	 6.335449990410612e+000
 6.683669365310447e-001	 1.201628327786929e+000	 6.135035693547571e+000
 6.561367355162152e-001	 1.208349942812540e+000	 5.932139733870959e+000
 6.438570617835934e-001	 1.214937481511547e+000	 5.726650596100315e+000
 6.315300654305786e-001	 1.221390509398596e+000	 5.518457695789281e+000
 7.660936547379107e-001	 1.171793715700407e+000	 7.650570173961413e+000
 7.540545882187365e-001	 1.179576906338700e+000	 7.462469314390889e+000
 7.419499754412664e-001	 1.187227962070220e+000	 7.269448166804228e+000
 7.297819597082732e-001	 1.194746120002561e+000	 7.071358985343688e+000
 7.175526944501738e-001	 1.202130662891074e+000	 6.868053959840792e+000
 7.052643420293767e-001	 1.209380919246285e+000	 6.659385906148623e+000
 6.929190725462689e-001	 1.216496263404397e+000	 6.445208949847671e+000
 6.805190626481352e-001	 1.223476115561098e+000	 6.225379201401203e+000
 6.680664943423071e-001	 1.230319941768991e+000	 5.999755420890567e+000
 6.555635538148004e-001	 1.237027253898968e+000	 5.768199670514732e+000
 6.430124302556941e-001	 1.243597609565942e+000	 5.530577953104671e+000
 7.797738985712054e-001	 1.192718603479824e+000	 7.815532275272753e+000
 7.675198487210887e-001	 1.200640779664563e+000	 7.626295108091039e+000
 7.551990821438421e-001	 1.208428461390704e+000	 7.429130514349519e+000
 7.428137804155026e-001	 1.216080872142761e+000	 7.223845878160812e+000
 7.303661354206004e-001	 1.223597281868146e+000	 7.010251240432678e+000
 7.178583481351588e-001	 1.230977007086501e+000	 6.788160041600925e+000
 7.052926274113571e-001	 1.238219410961460e+000	 6.557389853679970e+000
 6.926711887651813e-001	 1.245323903335064e+000	 6.317763099622395e+000
 6.799962531683790e-001	 1.252289940725139e+000	 6.109417097811157e+000
 6.672700458460026e-001	 1.259117026285986e+000	 5.981947682848841e+000
 6.544947950808100e-001	 1.265804709732783e+000	 5.858044606487481e+000
 7.934541424040027e-001	 1.213643491259739e+000	 7.985699417191604e+000
 7.809851092230387e-001	 1.221704652990824e+000	 7.794569153699269e+000
 7.684481888461006e-001	 1.229628960711485e+000	 7.592585622830917e+000
 7.558456011224889e-001	 1.237415624283158e+000	 7.379510135961471e+000
 7.431795763908485e-001	 1.245063900845315e+000	 7.155109332525983e+000
 7.304523542408172e-001	 1.252573094926714e+000	 6.952928687033435e+000
 7.176661822763661e-001	 1.259942558518420e+000	 6.812276819604239e+000
 7.048233148821829e-001	 1.267171691108826e+000	 6.673290610169860e+000
 6.919260119944316e-001	 1.274259939680982e+000	 6.535872733234035e+000
 6.789765378771997e-001	 1.281206798672600e+000	 6.399913660182925e+000
 6.659771599059257e-001	 1.288011809899122e+000	 6.265291888819902e+000
 8.071343862363025e-001	 1.234568379040151e+000	 8.159828387438571e+000
 7.944503697245862e-001	 1.242768526317482e+000	 7.966161426261610e+000
 7.816972955480415e-001	 1.250829460032563e+000	 7.766193081407072e+000
 7.688774218292324e-001	 1.258750376423753e+000	 7.623891197684500e+000
 7.559930173609185e-001	 1.266530519822581e+000	 7.481414020394648e+000
 7.430463603463520e-001	 1.274169182766922e+000	 7.338684221271358e+000
 7.300397371412961e-001	 1.281665706075276e+000	 7.195613532148904e+000
 7.169754409991401e-001	 1.289019478882383e+000	 7.052102914878994e+000
 7.038557708204642e-001	 1.296229938636522e+000	 6.908042748839590e+000
 6.906830299083921e-001	 1.303296571058811e+000	 6.763313035561541e+000
 6.774595247310413e-001	 1.310218910064956e+000	 6.617783619964701e+000
 8.208146300681053e-001	 1.255493266821059e+000	 8.368980105568474e+000
 8.079156302257311e-001	 1.263832399644536e+000	 8.233757078902059e+000
 7.949464022496643e-001	 1.272029959353938e+000	 8.096550642751021e+000
 7.819092425357329e-001	 1.280085128564544e+000	 7.957284636283559e+000
 7.688064583308102e-001	 1.287997138799943e+000	 7.815873446915244e+000
 7.556403664517630e-001	 1.295765270607128e+000	 7.672222146527305e+000
 7.424132920061470e-001	 1.303388853632028e+000	 7.526226643913802e+000
 7.291275671160530e-001	 1.310867266655738e+000	 7.377773853090814e+000
 7.157855296464771e-001	 1.318199937591758e+000	 7.226741877066626e+000
 7.023895219395795e-001	 1.325386343444616e+000	 7.073000206632830e+000
 6.889418895561570e-001	 1.332426010230286e+000	 6.916409933704146e+000
 5.741182413050000e-001	 1.110355008554307e+000	 5.362999617048736e+000
 5.628708166930497e-001	 1.116098760742258e+000	 5.221502567188295e+000
 5.515842846736662e-001	 1.121719562507361e+000	 5.079190448961229e+000
 5.402606017111223e-001	 1.127217140681487e+000	 4.936579826627466e+000
 5.289017228384256e-001	 1.132591262364247e+000	 4.794183628511585e+000
 5.175096006544985e-001	 1.137841734704207e+000	 4.652510349645437e+000
 5.060861843335420e-001	 1.142968404651231e+000	 4.512063273661373e+000
 4.946334186475063e-001	 1.147971158680544e+000	 4.373339715373382e+000
 4.831532430025670e-001	 1.152849922489192e+000	 4.236830285403762e+000
 4.716475904904685e-001	 1.157604660665570e+000	 4.103018178129767e+000
 4.601183869555650e-001	 1.162235376332733e+000	 3.972378484138956e+000
 5.856006061301156e-001	 1.132562108724173e+000	 5.359978861237210e+000
 5.741282330262805e-001	 1.138420735956605e+000	 5.167971794398199e+000
 5.626159703667710e-001	 1.144153953757676e+000	 4.978990069483883e+000
 5.510658137451469e-001	 1.149761483495895e+000	 4.793586631154309e+000
 5.394797572950757e-001	 1.155243087612864e+000	 4.612306770462012e+000
 5.278597926674591e-001	 1.160598569400124e+000	 4.435687323676850e+000
 5.162079080199823e-001	 1.165827772746534e+000	 4.264255895817096e+000
 5.045260870200352e-001	 1.170930581856823e+000	 4.098530110269594e+000
 4.928163078619172e-001	 1.175906920941978e+000	 3.939016885788129e+000
 4.810805422992083e-001	 1.180756753882165e+000	 3.786211742067936e+000
 4.693207546931507e-001	 1.185480083862899e+000	 3.640598134996770e+000
 5.970829709552312e-001	 1.154769208893534e+000	 5.376023929219983e+000
 5.853856493595110e-001	 1.160742711170352e+000	 5.133428452752816e+000
 5.736476560598761e-001	 1.166588345007308e+000	 4.897531550315286e+000
 5.618710257791714e-001	 1.172305826309545e+000	 4.668924465441010e+000
 5.500577917517258e-001	 1.177894912860660e+000	 4.448186856089401e+000
 5.382099846804195e-001	 1.183355404095164e+000	 4.235885986162153e+000
 5.263296317064224e-001	 1.188687140840915e+000	 4.032575947140273e+000
 5.144187553925638e-001	 1.193890005032144e+000	 3.838796911174703e+000
 5.024793727212673e-001	 1.198963919393784e+000	 3.655074416860806e+000
 4.905134941079483e-001	 1.203908847097765e+000	 3.481918688823467e+000
 4.785231224307363e-001	 1.208724791392063e+000	 3.319823992132746e+000
 6.085653357803471e-001	 1.176976309062392e+000	 5.414042603263678e+000
 5.966430656927416e-001	 1.183064686383501e+000	 5.120679297200670e+000
 5.846793417529809e-001	 1.189022736256255e+000	 4.837529379389884e+000
 5.726762378131962e-001	 1.194850169122436e+000	 4.565224329360424e+000
 5.606358262083760e-001	 1.200546738107633e+000	 4.304380189170797e+000
 5.485601766933801e-001	 1.206112238789327e+000	 4.055596744153451e+000
 5.364513553928626e-001	 1.211546508934373e+000	 3.819456739157419e+000
 5.243114237650927e-001	 1.216849428206511e+000	 3.596525131580691e+000
 5.121424375806174e-001	 1.222020917844609e+000	 3.387348382369923e+000
 4.999464459166881e-001	 1.227060940312370e+000	 3.192453786050375e+000
 4.877254901683218e-001	 1.231969498920228e+000	 3.012348840731262e+000
 6.200477006054628e-001	 1.199183409230746e+000	 5.476827019367764e+000
 6.079004820259722e-001	 1.205386661596051e+000	 5.132420396661747e+000
 5.957110274460858e-001	 1.211457127504519e+000	 4.801591656714142e+000
 5.834814498472208e-001	 1.217394511934570e+000	 4.485014472098857e+000
 5.712138606650262e-001	 1.223198563353783e+000	 4.183343300859094e+000
 5.589103687063406e-001	 1.228869073482613e+000	 3.897212553036395e+000
 5.465730790793028e-001	 1.234405877026911e+000	 3.627235798045653e+000
 5.342040921376213e-001	 1.239808851379921e+000	 3.374005014153410e+000
 5.218055024399675e-001	 1.245077916294454e+000	 3.138089881190391e+000
 5.093793977254281e-001	 1.250213033525979e+000	 2.926824758845349e+000
 4.969278579059074e-001	 1.255214206447393e+000	 2.889959540695901e+000
 6.315300654305786e-001	 1.221390509398596e+000	 5.518457695789281e+000
 6.191578983592029e-001	 1.227708636808003e+000	 5.171247196393652e+000
 6.067427131391908e-001	 1.233891518752100e+000	 4.792229765996043e+000
 5.942866618812454e-001	 1.239938854745945e+000	 4.430729733127573e+000
 5.817918951216763e-001	 1.245850388599110e+000	 4.087442019921668e+000
 5.692605607193010e-001	 1.251625908175021e+000	 3.808232302218432e+000
 5.566948027657430e-001	 1.257265245118527e+000	 3.666835683141810e+000
 5.440967605101501e-001	 1.262768274552376e+000	 3.551372251780974e+000
 5.314685672993177e-001	 1.268134914743319e+000	 3.461266499837347e+000
 5.188123495341680e-001	 1.273365126738593e+000	 3.395941245657008e+000
 5.061302256434931e-001	 1.278458913973559e+000	 3.354819172612656e+000
 6.430124302556941e-001	 1.243597609565942e+000	 5.530577953104671e+000
 6.304153146924334e-001	 1.250030612019355e+000	 5.196272644605165e+000
 6.177743988322958e-001	 1.256325909998997e+000	 4.960616462936778e+000
 6.050918739152699e-001	 1.262483197556562e+000	 4.712531831724232e+000
 5.923699295783265e-001	 1.268502213843615e+000	 4.495479396031896e+000
 5.796107527322617e-001	 1.274382742866553e+000	 4.308834863963389e+000
 5.668165264521832e-001	 1.280124613209222e+000	 4.151965100358027e+000
 5.539894288826788e-001	 1.285727697723874e+000	 4.024229937362541e+000
 5.411316321586678e-001	 1.291191913191203e+000	 3.924983948928348e+000
 5.282453013429078e-001	 1.296517219950213e+000	 3.853578185489206e+000
 5.153325933810786e-001	 1.301703621498723e+000	 3.809361865286983e+000
 6.544947950808100e-001	 1.265804709732783e+000	 5.858044606487481e+000
 6.416727310256640e-001	 1.272352587230109e+000	 5.652769378451496e+000
 6.288060845254007e-001	 1.278760301245210e+000	 5.468635670427913e+000
 6.158970859492947e-001	 1.285027540366421e+000	 5.230616610387687e+000
 6.029479640349766e-001	 1.291154039087298e+000	 4.993521464665948e+000
 5.899609447452221e-001	 1.297139577557208e+000	 4.790046970950296e+000
 5.769382501386235e-001	 1.302983981298995e+000	 4.619491246032968e+000
 5.638820972552076e-001	 1.308687120894417e+000	 4.481143336002581e+000
 5.507946970180179e-001	 1.314248911638106e+000	 4.374285148848285e+000
 5.376782531516476e-001	 1.319669313160837e+000	 4.298193346394272e+000
 5.245349611186642e-001	 1.324948329022888e+000	 4.252141191713303e+000
 6.659771599059257e-001	 1.288011809899122e+000	 6.265291888819902e+000
 6.529301473588947e-001	 1.294674562440264e+000	 6.054997001052615e+000
 6.398377702185056e-001	 1.301194692490741e+000	 5.869084144387579e+000
 6.267022979833191e-001	 1.307571883175522e+000	 5.707378696263947e+000
 6.135259984916267e-001	 1.313805864330157e+000	 5.468262938157593e+000
 6.003111367581827e-001	 1.319896412246986e+000	 5.249937167263362e+000
 5.870599738250637e-001	 1.325843349387847e+000	 5.067554873007540e+000
 5.737747656277362e-001	 1.331646544064004e+000	 4.920331327885393e+000
 5.604577618773681e-001	 1.337305910084030e+000	 4.807472908232122e+000
 5.471112049603875e-001	 1.342821406370465e+000	 4.728179146971861e+000
 5.337373288562498e-001	 1.348193036546053e+000	 4.681644740430498e+000
 6.774595247310413e-001	 1.310218910064956e+000	 6.617783619964701e+000
 6.641875636921253e-001	 1.316996537649819e+000	 6.403866810183115e+000
 6.508694559116106e-001	 1.323629083735587e+000	 6.217475856028072e+000
 6.375075100173437e-001	 1.330116225983865e+000	 6.058428888534567e+000
 6.241040329482768e-001	 1.336457689572194e+000	 5.917643159730952e+000
 6.106613287711432e-001	 1.342653246935887e+000	 5.686512437237429e+000
 5.971816975115039e-001	 1.348702717475778e+000	 5.494236226977859e+000
 5.836674340002649e-001	 1.354605967232635e+000	 5.339952926919590e+000
 5.701208267367182e-001	 1.360362908528973e+000	 5.222790400609901e+000
 5.565441567691274e-001	 1.365973499579099e+000	 5.141868194458255e+000
 5.429396965938355e-001	 1.371437744068218e+000	 5.096299707425063e+000
 6.889418895561570e-001	 1.332426010230286e+000	 6.916409933704146e+000
 6.754449800253557e-001	 1.339318512858777e+000	 6.700226010437799e+000
 6.619011416047155e-001	 1.346063474979750e+000	 6.514620579872632e+000
 6.483127220513681e-001	 1.352660568791450e+000	 6.359404560836331e+000
 6.346820674049272e-001	 1.359109514813409e+000	 6.234351828099497e+000
 6.210115207841035e-001	 1.365410081623910e+000	 6.097723335437284e+000
 6.073034211979440e-001	 1.371562085562787e+000	 5.897560088757172e+000
 5.935601023727936e-001	 1.377565390400310e+000	 5.738112269595020e+000
 5.797838915960681e-001	 1.383419906972935e+000	 5.618426133998903e+000
 5.659771085778672e-001	 1.389125592786738e+000	 5.537538269006657e+000
 5.521420643314210e-001	 1.394682451589383e+000	 5.494477928843858e+000
 4.601183869555650e-001	 1.162235376332733e+000	 3.972378484138956e+000
 4.485675500777414e-001	 1.166742110765889e+000	 3.797439269061700e+000
 4.369969884738851e-001	 1.171124942985806e+000	 3.625824375827798e+000
 4.254086008172059e-001	 1.175383989328324e+000	 3.457848496021592e+000
 4.138042749739846e-001	 1.179519402990089e+000	 3.293819084467797e+000
 4.021858871602738e-001	 1.183531373552290e+000	 3.134035889544257e+000
 3.905553011185043e-001	 1.187420126482944e+000	 2.978790507409353e+000
 3.789143673145659e-001	 1.191185922618587e+000	 2.828365960691619e+000
 3.672649221558915e-001	 1.194829057626238e+000	 2.683036302111703e+000
 3.556087872310361e-001	 1.198349861446522e+000	 2.543066243425164e+000
 3.439477685711992e-001	 1.201748697718857e+000	 2.408710809999253e+000
 4.693207546931507e-001	 1.185480083862899e+000	 3.640598134996770e+000
 4.575389010772938e-001	 1.190076952984894e+000	 3.443178413035140e+000
 4.457369282409294e-001	 1.194547441849339e+000	 3.249016607351902e+000
 4.339167728307316e-001	 1.198891669118793e+000	 3.058469821100104e+000
 4.220803604703062e-001	 1.203109791053832e+000	 2.871887307797489e+000
 4.102296049000272e-001	 1.207202001027271e+000	 2.689609953655491e+000
 3.983664071371732e-001	 1.211168529016486e+000	 2.511969785847992e+000
 3.864926546569516e-001	 1.215009641074747e+000	 2.339289507319538e+000
 3.746102205949438e-001	 1.218725638782410e+000	 2.171882058647736e+000
 3.627209629714756e-001	 1.222316858678915e+000	 2.010050207388537e+000
 3.508267239383701e-001	 1.225783671676468e+000	 1.854086165250449e+000
 4.785231224307363e-001	 1.208724791392063e+000	 3.319823992132746e+000
 4.665102520768511e-001	 1.213411795202904e+000	 3.099427881237043e+000
 4.544768680079944e-001	 1.217969940711893e+000	 2.882234711415232e+000
 4.424249448443035e-001	 1.222399348908308e+000	 2.668645033666611e+000
 4.303564459667101e-001	 1.226700179116658e+000	 2.459050908291400e+000
 4.182733226399086e-001	 1.230872628501379e+000	 2.253835338009765e+000
 4.061775131560261e-001	 1.234916931549213e+000	 2.053371729119335e+000
 3.940709419995870e-001	 1.238833359530156e+000	 1.858023381343648e+000
 3.819555190343216e-001	 1.242622219937907e+000	 1.668143006933260e+000
 3.698331387123260e-001	 1.246283855910719e+000	 1.484072279488536e+000
 3.577056793060472e-001	 1.249818645633586e+000	 1.306141412882072e+000
 4.877254901683218e-001	 1.231969498920228e+000	 3.012348840731262e+000
 4.754816030764138e-001	 1.236746637419919e+000	 2.768401633794080e+000
 4.632168077750800e-001	 1.241392439573469e+000	 2.527613690975794e+000
 4.509331168579218e-001	 1.245907028696870e+000	 2.290430100977580e+000
 4.386325314631963e-001	 1.250290567178565e+000	 2.067450779624334e+000
 4.263170403799181e-001	 1.254543255974617e+000	 1.989146562610172e+000
 4.139886191750629e-001	 1.258665334081123e+000	 1.913650163125179e+000
 4.016492293424726e-001	 1.262657077984815e+000	 1.840630751711126e+000
 3.893008174740251e-001	 1.266518801092731e+000	 1.769781229126231e+000
 3.769453144535877e-001	 1.270250853141934e+000	 1.700818764635170e+000
 3.645846346742306e-001	 1.273853619590210e+000	 1.633485266994212e+000
 4.969278579059074e-001	 1.255214206447393e+000	 2.889959540695901e+000
 4.844529540759813e-001	 1.260081479635939e+000	 2.786300228386203e+000
 4.719567475421861e-001	 1.264814938434064e+000	 2.686481723928451e+000
 4.594412888715865e-001	 1.269414708484477e+000	 2.590052382272251e+000
 4.469086169597646e-001	 1.273880955239555e+000	 2.496583065119122e+000
 4.343607581200557e-001	 1.278213883446981e+000	 2.405667998411897e+000
 4.217997251942837e-001	 1.282413736612218e+000	 2.316925559616634e+000
 4.092275166856078e-001	 1.286480796438724e+000	 2.229998994087959e+000
 3.966461159140542e-001	 1.290415382246879e+000	 2.144557060033737e+000
 3.840574901952604e-001	 1.294217850372560e+000	 2.060294601811786e+000
 3.714635900429202e-001	 1.297888593546341e+000	 1.976933051505737e+000
 5.061302256434931e-001	 1.278458913973559e+000	 3.354819172612656e+000
 4.934243050755545e-001	 1.283416321850965e+000	 3.242687632932822e+000
 4.806966873093129e-001	 1.288237437293681e+000	 3.133861183072476e+000
 4.679494608852974e-001	 1.292922388271132e+000	 3.027852412287727e+000
 4.551847024564149e-001	 1.297471343299626e+000	 2.924198093633793e+000
 4.424044758603214e-001	 1.301884510918474e+000	 2.822460097528138e+000
 4.296108312136885e-001	 1.306162139142497e+000	 2.722226230562684e+000
 4.168058040289931e-001	 1.310304514891883e+000	 2.623110998813590e+000
 4.039914143544089e-001	 1.314311963400354e+000	 2.524756295134436e+000
 3.911696659373444e-001	 1.318184847602598e+000	 2.426832010149374e+000
 3.783425454121162e-001	 1.321923567501977e+000	 2.329036566890508e+000
 5.153325933810786e-001	 1.301703621498723e+000	 3.809361865286983e+000
 5.023956560751326e-001	 1.306751164064996e+000	 3.690699974695901e+000
 4.894366270764604e-001	 1.311659936152317e+000	 3.574785440330775e+000
 4.764576328990547e-001	 1.316430068056832e+000	 3.461091875361912e+000
 4.634607879531474e-001	 1.321061731358781e+000	 3.349118833930053e+000
 4.504481936007152e-001	 1.325555138389096e+000	 3.238392784395517e+000
 4.374219372332777e-001	 1.329910541671959e+000	 3.128468003077606e+000
 4.243840913726282e-001	 1.334128233344292e+000	 3.018927387688580e+000
 4.113367127950892e-001	 1.338208544553154e+000	 2.909383189914745e+000
 3.982818416798393e-001	 1.342151844832047e+000	 2.799477666843541e+000
 3.852215007818186e-001	 1.345958541457120e+000	 2.688883651177023e+000
 5.245349611186642e-001	 1.324948329022888e+000	 4.252141191713303e+000
 5.113670070747159e-001	 1.330086006278032e+000	 4.128943899353284e+000
 4.981765668436284e-001	 1.335082435009975e+000	 4.007913416404018e+000
 4.849658049128583e-001	 1.339937747841579e+000	 3.888481105963352e+000
 4.717368734499622e-001	 1.344652119417017e+000	 3.770106111149124e+000
 4.584919113412371e-001	 1.349225765858845e+000	 3.652276391710934e+000
 4.452330432530506e-001	 1.353658944200606e+000	 3.534509676156290e+000
 4.319623787165133e-001	 1.357951951795950e+000	 3.416354328546072e+000
 4.186820112360953e-001	 1.362105125705279e+000	 3.297390129375701e+000
 4.053940174227453e-001	 1.366118842060906e+000	 3.177228970223175e+000
 3.921004561520270e-001	 1.369993515411769e+000	 3.055515462097351e+000
 5.337373288562498e-001	 1.348193036546053e+000	 4.681644740430498e+000
 5.203383580743043e-001	 1.353420848490073e+000	 4.555962345976491e+000
 5.069165066108171e-001	 1.358504933866653e+000	 4.431842618422637e+000
 4.934739769267081e-001	 1.363445427625372e+000	 4.308671332094523e+000
 4.800129589468591e-001	 1.368242507474335e+000	 4.185863964020447e+000
 4.665356290818872e-001	 1.372896393327723e+000	 4.062866797650480e+000
 4.530441492730075e-001	 1.377407346728437e+000	 3.939157936891655e+000
 4.395406660606483e-001	 1.381775670246859e+000	 3.814248229559390e+000
 4.260273096774269e-001	 1.386001706856730e+000	 3.687682099626743e+000
 4.125061931660624e-001	 1.390085839289177e+000	 3.559038287928921e+000
 3.989794115227419e-001	 1.394028489365924e+000	 3.427930501250403e+000
 5.429396965938355e-001	 1.371437744068218e+000	 5.096299707425063e+000
 5.293097090738980e-001	 1.376755690701119e+000	 4.970239945895699e+000
 5.156564463780266e-001	 1.381927432722353e+000	 4.845114344487142e+000
 5.019821489406044e-001	 1.386953107408211e+000	 4.720259684314456e+000
 4.882890444438383e-001	 1.391832895530736e+000	 4.595044457269515e+000
 4.745793468226653e-001	 1.396567020795728e+000	 4.468870040659660e+000
 4.608552552931487e-001	 1.401155749255452e+000	 4.341171776737307e+000
 4.471189534050331e-001	 1.405599388697018e+000	 4.211419956162278e+000
 4.333726081190841e-001	 1.409898288007507e+000	 4.079120704740848e+000
 4.196183689097908e-001	 1.414052836516859e+000	 3.943816773072862e+000
 4.058583668939629e-001	 1.418063463319586e+000	 3.805088229028743e+000
 5.521420643314210e-001	 1.394682451589383e+000	 5.494477928843858e+000
 5.382810600734966e-001	 1.400090532911170e+000	 5.370207881678046e+000
 5.243963861452564e-001	 1.405349931577071e+000	 5.246218367753544e+000
 5.104903209545469e-001	 1.410460787190097e+000	 5.121793703858977e+000
 4.965651299408994e-001	 1.415423283586218e+000	 4.996252012784835e+000
 4.826230645635714e-001	 1.420237648262862e+000	 4.868946472764023e+000
 4.686663613134737e-001	 1.424904151781650e+000	 4.739266466144350e+000
 4.546972407496678e-001	 1.429423107146426e+000	 4.606638626277437e+000
 4.407179065610668e-001	 1.433794869157610e+000	 4.470527781924105e+000
 4.267305446539302e-001	 1.438019833743952e+000	 4.330437798782804e+000
 4.127373222656903e-001	 1.442098437272754e+000	 4.185912318052262e+000
 3.439477685711992e-001	 1.201748697718857e+000	 2.408710809999253e+000
 3.322836559344022e-001	 1.205025963190290e+000	 2.253548188145450e+000
 3.206182221117185e-001	 1.208182087106841e+000	 2.101931677152606e+000
 3.089532222566901e-001	 1.211217530589606e+000	 1.954165642158237e+000
 2.972903932386899e-001	 1.214132785997952e+000	 1.810545500814656e+000
 2.856314530195623e-001	 1.216928376278658e+000	 1.671357389084617e+000
 2.739781000540938e-001	 1.219604854302597e+000	 1.536877853009686e+000
 2.623320127144964e-001	 1.222162802189878e+000	 1.407373566447763e+000
 2.506948487390464e-001	 1.224602830624363e+000	 1.283101074712250e+000
 2.390682447049869e-001	 1.226925578158476e+000	 1.164306563975958e+000
 2.274538155257646e-001	 1.229131710509183e+000	 1.051225656242482e+000
 3.508267239383701e-001	 1.225783671676468e+000	 1.854086165250449e+000
 3.389293290488262e-001	 1.229126482457096e+000	 1.681985828053721e+000
 3.270305865497554e-001	 1.232345728851775e+000	 1.515844854355846e+000
 3.151322866977699e-001	 1.235441881204021e+000	 1.355971175211123e+000
 3.032362010996295e-001	 1.238415441720391e+000	 1.202661429251883e+000
 2.913440820764150e-001	 1.241266943806600e+000	 1.056200656813379e+000
 2.794576620520077e-001	 1.243996951390936e+000	 9.168620228309125e-001
 2.675786529660633e-001	 1.246606058235909e+000	 7.849065684025722e-001
 2.557087457116231e-001	 1.249094887239062e+000	 6.605829908407699e-001
 2.438496095974740e-001	 1.251464089723863e+000	 5.942067292569148e-001
 2.320028918353312e-001	 1.253714344721621e+000	 5.610556878400452e-001
 3.577056793060472e-001	 1.249818645633586e+000	 1.306141412882072e+000
 3.455750021638407e-001	 1.253227001723497e+000	 1.233062360588513e+000
 3.334429509884362e-001	 1.256509370596373e+000	 1.170025126917555e+000
 3.213113511395164e-001	 1.259666231818150e+000	 1.110293024162408e+000
 3.091820089612282e-001	 1.262698097442573e+000	 1.053739899503729e+000
 2.970567111338885e-001	 1.265605511334292e+000	 1.000263050059753e+000
 2.849372240504744e-001	 1.268389048479012e+000	 9.497832856325151e-001
 2.728252932180851e-001	 1.271049314281647e+000	 9.022449339217917e-001
 2.607226426845272e-001	 1.273586943853415e+000	 8.576157894557185e-001
 2.486309744901321e-001	 1.276002601288834e+000	 8.158870076169518e-001
 2.365519681448832e-001	 1.278296978933551e+000	 7.770729452623797e-001
 3.645846346742306e-001	 1.273853619590210e+000	 1.633485266994212e+000
 3.522206752794460e-001	 1.277327520989495e+000	 1.551270737828673e+000
 3.398553154277613e-001	 1.280673012340635e+000	 1.473730714054275e+000
 3.274904155819298e-001	 1.283890582431992e+000	 1.400674322193962e+000
 3.151278168234858e-001	 1.286980753164496e+000	 1.331934558380219e+000
 3.027693401919829e-001	 1.289944078861733e+000	 1.267368469083125e+000
 2.904167860494938e-001	 1.292781145566826e+000	 1.206857269739049e+000
 2.780719334705619e-001	 1.295492570327090e+000	 1.150306402373533e+000
 2.657365396577590e-001	 1.298079000467422e+000	 1.097645533460410e+000
 2.534123393829610e-001	 1.300541112853388e+000	 1.048828493395799e+000
 2.411010444544205e-001	 1.302879613144973e+000	 1.003833159097665e+000
 3.714635900429202e-001	 1.297888593546341e+000	 1.976933051505737e+000
 3.588663483956419e-001	 1.301428040255088e+000	 1.879672754056808e+000
 3.462676798677306e-001	 1.304836654084563e+000	 1.788189476707225e+000
 3.336694800250100e-001	 1.308114933045548e+000	 1.702249691197387e+000
 3.210736246864024e-001	 1.311263408886161e+000	 1.621644411425984e+000
 3.084819692506983e-001	 1.314282646388924e+000	 1.546189433638810e+000
 2.958963480490661e-001	 1.317173242654377e+000	 1.475725510844675e+000
 2.833185737234936e-001	 1.319935826372239e+000	 1.410118462537614e+000
 2.707504366313181e-001	 1.322571057081083e+000	 1.349259220964423e+000
 2.581937042759608e-001	 1.325079624417524e+000	 1.293063815322356e+000
 2.456501207639431e-001	 1.327462247355889e+000	 1.241473295415028e+000
 3.783425454121162e-001	 1.321923567501977e+000	 2.329036566890508e+000
 3.655120215124286e-001	 1.325528559520277e+000	 2.217489894794516e+000
 3.526800443083439e-001	 1.329000295828156e+000	 2.112707837859105e+000
 3.398485444687571e-001	 1.332339283658817e+000	 2.014412858645879e+000
 3.270194325499780e-001	 1.335546064607567e+000	 1.922352766491983e+000
 3.141945983100346e-001	 1.338621213915864e+000	 1.836301017372284e+000
 3.013759100491911e-001	 1.341565339741666e+000	 1.756056944092060e+000
 2.885652139768801e-001	 1.344379082417094e+000	 1.681445917880159e+000
 2.757643336052048e-001	 1.347063113694398e+000	 1.612319442621555e+000
 2.629750691691316e-001	 1.349618135981245e+000	 1.548555183128534e+000
 2.501991970734510e-001	 1.352044881566296e+000	 1.490056928998968e+000
 3.852215007818186e-001	 1.345958541457120e+000	 2.688883651177023e+000
 3.721576946298060e-001	 1.349629078785063e+000	 2.563892082947959e+000
 3.590924087496013e-001	 1.353163937571413e+000	 2.446539996523193e+000
 3.460276089131709e-001	 1.356563634271800e+000	 2.336504401508488e+000
 3.329652404142126e-001	 1.359828720328715e+000	 2.233488591681993e+000
 3.199072273699916e-001	 1.362959781442553e+000	 2.137222504827256e+000
 3.068554720498689e-001	 1.365957436828692e+000	 2.047463008772965e+000
 2.938118542307215e-001	 1.368822338461654e+000	 1.963994114704705e+000
 2.807782305794190e-001	 1.371555170307368e+000	 1.886627118993818e+000
 2.677564340624732e-001	 1.374156647544547e+000	 1.815200674959678e+000
 2.547482733829443e-001	 1.376627515776197e+000	 1.749580796142561e+000
 3.921004561520270e-001	 1.369993515411769e+000	 3.055515462097351e+000
 3.788033677477742e-001	 1.373729598049444e+000	 2.918002201844221e+000
 3.655047731915029e-001	 1.377327579314336e+000	 2.788892508793166e+000
 3.522066733582517e-001	 1.380787984884495e+000	 2.667816408574788e+000
 3.389110482791062e-001	 1.384111376049604e+000	 2.554431281997013e+000
 3.256198564305696e-001	 1.387298348968993e+000	 2.448422285226607e+000
 3.123350340510994e-001	 1.390349533915456e+000	 2.349502691823624e+000
 2.990584944850179e-001	 1.393265594505920e+000	 2.257414157692726e+000
 2.857921275539608e-001	 1.396047226919992e+000	 2.171926910208480e+000
 2.725377989559857e-001	 1.398695159107433e+000	 2.092839862952164e+000
 2.592973496924230e-001	 1.401210149985591e+000	 2.019980657672661e+000
 3.989794115227419e-001	 1.394028489365924e+000	 3.427930501250403e+000
 3.854490408663330e-001	 1.397830117313421e+000	 3.278900150367611e+000
 3.719171376340487e-001	 1.401491221056923e+000	 3.138928394991477e+000
 3.583857378039991e-001	 1.405012335496905e+000	 3.007596660470517e+000
 3.448568561446588e-001	 1.408394031770235e+000	 2.884514932878509e+000
 3.313324854917685e-001	 1.411636916495181e+000	 2.769322239999825e+000
 3.178145960528828e-001	 1.414741631001957e+000	 2.661687049579498e+000
 3.043051347397691e-001	 1.417708850549892e+000	 2.561307585905504e+000
 2.908060245288300e-001	 1.420539283532269e+000	 2.467912065995493e+000
 2.773191638496692e-001	 1.423233670669902e+000	 2.381258856854804e+000
 2.638464260018870e-001	 1.425792784194477e+000	 2.301136555455928e+000
 4.058583668939629e-001	 1.418063463319586e+000	 3.805088229028743e+000
 3.920947139854824e-001	 1.421930636576994e+000	 3.645626485708835e+000
 3.783295020772386e-001	 1.425654862799175e+000	 3.495770829141107e+000
 3.645648022504135e-001	 1.429236686109028e+000	 3.355052384586438e+000
 3.508026640108703e-001	 1.432676687490608e+000	 3.223032179154211e+000
 3.370451145535883e-001	 1.435975484021120e+000	 3.099301684121515e+000
 3.232941580552189e-001	 1.439133728088196e+000	 2.983483269690725e+000
 3.095517749949752e-001	 1.442152106593569e+000	 2.875230573260086e+000
 2.958199215040268e-001	 1.445031340144200e+000	 2.774228782500776e+000
 2.821005287435235e-001	 1.447772182231954e+000	 2.680194834739629e+000
 2.683955023113362e-001	 1.450375418402855e+000	 2.592877534344121e+000
 4.127373222656903e-001	 1.442098437272754e+000	 4.185912318052262e+000
 3.987403871052226e-001	 1.446031155840163e+000	 4.017185701839522e+000
 3.847418665210725e-001	 1.449818504541092e+000	 3.858506459490886e+000
 3.707438666974945e-001	 1.453461036720863e+000	 3.709353634514795e+000
 3.567484718777408e-001	 1.456959343210722e+000	 3.569237650089046e+000
 3.427577436160290e-001	 1.460314051546807e+000	 3.437700913315753e+000
 3.287737200581077e-001	 1.463525825174172e+000	 3.314318326845625e+000
 3.147984152506362e-001	 1.466595362636951e+000	 3.198697708958346e+000
 3.008338184795510e-001	 1.469523396755786e+000	 3.090480123418105e+000
 2.868818936375487e-001	 1.472310693793589e+000	 2.989340120641469e+000
 2.729445786207708e-001	 1.474958052610726e+000	 2.894985891925494e+000
 2.274538155257646e-001	 1.229131710509183e+000	 1.051225656242482e+000
 2.158531539728275e-001	 1.231221919845279e+000	 9.260789700282115e-001
 2.042678302214702e-001	 1.233196924069199e+000	 8.080035493808455e-001
 1.926993914209580e-001	 1.235057466092678e+000	 6.971807819471408e-001
 1.811493612893031e-001	 1.236804313105527e+000	 5.937810106293808e-001
 1.696192397320707e-001	 1.238438255840743e+000	 4.979634665359580e-001
 1.581105024852516e-001	 1.239960107836013e+000	 4.098762246023807e-001
 1.466246007820466e-001	 1.241370704692402e+000	 3.296561813160137e-001
 1.351629610433853e-001	 1.242670903331058e+000	 2.574290539397800e-001
 1.237269845919668e-001	 1.243861581248700e+000	 1.933094005936801e-001
 1.123180473895901e-001	 1.244943635772666e+000	 1.374006605231470e-001
 2.320028918353312e-001	 1.253714344721621e+000	 5.610556878400452e-001
 2.201702170519754e-001	 1.255846358244472e+000	 5.106495243963272e-001
 2.083531868261118e-001	 1.257860862552874e+000	 4.628404041351873e-001
 1.965533792499919e-001	 1.259758615416796e+000	 4.177315886372174e-001
 1.847723485159895e-001	 1.261540399369842e+000	 3.754478067730202e-001
 1.730116245277818e-001	 1.263207020959674e+000	 3.361348308702052e-001
 1.612727125360806e-001	 1.264759309994731e+000	 2.999590131232240e-001
 1.495570927987519e-001	 1.266198118788100e+000	 2.671067842963388e-001
 1.378662202651449e-001	 1.267524321399351e+000	 2.377841168191701e-001
 1.262015242844137e-001	 1.268738812875139e+000	 2.122159544091109e-001
 1.145644083375946e-001	 1.269842508489349e+000	 1.906456103878814e-001
 2.365519681448832e-001	 1.278296978933551e+000	 7.770729452623797e-001
 2.244872801309242e-001	 1.280470796643069e+000	 7.211609099297002e-001
 2.124385434304010e-001	 1.282524801035884e+000	 6.684507433548270e-001
 2.004073670785511e-001	 1.284459764740199e+000	 6.190200695582943e-001
 1.883953357421092e-001	 1.286276485633416e+000	 5.729690030632217e-001
 1.764040093228648e-001	 1.287975786077856e+000	 5.304197406618533e-001
 1.644349225862499e-001	 1.289558512152712e+000	 4.915161104254190e-001
 1.524895848147956e-001	 1.291025532883092e+000	 4.564230800841311e-001
 1.405694794862704e-001	 1.292377739466991e+000	 4.253262269549943e-001
 1.286760639762833e-001	 1.293616044500996e+000	 3.984311716380053e-001
 1.168107692851074e-001	 1.294741381205540e+000	 3.759629777365880e-001
 2.411010444544205e-001	 1.302879613144973e+000	 1.003833159097665e+000
 2.288043432096740e-001	 1.305095235041069e+000	 9.421157585592629e-001
 2.165239000343380e-001	 1.307188739518228e+000	 8.840917260870023e-001
 2.042613549066356e-001	 1.309160914062888e+000	 8.298129075633973e-001
 1.920183229676622e-001	 1.311012571896248e+000	 7.793547814189173e-001
 1.797963941173194e-001	 1.312744551195289e+000	 7.328160643900717e-001
 1.675971326357593e-001	 1.314357714309955e+000	 6.903182713659748e-001
 1.554220768301776e-001	 1.315852946977379e+000	 6.520052315305935e-001
 1.432727387067618e-001	 1.317231157533977e+000	 6.180425630660659e-001
 1.311506036675756e-001	 1.318493276126271e+000	 5.886171087312004e-001
 1.190571302321284e-001	 1.319640253921239e+000	 5.639363346665064e-001
 2.456501207639431e-001	 1.327462247355889e+000	 1.241473295415028e+000
 2.331214062882249e-001	 1.329719673438472e+000	 1.173738150198613e+000
 2.206092566379227e-001	 1.331852677999906e+000	 1.110075684121331e+000
 2.081153427342454e-001	 1.333862063384863e+000	 1.050511752610226e+000
 1.956413101926487e-001	 1.335748658158338e+000	 9.950971059126162e-001
 1.831887789111457e-001	 1.337513316311971e+000	 9.439070072795546e-001
 1.707593426846089e-001	 1.339156916466462e+000	 8.970408019206252e-001
 1.583545688448978e-001	 1.340680361070962e+000	 8.546214390276710e-001
 1.459759979266191e-001	 1.342084575600310e+000	 8.167949492270531e-001
 1.336251433582905e-001	 1.343370507750963e+000	 7.837298798744942e-001
 1.213034911786578e-001	 1.344539126636447e+000	 7.556166906481593e-001
 2.501991970734510e-001	 1.352044881566296e+000	 1.490056928998968e+000
 2.374384693665767e-001	 1.354344111835278e+000	 1.416176928061431e+000
 2.246946132411551e-001	 1.356516616480918e+000	 1.346637655951205e+000
 2.119693305613804e-001	 1.358563212706124e+000	 1.281438696312516e+000
 1.992642974170685e-001	 1.360484744419686e+000	 1.220605911585223e+000
 1.865811637043440e-001	 1.362282081427904e+000	 1.164191072082768e+000
 1.739215527327986e-001	 1.363956118622231e+000	 1.112271432361015e+000
 1.612870608589564e-001	 1.365507775163839e+000	 1.064949257271749e+000
 1.486792571458423e-001	 1.366937993665990e+000	 1.022351300162955e+000
 1.360996830484281e-001	 1.368247739375074e+000	 9.846282357466794e-001
 1.235498521246955e-001	 1.369437999351162e+000	 9.519540502036812e-001
 2.547482733829443e-001	 1.376627515776197e+000	 1.749580796142561e+000
 2.417555324447295e-001	 1.378968550231487e+000	 1.669512416223806e+000
 2.287799698440352e-001	 1.381180554961264e+000	 1.593942287960579e+000
 2.158233183880407e-001	 1.383264362026671e+000	 1.522843375363565e+000
 2.028872846409218e-001	 1.385220830680293e+000	 1.456216428466374e+000
 1.899735484969138e-001	 1.387050846543088e+000	 1.394089621800650e+000
 1.770837627803285e-001	 1.388755320777263e+000	 1.336518136514295e+000
 1.642195528723533e-001	 1.390335189256011e+000	 1.283583688629443e+000
 1.513825163644314e-001	 1.391791411731016e+000	 1.235394006012198e+000
 1.385742227379883e-001	 1.393124970998602e+000	 1.192082256689886e+000
 1.257962130702414e-001	 1.394336872065386e+000	 1.153806431205961e+000
 2.592973496924230e-001	 1.401210149985591e+000	 2.019980657672661e+000
 2.460725955226833e-001	 1.403592988627099e+000	 1.933762430074951e+000
 2.328653264465631e-001	 1.405844493440945e+000	 1.852090009170535e+000
 2.196773062142262e-001	 1.407965511346504e+000	 1.774909327231072e+000
 2.065102718642084e-001	 1.409956916940157e+000	 1.702195734645660e+000
 1.933659332888555e-001	 1.411819611657522e+000	 1.633953646327392e+000
 1.802459728271986e-001	 1.413554522931558e+000	 1.570216127942377e+000
 1.671520448850885e-001	 1.415162603347478e+000	 1.511044424570112e+000
 1.540857755823864e-001	 1.416644829795389e+000	 1.456527434483690e+000
 1.410487624269712e-001	 1.418002202621548e+000	 1.406781130809450e+000
 1.280425740152957e-001	 1.419235744779119e+000	 1.361947933882987e+000
 2.638464260018870e-001	 1.425792784194477e+000	 2.301136555455928e+000
 2.503896586004381e-001	 1.428217427022114e+000	 2.208887664996791e+000
 2.369506830487388e-001	 1.430508431919961e+000	 2.121122567218909e+000
 2.235312940399371e-001	 1.432666660665624e+000	 2.037759688366139e+000
 2.101332590869283e-001	 1.434693003199280e+000	 1.958748631439955e+000
 1.967583180801690e-001	 1.436588376771207e+000	 1.884069829097695e+000
 1.834081828734088e-001	 1.438353725085115e+000	 1.813734132378566e+000
 1.700845368971620e-001	 1.439990017438240e+000	 1.747782337984384e+000
 1.567890347997074e-001	 1.441498247859109e+000	 1.686284656928299e+000
 1.435233021153768e-001	 1.442879434243912e+000	 1.629340127442580e+000
 1.302889349598582e-001	 1.444134617492359e+000	 1.577075975097766e+000
 2.683955023113362e-001	 1.450375418402855e+000	 2.592877534344121e+000
 2.547067216779939e-001	 1.452841865416533e+000	 2.494796537042780e+000
 2.410360396505621e-001	 1.455172370398310e+000	 2.401028001358609e+000
 2.273852818651732e-001	 1.457367809984029e+000	 2.311462312933468e+000
 2.137562463090816e-001	 1.459429089457661e+000	 2.226022921085807e+000
 2.001507028708542e-001	 1.461357141884142e+000	 2.144665996786574e+000
 1.865703929189592e-001	 1.463152927237936e+000	 2.067380022289515e+000
 1.730170289085737e-001	 1.464817431528297e+000	 1.994185315267454e+000
 1.594922940163942e-001	 1.466351665922175e+000	 1.925133490403091e+000
 1.459978418032050e-001	 1.467756665865694e+000	 1.860306861460777e+000
 1.325352959039290e-001	 1.469033490205109e+000	 1.799817786938638e+000
 2.729445786207708e-001	 1.474958052610726e+000	 2.894985891925494e+000
 2.590237847553507e-001	 1.477466303810354e+000	 2.791349539548282e+000
 2.451213962520330e-001	 1.479836308875993e+000	 2.691745118156255e+000
 2.312392696899346e-001	 1.482068959301720e+000	 2.596034379668445e+000
 2.173792335306684e-001	 1.484165175715299e+000	 2.504114156662938e+000
 2.035430876609112e-001	 1.486125906996327e+000	 2.415916024039638e+000
 1.897326029638498e-001	 1.487952129390018e+000	 2.331405887980449e+000
 1.759495209193238e-001	 1.489644845617649e+000	 2.250583505193509e+000
 1.621955532324469e-001	 1.491205083984588e+000	 2.173481935529221e+000
 1.484723814904559e-001	 1.492633897486894e+000	 2.100166931142210e+000
 1.347816568475081e-001	 1.493932362917365e+000	 2.030736265450424e+000
 1.123180473895901e-001	 1.244943635772666e+000	 1.374006605231470e-001
 1.009374997969171e-001	 1.245917983316647e+000	 7.561455154820815e-002
 8.958666635718569e-002	 1.246785558636688e+000	 2.076142267777958e-002
 7.826684560235840e-002	 1.247547314088946e+000	-2.704050584516863e-002
 6.697930988018191e-002	 1.248204218890639e+000	-6.768331179806338e-002
 5.572530520362001e-002	 1.248757258383706e+000	-1.010692979447989e-001
 4.450605112168776e-002	 1.249207433302222e+000	-1.271109024079928e-001
 3.332274061130344e-002	 1.249555759044169e+000	-1.457305932004331e-001
 2.217653998975778e-002	 1.249803264948180e+000	-1.568607476803397e-001
 1.106858884738428e-002	 1.249950993575827e+000	-1.604435177027204e-001
 0.000000000000000e+000	 1.250000000000000e+000	-1.564306812465378e-001
 1.145644083375946e-001	 1.269842508489349e+000	 1.906456103878814e-001
 1.029562497926623e-001	 1.270836342983972e+000	 1.613491563924165e-001
 9.137839968381835e-002	 1.271721269810203e+000	 1.351123541252639e-001
 7.983218251366342e-002	 1.272498260371321e+000	 1.122734100580173e-001
 6.831889607689830e-002	 1.273168303268888e+000	 9.318681464191506e-002
 5.683981130674527e-002	 1.273732403551682e+000	 7.822256063061311e-002
 4.539617214319878e-002	 1.274191581968459e+000	 6.776534408505713e-002
 3.398919542271459e-002	 1.274546874225160e+000	 6.221375029331331e-002
 2.262007078892834e-002	 1.274799330247191e+000	 6.197942680844767e-002
 1.128996062397933e-002	 1.274950013447355e+000	 6.748624577474215e-002
 0.000000000000000e+000	 1.275000000000000e+000	 7.916945767148619e-002
 1.168107692851074e-001	 1.294741381205540e+000	 3.759629777365880e-001
 1.049749997880107e-001	 1.295754702650900e+000	 3.480205076676067e-001
 9.317013301013843e-002	 1.296656980983405e+000	 3.235096565408727e-001
 8.139751942472988e-002	 1.297449206653458e+000	 3.027496730401404e-001
 6.965848227344004e-002	 1.298132387646963e+000	 2.860772590727801e-001
 5.795431740974968e-002	 1.298707548719538e+000	 2.738457783013171e-001
 4.628629316463272e-002	 1.299175730634619e+000	 2.664244451434087e-001
 3.465565023408253e-002	 1.299537989406108e+000	 2.641974965843937e-001
 2.306360158807978e-002	 1.299795395546184e+000	 2.675633491199448e-001
 1.151133240056961e-002	 1.299949033318879e+000	 2.769337431117038e-001
 0.000000000000000e+000	 1.300000000000000e+000	 2.927328768010271e-001
 1.190571302321284e-001	 1.319640253921239e+000	 5.639363346665064e-001
 1.069937497829620e-001	 1.320673062317432e+000	 5.355870720546480e-001
 9.496186633614591e-002	 1.321592692156296e+000	 5.109335320927736e-001
 8.296285633555782e-002	 1.322400152935356e+000	 4.902770758596281e-001
 7.099806846980716e-002	 1.323096472024863e+000	 4.739377807175496e-001
 5.906882351263323e-002	 1.323682693887272e+000	 4.622536361818025e-001
 4.717641418598959e-002	 1.324159879300702e+000	 4.555797179669904e-001
 3.532210504540729e-002	 1.324529104587013e+000	 4.542873426742946e-001
 2.350713238721209e-002	 1.324791460845157e+000	 4.587632055572684e-001
 1.173270417715513e-002	 1.324948053190398e+000	 4.694085037712780e-001
 0.000000000000000e+000	 1.325000000000000e+000	 4.866380474732180e-001
 1.213034911786578e-001	 1.344539126636447e+000	 7.556166906481593e-001
 1.090124997775164e-001	 1.345591421983566e+000	 7.252139430970619e-001
 9.675359966184079e-002	 1.346528403328873e+000	 6.986635489370325e-001
 8.452819324614727e-002	 1.347351099217016e+000	 6.762499891991359e-001
 7.233765466599967e-002	 1.348060556402588e+000	 6.582778198704526e-001
 6.018332961539593e-002	 1.348657839054886e+000	 6.450708522388956e-001
 4.806653520726939e-002	 1.349144027966708e+000	 6.369713090437899e-001
 3.598855985668883e-002	 1.349520219767875e+000	 6.343389590214422e-001
 2.395066318632527e-002	 1.349787526144111e+000	 6.375502324138630e-001
 1.195407595373588e-002	 1.349947073061912e+000	 6.469973199731418e-001
 0.000000000000000e+000	 1.350000000000000e+000	 6.630872579579047e-001
 1.235498521246955e-001	 1.369437999351162e+000	 9.519540502036812e-001
 1.110312497716739e-001	 1.370509781649304e+000	 9.179600280649558e-001
 9.854533298722308e-002	 1.371464114501138e+000	 8.878677339976441e-001
 8.609353015649825e-002	 1.372302045498437e+000	 8.619457177435975e-001
 7.367724086201755e-002	 1.373024640780139e+000	 8.404840601149286e-001
 6.129783571803779e-002	 1.373632984222379e+000	 8.237935349582606e-001
 4.895665622847211e-002	 1.374128176632637e+000	 8.122047444679963e-001
 3.665501466792717e-002	 1.374511334948693e+000	 8.060672305750415e-001
 2.439419398541931e-002	 1.374783591443046e+000	 8.057485651134794e-001
 1.217544773031186e-002	 1.374946092933421e+000	 8.116334214352086e-001
 0.000000000000000e+000	 1.375000000000000e+000	 8.241226301055765e-001
 1.257962130702414e-001	 1.394336872065386e+000	 1.153806431205961e+000
 1.130499997654344e-001	 1.395428141314644e+000	 1.114787528872491e+000
 1.003370663122928e-001	 1.396399825673090e+000	 1.079612532005325e+000
 8.765886706661068e-002	 1.397252991779620e+000	 1.048534952501341e+000
 7.501682705786078e-002	 1.397988725157515e+000	 1.021831388744285e+000
 6.241234182055879e-002	 1.398608129389751e+000	 9.998006663333966e-001
 4.984677724959775e-002	 1.399112325298489e+000	 9.827629496182286e-001
 3.732146947912232e-002	 1.399502450129469e+000	 9.710588269102549e-001
 2.483772478449423e-002	 1.399779656741962e+000	 9.650483722166214e-001
 1.239681950688308e-002	 1.399945112804926e+000	 9.651101863112517e-001
 0.000000000000000e+000	 1.400000000000000e+000	 9.716404199204821e-001
 1.280425740152957e-001	 1.419235744779119e+000	 1.361947933882987e+000
 1.150687497587980e-001	 1.420346500979588e+000	 1.316570425003823e+000
 1.021287996370500e-001	 1.421335536844730e+000	 1.274871716216042e+000
 8.922420397648460e-002	 1.422203938060564e+000	 1.237091122881111e+000
 7.635641325352938e-002	 1.422952809534717e+000	 1.203492703453833e+000
 6.352684792295894e-002	 1.423583274557002e+000	 1.174364376119723e+000
 5.073689827064633e-002	 1.424096473964263e+000	 1.150017003606346e+000
 3.798792429027427e-002	 1.424493565310201e+000	 1.130783449190635e+000
 2.528125558355001e-002	 1.424775722040858e+000	 1.117017606899586e+000
 1.261819128344953e-002	 1.424944132676426e+000	 1.109093408871996e+000
 0.000000000000000e+000	 1.425000000000000e+000	 1.107403812810317e+000
 1.302889349598582e-001	 1.444134617492359e+000	 1.577075975097766e+000
 1.170874997517646e-001	 1.445264860644134e+000	 1.524102078895009e+000
 1.039205329614944e-001	 1.446271248016057e+000	 1.474534377331671e+000
 9.078954088612001e-002	 1.447154884341270e+000	 1.428598781312884e+000
 7.769599944902336e-002	 1.447916893911744e+000	 1.386547704547601e+000
 6.464135402523823e-002	 1.448558419724132e+000	 1.348659153234271e+000
 5.162701929161783e-002	 1.449080622629961e+000	 1.315235781196935e+000
 3.865437910138302e-002	 1.449484680490890e+000	 1.286603913652052e+000
 2.572478638258666e-002	 1.449771787339736e+000	 1.263112542763736e+000
 1.283956306001122e-002	 1.449943152547921e+000	 1.245132298115778e+000
 0.000000000000000e+000	 1.450000000000000e+000	 1.233054395189261e+000
 1.325352959039290e-001	 1.469033490205109e+000	 1.799817786938638e+000
 1.191062497443342e-001	 1.470183220308284e+000	 1.738102067887727e+000
 1.057122662856264e-001	 1.471206959187071e+000	 1.679412099987398e+000
 9.235487779551692e-002	 1.472105830621737e+000	 1.623961135195206e+000
 7.903558564434268e-002	 1.472880978288596e+000	 1.571990793022505e+000
 6.575586012739669e-002	 1.473533564891142e+000	 1.523770120403156e+000
 5.251714031251225e-002	 1.474064771295581e+000	 1.479594614192838e+000
 3.932083391244855e-002	 1.474475795671536e+000	 1.439785209647313e+000
 2.616831718160417e-002	 1.474767852638594e+000	 1.404687238205899e+000
 1.306093483656814e-002	 1.474942172419411e+000	 1.374669357876211e+000
 0.000000000000000e+000	 1.475000000000000e+000	 1.350122459477579e+000
 1.347816568475081e-001	 1.493932362917365e+000	 2.030736265450424e+000
 1.211249997365069e-001	 1.495101579972037e+000	 1.959222332986576e+000
 1.075039996094458e-001	 1.496142670357773e+000	 1.890245421590836e+000
 9.392021470467529e-002	 1.497056776901965e+000	 1.824006825647787e+000
 8.037517183948741e-002	 1.497845062665274e+000	 1.760738178843936e+000
 6.687036622943428e-002	 1.498508710058030e+000	 1.700700481344139e+000
 5.340726133332961e-002	 1.499048919961125e+000	 1.644183086681764e+000
 3.998728872347090e-002	 1.499466910852138e+000	 1.591502651886531e+000
 2.661184798060256e-002	 1.499763917937433e+000	 1.543002054352508e+000
 1.328230661312030e-002	 1.499941192290897e+000	 1.499049278919439e+000
 0.000000000000000e+000	 1.500000000000000e+000	 1.460036278600899e+000
 1.500000000000000e+000	 0.000000000000000e+000	 1.558670754052727e+001
 1.499941192290897e+000	 1.328230661311987e-002	 1.560031018023144e+001
 1.499763917937433e+000	 2.661184798060218e-002	 1.561056480122540e+001
 1.499466910852138e+000	 3.998728872347057e-002	 1.561728194285398e+001
 1.499048919961124e+000	 5.340726133332931e-002	 1.562026898575387e+001
 1.498508710058030e+000	 6.687036622943403e-002	 1.561933019422114e+001
 1.497845062665274e+000	 8.037517183948720e-002	 1.561426676332371e+001
 1.497056776901965e+000	 9.392021470467514e-002	 1.560487687091000e+001
 1.496142670357773e+000	 1.075039996094456e-001	 1.559095573466268e+001
 1.495101579972037e+000	 1.211249997365068e-001	 1.557229567434517e+001
 1.493932362917365e+000	 1.347816568475081e-001	 1.554868617938564e+001
 1.525000000000000e+000	 0.000000000000000e+000	 1.529311410293509e+001
 1.524940212162383e+000	 1.350367838967202e-002	 1.530634251458153e+001
 1.524759983236273e+000	 2.705537877960056e-002	 1.531644743004891e+001
 1.524458026032741e+000	 4.065374353449290e-002	 1.532324073269893e+001
 1.524033068626668e+000	 5.429738235414668e-002	 1.532653100319821e+001
 1.523483855224919e+000	 6.798487233147164e-002	 1.532612355561077e+001
 1.522809147041952e+000	 8.171475803463191e-002	 1.532182047823430e+001
 1.522007723182194e+000	 9.548555161383354e-002	 1.531342067934333e+001
 1.521078381528475e+000	 1.092957329332650e-001	 1.530071993800139e+001
 1.520019939635790e+000	 1.231437497286795e-001	 1.528351096010303e+001
 1.518831235629623e+000	 1.370280177910873e-001	 1.526158343980431e+001
 1.550000000000000e+000	 0.000000000000000e+000	 1.502055628144179e+001
 1.549939232033873e+000	 1.372505016622894e-002	 1.503339140904900e+001
 1.549756048535131e+000	 2.749890957861807e-002	 1.504332984496945e+001
 1.549449141213386e+000	 4.132019834555844e-002	 1.505018492516187e+001
 1.549017217292289e+000	 5.518750337504109e-002	 1.505376653755978e+001
 1.548459000391928e+000	 6.909937843363008e-002	 1.505388115167474e+001
 1.547773231418804e+000	 8.305434422995126e-002	 1.505033185293793e+001
 1.546958669462661e+000	 9.705088852323041e-002	 1.504291838195546e+001
 1.546014092699490e+000	 1.110874662573969e-001	 1.503143717885322e+001
 1.544938299299939e+000	 1.251624997212491e-001	 1.501568143288549e+001
 1.543730108342372e+000	 1.392743787351581e-001	 1.499544113748035e+001
 1.575000000000000e+000	 0.000000000000000e+000	 1.476788224951056e+001
 1.574938251905368e+000	 1.394642194279062e-002	 1.478029832154707e+001
 1.574752113834008e+000	 2.794244037765472e-002	 1.479004691422315e+001
 1.574440256394075e+000	 4.198665315666719e-002	 1.479694292979891e+001
 1.574001365957986e+000	 5.607762439601259e-002	 1.480079767582051e+001
 1.573434145559058e+000	 7.021388453590936e-002	 1.480141888801374e+001
 1.572737315795831e+000	 8.439393042544521e-002	 1.479861075790615e+001
 1.571909615743366e+000	 9.861622543286584e-002	 1.479217396536614e+001
 1.570949803870817e+000	 1.128791995818414e-001	 1.478190571624830e+001
 1.569856658964486e+000	 1.271812497142157e-001	 1.476759978533332e+001
 1.568628981055612e+000	 1.415207396797206e-001	 1.474904656475014e+001
 1.600000000000000e+000	 0.000000000000000e+000	 1.453401216976303e+001
 1.599937271776867e+000	 1.416779371935706e-002	 1.454597677568957e+001
 1.599748179132905e+000	 2.838597117671049e-002	 1.455550564384148e+001
 1.599431371574808e+000	 4.265310796781913e-002	 1.456241536153354e+001
 1.598985514623761e+000	 5.696774541706116e-002	 1.456651877330451e+001
 1.598409290726310e+000	 7.132839063830954e-002	 1.456762499687486e+001
 1.597701400173032e+000	 8.573351662111382e-002	 1.456553944381887e+001
 1.596860562024311e+000	 1.001815623427397e-001	 1.456006384515273e+001
 1.595885515042457e+000	 1.146709329065986e-001	 1.455099628204210e+001
 1.594775018629429e+000	 1.291999997075793e-001	 1.453813122183153e+001
 1.593527853769345e+000	 1.437671006247749e-001	 1.452125955959886e+001
 1.625000000000000e+000	 0.000000000000000e+000	 1.431793265635170e+001
 1.624936291648372e+000	 1.438916549592827e-002	 1.432940681727546e+001
 1.624744244431821e+000	 2.882950197578540e-002	 1.433867962859021e+001
 1.624422486755583e+000	 4.331956277901426e-002	 1.434556948639770e+001
 1.623969663289613e+000	 5.785786643818681e-002	 1.434989089457480e+001
 1.623384435893682e+000	 7.244289674083053e-002	 1.435145447356345e+001
 1.622665484550409e+000	 8.707310281695706e-002	 1.435006697385603e+001
 1.621811508305494e+000	 1.017468992528522e-001	 1.434553129439199e+001
 1.620821226214409e+000	 1.164626662316683e-001	 1.433764650608276e+001
 1.619693378294770e+000	 1.312187497013398e-001	 1.432620788068302e+001
 1.618426726483569e+000	 1.460134615703208e-001	 1.431100692522609e+001
 1.650000000000000e+000	 0.000000000000000e+000	 1.411869174075309e+001
 1.649935311519882e+000	 1.461053727250425e-002	 1.412962997472934e+001
 1.649740309730756e+000	 2.927303277487944e-002	 1.413860400736827e+001
 1.649413601936402e+000	 4.398601759025260e-002	 1.414543417220534e+001
 1.648953811955542e+000	 5.874798745938951e-002	 1.414993675970313e+001
 1.648359581061175e+000	 7.355740284347238e-002	 1.415192401863564e+001
 1.647629568927959e+000	 8.841268901297490e-002	 1.415120416214464e+001
 1.646762454586914e+000	 1.033122361632031e-001	 1.414758137869799e+001
 1.645756937386674e+000	 1.182543995570506e-001	 1.414085584818139e+001
 1.644611737960507e+000	 1.332374996954972e-001	 1.413082376335719e+001
 1.643325599198285e+000	 1.482598225163584e-001	 1.411727735692355e+001
 1.675000000000000e+000	 0.000000000000000e+000	 1.393539428838534e+001
 1.674934331391396e+000	 1.483190904908500e-002	 1.394574467084583e+001
 1.674736375029710e+000	 2.971656357399260e-002	 1.395437087036202e+001
 1.674404717117263e+000	 4.465247240153415e-002	 1.396109529140458e+001
 1.673937960621547e+000	 5.963810848066932e-002	 1.396573614311265e+001
 1.673334726228788e+000	 7.467190894623507e-002	 1.396810743302899e+001
 1.672593653305685e+000	 8.975227520916740e-002	 1.396801896547916e+001
 1.671713400868574e+000	 1.048775730737926e-001	 1.396527634483884e+001
 1.670692648559251e+000	 1.200461328827455e-001	 1.395968098393582e+001
 1.669530097626642e+000	 1.352562496900517e-001	 1.395103011783590e+001
 1.668224471913492e+000	 1.505061834628878e-001	 1.393911682326231e+001
 1.700000000000000e+000	 0.000000000000000e+000	 1.376719781964192e+001
 1.699933351262914e+000	 1.505328082567050e-002	 1.377690203938007e+001
 1.699732440328683e+000	 3.016009437312491e-002	 1.378512507145064e+001
 1.699395832298168e+000	 4.531892721285889e-002	 1.379169152956053e+001
 1.698922109287631e+000	 6.052822950202618e-002	 1.379642167840503e+001
 1.698309871396523e+000	 7.578641504911861e-002	 1.379913141950500e+001
 1.697557737683585e+000	 9.109186140553453e-002	 1.379963228165479e+001
 1.696664347150472e+000	 1.064429099846206e-001	 1.379773141624006e+001
 1.695628359732141e+000	 1.218378662087530e-001	 1.379323159768743e+001
 1.694448457293173e+000	 1.372749996850030e-001	 1.378593122931098e+001
 1.693123344629191e+000	 1.527525444099089e-001	 1.377562435482227e+001
 1.725000000000000e+000	 0.000000000000000e+000	 1.361330869431374e+001
 1.724932371134438e+000	 1.527465260226077e-002	 1.362230210541282e+001
 1.724728505627676e+000	 3.060362517227634e-002	 1.363006040475010e+001
 1.724386947479116e+000	 4.598538202422683e-002	 1.363641055831776e+001
 1.723906257953791e+000	 6.141835052346012e-002	 1.364117502798524e+001
 1.723285016564378e+000	 7.690092115212302e-002	 1.364417174918371e+001
 1.722521822061660e+000	 9.243144760207629e-002	 1.364521411316315e+001
 1.721615293432609e+000	 1.080082468956870e-001	 1.364411095409643e+001
 1.720564070905344e+000	 1.236295995350730e-001	 1.364066654130793e+001
 1.719366816960102e+000	 1.392937496803514e-001	 1.363468057690831e+001
 1.718022217345382e+000	 1.549989053574217e-001	 1.362594819911914e+001
 1.750000000000000e+000	 0.000000000000000e+000	 1.347297862306072e+001
 1.749931391005967e+000	 1.549602437885581e-002	 1.348119029311303e+001
 1.749724570926687e+000	 3.104715597144690e-002	 1.348841610888200e+001
 1.749378062660108e+000	 4.665183683563796e-002	 1.349448553639472e+001
 1.748890406620027e+000	 6.230847154497111e-002	 1.349922338100417e+001
 1.748260161732354e+000	 7.801542725524825e-002	 1.350244975666088e+001
 1.747485906439909e+000	 9.377103379879266e-002	 1.350398005971395e+001
 1.746566239714984e+000	 1.095735838069920e-001	 1.350362494753133e+001
 1.745499782078859e+000	 1.254213328617057e-001	 1.350119032223296e+001
 1.744285176627427e+000	 1.413124996760966e-001	 1.349647731983538e+001
 1.742921090062065e+000	 1.572452663054261e-001	 1.348928230510907e+001
 1.493932362917365e+000	 1.347816568475081e-001	 1.554868617938564e+001
 1.492633897486894e+000	 1.484723814904555e-001	 1.556821781238294e+001
 1.491205083984588e+000	 1.621955532324464e-001	 1.558261228144979e+001
 1.489644845617649e+000	 1.759495209193235e-001	 1.559165194112518e+001
 1.487952129390019e+000	 1.897326029638495e-001	 1.559511661505329e+001
 1.486125906996327e+000	 2.035430876609110e-001	 1.559278368927846e+001
 1.484165175715299e+000	 2.173792335306682e-001	 1.558442821156477e+001
 1.482068959301720e+000	 2.312392696899346e-001	 1.556982299685376e+001
 1.479836308875994e+000	 2.451213962520331e-001	 1.554873873896720e+001
 1.477466303810354e+000	 2.590237847553507e-001	 1.552094412865412e+001
 1.474958052610726e+000	 2.729445786207708e-001	 1.548620597807302e+001
 1.518831235629623e+000	 1.370280177910873e-001	 1.526158343980431e+001
 1.517511129108093e+000	 1.509469211777063e-001	 1.528318229381152e+001
 1.516058502047001e+000	 1.648988124484992e-001	 1.529977775191708e+001
 1.514472259707000e+000	 1.788820129300736e-001	 1.531114614945816e+001
 1.512751331542102e+000	 1.928948130087401e-001	 1.531706106249700e+001
 1.510894672108513e+000	 2.069354724509679e-001	 1.531729340039368e+001
 1.508901261972938e+000	 2.210022207522550e-001	 1.531161150468919e+001
 1.506770108619411e+000	 2.350932575146959e-001	 1.529978125442488e+001
 1.504500247353678e+000	 2.492067528535041e-001	 1.528156617801766e+001
 1.502090742204176e+000	 2.633408478327075e-001	 1.525672757180262e+001
 1.499540686818598e+000	 2.774936549302055e-001	 1.522502462534582e+001
 1.543730108342372e+000	 1.392743787351581e-001	 1.499544113748035e+001
 1.542388360729875e+000	 1.534214608655346e-001	 1.501881419340572e+001
 1.540911920110067e+000	 1.676020716651860e-001	 1.503732300621354e+001
 1.539299673797057e+000	 1.818145049414854e-001	 1.505073811714028e+001
 1.537550533694922e+000	 1.960570230542905e-001	 1.505882707699248e+001
 1.535663437221447e+000	 2.103278572416532e-001	 1.506135453766253e+001
 1.533637348231319e+000	 2.246252079744083e-001	 1.505808235023729e+001
 1.531471257937817e+000	 2.389472453399320e-001	 1.504876966983904e+001
 1.529164185832027e+000	 2.532921094553274e-001	 1.503317306733128e+001
 1.526715180598594e+000	 2.676579109102633e-001	 1.501104664801357e+001
 1.524123321026977e+000	 2.820427312396547e-001	 1.498214217742139e+001
 1.568628981055612e+000	 1.415207396797206e-001	 1.474904656475014e+001
 1.567265592352239e+000	 1.558960005539401e-001	 1.477390992942312e+001
 1.565765338173787e+000	 1.703053308825069e-001	 1.479405366399837e+001
 1.564127087887818e+000	 1.847469969535589e-001	 1.480924273872961e+001
 1.562349735848479e+000	 1.992192331005007e-001	 1.481923889938970e+001
 1.560432202335132e+000	 2.137202420329666e-001	 1.482380075739221e+001
 1.558373434490442e+000	 2.282481951971283e-001	 1.482268388678554e+001
 1.556172407256935e+000	 2.428012331656429e-001	 1.481564092827305e+001
 1.553828124311042e+000	 2.573774660575030e-001	 1.480242170040527e+001
 1.551339618993610e+000	 2.719749739880181e-001	 1.478277331808210e+001
 1.548705955235862e+000	 2.865918075491187e-001	 1.475644031849435e+001
 1.593527853769345e+000	 1.437671006247749e-001	 1.452125955959886e+001
 1.592142823975186e+000	 1.583705402429230e-001	 1.454733759738969e+001
 1.590618756238160e+000	 1.730085901004619e-001	 1.456884615494030e+001
 1.588954501979286e+000	 1.876794889662941e-001	 1.458554485301317e+001
 1.587148938002775e+000	 2.023814431473708e-001	 1.459718985082666e+001
 1.585200967449566e+000	 2.171126268249083e-001	 1.460353393444244e+001
 1.583109520750306e+000	 2.318711824204149e-001	 1.460432661230265e+001
 1.580873556576769e+000	 2.466552209918284e-001	 1.459931421808449e+001
 1.578492062790723e+000	 2.614628226600309e-001	 1.458824002103265e+001
 1.575964057389221e+000	 2.762920370659718e-001	 1.457084434392171e+001
 1.573288589445256e+000	 2.911408838585972e-001	 1.454686468879187e+001
 1.618426726483569e+000	 1.460134615703208e-001	 1.431100692522609e+001
 1.617020055598714e+000	 1.608450799324833e-001	 1.433803145646375e+001
 1.615472174303186e+000	 1.757118493190510e-001	 1.436064227179371e+001
 1.613781916071458e+000	 1.906119809796910e-001	 1.437859386268165e+001
 1.611948140157806e+000	 2.055436531949007e-001	 1.439163701886115e+001
 1.609969732564749e+000	 2.205050116174782e-001	 1.439951891464447e+001
 1.607845607010913e+000	 2.354941696442681e-001	 1.440198320265767e+001
 1.605574705897316e+000	 2.505092088184888e-001	 1.439877011518233e+001
 1.603156001271070e+000	 2.655481792629110e-001	 1.438961657327949e+001
 1.600588495785431e+000	 2.806091001441247e-001	 1.437425630386276e+001
 1.597871223655156e+000	 2.956899601680906e-001	 1.435241996487873e+001
 1.643325599198285e+000	 1.482598225163584e-001	 1.411727735692355e+001
 1.641897287222824e+000	 1.633196196226208e-001	 1.414498691703969e+001
 1.640325592368866e+000	 1.784151085382742e-001	 1.416844421864983e+001
 1.638609330164335e+000	 1.935444729937495e-001	 1.418739884312459e+001
 1.636747342313575e+000	 2.087058632430905e-001	 1.420159642668126e+001
 1.634738497680683e+000	 2.238973964106764e-001	 1.421077874427289e+001
 1.632581693272261e+000	 2.391171568686880e-001	 1.421468380117304e+001
 1.630275855218577e+000	 2.543631966456237e-001	 1.421304593245482e+001
 1.627819939752082e+000	 2.696335358661434e-001	 1.420559591055496e+001
 1.625212934182237e+000	 2.849261632224766e-001	 1.419206106110562e+001
 1.622453857865564e+000	 3.002390364775985e-001	 1.417216538720738e+001
 1.668224471913492e+000	 1.505061834628878e-001	 1.393911682326231e+001
 1.666774518847517e+000	 1.657941593133357e-001	 1.396725597722284e+001
 1.665179010435198e+000	 1.811183677581315e-001	 1.399131010262800e+001
 1.663436744257918e+000	 1.964769650084698e-001	 1.401102408924383e+001
 1.661546544470082e+000	 2.118680732919400e-001	 1.402613863492412e+001
 1.659507262797366e+000	 2.272897812045028e-001	 1.403639032672896e+001
 1.657317779534351e+000	 2.427401440936744e-001	 1.404151173000857e+001
 1.654977004540552e+000	 2.582171844732335e-001	 1.404123148566645e+001
 1.652483878233760e+000	 2.737188924697281e-001	 1.403527441580959e+001
 1.649837372579640e+000	 2.892432263010273e-001	 1.402336163798405e+001
 1.647036492076480e+000	 3.047881127871212e-001	 1.400521068818598e+001
 1.693123344629191e+000	 1.527525444099089e-001	 1.377562435482227e+001
 1.691651750472792e+000	 1.682686990046280e-001	 1.380394306196851e+001
 1.690032428502185e+000	 1.838216269786229e-001	 1.382834982335893e+001
 1.688264158352205e+000	 1.994094570238517e-001	 1.384858505519541e+001
 1.686345746627326e+000	 2.150302833414494e-001	 1.386438473156922e+001
 1.684276027914798e+000	 2.306821659989574e-001	 1.387548046245771e+001
 1.682053865797183e+000	 2.463631313192275e-001	 1.388159957995277e+001
 1.679678153863241e+000	 2.620711723013179e-001	 1.388246523295236e+001
 1.677147816716104e+000	 2.778042490736651e-001	 1.387779649053947e+001
 1.674461810977640e+000	 2.935602893797772e-001	 1.386730845426404e+001
 1.671619126287902e+000	 3.093371890966585e-001	 1.385071237953442e+001
 1.718022217345382e+000	 1.549989053574217e-001	 1.362594819911914e+001
 1.716528982098648e+000	 1.707432386964976e-001	 1.365420122403482e+001
 1.714885846569825e+000	 1.865248861997484e-001	 1.367872131990415e+001
 1.713091572447198e+000	 2.023419490398954e-001	 1.369924464719705e+001
 1.711144948785307e+000	 2.181924933916187e-001	 1.371550267053685e+001
 1.709044793032979e+000	 2.340745507940402e-001	 1.372722223322013e+001
 1.706789952060757e+000	 2.499861185453472e-001	 1.373412564023236e+001
 1.704379303186644e+000	 2.659251601298772e-001	 1.373593075000875e+001
 1.701811755199113e+000	 2.818896056779544e-001	 1.373235107518151e+001
 1.699086249376236e+000	 2.978773524587260e-001	 1.372309589254737e+001
 1.696201760499832e+000	 3.138862654062104e-001	 1.370787036247912e+001
 1.742921090062065e+000	 1.572452663054261e-001	 1.348928230510907e+001
 1.741406213725087e+000	 1.732177783889446e-001	 1.351722867056828e+001
 1.739739264638117e+000	 1.892281454215080e-001	 1.354162713936814e+001
 1.737918986542895e+000	 2.052744410566007e-001	 1.356220983409530e+001
 1.735944150944025e+000	 2.213547034424478e-001	 1.357870392412088e+001
 1.733813558151911e+000	 2.374669355897513e-001	 1.359083169628480e+001
 1.731526038325072e+000	 2.536091057720335e-001	 1.359831063433806e+001
 1.729080452510761e+000	 2.697791479589111e-001	 1.360085350740995e+001
 1.726475693682788e+000	 2.859749622825958e-001	 1.359816846776037e+001
 1.723710687775430e+000	 3.021944155378738e-001	 1.358995915806885e+001
 1.720784394712270e+000	 3.184353417157770e-001	 1.357592482850245e+001
 1.474958052610726e+000	 2.729445786207708e-001	 1.548620597807302e+001
 1.472310693793589e+000	 2.868818936375483e-001	 1.550687551187193e+001
 1.469523396755786e+000	 3.008338184795506e-001	 1.551927551243972e+001
 1.466595362636951e+000	 3.147984152506359e-001	 1.552310007461507e+001
 1.463525825174173e+000	 3.287737200581075e-001	 1.551804177642137e+001
 1.460314051546808e+000	 3.427577436160289e-001	 1.550379189744495e+001
 1.456959343210721e+000	 3.567484718777407e-001	 1.548004064537819e+001
 1.453461036720863e+000	 3.707438666974945e-001	 1.544647739067707e+001
 1.449818504541092e+000	 3.847418665210725e-001	 1.540279090926488e+001
 1.446031155840162e+000	 3.987403871052226e-001	 1.534866963319493e+001
 1.442098437272754e+000	 4.127373222656903e-001	 1.528380190916601e+001
 1.499540686818598e+000	 2.774936549302055e-001	 1.522502462534582e+001
 1.496849205355224e+000	 2.916632585315759e-001	 1.524602935359238e+001
 1.494015453367372e+000	 3.058477154550846e-001	 1.525912899928478e+001
 1.491038618680334e+000	 3.200450555063187e-001	 1.526402040213358e+001
 1.487917922260148e+000	 3.342532820610352e-001	 1.526039858125294e+001
 1.484652619072495e+000	 3.484703726785303e-001	 1.524795694396922e+001
 1.481241998930835e+000	 3.626942797446992e-001	 1.522638750305308e+001
 1.477685387332699e+000	 3.769229311446957e-001	 1.519538110234966e+001
 1.473982146283010e+000	 3.911542309650638e-001	 1.515462765076408e+001
 1.470131675103331e+000	 4.053860602251623e-001	 1.510381636454049e+001
 1.466133411225922e+000	 4.196162776376646e-001	 1.504263601775345e+001
 1.524123321026977e+000	 2.820427312396547e-001	 1.498214217742139e+001
 1.521387716917276e+000	 2.964446234254375e-001	 1.500378784606273e+001
 1.518507509979304e+000	 3.108616124303102e-001	 1.501789200821690e+001
 1.515481874724011e+000	 3.252916957615901e-001	 1.502415413754145e+001
 1.512310019346388e+000	 3.397328440634880e-001	 1.502227157828128e+001
 1.508991186598434e+000	 3.541830017405330e-001	 1.501193974443130e+001
 1.505524654651208e+000	 3.686400876111747e-001	 1.499285232758823e+001
 1.501909737944821e+000	 3.831019955914700e-001	 1.496470151349221e+001
 1.498145788025261e+000	 3.975665954087250e-001	 1.492717820724111e+001
 1.494232194366904e+000	 4.120317333449102e-001	 1.487997226714131e+001
 1.490168385179583e+000	 4.264952330096262e-001	 1.482277274713989e+001
 1.548705955235862e+000	 2.865918075491187e-001	 1.475644031849435e+001
 1.545926228479745e+000	 3.012259883191330e-001	 1.477901696464399e+001
 1.542999566591581e+000	 3.158755094052278e-001	 1.479441525308041e+001
 1.539925130767982e+000	 3.305383360164504e-001	 1.480233719114947e+001
 1.536702116432889e+000	 3.452124060654656e-001	 1.480248234273950e+001
 1.533329754124623e+000	 3.598956308020364e-001	 1.479454801770829e+001
 1.529807310371839e+000	 3.745858954771670e-001	 1.477822947027233e+001
 1.526134088557231e+000	 3.892810600378177e-001	 1.475322010638531e+001
 1.522309429767849e+000	 4.039789598520568e-001	 1.471921170011481e+001
 1.518332713630881e+000	 4.186774064644663e-001	 1.467589461900773e+001
 1.514203359133739e+000	 4.333741883815753e-001	 1.462295805841483e+001
 1.573288589445256e+000	 2.911408838585972e-001	 1.454686468879187e+001
 1.570464740042631e+000	 3.060073532126624e-001	 1.457064739295493e+001
 1.567491623204205e+000	 3.208894063798373e-001	 1.458761488823552e+001
 1.564368386812248e+000	 3.357849762708995e-001	 1.459747162559562e+001
 1.561094213519653e+000	 3.506919680669683e-001	 1.459991929307829e+001
 1.557668321651062e+000	 3.656082598630408e-001	 1.459465699539646e+001
 1.554089966092728e+000	 3.805317033426761e-001	 1.458138144276444e+001
 1.550358439169927e+000	 3.954601244837386e-001	 1.455978714902610e+001
 1.546473071510771e+000	 4.103913242950587e-001	 1.452956663911516e+001
 1.542433232895262e+000	 4.253230795838304e-001	 1.449041066586505e+001
 1.538238333088388e+000	 4.402531437535119e-001	 1.444200843616542e+001
 1.597871223655156e+000	 2.956899601680906e-001	 1.435241996487873e+001
 1.595003251605933e+000	 3.107887181060257e-001	 1.437766954531376e+001
 1.591983679817174e+000	 3.259033033541385e-001	 1.439646747467240e+001
 1.588811642856808e+000	 3.410316165249371e-001	 1.440852056720444e+001
 1.585486310606679e+000	 3.561715300679961e-001	 1.441353254917997e+001
 1.582006889177752e+000	 3.713208889235460e-001	 1.441120422852510e+001
 1.578372621813876e+000	 3.864775112077024e-001	 1.440123367398851e+001
 1.574582789782909e+000	 4.016391889292327e-001	 1.438331640391950e+001
 1.570636713254029e+000	 4.168036887377309e-001	 1.435714558472102e+001
 1.566533752160047e+000	 4.319687527030029e-001	 1.432241223902175e+001
 1.562273307043531e+000	 4.471320991254358e-001	 1.427880546359210e+001
 1.622453857865564e+000	 3.002390364775985e-001	 1.417216538720738e+001
 1.619541763169654e+000	 3.155700829992230e-001	 1.419912904168494e+001
 1.616475736430489e+000	 3.309172003281314e-001	 1.422000540375127e+001
 1.613254898901663e+000	 3.462782567785636e-001	 1.423450357995014e+001
 1.609878407693968e+000	 3.616510920685486e-001	 1.424232925800752e+001
 1.606345456704692e+000	 3.770335179835523e-001	 1.424318486638743e+001
 1.602655277535283e+000	 3.924233190722454e-001	 1.423676974367397e+001
 1.598807140396178e+000	 4.078182533743001e-001	 1.422278031788818e+001
 1.594800354997622e+000	 4.232160531800732e-001	 1.420091029583067e+001
 1.590634271425236e+000	 4.386144258219835e-001	 1.417085086252236e+001
 1.586308280999167e+000	 4.540110544973471e-001	 1.413229089079557e+001
 1.647036492076480e+000	 3.047881127871212e-001	 1.400521068818598e+001
 1.644080274733790e+000	 3.203514478922541e-001	 1.403412258785491e+001
 1.640967793044150e+000	 3.359310973018163e-001	 1.405731273075680e+001
 1.637698154946812e+000	 3.515248970317786e-001	 1.407449245369163e+001
 1.634270504781519e+000	 3.671306540686263e-001	 1.408536933785233e+001
 1.630684024231883e+000	 3.827461470430597e-001	 1.408964735816257e+001
 1.626937933256947e+000	 3.983691269363053e-001	 1.408702704274339e+001
 1.623031491009734e+000	 4.139973178189406e-001	 1.407720564264591e+001
 1.618963996741549e+000	 4.296284176220859e-001	 1.405987731196943e+001
 1.614734790690830e+000	 4.452600989407723e-001	 1.403473329846570e+001
 1.610343254955297e+000	 4.608900098692461e-001	 1.400146214470974e+001
 1.671619126287902e+000	 3.093371890966585e-001	 1.385071237953442e+001
 1.668618786298344e+000	 3.251328127851191e-001	 1.388179421912140e+001
 1.665459849658157e+000	 3.409449942751929e-001	 1.390752137608009e+001
 1.662141410992255e+000	 3.567715372845824e-001	 1.392760736403392e+001
 1.658662601869332e+000	 3.726102160682288e-001	 1.394176159808943e+001
 1.655022591759323e+000	 3.884587761020676e-001	 1.394968953380642e+001
 1.651220588978871e+000	 4.043149347998822e-001	 1.395109281660715e+001
 1.647255841623576e+000	 4.201763822631545e-001	 1.394566944179093e+001
 1.643127638485812e+000	 4.360407820637686e-001	 1.393311392530242e+001
 1.638835309956827e+000	 4.519057720593694e-001	 1.391311748538335e+001
 1.634378228911922e+000	 4.677689652411324e-001	 1.388536823521695e+001
 1.696201760499832e+000	 3.138862654062104e-001	 1.370787036247912e+001
 1.693157297863315e+000	 3.299141776778182e-001	 1.374133187061876e+001
 1.689951906272511e+000	 3.459588912482614e-001	 1.376980765673266e+001
 1.686584667037993e+000	 3.620181775369751e-001	 1.379301336611460e+001
 1.683054698957408e+000	 3.780897780673564e-001	 1.381066019634530e+001
 1.679361159287015e+000	 3.941714051605767e-001	 1.382245502573439e+001
 1.675503244701052e+000	 4.102607426629759e-001	 1.382810055251934e+001
 1.671480192237705e+000	 4.263554467069416e-001	 1.382729544501719e+001
 1.667291280230410e+000	 4.424531465051216e-001	 1.381973450290704e+001
 1.662935829223229e+000	 4.585514451777746e-001	 1.380510882980253e+001
 1.658413202869040e+000	 4.746479206130062e-001	 1.378310601725327e+001
 1.720784394712270e+000	 3.184353417157770e-001	 1.357592482850245e+001
 1.717695809428702e+000	 3.346955425703510e-001	 1.361196424161527e+001
 1.714443962887209e+000	 3.509727882210215e-001	 1.364338911515920e+001
 1.711027923084025e+000	 3.672648177889563e-001	 1.366991718892291e+001
 1.707446796045747e+000	 3.835693400660090e-001	 1.369126139933706e+001
 1.703699726814957e+000	 3.998840342185867e-001	 1.370712999721719e+001
 1.699785900423492e+000	 4.162065505255865e-001	 1.371722667658899e+001
 1.695704542852120e+000	 4.325345111503019e-001	 1.372125071482188e+001
 1.691454921975343e+000	 4.488655109461449e-001	 1.371889712427928e+001
 1.687036348490034e+000	 4.651971182959881e-001	 1.370985681567504e+001
 1.682448176826651e+000	 4.815268759848673e-001	 1.369381677330475e+001
 1.442098437272754e+000	 4.127373222656903e-001	 1.528380190916601e+001
 1.438019833743952e+000	 4.267305446539297e-001	 1.531363099789884e+001
 1.433794869157610e+000	 4.407179065610665e-001	 1.533610159500121e+001
 1.429423107146426e+000	 4.546972407496676e-001	 1.535106223842829e+001
 1.424904151781650e+000	 4.686663613134736e-001	 1.535836110407872e+001
 1.420237648262862e+000	 4.826230645635711e-001	 1.535784611058336e+001
 1.415423283586218e+000	 4.965651299408994e-001	 1.534936502933793e+001
 1.410460787190097e+000	 5.104903209545468e-001	 1.533276559980637e+001
 1.405349931577071e+000	 5.243963861452564e-001	 1.530789565010832e+001
 1.400090532911170e+000	 5.382810600734967e-001	 1.527460322288933e+001
 1.394682451589383e+000	 5.521420643314209e-001	 1.523273670645828e+001
 1.466133411225922e+000	 4.196162776376646e-001	 1.504263601775345e+001
 1.461986830971045e+000	 4.338427203983612e-001	 1.508338494826218e+001
 1.457691450307712e+000	 4.480632050033768e-001	 1.511586103673199e+001
 1.453246825595835e+000	 4.622755280946554e-001	 1.513986376561268e+001
 1.448652554307849e+000	 4.764774673341675e-001	 1.515519235208111e+001
 1.443908275729996e+000	 4.906667823048522e-001	 1.516164590288549e+001
 1.439013671641701e+000	 5.048412154383312e-001	 1.515902357526369e+001
 1.433968466971982e+000	 5.189984929688458e-001	 1.514712474390140e+001
 1.428772430431791e+000	 5.331363259128185e-001	 1.512574917387907e+001
 1.423425375121222e+000	 5.472524110733930e-001	 1.509469719953925e+001
 1.417927159110548e+000	 5.613444320692591e-001	 1.505376990918807e+001
 1.490168385179583e+000	 4.264952330096262e-001	 1.482277274713989e+001
 1.485953828198727e+000	 4.409548961429656e-001	 1.487243224238044e+001
 1.481588031458489e+000	 4.554085034460164e-001	 1.491293846078071e+001
 1.477070544045993e+000	 4.698538154400996e-001	 1.494404292248587e+001
 1.472400956834864e+000	 4.842885733554154e-001	 1.496549696543847e+001
 1.467578903198001e+000	 4.987105000467547e-001	 1.497705194912270e+001
 1.462604059698101e+000	 5.131173009364221e-001	 1.497845946521608e+001
 1.457476146754822e+000	 5.275066649838112e-001	 1.496947155505521e+001
 1.452194929287490e+000	 5.418762656810238e-001	 1.494984093380180e+001
 1.446760217332268e+000	 5.562237620738788e-001	 1.491932122117566e+001
 1.441171866632713e+000	 5.705467998076025e-001	 1.487766717859974e+001
 1.514203359133739e+000	 4.333741883815753e-001	 1.462295805841483e+001
 1.509920825426997e+000	 4.480670718877428e-001	 1.467961761522452e+001
 1.505484612609940e+000	 4.627538018889853e-001	 1.472627619904237e+001
 1.500894262496902e+000	 4.774321027860002e-001	 1.476263840919688e+001
 1.496149359362695e+000	 4.920996793772169e-001	 1.478840873224331e+001
 1.491249530666879e+000	 5.067542177892785e-001	 1.480329179349661e+001
 1.486194447755419e+000	 5.213933864351721e-001	 1.480699261630881e+001
 1.480983826538615e+000	 5.360148369994430e-001	 1.479921688894009e+001
 1.475617428144168e+000	 5.506162054498724e-001	 1.477967123884933e+001
 1.470095059544309e+000	 5.651951130749543e-001	 1.474806351420739e+001
 1.464416574155878e+000	 5.797491675464509e-001	 1.470410307241225e+001
 1.538238333088388e+000	 4.402531437535119e-001	 1.444200843616542e+001
 1.533887822655857e+000	 4.551792476326931e-001	 1.450385000978069e+001
 1.529381193762066e+000	 4.700991003322836e-001	 1.455487455903095e+001
 1.524717980948561e+000	 4.850103901323571e-001	 1.459474075554157e+001
 1.519897761891341e+000	 4.999107853995722e-001	 1.462310721401184e+001
 1.514920158136628e+000	 5.147979355324238e-001	 1.463963279046582e+001
 1.509784835813656e+000	 5.296694719345810e-001	 1.464397688908921e+001
 1.504491506323362e+000	 5.445230090157411e-001	 1.463579977744554e+001
 1.499039927001826e+000	 5.593561452193646e-001	 1.461476290983936e+001
 1.493429901757345e+000	 5.741664640766195e-001	 1.458052925856766e+001
 1.487661281680043e+000	 5.889515352858046e-001	 1.453276365277473e+001
 1.562273307043531e+000	 4.471320991254358e-001	 1.427880546359210e+001
 1.557854819885305e+000	 4.622914233778162e-001	 1.434409763797264e+001
 1.553277774914866e+000	 4.774443987759112e-001	 1.439778736421627e+001
 1.548541699400969e+000	 4.925886774791703e-001	 1.443948833406664e+001
 1.543646164420804e+000	 5.077218914224814e-001	 1.446881422465139e+001
 1.538590785607250e+000	 5.228416532761904e-001	 1.448537904241850e+001
 1.533375223872810e+000	 5.379455574346491e-001	 1.448879747650489e+001
 1.527999186109062e+000	 5.530311810327058e-001	 1.447868526127699e+001
 1.522462425860463e+000	 5.680960849895000e-001	 1.445465954775419e+001
 1.516764743971375e+000	 5.831378150788742e-001	 1.441633928359666e+001
 1.510905989205208e+000	 5.981539030256633e-001	 1.436334560131044e+001
 1.586308280999167e+000	 4.540110544973471e-001	 1.413229089079557e+001
 1.581821817115343e+000	 4.694035991231121e-001	 1.419938349059054e+001
 1.577174356068340e+000	 4.847896972198681e-001	 1.425411789978509e+001
 1.572365417854128e+000	 5.001669648264399e-001	 1.429606373561887e+001
 1.567394566951083e+000	 5.155329974459445e-001	 1.432479062952170e+001
 1.562261413078743e+000	 5.308853710205783e-001	 1.433986861573828e+001
 1.556965611932882e+000	 5.462216429353759e-001	 1.434086853023702e+001
 1.551506865895716e+000	 5.615393530503368e-001	 1.432736241959088e+001
 1.545884924720079e+000	 5.768360247602786e-001	 1.429892395948570e+001
 1.540099586186401e+000	 5.921091660817187e-001	 1.425512888248057e+001
 1.534150696731373e+000	 6.073562707660271e-001	 1.419555541461111e+001
 1.610343254955297e+000	 4.608900098692461e-001	 1.400146214470974e+001
 1.605788814345970e+000	 4.765157748685813e-001	 1.406878124931595e+001
 1.601070937222489e+000	 4.921349956641541e-001	 1.412301522146820e+001
 1.596189136308037e+000	 5.077452521741660e-001	 1.416369046947209e+001
 1.591142969482178e+000	 5.233441034699612e-001	 1.419033343114752e+001
 1.585932040551108e+000	 5.389290887655879e-001	 1.420247100617778e+001
 1.580555999993871e+000	 5.544977284367622e-001	 1.419963099960090e+001
 1.575014545683324e+000	 5.700475250686342e-001	 1.418134257608042e+001
 1.569307423580675e+000	 5.855759645317008e-001	 1.414713672455863e+001
 1.563434428402421e+000	 6.010805170851530e-001	 1.409654673285986e+001
 1.557395404258538e+000	 6.165586385068962e-001	 1.402910867177656e+001
 1.634378228911922e+000	 4.677689652411324e-001	 1.388536823521695e+001
 1.629755811577185e+000	 4.836279506142233e-001	 1.395141155945052e+001
 1.624967518377312e+000	 4.994802941087698e-001	 1.400367079005933e+001
 1.620012854762697e+000	 5.153235395223482e-001	 1.404162995461926e+001
 1.614891372014088e+000	 5.311552094945315e-001	 1.406477311207401e+001
 1.609602668024345e+000	 5.469728065112189e-001	 1.407258482787560e+001
 1.604146388055778e+000	 5.627738139388072e-001	 1.406455066113155e+001
 1.598522225471885e+000	 5.785556970875980e-001	 1.404015766334793e+001
 1.592729922442250e+000	 5.943159043037664e-001	 1.399889488831920e+001
 1.586769270619436e+000	 6.100518680891769e-001	 1.394025391267843e+001
 1.580640111786703e+000	 6.257610062482703e-001	 1.387460882594100e+001
 1.658413202869040e+000	 4.746479206130062e-001	 1.378310601725327e+001
 1.653722808808989e+000	 4.907401263600381e-001	 1.384643862675510e+001
 1.648864099532809e+000	 5.068255925537145e-001	 1.389531539858447e+001
 1.643836573218106e+000	 5.229018268709869e-001	 1.392917877269141e+001
 1.638639774546815e+000	 5.389663155196559e-001	 1.394747120877846e+001
 1.633273295498454e+000	 5.550165242574712e-001	 1.394963570332829e+001
 1.627736776118604e+000	 5.710498994415113e-001	 1.393511631950989e+001
 1.622029905261401e+000	 5.870638691072281e-001	 1.390335872950556e+001
 1.616152421304804e+000	 6.030558440764752e-001	 1.385381076875975e+001
 1.610104112837447e+000	 6.190232190937902e-001	 1.378592300161074e+001
 1.603884819315868e+000	 6.349633739901497e-001	 1.383606312751488e+001
 1.682448176826651e+000	 4.815268759848673e-001	 1.369381677330475e+001
 1.677689806041381e+000	 4.978523021060258e-001	 1.375306710598848e+001
 1.672760680688981e+000	 5.141708909989885e-001	 1.379721636285679e+001
 1.667660291674265e+000	 5.304801142200817e-001	 1.382566615634067e+001
 1.662388177080357e+000	 5.467774215453340e-001	 1.383781809353219e+001
 1.656943922973434e+000	 5.630602420043450e-001	 1.383307433422202e+001
 1.651327164182347e+000	 5.793259849448745e-001	 1.381083816269523e+001
 1.645537585051869e+000	 5.955720411275248e-001	 1.377051457278178e+001
 1.639574920168338e+000	 6.117957838498270e-001	 1.371151086561530e+001
 1.633438955056452e+000	 6.279945700989933e-001	 1.367245985495438e+001
 1.627129526846032e+000	 6.441657417325339e-001	 1.378798968925998e+001
 1.394682451589383e+000	 5.521420643314209e-001	 1.523273670645828e+001
 1.389125592786738e+000	 5.659771085778665e-001	 1.518074611988934e+001
 1.383419906972935e+000	 5.797838915960678e-001	 1.510523983225860e+001
 1.377565390400310e+000	 5.935601023727930e-001	 1.500554350308718e+001
 1.371562085562787e+000	 6.073034211979435e-001	 1.488099193127165e+001
 1.365410081623910e+000	 6.210115207841032e-001	 1.473092985935629e+001
 1.359109514813409e+000	 6.346820674049265e-001	 1.474726677255696e+001
 1.352660568791450e+000	 6.483127220513676e-001	 1.481932527904852e+001
 1.346063474979750e+000	 6.619011416047149e-001	 1.486801100978612e+001
 1.339318512858777e+000	 6.754449800253554e-001	 1.489290994422485e+001
 1.332426010230286e+000	 6.889418895561570e-001	 1.489362346765400e+001
 1.417927159110548e+000	 5.613444320692591e-001	 1.505376990918807e+001
 1.412277685994379e+000	 5.754100603868140e-001	 1.497929289842737e+001
 1.406476905416907e+000	 5.894469564555899e-001	 1.488232571634109e+001
 1.400524813568007e+000	 6.034527707454682e-001	 1.476222781799920e+001
 1.394421453649835e+000	 6.174251448845146e-001	 1.461836716319805e+001
 1.388166916311995e+000	 6.313617127971888e-001	 1.457162647001062e+001
 1.381761340054712e+000	 6.452601018617062e-001	 1.464712561232111e+001
 1.375204911599156e+000	 6.591179340855364e-001	 1.470096948692659e+001
 1.368497866224071e+000	 6.729328272979883e-001	 1.473276942812978e+001
 1.361640488067935e+000	 6.867023963587892e-001	 1.474215100322323e+001
 1.354633110395864e+000	 7.004242543815206e-001	 1.472875452445601e+001
 1.441171866632713e+000	 5.705467998076025e-001	 1.487766717859974e+001
 1.435429779203020e+000	 5.848430121961762e-001	 1.478287020446991e+001
 1.429533903861879e+000	 5.991100213154564e-001	 1.466658140764177e+001
 1.423484236736704e+000	 6.133454391184369e-001	 1.452819283139512e+001
 1.417280821737884e+000	 6.275468685713478e-001	 1.441378427157867e+001
 1.410923751001080e+000	 6.417119048105252e-001	 1.449159799601420e+001
 1.404413165297016e+000	 6.558381363187450e-001	 1.454937073175635e+001
 1.397749254407861e+000	 6.699231461199927e-001	 1.458673992569789e+001
 1.390932257469392e+000	 6.839645129915987e-001	 1.460335618400872e+001
 1.383962463278093e+000	 6.979598126926291e-001	 1.459888375083586e+001
 1.376840210562442e+000	 7.119066192073804e-001	 1.457300097418895e+001
 1.464416574155878e+000	 5.797491675464509e-001	 1.470410307241225e+001
 1.458581872412662e+000	 5.942759640059531e-001	 1.459105684939462e+001
 1.452590902307851e+000	 6.087730861756668e-001	 1.445749167977675e+001
 1.446443659906401e+000	 6.232381074916983e-001	 1.430283103934643e+001
 1.440140189826932e+000	 6.376685922584426e-001	 1.435099284736478e+001
 1.433680585691166e+000	 6.520620968241120e-001	 1.441159213534605e+001
 1.427064990540319e+000	 6.664161707760430e-001	 1.445332804352607e+001
 1.420293597217567e+000	 6.807283581547373e-001	 1.447587694194209e+001
 1.413366648715714e+000	 6.949961986855461e-001	 1.447892782830502e+001
 1.406284438489250e+000	 7.092172290268756e-001	 1.446218276146312e+001
 1.399047310730021e+000	 7.233889840337363e-001	 1.442535728210372e+001
 1.487661281680043e+000	 5.889515352858046e-001	 1.453276365277473e+001
 1.481733965623303e+000	 6.037089158161452e-001	 1.440344908988453e+001
 1.475647900754824e+000	 6.184361510362215e-001	 1.425456459588298e+001
 1.469403083077098e+000	 6.331307758652528e-001	 1.422359045299034e+001
 1.462999557916980e+000	 6.477903159457991e-001	 1.428603699368618e+001
 1.456437420382251e+000	 6.624122888379491e-001	 1.433106229773689e+001
 1.449716815784622e+000	 6.769942052336002e-001	 1.435836909601600e+001
 1.442837940028272e+000	 6.915335701897695e-001	 1.436767183114413e+001
 1.435801039963035e+000	 7.060278843798304e-001	 1.435869705850414e+001
 1.428606413701408e+000	 7.204746453615282e-001	 1.433118383533326e+001
 1.421254410898599e+000	 7.348713488605884e-001	 1.428488409709228e+001
 1.510905989205208e+000	 5.981539030256633e-001	 1.436334560131044e+001
 1.504886058834944e+000	 6.131418676267519e-001	 1.421965928598150e+001
 1.498704899202796e+000	 6.280992158971203e-001	 1.410769299265981e+001
 1.492362506248796e+000	 6.430234442391006e-001	 1.417112673324176e+001
 1.485858926008029e+000	 6.579120396334174e-001	 1.421848555081395e+001
 1.479194255074336e+000	 6.727624808520368e-001	 1.424949900992453e+001
 1.472368641029925e+000	 6.875722396914165e-001	 1.426390756289405e+001
 1.465382282839978e+000	 7.023387822250898e-001	 1.426146291854773e+001
 1.458235431211356e+000	 7.170595700744518e-001	 1.424192839972538e+001
 1.450928388914566e+000	 7.317320616965873e-001	 1.420507928882341e+001
 1.443461511068178e+000	 7.463537136879365e-001	 1.415070316063816e+001
 1.534150696731373e+000	 6.073562707660271e-001	 1.419555541461111e+001
 1.528038152047586e+000	 6.225748194377736e-001	 1.403931468113481e+001
 1.521761897651768e+000	 6.377622807583634e-001	 1.406529389087298e+001
 1.515321929421493e+000	 6.529161126132413e-001	 1.411414817235671e+001
 1.508718294100077e+000	 6.680337633212978e-001	 1.414793694196489e+001
 1.501951089767421e+000	 6.831126728663750e-001	 1.416642710375937e+001
 1.495020466276228e+000	 6.981502741494923e-001	 1.416939605180113e+001
 1.487926625652684e+000	 7.131439942606983e-001	 1.415663199629479e+001
 1.480669822460677e+000	 7.280912557694100e-001	 1.412793427838612e+001
 1.473250364128724e+000	 7.429894780320526e-001	 1.408311367293316e+001
 1.465668611238756e+000	 7.578360785157806e-001	 1.402199267859013e+001
 1.557395404258538e+000	 6.165586385068962e-001	 1.402910867177656e+001
 1.551190245261227e+000	 6.320077712492102e-001	 1.396697578549112e+001
 1.544818896101741e+000	 6.474253456199506e-001	 1.401660186463338e+001
 1.538281352595190e+000	 6.628087809876752e-001	 1.405235103169162e+001
 1.531577662193125e+000	 6.781554870094398e-001	 1.407401696561918e+001
 1.524707924461507e+000	 6.934628648809638e-001	 1.408140315612147e+001
 1.517672291523532e+000	 7.087283086078268e-001	 1.407432319883060e+001
 1.510470968466389e+000	 7.239492062965944e-001	 1.405260107962712e+001
 1.503104213710998e+000	 7.391229414647055e-001	 1.401607144747800e+001
 1.495572339343882e+000	 7.542468943679244e-001	 1.396457987517846e+001
 1.487875711410334e+000	 7.693184433441207e-001	 1.389798310740347e+001
 1.580640111786703e+000	 6.257610062482703e-001	 1.387460882594100e+001
 1.574342338475868e+000	 6.414407230610618e-001	 1.392439410055625e+001
 1.567875894552713e+000	 6.570884104818818e-001	 1.396140187417176e+001
 1.561240775769887e+000	 6.727014493624020e-001	 1.398545280880872e+001
 1.554437030287174e+000	 6.882772106978441e-001	 1.399637678263329e+001
 1.547464759156591e+000	 7.038130568958028e-001	 1.399401315472706e+001
 1.540324116771835e+000	 7.193063430664205e-001	 1.397821101937764e+001
 1.533015311281095e+000	 7.347544183327788e-001	 1.394882944930555e+001
 1.525538604962320e+000	 7.501546271603375e-001	 1.390573772726006e+001
 1.517894314560039e+000	 7.655043107042022e-001	 1.384881556543602e+001
 1.510082811582912e+000	 7.808008081729571e-001	 1.377795331218369e+001
 1.603884819315868e+000	 6.349633739901497e-001	 1.383606312751488e+001
 1.597494431691509e+000	 6.508736748733279e-001	 1.387373763816396e+001
 1.590932893004685e+000	 6.667514753441571e-001	 1.389949467996143e+001
 1.584200198945584e+000	 6.825941177374222e-001	 1.391319069862049e+001
 1.577296398382222e+000	 6.983989343865098e-001	 1.391469107838664e+001
 1.570221593852676e+000	 7.141632489108925e-001	 1.390387036690865e+001
 1.562975942021138e+000	 7.298843775252734e-001	 1.388061248934901e+001
 1.555559654096801e+000	 7.455596303692508e-001	 1.384481095120998e+001
 1.547972996214641e+000	 7.611863128563067e-001	 1.379636902936985e+001
 1.540216289777197e+000	 7.767617270408865e-001	 1.373519995084474e+001
 1.532289911756491e+000	 7.922831730022893e-001	 1.366122705881345e+001
 1.627129526846032e+000	 6.441657417325339e-001	 1.378798968925998e+001
 1.620646524908150e+000	 6.603066266860092e-001	 1.381488273461372e+001
 1.613989891457657e+000	 6.764145402067767e-001	 1.383069571412952e+001
 1.607159622122281e+000	 6.924867861127354e-001	 1.383532018643606e+001
 1.600155766478270e+000	 7.085206580754373e-001	 1.382865638245851e+001
 1.592978428549762e+000	 7.245134409262325e-001	 1.381061339107091e+001
 1.585627767271442e+000	 7.404624119843857e-001	 1.378110933369808e+001
 1.578103996913506e+000	 7.563648424060108e-001	 1.374007152740241e+001
 1.570407387467962e+000	 7.722179985526128e-001	 1.368743663601065e+001
 1.562538264995355e+000	 7.880191433779770e-001	 1.362315080885844e+001
 1.554497011931069e+000	 8.037655378321177e-001	 1.354716980675404e+001
 1.332426010230286e+000	 6.889418895561570e-001	 1.489362346765400e+001
 1.325386343444616e+000	 7.023895219395790e-001	 1.480803019246410e+001
 1.318199937591758e+000	 7.157855296464767e-001	 1.471796249979693e+001
 1.310867266655738e+000	 7.291275671160524e-001	 1.462367130780544e+001
 1.303388853632028e+000	 7.424132920061466e-001	 1.452541127429993e+001
 1.295765270607129e+000	 7.556403664517626e-001	 1.442344052926628e+001
 1.287997138799943e+000	 7.688064583308097e-001	 1.431802039913432e+001
 1.280085128564544e+000	 7.819092425357325e-001	 1.420941512319601e+001
 1.272029959353938e+000	 7.949464022496640e-001	 1.409789156259711e+001
 1.263832399644536e+000	 8.079156302257307e-001	 1.398371890234985e+001
 1.255493266821059e+000	 8.208146300681053e-001	 1.386716834683678e+001
 1.354633110395864e+000	 7.004242543815206e-001	 1.472875452445601e+001
 1.347476115830716e+000	 7.140960139710572e-001	 1.465641275649325e+001
 1.340169936547323e+000	 7.277152884728083e-001	 1.457949802822031e+001
 1.332715054429446e+000	 7.412796932332970e-001	 1.449824914035042e+001
 1.325112001189150e+000	 7.547868468713274e-001	 1.441290872873097e+001
 1.317361358447709e+000	 7.682343725574867e-001	 1.432372300829547e+001
 1.309463757777677e+000	 7.816198993009828e-001	 1.423094150864574e+001
 1.301419880705692e+000	 7.949410632424673e-001	 1.413481680164523e+001
 1.293230458675645e+000	 8.081955089514592e-001	 1.403560422142878e+001
 1.284896272971888e+000	 8.213808907269707e-001	 1.393356157725834e+001
 1.276418154602220e+000	 8.344948738999106e-001	 1.382894885967733e+001
 1.376840210562442e+000	 7.119066192073804e-001	 1.457300097418895e+001
 1.369565888217805e+000	 7.258025060031214e-001	 1.451305288530670e+001
 1.362139935503848e+000	 7.396450472997965e-001	 1.444844017972805e+001
 1.354562842204066e+000	 7.534318193512490e-001	 1.437939004771251e+001
 1.346835148747114e+000	 7.671604017372468e-001	 1.430613361145734e+001
 1.338957446289043e+000	 7.808283786639605e-001	 1.422890567999634e+001
 1.330930376756053e+000	 7.944333402718961e-001	 1.414794449560001e+001
 1.322754632847353e+000	 8.079728839499134e-001	 1.406349147203956e+001
 1.314430957997716e+000	 8.214446156539167e-001	 1.397579092510255e+001
 1.305960146299434e+000	 8.348461512288031e-001	 1.388508979577255e+001
 1.297343042383386e+000	 8.481751177322187e-001	 1.379163736650867e+001
 1.399047310730021e+000	 7.233889840337363e-001	 1.442535728210372e+001
 1.391655660605885e+000	 7.375089980357721e-001	 1.437698308850895e+001
 1.384109934461334e+000	 7.515748061274419e-001	 1.432385917176493e+001
 1.376410629979597e+000	 7.655839454699086e-001	 1.426620160085300e+001
 1.368558296305920e+000	 7.795339566039046e-001	 1.420423047496373e+001
 1.360553534131129e+000	 7.934223847711833e-001	 1.413816968887242e+001
 1.352396995735073e+000	 8.072467812435499e-001	 1.406824668967673e+001
 1.344089384989528e+000	 8.210047046580709e-001	 1.399469222524269e+001
 1.335631457320152e+000	 8.346937223570361e-001	 1.391774008472960e+001
 1.327024019627176e+000	 8.483114117312283e-001	 1.383762683158998e+001
 1.318267930164557e+000	 8.618553615650291e-001	 1.375459152946368e+001
 1.421254410898599e+000	 7.348713488605884e-001	 1.428488409709228e+001
 1.413745432994954e+000	 7.492154900690090e-001	 1.424729962793709e+001
 1.406079933419780e+000	 7.635045649557439e-001	 1.420488655908629e+001
 1.398258417756038e+000	 7.777360715892758e-001	 1.415785031080818e+001
 1.390281443865568e+000	 7.919075114713010e-001	 1.410640043345925e+001
 1.382149621973968e+000	 8.060163908791559e-001	 1.405075038287982e+001
 1.373863614714737e+000	 8.200602222159443e-001	 1.399111728700392e+001
 1.365424137132218e+000	 8.340365253669396e-001	 1.392772170401315e+001
 1.356831956642953e+000	 8.479428290608175e-001	 1.386078737238862e+001
 1.348087892955113e+000	 8.617766722342460e-001	 1.379054095324137e+001
 1.339192817945733e+000	 8.755356053983423e-001	 1.371721176532571e+001
 1.443461511068178e+000	 7.463537136879365e-001	 1.415070316063816e+001
 1.435835205385014e+000	 7.609219821028320e-001	 1.412315761364314e+001
 1.428049932379187e+000	 7.754343237847030e-001	 1.409071051550325e+001
 1.420106205533392e+000	 7.898881977093507e-001	 1.405355709483756e+001
 1.412004591426058e+000	 8.042810663394359e-001	 1.401189681197563e+001
 1.403745709817560e+000	 8.186103969878779e-001	 1.396593314393090e+001
 1.395330233695044e+000	 8.328736631890793e-001	 1.391587336043133e+001
 1.386758889275422e+000	 8.470683460765198e-001	 1.386192829132020e+001
 1.378032455966119e+000	 8.611919357652610e-001	 1.380431208566650e+001
 1.369151766283245e+000	 8.752419327378559e-001	 1.374324196294983e+001
 1.360117705726915e+000	 8.892158492321584e-001	 1.367893795670944e+001
 1.465668611238756e+000	 7.578360785157806e-001	 1.402199267859013e+001
 1.457924977776064e+000	 7.726284741372415e-001	 1.400376654569592e+001
 1.450019931339554e+000	 7.873640826143185e-001	 1.398057154456038e+001
 1.441953993311657e+000	 8.020403238301329e-001	 1.395259315474022e+001
 1.433727738987390e+000	 8.166546212083095e-001	 1.392002119100180e+001
 1.425341797661905e+000	 8.312044030973499e-001	 1.388304959744309e+001
 1.416796852675995e+000	 8.456871041629545e-001	 1.384187623250598e+001
 1.408093641419141e+000	 8.601001667868111e-001	 1.379670264517619e+001
 1.399232955289649e+000	 8.744410424703665e-001	 1.374773384269587e+001
 1.390215639611572e+000	 8.887071932420584e-001	 1.369517805013889e+001
 1.381042593508102e+000	 9.028960930664768e-001	 1.363924646222505e+001
 1.487875711410334e+000	 7.693184433441207e-001	 1.389798310740347e+001
 1.480014750168104e+000	 7.843349661722373e-001	 1.388838625522461e+001
 1.471989930300882e+000	 7.992938414445909e-001	 1.387375857433183e+001
 1.463801781090832e+000	 8.141924499516231e-001	 1.385427622427738e+001
 1.455450886549564e+000	 8.290281760779212e-001	 1.383011980533051e+001
 1.446937885507002e+000	 8.437984092075711e-001	 1.380147416133108e+001
 1.438263471657590e+000	 8.585005451375705e-001	 1.376852817325604e+001
 1.429428393563373e+000	 8.731319874978141e-001	 1.373147454378280e+001
 1.420433454613544e+000	 8.876901491761340e-001	 1.369050957315902e+001
 1.411279512940094e+000	 9.021724537468535e-001	 1.364583292671611e+001
 1.401967481289294e+000	 9.165763369012980e-001	 1.359764739438917e+001
 1.510082811582912e+000	 7.808008081729571e-001	 1.377795331218369e+001
 1.502104522561134e+000	 7.960414582078191e-001	 1.377632320360550e+001
 1.493959929263171e+000	 8.112236002755202e-001	 1.376960539679413e+001
 1.485649568870919e+000	 8.263445760738210e-001	 1.375796714770448e+001
 1.477174034112580e+000	 8.414017309482718e-001	 1.374158026065362e+001
 1.468533973352852e+000	 8.563924153185417e-001	 1.372062089949958e+001
 1.459730090639828e+000	 8.713139861129265e-001	 1.369526938934664e+001
 1.450763145708121e+000	 8.861638082095285e-001	 1.366571000904644e+001
 1.441633953937804e+000	 9.009392558825637e-001	 1.363213077479163e+001
 1.432343386268812e+000	 9.156377142522409e-001	 1.359472321512576e+001
 1.422892369070492e+000	 9.302565807366219e-001	 1.355368213771986e+001
 1.532289911756491e+000	 7.922831730022893e-001	 1.366122705881345e+001
 1.524194294955155e+000	 8.077479502439875e-001	 1.366692710345868e+001
 1.515929928226421e+000	 8.231533591071063e-001	 1.366748741681878e+001
 1.507497356651917e+000	 8.384967021967261e-001	 1.366306675582250e+001
 1.498897181676438e+000	 8.537752858193607e-001	 1.365382853567085e+001
 1.490130061199455e+000	 8.689864214302617e-001	 1.363994064894573e+001
 1.481196709622710e+000	 8.841274270890234e-001	 1.362157527504822e+001
 1.472097897853381e+000	 8.991956289219537e-001	 1.359890868022287e+001
 1.462834453262429e+000	 9.141883625896550e-001	 1.357212100845142e+001
 1.453407259597724e+000	 9.291029747582211e-001	 1.354139606352732e+001
 1.443817256851695e+000	 9.439368245724484e-001	 1.350692108264967e+001
 1.554497011931069e+000	 8.037655378321177e-001	 1.354716980675404e+001
 1.546284067350165e+000	 8.194544422807419e-001	 1.355958782927343e+001
 1.537899927190630e+000	 8.350831179393492e-001	 1.356681867982269e+001
 1.529345144433827e+000	 8.506488283203388e-001	 1.356901300979606e+001
 1.520620329241138e+000	 8.661488406911879e-001	 1.356632624116074e+001
 1.511726149046811e+000	 8.815804275427315e-001	 1.355891839310944e+001
 1.502663328606235e+000	 8.969408680658605e-001	 1.354695389883612e+001
 1.493432649999157e+000	 9.122274496350905e-001	 1.353060141267802e+001
 1.484034952587419e+000	 9.274374692974083e-001	 1.351003360789516e+001
 1.474471132926832e+000	 9.425682352647933e-001	 1.348542696538719e+001
 1.464742144632903e+000	 9.576170684087775e-001	 1.345696155367456e+001
 1.255493266821059e+000	 8.208146300681053e-001	 1.386716834683678e+001
 1.247013427021299e+000	 8.336411175128567e-001	 1.380504035326679e+001
 1.238393794941728e+000	 8.463928217087878e-001	 1.372159089031585e+001
 1.229635333603122e+000	 8.590674864957385e-001	 1.363691831516602e+001
 1.220739054075391e+000	 8.716628716778430e-001	 1.355099203780979e+001
 1.211706015162792e+000	 8.841767542918875e-001	 1.346376409861107e+001
 1.202537323049252e+000	 8.966069298687862e-001	 1.337516913963428e+001
 1.193234130903926e+000	 9.089512136867098e-001	 1.328512442433606e+001
 1.183797638447231e+000	 9.212074420144201e-001	 1.319352990603292e+001
 1.174229091477602e+000	 9.333734733433581e-001	 1.310026834540524e+001
 1.164529781359323e+000	 9.454471896070471e-001	 1.300520547714494e+001
 1.276418154602220e+000	 8.344948738999106e-001	 1.382894885967733e+001
 1.267796984139968e+000	 8.475351361353408e-001	 1.378765358253538e+001
 1.259033691526450e+000	 8.604993687346021e-001	 1.374403199103965e+001
 1.250129255832787e+000	 8.733852779348662e-001	 1.369830291701170e+001
 1.241084704980055e+000	 8.861905862036693e-001	 1.361828642454479e+001
 1.231901115419247e+000	 8.989130335284116e-001	 1.353535899984740e+001
 1.222579611770688e+000	 9.115503786988557e-001	 1.344987866931038e+001
 1.213121366423021e+000	 9.241004005811424e-001	 1.336171672104834e+001
 1.203527599092000e+000	 9.365608993818458e-001	 1.327072716284290e+001
 1.193799576339370e+000	 9.489296979005983e-001	 1.317674689309116e+001
 1.183938611052150e+000	 9.612046427698152e-001	 1.307959592236861e+001
 1.297343042383386e+000	 8.481751177322187e-001	 1.379163736650867e+001
 1.288580541258456e+000	 8.614291547582270e-001	 1.375840190155213e+001
 1.279673588110835e+000	 8.746059157607187e-001	 1.372147014301880e+001
 1.270623178061991e+000	 8.877030693741959e-001	 1.368102648890885e+001
 1.261430355884161e+000	 9.007183007295979e-001	 1.363725705866455e+001
 1.252096215675079e+000	 9.136493127649379e-001	 1.359034945342181e+001
 1.242621900491466e+000	 9.264938275288274e-001	 1.351388796867102e+001
 1.233008601941451e+000	 9.392495874753766e-001	 1.342608742898954e+001
 1.223257559736129e+000	 9.519143567489734e-001	 1.333427776648005e+001
 1.213370061200551e+000	 9.644859224574401e-001	 1.323825041483578e+001
 1.203347440744476e+000	 9.769620959320846e-001	 1.313777995912592e+001
 1.318267930164557e+000	 8.618553615650291e-001	 1.375459152946368e+001
 1.309364098376765e+000	 8.753231733815162e-001	 1.372760775448601e+001
 1.300313484694886e+000	 8.887124627871379e-001	 1.369560481248434e+001
 1.291117100290734e+000	 9.020208608137283e-001	 1.365873374971337e+001
 1.281776006787710e+000	 9.152460152556290e-001	 1.361714850013766e+001
 1.272291315930287e+000	 9.283855920014662e-001	 1.357100568482112e+001
 1.262664189211584e+000	 9.414372763587006e-001	 1.352046440578685e+001
 1.252895837459215e+000	 9.543987743694122e-001	 1.346568603473035e+001
 1.242987520379617e+000	 9.672678141158019e-001	 1.338189798408916e+001
 1.232940546061146e+000	 9.800421470138830e-001	 1.328256658379071e+001
 1.222756270436300e+000	 9.927195490938553e-001	 1.317761540532885e+001
 1.339192817945733e+000	 8.755356053983423e-001	 1.371721176532571e+001
 1.330147655494894e+000	 8.892171920052078e-001	 1.369475367709895e+001
 1.320953381278602e+000	 9.028190098138598e-001	 1.366599850465767e+001
 1.311611022519015e+000	 9.163386522534631e-001	 1.363106498187277e+001
 1.302121657690702e+000	 9.297737297817618e-001	 1.359007587380551e+001
 1.292486416184872e+000	 9.431218712379963e-001	 1.354315781412223e+001
 1.282706477931043e+000	 9.563807251884756e-001	 1.349044113558323e+001
 1.272783072976315e+000	 9.695479612632498e-001	 1.343205969392112e+001
 1.262717481022464e+000	 9.826212714823324e-001	 1.336815068544279e+001
 1.252511030921156e+000	 9.955983715699278e-001	 1.329885445870787e+001
 1.242165100127623e+000	 1.008477002255128e+000	 1.319695370761286e+001
 1.360117705726915e+000	 8.892158492321584e-001	 1.367893795670944e+001
 1.350931212612843e+000	 9.031112106293023e-001	 1.365935652450553e+001
 1.341593277861981e+000	 9.169255568408838e-001	 1.363224302655158e+001
 1.332104944746835e+000	 9.306564436934001e-001	 1.359768488375044e+001
 1.322467308593137e+000	 9.443014443079969e-001	 1.355577467005581e+001
 1.312681516438834e+000	 9.578581504745284e-001	 1.350660998683835e+001
 1.302748766649843e+000	 9.713241740181526e-001	 1.345029332894750e+001
 1.292670308492750e+000	 9.846971481568890e-001	 1.338693194271832e+001
 1.282447441664671e+000	 9.979747288485642e-001	 1.331663767619309e+001
 1.272081515780578e+000	 1.011154596125574e+000	 1.323952682184971e+001
 1.261573929818444e+000	 1.024234455415901e+000	 1.315571995214878e+001
 1.381042593508102e+000	 9.028960930664768e-001	 1.363924646222505e+001
 1.371714769730612e+000	 9.170052292537990e-001	 1.362096487122200e+001
 1.362233174445026e+000	 9.310321038682108e-001	 1.359395726713752e+001
 1.352598866974193e+000	 9.449742351335393e-001	 1.355828071993504e+001
 1.342812959495014e+000	 9.588291588343341e-001	 1.351399855397050e+001
 1.332876616692172e+000	 9.725944297110625e-001	 1.346118025827219e+001
 1.322791055367983e+000	 9.862676228477311e-001	 1.339990138715537e+001
 1.312557544008519e+000	 9.998463350503296e-001	 1.333024345135534e+001
 1.302177402306237e+000	 1.013328186214498e+000	 1.325229379988686e+001
 1.291652000639415e+000	 1.026710820680821e+000	 1.316614549286244e+001
 1.280982759508765e+000	 1.039991908576176e+000	 1.307189716552501e+001
 1.401967481289294e+000	 9.165763369012980e-001	 1.359764739438917e+001
 1.392498326848202e+000	 9.308992478786984e-001	 1.357915664404684e+001
 1.382873071027735e+000	 9.451386508958403e-001	 1.355078517630382e+001
 1.373092789201091e+000	 9.592920265738814e-001	 1.351256063719394e+001
 1.363158610396335e+000	 9.733568733607738e-001	 1.346451800900540e+001
 1.353071716944887e+000	 9.873307089475988e-001	 1.340669955547197e+001
 1.342833344085465e+000	 1.001211071677212e+000	 1.333915475595312e+001
 1.332444779523624e+000	 1.014995521943572e+000	 1.326194022872338e+001
 1.321907362947162e+000	 1.028681643580132e+000	 1.317511964351858e+001
 1.311222485497666e+000	 1.042267045235669e+000	 1.307876362351379e+001
 1.300391589198583e+000	 1.055749361735952e+000	 1.297294963693392e+001
 1.422892369070492e+000	 9.302565807366219e-001	 1.355368213771986e+001
 1.413281883965611e+000	 9.447932665040006e-001	 1.353353696380461e+001
 1.403512967610108e+000	 9.592451979237721e-001	 1.350239392214129e+001
 1.393586711427527e+000	 9.736098180144253e-001	 1.346025212901875e+001
 1.383504261297098e+000	 9.878845878873157e-001	 1.340711910034500e+001
 1.373266817196979e+000	 1.002066988184137e+000	 1.334301073077952e+001
 1.362875632802286e+000	 1.016154520506594e+000	 1.326795126052295e+001
 1.352332015038063e+000	 1.030144708836616e+000	 1.318197322982291e+001
 1.341637323587446e+000	 1.044035100945469e+000	 1.308511742128486e+001
 1.330792970355330e+000	 1.057823269790119e+000	 1.297743279010722e+001
 1.319800418887901e+000	 1.071506814895229e+000	 1.285897638238837e+001
 1.443817256851695e+000	 9.439368245724484e-001	 1.350692108264967e+001
 1.434065441082840e+000	 9.586872851297054e-001	 1.348373617476439e+001
 1.424152864192146e+000	 9.733517449520064e-001	 1.344847220846481e+001
 1.414080633653502e+000	 9.879276094551719e-001	 1.340110063368892e+001
 1.403849912197303e+000	 1.002412302413959e+000	 1.334160234579170e+001
 1.393461917448448e+000	 1.016803267420677e+000	 1.326996769767856e+001
 1.382917921518449e+000	 1.031097969335878e+000	 1.318619649827756e+001
 1.372219250551837e+000	 1.045293895729462e+000	 1.309029799735008e+001
 1.361367284227090e+000	 1.059388558310506e+000	 1.298229085667134e+001
 1.350363455212408e+000	 1.073379494344171e+000	 1.286220310764587e+001
 1.339209248576718e+000	 1.087264268054008e+000	 1.273007209545421e+001
 1.464742144632903e+000	 9.576170684087775e-001	 1.345696155367456e+001
 1.454848998199890e+000	 9.725813037558125e-001	 1.342940804296524e+001
 1.444792760773848e+000	 9.874582919805433e-001	 1.338872873654729e+001
 1.434574555879015e+000	 1.002245400896121e+000	 1.333486825250107e+001
 1.424195563096952e+000	 1.016940016940706e+000	 1.326778168343602e+001
 1.413657017699293e+000	 1.031539546657219e+000	 1.318743464071313e+001
 1.402960210233953e+000	 1.046041418165064e+000	 1.309380328370072e+001
 1.392106486064946e+000	 1.060443082622109e+000	 1.298687433400411e+001
 1.381097244866093e+000	 1.074742015675245e+000	 1.286664507464635e+001
 1.369933940068900e+000	 1.088935718897823e+000	 1.273312333421124e+001
 1.358618078265032e+000	 1.103021721212288e+000	 1.258632745599653e+001
 1.164529781359323e+000	 9.454471896070471e-001	 1.300520547714494e+001
 1.154701044472046e+000	 9.574264973867980e-001	 1.291910626987283e+001
 1.144744261621738e+000	 9.693093291010766e-001	 1.282334386734102e+001
 1.134660857414088e+000	 9.810936441778934e-001	 1.271760909210671e+001
 1.124452299591371e+000	 9.927774302097261e-001	 1.260158379292372e+001
 1.114120098332699e+000	 1.004358704088371e+000	 1.247494139875727e+001
 1.103665805518577e+000	 1.015835513118795e+000	 1.233734751031017e+001
 1.093091013960509e+000	 1.027205936110678e+000	 1.218846052781479e+001
 1.082397356596456e+000	 1.038468084446386e+000	 1.202793231371306e+001
 1.071586505652984e+000	 1.049620103124114e+000	 1.185540888871728e+001
 1.060660171775000e+000	 1.060660171775000e+000	 1.167053115962211e+001
 1.183938611052150e+000	 9.612046427698152e-001	 1.307959592236861e+001
 1.173946061883105e+000	 9.733836056803343e-001	 1.298623967762956e+001
 1.163823332651751e+000	 9.854644845907676e-001	 1.288472570087443e+001
 1.153571871707206e+000	 9.974452049195919e-001	 1.277474151786960e+001
 1.143193171254116e+000	 1.009323720719159e+000	 1.265596333657120e+001
 1.132688766641246e+000	 1.021098015829463e+000	 1.252805661288402e+001
 1.122060235613774e+000	 1.032766105010550e+000	 1.239067665833867e+001
 1.111309197530064e+000	 1.044326035052265e+000	 1.224346928840949e+001
 1.100437312543711e+000	 1.055775885860012e+000	 1.208607151005004e+001
 1.089446280751720e+000	 1.067113771515287e+000	 1.191811224688400e+001
 1.078337841309750e+000	 1.078337841309750e+000	 1.173921310035334e+001
 1.203347440744476e+000	 9.769620959320846e-001	 1.313777995912592e+001
 1.193191079293752e+000	 9.893407139732818e-001	 1.303809247547147e+001
 1.182902403681423e+000	 1.001619640079800e+000	 1.293175567724904e+001
 1.172482886000033e+000	 1.013796765660581e+000	 1.281845271895956e+001
 1.161934042916601e+000	 1.025870011227853e+000	 1.269785305315134e+001
 1.151257434949542e+000	 1.037837327569805e+000	 1.256961300930909e+001
 1.140454665708711e+000	 1.049696696901566e+000	 1.243337641916684e+001
 1.129527381099330e+000	 1.061446133993143e+000	 1.228877528713287e+001
 1.118477268490625e+000	 1.073083687272977e+000	 1.213543050435519e+001
 1.107306055850047e+000	 1.084607439905870e+000	 1.197295260480618e+001
 1.096015510844000e+000	 1.096015510844000e+000	 1.180094256161752e+001
 1.222756270436300e+000	 9.927195490938553e-001	 1.317761540532885e+001
 1.212436096703989e+000	 1.005297822265641e+000	 1.307249322504765e+001
 1.201981474710754e+000	 1.017774795568173e+000	 1.296223624297521e+001
 1.191393900292569e+000	 1.030148326400861e+000	 1.284652217437725e+001
 1.180674914578825e+000	 1.042416301735808e+000	 1.272501260567603e+001
 1.169826103257588e+000	 1.054576639309397e+000	 1.259735358785369e+001
 1.158849095803388e+000	 1.066627288791843e+000	 1.246317628088882e+001
 1.147745564668305e+000	 1.078566232933310e+000	 1.232209764787492e+001
 1.136517224437199e+000	 1.090391488685283e+000	 1.217372119730076e+001
 1.125165830947963e+000	 1.102101108295863e+000	 1.201763777180703e+001
 1.113693180377750e+000	 1.113693180377750e+000	 1.185342638157545e+001
 1.242165100127623e+000	 1.008477002255128e+000	 1.319695370761286e+001
 1.231681114113813e+000	 1.021254930557411e+000	 1.308726619395031e+001
 1.221060545739743e+000	 1.033929951055887e+000	 1.297396751278251e+001
 1.210304914584815e+000	 1.046499887140433e+000	 1.285672887757320e+001
 1.199415786240788e+000	 1.058962592243023e+000	 1.273520290076317e+001
 1.188394771565383e+000	 1.071315951048240e+000	 1.260902420307189e+001
 1.177243525897804e+000	 1.083557880681380e+000	 1.247781007854749e+001
 1.165963748236990e+000	 1.095686331872768e+000	 1.234116121397394e+001
 1.154557180383433e+000	 1.107699290096928e+000	 1.219866246106132e+001
 1.143025606045469e+000	 1.119594776685267e+000	 1.204988365966733e+001
 1.131370849911000e+000	 1.131370849911000e+000	 1.189438051012760e+001
 1.261573929818444e+000	 1.024234455415901e+000	 1.315571995214878e+001
 1.250926131523227e+000	 1.037212038848592e+000	 1.307713688232546e+001
 1.240139616768392e+000	 1.050085106542942e+000	 1.296474744898736e+001
 1.229215928876769e+000	 1.062851447879295e+000	 1.284685137379755e+001
 1.218156657902490e+000	 1.075508882749499e+000	 1.272618599297495e+001
 1.206963439872927e+000	 1.088055262786333e+000	 1.260237334465582e+001
 1.195637955991960e+000	 1.100488472570177e+000	 1.247501565975400e+001
 1.184181931805385e+000	 1.112806430811516e+000	 1.234369610825924e+001
 1.172597136329328e+000	 1.125007091507914e+000	 1.220797960304415e+001
 1.160885381142566e+000	 1.137088445074080e+000	 1.206741365935950e+001
 1.149048519443750e+000	 1.149048519443750e+000	 1.192152930801123e+001
 1.280982759508765e+000	 1.039991908576176e+000	 1.307189716552501e+001
 1.270171148932229e+000	 1.053169147139185e+000	 1.298707200928032e+001
 1.259218687796699e+000	 1.066240262029339e+000	 1.290328176618867e+001
 1.248126943168433e+000	 1.079203008617448e+000	 1.281466779405498e+001
 1.236897529563932e+000	 1.092055173255236e+000	 1.269572499785229e+001
 1.225532108180222e+000	 1.104794574523678e+000	 1.257515193780406e+001
 1.214032386085856e+000	 1.117419064458234e+000	 1.245253458070535e+001
 1.202400115373490e+000	 1.129926529749554e+000	 1.232743733308951e+001
 1.190637092274882e+000	 1.142314892918240e+000	 1.219940387837178e+001
 1.178745156239252e+000	 1.154582113462304e+000	 1.206795807444224e+001
 1.166726188976000e+000	 1.166726188976000e+000	 1.193260490961575e+001
 1.300391589198583e+000	 1.055749361735952e+000	 1.297294963693392e+001
 1.289416166340821e+000	 1.069126255429189e+000	 1.288243131587747e+001
 1.278297758824665e+000	 1.082395417515077e+000	 1.279401327177565e+001
 1.267037957459805e+000	 1.095554569354892e+000	 1.270793823641164e+001
 1.255638401225113e+000	 1.108601463760233e+000	 1.262444429850311e+001
 1.244100776487265e+000	 1.121533886260272e+000	 1.252511316146738e+001
 1.232426816179491e+000	 1.134349656345551e+000	 1.240811182942413e+001
 1.220618298941304e+000	 1.147046628686883e+000	 1.229012440620910e+001
 1.208677048220096e+000	 1.159622694327905e+000	 1.217067204602258e+001
 1.196604931335528e+000	 1.172075781849937e+000	 1.204925360519588e+001
 1.184403858507750e+000	 1.184403858507750e+000	 1.192534664285942e+001
 1.319800418887901e+000	 1.071506814895229e+000	 1.285897638238837e+001
 1.308661183749000e+000	 1.085083363718604e+000	 1.276328756189129e+001
 1.297376829852291e+000	 1.098550573000156e+000	 1.267073874264986e+001
 1.285948971750886e+000	 1.111906130091627e+000	 1.258159123287956e+001
 1.274379272886033e+000	 1.125147754264491e+000	 1.249610067979947e+001
 1.262669444794058e+000	 1.138273197996117e+000	 1.241451671086868e+001
 1.250821246272866e+000	 1.151280248232129e+000	 1.233708258214945e+001
 1.238836482508829e+000	 1.164166727623501e+000	 1.222950102873417e+001
 1.226717004164970e+000	 1.176930495736912e+000	 1.211952596413571e+001
 1.214464706431394e+000	 1.189569450236980e+000	 1.200904287827540e+001
 1.202081528039000e+000	 1.202081528039000e+000	 1.189750050025360e+001
 1.339209248576718e+000	 1.087264268054008e+000	 1.273007209545421e+001
 1.327906201156769e+000	 1.101040472007430e+000	 1.262971059389133e+001
 1.316455900879575e+000	 1.114705728484575e+000	 1.253350441665805e+001
 1.304859986041677e+000	 1.128257690827653e+000	 1.244173331991788e+001
 1.293120144546693e+000	 1.141694044768010e+000	 1.235467039744671e+001
 1.281238113100601e+000	 1.155012509731212e+000	 1.227258169736712e+001
 1.269215676365981e+000	 1.168210840117968e+000	 1.219572584729529e+001
 1.257054666076063e+000	 1.181286826559410e+000	 1.212435368868556e+001
 1.244756960109504e+000	 1.194238297145257e+000	 1.204371222050647e+001
 1.232324481526851e+000	 1.207063118623434e+000	 1.194507401726268e+001
 1.219759197569750e+000	 1.219759197569750e+000	 1.184681865596114e+001
 1.358618078265032e+000	 1.103021721212288e+000	 1.258632745599653e+001
 1.347151218564126e+000	 1.116997580295668e+000	 1.248176755332849e+001
 1.335534971906517e+000	 1.130860883968336e+000	 1.238235506269925e+001
 1.323771000332177e+000	 1.144609251562969e+000	 1.228838807404670e+001
 1.311861016207092e+000	 1.158240335270790e+000	 1.220015702935468e+001
 1.299806781406892e+000	 1.171751821465558e+000	 1.211794431489129e+001
 1.287610106458835e+000	 1.185141432003066e+000	 1.204202386312521e+001
 1.275272849643007e+000	 1.198406925494608e+000	 1.197266076515301e+001
 1.262796916053697e+000	 1.211546098552944e+000	 1.191011089445270e+001
 1.250184256621897e+000	 1.224556787009297e+000	 1.185462054275595e+001
 1.237436867100000e+000	 1.237436867100000e+000	 1.177105902424986e+001
 1.060660171775000e+000	 1.060660171775000e+000	 1.167053115962211e+001
 1.049620103124114e+000	 1.071586505652983e+000	 1.155487858580736e+001
 1.038468084446386e+000	 1.082397356596456e+000	 1.143155612431037e+001
 1.027205936110678e+000	 1.093091013960508e+000	 1.130027365224214e+001
 1.015835513118795e+000	 1.103665805518576e+000	 1.116073282795027e+001
 1.004358704088372e+000	 1.114120098332699e+000	 1.101262786864348e+001
 9.927774302097264e-001	 1.124452299591371e+000	 1.085564635660596e+001
 9.810936441778938e-001	 1.134660857414088e+000	 1.068947007179046e+001
 9.693093291010769e-001	 1.144744261621738e+000	 1.051377584848849e+001
 9.574264973867984e-001	 1.154701044472046e+000	 1.032823645369655e+001
 9.454471896070471e-001	 1.164529781359323e+000	 1.013252148472602e+001
 1.078337841309750e+000	 1.078337841309750e+000	 1.173921310035334e+001
 1.067113771515287e+000	 1.089446280751720e+000	 1.163491571283316e+001
 1.055775885860012e+000	 1.100437312543710e+000	 1.152279140975619e+001
 1.044326035052265e+000	 1.111309197530064e+000	 1.140250687385844e+001
 1.032766105010551e+000	 1.122060235613774e+000	 1.127371996145659e+001
 1.021098015829463e+000	 1.132688766641246e+000	 1.113608054893922e+001
 1.009323720719160e+000	 1.143193171254116e+000	 1.098923140948767e+001
 9.974452049195923e-001	 1.153571871707205e+000	 1.083280911765259e+001
 9.854644845907680e-001	 1.163823332651751e+000	 1.066644497931838e+001
 9.733836056803347e-001	 1.173946061883104e+000	 1.048976598450463e+001
 9.612046427698152e-001	 1.183938611052150e+000	 1.030239578037767e+001
 1.096015510844000e+000	 1.096015510844000e+000	 1.180094256161752e+001
 1.084607439905871e+000	 1.107306055850046e+000	 1.170790562330415e+001
 1.073083687272977e+000	 1.118477268490624e+000	 1.160692443712166e+001
 1.061446133993143e+000	 1.129527381099329e+000	 1.149762153471682e+001
 1.049696696901567e+000	 1.140454665708711e+000	 1.137960995935882e+001
 1.037837327569805e+000	 1.151257434949542e+000	 1.125249418317068e+001
 1.025870011227854e+000	 1.161934042916601e+000	 1.111587105632797e+001
 1.013796765660582e+000	 1.172482886000033e+000	 1.096933078568454e+001
 1.001619640079800e+000	 1.182902403681422e+000	 1.081245794018541e+001
 9.893407139732823e-001	 1.193191079293752e+000	 1.064483248034108e+001
 9.769620959320847e-001	 1.203347440744476e+000	 1.046603080895507e+001
 1.113693180377750e+000	 1.113693180377750e+000	 1.185342638157545e+001
 1.102101108295864e+000	 1.125165830947962e+000	 1.177160477710309e+001
 1.090391488685283e+000	 1.136517224437199e+000	 1.168176203885976e+001
 1.078566232933311e+000	 1.147745564668305e+000	 1.158347555024591e+001
 1.066627288791843e+000	 1.158849095803387e+000	 1.147631248909753e+001
 1.054576639309398e+000	 1.169826103257588e+000	 1.135983081758392e+001
 1.042416301735808e+000	 1.180674914578824e+000	 1.123358030591062e+001
 1.030148326400862e+000	 1.191393900292569e+000	 1.109710358711562e+001
 1.017774795568173e+000	 1.201981474710753e+000	 1.094993724014250e+001
 1.005297822265641e+000	 1.212436096703988e+000	 1.079161289828300e+001
 9.927195490938553e-001	 1.222756270436300e+000	 1.062165837999665e+001
 1.131370849911000e+000	 1.131370849911000e+000	 1.189438051012760e+001
 1.119594776685267e+000	 1.143025606045469e+000	 1.182377666503209e+001
 1.107699290096929e+000	 1.154557180383433e+000	 1.174511602108269e+001
 1.095686331872769e+000	 1.165963748236990e+000	 1.165792977682023e+001
 1.083557880681380e+000	 1.177243525897803e+000	 1.156173815186311e+001
 1.071315951048240e+000	 1.188394771565382e+000	 1.145605145144959e+001
 1.058962592243023e+000	 1.199415786240788e+000	 1.134037116672482e+001
 1.046499887140433e+000	 1.210304914584814e+000	 1.121419110788402e+001
 1.033929951055888e+000	 1.221060545739743e+000	 1.107699856717427e+001
 1.021254930557411e+000	 1.231681114113813e+000	 1.092827550865895e+001
 1.008477002255128e+000	 1.242165100127623e+000	 1.076749978156346e+001
 1.149048519443750e+000	 1.149048519443750e+000	 1.192152930801123e+001
 1.137088445074080e+000	 1.160885381142565e+000	 1.186219126797270e+001
 1.125007091507914e+000	 1.172597136329327e+000	 1.179480278097259e+001
 1.112806430811517e+000	 1.184181931805385e+000	 1.171884778553354e+001
 1.100488472570177e+000	 1.195637955991959e+000	 1.163379841076900e+001
 1.088055262786334e+000	 1.206963439872927e+000	 1.153911611759965e+001
 1.075508882749499e+000	 1.218156657902490e+000	 1.143425287775708e+001
 1.062851447879295e+000	 1.229215928876768e+000	 1.131865238750536e+001
 1.050085106542943e+000	 1.240139616768392e+000	 1.119175131289473e+001
 1.037212038848592e+000	 1.250926131523227e+000	 1.104631612042335e+001
 1.024234455415901e+000	 1.261573929818444e+000	 1.082477504583143e+001
 1.166726188976000e+000	 1.166726188976000e+000	 1.193260490961575e+001
 1.154582113462304e+000	 1.178745156239252e+000	 1.188462456521340e+001
 1.142314892918240e+000	 1.190637092274882e+000	 1.182864295897360e+001
 1.129926529749554e+000	 1.202400115373489e+000	 1.176409565653852e+001
 1.117419064458234e+000	 1.214032386085855e+000	 1.169040552555464e+001
 1.104794574523678e+000	 1.225532108180221e+000	 1.160698395564238e+001
 1.092055173255236e+000	 1.236897529563932e+000	 1.151323211830209e+001
 1.079203008617448e+000	 1.248126943168432e+000	 1.140854226349844e+001
 1.066240262029339e+000	 1.259218687796699e+000	 1.121331695910608e+001
 1.053169147139185e+000	 1.270171148932229e+000	 1.100113732862480e+001
 1.039991908576176e+000	 1.280982759508765e+000	 1.078897433479149e+001
 1.184403858507750e+000	 1.184403858507750e+000	 1.192534664285942e+001
 1.172075781849937e+000	 1.196604931335528e+000	 1.188885808680723e+001
 1.159622694327906e+000	 1.208677048220096e+000	 1.184446112213010e+001
 1.147046628686883e+000	 1.220618298941304e+000	 1.179154179180344e+001
 1.134349656345552e+000	 1.232426816179490e+000	 1.172947249313553e+001
 1.121533886260272e+000	 1.244100776487265e+000	 1.165761327862092e+001
 1.108601463760234e+000	 1.255638401225113e+000	 1.151742025487842e+001
 1.095554569354892e+000	 1.267037957459804e+000	 1.131426631506191e+001
 1.082395417515077e+000	 1.278297758824665e+000	 1.111114512446959e+001
 1.069126255429189e+000	 1.289416166340820e+000	 1.090809276948035e+001
 1.055749361735952e+000	 1.300391589198583e+000	 1.070513524059088e+001
 1.202081528039000e+000	 1.202081528039000e+000	 1.189750050025360e+001
 1.189569450236981e+000	 1.214464706431394e+000	 1.187267850542721e+001
 1.176930495736912e+000	 1.226717004164969e+000	 1.184008547536646e+001
 1.164166727623502e+000	 1.238836482508828e+000	 1.179905674439048e+001
 1.151280248232130e+000	 1.250821246272865e+000	 1.173926673777200e+001
 1.138273197996117e+000	 1.262669444794058e+000	 1.154466019193706e+001
 1.125147754264492e+000	 1.274379272886033e+000	 1.135012024286353e+001
 1.111906130091627e+000	 1.285948971750886e+000	 1.115569352451776e+001
 1.098550573000156e+000	 1.297376829852290e+000	 1.096141670296374e+001
 1.085083363718604e+000	 1.308661183749000e+000	 1.076731633103172e+001
 1.071506814895229e+000	 1.319800418887901e+000	 1.057340872017508e+001
 1.219759197569750e+000	 1.219759197569750e+000	 1.184681865596114e+001
 1.207063118623434e+000	 1.232324481526850e+000	 1.183387726371310e+001
 1.194238297145258e+000	 1.244756960109503e+000	 1.181334759787243e+001
 1.181286826559410e+000	 1.257054666076062e+000	 1.169482791374480e+001
 1.168210840117968e+000	 1.269215676365980e+000	 1.150828030378448e+001
 1.155012509731213e+000	 1.281238113100600e+000	 1.132190531766196e+001
 1.141694044768011e+000	 1.293120144546692e+000	 1.113575070139413e+001
 1.128257690827653e+000	 1.304859986041676e+000	 1.094985422894525e+001
 1.114705728484576e+000	 1.316455900879574e+000	 1.076424354221028e+001
 1.101040472007431e+000	 1.327906201156768e+000	 1.057893600799397e+001
 1.087264268054008e+000	 1.339209248576718e+000	 1.039393859243382e+001
 1.237436867100000e+000	 1.237436867100000e+000	 1.177105902424986e+001
 1.224556787009298e+000	 1.250184256621897e+000	 1.176770676152229e+001
 1.211546098552944e+000	 1.262796916053697e+000	 1.158844687014432e+001
 1.198406925494609e+000	 1.275272849643007e+000	 1.140943080004985e+001
 1.185141432003066e+000	 1.287610106458834e+000	 1.123071774415171e+001
 1.171751821465559e+000	 1.299806781406892e+000	 1.105235711192526e+001
 1.158240335270790e+000	 1.311861016207091e+000	 1.087438833789272e+001
 1.144609251562970e+000	 1.323771000332176e+000	 1.069684070633619e+001
 1.130860883968337e+000	 1.335534971906517e+000	 1.051973319277571e+001
 1.116997580295668e+000	 1.347151218564126e+000	 1.034307432270818e+001
 1.103021721212288e+000	 1.358618078265032e+000	 1.016686204806215e+001
 9.454471896070471e-001	 1.164529781359323e+000	 1.013252148472602e+001
 9.333734733433584e-001	 1.174229091477602e+000	 9.989941259836671e+000
 9.212074420144205e-001	 1.183797638447231e+000	 9.839960601189935e+000
 9.089512136867101e-001	 1.193234130903926e+000	 9.682275639045061e+000
 8.966069298687867e-001	 1.202537323049252e+000	 9.516578573306747e+000
 8.841767542918881e-001	 1.211706015162792e+000	 9.342558617246223e+000
 8.716628716778435e-001	 1.220739054075391e+000	 9.159902951111500e+000
 8.590674864957391e-001	 1.229635333603122e+000	 8.968297682908446e+000
 8.463928217087883e-001	 1.238393794941727e+000	 8.767428813624299e+000
 8.336411175128573e-001	 1.247013427021299e+000	 8.556983204168104e+000
 8.208146300681053e-001	 1.255493266821059e+000	 8.368980105568474e+000
 9.612046427698152e-001	 1.183938611052150e+000	 1.030239578037767e+001
 9.489296979005989e-001	 1.193799576339370e+000	 1.016977767673826e+001
 9.365608993818463e-001	 1.203527599092000e+000	 1.002826743677953e+001
 9.241004005811428e-001	 1.213121366423021e+000	 9.877513616492532e+000
 9.115503786988564e-001	 1.222579611770688e+000	 9.717161780792871e+000
 8.989130335284120e-001	 1.231901115419247e+000	 9.546855522094035e+000
 8.861905862036696e-001	 1.241084704980054e+000	 9.366237487610187e+000
 8.733852779348668e-001	 1.250129255832787e+000	 9.175234990042313e+000
 8.604993687346023e-001	 1.259033691526449e+000	 8.999851437370385e+000
 8.475351361353412e-001	 1.267796984139967e+000	 8.827460041170706e+000
 8.344948738999105e-001	 1.276418154602220e+000	 8.658054730728765e+000
 9.769620959320847e-001	 1.203347440744476e+000	 1.046603080895507e+001
 9.644859224574407e-001	 1.213370061200551e+000	 1.034340997686554e+001
 9.519143567489734e-001	 1.223257559736129e+000	 1.021046180923678e+001
 9.392495874753768e-001	 1.233008601941451e+000	 1.006678592122541e+001
 9.264938275288280e-001	 1.242621900491466e+000	 9.911979826018571e+000
 9.136493127649386e-001	 1.252096215675078e+000	 9.744730517465001e+000
 9.007183007295984e-001	 1.261430355884161e+000	 9.570937910266299e+000
 8.877030693741965e-001	 1.270623178061991e+000	 9.399143097948295e+000
 8.746059157607192e-001	 1.279673588110835e+000	 9.229358186058498e+000
 8.614291547582276e-001	 1.288580541258456e+000	 9.061582134151895e+000
 8.481751177322187e-001	 1.297343042383386e+000	 8.895800780119426e+000
 9.927195490938553e-001	 1.222756270436300e+000	 1.062165837999665e+001
 9.800421470138834e-001	 1.232940546061146e+000	 1.050913555736593e+001
 9.672678141158025e-001	 1.242987520379617e+000	 1.038490565402715e+001
 9.543987743694129e-001	 1.252895837459215e+000	 1.024016504478744e+001
 9.414372763587012e-001	 1.262664189211584e+000	 1.007161022908201e+001
 9.283855920014668e-001	 1.272291315930287e+000	 9.904096850898597e+000
 9.152460152556292e-001	 1.281776006787710e+000	 9.737652381938789e+000
 9.020208608137288e-001	 1.291117100290733e+000	 9.572291894670608e+000
 8.887124627871383e-001	 1.300313484694886e+000	 9.408018043607138e+000
 8.753231733815166e-001	 1.309364098376765e+000	 9.244821067939887e+000
 8.618553615650291e-001	 1.318267930164557e+000	 9.082678815497641e+000
 1.008477002255128e+000	 1.242165100127623e+000	 1.076749978156346e+001
 9.955983715699281e-001	 1.252511030921155e+000	 1.065232911341025e+001
 9.826212714823328e-001	 1.262717481022464e+000	 1.049235686341667e+001
 9.695479612632505e-001	 1.272783072976315e+000	 1.033251357708937e+001
 9.563807251884761e-001	 1.282706477931042e+000	 1.017283933141487e+001
 9.431218712379967e-001	 1.292486416184872e+000	 1.001336259539540e+001
 9.297737297817622e-001	 1.302121657690702e+000	 9.854100171406989e+000
 9.163386522534633e-001	 1.311611022519015e+000	 9.695057157003738e+000
 9.028190098138601e-001	 1.320953381278601e+000	 9.536226927254360e+000
 8.892171920052082e-001	 1.330147655494893e+000	 9.377591137645938e+000
 8.755356053983423e-001	 1.339192817945733e+000	 9.219119747539050e+000
 1.024234455415901e+000	 1.261573929818444e+000	 1.082477504583143e+001
 1.011154596125574e+000	 1.272081515780578e+000	 1.067568847848220e+001
 9.979747288485645e-001	 1.282447441664671e+000	 1.052591773456663e+001
 9.846971481568897e-001	 1.292670308492750e+000	 1.037550201796522e+001
 9.713241740181531e-001	 1.302748766649843e+000	 1.022446965739765e+001
 9.578581504745288e-001	 1.312681516438834e+000	 1.007283803059222e+001
 9.443014443079975e-001	 1.322467308593137e+000	 9.920613507987035e+000
 9.306564436934005e-001	 1.332104944746835e+000	 9.767791416112118e+000
 9.169255568408845e-001	 1.341593277861981e+000	 9.614356020749495e+000
 9.031112106293027e-001	 1.350931212612843e+000	 9.460280529919455e+000
 8.892158492321584e-001	 1.360117705726915e+000	 9.305527116689937e+000
 1.039991908576176e+000	 1.280982759508765e+000	 1.078897433479149e+001
 1.026710820680821e+000	 1.291652000639415e+000	 1.065050046174596e+001
 1.013328186214498e+000	 1.302177402306237e+000	 1.051062559484325e+001
 9.998463350503301e-001	 1.312557544008519e+000	 1.036937686604279e+001
 9.862676228477316e-001	 1.322791055367983e+000	 1.022677115446183e+001
 9.725944297110630e-001	 1.332876616692172e+000	 1.008281501329082e+001
 9.588291588343346e-001	 1.342812959495014e+000	 9.937504615509628e+000
 9.449742351335400e-001	 1.352598866974193e+000	 9.790825718562557e+000
 9.310321038682112e-001	 1.362233174445025e+000	 9.642753648101966e+000
 9.170052292537995e-001	 1.371714769730612e+000	 9.493253300861399e+000
 9.028960930664768e-001	 1.381042593508102e+000	 9.342279166669613e+000
 1.055749361735952e+000	 1.300391589198583e+000	 1.070513524059088e+001
 1.042267045235670e+000	 1.311222485497665e+000	 1.057694982046784e+001
 1.028681643580133e+000	 1.321907362947162e+000	 1.044668987406917e+001
 1.014995521943573e+000	 1.332444779523623e+000	 1.031437078656035e+001
 1.001211071677212e+000	 1.342833344085464e+000	 1.017999828193397e+001
 9.873307089475990e-001	 1.353071716944887e+000	 1.004356835229677e+001
 9.733568733607741e-001	 1.363158610396334e+000	 9.905067205266972e+000
 9.592920265738816e-001	 1.373092789201090e+000	 9.764471229652612e+000
 9.451386508958405e-001	 1.382873071027734e+000	 9.621746979532100e+000
 9.308992478786990e-001	 1.392498326848201e+000	 9.476851176811781e+000
 9.165763369012980e-001	 1.401967481289294e+000	 9.329730732285880e+000
 1.071506814895229e+000	 1.319800418887901e+000	 1.057340872017508e+001
 1.057823269790120e+000	 1.330792970355330e+000	 1.045521182309520e+001
 1.044035100945469e+000	 1.341637323587446e+000	 1.033430880619092e+001
 1.030144708836617e+000	 1.352332015038063e+000	 1.021070362852742e+001
 1.016154520506595e+000	 1.362875632802286e+000	 1.008439114986692e+001
 1.002066988184138e+000	 1.373266817196979e+000	 9.955357061948298e+000
 9.878845878873158e-001	 1.383504261297097e+000	 9.823577837228561e+000
 9.736098180144259e-001	 1.393586711427526e+000	 9.689020695268455e+000
 9.592451979237725e-001	 1.403512967610107e+000	 9.551643586897066e+000
 9.447932665040012e-001	 1.413281883965611e+000	 9.411395196243864e+000
 9.302565807366219e-001	 1.422892369070492e+000	 9.268214960678272e+000
 1.087264268054008e+000	 1.339209248576718e+000	 1.039393859243382e+001
 1.073379494344171e+000	 1.350363455212408e+000	 1.028545293685184e+001
 1.059388558310507e+000	 1.361367284227090e+000	 1.017367024057420e+001
 1.045293895729462e+000	 1.372219250551837e+000	 1.005858335343736e+001
 1.031097969335878e+000	 1.382917921518449e+000	 9.940176558842175e+000
 1.016803267420678e+000	 1.393461917448448e+000	 9.818425506643205e+000
 1.002412302413960e+000	 1.403849912197303e+000	 9.693297162891094e+000
 9.879276094551726e-001	 1.414080633653502e+000	 9.564749776624996e+000
 9.733517449520069e-001	 1.424152864192145e+000	 9.432732863861654e+000
 9.586872851297061e-001	 1.434065441082840e+000	 9.297187208884695e+000
 9.439368245724484e-001	 1.443817256851695e+000	 9.158044882888513e+000
 1.103021721212288e+000	 1.358618078265032e+000	 1.016686204806215e+001
 1.088935718897824e+000	 1.369933940068900e+000	 1.006783145639717e+001
 1.074742015675246e+000	 1.381097244866093e+000	 9.964952383759540e+000
 1.060443082622109e+000	 1.392106486064946e+000	 9.858206884375338e+000
 1.046041418165064e+000	 1.402960210233953e+000	 9.747568950646700e+000
 1.031539546657220e+000	 1.413657017699293e+000	 9.633004447262898e+000
 1.016940016940706e+000	 1.424195563096951e+000	 9.514471061597417e+000
 1.002245400896121e+000	 1.434574555879014e+000	 9.391918270599369e+000
 9.874582919805436e-001	 1.444792760773847e+000	 9.265287324341104e+000
 9.725813037558133e-001	 1.454848998199890e+000	 9.134511246339994e+000
 9.576170684087774e-001	 1.464742144632903e+000	 8.999514850724465e+000
 8.208146300681053e-001	 1.255493266821059e+000	 8.368980105568474e+000
 8.079156302257311e-001	 1.263832399644536e+000	 8.233757078902059e+000
 7.949464022496643e-001	 1.272029959353938e+000	 8.096550642751021e+000
 7.819092425357329e-001	 1.280085128564544e+000	 7.957284636283559e+000
 7.688064583308102e-001	 1.287997138799943e+000	 7.815873446915244e+000
 7.556403664517630e-001	 1.295765270607128e+000	 7.672222146527305e+000
 7.424132920061470e-001	 1.303388853632028e+000	 7.526226643913802e+000
 7.291275671160530e-001	 1.310867266655738e+000	 7.377773853090814e+000
 7.157855296464771e-001	 1.318199937591758e+000	 7.226741877066626e+000
 7.023895219395795e-001	 1.325386343444616e+000	 7.073000206632830e+000
 6.889418895561570e-001	 1.332426010230286e+000	 6.916409933704146e+000
 8.344948738999105e-001	 1.276418154602220e+000	 8.658054730728765e+000
 8.213808907269712e-001	 1.284896272971888e+000	 8.522918302754651e+000
 8.081955089514598e-001	 1.293230458675645e+000	 8.385116945592081e+000
 7.949410632424677e-001	 1.301419880705692e+000	 8.244575492651016e+000
 7.816198993009832e-001	 1.309463757777676e+000	 8.101209756667226e+000
 7.682343725574871e-001	 1.317361358447709e+000	 7.954926657490741e+000
 7.547868468713279e-001	 1.325112001189150e+000	 7.805624365794565e+000
 7.412796932332975e-001	 1.332715054429446e+000	 7.653192462360570e+000
 7.277152884728088e-001	 1.340169936547322e+000	 7.497512112561487e+000
 7.140960139710576e-001	 1.347476115830715e+000	 7.338456255623167e+000
 7.004242543815207e-001	 1.354633110395864e+000	 7.175889808215565e+000
 8.481751177322187e-001	 1.297343042383386e+000	 8.895800780119426e+000
 8.348461512288039e-001	 1.305960146299434e+000	 8.761251990262622e+000
 8.214446156539169e-001	 1.314430957997715e+000	 8.623397638762201e+000
 8.079728839499137e-001	 1.322754632847353e+000	 8.482163378519022e+000
 7.944333402718966e-001	 1.330930376756053e+000	 8.337466244463631e+000
 7.808283786639609e-001	 1.338957446289043e+000	 8.189214773120339e+000
 7.671604017372472e-001	 1.346835148747114e+000	 8.037309137820955e+000
 7.534318193512495e-001	 1.354562842204065e+000	 7.881641299246505e+000
 7.396450472997973e-001	 1.362139935503848e+000	 7.722095170937663e+000
 7.258025060031219e-001	 1.369565888217805e+000	 7.558546799379175e+000
 7.119066192073804e-001	 1.376840210562442e+000	 7.390864558228552e+000
 8.618553615650291e-001	 1.318267930164557e+000	 9.082678815497641e+000
 8.483114117312290e-001	 1.327024019627176e+000	 8.949213348703331e+000
 8.346937223570364e-001	 1.335631457320152e+000	 8.811841288685528e+000
 8.210047046580712e-001	 1.344089384989528e+000	 8.670488944218075e+000
 8.072467812435505e-001	 1.352396995735073e+000	 8.525074381120742e+000
 7.934223847711839e-001	 1.360553534131129e+000	 8.375507533786697e+000
 7.795339566039050e-001	 1.368558296305920e+000	 8.221690332125430e+000
 7.655839454699093e-001	 1.376410629979596e+000	 8.063516843621381e+000
 7.515748061274427e-001	 1.384109934461334e+000	 7.900873430169177e+000
 7.375089980357725e-001	 1.391655660605884e+000	 7.733638919312291e+000
 7.233889840337364e-001	 1.399047310730021e+000	 7.561684789474864e+000
 8.755356053983423e-001	 1.339192817945733e+000	 9.219119747539050e+000
 8.617766722342464e-001	 1.348087892955113e+000	 9.087228031082065e+000
 8.479428290608178e-001	 1.356831956642953e+000	 8.950867090211212e+000
 8.340365253669401e-001	 1.365424137132218e+000	 8.809963736709610e+000
 8.200602222159450e-001	 1.373863614714737e+000	 8.664436887369625e+000
 8.060163908791564e-001	 1.382149621973968e+000	 8.514197667654143e+000
 7.919075114713015e-001	 1.390281443865568e+000	 8.359149530575722e+000
 7.777360715892765e-001	 1.398258417756038e+000	 8.199188390514934e+000
 7.635045649557446e-001	 1.406079933419779e+000	 8.034202771658237e+000
 7.492154900690093e-001	 1.413745432994954e+000	 7.864073970703640e+000
 7.348713488605884e-001	 1.421254410898599e+000	 7.688676233442235e+000
 8.892158492321584e-001	 1.360117705726915e+000	 9.305527116689937e+000
 8.752419327378564e-001	 1.369151766283244e+000	 9.175694409537297e+000
 8.611919357652612e-001	 1.378032455966118e+000	 9.040867125965221e+000
 8.470683460765203e-001	 1.386758889275422e+000	 8.900972438306683e+000
 8.328736631890796e-001	 1.395330233695044e+000	 8.755929945400839e+000
 8.186103969878785e-001	 1.403745709817559e+000	 8.605651768542584e+000
 8.042810663394364e-001	 1.412004591426058e+000	 8.450042662487846e+000
 7.898881977093513e-001	 1.420106205533392e+000	 8.289000141256389e+000
 7.754343237847035e-001	 1.428049932379187e+000	 8.122414618433716e+000
 7.609219821028326e-001	 1.435835205385014e+000	 7.950169561637448e+000
 7.463537136879365e-001	 1.443461511068178e+000	 7.772141660777894e+000
 9.028960930664768e-001	 1.381042593508102e+000	 9.342279166669613e+000
 8.887071932420589e-001	 1.390215639611572e+000	 9.214985642073179e+000
 8.744410424703669e-001	 1.399232955289649e+000	 9.082208420306857e+000
 8.601001667868117e-001	 1.408093641419141e+000	 8.943874901874620e+000
 8.456871041629551e-001	 1.416796852675995e+000	 8.799905209360258e+000
 8.312044030973503e-001	 1.425341797661905e+000	 8.650212275802481e+000
 8.166546212083098e-001	 1.433727738987390e+000	 8.494701948000888e+000
 8.020403238301337e-001	 1.441953993311656e+000	 8.333273104511834e+000
 7.873640826143192e-001	 1.450019931339554e+000	 8.165817788057524e+000
 7.726284741372420e-001	 1.457924977776063e+000	 7.992221352030954e+000
 7.578360785157806e-001	 1.465668611238756e+000	 7.812362620745783e+000
 9.165763369012980e-001	 1.401967481289294e+000	 9.329730732285880e+000
 9.021724537468538e-001	 1.411279512940094e+000	 9.205451554211248e+000
 8.876901491761343e-001	 1.420433454613544e+000	 9.075234809348348e+000
 8.731319874978147e-001	 1.429428393563373e+000	 8.939008003774998e+000
 8.585005451375708e-001	 1.438263471657590e+000	 8.796691635799865e+000
 8.437984092075715e-001	 1.446937885507002e+000	 8.648199276886816e+000
 8.290281760779218e-001	 1.455450886549564e+000	 8.493437667418682e+000
 8.141924499516240e-001	 1.463801781090832e+000	 8.332306827080206e+000
 7.992938414445915e-001	 1.471989930300882e+000	 8.164700179600287e+000
 7.843349661722376e-001	 1.480014750168104e+000	 7.990504691557379e+000
 7.693184433441208e-001	 1.487875711410334e+000	 7.809601024912264e+000
 9.302565807366219e-001	 1.422892369070492e+000	 9.268214960678272e+000
 9.156377142522415e-001	 1.432343386268811e+000	 9.147420354614157e+000
 9.009392558825640e-001	 1.441633953937804e+000	 9.020268645973275e+000
 8.861638082095286e-001	 1.450763145708120e+000	 8.886687333314233e+000
 8.713139861129269e-001	 1.459730090639827e+000	 8.746597152618625e+000
 8.563924153185423e-001	 1.468533973352852e+000	 8.599912150872953e+000
 8.414017309482723e-001	 1.477174034112580e+000	 8.446539774433131e+000
 8.263445760738215e-001	 1.485649568870919e+000	 8.286380971971566e+000
 8.112236002755208e-001	 1.493959929263171e+000	 8.119330311765307e+000
 7.960414582078198e-001	 1.502104522561134e+000	 7.945276113046014e+000
 7.808008081729572e-001	 1.510082811582913e+000	 7.764100591094153e+000
 9.439368245724484e-001	 1.443817256851695e+000	 9.158044882888513e+000
 9.291029747582215e-001	 1.453407259597724e+000	 9.041200201524854e+000
 9.141883625896556e-001	 1.462834453262429e+000	 8.917612356592072e+000
 8.991956289219543e-001	 1.472097897853381e+000	 8.787208735283846e+000
 8.841274270890238e-001	 1.481196709622709e+000	 8.649910182877971e+000
 8.689864214302624e-001	 1.490130061199455e+000	 8.505631069069803e+000
 8.537752858193614e-001	 1.498897181676438e+000	 8.354279369066768e+000
 8.384967021967265e-001	 1.507497356651917e+000	 8.195756759261590e+000
 8.231533591071070e-001	 1.515929928226420e+000	 8.029958727263324e+000
 8.077479502439880e-001	 1.524194294955155e+000	 7.856774696021863e+000
 7.922831730022893e-001	 1.532289911756491e+000	 7.676088161746535e+000
 9.576170684087774e-001	 1.464742144632903e+000	 8.999514850724465e+000
 9.425682352647938e-001	 1.474471132926832e+000	 8.887080634939146e+000
 9.274374692974090e-001	 1.484034952587418e+000	 8.767549864461651e+000
 9.122274496350911e-001	 1.493432649999157e+000	 8.640849720283022e+000
 8.969408680658608e-001	 1.502663328606234e+000	 8.506901038004205e+000
 8.815804275427319e-001	 1.511726149046811e+000	 8.365618367001211e+000
 8.661488406911886e-001	 1.520620329241137e+000	 8.216910044363621e+000
 8.506488283203394e-001	 1.529345144433827e+000	 8.060678283443771e+000
 8.350831179393496e-001	 1.537899927190630e+000	 7.896819276811640e+000
 8.194544422807425e-001	 1.546284067350165e+000	 7.725223313370069e+000
 8.037655378321177e-001	 1.554497011931069e+000	 7.545774909345626e+000
 6.889418895561570e-001	 1.332426010230286e+000	 6.916409933704146e+000
 6.754449800253557e-001	 1.339318512858777e+000	 6.700226010437799e+000
 6.619011416047155e-001	 1.346063474979750e+000	 6.514620579872632e+000
 6.483127220513681e-001	 1.352660568791450e+000	 6.359404560836331e+000
 6.346820674049272e-001	 1.359109514813409e+000	 6.234351828099497e+000
 6.210115207841035e-001	 1.365410081623910e+000	 6.097723335437284e+000
 6.073034211979440e-001	 1.371562085562787e+000	 5.897560088757172e+000
 5.935601023727936e-001	 1.377565390400310e+000	 5.738112269595020e+000
 5.797838915960681e-001	 1.383419906972935e+000	 5.618426133998903e+000
 5.659771085778672e-001	 1.389125592786738e+000	 5.537538269006657e+000
 5.521420643314210e-001	 1.394682451589383e+000	 5.494477928843858e+000
 7.004242543815207e-001	 1.354633110395864e+000	 7.175889808215565e+000
 6.867023963587897e-001	 1.361640488067934e+000	 6.961251537236660e+000
 6.729328272979888e-001	 1.368497866224071e+000	 6.775520483818702e+000
 6.591179340855368e-001	 1.375204911599155e+000	 6.618507203735281e+000
 6.452601018617067e-001	 1.381761340054712e+000	 6.489986230966988e+000
 6.313617127971893e-001	 1.388166916311995e+000	 6.389696724559282e+000
 6.174251448845152e-001	 1.394421453649835e+000	 6.235012807693855e+000
 6.034527707454689e-001	 1.400524813568007e+000	 6.047234259589603e+000
 5.894469564555904e-001	 1.406476905416907e+000	 5.897214713079078e+000
 5.754100603868146e-001	 1.412277685994379e+000	 5.783936416368626e+000
 5.613444320692591e-001	 1.417927159110548e+000	 5.706377109820756e+000
 7.119066192073804e-001	 1.376840210562442e+000	 7.390864558228552e+000
 6.979598126926294e-001	 1.383962463278092e+000	 7.178037478496745e+000
 6.839645129915994e-001	 1.390932257469392e+000	 6.992517598608217e+000
 6.699231461199932e-001	 1.397749254407861e+000	 6.834114778508436e+000
 6.558381363187456e-001	 1.404413165297015e+000	 6.702603832244189e+000
 6.417119048105255e-001	 1.410923751001080e+000	 6.597725163313336e+000
 6.275468685713481e-001	 1.417280821737884e+000	 6.519185442031056e+000
 6.133454391184371e-001	 1.423484236736704e+000	 6.334823277613268e+000
 5.991100213154569e-001	 1.429533903861879e+000	 6.156465721994562e+000
 5.848430121961767e-001	 1.435429779203020e+000	 6.012831596201608e+000
 5.705467998076025e-001	 1.441171866632713e+000	 5.902843085214925e+000
 7.233889840337364e-001	 1.399047310730021e+000	 7.561684789474864e+000
 7.092172290268761e-001	 1.406284438489250e+000	 7.350946951570021e+000
 6.949961986855466e-001	 1.413366648715713e+000	 7.165984818148259e+000
 6.807283581547381e-001	 1.420293597217566e+000	 7.006607232352062e+000
 6.664161707760437e-001	 1.427064990540319e+000	 6.872588922467507e+000
 6.520620968241124e-001	 1.433680585691165e+000	 6.763671126419157e+000
 6.376685922584429e-001	 1.440140189826932e+000	 6.679562257496958e+000
 6.232381074916989e-001	 1.446443659906401e+000	 6.598659929361484e+000
 6.087730861756673e-001	 1.452590902307851e+000	 6.394042504891047e+000
 5.942759640059538e-001	 1.458581872412662e+000	 6.222166790489567e+000
 5.797491675464509e-001	 1.464416574155878e+000	 6.081895309338807e+000
 7.348713488605884e-001	 1.421254410898599e+000	 7.688676233442235e+000
 7.204746453615288e-001	 1.428606413701408e+000	 7.480317247728689e+000
 7.060278843798309e-001	 1.435801039963035e+000	 7.296268437580101e+000
 6.915335701897702e-001	 1.442837940028272e+000	 7.136337319633564e+000
 6.769942052336008e-001	 1.449716815784622e+000	 7.000298183272625e+000
 6.624122888379498e-001	 1.456437420382251e+000	 6.887892704892906e+000
 6.477903159457995e-001	 1.462999557916980e+000	 6.798830602665049e+000
 6.331307758652532e-001	 1.469403083077098e+000	 6.732790330119393e+000
 6.184361510362220e-001	 1.475647900754824e+000	 6.607780896331759e+000
 6.037089158161457e-001	 1.481733965623303e+000	 6.409857932403106e+000
 5.889515352858046e-001	 1.487661281680043e+000	 6.241526820508576e+000
 7.463537136879365e-001	 1.443461511068178e+000	 7.772141660777894e+000
 7.317320616965880e-001	 1.450928388914566e+000	 7.566461818786936e+000
 7.170595700744522e-001	 1.458235431211356e+000	 7.383690199337788e+000
 7.023387822250906e-001	 1.465382282839978e+000	 7.223632693647672e+000
 6.875722396914171e-001	 1.472368641029925e+000	 7.086062811156099e+000
 6.727624808520373e-001	 1.479194255074336e+000	 6.970722284163105e+000
 6.579120396334179e-001	 1.485858926008029e+000	 6.877321712277255e+000
 6.430234442391010e-001	 1.492362506248795e+000	 6.805541245026764e+000
 6.280992158971209e-001	 1.498704899202796e+000	 6.755031300922091e+000
 6.131418676267526e-001	 1.504886058834944e+000	 6.573795986977652e+000
 5.981539030256632e-001	 1.510905989205208e+000	 6.379706273043803e+000
 7.578360785157806e-001	 1.465668611238756e+000	 7.812362620745783e+000
 7.429894780320530e-001	 1.473250364128723e+000	 7.609672083120121e+000
 7.280912557694106e-001	 1.480669822460677e+000	 7.428549153202225e+000
 7.131439942606987e-001	 1.487926625652684e+000	 7.268797808212778e+000
 6.981502741494928e-001	 1.495020466276228e+000	 7.130190448167713e+000
 6.831126728663755e-001	 1.501951089767421e+000	 7.012468491463710e+000
 6.680337633212983e-001	 1.508718294100077e+000	 6.915343009637954e+000
 6.529161126132418e-001	 1.515321929421492e+000	 6.838495399675149e+000
 6.377622807583638e-001	 1.521761897651768e+000	 6.781578092179784e+000
 6.225748194377742e-001	 1.528038152047585e+000	 6.711848842638295e+000
 6.073562707660272e-001	 1.534150696731373e+000	 6.494379784539846e+000
 7.693184433441208e-001	 1.487875711410334e+000	 7.809601024912264e+000
 7.542468943679248e-001	 1.495572339343881e+000	 7.610219069951703e+000
 7.391229414647058e-001	 1.503104213710998e+000	 7.431123349782009e+000
 7.239492062965953e-001	 1.510470968466390e+000	 7.272115648975532e+000
 7.087283086078272e-001	 1.517672291523531e+000	 7.132966939705044e+000
 6.934628648809641e-001	 1.524707924461506e+000	 7.013417968833775e+000
 6.781554870094404e-001	 1.531577662193125e+000	 6.913179883586619e+000
 6.628087809876758e-001	 1.538281352595190e+000	 6.831934894200746e+000
 6.474253456199510e-001	 1.544818896101740e+000	 6.769336971896702e+000
 6.320077712492108e-001	 1.551190245261226e+000	 6.725012580453189e+000
 6.165586385068961e-001	 1.557395404258538e+000	 6.583472617712761e+000
 7.808008081729572e-001	 1.510082811582913e+000	 7.764100591094153e+000
 7.655043107042029e-001	 1.517894314560039e+000	 7.568354918554960e+000
 7.501546271603380e-001	 1.525538604962319e+000	 7.391671384570926e+000
 7.347544183327793e-001	 1.533015311281095e+000	 7.233849311952245e+000
 7.193063430664211e-001	 1.540324116771835e+000	 7.094657937208317e+000
 7.038130568958033e-001	 1.547464759156591e+000	 6.973836989675613e+000
 6.882772106978444e-001	 1.554437030287173e+000	 6.871097308679313e+000
 6.727014493624028e-001	 1.561240775769887e+000	 6.786121497151948e+000
 6.570884104818823e-001	 1.567875894552712e+000	 6.718564610068833e+000
 6.414407230610622e-001	 1.574342338475868e+000	 6.668054876009679e+000
 6.257610062482705e-001	 1.580640111786703e+000	 6.634194450102660e+000
 7.922831730022893e-001	 1.532289911756491e+000	 7.676088161746535e+000
 7.767617270408872e-001	 1.540216289777197e+000	 7.484314247090452e+000
 7.611863128563070e-001	 1.547972996214641e+000	 7.310433807738511e+000
 7.455596303692516e-001	 1.555559654096801e+000	 7.154243444806892e+000
 7.298843775252740e-001	 1.562975942021138e+000	 7.015510361490897e+000
 7.141632489108930e-001	 1.570221593852676e+000	 6.893972934743081e+000
 6.983989343865104e-001	 1.577296398382222e+000	 6.789341324484518e+000
 6.825941177374227e-001	 1.584200198945583e+000	 6.701298118792508e+000
 6.667514753441579e-001	 1.590932893004684e+000	 6.629499013445473e+000
 6.508736748733286e-001	 1.597494431691509e+000	 6.573573524155304e+000
 6.349633739901497e-001	 1.603884819315868e+000	 6.533125729763882e+000
 8.037655378321177e-001	 1.554497011931069e+000	 7.545774909345626e+000
 7.880191433779774e-001	 1.562538264995355e+000	 7.358315404114080e+000
 7.722179985526132e-001	 1.570407387467961e+000	 7.187634413081729e+000
 7.563648424060114e-001	 1.578103996913506e+000	 7.033525564590303e+000
 7.404624119843860e-001	 1.585627767271441e+000	 6.895753740640999e+000
 7.245134409262329e-001	 1.592978428549761e+000	 6.774055641616711e+000
 7.085206580754382e-001	 1.600155766478270e+000	 6.668140388082272e+000
 6.924867861127358e-001	 1.607159622122280e+000	 6.577690158122246e+000
 6.764145402067773e-001	 1.613989891457657e+000	 6.502360858618594e+000
 6.603066266860097e-001	 1.620646524908149e+000	 6.441782828815875e+000
 6.441657417325339e-001	 1.627129526846032e+000	 6.395561574472646e+000
 5.521420643314210e-001	 1.394682451589383e+000	 5.494477928843858e+000
 5.382810600734966e-001	 1.400090532911170e+000	 5.370207881678046e+000
 5.243963861452564e-001	 1.405349931577071e+000	 5.246218367753544e+000
 5.104903209545469e-001	 1.410460787190097e+000	 5.121793703858977e+000
 4.965651299408994e-001	 1.415423283586218e+000	 4.996252012784835e+000
 4.826230645635714e-001	 1.420237648262862e+000	 4.868946472764023e+000
 4.686663613134737e-001	 1.424904151781650e+000	 4.739266466144350e+000
 4.546972407496678e-001	 1.429423107146426e+000	 4.606638626277437e+000
 4.407179065610668e-001	 1.433794869157610e+000	 4.470527781924105e+000
 4.267305446539302e-001	 1.438019833743952e+000	 4.330437798782804e+000
 4.127373222656903e-001	 1.442098437272754e+000	 4.185912318052262e+000
 5.613444320692591e-001	 1.417927159110548e+000	 5.706377109820756e+000
 5.472524110733930e-001	 1.423425375121222e+000	 5.548097905406298e+000
 5.331363259128185e-001	 1.428772430431791e+000	 5.394947795782808e+000
 5.189984929688458e-001	 1.433968466971983e+000	 5.246129991096557e+000
 5.048412154383313e-001	 1.439013671641701e+000	 5.100879038525534e+000
 4.906667823048524e-001	 1.443908275729996e+000	 4.958462249280535e+000
 4.764774673341679e-001	 1.448652554307849e+000	 4.818181023069283e+000
 4.622755280946558e-001	 1.453246825595834e+000	 4.679372068703953e+000
 4.480632050033773e-001	 1.457691450307712e+000	 4.541408519864587e+000
 4.338427203983615e-001	 1.461986830971045e+000	 4.403700945351581e+000
 4.196162776376646e-001	 1.466133411225922e+000	 4.265698253482744e+000
 5.705467998076025e-001	 1.441171866632713e+000	 5.902843085214925e+000
 5.562237620738787e-001	 1.446760217332268e+000	 5.713297543890061e+000
 5.418762656810238e-001	 1.452194929287489e+000	 5.533527997937981e+000
 5.275066649838113e-001	 1.457476146754822e+000	 5.362653933681049e+000
 5.131173009364223e-001	 1.462604059698101e+000	 5.199823891889603e+000
 4.987105000467548e-001	 1.467578903198001e+000	 5.044217074244042e+000
 4.842885733554156e-001	 1.472400956834864e+000	 4.895044845175644e+000
 4.698538154401000e-001	 1.477070544045993e+000	 4.751552127463784e+000
 4.554085034460169e-001	 1.481588031458489e+000	 4.613018690317159e+000
 4.409548961429659e-001	 1.485953828198727e+000	 4.478760329000807e+000
 4.264952330096262e-001	 1.490168385179584e+000	 4.348129935411151e+000
 5.797491675464509e-001	 1.464416574155878e+000	 6.081895309338807e+000
 5.651951130749543e-001	 1.470095059544309e+000	 5.863868929969308e+000
 5.506162054498724e-001	 1.475617428144168e+000	 5.660071398457997e+000
 5.360148369994429e-001	 1.480983826538615e+000	 5.469535743924098e+000
 5.213933864351722e-001	 1.486194447755420e+000	 5.291321950946785e+000
 5.067542177892787e-001	 1.491249530666879e+000	 5.124518747558860e+000
 4.920996793772173e-001	 1.496149359362695e+000	 4.968245286219736e+000
 4.774321027860006e-001	 1.500894262496902e+000	 4.821652715844669e+000
 4.627538018889859e-001	 1.505484612609940e+000	 4.683925643330378e+000
 4.480670718877432e-001	 1.509920825426997e+000	 4.554283483374833e+000
 4.333741883815754e-001	 1.514203359133739e+000	 4.431981695738803e+000
 5.889515352858046e-001	 1.487661281680043e+000	 6.241526820508576e+000
 5.741664640766192e-001	 1.493429901757344e+000	 5.997850494423402e+000
 5.593561452193646e-001	 1.499039927001826e+000	 5.772668921561546e+000
 5.445230090157411e-001	 1.504491506323362e+000	 5.564925826536395e+000
 5.296694719345811e-001	 1.509784835813656e+000	 5.373589971522613e+000
 5.147979355324239e-001	 1.514920158136628e+000	 5.197657128018835e+000
 4.999107853995727e-001	 1.519897761891342e+000	 5.036151938873835e+000
 4.850103901323574e-001	 1.524717980948560e+000	 4.888129668351461e+000
 4.700991003322840e-001	 1.529381193762066e+000	 4.752677838391862e+000
 4.551792476326934e-001	 1.533887822655857e+000	 4.628917749599769e+000
 4.402531437535119e-001	 1.538238333088388e+000	 4.516005885861610e+000
 5.981539030256632e-001	 1.510905989205208e+000	 6.379706273043803e+000
 5.831378150788742e-001	 1.516764743971375e+000	 6.113258789206182e+000
 5.680960849894999e-001	 1.522462425860463e+000	 5.869391645295170e+000
 5.530311810327057e-001	 1.527999186109062e+000	 5.646956302289357e+000
 5.379455574346491e-001	 1.533375223872810e+000	 5.444827519678367e+000
 5.228416532761906e-001	 1.538590785607250e+000	 5.261905513392842e+000
 5.077218914224817e-001	 1.543646164420804e+000	 5.097118000963022e+000
 4.925886774791707e-001	 1.548541699400969e+000	 4.949422131382033e+000
 4.774443987759117e-001	 1.553277774914866e+000	 4.817806297548315e+000
 4.622914233778167e-001	 1.557854819885305e+000	 4.701291829554359e+000
 4.471320991254359e-001	 1.562273307043531e+000	 4.598934567478357e+000
 6.073562707660272e-001	 1.534150696731373e+000	 6.494379784539846e+000
 5.921091660817187e-001	 1.540099586186401e+000	 6.208090144932932e+000
 5.768360247602784e-001	 1.545884924720079e+000	 5.948292305030851e+000
 5.615393530503368e-001	 1.551506865895717e+000	 5.713742393161748e+000
 5.462216429353762e-001	 1.556965611932881e+000	 5.503218273966040e+000
 5.308853710205788e-001	 1.562261413078743e+000	 5.315521895047820e+000
 5.155329974459447e-001	 1.567394566951083e+000	 5.149481517499375e+000
 5.001669648264403e-001	 1.572365417854128e+000	 5.003953827477540e+000
 4.847896972198684e-001	 1.577174356068340e+000	 4.877825926423894e+000
 4.694035991231128e-001	 1.581821817115343e+000	 4.770017197933944e+000
 4.540110544973472e-001	 1.586308280999167e+000	 4.679481049688604e+000
 6.165586385068961e-001	 1.557395404258538e+000	 6.583472617712761e+000
 6.010805170851529e-001	 1.563434428402422e+000	 6.280322179935239e+000
 5.855759645317007e-001	 1.569307423580675e+000	 6.007406662322611e+000
 5.700475250686342e-001	 1.575014545683324e+000	 5.763383683443688e+000
 5.544977284367622e-001	 1.580555999993871e+000	 5.546931211063301e+000
 5.389290887655882e-001	 1.585932040551108e+000	 5.356750100217565e+000
 5.233441034699614e-001	 1.591142969482178e+000	 5.191566511488566e+000
 5.077452521741661e-001	 1.596189136308037e+000	 5.050134206356399e+000
 4.921349956641547e-001	 1.601070937222489e+000	 4.931236716938081e+000
 4.765157748685817e-001	 1.605788814345969e+000	 4.833689387861016e+000
 4.608900098692462e-001	 1.610343254955298e+000	 4.756341288440789e+000
 6.257610062482705e-001	 1.580640111786703e+000	 6.634194450102660e+000
 6.100518680891768e-001	 1.586769270619437e+000	 6.327915176164292e+000
 5.943159043037662e-001	 1.592729922442250e+000	 6.044754752980703e+000
 5.785556970875980e-001	 1.598522225471885e+000	 5.793965269566744e+000
 5.627738139388073e-001	 1.604146388055779e+000	 5.574121686793528e+000
 5.469728065112193e-001	 1.609602668024345e+000	 5.383820833482713e+000
 5.311552094945318e-001	 1.614891372014088e+000	 5.221684014960012e+000
 5.153235395223486e-001	 1.620012854762697e+000	 5.086359494386668e+000
 4.994802941087702e-001	 1.624967518377312e+000	 4.976524843901743e+000
 4.836279506142236e-001	 1.629755811577184e+000	 4.890889163059941e+000
 4.677689652411324e-001	 1.634378228911922e+000	 4.828195162498780e+000
 6.349633739901497e-001	 1.603884819315868e+000	 6.533125729763882e+000
 6.190232190937902e-001	 1.610104112837447e+000	 6.348813335450351e+000
 6.030558440764752e-001	 1.616152421304804e+000	 6.058342026618806e+000
 5.870638691072284e-001	 1.622029905261401e+000	 5.803558809948565e+000
 5.710498994415116e-001	 1.627736776118604e+000	 5.582932423144232e+000
 5.550165242574715e-001	 1.633273295498454e+000	 5.394952627688227e+000
 5.389663155196562e-001	 1.638639774546815e+000	 5.238133010341635e+000
 5.229018268709871e-001	 1.643836573218106e+000	 5.111013652799754e+000
 5.068255925537150e-001	 1.648864099532809e+000	 5.012163666256644e+000
 4.907401263600386e-001	 1.653722808808989e+000	 4.940183588102888e+000
 4.746479206130062e-001	 1.658413202869040e+000	 4.893707638455362e+000
 6.441657417325339e-001	 1.627129526846032e+000	 6.395561574472646e+000
 6.279945700989932e-001	 1.633438955056451e+000	 6.297270692210863e+000
 6.117957838498271e-001	 1.639574920168338e+000	 6.046160388524861e+000
 5.955720411275249e-001	 1.645537585051869e+000	 5.790223484850981e+000
 5.793259849448746e-001	 1.651327164182347e+000	 5.571494410683903e+000
 5.630602420043452e-001	 1.656943922973434e+000	 5.388352713352466e+000
 5.467774215453343e-001	 1.662388177080357e+000	 5.239201291145599e+000
 5.304801142200819e-001	 1.667660291674264e+000	 5.122469253771421e+000
 5.141708909989889e-001	 1.672760680688981e+000	 5.036614642494796e+000
 4.978523021060263e-001	 1.677689806041381e+000	 4.980127006920989e+000
 4.815268759848673e-001	 1.682448176826651e+000	 4.951529835887479e+000
 4.127373222656903e-001	 1.442098437272754e+000	 4.185912318052262e+000
 3.987403871052226e-001	 1.446031155840163e+000	 4.017185701839522e+000
 3.847418665210725e-001	 1.449818504541092e+000	 3.858506459490886e+000
 3.707438666974945e-001	 1.453461036720863e+000	 3.709353634514795e+000
 3.567484718777408e-001	 1.456959343210722e+000	 3.569237650089046e+000
 3.427577436160290e-001	 1.460314051546807e+000	 3.437700913315753e+000
 3.287737200581077e-001	 1.463525825174172e+000	 3.314318326845625e+000
 3.147984152506362e-001	 1.466595362636951e+000	 3.198697708958346e+000
 3.008338184795510e-001	 1.469523396755786e+000	 3.090480123418105e+000
 2.868818936375487e-001	 1.472310693793589e+000	 2.989340120641469e+000
 2.729445786207708e-001	 1.474958052610726e+000	 2.894985891925494e+000
 4.196162776376646e-001	 1.466133411225922e+000	 4.265698253482744e+000
 4.053860602251623e-001	 1.470131675103331e+000	 4.102319777996591e+000
 3.911542309650638e-001	 1.473982146283010e+000	 3.948753261813868e+000
 3.769229311446958e-001	 1.477685387332699e+000	 3.804427683571800e+000
 3.626942797446992e-001	 1.481241998930835e+000	 3.668805457934420e+000
 3.484703726785305e-001	 1.484652619072495e+000	 3.541383089694153e+000
 3.342532820610354e-001	 1.487917922260148e+000	 3.421691729660662e+000
 3.200450555063190e-001	 1.491038618680334e+000	 3.309297633467352e+000
 3.058477154550850e-001	 1.494015453367372e+000	 3.203802524670576e+000
 2.916632585315764e-001	 1.496849205355224e+000	 3.104843863747939e+000
 2.774936549302054e-001	 1.499540686818598e+000	 3.012095024826079e+000
 4.264952330096262e-001	 1.490168385179584e+000	 4.348129935411151e+000
 4.120317333449102e-001	 1.494232194366904e+000	 4.191488283452957e+000
 3.975665954087251e-001	 1.498145788025262e+000	 4.044337444001527e+000
 3.831019955914701e-001	 1.501909737944822e+000	 3.906054214682039e+000
 3.686400876111748e-001	 1.505524654651208e+000	 3.776051016107433e+000
 3.541830017405331e-001	 1.508991186598434e+000	 3.653776596844916e+000
 3.397328440634883e-001	 1.512310019346387e+000	 3.538716634341937e+000
 3.252916957615905e-001	 1.515481874724010e+000	 3.430394232988975e+000
 3.108616124303107e-001	 1.518507509979303e+000	 3.328370320753801e+000
 2.964446234254379e-001	 1.521387716917276e+000	 3.232243946068707e+000
 2.820427312396547e-001	 1.524123321026976e+000	 3.141652476888373e+000
 4.333741883815754e-001	 1.514203359133739e+000	 4.431981695738803e+000
 4.186774064644662e-001	 1.518332713630881e+000	 4.283542755002989e+000
 4.039789598520567e-001	 1.522309429767849e+000	 4.144187733803032e+000
 3.892810600378178e-001	 1.526134088557231e+000	 4.013239063256271e+000
 3.745858954771670e-001	 1.529807310371839e+000	 3.890057116790334e+000
 3.598956308020366e-001	 1.533329754124622e+000	 3.774040967044166e+000
 3.452124060654659e-001	 1.536702116432889e+000	 3.664629032651023e+000
 3.305383360164507e-001	 1.539925130767982e+000	 3.561299616129720e+000
 3.158755094052283e-001	 1.542999566591581e+000	 3.463571334384403e+000
 3.012259883191334e-001	 1.545926228479745e+000	 3.371003443574091e+000
 2.865918075491187e-001	 1.548705955235862e+000	 3.283196060359998e+000
 4.402531437535119e-001	 1.538238333088388e+000	 4.516005885861610e+000
 4.253230795838304e-001	 1.542433232895262e+000	 4.377312733948530e+000
 4.103913242950587e-001	 1.546473071510771e+000	 4.247210768946920e+000
 3.954601244837387e-001	 1.550358439169926e+000	 4.124965801268503e+000
 3.805317033426763e-001	 1.554089966092728e+000	 4.009884037116311e+000
 3.656082598630410e-001	 1.557668321651062e+000	 3.901312888439936e+000
 3.506919680669687e-001	 1.561094213519652e+000	 3.798641666440994e+000
 3.357849762708998e-001	 1.564368386812248e+000	 3.701302159906781e+000
 3.208894063798377e-001	 1.567491623204204e+000	 3.608769099943891e+000
 3.060073532126628e-001	 1.570464740042630e+000	 3.520560512954870e+000
 2.911408838585973e-001	 1.573288589445256e+000	 3.436237963965441e+000
 4.471320991254359e-001	 1.562273307043531e+000	 4.598934567478357e+000
 4.319687527030028e-001	 1.566533752160047e+000	 4.471607458060260e+000
 4.168036887377308e-001	 1.570636713254029e+000	 4.352292796373498e+000
 4.016391889292327e-001	 1.574582789782909e+000	 4.240197449827890e+000
 3.864775112077025e-001	 1.578372621813876e+000	 4.134571271095990e+000
 3.713208889235464e-001	 1.582006889177752e+000	 4.034707962292383e+000
 3.561715300679963e-001	 1.585486310606679e+000	 3.939945816110607e+000
 3.410316165249374e-001	 1.588811642856808e+000	 3.849668335255247e+000
 3.259033033541388e-001	 1.591983679817174e+000	 3.763304731811977e+000
 3.107887181060262e-001	 1.595003251605934e+000	 3.680330308490095e+000
 2.956899601680905e-001	 1.597871223655156e+000	 3.600266723946168e+000
 4.540110544973472e-001	 1.586308280999167e+000	 4.679481049688604e+000
 4.386144258219834e-001	 1.590634271425237e+000	 4.565217399723623e+000
 4.232160531800732e-001	 1.594800354997621e+000	 4.458301216991593e+000
 4.078182533743002e-001	 1.598807140396178e+000	 4.357878036062485e+000
 3.924233190722454e-001	 1.602655277535282e+000	 4.263139104096729e+000
 3.770335179835526e-001	 1.606345456704692e+000	 4.173322300465288e+000
 3.616510920685490e-001	 1.609878407693967e+000	 4.087712926472435e+000
 3.462782567785638e-001	 1.613254898901663e+000	 4.005644366579566e+000
 3.309172003281319e-001	 1.616475736430489e+000	 3.926498622851669e+000
 3.155700829992234e-001	 1.619541763169653e+000	 3.849706724653795e+000
 3.002390364775985e-001	 1.622453857865564e+000	 3.774749015915536e+000
 4.608900098692462e-001	 1.610343254955298e+000	 4.756341288440789e+000
 4.452600989407723e-001	 1.614734790690830e+000	 4.656915666340948e+000
 4.296284176220858e-001	 1.618963996741549e+000	 4.564085992098674e+000
 4.139973178189407e-001	 1.623031491009734e+000	 4.476934010580613e+000
 3.983691269363054e-001	 1.626937933256947e+000	 4.394590046323276e+000
 3.827461470430598e-001	 1.630684024231883e+000	 4.316233979858968e+000
 3.671306540686266e-001	 1.634270504781519e+000	 4.241096087020299e+000
 3.515248970317790e-001	 1.637698154946812e+000	 4.168457742688950e+000
 3.359310973018168e-001	 1.640967793044150e+000	 4.097651990791289e+000
 3.203514478922546e-001	 1.644080274733790e+000	 4.028063982667938e+000
 3.047881127871212e-001	 1.647036492076480e+000	 3.959131286248785e+000
 4.677689652411324e-001	 1.634378228911922e+000	 4.828195162498780e+000
 4.519057720593694e-001	 1.638835309956827e+000	 4.745459277168330e+000
 4.360407820637686e-001	 1.643127638485812e+000	 4.668480925705421e+000
 4.201763822631546e-001	 1.647255841623576e+000	 4.596275539861845e+000
 4.043149347998824e-001	 1.651220588978870e+000	 4.527910139815140e+000
 3.884587761020679e-001	 1.655022591759324e+000	 4.462504368510265e+000
 3.726102160682291e-001	 1.658662601869333e+000	 4.399231381585180e+000
 3.567715372845828e-001	 1.662141410992255e+000	 4.337318594414374e+000
 3.409449942751933e-001	 1.665459849658157e+000	 4.276048288160487e+000
 3.251328127851196e-001	 1.668618786298344e+000	 4.214758077064872e+000
 3.093371890966585e-001	 1.671619126287902e+000	 4.152841239527318e+000
 4.746479206130062e-001	 1.658413202869040e+000	 4.893707638455362e+000
 4.585514451777746e-001	 1.662935829223229e+000	 4.829590329123262e+000
 4.424531465051217e-001	 1.667291280230410e+000	 4.770304835353305e+000
 4.263554467069418e-001	 1.671480192237705e+000	 4.714797686266556e+000
 4.102607426629760e-001	 1.675503244701051e+000	 4.662070151791775e+000
 3.941714051605769e-001	 1.679361159287015e+000	 4.611179336379951e+000
 3.780897780673568e-001	 1.683054698957408e+000	 4.561239120629643e+000
 3.620181775369755e-001	 1.686584667037993e+000	 4.511420952433321e+000
 3.459588912482618e-001	 1.689951906272510e+000	 4.460954489623992e+000
 3.299141776778187e-001	 1.693157297863315e+000	 4.409128096462109e+000
 3.138862654062104e-001	 1.696201760499832e+000	 4.355289196639537e+000
 4.815268759848673e-001	 1.682448176826651e+000	 4.951529835887479e+000
 4.651971182959880e-001	 1.687036348490034e+000	 4.908037062665914e+000
 4.488655109461449e-001	 1.691454921975343e+000	 4.868362622576997e+000
 4.325345111503020e-001	 1.695704542852121e+000	 4.831381486901462e+000
 4.162065505255868e-001	 1.699785900423492e+000	 4.796026665711634e+000
 3.998840342185868e-001	 1.703699726814957e+000	 4.761290362358050e+000
 3.835693400660092e-001	 1.707446796045747e+000	 4.726224967916982e+000
 3.672648177889567e-001	 1.711027923084024e+000	 4.689943897280863e+000
 3.509727882210220e-001	 1.714443962887209e+000	 4.651622268971613e+000
 3.346955425703515e-001	 1.717695809428702e+000	 4.610497431127543e+000
 3.184353417157770e-001	 1.720784394712270e+000	 4.565869336473270e+000
 2.729445786207708e-001	 1.474958052610726e+000	 2.894985891925494e+000
 2.590237847553507e-001	 1.477466303810354e+000	 2.791349539548282e+000
 2.451213962520330e-001	 1.479836308875993e+000	 2.691745118156255e+000
 2.312392696899346e-001	 1.482068959301720e+000	 2.596034379668445e+000
 2.173792335306684e-001	 1.484165175715299e+000	 2.504114156662938e+000
 2.035430876609112e-001	 1.486125906996327e+000	 2.415916024039638e+000
 1.897326029638498e-001	 1.487952129390018e+000	 2.331405887980449e+000
 1.759495209193238e-001	 1.489644845617649e+000	 2.250583505193509e+000
 1.621955532324469e-001	 1.491205083984588e+000	 2.173481935529221e+000
 1.484723814904559e-001	 1.492633897486894e+000	 2.100166931142210e+000
 1.347816568475081e-001	 1.493932362917365e+000	 2.030736265450424e+000
 2.774936549302054e-001	 1.499540686818598e+000	 3.012095024826079e+000
 2.633408478327074e-001	 1.502090742204176e+000	 2.912008595299344e+000
 2.492067528535041e-001	 1.504500247353678e+000	 2.817073966550507e+000
 2.350932575146959e-001	 1.506770108619411e+000	 2.727106615906172e+000
 2.210022207522551e-001	 1.508901261972938e+000	 2.641958242426139e+000
 2.069354724509681e-001	 1.510894672108512e+000	 2.561516467732812e+000
 1.928948130087403e-001	 1.512751331542102e+000	 2.485704459940218e+000
 1.788820129300739e-001	 1.514472259707000e+000	 2.414480483743410e+000
 1.648988124484995e-001	 1.516058502047001e+000	 2.347837379842598e+000
 1.509469211777067e-001	 1.517511129108093e+000	 2.285801976968362e+000
 1.370280177910873e-001	 1.518831235629623e+000	 2.228434439859419e+000
 2.820427312396547e-001	 1.524123321026976e+000	 3.141652476888373e+000
 2.676579109102633e-001	 1.526715180598594e+000	 3.045472916742023e+000
 2.532921094553274e-001	 1.529164185832027e+000	 2.955407380988598e+000
 2.389472453399321e-001	 1.531471257937816e+000	 2.871224848507496e+000
 2.246252079744084e-001	 1.533637348231319e+000	 2.792731815308307e+000
 2.103278572416534e-001	 1.535663437221447e+000	 2.719772032416861e+000
 1.960570230542908e-001	 1.537550533694922e+000	 2.652226162465135e+000
 1.818145049414857e-001	 1.539299673797057e+000	 2.590011358133318e+000
 1.676020716651864e-001	 1.540911920110067e+000	 2.533080765711362e+000
 1.534214608655350e-001	 1.542388360729875e+000	 2.481422957150143e+000
 1.392743787351581e-001	 1.543730108342372e+000	 2.435061294061481e+000
 2.865918075491187e-001	 1.548705955235862e+000	 3.283196060359998e+000
 2.719749739880180e-001	 1.551339618993610e+000	 3.191359005748589e+000
 2.573774660575030e-001	 1.553828124311042e+000	 3.106442629918290e+000
 2.428012331656429e-001	 1.556172407256935e+000	 3.028169112376143e+000
 2.282481951971284e-001	 1.558373434490442e+000	 2.956299600417434e+000
 2.137202420329668e-001	 1.560432202335132e+000	 2.890633982008886e+000
 1.992192331005010e-001	 1.562349735848479e+000	 2.831010572783064e+000
 1.847469969535592e-001	 1.564127087887819e+000	 2.777305720385497e+000
 1.703053308825072e-001	 1.565765338173787e+000	 2.729433329546819e+000
 1.558960005539406e-001	 1.567265592352239e+000	 2.687344311361202e+000
 1.415207396797206e-001	 1.568628981055612e+000	 2.651025960348958e+000
 2.911408838585973e-001	 1.573288589445256e+000	 3.436237963965441e+000
 2.762920370659718e-001	 1.575964057389222e+000	 3.349256681278196e+000
 2.614628226600309e-001	 1.578492062790723e+000	 3.269848999317912e+000
 2.466552209918285e-001	 1.580873556576769e+000	 3.197689922903775e+000
 2.318711824204150e-001	 1.583109520750306e+000	 3.132495031596526e+000
 2.171126268249085e-001	 1.585200967449566e+000	 3.074020285570130e+000
 2.023814431473711e-001	 1.587148938002775e+000	 3.022061740797998e+000
 1.876794889662944e-001	 1.588954501979286e+000	 2.976455176901123e+000
 1.730085901004622e-001	 1.590618756238159e+000	 2.937075641142518e+000
 1.583705402429235e-001	 1.592142823975185e+000	 2.903836912169566e+000
 1.437671006247749e-001	 1.593527853769345e+000	 2.876690887212138e+000
 2.956899601680905e-001	 1.597871223655156e+000	 3.600266723946168e+000
 2.806091001441247e-001	 1.600588495785431e+000	 3.518731131908565e+000
 2.655481792629111e-001	 1.603156001271070e+000	 3.445269945194459e+000
 2.505092088184888e-001	 1.605574705897316e+000	 3.379510546701607e+000
 2.354941696442682e-001	 1.607845607010912e+000	 3.321122658444314e+000
 2.205050116174784e-001	 1.609969732564750e+000	 3.269818178448591e+000
 2.055436531949010e-001	 1.611948140157806e+000	 3.225350921960819e+000
 1.906119809796914e-001	 1.613781916071458e+000	 3.187516270431026e+000
 1.757118493190514e-001	 1.615472174303186e+000	 3.156150731875600e+000
 1.608450799324837e-001	 1.617020055598714e+000	 3.131131416353491e+000
 1.460134615703208e-001	 1.618426726483569e+000	 3.112375430400859e+000
 3.002390364775985e-001	 1.622453857865564e+000	 3.774749015915536e+000
 2.849261632224765e-001	 1.625212934182237e+000	 3.699324781774215e+000
 2.696335358661434e-001	 1.627819939752082e+000	 3.632325050399345e+000
 2.543631966456239e-001	 1.630275855218577e+000	 3.573329065902083e+000
 2.391171568686881e-001	 1.632581693272261e+000	 3.521960334515445e+000
 2.238973964106766e-001	 1.634738497680683e+000	 3.477886490590810e+000
 2.087058632430907e-001	 1.636747342313575e+000	 3.440819061698105e+000
 1.935444729937499e-001	 1.638609330164335e+000	 3.410513136412749e+000
 1.784151085382746e-001	 1.640325592368866e+000	 3.386766938526004e+000
 1.633196196226213e-001	 1.641897287222824e+000	 3.369421311552096e+000
 1.482598225163585e-001	 1.643325599198285e+000	 3.358359117525996e+000
 3.047881127871212e-001	 1.647036492076480e+000	 3.959131286248785e+000
 2.892432263010272e-001	 1.649837372579640e+000	 3.890558989405485e+000
 2.737188924697281e-001	 1.652483878233760e+000	 3.830611806207384e+000
 2.582171844732336e-001	 1.654977004540552e+000	 3.778820257597438e+000
 2.427401440936745e-001	 1.657317779534351e+000	 3.734761209562435e+000
 2.272897812045030e-001	 1.659507262797366e+000	 3.698057766347781e+000
 2.118680732919404e-001	 1.661546544470082e+000	 3.668379057353665e+000
 1.964769650084701e-001	 1.663436744257918e+000	 3.645439921426871e+000
 1.811183677581319e-001	 1.665179010435199e+000	 3.629000492425782e+000
 1.657941593133362e-001	 1.666774518847516e+000	 3.618865690081733e+000
 1.505061834628878e-001	 1.668224471913492e+000	 3.614884620308627e+000
 3.093371890966585e-001	 1.671619126287902e+000	 4.152841239527318e+000
 2.935602893797771e-001	 1.674461810977640e+000	 4.091935596669829e+000
 2.778042490736651e-001	 1.677147816716104e+000	 4.039707236697395e+000
 2.620711723013180e-001	 1.679678153863241e+000	 3.995637307445854e+000
 2.463631313192277e-001	 1.682053865797183e+000	 3.959255545992002e+000
 2.306821659989576e-001	 1.684276027914798e+000	 3.930140197239431e+000
 2.150302833414497e-001	 1.686345746627326e+000	 3.907917820547885e+000
 1.994094570238521e-001	 1.688264158352205e+000	 3.892262988259898e+000
 1.838216269786233e-001	 1.690032428502185e+000	 3.882897880153532e+000
 1.682686990046285e-001	 1.691651750472792e+000	 3.879591778003878e+000
 1.527525444099089e-001	 1.693123344629191e+000	 3.882160464571806e+000
 3.138862654062104e-001	 1.696201760499832e+000	 4.355289196639537e+000
 2.978773524587259e-001	 1.699086249376236e+000	 4.302938343023043e+000
 2.818896056779544e-001	 1.701811755199113e+000	 4.259169381882303e+000
 2.659251601298772e-001	 1.704379303186644e+000	 4.223413374267804e+000
 2.499861185453474e-001	 1.706789952060757e+000	 4.195152377367958e+000
 2.340745507940405e-001	 1.709044793032980e+000	 4.173919386652433e+000
 2.181924933916190e-001	 1.711144948785307e+000	 4.159298160201152e+000
 2.023419490398958e-001	 1.713091572447198e+000	 4.150922929222696e+000
 1.865248861997488e-001	 1.714885846569825e+000	 4.148477998951416e+000
 1.707432386964981e-001	 1.716528982098648e+000	 4.151697244273698e+000
 1.549989053574216e-001	 1.718022217345382e+000	 4.160363504581092e+000
 3.184353417157770e-001	 1.720784394712270e+000	 4.565869336473270e+000
 3.021944155378737e-001	 1.723710687775430e+000	 4.523034158538560e+000
 2.859749622825958e-001	 1.726475693682788e+000	 4.488538653713807e+000
 2.697791479589111e-001	 1.729080452510761e+000	 4.461763020534632e+000
 2.536091057720337e-001	 1.731526038325072e+000	 4.442141024757577e+000
 2.374669355897515e-001	 1.733813558151911e+000	 4.429159963278339e+000
 2.213547034424480e-001	 1.735944150944025e+000	 4.422360504154913e+000
 2.052744410566011e-001	 1.737918986542895e+000	 4.421336406898572e+000
 1.892281454215084e-001	 1.739739264638118e+000	 4.425734127391782e+000
 1.732177783889451e-001	 1.741406213725087e+000	 4.435252311962203e+000
 1.572452663054261e-001	 1.742921090062064e+000	 4.449641185298416e+000
 1.347816568475081e-001	 1.493932362917365e+000	 2.030736265450424e+000
 1.211249997365069e-001	 1.495101579972037e+000	 1.959222332986576e+000
 1.075039996094458e-001	 1.496142670357773e+000	 1.890245421590836e+000
 9.392021470467529e-002	 1.497056776901965e+000	 1.824006825647787e+000
 8.037517183948741e-002	 1.497845062665274e+000	 1.760738178843936e+000
 6.687036622943428e-002	 1.498508710058030e+000	 1.700700481344139e+000
 5.340726133332961e-002	 1.499048919961125e+000	 1.644183086681764e+000
 3.998728872347090e-002	 1.499466910852138e+000	 1.591502651886531e+000
 2.661184798060256e-002	 1.499763917937433e+000	 1.543002054352508e+000
 1.328230661312030e-002	 1.499941192290897e+000	 1.499049278919439e+000
 0.000000000000000e+000	 1.500000000000000e+000	 1.460036278600899e+000
 1.370280177910873e-001	 1.518831235629623e+000	 2.228434439859419e+000
 1.231437497286795e-001	 1.520019939635790e+000	 2.169282055770692e+000
 1.092957329332651e-001	 1.521078381528475e+000	 2.112954287330592e+000
 9.548555161383368e-002	 1.522007723182194e+000	 2.059631358955719e+000
 8.171475803463210e-002	 1.522809147041951e+000	 2.009525310020737e+000
 6.798487233147189e-002	 1.523483855224919e+000	 1.962879008840813e+000
 5.429738235414697e-002	 1.524033068626668e+000	 1.919965123486031e+000
 4.065374353449325e-002	 1.524458026032741e+000	 1.881085053099858e+000
 2.705537877960094e-002	 1.524759983236272e+000	 1.846567823373179e+000
 1.350367838967245e-002	 1.524940212162382e+000	 1.816768949797715e+000
 0.000000000000000e+000	 1.525000000000000e+000	 1.792069272282467e+000
 1.392743787351581e-001	 1.543730108342372e+000	 2.435061294061481e+000
 1.251624997212492e-001	 1.544938299299939e+000	 2.387577461161854e+000
 1.110874662573970e-001	 1.546014092699489e+000	 2.343064705267670e+000
 9.705088852323057e-002	 1.546958669462661e+000	 2.301683055887304e+000
 8.305434422995146e-002	 1.547773231418804e+000	 2.263625957337380e+000
 6.909937843363034e-002	 1.548459000391928e+000	 2.229119266166924e+000
 5.518750337504139e-002	 1.549017217292288e+000	 2.198420202426839e+000
 4.132019834555879e-002	 1.549449141213386e+000	 2.171816258612618e+000
 2.749890957861846e-002	 1.549756048535131e+000	 2.149624070091618e+000
 1.372505016622937e-002	 1.549939232033873e+000	 2.132188250796716e+000
 0.000000000000000e+000	 1.550000000000000e+000	 2.119880197930995e+000
 1.415207396797206e-001	 1.568628981055612e+000	 2.651025960348958e+000
 1.271812497142158e-001	 1.569856658964486e+000	 2.614589101651074e+000
 1.128791995818416e-001	 1.570949803870817e+000	 2.581129426013690e+000
 9.861622543286597e-002	 1.571909615743367e+000	 2.550787592988753e+000
 8.439393042544542e-002	 1.572737315795831e+000	 2.523739402362652e+000
 7.021388453590964e-002	 1.573434145559058e+000	 2.500194771665812e+000
 5.607762439601290e-002	 1.574001365957986e+000	 2.480396664432564e+000
 4.198665315666754e-002	 1.574440256394076e+000	 2.464619973205250e+000
 2.794244037765511e-002	 1.574752113834009e+000	 2.453170361261065e+000
 1.394642194279106e-002	 1.574938251905368e+000	 2.446383067012795e+000
 0.000000000000000e+000	 1.575000000000000e+000	 2.444621674997166e+000
 1.437671006247749e-001	 1.593527853769345e+000	 2.876690887212138e+000
 1.291999997075793e-001	 1.594775018629429e+000	 2.850749059718193e+000
 1.146709329065987e-001	 1.595885515042456e+000	 2.827650770532026e+000
 1.001815623427399e-001	 1.596860562024310e+000	 2.807518086599336e+000
 8.573351662111400e-002	 1.597701400173032e+000	 2.790510067538623e+000
 7.132839063830979e-002	 1.598409290726309e+000	 2.776821719885187e+000
 5.696774541706148e-002	 1.598985514623761e+000	 2.766682898879258e+000
 4.265310796781948e-002	 1.599431371574808e+000	 2.760357161966996e+000
 2.838597117671090e-002	 1.599748179132905e+000	 2.758140578171598e+000
 1.416779371935751e-002	 1.599937271776867e+000	 2.760360497462695e+000
 0.000000000000000e+000	 1.600000000000000e+000	 2.767374284216051e+000
 1.460134615703208e-001	 1.618426726483569e+000	 3.112375430400859e+000
 1.312187497013398e-001	 1.619693378294770e+000	 3.096444676294158e+000
 1.164626662316684e-001	 1.620821226214409e+000	 3.083084509341614e+000
 1.017468992528523e-001	 1.621811508305493e+000	 3.072399135944142e+000
 8.707310281695728e-002	 1.622665484550408e+000	 3.064531736113230e+000
 7.244289674083079e-002	 1.623384435893682e+000	 3.059663391100052e+000
 5.785786643818713e-002	 1.623969663289613e+000	 3.058011955248331e+000
 4.331956277901462e-002	 1.624422486755583e+000	 3.059830876425835e+000
 2.882950197578580e-002	 1.624744244431821e+000	 3.065407969378133e+000
 1.438916549592873e-002	 1.624936291648372e+000	 3.075064146320424e+000
 0.000000000000000e+000	 1.625000000000000e+000	 3.089152109046859e+000
 1.482598225163585e-001	 1.643325599198285e+000	 3.358359117525996e+000
 1.332374996954973e-001	 1.644611737960508e+000	 3.352021940272227e+000
 1.182543995570507e-001	 1.645756937386673e+000	 3.347843389065605e+000
 1.033122361632033e-001	 1.646762454586914e+000	 3.345910498673045e+000
 8.841268901297512e-002	 1.647629568927959e+000	 3.346351388442998e+000
 7.355740284347266e-002	 1.648359581061175e+000	 3.349334159969449e+000
 5.874798745938984e-002	 1.648953811955541e+000	 3.355065735542757e+000
 4.398601759025297e-002	 1.649413601936402e+000	 3.363790641939590e+000
 2.927303277487985e-002	 1.649740309730756e+000	 3.375789744089464e+000
 1.461053727250472e-002	 1.649935311519882e+000	 3.391378933132673e+000
 0.000000000000000e+000	 1.650000000000000e+000	 3.410907773345278e+000
 1.505061834628878e-001	 1.668224471913492e+000	 3.614884620308627e+000
 1.352562496900517e-001	 1.669530097626642e+000	 3.617788574480966e+000
 1.200461328827456e-001	 1.670692648559252e+000	 3.622300343169743e+000
 1.048775730737928e-001	 1.671713400868574e+000	 3.628490437246757e+000
 8.975227520916763e-002	 1.672593653305685e+000	 3.636472694746114e+000
 7.467190894623535e-002	 1.673334726228788e+000	 3.646403145209367e+000
 5.963810848066963e-002	 1.673937960621547e+000	 3.658478811263204e+000
 4.465247240153452e-002	 1.674404717117263e+000	 3.672936452186170e+000
 2.971656357399303e-002	 1.674736375029710e+000	 3.690051254208784e+000
 1.483190904908547e-002	 1.674934331391396e+000	 3.710135472268393e+000
 0.000000000000000e+000	 1.675000000000000e+000	 3.733537027901060e+000
 1.527525444099089e-001	 1.693123344629191e+000	 3.882160464571806e+000
 1.372749996850031e-001	 1.694448457293173e+000	 3.894016849365264e+000
 1.218378662087531e-001	 1.695628359732141e+000	 3.906791419400500e+000
 1.064429099846207e-001	 1.696664347150472e+000	 3.920538770053907e+000
 9.109186140553478e-002	 1.697557737683585e+000	 3.935359199671210e+000
 7.578641504911890e-002	 1.698309871396523e+000	 3.951397537235578e+000
 6.052822950202649e-002	 1.698922109287630e+000	 3.968841903591851e+000
 4.531892721285927e-002	 1.699395832298169e+000	 3.987922411198788e+000
 3.016009437312533e-002	 1.699732440328683e+000	 4.008909807371079e+000
 1.505328082567098e-002	 1.699933351262914e+000	 4.032114065946952e+000
 0.000000000000000e+000	 1.700000000000000e+000	 4.057882932281109e+000
 1.549989053574216e-001	 1.718022217345382e+000	 4.160363504581092e+000
 1.392937496803514e-001	 1.719366816960102e+000	 4.180946151999941e+000
 1.236295995350731e-001	 1.720564070905344e+000	 4.201618452663293e+000
 1.080082468956872e-001	 1.721615293432609e+000	 4.222419657212939e+000
 9.243144760207650e-002	 1.722521822061659e+000	 4.243437229947467e+000
 7.690092115212330e-002	 1.723285016564378e+000	 4.264805636446448e+000
 6.141835052346044e-002	 1.723906257953790e+000	 4.286705060951716e+000
 4.598538202422721e-002	 1.724386947479116e+000	 4.309360058702580e+000
 3.060362517227677e-002	 1.724728505627675e+000	 4.333038148411720e+000
 1.527465260226126e-002	 1.724932371134438e+000	 4.358048350045605e+000
 0.000000000000000e+000	 1.725000000000000e+000	 4.384739673033988e+000
 1.572452663054261e-001	 1.742921090062064e+000	 4.449641185298416e+000
 1.413124996760967e-001	 1.744285176627427e+000	 4.478785334901396e+000
 1.254213328617058e-001	 1.745499782078859e+000	 4.507051508796583e+000
 1.095735838069922e-001	 1.746566239714984e+000	 4.534464147591793e+000
 9.377103379879290e-002	 1.747485906439909e+000	 4.561098552807352e+000
 7.801542725524854e-002	 1.748260161732354e+000	 4.587079631080847e+000
 6.230847154497145e-002	 1.748890406620027e+000	 4.612580564203870e+000
 4.665183683563836e-002	 1.749378062660108e+000	 4.637821410422412e+000
 3.104715597144734e-002	 1.749724570926687e+000	 4.663067642423654e+000
 1.549602437885631e-002	 1.749931391005967e+000	 4.688628627410006e+000
 0.000000000000000e+000	 1.750000000000000e+000	 4.714856054619843e+000
 1.750000000000000e+000	 0.000000000000000e+000	 1.347297862306072e+001
 1.749931391005967e+000	 1.549602437885581e-002	 1.348119029311303e+001
 1.749724570926687e+000	 3.104715597144690e-002	 1.348841610888200e+001
 1.749378062660108e+000	 4.665183683563796e-002	 1.349448553639472e+001
 1.748890406620027e+000	 6.230847154497111e-002	 1.349922338100417e+001
 1.748260161732354e+000	 7.801542725524825e-002	 1.350244975666088e+001
 1.747485906439909e+000	 9.377103379879266e-002	 1.350398005971395e+001
 1.746566239714984e+000	 1.095735838069920e-001	 1.350362494753133e+001
 1.745499782078859e+000	 1.254213328617057e-001	 1.350119032223296e+001
 1.744285176627427e+000	 1.413124996760966e-001	 1.349647731983538e+001
 1.742921090062065e+000	 1.572452663054261e-001	 1.348928230510907e+001
 1.775000000000000e+000	 0.000000000000000e+000	 1.335970383817985e+001
 1.774930410877498e+000	 1.571739615545324e-002	 1.336892212883856e+001
 1.774720636225708e+000	 3.149068677062703e-002	 1.337716646884699e+001
 1.774369177841122e+000	 4.731829164707072e-002	 1.338426049192383e+001
 1.773874555286303e+000	 6.319859256652066e-002	 1.339002303389699e+001
 1.773235306900391e+000	 7.912993335843395e-002	 1.339426810157190e+001
 1.772449990818246e+000	 9.511061999559638e-002	 1.339680484626969e+001
 1.771517185997479e+000	 1.111389207184163e-001	 1.339743754233379e+001
 1.770435493252530e+000	 1.272130661884946e-001	 1.339596557090827e+001
 1.769203536294951e+000	 1.433312496720404e-001	 1.339218340929540e+001
 1.767819962778993e+000	 1.594916272536765e-001	 1.338588062620383e+001
 1.800000000000000e+000	 0.000000000000000e+000	 1.325664231974637e+001
 1.799929430749029e+000	 1.593876793205066e-002	 1.326645222897947e+001
 1.799716701524729e+000	 3.193421756980716e-002	 1.327530872789101e+001
 1.799360293022134e+000	 4.798474645850345e-002	 1.328302995526918e+001
 1.798858703952579e+000	 6.408871358807020e-002	 1.328942911341062e+001
 1.798210452068427e+000	 8.024443946161962e-002	 1.329431443617717e+001
 1.797414075196582e+000	 9.645020619240008e-002	 1.329748916185410e+001
 1.796468132279973e+000	 1.127042576298405e-001	 1.329875151111780e+001
 1.795371204426202e+000	 1.290047995152835e-001	 1.329789467042612e+001
 1.794121895962474e+000	 1.453499996679842e-001	 1.329470678114885e+001
 1.792718835495921e+000	 1.617379882019268e-001	 1.328897093475953e+001
 1.825000000000000e+000	 0.000000000000000e+000	 1.316324477977509e+001
 1.824928450620559e+000	 1.616013970864808e-002	 1.317323877299540e+001
 1.824712766823750e+000	 3.237774836898728e-002	 1.318230841037696e+001
 1.824351408203147e+000	 4.865120126993620e-002	 1.319026667032000e+001
 1.823842852618855e+000	 6.497883460961976e-002	 1.319692145473828e+001
 1.823185597236464e+000	 8.135894556480529e-002	 1.320207555589629e+001
 1.822378159574919e+000	 9.778979238920375e-002	 1.320552662817074e+001
 1.821419078562467e+000	 1.142695945412647e-001	 1.320706716505440e+001
 1.820306915599873e+000	 1.307965328420725e-001	 1.320648448172568e+001
 1.819040255629999e+000	 1.473687496639279e-001	 1.320356070351197e+001
 1.817617708212850e+000	 1.639843491501772e-001	 1.319807276057872e+001
 1.850000000000000e+000	 0.000000000000000e+000	 1.307899162152322e+001
 1.849927470492090e+000	 1.638151148524551e-002	 1.308876893113865e+001
 1.849708832122770e+000	 3.282127916816741e-002	 1.309765934059219e+001
 1.849342523384160e+000	 4.931765608136893e-002	 1.310547099996824e+001
 1.848827001285130e+000	 6.586895563116929e-002	 1.311200684146615e+001
 1.848160742404501e+000	 8.247345166799099e-002	 1.311706454461004e+001
 1.847342243953256e+000	 9.912937858600747e-002	 1.312043650649678e+001
 1.846370024844962e+000	 1.158349314526890e-001	 1.312190981741103e+001
 1.845242626773545e+000	 1.325882661688615e-001	 1.312126624214124e+001
 1.843958615297522e+000	 1.493874996598717e-001	 1.311828220733605e+001
 1.842516580929779e+000	 1.662307100984275e-001	 1.311272879524406e+001
 1.875000000000000e+000	 0.000000000000000e+000	 1.300339096007423e+001
 1.874926490363621e+000	 1.660288326184293e-002	 1.301255693173471e+001
 1.874704897421792e+000	 3.326480996734755e-002	 1.302088175608705e+001
 1.874333638565173e+000	 4.998411089280167e-002	 1.302816908484183e+001
 1.873811149951406e+000	 6.675907665271885e-002	 1.303421720901388e+001
 1.873135887572538e+000	 8.358795777117666e-002	 1.303881902209630e+001
 1.872306328331592e+000	 1.004689647828112e-001	 1.304176198837810e+001
 1.871320971127457e+000	 1.174002683641133e-001	 1.304282811674500e+001
 1.870178337947217e+000	 1.343799994956504e-001	 1.304179394030918e+001
 1.868876974965046e+000	 1.514062496558155e-001	 1.303843050221834e+001
 1.867415453646707e+000	 1.684770710466778e-001	 1.303250334799956e+001
 1.900000000000000e+000	 0.000000000000000e+000	 1.287126351382028e+001
 1.899925510235152e+000	 1.682425503844034e-002	 1.287895443375487e+001
 1.899700962720813e+000	 3.370834076652769e-002	 1.288638763721115e+001
 1.899324753746186e+000	 5.065056570423442e-002	 1.289337167347475e+001
 1.898795298617682e+000	 6.764919767426840e-002	 1.289970492069345e+001
 1.898111032740575e+000	 8.470246387436234e-002	 1.290517556070474e+001
 1.897270412709929e+000	 1.018085509796149e-001	 1.290956157273482e+001
 1.896271917409951e+000	 1.189656052755375e-001	 1.291263074670951e+001
 1.895114049120888e+000	 1.361717328224393e-001	 1.291414071689690e+001
 1.893795334632570e+000	 1.534249996517592e-001	 1.291383901657764e+001
 1.892314326363635e+000	 1.707234319949282e-001	 1.291146315441227e+001
 1.925000000000000e+000	 0.000000000000000e+000	 1.274695752788870e+001
 1.924924530106683e+000	 1.704562681503777e-002	 1.275289928016579e+001
 1.924697028019834e+000	 3.415187156570781e-002	 1.275878630562713e+001
 1.924315868927199e+000	 5.131702051566717e-002	 1.276441895106576e+001
 1.923779447283957e+000	 6.853931869581795e-002	 1.276958688599400e+001
 1.923086177908611e+000	 8.581696997754799e-002	 1.277406907586914e+001
 1.922234497088266e+000	 1.031481371764186e-001	 1.277763377504449e+001
 1.921222863692445e+000	 1.205309421869617e-001	 1.278003854021853e+001
 1.920049760294560e+000	 1.379634661492283e-001	 1.278103026513373e+001
 1.918713694300094e+000	 1.554437496477030e-001	 1.278034523725193e+001
 1.917213199080564e+000	 1.729697929431785e-001	 1.277770921710502e+001
 1.950000000000000e+000	 0.000000000000000e+000	 1.263005386946710e+001
 1.949923549978213e+000	 1.726699859163519e-002	 1.263418201947206e+001
 1.949693093318855e+000	 3.459540236488794e-002	 1.263847461939508e+001
 1.949306984108212e+000	 5.198347532709990e-002	 1.264272386961173e+001
 1.948763595950233e+000	 6.942943971736748e-002	 1.264671077081148e+001
 1.948061323076648e+000	 8.693147608073368e-002	 1.265020509526271e+001
 1.947198581466602e+000	 1.044877233732223e-001	 1.265296537867425e+001
 1.946173809974940e+000	 1.220962790983860e-001	 1.265473893346029e+001
 1.944985471468231e+000	 1.397551994760172e-001	 1.265526188419288e+001
 1.943632053967617e+000	 1.574624996436467e-001	 1.265425922600113e+001
 1.942112071797492e+000	 1.752161538914288e-001	 1.265144490664628e+001
 1.975000000000000e+000	 0.000000000000000e+000	 1.252015462765759e+001
 1.974922569849744e+000	 1.748837036823261e-002	 1.252242112526231e+001
 1.974689158617876e+000	 3.503893316406807e-002	 1.252508754269131e+001
 1.974298099289225e+000	 5.264993013853264e-002	 1.252793798311836e+001
 1.973747744616509e+000	 7.031956073891704e-002	 1.253074481108544e+001
 1.973036468244684e+000	 8.804598218391935e-002	 1.253326862144790e+001
 1.972162665844939e+000	 1.058273095700260e-001	 1.253525822980525e+001
 1.971124756257434e+000	 1.236616160098102e-001	 1.253645068525990e+001
 1.969921182641903e+000	 1.415469328028062e-001	 1.253657130632209e+001
 1.968550413635141e+000	 1.594812496395905e-001	 1.253533374075299e+001
 1.967010944514421e+000	 1.774625148396792e-001	 1.253244005010742e+001
 2.000000000000000e+000	 0.000000000000000e+000	 1.241688178710719e+001
 1.999921589721275e+000	 1.770974214483003e-002	 1.241725449731184e+001
 1.999685223916896e+000	 3.548246396324820e-002	 1.241827900294096e+001
 1.999289214470237e+000	 5.331638494996539e-002	 1.241973135256727e+001
 1.998731893282784e+000	 7.120968176046656e-002	 1.242137530036834e+001
 1.998011613412721e+000	 8.916048828710502e-002	 1.242296227239214e+001
 1.997126750223276e+000	 1.071668957668297e-001	 1.242423135521617e+001
 1.996075702539929e+000	 1.252269529212345e-001	 1.242490930787846e+001
 1.994856893815574e+000	 1.433386661295951e-001	 1.242471059793441e+001
 1.993468773302665e+000	 1.614999996355342e-001	 1.242333746246550e+001
 1.991909817231349e+000	 1.797088757879295e-001	 1.242047999483440e+001
 1.742921090062065e+000	 1.572452663054261e-001	 1.348928230510907e+001
 1.741406213725087e+000	 1.732177783889446e-001	 1.351722867056828e+001
 1.739739264638117e+000	 1.892281454215080e-001	 1.354162713936814e+001
 1.737918986542895e+000	 2.052744410566007e-001	 1.356220983409530e+001
 1.735944150944025e+000	 2.213547034424478e-001	 1.357870392412088e+001
 1.733813558151911e+000	 2.374669355897513e-001	 1.359083169628480e+001
 1.731526038325072e+000	 2.536091057720335e-001	 1.359831063433806e+001
 1.729080452510761e+000	 2.697791479589111e-001	 1.360085350740995e+001
 1.726475693682788e+000	 2.859749622825958e-001	 1.359816846776037e+001
 1.723710687775430e+000	 3.021944155378738e-001	 1.358995915806885e+001
 1.720784394712270e+000	 3.184353417157770e-001	 1.357592482850245e+001
 1.767819962778993e+000	 1.594916272536765e-001	 1.338588062620383e+001
 1.766283445351817e+000	 1.756923180816826e-001	 1.341267814065291e+001
 1.764592682706736e+000	 1.919314046435942e-001	 1.343595759051826e+001
 1.762746400638945e+000	 2.082069330736586e-001	 1.345544931411984e+001
 1.760743353103111e+000	 2.245169134936454e-001	 1.347087859600249e+001
 1.758582323271217e+000	 2.408593203858372e-001	 1.348196573466607e+001
 1.756262124589759e+000	 2.572320929990908e-001	 1.348842611914990e+001
 1.753781601835235e+000	 2.736331357883019e-001	 1.348997031475165e+001
 1.751139632166797e+000	 2.900603188875702e-001	 1.348630415815360e+001
 1.748335126174922e+000	 3.065114786173201e-001	 1.347712886222149e+001
 1.745367028924961e+000	 3.229844180255974e-001	 1.346214113073159e+001
 1.792718835495921e+000	 1.617379882019268e-001	 1.328897093475953e+001
 1.791160676978547e+000	 1.781668577744254e-001	 1.331457137161969e+001
 1.789446100775357e+000	 1.946346638656997e-001	 1.333669390889945e+001
 1.787573814734995e+000	 2.111394250907599e-001	 1.335506728428726e+001
 1.785542555262198e+000	 2.276791235449205e-001	 1.336941507446488e+001
 1.783351088390523e+000	 2.442517051820444e-001	 1.337945575949370e+001
 1.780998210854445e+000	 2.608550802263233e-001	 1.338490279615206e+001
 1.778482751159709e+000	 2.774871236179322e-001	 1.338546470051726e+001
 1.775803570650804e+000	 2.941456754928580e-001	 1.338084514007929e+001
 1.772959564574414e+000	 3.108285416971645e-001	 1.337074303566556e+001
 1.769949663137651e+000	 3.275334943359103e-001	 1.335485267344680e+001
 1.817617708212850e+000	 1.639843491501772e-001	 1.319807276057872e+001
 1.816037908605277e+000	 1.806413974671730e-001	 1.322242309640526e+001
 1.814299518843976e+000	 1.973379230878244e-001	 1.324334594356600e+001
 1.812401228831045e+000	 2.140719171079046e-001	 1.326056862478638e+001
 1.810341757421285e+000	 2.308413335962730e-001	 1.327381318791123e+001
 1.808119853509829e+000	 2.476440899783729e-001	 1.328279646655470e+001
 1.805734297119132e+000	 2.644780674537310e-001	 1.328723014979806e+001
 1.803183900484183e+000	 2.813411114478015e-001	 1.328682086124345e+001
 1.800467509134812e+000	 2.982310320984592e-001	 1.328127024772568e+001
 1.797584002973906e+000	 3.151456047774064e-001	 1.327027507797576e+001
 1.794532297350343e+000	 3.320825706467159e-001	 1.325352735152215e+001
 1.842516580929779e+000	 1.662307100984275e-001	 1.311272879524406e+001
 1.840915140232007e+000	 1.831159371599254e-001	 1.313577121127745e+001
 1.839152936912596e+000	 2.000411823099683e-001	 1.315544671820796e+001
 1.837228642927096e+000	 2.170044091250926e-001	 1.317148141159151e+001
 1.835140959580371e+000	 2.340035436477028e-001	 1.318359599161235e+001
 1.832888618629135e+000	 2.510364747748227e-001	 1.319150581960101e+001
 1.830470383383819e+000	 2.681010546813140e-001	 1.319492098369720e+001
 1.827885049808657e+000	 2.851950992779102e-001	 1.319354637398110e+001
 1.825131447618820e+000	 3.023163887043739e-001	 1.318708176739011e+001
 1.822208441373397e+000	 3.194626678580462e-001	 1.317522192273144e+001
 1.819114931563034e+000	 3.366316469580142e-001	 1.315765668609166e+001
 1.867415453646707e+000	 1.684770710466778e-001	 1.303250334799956e+001
 1.865792371858737e+000	 1.855904768526825e-001	 1.305417523161308e+001
 1.864006354981215e+000	 2.027444415321316e-001	 1.307255088617544e+001
 1.862056057023146e+000	 2.199369011423241e-001	 1.308735537007683e+001
 1.859940161739459e+000	 2.371657536992101e-001	 1.309830821924882e+001
 1.857657383748441e+000	 2.544288595713938e-001	 1.310512349915175e+001
 1.855206469648505e+000	 2.717240419090723e-001	 1.310750986600426e+001
 1.852586199133131e+000	 2.890490871082582e-001	 1.310517063759431e+001
 1.849795386102829e+000	 3.064017453106021e-001	 1.309780387400512e+001
 1.846832879772890e+000	 3.237797309390840e-001	 1.308510246858300e+001
 1.843697565775724e+000	 3.411807232698052e-001	 1.306675424946524e+001
 1.892314326363635e+000	 1.707234319949282e-001	 1.291146315441227e+001
 1.890669603485467e+000	 1.880650165454445e-001	 1.293637188375616e+001
 1.888859773049835e+000	 2.054477007543140e-001	 1.295847992658952e+001
 1.886883471119196e+000	 2.228693931595990e-001	 1.297747624679111e+001
 1.884739363898545e+000	 2.403279637507948e-001	 1.299304028077890e+001
 1.882426148867748e+000	 2.578212443680863e-001	 1.300484214878436e+001
 1.879942555913192e+000	 2.753470291370057e-001	 1.301254289150589e+001
 1.877287348457605e+000	 2.929030749388453e-001	 1.301579473251641e+001
 1.874459324586836e+000	 3.104871019171435e-001	 1.301298119109659e+001
 1.871457318172382e+000	 3.280967940205198e-001	 1.299945613418131e+001
 1.868280199988416e+000	 3.457297995820888e-001	 1.298035421439356e+001
 1.917213199080564e+000	 1.729697929431785e-001	 1.277770921710502e+001
 1.915546835112197e+000	 1.905395562382112e-001	 1.280191362450214e+001
 1.913713191118454e+000	 2.081509599765156e-001	 1.282348948260740e+001
 1.911710885215246e+000	 2.258018851769173e-001	 1.284211729361531e+001
 1.909538566057631e+000	 2.434901738024568e-001	 1.285746758070869e+001
 1.907194913987054e+000	 2.612136291649000e-001	 1.286920110365549e+001
 1.904678642177878e+000	 2.789700163651144e-001	 1.287696910078208e+001
 1.901988497782079e+000	 2.967570627696717e-001	 1.288041355771779e+001
 1.899123263070844e+000	 3.145724585239985e-001	 1.287916750325032e+001
 1.896081756571874e+000	 3.324138571023534e-001	 1.287285533257222e+001
 1.892862834201107e+000	 3.502788758948651e-001	 1.286109315813683e+001
 1.942112071797492e+000	 1.752161538914288e-001	 1.265144490664628e+001
 1.940424066738927e+000	 1.930140959309828e-001	 1.267525105352837e+001
 1.938566609187074e+000	 2.108542191987364e-001	 1.269661553873170e+001
 1.936538299311296e+000	 2.287343771942789e-001	 1.271521018789200e+001
 1.934337768216718e+000	 2.466523838541962e-001	 1.273069637647844e+001
 1.931963679106360e+000	 2.646060139618351e-001	 1.274272524964574e+001
 1.929414728442565e+000	 2.825930035933983e-001	 1.275093796949084e+001
 1.926689647106553e+000	 3.006110506007373e-001	 1.275496599013003e+001
 1.923787201554852e+000	 3.186578151311670e-001	 1.275443136095493e+001
 1.920706194971366e+000	 3.367309201845848e-001	 1.274894705836474e+001
 1.917445468413798e+000	 3.548279522081341e-001	 1.273811734620725e+001
 1.967010944514421e+000	 1.774625148396792e-001	 1.253244005010742e+001
 1.965301298365657e+000	 1.954886356237591e-001	 1.255616319800119e+001
 1.963420027255694e+000	 2.135574784209764e-001	 1.257764639386961e+001
 1.961365713407346e+000	 2.316668692116840e-001	 1.259655256591020e+001
 1.959136970375806e+000	 2.498145939060131e-001	 1.261253370116125e+001
 1.956732444225666e+000	 2.679983987588914e-001	 1.262523106954413e+001
 1.954150814707251e+000	 2.862159908218574e-001	 1.263427547636939e+001
 1.951390796431027e+000	 3.044650384320423e-001	 1.263928754374502e+001
 1.948451140038860e+000	 3.227431717386489e-001	 1.263987802126482e+001
 1.945330633370858e+000	 3.410479832672143e-001	 1.263564812629189e+001
 1.942028102626488e+000	 3.593770285218957e-001	 1.262618991408568e+001
 1.991909817231349e+000	 1.797088757879295e-001	 1.242047999483440e+001
 1.990178529992387e+000	 1.979631753165402e-001	 1.244444460640078e+001
 1.988273445324313e+000	 2.162607376432357e-001	 1.246638587581728e+001
 1.986193127503396e+000	 2.345993612291324e-001	 1.248595760701994e+001
 1.983936172534892e+000	 2.529768039579074e-001	 1.250280215171877e+001
 1.981501209344972e+000	 2.713907835560692e-001	 1.251655063756674e+001
 1.978886900971938e+000	 2.898389780504917e-001	 1.252682322588412e+001
 1.976091945755501e+000	 3.083190262635864e-001	 1.253322939939904e+001
 1.973115078522868e+000	 3.268285283464442e-001	 1.253536828040330e+001
 1.969955071770350e+000	 3.453650463502415e-001	 1.253282897965692e+001
 1.966610736839180e+000	 3.639261048361500e-001	 1.252519097630572e+001
 1.720784394712270e+000	 3.184353417157770e-001	 1.357592482850245e+001
 1.717695809428702e+000	 3.346955425703510e-001	 1.361196424161527e+001
 1.714443962887209e+000	 3.509727882210215e-001	 1.364338911515920e+001
 1.711027923084025e+000	 3.672648177889563e-001	 1.366991718892291e+001
 1.707446796045747e+000	 3.835693400660090e-001	 1.369126139933706e+001
 1.703699726814957e+000	 3.998840342185867e-001	 1.370712999721719e+001
 1.699785900423492e+000	 4.162065505255865e-001	 1.371722667658899e+001
 1.695704542852120e+000	 4.325345111503019e-001	 1.372125071482188e+001
 1.691454921975343e+000	 4.488655109461449e-001	 1.371889712427928e+001
 1.687036348490034e+000	 4.651971182959881e-001	 1.370985681567504e+001
 1.682448176826651e+000	 4.815268759848673e-001	 1.369381677330475e+001
 1.745367028924961e+000	 3.229844180255974e-001	 1.346214113073159e+001
 1.742234320994296e+000	 3.394769074630900e-001	 1.349857574671016e+001
 1.738936019502071e+000	 3.559866851939452e-001	 1.353045385547446e+001
 1.735471179130182e+000	 3.725114580410630e-001	 1.355749086895444e+001
 1.731838893134178e+000	 3.890489020647538e-001	 1.357939722593088e+001
 1.728038294342963e+000	 4.055966632766609e-001	 1.359587850679225e+001
 1.724068556145973e+000	 4.221523583882386e-001	 1.360663555963084e+001
 1.719928893466559e+000	 4.387135755936855e-001	 1.361136463792090e+001
 1.715618563720287e+000	 4.552778753871787e-001	 1.360975755000387e+001
 1.711136867756843e+000	 4.718427914142042e-001	 1.360150182058662e+001
 1.706483150784262e+000	 4.884058313567285e-001	 1.358628086443750e+001
 1.769949663137651e+000	 3.275334943359103e-001	 1.335485267344680e+001
 1.766772832559885e+000	 3.442582723564071e-001	 1.339174666469686e+001
 1.763428076116914e+000	 3.610005821675034e-001	 1.342415270897656e+001
 1.759914435176295e+000	 3.777580982938316e-001	 1.345178397856657e+001
 1.756230990222532e+000	 3.945284640641586e-001	 1.347434849296075e+001
 1.752376861870848e+000	 4.113092923353629e-001	 1.349154923030601e+001
 1.748351211868279e+000	 4.280981662514562e-001	 1.350308425044727e+001
 1.744153244080758e+000	 4.448926400375424e-001	 1.350864682983737e+001
 1.739782205464916e+000	 4.616902398285627e-001	 1.350792560855481e+001
 1.735237387023252e+000	 4.784884645326172e-001	 1.350060474965235e+001
 1.730518124741380e+000	 4.952847867286022e-001	 1.348636411103882e+001
 1.794532297350343e+000	 3.320825706467159e-001	 1.325352735152215e+001
 1.791311344125469e+000	 3.490396372503026e-001	 1.329093924846230e+001
 1.787920132731737e+000	 3.660144791416965e-001	 1.332394227406072e+001
 1.784357691222366e+000	 3.830047385472624e-001	 1.335224745181928e+001
 1.780623087310807e+000	 4.000080260642229e-001	 1.337556046294203e+001
 1.776715429398611e+000	 4.170219213946926e-001	 1.339358175412386e+001
 1.772633867590408e+000	 4.340439741152394e-001	 1.340600665721762e+001
 1.768377594694716e+000	 4.510717044818725e-001	 1.341252552105918e+001
 1.763945847209231e+000	 4.681026042702975e-001	 1.341282385571114e+001
 1.759337906289262e+000	 4.851341376512273e-001	 1.340658248936663e+001
 1.754553098698004e+000	 5.021637421004885e-001	 1.339347773813358e+001
 1.819114931563034e+000	 3.366316469580142e-001	 1.315765668609166e+001
 1.815849855691049e+000	 3.538210021447762e-001	 1.319563948357299e+001
 1.812412189346542e+000	 3.710283761165244e-001	 1.322930299580782e+001
 1.808800947268393e+000	 3.882513788013551e-001	 1.325835619106831e+001
 1.805015184399005e+000	 4.054875880649472e-001	 1.328250249591413e+001
 1.801053996926252e+000	 4.227345504546500e-001	 1.330143989899065e+001
 1.796916523312362e+000	 4.399897819795883e-001	 1.331486106698842e+001
 1.792601945308435e+000	 4.572507689266762e-001	 1.332245347306201e+001
 1.788109488953231e+000	 4.745149687123827e-001	 1.332389953798929e+001
 1.783438425554874e+000	 4.917798107700344e-001	 1.331887678433118e+001
 1.778588072654134e+000	 5.090426974723874e-001	 1.330705800383123e+001
 1.843697565775724e+000	 3.411807232698052e-001	 1.306675424946524e+001
 1.840388367256623e+000	 3.586023670398280e-001	 1.310535550609637e+001
 1.836904245961327e+000	 3.760422730919869e-001	 1.313973757620530e+001
 1.833244203314375e+000	 3.934980190561099e-001	 1.316960746907895e+001
 1.829407281487125e+000	 4.109671500663312e-001	 1.319466644293877e+001
 1.825392564453771e+000	 4.284471795152351e-001	 1.321461010440541e+001
 1.821199179034139e+000	 4.459355898445029e-001	 1.322912852041560e+001
 1.816826295921914e+000	 4.634298333719530e-001	 1.323790634291017e+001
 1.812273130696917e+000	 4.809273331548185e-001	 1.324062294659390e+001
 1.807538944820086e+000	 4.984254838890383e-001	 1.323695258004791e+001
 1.802623046609771e+000	 5.159216528442988e-001	 1.322656453045339e+001
 1.868280199988416e+000	 3.457297995820888e-001	 1.298035421439356e+001
 1.864926878822192e+000	 3.633837319354581e-001	 1.301961614533116e+001
 1.861396302576093e+000	 3.810561700680843e-001	 1.305476950987700e+001
 1.857687459360315e+000	 3.987446593115267e-001	 1.308551945728845e+001
 1.853799378575167e+000	 4.164467120683749e-001	 1.311156516642762e+001
 1.849731131981168e+000	 4.341598085764481e-001	 1.313259994054529e+001
 1.845481834755741e+000	 4.518813977099830e-001	 1.314831131481643e+001
 1.841050646535153e+000	 4.696088978177034e-001	 1.315838117696785e+001
 1.836436772440289e+000	 4.873396975976047e-001	 1.316248590131991e+001
 1.831639464084900e+000	 5.050711570082394e-001	 1.316029649654388e+001
 1.826658020564913e+000	 5.228006082162227e-001	 1.315147876741460e+001
 1.892862834201107e+000	 3.502788758948651e-001	 1.286109315813683e+001
 1.889465390387757e+000	 3.681650968316664e-001	 1.290909691856331e+001
 1.885888359190838e+000	 3.860700670448166e-001	 1.295301510462840e+001
 1.882130715406210e+000	 4.039912995676054e-001	 1.299247606822184e+001
 1.878191475663132e+000	 4.219262740710784e-001	 1.302710027137493e+001
 1.874069699508444e+000	 4.398724376382887e-001	 1.305493673614375e+001
 1.869764490477167e+000	 4.578272055760289e-001	 1.307193162386686e+001
 1.865274997148151e+000	 4.757879622639268e-001	 1.308339502198351e+001
 1.860600414183346e+000	 4.937520620407415e-001	 1.308900035259206e+001
 1.855739983349315e+000	 5.117168301276374e-001	 1.308841542093451e+001
 1.850692994519563e+000	 5.296795635881593e-001	 1.308130257387865e+001
 1.917445468413798e+000	 3.548279522081341e-001	 1.273811734620725e+001
 1.914003901953317e+000	 3.729464617284529e-001	 1.278849506531689e+001
 1.910380415805565e+000	 3.910839640221834e-001	 1.283490972111018e+001
 1.906573971452062e+000	 4.092379398243463e-001	 1.287697710610631e+001
 1.902583572751019e+000	 4.274058360744414e-001	 1.291430470087905e+001
 1.898408267035597e+000	 4.455850667007568e-001	 1.294649211532425e+001
 1.894047146198417e+000	 4.637730134426404e-001	 1.297313155881456e+001
 1.889499347760909e+000	 4.819670267106236e-001	 1.299380833904990e+001
 1.884764055926089e+000	 5.001644264842287e-001	 1.300810138932855e+001
 1.879840502613331e+000	 5.183625032472325e-001	 1.301558382387808e+001
 1.874727968473718e+000	 5.365585189601085e-001	 1.301555691044115e+001
 1.942028102626488e+000	 3.593770285218957e-001	 1.262618991408568e+001
 1.938542413518873e+000	 3.777278266258178e-001	 1.267939402143261e+001
 1.934872472420273e+000	 3.960978610001851e-001	 1.272876831964574e+001
 1.931017227497871e+000	 4.144845800817492e-001	 1.277391561505679e+001
 1.926975669838828e+000	 4.328853980784646e-001	 1.281442996145077e+001
 1.922746834562629e+000	 4.512976957638528e-001	 1.284989711536303e+001
 1.918329801919491e+000	 4.697188213098174e-001	 1.287989502145543e+001
 1.913723698373428e+000	 4.881460911577938e-001	 1.290399432777847e+001
 1.908927697668517e+000	 5.065767909280665e-001	 1.292175893063930e+001
 1.903941021876948e+000	 5.250081763670246e-001	 1.293274654870650e+001
 1.898762942427380e+000	 5.434374743320701e-001	 1.293650932589169e+001
 1.966610736839180e+000	 3.639261048361500e-001	 1.252519097630572e+001
 1.963080925084422e+000	 3.825091915237607e-001	 1.258168354131918e+001
 1.959364529034961e+000	 4.011117579788214e-001	 1.263449033956520e+001
 1.955460483543635e+000	 4.197312203398140e-001	 1.268320075652682e+001
 1.951367766926559e+000	 4.383649600831473e-001	 1.272739496581151e+001
 1.947085402089539e+000	 4.570103248275765e-001	 1.276664439878222e+001
 1.942612457640389e+000	 4.756646291775601e-001	 1.280051224549756e+001
 1.937948048985706e+000	 4.943251556054373e-001	 1.282855398676689e+001
 1.933091339410632e+000	 5.129891553722548e-001	 1.285031795703483e+001
 1.928041541140166e+000	 5.316538494870136e-001	 1.286534593771831e+001
 1.922797916380548e+000	 5.503164297040443e-001	 1.287317378052395e+001
 1.682448176826651e+000	 4.815268759848673e-001	 1.369381677330475e+001
 1.677689806041381e+000	 4.978523021060258e-001	 1.375306710598848e+001
 1.672760680688981e+000	 5.141708909989885e-001	 1.379721636285679e+001
 1.667660291674265e+000	 5.304801142200817e-001	 1.382566615634067e+001
 1.662388177080357e+000	 5.467774215453340e-001	 1.383781809353219e+001
 1.656943922973434e+000	 5.630602420043450e-001	 1.383307433422202e+001
 1.651327164182347e+000	 5.793259849448745e-001	 1.381083816269523e+001
 1.645537585051869e+000	 5.955720411275248e-001	 1.377051457278178e+001
 1.639574920168338e+000	 6.117957838498270e-001	 1.371151086561530e+001
 1.633438955056452e+000	 6.279945700989933e-001	 1.367245985495438e+001
 1.627129526846032e+000	 6.441657417325339e-001	 1.378798968925998e+001
 1.706483150784262e+000	 4.884058313567285e-001	 1.358628086443750e+001
 1.701656803273777e+000	 5.049644778520136e-001	 1.363602063397589e+001
 1.696657261845163e+000	 5.215161894442626e-001	 1.367108243643808e+001
 1.691484010130446e+000	 5.380584015691766e-001	 1.369087076246964e+001
 1.686136579613939e+000	 5.545885275710121e-001	 1.369478968527302e+001
 1.680614550448476e+000	 5.711039597512188e-001	 1.368224340947387e+001
 1.674917552246178e+000	 5.876020704482378e-001	 1.365263683428665e+001
 1.669045264842459e+000	 6.040802131478213e-001	 1.360537613050512e+001
 1.662997419032029e+000	 6.205357236231794e-001	 1.353986933080005e+001
 1.656773797275656e+000	 6.369659211041965e-001	 1.360584250295364e+001
 1.650374234376445e+000	 6.533681094749184e-001	 1.371074613562291e+001
 1.730518124741380e+000	 4.952847867286022e-001	 1.348636411103882e+001
 1.725623800505588e+000	 5.120766535978284e-001	 1.352704439461438e+001
 1.720553843000689e+000	 5.288614878892073e-001	 1.355346971623690e+001
 1.715307728585921e+000	 5.456366889178151e-001	 1.356504722237906e+001
 1.709884982146783e+000	 5.623996335961364e-001	 1.356118322182628e+001
 1.704285177922769e+000	 5.791476774974712e-001	 1.354128372539417e+001
 1.698507940309269e+000	 5.958781559509419e-001	 1.350475500050138e+001
 1.692552944632335e+000	 6.125883851674518e-001	 1.345100414015372e+001
 1.686419917895057e+000	 6.292756633958881e-001	 1.343054022011806e+001
 1.680108639494266e+000	 6.459372721088099e-001	 1.354141871494065e+001
 1.673618941906352e+000	 6.625704772167977e-001	 1.363593167276047e+001
 1.754553098698004e+000	 5.021637421004885e-001	 1.339347773813358e+001
 1.749590797736816e+000	 5.191888293434703e-001	 1.342553249975628e+001
 1.744450424155561e+000	 5.362067863338228e-001	 1.344375566676746e+001
 1.739131447040689e+000	 5.532149762659974e-001	 1.344755682945161e+001
 1.733633384678889e+000	 5.702107396207069e-001	 1.343634431177067e+001
 1.727955805396312e+000	 5.871913952431020e-001	 1.340952570194156e+001
 1.722098328371618e+000	 6.041542414529870e-001	 1.336650839844119e+001
 1.716060624421499e+000	 6.210965571864155e-001	 1.330670017102525e+001
 1.709842416757420e+000	 6.380156031679537e-001	 1.337833977970408e+001
 1.703443481712281e+000	 6.549086231128336e-001	 1.347866156258854e+001
 1.696863649435754e+000	 6.717728449581719e-001	 1.356300766291088e+001
 1.778588072654134e+000	 5.090426974723874e-001	 1.330705800383123e+001
 1.773557794967459e+000	 5.263010050889394e-001	 1.333090489646453e+001
 1.768347005309778e+000	 5.435520847781091e-001	 1.334134437293887e+001
 1.762955165494752e+000	 5.607932636137234e-001	 1.333778826523930e+001
 1.757381787210256e+000	 5.780218456447236e-001	 1.331964670175548e+001
 1.751626432869105e+000	 5.952351129881116e-001	 1.328632862871593e+001
 1.745688716433225e+000	 6.124303269543731e-001	 1.323724234763781e+001
 1.739568304209950e+000	 6.296047292047130e-001	 1.322179865760329e+001
 1.733264915619120e+000	 6.467555429393755e-001	 1.332708874857392e+001
 1.726778323929702e+000	 6.638799741162679e-001	 1.341707572126286e+001
 1.720108356964651e+000	 6.809752126990409e-001	 1.349146770529072e+001
 1.802623046609771e+000	 5.159216528442988e-001	 1.322656453045339e+001
 1.797524792197518e+000	 5.334131808342354e-001	 1.324260564466518e+001
 1.792243586463340e+000	 5.508973832220659e-001	 1.324566476536214e+001
 1.786778883948108e+000	 5.683715509609929e-001	 1.323515577358547e+001
 1.781130189740887e+000	 5.858329516681865e-001	 1.321049040062916e+001
 1.775297060341149e+000	 6.032788307324997e-001	 1.317107874031560e+001
 1.769279104494092e+000	 6.207064124551002e-001	 1.311632977789082e+001
 1.763075983997688e+000	 6.381129012223440e-001	 1.318152847377931e+001
 1.756687414480155e+000	 6.554954827101545e-001	 1.327633204198066e+001
 1.750113166146527e+000	 6.728513251191123e-001	 1.335619536310857e+001
 1.743353064493043e+000	 6.901775804394048e-001	 1.342083548696309e+001
 1.826658020564913e+000	 5.228006082162227e-001	 1.315147876741460e+001
 1.821491789426993e+000	 5.405253565793585e-001	 1.316010133077487e+001
 1.816140167616247e+000	 5.582426816656935e-001	 1.315616898576450e+001
 1.810602602400758e+000	 5.759498383078062e-001	 1.313909747889504e+001
 1.804878592270779e+000	 5.936440576910959e-001	 1.310829995166303e+001
 1.798967687812443e+000	 6.113225484762663e-001	 1.306318744364008e+001
 1.792869492554217e+000	 6.289824979551679e-001	 1.304228668829409e+001
 1.786583663784714e+000	 6.466210732393086e-001	 1.314111496173289e+001
 1.780109913340527e+000	 6.642354224802899e-001	 1.322564156130898e+001
 1.773448008362758e+000	 6.818226761213672e-001	 1.329558221647263e+001
 1.766597772020930e+000	 6.993799481792635e-001	 1.335066280337405e+001
 1.850692994519563e+000	 5.296795635881593e-001	 1.308130257387865e+001
 1.845458786655884e+000	 5.476375323243089e-001	 1.308287960494160e+001
 1.840036748768498e+000	 5.655879801089916e-001	 1.307233087977405e+001
 1.834426320852702e+000	 5.835281256541631e-001	 1.304907383544871e+001
 1.828626994799934e+000	 6.014551637134511e-001	 1.301252283940698e+001
 1.822638315282988e+000	 6.193662662194114e-001	 1.296208968332503e+001
 1.816459880613602e+000	 6.372585834545771e-001	 1.301175132689385e+001
 1.810091343571027e+000	 6.551292452556068e-001	 1.310016511362685e+001
 1.803532412200234e+000	 6.729753622497819e-001	 1.317461444172906e+001
 1.796782850578394e+000	 6.907940271230323e-001	 1.323482377654017e+001
 1.789842479548311e+000	 7.085823159186171e-001	 1.328052773313294e+001
 1.874727968473718e+000	 5.365585189601085e-001	 1.301555691044115e+001
 1.869425783884192e+000	 5.547497080690862e-001	 1.301044783080559e+001
 1.863933329920095e+000	 5.729332785519605e-001	 1.299364460564403e+001
 1.858250039303940e+000	 5.911064130000637e-001	 1.296456619600066e+001
 1.852375397328350e+000	 6.092662697352527e-001	 1.292262801909459e+001
 1.846308942752784e+000	 6.274099839619354e-001	 1.288855494152517e+001
 1.840050268672244e+000	 6.455346689533270e-001	 1.298011130831900e+001
 1.833599023356627e+000	 6.636374172712385e-001	 1.305830902364329e+001
 1.826954911059278e+000	 6.817153020186307e-001	 1.312287143464616e+001
 1.820117692793435e+000	 6.997653781241080e-001	 1.317353165361410e+001
 1.813087187075188e+000	 7.177846836574655e-001	 1.321003295319424e+001
 1.898762942427380e+000	 5.434374743320701e-001	 1.293650932589169e+001
 1.893392781111915e+000	 5.618618838136904e-001	 1.293110862058861e+001
 1.887829911071037e+000	 5.802785769946003e-001	 1.291331357059890e+001
 1.882073757754471e+000	 5.986847003455078e-001	 1.288244525195294e+001
 1.876123799856030e+000	 6.170773757565005e-001	 1.283782306616064e+001
 1.869979570221829e+000	 6.354537017038378e-001	 1.286581047756159e+001
 1.863640656730146e+000	 6.538107544514178e-001	 1.294702740924705e+001
 1.857106703141514e+000	 6.721455892862038e-001	 1.301519842583044e+001
 1.850377409917658e+000	 6.904552417868360e-001	 1.307005541300224e+001
 1.843452535007881e+000	 7.087367291245937e-001	 1.311134004684186e+001
 1.836331894601559e+000	 7.269870513958089e-001	 1.313880418200032e+001
 1.922797916380548e+000	 5.503164297040443e-001	 1.287317378052395e+001
 1.917359778339054e+000	 5.689740595581219e-001	 1.286363056159850e+001
 1.911726492221324e+000	 5.876238754369104e-001	 1.284199559406681e+001
 1.905897476204296e+000	 6.062629876904957e-001	 1.280757820922158e+001
 1.899872202382971e+000	 6.248884817771945e-001	 1.275968561110327e+001
 1.893650197690125e+000	 6.434974194451186e-001	 1.284433565472638e+001
 1.887231044787307e+000	 6.620868399488499e-001	 1.291574722380325e+001
 1.880614382925689e+000	 6.806537613005027e-001	 1.297278477067810e+001
 1.873799908775373e+000	 6.991951815543979e-001	 1.301582998867988e+001
 1.866787377221733e+000	 7.177080801244901e-001	 1.304790433241266e+001
 1.859576602127425e+000	 7.361894191336469e-001	 1.306648873938841e+001
 1.627129526846032e+000	 6.441657417325339e-001	 1.378798968925998e+001
 1.620646524908150e+000	 6.603066266860092e-001	 1.381488273461372e+001
 1.613989891457657e+000	 6.764145402067767e-001	 1.383069571412952e+001
 1.607159622122281e+000	 6.924867861127354e-001	 1.383532018643606e+001
 1.600155766478270e+000	 7.085206580754373e-001	 1.382865638245851e+001
 1.592978428549762e+000	 7.245134409262325e-001	 1.381061339107091e+001
 1.585627767271442e+000	 7.404624119843857e-001	 1.378110933369808e+001
 1.578103996913506e+000	 7.563648424060108e-001	 1.374007152740241e+001
 1.570407387467962e+000	 7.722179985526128e-001	 1.368743663601065e+001
 1.562538264995355e+000	 7.880191433779770e-001	 1.362315080885844e+001
 1.554497011931069e+000	 8.037655378321177e-001	 1.354716980675404e+001
 1.650374234376445e+000	 6.533681094749184e-001	 1.371074613562291e+001
 1.643798618125084e+000	 6.697395784986904e-001	 1.373450733185570e+001
 1.637046889910957e+000	 6.860776050693964e-001	 1.374797400693486e+001
 1.630119045299331e+000	 7.023794544880483e-001	 1.375105630687360e+001
 1.623015134574688e+000	 7.186423817643651e-001	 1.374367270902415e+001
 1.615735263247222e+000	 7.348636329415725e-001	 1.372575018451884e+001
 1.608279592522115e+000	 7.510404464434977e-001	 1.369722434966003e+001
 1.600648339730568e+000	 7.671700544427710e-001	 1.365803960583055e+001
 1.592841778721614e+000	 7.832496842489189e-001	 1.360814926751768e+001
 1.584860240213809e+000	 7.992765597150675e-001	 1.354751567806678e+001
 1.576704112105899e+000	 8.152479026619461e-001	 1.347611031280482e+001
 1.673618941906352e+000	 6.625704772167977e-001	 1.363593167276047e+001
 1.666950711341602e+000	 6.791725303109569e-001	 1.365709441361952e+001
 1.660103888363913e+000	 6.957406699316718e-001	 1.366872938930342e+001
 1.653078468476089e+000	 7.122721228630687e-001	 1.367076504630287e+001
 1.645874502670843e+000	 7.287641054530311e-001	 1.366313783386921e+001
 1.638492097944431e+000	 7.452138249566624e-001	 1.364579234360352e+001
 1.630931417772529e+000	 7.616184809023505e-001	 1.361868143797951e+001
 1.623192682547342e+000	 7.779752664792431e-001	 1.358176636740754e+001
 1.615276169974930e+000	 7.942813699448880e-001	 1.353501687547034e+001
 1.607182215431858e+000	 8.105339760517517e-001	 1.347841129198355e+001
 1.598911212280233e+000	 8.267302674912782e-001	 1.341193661355997e+001
 1.696863649435754e+000	 6.717728449581719e-001	 1.356300766291088e+001
 1.690102804557706e+000	 6.886054821228079e-001	 1.358208129234563e+001
 1.683160886816524e+000	 7.054037347936031e-001	 1.359237580017212e+001
 1.676037891652553e+000	 7.221647912377956e-001	 1.359383766192045e+001
 1.668733870766737e+000	 7.388858291414350e-001	 1.358642103944190e+001
 1.661248932641390e+000	 7.555640169715013e-001	 1.357008789798908e+001
 1.653583243022685e+000	 7.721965153609443e-001	 1.354480811220039e+001
 1.645737025363828e+000	 7.887804785154274e-001	 1.351055956063192e+001
 1.637710561227909e+000	 8.053130556405201e-001	 1.346732820850306e+001
 1.629504190649500e+000	 8.217913923880298e-001	 1.341510817834611e+001
 1.621118312454071e+000	 8.382126323201146e-001	 1.335390180827647e+001
 1.720108356964651e+000	 6.809752126990409e-001	 1.349146770529072e+001
 1.713254897773396e+000	 6.980384339342446e-001	 1.350893881337207e+001
 1.706217885268792e+000	 7.150667996551902e-001	 1.351836196634138e+001
 1.698997314828725e+000	 7.320574596122293e-001	 1.351970141198536e+001
 1.691593238862369e+000	 7.490075528295770e-001	 1.351292877988932e+001
 1.684005767338098e+000	 7.659142089860900e-001	 1.349802317633604e+001
 1.676235068272581e+000	 7.827745498192790e-001	 1.347497126806557e+001
 1.668281368180025e+000	 7.995856905513236e-001	 1.344376735457376e+001
 1.660144952480550e+000	 8.163447413358156e-001	 1.340441342865093e+001
 1.651826165866736e+000	 8.330488087239013e-001	 1.335691922488776e+001
 1.643325412627414e+000	 8.496949971484549e-001	 1.330130225590158e+001
 1.743353064493043e+000	 6.901775804394048e-001	 1.342083548696309e+001
 1.736406990988670e+000	 7.074713857452664e-001	 1.343716911940787e+001
 1.729274883720715e+000	 7.247298645164332e-001	 1.344616908328426e+001
 1.721956738004603e+000	 7.419501279863704e-001	 1.344781715574830e+001
 1.714452606957739e+000	 7.591292765174572e-001	 1.344210220294414e+001
 1.706762602034556e+000	 7.762644010004284e-001	 1.342902025303490e+001
 1.698886893522218e+000	 7.933525842773546e-001	 1.340857455803705e+001
 1.690825710995935e+000	 8.103909025869319e-001	 1.338077564416988e+001
 1.682579343732855e+000	 8.273764270307737e-001	 1.334564135045637e+001
 1.674148141083565e+000	 8.443062250593668e-001	 1.330319685533803e+001
 1.665532512800260e+000	 8.611773619762990e-001	 1.325347469109335e+001
 1.766597772020930e+000	 6.993799481792635e-001	 1.335066280337405e+001
 1.759559084203529e+000	 7.169043375558731e-001	 1.336630359149559e+001
 1.752331882172295e+000	 7.343929293773318e-001	 1.337530867904955e+001
 1.744916161180188e+000	 7.518427963602180e-001	 1.337767714286004e+001
 1.737311975052847e+000	 7.692510002050759e-001	 1.337341486745190e+001
 1.729519436730764e+000	 7.866145930145161e-001	 1.336253459651340e+001
 1.721538718771596e+000	 8.039306187351709e-001	 1.334505597309068e+001
 1.713370053811557e+000	 8.211961146222522e-001	 1.332100556825895e+001
 1.705013734984823e+000	 8.384081127253951e-001	 1.329041689804100e+001
 1.696470116299988e+000	 8.555636413944259e-001	 1.325333042837025e+001
 1.687739612972610e+000	 8.726597268036471e-001	 1.320979356792405e+001
 1.789842479548311e+000	 7.085823159186171e-001	 1.328052773313294e+001
 1.782711177417973e+000	 7.263372893660650e-001	 1.329590095041822e+001
 1.775388880623530e+000	 7.440559942378868e-001	 1.330532064461405e+001
 1.767875584355480e+000	 7.617354647337726e-001	 1.330880297503372e+001
 1.760171343147694e+000	 7.793727238924327e-001	 1.330637063875326e+001
 1.752276271426721e+000	 7.969647850283533e-001	 1.329805290079251e+001
 1.744190544020715e+000	 8.145086531927280e-001	 1.328388561294252e+001
 1.735914396626891e+000	 8.320013266572844e-001	 1.326391122101640e+001
 1.727448126236454e+000	 8.494397984196793e-001	 1.323817876032773e+001
 1.718792091516005e+000	 8.668210577290787e-001	 1.320674383922852e+001
 1.709946713144463e+000	 8.841420916304991e-001	 1.316966861056733e+001
 1.813087187075188e+000	 7.177846836574655e-001	 1.321003295319424e+001
 1.805863270632003e+000	 7.357702411758422e-001	 1.322554550415172e+001
 1.798445879074421e+000	 7.537190590980972e-001	 1.323577141574613e+001
 1.790835007530478e+000	 7.716281331070339e-001	 1.324074372450253e+001
 1.783030711242278e+000	 7.894944475795275e-001	 1.324050174596000e+001
 1.775033106122427e+000	 8.073149770419399e-001	 1.323509108384586e+001
 1.766842369269575e+000	 8.250866876500260e-001	 1.322456362779638e+001
 1.758458739441937e+000	 8.428065386920290e-001	 1.320897753943284e+001
 1.749882517487748e+000	 8.604714841136268e-001	 1.318839722663042e+001
 1.741114066731615e+000	 8.780784740633248e-001	 1.316289330584508e+001
 1.732153813315821e+000	 8.956244564568551e-001	 1.313254255239438e+001
 1.836331894601559e+000	 7.269870513958089e-001	 1.313880418200032e+001
 1.829015363845618e+000	 7.452031929852042e-001	 1.315484552842241e+001
 1.821502877524968e+000	 7.633821239579637e-001	 1.316625229295568e+001
 1.813794430705184e+000	 7.815208014800023e-001	 1.317307419537907e+001
 1.805890079336600e+000	 7.996161712663601e-001	 1.317536698677958e+001
 1.797789940817883e+000	 8.176651690552761e-001	 1.317319243798247e+001
 1.789494194518175e+000	 8.356647221070649e-001	 1.316661831641403e+001
 1.781003082256695e+000	 8.536117507264855e-001	 1.315571835123715e+001
 1.772316908738705e+000	 8.715031698072372e-001	 1.314057218662913e+001
 1.763436041946819e+000	 8.893358903971650e-001	 1.312126532310040e+001
 1.754360913486683e+000	 9.071068212827148e-001	 1.309788904678418e+001
 1.859576602127425e+000	 7.361894191336469e-001	 1.306648873938841e+001
 1.852167457058817e+000	 7.546361447941515e-001	 1.308343176872266e+001
 1.844559875975170e+000	 7.730451888174859e-001	 1.309637788744771e+001
 1.836753853879597e+000	 7.914134698526776e-001	 1.310539331541298e+001
 1.828749447430661e+000	 8.097378949529311e-001	 1.311055006697800e+001
 1.820546775513088e+000	 8.280153610683618e-001	 1.311192591895080e+001
 1.812146019766516e+000	 8.462427565638447e-001	 1.310960436683047e+001
 1.803547425071165e+000	 8.644169627606541e-001	 1.310367456922532e+001
 1.794751299989325e+000	 8.825348555005105e-001	 1.309423128034723e+001
 1.785758017161617e+000	 9.005933067305987e-001	 1.308137477051400e+001
 1.776568013657048e+000	 9.185891861080785e-001	 1.306521073462298e+001
 1.554497011931069e+000	 8.037655378321177e-001	 1.354716980675404e+001
 1.546284067350165e+000	 8.194544422807419e-001	 1.355958782927343e+001
 1.537899927190630e+000	 8.350831179393492e-001	 1.356681867982269e+001
 1.529345144433827e+000	 8.506488283203388e-001	 1.356901300979606e+001
 1.520620329241138e+000	 8.661488406911879e-001	 1.356632624116074e+001
 1.511726149046811e+000	 8.815804275427315e-001	 1.355891839310944e+001
 1.502663328606235e+000	 8.969408680658605e-001	 1.354695389883612e+001
 1.493432649999157e+000	 9.122274496350905e-001	 1.353060141267802e+001
 1.484034952587419e+000	 9.274374692974083e-001	 1.351003360789516e+001
 1.474471132926832e+000	 9.425682352647933e-001	 1.348542696538719e+001
 1.464742144632903e+000	 9.576170684087775e-001	 1.345696155367456e+001
 1.576704112105899e+000	 8.152479026619461e-001	 1.347611031280482e+001
 1.568373839745379e+000	 8.311609343174989e-001	 1.349905673974209e+001
 1.559869926154992e+000	 8.470128767716021e-001	 1.351565996589776e+001
 1.551192932215838e+000	 8.628009544439739e-001	 1.352602191715049e+001
 1.542343476805890e+000	 8.785223955630550e-001	 1.353025015289879e+001
 1.533322236894169e+000	 8.941744336552630e-001	 1.352845774950445e+001
 1.524129947589711e+000	 9.097543090427865e-001	 1.352076317311705e+001
 1.514767402144834e+000	 9.252592703483488e-001	 1.350729014202222e+001
 1.505235451912260e+000	 9.406865760053209e-001	 1.348816747868488e+001
 1.495535006255741e+000	 9.560334957715670e-001	 1.346352895168899e+001
 1.485667032413862e+000	 9.712973122453554e-001	 1.343351310780341e+001
 1.598911212280233e+000	 8.267302674912782e-001	 1.341193661355997e+001
 1.590463612140005e+000	 8.428674263536746e-001	 1.344323008885740e+001
 1.581839925118697e+000	 8.589426356032173e-001	 1.346705777178585e+001
 1.573040719997142e+000	 8.749530805669454e-001	 1.348347410714026e+001
 1.564066624369903e+000	 8.908959504342626e-001	 1.349254002579766e+001
 1.554918324740777e+000	 9.067684397671686e-001	 1.349432288372009e+001
 1.545596566572447e+000	 9.225677500191506e-001	 1.348889638959416e+001
 1.536102154289799e+000	 9.382910910611385e-001	 1.347634052115091e+001
 1.526435951236439e+000	 9.539356827128889e-001	 1.345674143024059e+001
 1.516598879584057e+000	 9.694987562781504e-001	 1.343019133676609e+001
 1.506591920194319e+000	 9.849775560819279e-001	 1.339678841161006e+001
 1.621118312454071e+000	 8.382126323201146e-001	 1.335390180827647e+001
 1.612553384534045e+000	 8.545739183892687e-001	 1.339144772999820e+001
 1.603809924081746e+000	 8.708723944341962e-001	 1.342043728358828e+001
 1.594888507777738e+000	 8.871052066892541e-001	 1.344087863228125e+001
 1.585789771933177e+000	 9.032695053048107e-001	 1.345278726822745e+001
 1.576514412586635e+000	 9.193624458784482e-001	 1.345618600586741e+001
 1.567063185554443e+000	 9.353811909949523e-001	 1.345110496319549e+001
 1.557436906434054e+000	 9.513229117734600e-001	 1.343758153086019e+001
 1.547636450559956e+000	 9.671847894201124e-001	 1.341566032907921e+001
 1.537662752911782e+000	 9.829640167845439e-001	 1.338539315237929e+001
 1.527516807974274e+000	 9.986577999184951e-001	 1.334683890220161e+001
 1.643325412627414e+000	 8.496949971484549e-001	 1.330130225590158e+001
 1.634643156927498e+000	 8.662804104242817e-001	 1.334308804043340e+001
 1.625779923044137e+000	 8.828021532645375e-001	 1.337525754839684e+001
 1.616736295557627e+000	 8.992573328108996e-001	 1.339777381858434e+001
 1.607512919495713e+000	 9.156430601746988e-001	 1.341060805243476e+001
 1.598110500431744e+000	 9.319564519891018e-001	 1.341373966063256e+001
 1.588529804535698e+000	 9.481946319701918e-001	 1.340715629684553e+001
 1.578771658577597e+000	 9.643547324853128e-001	 1.339085387845374e+001
 1.568836949882811e+000	 9.804338961269918e-001	 1.336483659415426e+001
 1.558726626238913e+000	 9.964292772907476e-001	 1.332911689835826e+001
 1.548441695753725e+000	 1.012338043755057e+000	 1.328371549233053e+001
 1.665532512800260e+000	 8.611773619762990e-001	 1.325347469109335e+001
 1.656732929320366e+000	 8.779869024587131e-001	 1.329756535306253e+001
 1.647749922005872e+000	 8.947319120942417e-001	 1.333100921689451e+001
 1.638584083336808e+000	 9.114094589318817e-001	 1.335372531398905e+001
 1.629236067057512e+000	 9.280166150439279e-001	 1.336564166361752e+001
 1.619706588276104e+000	 9.445504580991297e-001	 1.336669537163864e+001
 1.609996423516214e+000	 9.610080729448691e-001	 1.335683271559869e+001
 1.600106410720428e+000	 9.773865531966970e-001	 1.333600921597568e+001
 1.590037449205004e+000	 9.936830028335263e-001	 1.330418969335999e+001
 1.579790499565453e+000	 1.009894537796761e+000	 1.326134831139691e+001
 1.569366583532674e+000	 1.026018287591614e+000	 1.320746860535158e+001
 1.687739612972610e+000	 8.726597268036471e-001	 1.320979356792405e+001
 1.678822701712647e+000	 8.896933944925635e-001	 1.325432759091382e+001
 1.669719920966950e+000	 9.066616709233090e-001	 1.328721246417168e+001
 1.660431871115281e+000	 9.235615850522007e-001	 1.330832429086824e+001
 1.650959214618570e+000	 9.403901699124974e-001	 1.331754897933615e+001
 1.641302676119713e+000	 9.571444642085318e-001	 1.331478239283132e+001
 1.631463042495988e+000	 9.738215139189842e-001	 1.329993048492026e+001
 1.621441162862548e+000	 9.904183739076128e-001	 1.327290942016184e+001
 1.611237948526535e+000	 1.006932109539717e+000	 1.323364567978548e+001
 1.600854372891400e+000	 1.023359798302584e+000	 1.318207615210187e+001
 1.590291471311120e+000	 1.039698531428165e+000	 1.311814820741905e+001
 1.709946713144463e+000	 8.841420916304991e-001	 1.316966861056733e+001
 1.700912474104342e+000	 9.013998865258321e-001	 1.321285408596695e+001
 1.691689919927371e+000	 9.185914297517391e-001	 1.324341507255701e+001
 1.682279658893047e+000	 9.357137111718562e-001	 1.326118578859738e+001
 1.672682362178891e+000	 9.527637247804072e-001	 1.326601106741203e+001
 1.662898763962574e+000	 9.697384703173078e-001	 1.325774655715918e+001
 1.652929661475022e+000	 9.866349548925372e-001	 1.323625890546490e+001
 1.642775915003957e+000	 1.003450194618061e+000	 1.320142592849875e+001
 1.632438447847404e+000	 1.020181216245562e+000	 1.315313676410443e+001
 1.621918246216754e+000	 1.036825058808218e+000	 1.309129200863449e+001
 1.611216359089064e+000	 1.053378775264711e+000	 1.301580383717511e+001
 1.732153813315821e+000	 8.956244564568551e-001	 1.313254255239438e+001
 1.723002246495451e+000	 9.131063785585198e-001	 1.317265356575872e+001
 1.713659918887135e+000	 9.305211885795318e-001	 1.319919066192251e+001
 1.704127446670105e+000	 9.478658372908486e-001	 1.321194718361847e+001
 1.694405509738473e+000	 9.651372796476575e-001	 1.321072789168007e+001
 1.684494851804685e+000	 9.823324764254580e-001	 1.319534921381717e+001
 1.674396280453315e+000	 9.994483958655275e-001	 1.316563947748766e+001
 1.664110667144655e+000	 1.016482015328040e+000	 1.312143912635500e+001
 1.653638947167611e+000	 1.033430322951064e+000	 1.306260091985827e+001
 1.642982119541516e+000	 1.050290319313661e+000	 1.298899011545728e+001
 1.632141246866505e+000	 1.067059019101252e+000	 1.290048463315436e+001
 1.754360913486683e+000	 9.071068212827148e-001	 1.309788904678418e+001
 1.745092018885974e+000	 9.248128705906259e-001	 1.313326229290474e+001
 1.735629917846242e+000	 9.424509474066877e-001	 1.315413705439612e+001
 1.725975234446456e+000	 9.600179634091780e-001	 1.316026677570171e+001
 1.716128657297317e+000	 9.775108345142484e-001	 1.315141711603843e+001
 1.706090939646046e+000	 9.949264825329820e-001	 1.312736624620573e+001
 1.695862899430868e+000	 1.012261836837956e+000	 1.308790512871731e+001
 1.685445419284641e+000	 1.029513836037550e+000	 1.303283778065964e+001
 1.674839446487155e+000	 1.046679429656221e+000	 1.296198151871774e+001
 1.664045992865685e+000	 1.063755579818914e+000	 1.287516718584661e+001
 1.653066134643443e+000	 1.080739262937787e+000	 1.277223935910722e+001
 1.776568013657048e+000	 9.185891861080785e-001	 1.306521073462298e+001
 1.767181791275910e+000	 9.365193626221506e-001	 1.309424234415698e+001
 1.757599916804693e+000	 9.543807062332064e-001	 1.310787476172061e+001
 1.747823022222099e+000	 9.721700895268440e-001	 1.310582248023739e+001
 1.737851804855421e+000	 9.898843893801794e-001	 1.308781299819467e+001
 1.727687027486658e+000	 1.007520488639880e+000	 1.305358716354288e+001
 1.717329518407681e+000	 1.025075277809822e+000	 1.300289950013925e+001
 1.706780171423916e+000	 1.042545656746592e+000	 1.293551851605460e+001
 1.696039945806038e+000	 1.059928536361033e+000	 1.285122699309966e+001
 1.685109866189261e+000	 1.077220840323977e+000	 1.274982225696672e+001
 1.673991022419878e+000	 1.094419506774317e+000	 1.263111642742386e+001
 1.464742144632903e+000	 9.576170684087775e-001	 1.345696155367456e+001
 1.454848998199890e+000	 9.725813037558125e-001	 1.342940804296524e+001
 1.444792760773848e+000	 9.874582919805433e-001	 1.338872873654729e+001
 1.434574555879015e+000	 1.002245400896121e+000	 1.333486825250107e+001
 1.424195563096952e+000	 1.016940016940706e+000	 1.326778168343602e+001
 1.413657017699293e+000	 1.031539546657219e+000	 1.318743464071313e+001
 1.402960210233953e+000	 1.046041418165064e+000	 1.309380328370072e+001
 1.392106486064946e+000	 1.060443082622109e+000	 1.298687433400411e+001
 1.381097244866093e+000	 1.074742015675245e+000	 1.286664507464635e+001
 1.369933940068900e+000	 1.088935718897823e+000	 1.273312333421124e+001
 1.358618078265032e+000	 1.103021721212288e+000	 1.258632745599653e+001
 1.485667032413862e+000	 9.712973122453554e-001	 1.343351310780341e+001
 1.475632555316646e+000	 9.864753223822117e-001	 1.339662486674570e+001
 1.465432657355221e+000	 1.001564839009399e+000	 1.334901381672461e+001
 1.455068478104174e+000	 1.016563192337402e+000	 1.329068149336926e+001
 1.444541213996231e+000	 1.031467731467781e+000	 1.322163800936393e+001
 1.433852117949764e+000	 1.046275825894073e+000	 1.314190202605338e+001
 1.423002498949086e+000	 1.060984866994530e+000	 1.305150071210397e+001
 1.411993721577700e+000	 1.075592269514989e+000	 1.295046968929943e+001
 1.400827205504765e+000	 1.090095473040156e+000	 1.283885296558170e+001
 1.389504424925096e+000	 1.104491943451570e+000	 1.271670285547988e+001
 1.378026907953097e+000	 1.118779174370570e+000	 1.258407988810102e+001
 1.506591920194319e+000	 9.849775560819279e-001	 1.339678841161006e+001
 1.496416112432994e+000	 1.000369341008790e+000	 1.335260736408808e+001
 1.486072553936272e+000	 1.015671386038590e+000	 1.330004507517373e+001
 1.475562400329086e+000	 1.030880983779144e+000	 1.323915899423351e+001
 1.464886864895328e+000	 1.045995445995414e+000	 1.317001328773412e+001
 1.454047218200109e+000	 1.061012105131552e+000	 1.309267873919560e+001
 1.443044787664139e+000	 1.075928315824656e+000	 1.300723263817942e+001
 1.431880957090409e+000	 1.090741456408535e+000	 1.291375865852672e+001
 1.420557166143417e+000	 1.105448930405707e+000	 1.281234672608980e+001
 1.409074909781288e+000	 1.120048168005903e+000	 1.270309287622916e+001
 1.397435737641161e+000	 1.134536627529352e+000	 1.258609910137529e+001
 1.527516807974274e+000	 9.986577999184951e-001	 1.334683890220161e+001
 1.517199669548935e+000	 1.014263359635549e+000	 1.329732000045025e+001
 1.506712450517001e+000	 1.029777933068117e+000	 1.324170255419055e+001
 1.496056322553752e+000	 1.045198775221347e+000	 1.318009897211022e+001
 1.485232515794244e+000	 1.060523160523605e+000	 1.311262655615483e+001
 1.474242318450327e+000	 1.075748384369653e+000	 1.303940733074151e+001
 1.463087076379111e+000	 1.090871764655440e+000	 1.296056786294553e+001
 1.451768192603072e+000	 1.105890643302745e+000	 1.287623907400868e+001
 1.440287126782049e+000	 1.120802387771898e+000	 1.278655604254477e+001
 1.428645394637474e+000	 1.135604392560821e+000	 1.269165779984132e+001
 1.416844567329225e+000	 1.150294080688636e+000	 1.259168711768176e+001
 1.548441695753725e+000	 1.012338043755057e+000	 1.328371549233053e+001
 1.537983226664468e+000	 1.028157378262487e+000	 1.323073133641366e+001
 1.527352347097408e+000	 1.043884480097980e+000	 1.317387486996456e+001
 1.516550244778170e+000	 1.059516566664011e+000	 1.311331255342456e+001
 1.505578166692978e+000	 1.075050875052352e+000	 1.304921395143605e+001
 1.494437418700419e+000	 1.090484663608378e+000	 1.298175149218116e+001
 1.483129365094002e+000	 1.105815213486884e+000	 1.291110021959017e+001
 1.471655428115689e+000	 1.121039830197621e+000	 1.283743753890191e+001
 1.460017087420660e+000	 1.136155845138731e+000	 1.276094295608080e+001
 1.448215879493655e+000	 1.151160617116326e+000	 1.268179781161734e+001
 1.436253397017289e+000	 1.166051533848422e+000	 1.260018500925821e+001
 1.569366583532674e+000	 1.026018287591614e+000	 1.320746860535158e+001
 1.558766783779593e+000	 1.042051396889605e+000	 1.315281375467499e+001
 1.547992243677491e+000	 1.057991027128177e+000	 1.309645864098606e+001
 1.537044167002341e+000	 1.073834358107137e+000	 1.303862291338313e+001
 1.525923817591530e+000	 1.089578589581657e+000	 1.297952756964268e+001
 1.514632518950384e+000	 1.105220942847725e+000	 1.291939464650039e+001
 1.503171653808812e+000	 1.120758662318988e+000	 1.285844690465961e+001
 1.491542663628261e+000	 1.136189017093162e+000	 1.279690750914119e+001
 1.479747048059252e+000	 1.151509302506204e+000	 1.273499970560786e+001
 1.467786364349831e+000	 1.166716841672417e+000	 1.267294649331554e+001
 1.455662226705354e+000	 1.181808987008709e+000	 1.261097029535953e+001
 1.590291471311120e+000	 1.039698531428165e+000	 1.311814820741905e+001
 1.579550340894311e+000	 1.055945415516904e+000	 1.306354320859136e+001
 1.568632140257253e+000	 1.072097574158711e+000	 1.300935796157895e+001
 1.557538089226265e+000	 1.088152149550724e+000	 1.295586448329105e+001
 1.546269468489901e+000	 1.104106304111519e+000	 1.290333441614361e+001
 1.534827619200224e+000	 1.119957222087696e+000	 1.285203865005613e+001
 1.523213942523541e+000	 1.135702111151750e+000	 1.280224694099525e+001
 1.511429899140787e+000	 1.151338203989368e+000	 1.275422752680951e+001
 1.499477008697823e+000	 1.166862759874318e+000	 1.270824674111616e+001
 1.487356849206002e+000	 1.182273066229095e+000	 1.266456862601632e+001
 1.475071056393418e+000	 1.197566440169497e+000	 1.262345454442753e+001
 1.611216359089064e+000	 1.053378775264711e+000	 1.301580383717511e+001
 1.600333898008621e+000	 1.069839434144381e+000	 1.296289899031912e+001
 1.589272036836692e+000	 1.086204121189579e+000	 1.291248391645706e+001
 1.578032011449943e+000	 1.102469940994773e+000	 1.286488221963650e+001
 1.566615119388090e+000	 1.118634018641939e+000	 1.282041543747515e+001
 1.555022719449937e+000	 1.134693501328291e+000	 1.277940259560431e+001
 1.543256231238190e+000	 1.150645559985172e+000	 1.274215976044176e+001
 1.531317134653268e+000	 1.166487390886239e+000	 1.270899959116724e+001
 1.519206969336374e+000	 1.182216217243073e+000	 1.268023089178765e+001
 1.506927334062168e+000	 1.197829290786359e+000	 1.265615816419203e+001
 1.494479886081482e+000	 1.213323893330786e+000	 1.263708116310485e+001
 1.632141246866505e+000	 1.067059019101252e+000	 1.290048463315436e+001
 1.621117455122524e+000	 1.083733452772039e+000	 1.285086351678837e+001
 1.609911933415809e+000	 1.100310668220784e+000	 1.280575413262210e+001
 1.598525933673372e+000	 1.116787732439283e+000	 1.276553092939937e+001
 1.586960770286098e+000	 1.133161733172915e+000	 1.273056462767626e+001
 1.575217819699524e+000	 1.149429780569508e+000	 1.270122170740234e+001
 1.563298519952757e+000	 1.165589008819253e+000	 1.267786389557776e+001
 1.551204370165704e+000	 1.181636577783775e+000	 1.266084765498704e+001
 1.538936929974905e+000	 1.197569674612468e+000	 1.265052367502229e+001
 1.526497818918329e+000	 1.213385515344208e+000	 1.264723636561788e+001
 1.513888715769546e+000	 1.229081346492577e+000	 1.265132335532458e+001
 1.653066134643443e+000	 1.080739262937787e+000	 1.277223935910722e+001
 1.641901012236020e+000	 1.097627471399877e+000	 1.272742213193237e+001
 1.630551829994604e+000	 1.114417215252323e+000	 1.268909236529498e+001
 1.619019855896555e+000	 1.131105523884254e+000	 1.265767464660262e+001
 1.607306421183923e+000	 1.147689447704449e+000	 1.263358820249747e+001
 1.595412919948985e+000	 1.164166059811349e+000	 1.261724632022814e+001
 1.583340808667244e+000	 1.180532457653993e+000	 1.260905577080844e+001
 1.571091605678093e+000	 1.196785764681976e+000	 1.260941623509094e+001
 1.558666890613415e+000	 1.212923131982505e+000	 1.261871973389245e+001
 1.546068303774485e+000	 1.228941739902644e+000	 1.263735006331462e+001
 1.533297545457611e+000	 1.244838799654869e+000	 1.266568223640577e+001
 1.673991022419878e+000	 1.094419506774317e+000	 1.263111642742386e+001
 1.662684569349107e+000	 1.111521490027895e+000	 1.259256292374998e+001
 1.651191726573076e+000	 1.128523762284198e+000	 1.256242811490201e+001
 1.639513778119492e+000	 1.145423315329686e+000	 1.254118605562191e+001
 1.627652072081568e+000	 1.162217162236540e+000	 1.252930383554380e+001
 1.615608020198319e+000	 1.178902339053813e+000	 1.252724093497256e+001
 1.603383097381650e+000	 1.195475906489392e+000	 1.253544858412649e+001
 1.590978841190437e+000	 1.211934951580842e+000	 1.255436912709731e+001
 1.578396851251905e+000	 1.228276589353181e+000	 1.258443539178860e+001
 1.565638788630636e+000	 1.244497964461666e+000	 1.262607006709577e+001
 1.552706375145675e+000	 1.260596252817663e+000	 1.248637704165991e+001
 1.358618078265032e+000	 1.103021721212288e+000	 1.258632745599653e+001
 1.347151218564126e+000	 1.116997580295668e+000	 1.248176755332849e+001
 1.335534971906517e+000	 1.130860883968336e+000	 1.238235506269925e+001
 1.323771000332177e+000	 1.144609251562969e+000	 1.228838807404670e+001
 1.311861016207092e+000	 1.158240335270790e+000	 1.220015702935468e+001
 1.299806781406892e+000	 1.171751821465558e+000	 1.211794431489129e+001
 1.287610106458835e+000	 1.185141432003066e+000	 1.204202386312521e+001
 1.275272849643007e+000	 1.198406925494608e+000	 1.197266076515301e+001
 1.262796916053697e+000	 1.211546098552944e+000	 1.191011089445270e+001
 1.250184256621897e+000	 1.224556787009297e+000	 1.185462054275595e+001
 1.237436867100000e+000	 1.237436867100000e+000	 1.177105902424986e+001
 1.378026907953097e+000	 1.118779174370570e+000	 1.258407988810102e+001
 1.366396235971277e+000	 1.132954688583815e+000	 1.250576205701148e+001
 1.354614042933290e+000	 1.147016039451929e+000	 1.243256062877757e+001
 1.342682014622530e+000	 1.160960812298055e+000	 1.236478122302719e+001
 1.330601887867360e+000	 1.174786625773290e+000	 1.230272188486806e+001
 1.318375449713060e+000	 1.188491133199592e+000	 1.224667266348969e+001
 1.306004536551559e+000	 1.202072023887835e+000	 1.219691520027809e+001
 1.293491033209806e+000	 1.215527024429475e+000	 1.215372232730592e+001
 1.280836871997721e+000	 1.228853899960310e+000	 1.211735767704309e+001
 1.268044031716739e+000	 1.242050455394868e+000	 1.208807530411179e+001
 1.255114536630000e+000	 1.255114536630000e+000	 1.199197463843749e+001
 1.397435737641161e+000	 1.134536627529352e+000	 1.258609910137529e+001
 1.385641253378430e+000	 1.148911796872367e+000	 1.253422118545930e+001
 1.373693113960062e+000	 1.163171194935842e+000	 1.248743918456360e+001
 1.361593028912885e+000	 1.177312373033386e+000	 1.244606630062130e+001
 1.349342759527628e+000	 1.191332916275971e+000	 1.241040822886660e+001
 1.336944118019226e+000	 1.205230444933751e+000	 1.238076272262320e+001
 1.324398966644283e+000	 1.219002615772684e+000	 1.235741916744490e+001
 1.311709216776605e+000	 1.232647123364387e+000	 1.234065816550160e+001
 1.298876827941744e+000	 1.246161701367696e+000	 1.233075113108618e+001
 1.285903806811580e+000	 1.259544123780444e+000	 1.218367991416498e+001
 1.272792206160000e+000	 1.272792206160000e+000	 1.199174890896639e+001
 1.416844567329225e+000	 1.150294080688636e+000	 1.259168711768176e+001
 1.404886270785581e+000	 1.164868905161327e+000	 1.256643639715820e+001
 1.392772184986834e+000	 1.179326350420076e+000	 1.254627130318957e+001
 1.380504043203239e+000	 1.193663933768963e+000	 1.253151267937975e+001
 1.368083631187897e+000	 1.207879206778833e+000	 1.252247392507381e+001
 1.355512786325393e+000	 1.221969756668037e+000	 1.251946054614792e+001
 1.342793396737007e+000	 1.235933207657614e+000	 1.252276971499582e+001
 1.329927400343404e+000	 1.249767222299344e+000	 1.253268984063552e+001
 1.316916783885769e+000	 1.263469502775102e+000	 1.233818830466589e+001
 1.303763581906421e+000	 1.277037792166025e+000	 1.215324879694911e+001
 1.290469875690000e+000	 1.290469875690000e+000	 1.198217318974245e+001
 1.436253397017289e+000	 1.166051533848422e+000	 1.260018500925821e+001
 1.424131288192732e+000	 1.180826013450692e+000	 1.260173866673009e+001
 1.411851256013606e+000	 1.195481505904632e+000	 1.260837755552470e+001
 1.399415057493593e+000	 1.210015494504787e+000	 1.262043022682250e+001
 1.386824502848165e+000	 1.224425497281876e+000	 1.263821784482489e+001
 1.374081454631560e+000	 1.238709068402448e+000	 1.266205372335348e+001
 1.361187826829731e+000	 1.252863799542624e+000	 1.264548543805094e+001
 1.348145583910203e+000	 1.266887321234346e+000	 1.245535425139861e+001
 1.334956739829792e+000	 1.280777304182528e+000	 1.227789336365562e+001
 1.321623357001262e+000	 1.294531460551611e+000	 1.211374982444664e+001
 1.308147545220000e+000	 1.308147545220000e+000	 1.196356602891294e+001
 1.455662226705354e+000	 1.181808987008709e+000	 1.261097029535953e+001
 1.443376305599884e+000	 1.196783121740464e+000	 1.263949585052363e+001
 1.430930327040378e+000	 1.211636661389509e+000	 1.267311584365945e+001
 1.418326071783947e+000	 1.226367055240856e+000	 1.271216660577411e+001
 1.405565374508434e+000	 1.240971787785099e+000	 1.275697713322590e+001
 1.392650122937726e+000	 1.255448380136983e+000	 1.271645625520998e+001
 1.379582256922455e+000	 1.269794391427715e+000	 1.253500401768392e+001
 1.366363767477002e+000	 1.284007420169393e+000	 1.236558836546983e+001
 1.352996695773816e+000	 1.298085105589975e+000	 1.220888354883953e+001
 1.339483132096104e+000	 1.312025128937202e+000	 1.206556082688967e+001
 1.325825214750000e+000	 1.325825214750000e+000	 1.193628740851607e+001
 1.475071056393418e+000	 1.197566440169497e+000	 1.262345454442753e+001
 1.462621323007036e+000	 1.212740230030642e+000	 1.267911026018457e+001
 1.450009398067151e+000	 1.227791816874707e+000	 1.273987894490402e+001
 1.437237086074301e+000	 1.242718615977171e+000	 1.280610478783048e+001
 1.424306246168702e+000	 1.257518078288503e+000	 1.274898695867642e+001
 1.411218791243894e+000	 1.272187691871646e+000	 1.257692085737890e+001
 1.397976687015180e+000	 1.286724983312886e+000	 1.241620006250370e+001
 1.384581951043801e+000	 1.301127519104486e+000	 1.226752413157635e+001
 1.371036651717840e+000	 1.315392906997442e+000	 1.213159138383159e+001
 1.357342907190945e+000	 1.329518797322798e+000	 1.200909781940962e+001
 1.343502884280000e+000	 1.343502884280000e+000	 1.190073601856720e+001
 1.494479886081482e+000	 1.213323893330786e+000	 1.263708116310485e+001
 1.481866340414187e+000	 1.228697338321226e+000	 1.272001642529902e+001
 1.469088469093923e+000	 1.243946972360226e+000	 1.280809224716379e+001
 1.456148100364656e+000	 1.259070176713732e+000	 1.274271869439628e+001
 1.443047117828971e+000	 1.274064368792089e+000	 1.258083110543873e+001
 1.429787459550060e+000	 1.288927003606433e+000	 1.242954090908890e+001
 1.416371117107904e+000	 1.303655575198137e+000	 1.228957090971256e+001
 1.402800134610599e+000	 1.318247618039624e+000	 1.216164451121108e+001
 1.389076607661863e+000	 1.332700708404929e+000	 1.204648461980865e+001
 1.375202682285786e+000	 1.347012465708399e+000	 1.194481252249810e+001
 1.361180553810000e+000	 1.361180553810000e+000	 1.185734674355380e+001
 1.513888715769546e+000	 1.229081346492577e+000	 1.265132335532458e+001
 1.501111357821339e+000	 1.244654446612217e+000	 1.276167902814076e+001
 1.488167540120695e+000	 1.260102127846067e+000	 1.269722025184571e+001
 1.475059114655010e+000	 1.275421737450539e+000	 1.254639117686980e+001
 1.461787989489239e+000	 1.290610659295854e+000	 1.240535614059165e+001
 1.448356127856227e+000	 1.305666315341346e+000	 1.227485896874679e+001
 1.434765547200628e+000	 1.320586167083468e+000	 1.215564600417233e+001
 1.421018318177399e+000	 1.335367716974807e+000	 1.204846499888530e+001
 1.407116563605887e+000	 1.350008509812436e+000	 1.195406397733327e+001
 1.393062457380627e+000	 1.364506134094006e+000	 1.187319007320204e+001
 1.378858223340000e+000	 1.378858223340000e+000	 1.180658834227697e+001
 1.533297545457611e+000	 1.244838799654869e+000	 1.266568223640577e+001
 1.520356375228491e+000	 1.260611554903613e+000	 1.261197638687024e+001
 1.507246611147468e+000	 1.276257283332228e+000	 1.247317546322343e+001
 1.493970128945364e+000	 1.291773298187593e+000	 1.234331124688114e+001
 1.480528861149507e+000	 1.307156949799801e+000	 1.222314619724163e+001
 1.466924796162394e+000	 1.322405627076385e+000	 1.211344728234881e+001
 1.453159977293352e+000	 1.337516758968881e+000	 1.201498486627401e+001
 1.439236501744198e+000	 1.352487815910036e+000	 1.192853156307695e+001
 1.425156519549911e+000	 1.367316311219963e+000	 1.185486105968383e+001
 1.410922232475468e+000	 1.381999802479617e+000	 1.179474691015153e+001
 1.396535892870000e+000	 1.396535892870000e+000	 1.174896130390765e+001
 1.552706375145675e+000	 1.260596252817663e+000	 1.248637704165991e+001
 1.539601392635642e+000	 1.276568663195416e+000	 1.236066511782625e+001
 1.526325682174240e+000	 1.292412438818711e+000	 1.224298032491753e+001
 1.512881143235718e+000	 1.308124858924892e+000	 1.213410120973239e+001
 1.499269732809776e+000	 1.323703240303929e+000	 1.203481288692684e+001
 1.485493464468560e+000	 1.339144938811549e+000	 1.194590592800656e+001
 1.471554407386076e+000	 1.354447350854373e+000	 1.186817521221723e+001
 1.457454685310996e+000	 1.369607914845309e+000	 1.180241874160777e+001
 1.443196475493935e+000	 1.384624112627510e+000	 1.174943642268454e+001
 1.428782007570310e+000	 1.399493470865233e+000	 1.171002881721114e+001
 1.414213562400000e+000	 1.414213562400000e+000	 1.168499586483826e+001
 1.237436867100000e+000	 1.237436867100000e+000	 1.177105902424986e+001
 1.224556787009298e+000	 1.250184256621897e+000	 1.176770676152229e+001
 1.211546098552944e+000	 1.262796916053697e+000	 1.158844687014432e+001
 1.198406925494609e+000	 1.275272849643007e+000	 1.140943080004985e+001
 1.185141432003066e+000	 1.287610106458834e+000	 1.123071774415171e+001
 1.171751821465559e+000	 1.299806781406892e+000	 1.105235711192526e+001
 1.158240335270790e+000	 1.311861016207091e+000	 1.087438833789272e+001
 1.144609251562970e+000	 1.323771000332176e+000	 1.069684070633619e+001
 1.130860883968337e+000	 1.335534971906517e+000	 1.051973319277571e+001
 1.116997580295668e+000	 1.347151218564126e+000	 1.034307432270818e+001
 1.103021721212288e+000	 1.358618078265032e+000	 1.016686204806215e+001
 1.255114536630000e+000	 1.255114536630000e+000	 1.199197463843749e+001
 1.242050455394869e+000	 1.268044031716738e+000	 1.185004787946680e+001
 1.228853899960310e+000	 1.280836871997720e+000	 1.169497177354686e+001
 1.215527024429475e+000	 1.293491033209806e+000	 1.153867610348815e+001
 1.202072023887835e+000	 1.306004536551558e+000	 1.138118284907894e+001
 1.188491133199593e+000	 1.318375449713059e+000	 1.122250573512736e+001
 1.174786625773290e+000	 1.330601887867360e+000	 1.106265006692269e+001
 1.160960812298055e+000	 1.342682014622530e+000	 1.090161257979561e+001
 1.147016039451929e+000	 1.354614042933289e+000	 1.073938130328914e+001
 1.132954688583815e+000	 1.366396235971277e+000	 1.057593544041789e+001
 1.118779174370570e+000	 1.378026907953097e+000	 1.041124526245485e+001
 1.272792206160000e+000	 1.272792206160000e+000	 1.199174890896639e+001
 1.259544123780445e+000	 1.285903806811580e+000	 1.188386967636625e+001
 1.246161701367696e+000	 1.298876827941744e+000	 1.177094427337568e+001
 1.232647123364387e+000	 1.311709216776605e+000	 1.163595181871096e+001
 1.219002615772685e+000	 1.324398966644283e+000	 1.149832684718699e+001
 1.205230444933752e+000	 1.336944118019226e+000	 1.135804831209087e+001
 1.191332916275972e+000	 1.349342759527628e+000	 1.121508825909015e+001
 1.177312373033386e+000	 1.361593028912884e+000	 1.106941169965832e+001
 1.163171194935842e+000	 1.373693113960061e+000	 1.092097649701271e+001
 1.148911796872368e+000	 1.385641253378429e+000	 1.076973326502566e+001
 1.134536627529353e+000	 1.397435737641161e+000	 1.061562528053372e+001
 1.290469875690000e+000	 1.290469875690000e+000	 1.198217318974245e+001
 1.277037792166026e+000	 1.303763581906420e+000	 1.188617386090543e+001
 1.263469502775103e+000	 1.316916783885768e+000	 1.179237507418449e+001
 1.249767222299344e+000	 1.329927400343403e+000	 1.170070290037534e+001
 1.235933207657615e+000	 1.342793396737007e+000	 1.158165496430468e+001
 1.221969756668037e+000	 1.355512786325393e+000	 1.145854804907535e+001
 1.207879206778833e+000	 1.368083631187896e+000	 1.133132178826533e+001
 1.193663933768964e+000	 1.380504043203238e+000	 1.119991027401785e+001
 1.179326350420077e+000	 1.392772184986834e+000	 1.106424196383283e+001
 1.164868905161327e+000	 1.404886270785581e+000	 1.092423959827081e+001
 1.150294080688636e+000	 1.416844567329225e+000	 1.077982012998441e+001
 1.308147545220000e+000	 1.308147545220000e+000	 1.196356602891294e+001
 1.294531460551612e+000	 1.321623357001262e+000	 1.187762699579248e+001
 1.280777304182529e+000	 1.334956739829792e+000	 1.179246089591148e+001
 1.266887321234347e+000	 1.348145583910202e+000	 1.170843667411705e+001
 1.252863799542625e+000	 1.361187826829731e+000	 1.162592801303651e+001
 1.238709068402448e+000	 1.374081454631559e+000	 1.152359446330400e+001
 1.224425497281876e+000	 1.386824502848165e+000	 1.141099259032182e+001
 1.210015494504787e+000	 1.399415057493592e+000	 1.129280045010762e+001
 1.195481505904632e+000	 1.411851256013606e+000	 1.116891783738001e+001
 1.180826013450693e+000	 1.424131288192732e+000	 1.103924031899669e+001
 1.166051533848422e+000	 1.436253397017289e+000	 1.090365917891384e+001
 1.325825214750000e+000	 1.325825214750000e+000	 1.193628740851607e+001
 1.312025128937203e+000	 1.339483132096103e+000	 1.185864444716647e+001
 1.298085105589976e+000	 1.352996695773815e+000	 1.178038332169481e+001
 1.284007420169394e+000	 1.366363767477001e+000	 1.170185759546377e+001
 1.269794391427715e+000	 1.379582256922455e+000	 1.162342764398645e+001
 1.255448380136984e+000	 1.392650122937726e+000	 1.154545982781420e+001
 1.240971787785099e+000	 1.405565374508433e+000	 1.145376412567000e+001
 1.226367055240856e+000	 1.418326071783947e+000	 1.134779298502483e+001
 1.211636661389510e+000	 1.430930327040378e+000	 1.123476006544607e+001
 1.196783121740464e+000	 1.443376305599884e+000	 1.111453444467694e+001
 1.181808987008709e+000	 1.455662226705354e+000	 1.098698237982235e+001
 1.343502884280000e+000	 1.343502884280000e+000	 1.190073601856720e+001
 1.329518797322799e+000	 1.357342907190944e+000	 1.182967692698068e+001
 1.315392906997442e+000	 1.371036651717839e+000	 1.175664265810926e+001
 1.301127519104487e+000	 1.384581951043800e+000	 1.168197281793251e+001
 1.286724983312886e+000	 1.397976687015179e+000	 1.160601589411701e+001
 1.272187691871646e+000	 1.411218791243893e+000	 1.152912842135206e+001
 1.257518078288504e+000	 1.424306246168701e+000	 1.145167411909611e+001
 1.242718615977171e+000	 1.437237086074301e+000	 1.136461602139735e+001
 1.227791816874708e+000	 1.450009398067151e+000	 1.126153936957868e+001
 1.212740230030642e+000	 1.462621323007035e+000	 1.114993326703203e+001
 1.197566440169497e+000	 1.475071056393418e+000	 1.102963957326175e+001
 1.361180553810000e+000	 1.361180553810000e+000	 1.185734674355380e+001
 1.347012465708400e+000	 1.375202682285786e+000	 1.179120819782001e+001
 1.332700708404929e+000	 1.389076607661863e+000	 1.172176921474044e+001
 1.318247618039624e+000	 1.402800134610599e+000	 1.164935685342500e+001
 1.303655575198137e+000	 1.416371117107903e+000	 1.157430912113764e+001
 1.288927003606434e+000	 1.429787459550060e+000	 1.149697412922479e+001
 1.274064368792089e+000	 1.443047117828970e+000	 1.141770921787608e+001
 1.259070176713732e+000	 1.456148100364655e+000	 1.133688005211103e+001
 1.243946972360227e+000	 1.469088469093923e+000	 1.124904028574643e+001
 1.228697338321226e+000	 1.481866340414187e+000	 1.114525955500005e+001
 1.213323893330786e+000	 1.494479886081482e+000	 1.103148984575424e+001
 1.378858223340000e+000	 1.378858223340000e+000	 1.180658834227697e+001
 1.364506134094007e+000	 1.393062457380627e+000	 1.174375295427065e+001
 1.350008509812436e+000	 1.407116563605887e+000	 1.167632138091475e+001
 1.335367716974808e+000	 1.421018318177398e+000	 1.160460953272952e+001
 1.320586167083469e+000	 1.434765547200628e+000	 1.152894633349095e+001
 1.305666315341347e+000	 1.448356127856226e+000	 1.144967286489748e+001
 1.290610659295855e+000	 1.461787989489238e+000	 1.136714147647182e+001
 1.275421737450540e+000	 1.475059114655009e+000	 1.128171486315743e+001
 1.260102127846067e+000	 1.488167540120695e+000	 1.119376511317236e+001
 1.244654446612217e+000	 1.501111357821338e+000	 1.110034681901799e+001
 1.229081346492577e+000	 1.513888715769546e+000	 1.099240093710189e+001
 1.396535892870000e+000	 1.396535892870000e+000	 1.174896130390765e+001
 1.381999802479617e+000	 1.410922232475468e+000	 1.168785486519850e+001
 1.367316311219963e+000	 1.425156519549910e+000	 1.162088384850079e+001
 1.352487815910036e+000	 1.439236501744197e+000	 1.154835440305968e+001
 1.337516758968881e+000	 1.453159977293351e+000	 1.147058775676183e+001
 1.322405627076385e+000	 1.466924796162393e+000	 1.138791934768434e+001
 1.307156949799802e+000	 1.480528861149507e+000	 1.130069791726147e+001
 1.291773298187593e+000	 1.493970128945363e+000	 1.120928456759850e+001
 1.276257283332229e+000	 1.507246611147467e+000	 1.111405178557356e+001
 1.260611554903614e+000	 1.520356375228490e+000	 1.101538243646933e+001
 1.244838799654869e+000	 1.533297545457611e+000	 1.091224869271081e+001
 1.414213562400000e+000	 1.414213562400000e+000	 1.168499586483826e+001
 1.399493470865234e+000	 1.428782007570309e+000	 1.162408476285668e+001
 1.384624112627510e+000	 1.443196475493934e+000	 1.155606596800025e+001
 1.369607914845310e+000	 1.457454685310996e+000	 1.148123724577788e+001
 1.354447350854374e+000	 1.471554407386076e+000	 1.139991350760612e+001
 1.339144938811550e+000	 1.485493464468560e+000	 1.131242592738298e+001
 1.323703240303929e+000	 1.499269732809775e+000	 1.121912101603919e+001
 1.308124858924892e+000	 1.512881143235717e+000	 1.112035965667067e+001
 1.292412438818711e+000	 1.526325682174239e+000	 1.101651610297478e+001
 1.276568663195417e+000	 1.539601392635642e+000	 1.090797694382417e+001
 1.260596252817662e+000	 1.552706375145675e+000	 1.079514003691262e+001
 1.103021721212288e+000	 1.358618078265032e+000	 1.016686204806215e+001
 1.088935718897824e+000	 1.369933940068900e+000	 1.006783145639717e+001
 1.074742015675246e+000	 1.381097244866093e+000	 9.964952383759540e+000
 1.060443082622109e+000	 1.392106486064946e+000	 9.858206884375338e+000
 1.046041418165064e+000	 1.402960210233953e+000	 9.747568950646700e+000
 1.031539546657220e+000	 1.413657017699293e+000	 9.633004447262898e+000
 1.016940016940706e+000	 1.424195563096951e+000	 9.514471061597417e+000
 1.002245400896121e+000	 1.434574555879014e+000	 9.391918270599369e+000
 9.874582919805436e-001	 1.444792760773847e+000	 9.265287324341104e+000
 9.725813037558133e-001	 1.454848998199890e+000	 9.134511246339994e+000
 9.576170684087774e-001	 1.464742144632903e+000	 8.999514850724465e+000
 1.118779174370570e+000	 1.378026907953097e+000	 1.041124526245485e+001
 1.104491943451570e+000	 1.389504424925096e+000	 1.032236911134032e+001
 1.090095473040156e+000	 1.400827205504764e+000	 1.022751157893455e+001
 1.075592269514990e+000	 1.411993721577700e+000	 1.012662187671497e+001
 1.060984866994531e+000	 1.423002498949086e+000	 1.001964329127399e+001
 1.046275825894074e+000	 1.433852117949764e+000	 9.906513134147716e+000
 1.031467731467782e+000	 1.444541213996230e+000	 9.787162705096803e+000
 1.016563192337402e+000	 1.455068478104174e+000	 9.661517269053610e+000
 1.001564839009400e+000	 1.465432657355220e+000	 9.529496046910014e+000
 9.864753223822118e-001	 1.475632555316645e+000	 9.391012220282271e+000
 9.712973122453553e-001	 1.485667032413862e+000	 9.245972950344266e+000
 1.134536627529353e+000	 1.397435737641161e+000	 1.061562528053372e+001
 1.120048168005903e+000	 1.409074909781287e+000	 1.053554007496327e+001
 1.105448930405707e+000	 1.420557166143416e+000	 1.044742335137774e+001
 1.090741456408535e+000	 1.431880957090408e+000	 1.035119223052627e+001
 1.075928315824656e+000	 1.443044787664139e+000	 1.024675998763470e+001
 1.061012105131552e+000	 1.454047218200108e+000	 1.013403601730888e+001
 1.045995445995415e+000	 1.464886864895328e+000	 1.001292580913136e+001
 1.030880983779144e+000	 1.475562400329086e+000	 9.883330934175136e+000
 1.015671386038591e+000	 1.486072553936272e+000	 9.745149042620099e+000
 1.000369341008791e+000	 1.496416112432994e+000	 9.598273872627049e+000
 9.849775560819279e-001	 1.506591920194319e+000	 9.442595270583921e+000
 1.150294080688636e+000	 1.416844567329225e+000	 1.077982012998441e+001
 1.135604392560822e+000	 1.428645394637474e+000	 1.070722653084537e+001
 1.120802387771899e+000	 1.440287126782048e+000	 1.062463117275537e+001
 1.105890643302746e+000	 1.451768192603071e+000	 1.053191981775947e+001
 1.090871764655441e+000	 1.463087076379111e+000	 1.042897640604290e+001
 1.075748384369654e+000	 1.474242318450326e+000	 1.031568303527070e+001
 1.060523160523605e+000	 1.485232515794243e+000	 1.019191994793702e+001
 1.045198775221347e+000	 1.496056322553752e+000	 1.005756552695573e+001
 1.029777933068118e+000	 1.506712450517000e+000	 9.912496299693034e+000
 1.014263359635549e+000	 1.517199669548935e+000	 9.756586950612997e+000
 9.986577999184951e-001	 1.527516807974274e+000	 9.589710342676943e+000
 1.166051533848422e+000	 1.436253397017289e+000	 1.090365917891384e+001
 1.151160617116327e+000	 1.448215879493655e+000	 1.083731829844469e+001
 1.136155845138731e+000	 1.460017087420660e+000	 1.075908260274765e+001
 1.121039830197622e+000	 1.471655428115689e+000	 1.066880720860267e+001
 1.105815213486885e+000	 1.483129365094001e+000	 1.056634738066952e+001
 1.090484663608378e+000	 1.494437418700418e+000	 1.045155852462959e+001
 1.075050875052353e+000	 1.505578166692977e+000	 1.032429618572643e+001
 1.059516566664012e+000	 1.516550244778170e+000	 1.018441605294472e+001
 1.043884480097980e+000	 1.527352347097407e+000	 1.003177396904364e+001
 1.028157378262487e+000	 1.537983226664467e+000	 9.866225946633948e+000
 1.012338043755057e+000	 1.548441695753725e+000	 9.687628190463670e+000
 1.181808987008709e+000	 1.455662226705354e+000	 1.098698237982235e+001
 1.166716841672418e+000	 1.467786364349831e+000	 1.092571232403990e+001
 1.151509302506204e+000	 1.479747048059251e+000	 1.085072901651432e+001
 1.136189017093163e+000	 1.491542663628261e+000	 1.076185762493248e+001
 1.120758662318988e+000	 1.503171653808811e+000	 1.065892538235213e+001
 1.105220942847726e+000	 1.514632518950384e+000	 1.054176159351617e+001
 1.089578589581658e+000	 1.525923817591530e+000	 1.041019764402416e+001
 1.073834358107138e+000	 1.537044167002341e+000	 1.026406701261176e+001
 1.057991027128178e+000	 1.547992243677491e+000	 1.010320528676718e+001
 1.042051396889606e+000	 1.558766783779593e+000	 9.927450181895235e+000
 1.026018287591614e+000	 1.569366583532674e+000	 9.736641564217287e+000
 1.197566440169497e+000	 1.475071056393418e+000	 1.102963957326175e+001
 1.182273066229095e+000	 1.487356849206002e+000	 1.097231221186018e+001
 1.166862759874319e+000	 1.499477008697823e+000	 1.089952535367640e+001
 1.151338203989369e+000	 1.511429899140787e+000	 1.081107489743994e+001
 1.135702111151751e+000	 1.523213942523541e+000	 1.070676067407755e+001
 1.119957222087697e+000	 1.534827619200224e+000	 1.058638646557301e+001
 1.104106304111520e+000	 1.546269468489901e+000	 1.044976002421170e+001
 1.088152149550725e+000	 1.557538089226265e+000	 1.029669309247043e+001
 1.072097574158711e+000	 1.568632140257253e+000	 1.012700142379824e+001
 1.055945415516904e+000	 1.579550340894311e+000	 9.940504804518007e+000
 1.039698531428165e+000	 1.590291471311120e+000	 9.737027077062786e+000
 1.213323893330786e+000	 1.494479886081482e+000	 1.103148984575424e+001
 1.197829290786359e+000	 1.506927334062168e+000	 1.097702779175095e+001
 1.182216217243073e+000	 1.519206969336373e+000	 1.090542988685766e+001
 1.166487390886240e+000	 1.531317134653268e+000	 1.081646342609703e+001
 1.150645559985173e+000	 1.543256231238189e+000	 1.070990145434853e+001
 1.134693501328291e+000	 1.555022719449937e+000	 1.058552279712949e+001
 1.118634018641939e+000	 1.566615119388090e+000	 1.044311208935506e+001
 1.102469940994773e+000	 1.578032011449942e+000	 1.028245980234826e+001
 1.086204121189580e+000	 1.589272036836692e+000	 1.010336226936284e+001
 1.069839434144382e+000	 1.600333898008622e+000	 9.905621709869488e+000
 1.053378775264711e+000	 1.611216359089064e+000	 9.689046252843708e+000
 1.229081346492577e+000	 1.513888715769546e+000	 1.099240093710189e+001
 1.213385515344209e+000	 1.526497818918328e+000	 1.093977472009579e+001
 1.197569674612469e+000	 1.538936929974904e+000	 1.086840400803042e+001
 1.181636577783776e+000	 1.551204370165703e+000	 1.077802814366428e+001
 1.165589008819253e+000	 1.563298519952757e+000	 1.066839398952254e+001
 1.149429780569509e+000	 1.575217819699524e+000	 1.053925596997796e+001
 1.133161733172916e+000	 1.586960770286097e+000	 1.039037610896841e+001
 1.116787732439283e+000	 1.598525933673372e+000	 1.022152406363564e+001
 1.100310668220784e+000	 1.609911933415809e+000	 1.003247715416505e+001
 1.083733452772040e+000	 1.621117455122524e+000	 9.823020390098467e+000
 1.067059019101252e+000	 1.632141246866505e+000	 9.592946493383682e+000
 1.244838799654869e+000	 1.533297545457611e+000	 1.091224869271081e+001
 1.228941739902645e+000	 1.546068303774485e+000	 1.086047411104828e+001
 1.212923131982505e+000	 1.558666890613415e+000	 1.078841203108879e+001
 1.196785764681977e+000	 1.571091605678093e+000	 1.069577448197000e+001
 1.180532457653993e+000	 1.583340808667244e+000	 1.058228273609950e+001
 1.164166059811349e+000	 1.595412919948984e+000	 1.044766736191444e+001
 1.147689447704450e+000	 1.607306421183923e+000	 1.029166826999876e+001
 1.131105523884254e+000	 1.619019855896555e+000	 1.011403475285798e+001
 1.114417215252324e+000	 1.630551829994604e+000	 9.914525518647482e+000
 1.097627471399878e+000	 1.641901012236019e+000	 9.692908719149072e+000
 1.080739262937787e+000	 1.653066134643443e+000	 9.448961972285256e+000
 1.260596252817662e+000	 1.552706375145675e+000	 1.079514003691262e+001
 1.244497964461667e+000	 1.565638788630635e+000	 1.073905219542128e+001
 1.228276589353182e+000	 1.578396851251904e+000	 1.066542100922812e+001
 1.211934951580843e+000	 1.590978841190437e+000	 1.056970834071850e+001
 1.195475906489393e+000	 1.603383097381649e+000	 1.045161045383801e+001
 1.178902339053814e+000	 1.615608020198319e+000	 1.031083459698800e+001
 1.162217162236541e+000	 1.627652072081567e+000	 1.014709905698591e+001
 1.145423315329686e+000	 1.639513778119491e+000	 9.960133204479650e+000
 1.128523762284199e+000	 1.651191726573076e+000	 9.749677531133056e+000
 1.111521490027896e+000	 1.662684569349107e+000	 9.515483678898587e+000
 1.094419506774317e+000	 1.673991022419878e+000	 9.257314461693612e+000
 9.576170684087774e-001	 1.464742144632903e+000	 8.999514850724465e+000
 9.425682352647938e-001	 1.474471132926832e+000	 8.887080634939146e+000
 9.274374692974090e-001	 1.484034952587418e+000	 8.767549864461651e+000
 9.122274496350911e-001	 1.493432649999157e+000	 8.640849720283022e+000
 8.969408680658608e-001	 1.502663328606234e+000	 8.506901038004205e+000
 8.815804275427319e-001	 1.511726149046811e+000	 8.365618367001211e+000
 8.661488406911886e-001	 1.520620329241137e+000	 8.216910044363621e+000
 8.506488283203394e-001	 1.529345144433827e+000	 8.060678283443771e+000
 8.350831179393496e-001	 1.537899927190630e+000	 7.896819276811640e+000
 8.194544422807425e-001	 1.546284067350165e+000	 7.725223313370069e+000
 8.037655378321177e-001	 1.554497011931069e+000	 7.545774909345626e+000
 9.712973122453553e-001	 1.485667032413862e+000	 9.245972950344266e+000
 9.560334957715676e-001	 1.495535006255741e+000	 9.124449866421411e+000
 9.406865760053216e-001	 1.505235451912260e+000	 8.997247619702021e+000
 9.252592703483492e-001	 1.514767402144833e+000	 8.864287410927185e+000
 9.097543090427870e-001	 1.524129947589711e+000	 8.725482628995170e+000
 8.941744336552635e-001	 1.533322236894168e+000	 8.580738924708349e+000
 8.785223955630558e-001	 1.542343476805889e+000	 8.429954301276171e+000
 8.628009544439745e-001	 1.551192932215838e+000	 8.273019221368166e+000
 8.470128767716024e-001	 1.559869926154992e+000	 8.109816730467092e+000
 8.311609343174995e-001	 1.568373839745378e+000	 7.940222596228415e+000
 8.152479026619462e-001	 1.576704112105899e+000	 7.764105463507659e+000
 9.849775560819279e-001	 1.506591920194319e+000	 9.442595270583921e+000
 9.694987562781512e-001	 1.516598879584058e+000	 9.312409274190252e+000
 9.539356827128893e-001	 1.526435951236438e+000	 9.177943157311704e+000
 9.382910910611391e-001	 1.536102154289799e+000	 9.039112267188440e+000
 9.225677500191511e-001	 1.545596566572447e+000	 8.895822679414733e+000
 9.067684397671690e-001	 1.554918324740777e+000	 8.747971285908788e+000
 8.908959504342631e-001	 1.564066624369902e+000	 8.595445901622092e+000
 8.749530805669461e-001	 1.573040719997142e+000	 8.438125389742252e+000
 8.589426356032184e-001	 1.581839925118697e+000	 8.275879805093908e+000
 8.428674263536748e-001	 1.590463612140004e+000	 8.108570555395847e+000
 8.267302674912782e-001	 1.598911212280233e+000	 7.936050579984080e+000
 9.986577999184951e-001	 1.527516807974274e+000	 9.589710342676943e+000
 9.829640167845446e-001	 1.537662752911782e+000	 9.451283768902792e+000
 9.671847894201128e-001	 1.547636450559955e+000	 9.309959139730639e+000
 9.513229117734604e-001	 1.557436906434054e+000	 9.165646075643148e+000
 9.353811909949530e-001	 1.567063185554443e+000	 9.018243471397858e+000
 9.193624458784487e-001	 1.576514412586635e+000	 8.867639597865068e+000
 9.032695053048110e-001	 1.585789771933177e+000	 8.713712224591536e+000
 8.871052066892549e-001	 1.594888507777738e+000	 8.556328762805142e+000
 8.708723944341967e-001	 1.603809924081746e+000	 8.395346428521263e+000
 8.545739183892692e-001	 1.612553384534044e+000	 8.230612425360144e+000
 8.382126323201147e-001	 1.621118312454072e+000	 8.061964146634402e+000
 1.012338043755057e+000	 1.548441695753725e+000	 9.687628190463670e+000
 9.964292772907482e-001	 1.558726626238913e+000	 9.541379743825758e+000
 9.804338961269921e-001	 1.568836949882811e+000	 9.393599632576889e+000
 9.643547324853132e-001	 1.578771658577596e+000	 9.244191877454538e+000
 9.481946319701927e-001	 1.588529804535699e+000	 9.093048324232223e+000
 9.319564519891026e-001	 1.598110500431744e+000	 8.940048759073221e+000
 9.156430601746997e-001	 1.607512919495713e+000	 8.785061046602516e+000
 8.992573328109000e-001	 1.616736295557627e+000	 8.627941290371869e+000
 8.828021532645382e-001	 1.625779923044137e+000	 8.468534015335184e+000
 8.662804104242823e-001	 1.634643156927498e+000	 8.306672371897850e+000
 8.496949971484549e-001	 1.643325412627414e+000	 8.142178361046126e+000
 1.026018287591614e+000	 1.569366583532674e+000	 9.736641564217287e+000
 1.009894537796761e+000	 1.579790499565452e+000	 9.582986309327673e+000
 9.936830028335265e-001	 1.590037449205004e+000	 9.429151344434352e+000
 9.773865531966977e-001	 1.600106410720428e+000	 9.275035218067105e+000
 9.610080729448698e-001	 1.609996423516213e+000	 9.120522858547870e+000
 9.445504580991302e-001	 1.619706588276103e+000	 8.965485702513549e+000
 9.280166150439284e-001	 1.629236067057511e+000	 8.809781848152786e+000
 9.114094589318823e-001	 1.638584083336807e+000	 8.653256232795487e+000
 8.947319120942425e-001	 1.647749922005872e+000	 8.495740834428691e+000
 8.779869024587137e-001	 1.656732929320365e+000	 8.337054896655369e+000
 8.611773619762990e-001	 1.665532512800259e+000	 8.177005176553136e+000
 1.039698531428165e+000	 1.590291471311120e+000	 9.737027077062786e+000
 1.023359798302585e+000	 1.600854372891399e+000	 9.576376429911935e+000
 1.006932109539717e+000	 1.611237948526535e+000	 9.416884768763488e+000
 9.904183739076136e-001	 1.621441162862548e+000	 9.258445298240615e+000
 9.738215139189849e-001	 1.631463042495988e+000	 9.100936160703077e+000
 9.571444642085323e-001	 1.641302676119713e+000	 8.944220577592795e+000
 9.403901699124980e-001	 1.650959214618570e+000	 8.788147017498289e+000
 9.235615850522011e-001	 1.660431871115281e+000	 8.632549390536543e+000
 9.066616709233094e-001	 1.669719920966950e+000	 8.477247268586241e+000
 8.896933944925638e-001	 1.678822701712647e+000	 8.322046130841503e+000
 8.726597268036471e-001	 1.687739612972610e+000	 8.166737634094119e+000
 1.053378775264711e+000	 1.611216359089064e+000	 9.689046252843708e+000
 1.036825058808218e+000	 1.621918246216753e+000	 9.521807972649553e+000
 1.020181216245563e+000	 1.632438447847403e+000	 9.357055236830927e+000
 1.003450194618061e+000	 1.642775915003957e+000	 9.194676035393306e+000
 9.866349548925376e-001	 1.652929661475022e+000	 9.034541856437684e+000
 9.697384703173085e-001	 1.662898763962574e+000	 8.876507839986360e+000
 9.527637247804079e-001	 1.672682362178890e+000	 8.720412960539360e+000
 9.357137111718568e-001	 1.682279658893047e+000	 8.566080237922604e+000
 9.185914297517397e-001	 1.691689919927371e+000	 8.413316975919807e+000
 9.013998865258328e-001	 1.700912474104342e+000	 8.261915028113190e+000
 8.841420916304991e-001	 1.709946713144463e+000	 8.111651090290469e+000
 1.067059019101252e+000	 1.632141246866505e+000	 9.592946493383682e+000
 1.050290319313661e+000	 1.642982119541515e+000	 9.419524674963073e+000
 1.033430322951064e+000	 1.653638947167610e+000	 9.249903889645115e+000
 1.016482015328040e+000	 1.664110667144654e+000	 9.083967043303357e+000
 9.994483958655279e-001	 1.674396280453315e+000	 8.921579101938971e+000
 9.823324764254585e-001	 1.684494851804685e+000	 8.762587257646704e+000
 9.651372796476582e-001	 1.694405509738473e+000	 8.606821125330553e+000
 9.478658372908494e-001	 1.704127446670105e+000	 8.454092969694987e+000
 9.305211885795325e-001	 1.713659918887135e+000	 8.304197961962986e+000
 9.131063785585204e-001	 1.723002246495451e+000	 8.156914465700465e+000
 8.956244564568551e-001	 1.732153813315821e+000	 8.012004351056355e+000
 1.080739262937787e+000	 1.653066134643443e+000	 9.448961972285256e+000
 1.063755579818914e+000	 1.664045992865685e+000	 9.269757038908420e+000
 1.046679429656221e+000	 1.674839446487155e+000	 9.095658576073973e+000
 1.029513836037550e+000	 1.685445419284640e+000	 8.926544537402229e+000
 1.012261836837956e+000	 1.695862899430868e+000	 8.762273499635755e+000
 9.949264825329828e-001	 1.706090939646046e+000	 8.602684840406171e+000
 9.775108345142489e-001	 1.716128657297317e+000	 8.447598948779699e+000
 9.600179634091784e-001	 1.725975234446455e+000	 8.296817468071417e+000
 9.424509474066884e-001	 1.735629917846242e+000	 8.150123570340796e+000
 9.248128705906267e-001	 1.745092018885973e+000	 8.007282261901956e+000
 9.071068212827147e-001	 1.754360913486683e+000	 7.868040719111638e+000
 1.094419506774317e+000	 1.673991022419878e+000	 9.257314461693612e+000
 1.077220840323977e+000	 1.685109866189261e+000	 9.072723158384974e+000
 1.059928536361034e+000	 1.696039945806038e+000	 8.894534683603656e+000
 1.042545656746593e+000	 1.706780171423916e+000	 8.722622172171752e+000
 1.025075277809822e+000	 1.717329518407680e+000	 8.556837945308493e+000
 1.007520488639881e+000	 1.727687027486658e+000	 8.397013699859505e+000
 9.898843893801801e-001	 1.737851804855421e+000	 8.242960732344599e+000
 9.721700895268447e-001	 1.747823022222098e+000	 8.094470197278564e+000
 9.543807062332069e-001	 1.757599916804693e+000	 7.951313399138658e+000
 9.365193626221513e-001	 1.767181791275909e+000	 7.813242117268189e+000
 9.185891861080785e-001	 1.776568013657048e+000	 7.679988962931787e+000
 8.037655378321177e-001	 1.554497011931069e+000	 7.545774909345626e+000
 7.880191433779774e-001	 1.562538264995355e+000	 7.358315404114080e+000
 7.722179985526132e-001	 1.570407387467961e+000	 7.187634413081729e+000
 7.563648424060114e-001	 1.578103996913506e+000	 7.033525564590303e+000
 7.404624119843860e-001	 1.585627767271441e+000	 6.895753740640999e+000
 7.245134409262329e-001	 1.592978428549761e+000	 6.774055641616711e+000
 7.085206580754382e-001	 1.600155766478270e+000	 6.668140388082272e+000
 6.924867861127358e-001	 1.607159622122280e+000	 6.577690158122246e+000
 6.764145402067773e-001	 1.613989891457657e+000	 6.502360858618594e+000
 6.603066266860097e-001	 1.620646524908149e+000	 6.441782828815875e+000
 6.441657417325339e-001	 1.627129526846032e+000	 6.395561574472646e+000
 8.152479026619462e-001	 1.576704112105899e+000	 7.764105463507659e+000
 7.992765597150681e-001	 1.584860240213809e+000	 7.583365177589783e+000
 7.832496842489194e-001	 1.592841778721614e+000	 7.417488833407483e+000
 7.671700544427715e-001	 1.600648339730568e+000	 7.266274160770842e+000
 7.510404464434982e-001	 1.608279592522115e+000	 7.129491433832623e+000
 7.348636329415733e-001	 1.615735263247221e+000	 7.006884013661467e+000
 7.186423817643659e-001	 1.623015134574687e+000	 6.898168926834225e+000
 7.023794544880492e-001	 1.630119045299331e+000	 6.803037478564001e+000
 6.860776050693970e-001	 1.637046889910957e+000	 6.721155898817839e+000
 6.697395784986909e-001	 1.643798618125083e+000	 6.652166019828000e+000
 6.533681094749184e-001	 1.650374234376445e+000	 6.595685983349219e+000
 8.267302674912782e-001	 1.598911212280233e+000	 7.936050579984080e+000
 8.105339760517525e-001	 1.607182215431857e+000	 7.762513573232996e+000
 7.942813699448886e-001	 1.615276169974930e+000	 7.601997828427721e+000
 7.779752664792438e-001	 1.623192682547341e+000	 7.454304768361014e+000
 7.616184809023511e-001	 1.630931417772529e+000	 7.319209603914976e+000
 7.452138249566628e-001	 1.638492097944430e+000	 7.196461855219697e+000
 7.287641054530316e-001	 1.645874502670843e+000	 7.085785907826998e+000
 7.122721228630690e-001	 1.653078468476089e+000	 6.986881602467554e+000
 6.957406699316725e-001	 1.660103888363913e+000	 6.899424856897863e+000
 6.791725303109573e-001	 1.666950711341602e+000	 6.823068318293629e+000
 6.625704772167977e-001	 1.673618941906352e+000	 6.757442044595273e+000
 8.382126323201147e-001	 1.621118312454072e+000	 8.061964146634402e+000
 8.217913923880305e-001	 1.629504190649500e+000	 7.896114807113523e+000
 8.053130556405208e-001	 1.637710561227909e+000	 7.741513627877006e+000
 7.887804785154281e-001	 1.645737025363827e+000	 7.597965331362813e+000
 7.721965153609450e-001	 1.653583243022685e+000	 7.465249626138257e+000
 7.555640169715022e-001	 1.661248932641390e+000	 7.343121707350552e+000
 7.388858291414354e-001	 1.668733870766737e+000	 7.231312791241932e+000
 7.221647912377962e-001	 1.676037891652553e+000	 7.129530682345068e+000
 7.054037347936036e-001	 1.683160886816524e+000	 7.037460371918673e+000
 6.886054821228086e-001	 1.690102804557707e+000	 6.954764666127645e+000
 6.717728449581719e-001	 1.696863649435754e+000	 6.881084842425319e+000
 8.496949971484549e-001	 1.643325412627414e+000	 8.142178361046126e+000
 8.330488087239021e-001	 1.651826165866735e+000	 7.984501240382664e+000
 8.163447413358160e-001	 1.660144952480551e+000	 7.836366574133987e+000
 7.995856905513242e-001	 1.668281368180025e+000	 7.697582005558605e+000
 7.827745498192797e-001	 1.676235068272581e+000	 7.567931317529935e+000
 7.659142089860909e-001	 1.684005767338098e+000	 7.447174912959979e+000
 7.490075528295777e-001	 1.691593238862368e+000	 7.335050328386982e+000
 7.320574596122300e-001	 1.698997314828724e+000	 7.231272779392063e+000
 7.150667996551907e-001	 1.706217885268792e+000	 7.135535736451426e+000
 6.980384339342454e-001	 1.713254897773396e+000	 7.047511529779101e+000
 6.809752126990409e-001	 1.720108356964651e+000	 6.966851981665995e+000
 8.611773619762990e-001	 1.665532512800259e+000	 8.177005176553136e+000
 8.443062250593676e-001	 1.674148141083565e+000	 8.027984836267816e+000
 8.273764270307743e-001	 1.682579343732855e+000	 7.886866581378636e+000
 8.103909025869325e-001	 1.690825710995935e+000	 7.753460611059060e+000
 7.933525842773551e-001	 1.698886893522218e+000	 7.627554374109598e+000
 7.762644010004290e-001	 1.706762602034556e+000	 7.508913030010672e+000
 7.591292765174580e-001	 1.714452606957739e+000	 7.397279942288716e+000
 7.419501279863707e-001	 1.721956738004602e+000	 7.292377202908194e+000
 7.247298645164338e-001	 1.729274883720715e+000	 7.193906186343129e+000
 7.074713857452670e-001	 1.736406990988670e+000	 7.101548131929015e+000
 6.901775804394048e-001	 1.743353064493043e+000	 7.014964753048631e+000
 8.726597268036471e-001	 1.687739612972610e+000	 8.166737634094119e+000
 8.555636413944262e-001	 1.696470116299987e+000	 8.026858502041209e+000
 8.384081127253956e-001	 1.705013734984823e+000	 7.893304479553039e+000
 8.211961146222528e-001	 1.713370053811557e+000	 7.765887970176387e+000
 8.039306187351715e-001	 1.721538718771596e+000	 7.644399694639445e+000
 7.866145930145165e-001	 1.729519436730763e+000	 7.528609133163386e+000
 7.692510002050765e-001	 1.737311975052847e+000	 7.418264999289431e+000
 7.518427963602187e-001	 1.744916161180187e+000	 7.313095743974838e+000
 7.343929293773328e-001	 1.752331882172295e+000	 7.212810088659774e+000
 7.169043375558738e-001	 1.759559084203529e+000	 7.117097585948436e+000
 6.993799481792635e-001	 1.766597772020930e+000	 7.025629206504837e+000
 8.841420916304991e-001	 1.709946713144463e+000	 8.111651090290469e+000
 8.668210577290790e-001	 1.718792091516004e+000	 7.981397326419748e+000
 8.494397984196800e-001	 1.727448126236454e+000	 7.855953253596946e+000
 8.320013266572854e-001	 1.735914396626891e+000	 7.735133141047782e+000
 8.145086531927285e-001	 1.744190544020715e+000	 7.618730601225371e+000
 7.969647850283537e-001	 1.752276271426720e+000	 7.506519013991239e+000
 7.793727238924332e-001	 1.760171343147693e+000	 7.398251981559137e+000
 7.617354647337733e-001	 1.767875584355479e+000	 7.293663813001575e+000
 7.440559942378873e-001	 1.775388880623529e+000	 7.192470037061407e+000
 7.263372893660658e-001	 1.782711177417974e+000	 7.094367941957899e+000
 7.085823159186171e-001	 1.789842479548311e+000	 6.999037140828907e+000
 8.956244564568551e-001	 1.732153813315821e+000	 8.012004351056355e+000
 8.780784740633255e-001	 1.741114066731615e+000	 7.891859721779576e+000
 8.604714841136274e-001	 1.749882517487748e+000	 7.775069187358900e+000
 8.428065386920298e-001	 1.758458739441937e+000	 7.661448556364238e+000
 8.250866876500265e-001	 1.766842369269574e+000	 7.550793966025674e+000
 8.073149770419406e-001	 1.775033106122427e+000	 7.442882288869663e+000
 7.894944475795278e-001	 1.783030711242278e+000	 7.337471569414524e+000
 7.716281331070347e-001	 1.790835007530478e+000	 7.234301489769499e+000
 7.537190590980979e-001	 1.798445879074421e+000	 7.133093862918134e+000
 7.357702411758429e-001	 1.805863270632003e+000	 7.033553152420153e+000
 7.177846836574655e-001	 1.813087187075188e+000	 6.935367017212266e+000
 9.071068212827147e-001	 1.754360913486683e+000	 7.868040719111638e+000
 8.893358903971655e-001	 1.763436041946819e+000	 7.758488479621387e+000
 8.715031698072377e-001	 1.772316908738705e+000	 7.650892920626835e+000
 8.536117507264862e-001	 1.781003082256695e+000	 7.545071075614128e+000
 8.356647221070654e-001	 1.789494194518175e+000	 7.440821252387203e+000
 8.176651690552768e-001	 1.797789940817883e+000	 7.337923422723389e+000
 7.996161712663609e-001	 1.805890079336600e+000	 7.236139641435900e+000
 7.815208014800029e-001	 1.813794430705184e+000	 7.135214493723604e+000
 7.633821239579643e-001	 1.821502877524968e+000	 7.034875569631889e+000
 7.452031929852050e-001	 1.829015363845618e+000	 6.934833964397136e+000
 7.269870513958089e-001	 1.836331894601559e+000	 6.834784803395471e+000
 9.185891861080785e-001	 1.776568013657048e+000	 7.679988962931787e+000
 9.005933067305993e-001	 1.785758017161617e+000	 7.581511746874746e+000
 8.825348555005111e-001	 1.794751299989325e+000	 7.483650426882000e+000
 8.644169627606548e-001	 1.803547425071165e+000	 7.386222958408625e+000
 8.462427565638451e-001	 1.812146019766516e+000	 7.289029477895815e+000
 8.280153610683624e-001	 1.820546775513088e+000	 7.191852675992279e+000
 8.097378949529320e-001	 1.828749447430661e+000	 7.094458199576144e+000
 7.914134698526782e-001	 1.836753853879596e+000	 6.996595081494469e+000
 7.730451888174862e-001	 1.844559875975170e+000	 6.897996196884801e+000
 7.546361447941521e-001	 1.852167457058817e+000	 6.798378744887367e+000
 7.361894191336470e-001	 1.859576602127425e+000	 6.697444754508966e+000
 6.441657417325339e-001	 1.627129526846032e+000	 6.395561574472646e+000
 6.279945700989932e-001	 1.633438955056451e+000	 6.297270692210863e+000
 6.117957838498271e-001	 1.639574920168338e+000	 6.046160388524861e+000
 5.955720411275249e-001	 1.645537585051869e+000	 5.790223484850981e+000
 5.793259849448746e-001	 1.651327164182347e+000	 5.571494410683903e+000
 5.630602420043452e-001	 1.656943922973434e+000	 5.388352713352466e+000
 5.467774215453343e-001	 1.662388177080357e+000	 5.239201291145599e+000
 5.304801142200819e-001	 1.667660291674264e+000	 5.122469253771421e+000
 5.141708909989889e-001	 1.672760680688981e+000	 5.036614642494796e+000
 4.978523021060263e-001	 1.677689806041381e+000	 4.980127006920989e+000
 4.815268759848673e-001	 1.682448176826651e+000	 4.951529835887479e+000
 6.533681094749184e-001	 1.650374234376445e+000	 6.595685983349219e+000
 6.369659211041965e-001	 1.656773797275656e+000	 6.491358714724232e+000
 6.205357236231793e-001	 1.662997419032029e+000	 6.361185360532737e+000
 6.040802131478216e-001	 1.669045264842459e+000	 6.092688481062200e+000
 5.876020704482378e-001	 1.674917552246178e+000	 5.861095951915655e+000
 5.711039597512191e-001	 1.680614550448476e+000	 5.664686338124112e+000
 5.545885275710125e-001	 1.686136579613939e+000	 5.501764006467480e+000
 5.380584015691770e-001	 1.691484010130446e+000	 5.370662124233762e+000
 5.215161894442632e-001	 1.696657261845163e+000	 5.269745509618611e+000
 5.049644778520140e-001	 1.701656803273777e+000	 5.197413330613698e+000
 4.884058313567285e-001	 1.706483150784262e+000	 5.152101649754886e+000
 6.625704772167977e-001	 1.673618941906352e+000	 6.757442044595273e+000
 6.459372721088099e-001	 1.680108639494266e+000	 6.647520662245508e+000
 6.292756633958880e-001	 1.686419917895057e+000	 6.578680553902052e+000
 6.125883851674518e-001	 1.692552944632335e+000	 6.363905253751119e+000
 5.958781559509421e-001	 1.698507940309268e+000	 6.121732882200388e+000
 5.791476774974713e-001	 1.704285177922769e+000	 5.914272850070378e+000
 5.623996335961367e-001	 1.709884982146782e+000	 5.739727412257903e+000
 5.456366889178155e-001	 1.715307728585921e+000	 5.596330342541649e+000
 5.288614878892080e-001	 1.720553843000689e+000	 5.482349917682607e+000
 5.120766535978290e-001	 1.725623800505588e+000	 5.396091741562990e+000
 4.952847867286022e-001	 1.730518124741380e+000	 5.335901406638169e+000
 6.717728449581719e-001	 1.696863649435754e+000	 6.881084842425319e+000
 6.549086231128336e-001	 1.703443481712282e+000	 6.766019907096230e+000
 6.380156031679536e-001	 1.709842416757420e+000	 6.692917676469125e+000
 6.210965571864157e-001	 1.716060624421499e+000	 6.602081510315693e+000
 6.041542414529870e-001	 1.722098328371618e+000	 6.351708941542308e+000
 5.871913952431023e-001	 1.727955805396312e+000	 6.135511969232470e+000
 5.702107396207071e-001	 1.733633384678889e+000	 5.951587071074576e+000
 5.532149762659978e-001	 1.739131447040690e+000	 5.798065092976771e+000
 5.362067863338235e-001	 1.744450424155561e+000	 5.673114370386337e+000
 5.191888293434709e-001	 1.749590797736816e+000	 5.574943680898370e+000
 5.021637421004885e-001	 1.754553098698004e+000	 5.501805025332430e+000
 6.809752126990409e-001	 1.720108356964651e+000	 6.966851981665995e+000
 6.638799741162675e-001	 1.726778323929701e+000	 6.847101825258426e+000
 6.467555429393755e-001	 1.733264915619120e+000	 6.770189070164889e+000
 6.296047292047130e-001	 1.739568304209950e+000	 6.735503414765892e+000
 6.124303269543733e-001	 1.745688716433226e+000	 6.549308068982290e+000
 5.952351129881119e-001	 1.751626432869105e+000	 6.326782930360587e+000
 5.780218456447240e-001	 1.757381787210257e+000	 6.135817335414182e+000
 5.607932636137237e-001	 1.762955165494752e+000	 5.974435585144838e+000
 5.435520847781096e-001	 1.768347005309777e+000	 5.840702592908775e+000
 5.263010050889398e-001	 1.773557794967459e+000	 5.732726968788131e+000
 5.090426974723873e-001	 1.778588072654134e+000	 5.648663923281485e+000
 6.901775804394048e-001	 1.743353064493043e+000	 7.014964753048631e+000
 6.728513251191122e-001	 1.750113166146527e+000	 6.890994996130472e+000
 6.554954827101545e-001	 1.756687414480155e+000	 6.810731465917304e+000
 6.381129012223440e-001	 1.763075983997688e+000	 6.773545084271879e+000
 6.207064124551003e-001	 1.769279104494092e+000	 6.712795722662364e+000
 6.032788307324999e-001	 1.775297060341149e+000	 6.486445848599980e+000
 5.858329516681867e-001	 1.781130189740887e+000	 6.290872761715920e+000
 5.683715509609933e-001	 1.786778883948108e+000	 6.123990518953842e+000
 5.508973832220664e-001	 1.792243586463339e+000	 5.983757050477066e+000
 5.334131808342359e-001	 1.797524792197518e+000	 5.868177379170216e+000
 5.159216528442988e-001	 1.802623046609771e+000	 5.775306650001595e+000
 6.993799481792635e-001	 1.766597772020930e+000	 7.025629206504837e+000
 6.818226761213673e-001	 1.773448008362758e+000	 6.897912307565463e+000
 6.642354224802897e-001	 1.780109913340527e+000	 6.814765415179547e+000
 6.466210732393085e-001	 1.786583663784714e+000	 6.775540640971604e+000
 6.289824979551683e-001	 1.792869492554218e+000	 6.779542926750119e+000
 6.113225484762667e-001	 1.798967687812443e+000	 6.612842977360143e+000
 5.936440576910962e-001	 1.804878592270780e+000	 6.415189412734375e+000
 5.759498383078067e-001	 1.810602602400758e+000	 6.245259433936286e+000
 5.582426816656939e-001	 1.816140167616246e+000	 6.100900347047123e+000
 5.405253565793593e-001	 1.821491789426993e+000	 5.980010090162014e+000
 5.228006082162227e-001	 1.826658020564913e+000	 5.880540391550206e+000
 7.085823159186171e-001	 1.789842479548311e+000	 6.999037140828907e+000
 6.907940271230324e-001	 1.796782850578394e+000	 6.868051974802812e+000
 6.729753622497819e-001	 1.803532412200234e+000	 6.782496340545353e+000
 6.551292452556069e-001	 1.810091343571026e+000	 6.741703499379574e+000
 6.372585834545771e-001	 1.816459880613601e+000	 6.744958353408374e+000
 6.193662662194119e-001	 1.822638315282988e+000	 6.704299868167341e+000
 6.014551637134514e-001	 1.828626994799934e+000	 6.507186058427703e+000
 5.835281256541633e-001	 1.834426320852701e+000	 6.336753953429400e+000
 5.655879801089923e-001	 1.840036748768498e+000	 6.190736514996740e+000
 5.476375323243092e-001	 1.845458786655884e+000	 6.066921021451287e+000
 5.296795635881594e-001	 1.850692994519563e+000	 5.963152357763788e+000
 7.177846836574655e-001	 1.813087187075188e+000	 6.935367017212266e+000
 6.997653781241079e-001	 1.820117692793435e+000	 6.801598481020216e+000
 6.817153020186306e-001	 1.826954911059278e+000	 6.714115505547422e+000
 6.636374172712387e-001	 1.833599023356627e+000	 6.672232455807309e+000
 6.455346689533271e-001	 1.840050268672244e+000	 6.675214143860312e+000
 6.274099839619357e-001	 1.846308942752784e+000	 6.722277331480829e+000
 6.092662697352529e-001	 1.852375397328350e+000	 6.565265284470701e+000
 5.911064130000641e-001	 1.858250039303940e+000	 6.396968933049382e+000
 5.729332785519611e-001	 1.863933329920095e+000	 6.251852205611587e+000
 5.547497080690866e-001	 1.869425783884191e+000	 6.127588068811249e+000
 5.365585189601084e-001	 1.874727968473718e+000	 6.021911062784593e+000
 7.269870513958089e-001	 1.836331894601559e+000	 6.834784803395471e+000
 7.087367291245936e-001	 1.843452535007881e+000	 6.698723446451763e+000
 6.904552417868359e-001	 1.850377409917658e+000	 6.609800910800932e+000
 6.721455892862039e-001	 1.857106703141514e+000	 6.567312613565698e+000
 6.538107544514182e-001	 1.863640656730146e+000	 6.570503220382242e+000
 6.354537017038380e-001	 1.869979570221829e+000	 6.618568187592099e+000
 6.170773757565008e-001	 1.876123799856030e+000	 6.571098970483732e+000
 5.986847003455083e-001	 1.882073757754471e+000	 6.328812177867182e+000
 5.802785769946008e-001	 1.887829911071037e+000	 6.127583049472241e+000
 5.618618838136911e-001	 1.893392781111914e+000	 5.964963870704753e+000
 5.434374743320700e-001	 1.898762942427380e+000	 5.838516540603306e+000
 7.361894191336470e-001	 1.859576602127425e+000	 6.697444754508966e+000
 7.177080801244898e-001	 1.866787377221733e+000	 6.559586432321650e+000
 6.991951815543979e-001	 1.873799908775373e+000	 6.469718122935426e+000
 6.806537613005028e-001	 1.880614382925689e+000	 6.318546843655288e+000
 6.620868399488499e-001	 1.887231044787306e+000	 6.208755334673577e+000
 6.434974194451190e-001	 1.893650197690125e+000	 6.164628544185249e+000
 6.248884817771947e-001	 1.899872202382971e+000	 6.184107090435701e+000
 6.062629876904960e-001	 1.905897476204296e+000	 5.976134647415386e+000
 5.876238754369109e-001	 1.911726492221324e+000	 5.809361243688827e+000
 5.689740595581225e-001	 1.917359778339053e+000	 5.681235774021848e+000
 5.503164297040443e-001	 1.922797916380548e+000	 5.589218291730555e+000
 4.815268759848673e-001	 1.682448176826651e+000	 4.951529835887479e+000
 4.651971182959880e-001	 1.687036348490034e+000	 4.908037062665914e+000
 4.488655109461449e-001	 1.691454921975343e+000	 4.868362622576997e+000
 4.325345111503020e-001	 1.695704542852121e+000	 4.831381486901462e+000
 4.162065505255868e-001	 1.699785900423492e+000	 4.796026665711634e+000
 3.998840342185868e-001	 1.703699726814957e+000	 4.761290362358050e+000
 3.835693400660092e-001	 1.707446796045747e+000	 4.726224967916982e+000
 3.672648177889567e-001	 1.711027923084024e+000	 4.689943897280863e+000
 3.509727882210220e-001	 1.714443962887209e+000	 4.651622268971613e+000
 3.346955425703515e-001	 1.717695809428702e+000	 4.610497431127543e+000
 3.184353417157770e-001	 1.720784394712270e+000	 4.565869336473270e+000
 4.884058313567285e-001	 1.706483150784262e+000	 5.152101649754886e+000
 4.718427914142042e-001	 1.711136867756843e+000	 5.093653958264713e+000
 4.552778753871787e-001	 1.715618563720287e+000	 5.037959956090311e+000
 4.387135755936855e-001	 1.719928893466559e+000	 4.983834330257303e+000
 4.221523583882387e-001	 1.724068556145973e+000	 4.930153048464461e+000
 4.055966632766611e-001	 1.728038294342963e+000	 4.875854567923429e+000
 3.890489020647542e-001	 1.731838893134178e+000	 4.819940876293234e+000
 3.725114580410633e-001	 1.735471179130182e+000	 4.761478366478023e+000
 3.559866851939456e-001	 1.738936019502071e+000	 4.699598547470379e+000
 3.394769074630905e-001	 1.742234320994296e+000	 4.633498593809570e+000
 3.229844180255973e-001	 1.745367028924961e+000	 4.562441736603369e+000
 4.952847867286022e-001	 1.730518124741380e+000	 5.335901406638169e+000
 4.784884645326171e-001	 1.735237387023252e+000	 5.265087033566996e+000
 4.616902398285628e-001	 1.739782205464916e+000	 5.195872004579138e+000
 4.448926400375425e-001	 1.744153244080758e+000	 5.127007760547019e+000
 4.280981662514563e-001	 1.748351211868279e+000	 5.057310417258344e+000
 4.113092923353631e-001	 1.752376861870848e+000	 4.985662030197307e+000
 3.945284640641589e-001	 1.756230990222532e+000	 4.911011683262542e+000
 3.777580982938320e-001	 1.759914435176295e+000	 4.832376403276745e+000
 3.610005821675038e-001	 1.763428076116914e+000	 4.748841902577070e+000
 3.442582723564077e-001	 1.766772832559885e+000	 4.659563152383653e+000
 3.275334943359103e-001	 1.769949663137652e+000	 4.563764790034824e+000
 5.021637421004885e-001	 1.754553098698004e+000	 5.501805025332430e+000
 4.851341376512272e-001	 1.759337906289263e+000	 5.421271712173231e+000
 4.681026042702975e-001	 1.763945847209230e+000	 5.341093142551915e+000
 4.510717044818727e-001	 1.768377594694717e+000	 5.259954491917315e+000
 4.340439741152395e-001	 1.772633867590408e+000	 5.176609159160274e+000
 4.170219213946927e-001	 1.776715429398610e+000	 5.089880088966074e+000
 4.000080260642233e-001	 1.780623087310807e+000	 4.998660909644864e+000
 3.830047385472627e-001	 1.784357691222365e+000	 4.901916888387987e+000
 3.660144791416969e-001	 1.787920132731738e+000	 4.798685706350832e+000
 3.490396372503031e-001	 1.791311344125469e+000	 4.688078056390605e+000
 3.320825706467159e-001	 1.794532297350343e+000	 4.569278066695360e+000
 5.090426974723873e-001	 1.778588072654134e+000	 5.648663923281485e+000
 4.917798107700342e-001	 1.783438425554874e+000	 5.561119860132209e+000
 4.745149687123827e-001	 1.788109488953231e+000	 5.472595091160017e+000
 4.572507689266763e-001	 1.792601945308435e+000	 5.381705449663776e+000
 4.399897819795885e-001	 1.796916523312362e+000	 5.287138697146221e+000
 4.227345504546504e-001	 1.801053996926252e+000	 5.187655904904053e+000
 4.054875880649476e-001	 1.805015184399005e+000	 5.082092642335434e+000
 3.882513788013554e-001	 1.808800947268392e+000	 4.969359974007375e+000
 3.710283761165248e-001	 1.812412189346542e+000	 4.848445268001958e+000
 3.538210021447767e-001	 1.815849855691048e+000	 4.718412818504270e+000
 3.366316469580142e-001	 1.819114931563034e+000	 4.578404286024186e+000
 5.159216528442988e-001	 1.802623046609771e+000	 5.775306650001595e+000
 4.984254838890382e-001	 1.807538944820087e+000	 5.683521356444991e+000
 4.809273331548185e-001	 1.812273130696917e+000	 5.589328428421464e+000
 4.634298333719531e-001	 1.816826295921914e+000	 5.491271222821126e+000
 4.459355898445030e-001	 1.821199179034140e+000	 5.387968887706768e+000
 4.284471795152355e-001	 1.825392564453771e+000	 5.278117804847354e+000
 4.109671500663315e-001	 1.829407281487125e+000	 5.160492829899728e+000
 3.934980190561102e-001	 1.833244203314375e+000	 5.033948332382702e+000
 3.760422730919875e-001	 1.836904245961326e+000	 4.897419038081505e+000
 3.586023670398286e-001	 1.840388367256622e+000	 4.749920676989511e+000
 3.411807232698052e-001	 1.843697565775724e+000	 4.590550440337452e+000
 5.228006082162227e-001	 1.826658020564913e+000	 5.880540391550206e+000
 5.050711570082394e-001	 1.831639464084900e+000	 5.787345539580918e+000
 4.873396975976047e-001	 1.836436772440289e+000	 5.690223980216659e+000
 4.696088978177033e-001	 1.841050646535153e+000	 5.587643402075164e+000
 4.518813977099832e-001	 1.845481834755741e+000	 5.478151308116262e+000
 4.341598085764483e-001	 1.849731131981168e+000	 5.360376520862201e+000
 4.164467120683752e-001	 1.853799378575167e+000	 5.233030475884950e+000
 3.987446593115271e-001	 1.857687459360315e+000	 5.094908305810596e+000
 3.810561700680848e-001	 1.861396302576093e+000	 4.944889717603869e+000
 3.633837319354587e-001	 1.864926878822192e+000	 4.781939666386586e+000
 3.457297995820888e-001	 1.868280199988415e+000	 4.605108829507565e+000
 5.296795635881594e-001	 1.850692994519563e+000	 5.963152357763788e+000
 5.117168301276374e-001	 1.855739983349315e+000	 5.871442541278523e+000
 4.937520620407415e-001	 1.860600414183346e+000	 5.774194102894663e+000
 4.757879622639269e-001	 1.865274997148151e+000	 5.669795813421690e+000
 4.578272055760290e-001	 1.869764490477168e+000	 5.556720443394712e+000
 4.398724376382889e-001	 1.874069699508444e+000	 5.433526332762480e+000
 4.219262740710786e-001	 1.878191475663132e+000	 5.306525241004963e+000
 4.039912995676059e-001	 1.882130715406210e+000	 5.181520837843230e+000
 3.860700670448169e-001	 1.885888359190839e+000	 5.056271113331997e+000
 3.681650968316670e-001	 1.889465390387757e+000	 4.929165368648545e+000
 3.502788758948651e-001	 1.892862834201107e+000	 4.798638805567487e+000
 5.365585189601084e-001	 1.874727968473718e+000	 6.021911062784593e+000
 5.183625032472324e-001	 1.879840502613331e+000	 5.901729965302243e+000
 5.001644264842287e-001	 1.884764055926089e+000	 5.789341427969268e+000
 4.819670267106238e-001	 1.889499347760909e+000	 5.685092014163051e+000
 4.637730134426404e-001	 1.894047146198417e+000	 5.587092809974293e+000
 4.455850667007572e-001	 1.898408267035597e+000	 5.493493611633303e+000
 4.274058360744420e-001	 1.902583572751019e+000	 5.402485071334965e+000
 4.092379398243468e-001	 1.906573971452062e+000	 5.312300709606319e+000
 3.910839640221839e-001	 1.910380415805565e+000	 5.221218793554461e+000
 3.729464617284536e-001	 1.914003901953317e+000	 5.127564080697717e+000
 3.548279522081341e-001	 1.917445468413798e+000	 5.029709428437204e+000
 5.434374743320700e-001	 1.898762942427380e+000	 5.838516540603306e+000
 5.250081763670245e-001	 1.903941021876948e+000	 5.756389677050256e+000
 5.065767909280665e-001	 1.908927697668517e+000	 5.684065216571232e+000
 4.881460911577939e-001	 1.913723698373428e+000	 5.619538875782620e+000
 4.697188213098175e-001	 1.918329801919491e+000	 5.560844681069238e+000
 4.512976957638532e-001	 1.922746834562629e+000	 5.506057329492029e+000
 4.328853980784649e-001	 1.926975669838828e+000	 5.453294411745810e+000
 4.144845800817497e-001	 1.931017227497871e+000	 5.400718496106563e+000
 3.960978610001855e-001	 1.934872472420273e+000	 5.346539072697045e+000
 3.777278266258183e-001	 1.938542413518873e+000	 5.289014357779698e+000
 3.593770285218957e-001	 1.942028102626488e+000	 5.226452958157220e+000
 5.503164297040443e-001	 1.922797916380548e+000	 5.589218291730555e+000
 5.316538494870134e-001	 1.928041541140166e+000	 5.550515075513423e+000
 5.129891553722548e-001	 1.933091339410632e+000	 5.521312354636310e+000
 4.943251556054373e-001	 1.937948048985706e+000	 5.499524354288782e+000
 4.756646291775603e-001	 1.942612457640389e+000	 5.483105571030033e+000
 4.570103248275768e-001	 1.947085402089539e+000	 5.470053218229666e+000
 4.383649600831476e-001	 1.951367766926559e+000	 5.458409527849899e+000
 4.197312203398145e-001	 1.955460483543635e+000	 5.446263907483969e+000
 4.011117579788219e-001	 1.959364529034961e+000	 5.431754951975504e+000
 3.825091915237612e-001	 1.963080925084422e+000	 5.413072309334738e+000
 3.639261048361499e-001	 1.966610736839179e+000	 5.388458401055675e+000
 3.184353417157770e-001	 1.720784394712270e+000	 4.565869336473270e+000
 3.021944155378737e-001	 1.723710687775430e+000	 4.523034158538560e+000
 2.859749622825958e-001	 1.726475693682788e+000	 4.488538653713807e+000
 2.697791479589111e-001	 1.729080452510761e+000	 4.461763020534632e+000
 2.536091057720337e-001	 1.731526038325072e+000	 4.442141024757577e+000
 2.374669355897515e-001	 1.733813558151911e+000	 4.429159963278339e+000
 2.213547034424480e-001	 1.735944150944025e+000	 4.422360504154913e+000
 2.052744410566011e-001	 1.737918986542895e+000	 4.421336406898572e+000
 1.892281454215084e-001	 1.739739264638118e+000	 4.425734127391782e+000
 1.732177783889451e-001	 1.741406213725087e+000	 4.435252311962203e+000
 1.572452663054261e-001	 1.742921090062064e+000	 4.449641185298416e+000
 3.229844180255973e-001	 1.745367028924961e+000	 4.562441736603369e+000
 3.065114786173200e-001	 1.748335126174922e+000	 4.493092531750000e+000
 2.900603188875702e-001	 1.751139632166796e+000	 4.431436111922305e+000
 2.736331357883021e-001	 1.753781601835235e+000	 4.376810843446401e+000
 2.572320929990909e-001	 1.756262124589759e+000	 4.328611535700438e+000
 2.408593203858374e-001	 1.758582323271217e+000	 4.286289414254667e+000
 2.245169134936457e-001	 1.760743353103111e+000	 4.249351963854996e+000
 2.082069330736590e-001	 1.762746400638945e+000	 4.217362645594343e+000
 1.919314046435947e-001	 1.764592682706737e+000	 4.189940492825401e+000
 1.756923180816831e-001	 1.766283445351817e+000	 4.166759590548074e+000
 1.594916272536765e-001	 1.767819962778993e+000	 4.147548443166091e+000
 3.275334943359103e-001	 1.769949663137652e+000	 4.563764790034824e+000
 3.108285416971643e-001	 1.772959564574414e+000	 4.469107216523430e+000
 2.941456754928580e-001	 1.775803570650804e+000	 4.381359965622469e+000
 2.774871236179322e-001	 1.778482751159709e+000	 4.299818539413384e+000
 2.608550802263234e-001	 1.780998210854445e+000	 4.223837922354234e+000
 2.442517051820447e-001	 1.783351088390523e+000	 4.152832562094583e+000
 2.276791235449207e-001	 1.785542555262198e+000	 4.086276213639676e+000
 2.111394250907602e-001	 1.787573814734995e+000	 4.023701651404044e+000
 1.946346638657002e-001	 1.789446100775357e+000	 3.964700253909141e+000
 1.781668577744259e-001	 1.791160676978547e+000	 3.908921466072401e+000
 1.617379882019268e-001	 1.792718835495921e+000	 3.856072144203070e+000
 3.320825706467159e-001	 1.794532297350343e+000	 4.569278066695360e+000
 3.151456047774062e-001	 1.797584002973905e+000	 4.450584644244312e+000
 2.982310320984593e-001	 1.800467509134812e+000	 4.337883425520982e+000
 2.813411114478016e-001	 1.803183900484183e+000	 4.230425964286256e+000
 2.644780674537312e-001	 1.805734297119132e+000	 4.127526501301015e+000
 2.476440899783732e-001	 1.808119853509829e+000	 4.028561951283883e+000
 2.308413335962732e-001	 1.810341757421284e+000	 3.932971746492515e+000
 2.140719171079049e-001	 1.812401228831045e+000	 3.840257541669429e+000
 1.973379230878249e-001	 1.814299518843976e+000	 3.749982785321999e+000
 1.806413974671735e-001	 1.816037908605277e+000	 3.661772162505387e+000
 1.639843491501772e-001	 1.817617708212850e+000	 3.575310914454963e+000
 3.366316469580142e-001	 1.819114931563034e+000	 4.578404286024186e+000
 3.194626678580462e-001	 1.822208441373398e+000	 4.437014118940732e+000
 3.023163887043739e-001	 1.825131447618820e+000	 4.300562207094487e+000
 2.851950992779102e-001	 1.827885049808657e+000	 4.168255020773585e+000
 2.681010546813142e-001	 1.830470383383819e+000	 4.039365089030538e+000
 2.510364747748229e-001	 1.832888618629136e+000	 3.913230991267604e+000
 2.340035436477032e-001	 1.835140959580372e+000	 3.789257198481814e+000
 2.170044091250931e-001	 1.837228642927095e+000	 3.666913769123745e+000
 2.000411823099688e-001	 1.839152936912596e+000	 3.545735904761725e+000
 1.831159371599259e-001	 1.840915140232007e+000	 3.425323370952773e+000
 1.662307100984275e-001	 1.842516580929779e+000	 3.305339788907778e+000
 3.411807232698052e-001	 1.843697565775724e+000	 4.590550440337452e+000
 3.237797309390840e-001	 1.846832879772890e+000	 4.427868959106909e+000
 3.064017453106021e-001	 1.849795386102829e+000	 4.268935696938294e+000
 2.890490871082581e-001	 1.852586199133131e+000	 4.112910855317816e+000
 2.717240419090724e-001	 1.855206469648505e+000	 3.959024235280086e+000
 2.544288595713941e-001	 1.857657383748441e+000	 3.806575232118894e+000
 2.371657536992104e-001	 1.859940161739458e+000	 3.654932672554450e+000
 2.199369011423246e-001	 1.862056057023146e+000	 3.503534499532109e+000
 2.027444415321320e-001	 1.864006354981216e+000	 3.351887310076742e+000
 1.855904768526831e-001	 1.865792371858737e+000	 3.199565751846622e+000
 1.684770710466778e-001	 1.867415453646707e+000	 3.046211784225607e+000
 3.457297995820888e-001	 1.868280199988415e+000	 4.605108829507565e+000
 3.280967940205198e-001	 1.871457318172382e+000	 4.422607549383406e+000
 3.104871019171435e-001	 1.874459324586836e+000	 4.242528027034497e+000
 2.929030749388453e-001	 1.877287348457605e+000	 4.102112957802892e+000
 2.753470291370059e-001	 1.879942555913192e+000	 3.978887378326985e+000
 2.578212443680865e-001	 1.882426148867748e+000	 3.863460050652770e+000
 2.403279637507950e-001	 1.884739363898545e+000	 3.754382196279235e+000
 2.228693931595993e-001	 1.886883471119196e+000	 3.650244910585308e+000
 2.054477007543144e-001	 1.888859773049835e+000	 3.549680172352816e+000
 1.880650165454450e-001	 1.890669603485467e+000	 3.451361744330614e+000
 1.707234319949282e-001	 1.892314326363635e+000	 3.354005966708891e+000
 3.502788758948651e-001	 1.892862834201107e+000	 4.798638805567487e+000
 3.324138571023533e-001	 1.896081756571874e+000	 4.671637237910807e+000
 3.145724585239986e-001	 1.899123263070844e+000	 4.556915356508720e+000
 2.967570627696717e-001	 1.901988497782079e+000	 4.452844569368721e+000
 2.789700163651145e-001	 1.904678642177878e+000	 4.357834203794714e+000
 2.612136291649003e-001	 1.907194913987054e+000	 4.270332904816111e+000
 2.434901738024571e-001	 1.909538566057632e+000	 4.188829915596061e+000
 2.258018851769177e-001	 1.911710885215246e+000	 4.111856241055790e+000
 2.081509599765160e-001	 1.913713191118455e+000	 4.037985696206110e+000
 1.905395562382118e-001	 1.915546835112197e+000	 3.965835840911772e+000
 1.729697929431785e-001	 1.917213199080564e+000	 3.894068803038050e+000
 3.548279522081341e-001	 1.917445468413798e+000	 5.029709428437204e+000
 3.367309201845848e-001	 1.920706194971366e+000	 4.933639466900777e+000
 3.186578151311670e-001	 1.923787201554852e+000	 4.849677670298349e+000
 3.006110506007374e-001	 1.926689647106553e+000	 4.776126771777896e+000
 2.825930035933985e-001	 1.929414728442565e+000	 4.711329265705357e+000
 2.646060139618354e-001	 1.931963679106360e+000	 4.653668858933695e+000
 2.466523838541966e-001	 1.934337768216718e+000	 4.601571799099289e+000
 2.287343771942794e-001	 1.936538299311297e+000	 4.553508081241914e+000
 2.108542191987369e-001	 1.938566609187074e+000	 4.507992534307574e+000
 1.930140959309833e-001	 1.940424066738927e+000	 4.463585789340444e+000
 1.752161538914289e-001	 1.942112071797492e+000	 4.418895131397655e+000
 3.593770285218957e-001	 1.942028102626488e+000	 5.226452958157220e+000
 3.410479832672141e-001	 1.945330633370858e+000	 5.163596838293132e+000
 3.227431717386489e-001	 1.948451140038860e+000	 5.112598675116950e+000
 3.044650384320423e-001	 1.951390796431027e+000	 5.071691177306347e+000
 2.862159908218576e-001	 1.954150814707252e+000	 5.039148756217850e+000
 2.679983987588918e-001	 1.956732444225666e+000	 5.013289029818122e+000
 2.498145939060134e-001	 1.959136970375805e+000	 4.992474198539455e+000
 2.316668692116844e-001	 1.961365713407346e+000	 4.975112294418389e+000
 2.135574784209770e-001	 1.963420027255694e+000	 4.959658305152035e+000
 1.954886356237597e-001	 1.965301298365657e+000	 4.944615174957901e+000
 1.774625148396792e-001	 1.967010944514421e+000	 4.928534684369988e+000
 3.639261048361499e-001	 1.966610736839179e+000	 5.388458401055675e+000
 3.453650463502414e-001	 1.969955071770350e+000	 5.361141503959351e+000
 3.268285283464441e-001	 1.973115078522868e+000	 5.345354060157978e+000
 3.083190262635864e-001	 1.976091945755501e+000	 5.339257368165950e+000
 2.898389780504919e-001	 1.978886900971938e+000	 5.341056470926389e+000
 2.713907835560694e-001	 1.981501209344972e+000	 5.349001712249902e+000
 2.529768039579077e-001	 1.983936172534892e+000	 5.361390159920038e+000
 2.345993612291328e-001	 1.986193127503396e+000	 5.376566896893348e+000
 2.162607376432362e-001	 1.988273445324313e+000	 5.392926182304765e+000
 1.979631753165408e-001	 1.990178529992387e+000	 5.408912484255497e+000
 1.797088757879294e-001	 1.991909817231349e+000	 5.423021386610363e+000
 1.572452663054261e-001	 1.742921090062064e+000	 4.449641185298416e+000
 1.413124996760967e-001	 1.744285176627427e+000	 4.478785334901396e+000
 1.254213328617058e-001	 1.745499782078859e+000	 4.507051508796583e+000
 1.095735838069922e-001	 1.746566239714984e+000	 4.534464147591793e+000
 9.377103379879290e-002	 1.747485906439909e+000	 4.561098552807352e+000
 7.801542725524854e-002	 1.748260161732354e+000	 4.587079631080847e+000
 6.230847154497145e-002	 1.748890406620027e+000	 4.612580564203870e+000
 4.665183683563836e-002	 1.749378062660108e+000	 4.637821410422412e+000
 3.104715597144734e-002	 1.749724570926687e+000	 4.663067642423654e+000
 1.549602437885631e-002	 1.749931391005967e+000	 4.688628627410006e+000
 0.000000000000000e+000	 1.750000000000000e+000	 4.714856054619843e+000
 1.594916272536765e-001	 1.767819962778993e+000	 4.147548443166091e+000
 1.433312496720404e-001	 1.769203536294951e+000	 4.146443176969807e+000
 1.272130661884947e-001	 1.770435493252530e+000	 4.145047897949783e+000
 1.111389207184165e-001	 1.771517185997479e+000	 4.143347393666629e+000
 9.511061999559660e-002	 1.772449990818245e+000	 4.141379318293363e+000
 7.912993335843424e-002	 1.773235306900391e+000	 4.139232932889366e+000
 6.319859256652100e-002	 1.773874555286303e+000	 4.137047767177490e+000
 4.731829164707111e-002	 1.774369177841121e+000	 4.135012208447232e+000
 3.149068677062747e-002	 1.774720636225708e+000	 4.133362023202929e+000
 1.571739615545374e-002	 1.774930410877497e+000	 4.132378817153815e+000
 0.000000000000000e+000	 1.775000000000000e+000	 4.132388439105268e+000
 1.617379882019268e-001	 1.792718835495921e+000	 3.856072144203070e+000
 1.453499996679842e-001	 1.794121895962475e+000	 3.823960442321197e+000
 1.290047995152837e-001	 1.795371204426202e+000	 3.791967051891675e+000
 1.127042576298407e-001	 1.796468132279973e+000	 3.760038267306719e+000
 9.645020619240032e-002	 1.797414075196582e+000	 3.728175405964871e+000
 8.024443946161992e-002	 1.798210452068428e+000	 3.696433540465135e+000
 6.408871358807056e-002	 1.798858703952579e+000	 3.664920147851213e+000
 4.798474645850386e-002	 1.799360293022134e+000	 3.633793681732880e+000
 3.193421756980761e-002	 1.799716701524729e+000	 3.603262073108072e+000
 1.593876793205117e-002	 1.799929430749029e+000	 3.573581165691408e+000
 0.000000000000000e+000	 1.800000000000000e+000	 3.545053091518679e+000
 1.639843491501772e-001	 1.817617708212850e+000	 3.575310914454963e+000
 1.473687496639280e-001	 1.819040255629999e+000	 3.511523499122699e+000
 1.307965328420726e-001	 1.820306915599874e+000	 3.448084240476902e+000
 1.142695945412649e-001	 1.821419078562467e+000	 3.384902039185621e+000
 9.778979238920400e-002	 1.822378159574919e+000	 3.321943127351181e+000
 8.135894556480561e-002	 1.823185597236464e+000	 3.259229788491221e+000
 6.497883460962012e-002	 1.823842852618855e+000	 3.196838989991580e+000
 4.865120126993660e-002	 1.824351408203147e+000	 3.134900934071204e+000
 3.237774836898775e-002	 1.824712766823750e+000	 3.073597533299468e+000
 1.616013970864860e-002	 1.824928450620560e+000	 3.013160816691876e+000
 0.000000000000000e+000	 1.825000000000000e+000	 2.953871272374027e+000
 1.662307100984275e-001	 1.842516580929779e+000	 3.305339788907778e+000
 1.493874996598718e-001	 1.843958615297522e+000	 3.209292697386629e+000
 1.325882661688616e-001	 1.845242626773545e+000	 3.113646117688375e+000
 1.158349314526892e-001	 1.846370024844962e+000	 3.018272598493076e+000
 9.912937858600771e-002	 1.847342243953256e+000	 2.923104481765314e+000
 8.247345166799128e-002	 1.848160742404501e+000	 2.828132606403337e+000
 6.586895563116967e-002	 1.848827001285130e+000	 2.733404919652684e+000
 4.931765608136935e-002	 1.849342523384160e+000	 2.639025002547253e+000
 3.282127916816788e-002	 1.849708832122771e+000	 2.545150515649870e+000
 1.638151148524603e-002	 1.849927470492090e+000	 2.451991571346019e+000
 0.000000000000000e+000	 1.850000000000000e+000	 2.359809038914364e+000
 1.684770710466778e-001	 1.867415453646707e+000	 3.046211784225607e+000
 1.514062496558155e-001	 1.868876974965046e+000	 2.917404103513902e+000
 1.343799994956505e-001	 1.870178337947216e+000	 2.788872629362263e+000
 1.174002683641134e-001	 1.871320971127456e+000	 2.660454545034133e+000
 1.004689647828114e-001	 1.872306328331592e+000	 2.532049443785200e+000
 8.358795777117696e-002	 1.873135887572538e+000	 2.403618012073135e+000
 6.675907665271923e-002	 1.873811149951406e+000	 2.275180615689981e+000
 4.998411089280209e-002	 1.874333638565173e+000	 2.146815795319652e+000
 3.326480996734802e-002	 1.874704897421792e+000	 2.018658678030290e+000
 1.660288326184346e-002	 1.874926490363621e+000	 1.890899311198276e+000
 0.000000000000000e+000	 1.875000000000000e+000	 1.763780925329801e+000
 1.707234319949282e-001	 1.892314326363635e+000	 3.354005966708891e+000
 1.534249996517593e-001	 1.893795334632570e+000	 3.283840315636557e+000
 1.361717328224395e-001	 1.895114049120888e+000	 3.215362228592166e+000
 1.189656052755377e-001	 1.896271917409951e+000	 3.147395209489614e+000
 1.018085509796151e-001	 1.897270412709929e+000	 3.078806123277660e+000
 8.470246387436264e-002	 1.898111032740574e+000	 3.008505531989734e+000
 6.764919767426876e-002	 1.898795298617682e+000	 2.935447939030403e+000
 5.065056570423484e-002	 1.899324753746186e+000	 2.858631944605170e+000
 3.370834076652816e-002	 1.899700962720813e+000	 2.777100315301011e+000
 1.682425503844089e-002	 1.899925510235152e+000	 2.689939970918720e+000
 0.000000000000000e+000	 1.900000000000000e+000	 2.596281891737964e+000
 1.729697929431785e-001	 1.917213199080564e+000	 3.894068803038050e+000
 1.554437496477031e-001	 1.918713694300094e+000	 3.849984777326727e+000
 1.379634661492284e-001	 1.920049760294560e+000	 3.808208296142141e+000
 1.205309421869620e-001	 1.921222863692446e+000	 3.767492012292458e+000
 1.031481371764188e-001	 1.922234497088265e+000	 3.726633365482743e+000
 8.581696997754833e-002	 1.923086177908611e+000	 3.684474963074450e+000
 6.853931869581832e-002	 1.923779447283957e+000	 3.639904864991799e+000
 5.131702051566758e-002	 1.924315868927198e+000	 3.591856775759791e+000
 3.415187156570829e-002	 1.924697028019833e+000	 3.539310146771067e+000
 1.704562681503832e-002	 1.924924530106682e+000	 3.481290191975002e+000
 0.000000000000000e+000	 1.925000000000000e+000	 3.416867820268260e+000
 1.752161538914289e-001	 1.942112071797492e+000	 4.418895131397655e+000
 1.574624996436468e-001	 1.943632053967618e+000	 4.401838455640579e+000
 1.397551994760174e-001	 1.944985471468231e+000	 4.387589388916620e+000
 1.220962790983862e-001	 1.946173809974940e+000	 4.374829893470169e+000
 1.044877233732226e-001	 1.947198581466602e+000	 4.362288244243528e+000
 8.693147608073400e-002	 1.948061323076647e+000	 4.348739452286531e+000
 6.942943971736786e-002	 1.948763595950233e+000	 4.333005588127127e+000
 5.198347532710035e-002	 1.949306984108212e+000	 4.313956008176384e+000
 3.459540236488842e-002	 1.949693093318854e+000	 4.290507487358673e+000
 1.726699859163575e-002	 1.949923549978214e+000	 4.261624261260717e+000
 0.000000000000000e+000	 1.950000000000000e+000	 4.226317981181362e+000
 1.774625148396792e-001	 1.967010944514421e+000	 4.928534684369988e+000
 1.594812496395906e-001	 1.968550413635142e+000	 4.939514639225911e+000
 1.415469328028063e-001	 1.969921182641903e+000	 4.953683688812043e+000
 1.236616160098104e-001	 1.971124756257434e+000	 4.969653217275803e+000
 1.058273095700262e-001	 1.972162665844939e+000	 4.986082547724391e+000
 8.804598218391967e-002	 1.973036468244684e+000	 5.001679406251119e+000
 7.031956073891740e-002	 1.973747744616508e+000	 5.015200281641511e+000
 5.264993013853308e-002	 1.974298099289225e+000	 5.025450683928058e+000
 3.503893316406856e-002	 1.974689158617875e+000	 5.031285305083424e+000
 1.748837036823317e-002	 1.974922569849744e+000	 5.031608085252590e+000
 0.000000000000000e+000	 1.975000000000000e+000	 5.025372188015989e+000
 1.797088757879294e-001	 1.991909817231349e+000	 5.423021386610363e+000
 1.614999996355343e-001	 1.993468773302665e+000	 5.463109182452417e+000
 1.433386661295952e-001	 1.994856893815574e+000	 5.506650202765798e+000
 1.252269529212347e-001	 1.996075702539929e+000	 5.552185319818744e+000
 1.071668957668299e-001	 1.997126750223276e+000	 5.598305072117079e+000
 8.916048828710535e-002	 1.998011613412721e+000	 5.643650167038230e+000
 7.120968176046696e-002	 1.998731893282784e+000	 5.686911874768933e+000
 5.331638494996584e-002	 1.999289214470238e+000	 5.726832316813936e+000
 3.548246396324870e-002	 1.999685223916897e+000	 5.762204652472445e+000
 1.770974214483060e-002	 1.999921589721275e+000	 5.791873166795478e+000
 0.000000000000000e+000	 2.000000000000000e+000	 5.814733263633873e+000
 2.000000000000000e+000	 0.000000000000000e+000	 1.241688178710719e+001
 1.999921589721275e+000	 1.770974214483003e-002	 1.241725449731184e+001
 1.999685223916896e+000	 3.548246396324820e-002	 1.241827900294096e+001
 1.999289214470237e+000	 5.331638494996539e-002	 1.241973135256727e+001
 1.998731893282784e+000	 7.120968176046656e-002	 1.242137530036834e+001
 1.998011613412721e+000	 8.916048828710502e-002	 1.242296227239214e+001
 1.997126750223276e+000	 1.071668957668297e-001	 1.242423135521617e+001
 1.996075702539929e+000	 1.252269529212345e-001	 1.242490930787846e+001
 1.994856893815574e+000	 1.433386661295951e-001	 1.242471059793441e+001
 1.993468773302665e+000	 1.614999996355342e-001	 1.242333746246550e+001
 1.991909817231349e+000	 1.797088757879295e-001	 1.242047999483440e+001
 2.025000000000000e+000	 0.000000000000000e+000	 1.234889168553972e+001
 2.024920609592803e+000	 1.793111392142746e-002	 1.234946813945277e+001
 2.024681289215908e+000	 3.592599476242833e-002	 1.235063402880378e+001
 2.024280329651229e+000	 5.398283976139813e-002	 1.235215575759685e+001
 2.023716041949021e+000	 7.209980278201611e-002	 1.235378709438735e+001
 2.022986758580697e+000	 9.027499439029069e-002	 1.235526914217154e+001
 2.022090834601524e+000	 1.085064819636334e-001	 1.235633033149624e+001
 2.021026648822303e+000	 1.267922898326587e-001	 1.235668643769215e+001
 2.019792604989089e+000	 1.451303994563840e-001	 1.235604062310844e+001
 2.018387132969990e+000	 1.635187496314780e-001	 1.235408350519700e+001
 2.016808689948031e+000	 1.819552367361798e-001	 1.235049325126206e+001
 2.050000000000000e+000	 0.000000000000000e+000	 1.228171370987053e+001
 2.049919629464327e+000	 1.815248569802488e-002	 1.228259771637178e+001
 2.049677354514900e+000	 3.636952556160845e-002	 1.228403322060419e+001
 2.049271444832177e+000	 5.464929457283087e-002	 1.228577705407051e+001
 2.048700190615181e+000	 7.298992380356564e-002	 1.228757305085892e+001
 2.047961903748552e+000	 9.138950049347637e-002	 1.228915202069159e+001
 2.047054918979599e+000	 1.098460681604371e-001	 1.229023174604064e+001
 2.045977595104440e+000	 1.283576267440829e-001	 1.229051700424154e+001
 2.044728316162292e+000	 1.469221327831730e-001	 1.228969961550616e+001
 2.043305492636919e+000	 1.655374996274218e-001	 1.228745851770854e+001
 2.041707562664222e+000	 1.842015976844301e-001	 1.228345986878073e+001
 2.075000000000000e+000	 0.000000000000000e+000	 1.221520732568855e+001
 2.074918649335845e+000	 1.837385747462230e-002	 1.221651355632177e+001
 2.074673419813873e+000	 3.681305636078857e-002	 1.221835761779540e+001
 2.074262560013082e+000	 5.531574938426360e-002	 1.222048683369162e+001
 2.073684339281263e+000	 7.388004482511519e-002	 1.222263514715163e+001
 2.072937048916287e+000	 9.250400659666204e-002	 1.222452309662108e+001
 2.072019003357499e+000	 1.111856543572408e-001	 1.222585781653165e+001
 2.070928541386338e+000	 1.299229636555072e-001	 1.222633306387524e+001
 2.069664027335182e+000	 1.487138661099619e-001	 1.222562927160098e+001
 2.068223852303450e+000	 1.675562496233655e-001	 1.222341362973213e+001
 2.066606435379921e+000	 1.864479586326804e-001	 1.221934019506504e+001
 2.100000000000000e+000	 0.000000000000000e+000	 1.214923869069751e+001
 2.099917669207360e+000	 1.859522925121972e-002	 1.215109249560658e+001
 2.099669485112827e+000	 3.725658715996871e-002	 1.215349460219732e+001
 2.099253675193943e+000	 5.598220419569634e-002	 1.215618288348836e+001
 2.098668487947270e+000	 7.477016584666474e-002	 1.215888142781627e+001
 2.097912194083901e+000	 9.361851269984770e-002	 1.216130051681897e+001
 2.096983087735225e+000	 1.125252405540445e-001	 1.216313662924432e+001
 2.095879487667998e+000	 1.314883005669314e-001	 1.216407247157028e+001
 2.094599738507760e+000	 1.505055994367509e-001	 1.216377703639391e+001
 2.093142211969584e+000	 1.695749996193093e-001	 1.216190568951397e+001
 2.091505308095129e+000	 1.886943195809308e-001	 1.215810028659374e+001
 2.125000000000000e+000	 0.000000000000000e+000	 1.208368026106213e+001
 2.124916689078869e+000	 1.881660102781714e-002	 1.208621749575436e+001
 2.124665550411762e+000	 3.770011795914884e-002	 1.208933752491614e+001
 2.124244790374762e+000	 5.664865900712907e-002	 1.209276882138284e+001
 2.123652636613199e+000	 7.566028686821429e-002	 1.209622564769298e+001
 2.122887339251394e+000	 9.473301880303341e-002	 1.209940803585252e+001
 2.121947172112776e+000	 1.138648267508482e-001	 1.210200179383527e+001
 2.120830433949419e+000	 1.330536374783557e-001	 1.210367853983624e+001
 2.119535449680023e+000	 1.522973327635398e-001	 1.210409576526498e+001
 2.118060571635321e+000	 1.715937496152530e-001	 1.210289692743139e+001
 2.116404180809845e+000	 1.909406805291811e-001	 1.209971157283775e+001
 2.150000000000000e+000	 0.000000000000000e+000	 1.201841042521853e+001
 2.149915708950374e+000	 1.903797280441457e-002	 1.202177728740002e+001
 2.149661615710677e+000	 3.814364875832895e-002	 1.202578535929284e+001
 2.149235905555537e+000	 5.731511381856181e-002	 1.203015375718569e+001
 2.148636785279050e+000	 7.655040788976383e-002	 1.203458693991753e+001
 2.147862484418765e+000	 9.584752490621905e-002	 1.203877468996785e+001
 2.146911256490152e+000	 1.152044129476518e-001	 1.204239212221576e+001
 2.145781380230602e+000	 1.346189743897799e-001	 1.204509972141691e+001
 2.144471160851976e+000	 1.540890660903287e-001	 1.204654340941620e+001
 2.142978931300662e+000	 1.736124996111968e-001	 1.204635464307811e+001
 2.141303053524069e+000	 1.931870414774315e-001	 1.204415054387687e+001
 2.175000000000000e+000	 0.000000000000000e+000	 1.195331316293913e+001
 2.174914728821873e+000	 1.925934458101199e-002	 1.195766603872727e+001
 2.174657681009575e+000	 3.858717955750909e-002	 1.196274237778613e+001
 2.174227020736269e+000	 5.798156862999455e-002	 1.196825197697020e+001
 2.173620933944825e+000	 7.744052891131338e-002	 1.197388950682395e+001
 2.172837629586016e+000	 9.696203100940472e-002	 1.197933449354512e+001
 2.171875340867353e+000	 1.165439991444556e-001	 1.198425132957157e+001
 2.170732326511546e+000	 1.361843113012042e-001	 1.198828931387451e+001
 2.169406872023616e+000	 1.558807994171177e-001	 1.199108272300832e+001
 2.167897290965605e+000	 1.756312496071405e-001	 1.199225091393008e+001
 2.166201926237801e+000	 1.954334024256818e-001	 1.199139845956017e+001
 2.199999999999999e+000	 0.000000000000000e+000	 1.188827772764299e+001
 2.199913748693369e+000	 1.948071635760941e-002	 1.189378304651694e+001
 2.199653746308452e+000	 3.903071035668922e-002	 1.190011785088641e+001
 2.199218135916958e+000	 5.864802344142729e-002	 1.190698264896661e+001
 2.198605082610522e+000	 7.833064993286290e-002	 1.191406233192186e+001
 2.197812774753146e+000	 9.807653711259042e-002	 1.192102615624999e+001
 2.196839425244380e+000	 1.178835853412592e-001	 1.192752775576786e+001
 2.195683272792251e+000	 1.377496482126284e-001	 1.193320518431590e+001
 2.194342583194942e+000	 1.576725327439066e-001	 1.193768099026545e+001
 2.192815650630152e+000	 1.776499996030843e-001	 1.194056232387485e+001
 2.191100798951041e+000	 1.976797633739321e-001	 1.194144107849641e+001
 2.224999999999999e+000	 0.000000000000000e+000	 1.182319835012365e+001
 2.224912768564859e+000	 1.970208813420683e-002	 1.183003244802375e+001
 2.224649811607310e+000	 3.947424115586935e-002	 1.183782576632728e+001
 2.224209251097604e+000	 5.931447825286004e-002	 1.184626954928349e+001
 2.223589231276142e+000	 7.922077095441245e-002	 1.185503891129112e+001
 2.222787919920156e+000	 9.919104321577607e-002	 1.186379281925358e+001
 2.221803509621232e+000	 1.192231715380629e-001	 1.187217410553572e+001
 2.220634219072718e+000	 1.393149851240526e-001	 1.187980951267657e+001
 2.219278294365958e+000	 1.594642660706956e-001	 1.188630977097700e+001
 2.217734010294301e+000	 1.796687495990280e-001	 1.189126971004238e+001
 2.215999671663790e+000	 1.999261243221825e-001	 1.189426840531471e+001
 2.250000000000000e+000	 0.000000000000000e+000	 1.175797396202822e+001
 2.249911788436345e+000	 1.992345991080426e-002	 1.176632295206087e+001
 2.249645876906150e+000	 3.991777195504948e-002	 1.177578456701655e+001
 2.249200366278207e+000	 5.998093306429280e-002	 1.178604080591459e+001
 2.248573379941687e+000	 8.011089197596204e-002	 1.179675700288345e+001
 2.247763065087045e+000	 1.003055493189618e-001	 1.180758180903766e+001
 2.246767593997911e+000	 1.205627577348667e-001	 1.181814720597961e+001
 2.245585165352948e+000	 1.408803220354769e-001	 1.182806855211914e+001
 2.244214005536660e+000	 1.612559993974846e-001	 1.183694466296644e+001
 2.242652369958055e+000	 1.816874995949719e-001	 1.184435792651375e+001
 2.240898544376048e+000	 2.021724852704328e-001	 1.184987445477453e+001
 1.991909817231349e+000	 1.797088757879295e-001	 1.242047999483440e+001
 1.990178529992387e+000	 1.979631753165402e-001	 1.244444460640078e+001
 1.988273445324313e+000	 2.162607376432357e-001	 1.246638587581728e+001
 1.986193127503396e+000	 2.345993612291324e-001	 1.248595760701994e+001
 1.983936172534892e+000	 2.529768039579074e-001	 1.250280215171877e+001
 1.981501209344972e+000	 2.713907835560692e-001	 1.251655063756674e+001
 1.978886900971938e+000	 2.898389780504917e-001	 1.252682322588412e+001
 1.976091945755501e+000	 3.083190262635864e-001	 1.253322939939904e+001
 1.973115078522868e+000	 3.268285283464442e-001	 1.253536828040330e+001
 1.969955071770350e+000	 3.453650463502415e-001	 1.253282897965692e+001
 1.966610736839180e+000	 3.639261048361500e-001	 1.252519097630572e+001
 2.016808689948031e+000	 1.819552367361798e-001	 1.235049325126206e+001
 2.015055761618825e+000	 2.004377150093213e-001	 1.237359236312825e+001
 2.013126863392606e+000	 2.189639968654950e-001	 1.239466296128113e+001
 2.011020541599093e+000	 2.375318532465809e-001	 1.241334081781433e+001
 2.008735374693610e+000	 2.561390140098016e-001	 1.242924974229840e+001
 2.006269974463903e+000	 2.747831683532467e-001	 1.244200182272576e+001
 2.003622987236254e+000	 2.934619652791262e-001	 1.245119769731434e+001
 2.000793095079617e+000	 3.121730140951304e-001	 1.245642685764655e+001
 1.997779017006543e+000	 3.309138849542394e-001	 1.245726798355447e+001
 1.994579510169543e+000	 3.496821094332687e-001	 1.245328931009521e+001
 1.991193371051617e+000	 3.684751811504042e-001	 1.244404902688627e+001
 2.041707562664222e+000	 1.842015976844301e-001	 1.228345986878073e+001
 2.039932993244682e+000	 2.029122547020977e-001	 1.230571947858658e+001
 2.037980281460246e+000	 2.216672560877351e-001	 1.232596433422582e+001
 2.035847955694086e+000	 2.404643452639859e-001	 1.234381210010775e+001
 2.033534576851590e+000	 2.593012240616184e-001	 1.235886794746185e+001
 2.031038739582085e+000	 2.781755531503032e-001	 1.237072480787276e+001
 2.028359073499827e+000	 2.970849525075852e-001	 1.237896365900751e+001
 2.025494244403021e+000	 3.160270019264354e-001	 1.238315384302746e+001
 2.022442955489553e+000	 3.349992415617212e-001	 1.238285341811028e+001
 2.019203948568140e+000	 3.539991725158980e-001	 1.237760954343539e+001
 2.015776005263546e+000	 3.730242574641658e-001	 1.236695889791126e+001
 2.066606435379921e+000	 1.864479586326804e-001	 1.221934019506504e+001
 2.064810224869957e+000	 2.053867943948692e-001	 1.224080695747424e+001
 2.062833699527232e+000	 2.243705153099559e-001	 1.226029161246583e+001
 2.060675369788373e+000	 2.433968372813476e-001	 1.227739362926055e+001
 2.058333779008834e+000	 2.624634341133578e-001	 1.229169943263186e+001
 2.055807504699518e+000	 2.815679379472383e-001	 1.230278266885144e+001
 2.053095159762659e+000	 3.007079397358692e-001	 1.231020450519070e+001
 2.050195393725710e+000	 3.198809897575009e-001	 1.231351396348829e+001
 2.047106893971896e+000	 3.390845981688897e-001	 1.231224828822339e+001
 2.043828386966140e+000	 3.583162355981295e-001	 1.230593334945982e+001
 2.040358639474969e+000	 3.775733337774347e-001	 1.229408408094783e+001
 2.091505308095129e+000	 1.886943195809308e-001	 1.215810028659374e+001
 2.089687456494649e+000	 2.078613340876359e-001	 1.217884096871572e+001
 2.087687117593565e+000	 2.270737745321575e-001	 1.219765104519057e+001
 2.085502783881955e+000	 2.463293292986658e-001	 1.221411169121169e+001
 2.083132981165341e+000	 2.656256441650199e-001	 1.222779046539420e+001
 2.080576269816199e+000	 2.849603227440519e-001	 1.223824158795730e+001
 2.077831246024749e+000	 3.043309269639778e-001	 1.224500625385745e+001
 2.074896543047685e+000	 3.237349775883274e-001	 1.224761298140092e+001
 2.071770832453574e+000	 3.431699547757446e-001	 1.224557799679071e+001
 2.068452825363542e+000	 3.626332986799630e-001	 1.223840565498591e+001
 2.064941273685884e+000	 3.821224100902110e-001	 1.222558889716945e+001
 2.116404180809845e+000	 1.909406805291811e-001	 1.209971157283775e+001
 2.114564688118759e+000	 2.103358737803979e-001	 1.211981254168347e+001
 2.112540535659244e+000	 2.297770337543399e-001	 1.213805324053042e+001
 2.110330197974832e+000	 2.492618213159407e-001	 1.215399644067991e+001
 2.107932183321110e+000	 2.687878542166046e-001	 1.216719070360563e+001
 2.105345034932133e+000	 2.883527075407444e-001	 1.217717067120520e+001
 2.102567332286097e+000	 3.079539141919112e-001	 1.218345739242859e+001
 2.099597692368946e+000	 3.275889654189145e-001	 1.218555868683177e+001
 2.096434770934586e+000	 3.472553113822861e-001	 1.218296954552721e+001
 2.093077263760348e+000	 3.669503617613986e-001	 1.217517256992287e+001
 2.089523907896292e+000	 3.866714864024947e-001	 1.216163844855563e+001
 2.141303053524069e+000	 1.931870414774315e-001	 1.204415054387687e+001
 2.139441919742287e+000	 2.128104134731551e-001	 1.206371728361369e+001
 2.137393953724271e+000	 2.324802929765031e-001	 1.208151291213009e+001
 2.135157612067005e+000	 2.521943133331722e-001	 1.209708167623478e+001
 2.132731385476141e+000	 2.719500642681119e-001	 1.210995299828522e+001
 2.130113800047317e+000	 2.917450923373155e-001	 1.211964177834572e+001
 2.127303418546704e+000	 3.115769014196695e-001	 1.212564873418079e+001
 2.124298841689493e+000	 3.314429532492624e-001	 1.212746077965249e+001
 2.121098709414933e+000	 3.513406679885143e-001	 1.212455144201143e+001
 2.117701702156558e+000	 3.712674248424365e-001	 1.211638131848726e+001
 2.114106542106193e+000	 3.912205627142856e-001	 1.210239857249617e+001
 2.166201926237801e+000	 1.954334024256818e-001	 1.199139845956017e+001
 2.164319151365234e+000	 2.152849531659074e-001	 1.201055511651079e+001
 2.162247371788643e+000	 2.351835521986470e-001	 1.202804864319938e+001
 2.159985026158471e+000	 2.551268053503602e-001	 1.204340463087991e+001
 2.157530587630436e+000	 2.751122743195417e-001	 1.205613321009920e+001
 2.154882565161751e+000	 2.951374771337653e-001	 1.206572936460447e+001
 2.152039504806568e+000	 3.151998886472524e-001	 1.207167328457677e+001
 2.148999991009326e+000	 3.352969410793710e-001	 1.207343075978111e+001
 2.145762647894613e+000	 3.554260245944289e-001	 1.207045361314151e+001
 2.142326140552169e+000	 3.755844879230764e-001	 1.206218017516242e+001
 2.138689176315586e+000	 3.957696390255839e-001	 1.204803579952617e+001
 2.191100798951041e+000	 1.976797633739321e-001	 1.194144107849641e+001
 2.189196382987598e+000	 2.177594928586550e-001	 1.196033003199004e+001
 2.187100789852364e+000	 2.378868114207717e-001	 1.197768266665162e+001
 2.184812440249234e+000	 2.580592973675049e-001	 1.199300577691467e+001
 2.182329789783993e+000	 2.782744843708941e-001	 1.200579003835832e+001
 2.179651330275435e+000	 2.985298619300938e-001	 1.201551033321188e+001
 2.176775591065690e+000	 3.188228758746602e-001	 1.202162611670926e+001
 2.173701140328445e+000	 3.391509289092404e-001	 1.202358182490668e+001
 2.170426586373629e+000	 3.595113812000301e-001	 1.202080732449210e+001
 2.166950578947184e+000	 3.799015510033184e-001	 1.201271840502412e+001
 2.163271810524472e+000	 4.003187153363895e-001	 1.199871731394284e+001
 2.215999671663790e+000	 1.999261243221825e-001	 1.189426840531471e+001
 2.214073614609379e+000	 2.202340325513978e-001	 1.191304986264781e+001
 2.211954207915429e+000	 2.405900706428772e-001	 1.193044066006412e+001
 2.209639854339290e+000	 2.609917893846062e-001	 1.194592864395129e+001
 2.207128991936814e+000	 2.814366944221692e-001	 1.195898486154340e+001
 2.204420095388370e+000	 3.019222467263009e-001	 1.196906389787488e+001
 2.201511677324071e+000	 3.224458631018926e-001	 1.197560425514194e+001
 2.198402289646850e+000	 3.430049167388706e-001	 1.197802877510879e+001
 2.195090524851978e+000	 3.635967378053179e-001	 1.197574510510783e+001
 2.191575017341603e+000	 3.842186140831626e-001	 1.196814620808937e+001
 2.187854444732851e+000	 4.048677916467026e-001	 1.195461091707723e+001
 2.240898544376048e+000	 2.021724852704328e-001	 1.184987445477453e+001
 2.238950846230580e+000	 2.227085722441359e-001	 1.186872606867363e+001
 2.236807625977843e+000	 2.432933298649636e-001	 1.188635155430788e+001
 2.234467268428643e+000	 2.639242814016641e-001	 1.190221964906414e+001
 2.231928194088898e+000	 2.845989044733670e-001	 1.191578158846257e+001
 2.229188860500555e+000	 3.053146315223869e-001	 1.192647145441704e+001
 2.226247763581711e+000	 3.260688503289499e-001	 1.193370656749448e+001
 2.223103438964543e+000	 3.468589045682617e-001	 1.193688792383596e+001
 2.219754463329662e+000	 3.676820944102924e-001	 1.193540067731042e+001
 2.216199455735425e+000	 3.885356771626091e-001	 1.192861466737517e+001
 2.212437078940723e+000	 4.094168679565229e-001	 1.191588499301457e+001
 1.966610736839180e+000	 3.639261048361500e-001	 1.252519097630572e+001
 1.963080925084422e+000	 3.825091915237607e-001	 1.258168354131918e+001
 1.959364529034961e+000	 4.011117579788214e-001	 1.263449033956520e+001
 1.955460483543635e+000	 4.197312203398140e-001	 1.268320075652682e+001
 1.951367766926559e+000	 4.383649600831473e-001	 1.272739496581151e+001
 1.947085402089539e+000	 4.570103248275765e-001	 1.276664439878222e+001
 1.942612457640389e+000	 4.756646291775601e-001	 1.280051224549756e+001
 1.937948048985706e+000	 4.943251556054373e-001	 1.282855398676689e+001
 1.933091339410632e+000	 5.129891553722548e-001	 1.285031795703483e+001
 1.928041541140166e+000	 5.316538494870136e-001	 1.286534593771831e+001
 1.922797916380548e+000	 5.503164297040443e-001	 1.287317378052395e+001
 1.991193371051617e+000	 3.684751811504042e-001	 1.244404902688627e+001
 1.987619436649766e+000	 3.872905564217012e-001	 1.249994416861229e+001
 1.983856585649486e+000	 4.061256549574481e-001	 1.255182212149780e+001
 1.979903739589275e+000	 4.249778605978572e-001	 1.259924548868989e+001
 1.975759864014198e+000	 4.438445220877912e-001	 1.264176736410797e+001
 1.971423969616384e+000	 4.627229538912394e-001	 1.267893183281509e+001
 1.966895113361246e+000	 4.816104370452150e-001	 1.271027450407627e+001
 1.962172399597961e+000	 5.005042200529608e-001	 1.273532307688458e+001
 1.957254981152735e+000	 5.194015198162859e-001	 1.275359793764196e+001
 1.952142060403382e+000	 5.382995226068031e-001	 1.276461278958486e+001
 1.946832890333715e+000	 5.571953850757715e-001	 1.276787531344615e+001
 2.015776005263546e+000	 3.730242574641658e-001	 1.236695889791126e+001
 2.012157948214703e+000	 3.920719213190587e-001	 1.242230766910964e+001
 2.008348642263703e+000	 4.111395519354208e-001	 1.247332771570064e+001
 2.004346995634707e+000	 4.302245008551946e-001	 1.251955466263717e+001
 2.000151961101730e+000	 4.493240840916975e-001	 1.256051430711146e+001
 1.995762537143223e+000	 4.684355829541525e-001	 1.259572314974250e+001
 1.991177769082197e+000	 4.875562449121282e-001	 1.262468895986460e+001
 1.986396750210409e+000	 5.066832844997707e-001	 1.264691137467464e+001
 1.981418622895133e+000	 5.258138842596520e-001	 1.266188253189718e+001
 1.976242579666991e+000	 5.449451957259967e-001	 1.266908773552508e+001
 1.970867864287377e+000	 5.640743404469928e-001	 1.266800615409084e+001
 2.040358639474969e+000	 3.775733337774347e-001	 1.229408408094783e+001
 2.036696459779233e+000	 3.968532862158332e-001	 1.234896292302291e+001
 2.032840698877614e+000	 4.161534489127393e-001	 1.239922112444915e+001
 2.028790251679932e+000	 4.354711411118264e-001	 1.244436711911716e+001
 2.024544058189155e+000	 4.548036460948663e-001	 1.248389917329540e+001
 2.020101104670055e+000	 4.741482120163162e-001	 1.251730594772378e+001
 2.015460424803240e+000	 4.935020527783000e-001	 1.254406709526020e+001
 2.010621100823051e+000	 5.128623489458675e-001	 1.256365389381498e+001
 2.005582264637823e+000	 5.322262487023534e-001	 1.257552991420447e+001
 2.000343098930994e+000	 5.515908688445946e-001	 1.257915172245028e+001
 1.994902838241532e+000	 5.709532958177074e-001	 1.257396961594241e+001
 2.064941273685884e+000	 3.821224100902110e-001	 1.222558889716945e+001
 2.061234971343355e+000	 4.016346511120246e-001	 1.228009895474712e+001
 2.057332755491217e+000	 4.211673458894039e-001	 1.232971582821767e+001
 2.053233507724950e+000	 4.407177813677525e-001	 1.237392053097892e+001
 2.048936155276472e+000	 4.602832080972976e-001	 1.241218354746302e+001
 2.044439672196880e+000	 4.798608410777304e-001	 1.244396542624048e+001
 2.039743080524377e+000	 4.994478606437301e-001	 1.246871741016751e+001
 2.034845451435886e+000	 5.190414133912505e-001	 1.248588210328863e+001
 2.029745906380808e+000	 5.386386131443898e-001	 1.249489417409963e+001
 2.024443618195390e+000	 5.582365419625964e-001	 1.249518109466492e+001
 2.018937812196181e+000	 5.778322511879159e-001	 1.248616391497227e+001
 2.089523907896292e+000	 3.866714864024947e-001	 1.216163844855563e+001
 2.085773482907070e+000	 4.064160160076331e-001	 1.221590492437915e+001
 2.081824812104512e+000	 4.261812428654142e-001	 1.226502481637357e+001
 2.077676763769761e+000	 4.459644216229730e-001	 1.230845147187198e+001
 2.073328252363684e+000	 4.657627700989915e-001	 1.234562732625732e+001
 2.068778239723697e+000	 4.855734701383950e-001	 1.237598452719511e+001
 2.064025736245607e+000	 5.053936685084186e-001	 1.239894559743840e+001
 2.059069802048916e+000	 5.252204778359207e-001	 1.241392413589525e+001
 2.053909548124086e+000	 5.450509775857614e-001	 1.242032555653660e+001
 2.048544137460180e+000	 5.648822150800023e-001	 1.241754786460809e+001
 2.042972786151324e+000	 5.847112065576181e-001	 1.240498246949250e+001
 2.114106542106193e+000	 3.912205627142856e-001	 1.210239857249617e+001
 2.110311994470377e+000	 4.111973809026583e-001	 1.215657011982817e+001
 2.106316868717501e+000	 4.311951398407705e-001	 1.220536061573003e+001
 2.102120019814364e+000	 4.512110618774879e-001	 1.224819548015334e+001
 2.097720349450787e+000	 4.712423320999477e-001	 1.228448881631003e+001
 2.093116807250510e+000	 4.912860991983101e-001	 1.231364406616566e+001
 2.088308391966931e+000	 5.113394763723658e-001	 1.233505470607303e+001
 2.083294152662138e+000	 5.313995422798772e-001	 1.234810498221521e+001
 2.078073189867658e+000	 5.514633420264680e-001	 1.235217068540968e+001
 2.072644656725364e+000	 5.715278881968123e-001	 1.234661996470626e+001
 2.067007760106961e+000	 5.915901619268141e-001	 1.233081417908955e+001
 2.138689176315586e+000	 3.957696390255839e-001	 1.204803579952617e+001
 2.134850506033278e+000	 4.159787457971007e-001	 1.210228394947002e+001
 2.130808925330182e+000	 4.362090368154726e-001	 1.215093531712962e+001
 2.126563275858762e+000	 4.564577021312971e-001	 1.219338711838694e+001
 2.122112446537784e+000	 4.767218941001665e-001	 1.222902482562146e+001
 2.117455374777314e+000	 4.969987282574755e-001	 1.225722285460826e+001
 2.112591047688348e+000	 5.172852842355713e-001	 1.227734529316527e+001
 2.107518503275554e+000	 5.375786067231203e-001	 1.228874667119692e+001
 2.102236831611523e+000	 5.578757064665098e-001	 1.229077277166043e+001
 2.096745175990942e+000	 5.781735613130266e-001	 1.228276148185666e+001
 2.091042734063091e+000	 5.984691172955039e-001	 1.226404368432113e+001
 2.163271810524472e+000	 4.003187153363895e-001	 1.199871731394284e+001
 2.159389017595771e+000	 4.207601106909599e-001	 1.205323593530259e+001
 2.155300981942557e+000	 4.412229337895208e-001	 1.210196060021527e+001
 2.151006531902950e+000	 4.617043423844006e-001	 1.214426002878659e+001
 2.146504543624674e+000	 4.822014560996478e-001	 1.217949074871003e+001
 2.141793942304112e+000	 5.027113573158918e-001	 1.220699781372758e+001
 2.136873703409858e+000	 5.232310920980353e-001	 1.222611556548828e+001
 2.131742853889163e+000	 5.437576711656501e-001	 1.223616843843145e+001
 2.126400473355683e+000	 5.642880709058867e-001	 1.223647180719539e+001
 2.120845695256914e+000	 5.848192344286449e-001	 1.222633287592333e+001
 2.115077708019714e+000	 6.053480726636871e-001	 1.220505160870644e+001
 2.187854444732851e+000	 4.048677916467026e-001	 1.195461091707723e+001
 2.183927529157856e+000	 4.255414755842361e-001	 1.200961570656252e+001
 2.179793038554623e+000	 4.462368307629148e-001	 1.205864775653150e+001
 2.175449787946933e+000	 4.669509826367986e-001	 1.210104698492088e+001
 2.170896640711458e+000	 4.876810180983917e-001	 1.213614064602141e+001
 2.166132509830903e+000	 5.084239863735581e-001	 1.216324408067092e+001
 2.161156359131462e+000	 5.291768999597577e-001	 1.218166151153504e+001
 2.155967204502966e+000	 5.499367356074666e-001	 1.219068688308255e+001
 2.150564115100135e+000	 5.707004353445987e-001	 1.218960474573075e+001
 2.144946214523279e+000	 5.914649075436672e-001	 1.217769118350295e+001
 2.139112681976832e+000	 6.122270280313643e-001	 1.215421478440252e+001
 2.212437078940723e+000	 4.094168679565229e-001	 1.191588499301457e+001
 2.208466040719535e+000	 4.303228404769294e-001	 1.197161299376748e+001
 2.204285095166384e+000	 4.512507277356548e-001	 1.202120771108532e+001
 2.199893043990709e+000	 4.721976228884912e-001	 1.206397993997134e+001
 2.195288737798134e+000	 4.931605800963981e-001	 1.209922731804360e+001
 2.190471077357688e+000	 5.141366154304753e-001	 1.212623510764230e+001
 2.185439014853160e+000	 5.351227078207387e-001	 1.214427702475607e+001
 2.180191555116964e+000	 5.561158000485698e-001	 1.215261611435495e+001
 2.174727756844882e+000	 5.771127997826461e-001	 1.215050567158071e+001
 2.169046733790038e+000	 5.981105806580940e-001	 1.213719020810642e+001
 2.163147655934445e+000	 6.191059833985354e-001	 1.211190646283541e+001
 1.922797916380548e+000	 5.503164297040443e-001	 1.287317378052395e+001
 1.917359778339054e+000	 5.689740595581219e-001	 1.286363056159850e+001
 1.911726492221324e+000	 5.876238754369104e-001	 1.284199559406681e+001
 1.905897476204296e+000	 6.062629876904957e-001	 1.280757820922158e+001
 1.899872202382971e+000	 6.248884817771945e-001	 1.275968561110327e+001
 1.893650197690125e+000	 6.434974194451186e-001	 1.284433565472638e+001
 1.887231044787307e+000	 6.620868399488499e-001	 1.291574722380325e+001
 1.880614382925689e+000	 6.806537613005027e-001	 1.297278477067810e+001
 1.873799908775373e+000	 6.991951815543979e-001	 1.301582998867988e+001
 1.866787377221733e+000	 7.177080801244901e-001	 1.304790433241266e+001
 1.859576602127425e+000	 7.361894191336469e-001	 1.306648873938841e+001
 1.946832890333715e+000	 5.571953850757715e-001	 1.276787531344615e+001
 1.941326775566192e+000	 5.760862353022611e-001	 1.274694775836288e+001
 1.935623073371612e+000	 5.949691738788934e-001	 1.271522189957216e+001
 1.929721194654121e+000	 6.138412750351303e-001	 1.267204034584412e+001
 1.923620604909912e+000	 6.326995877975195e-001	 1.267412303145019e+001
 1.917320825158421e+000	 6.515411371860248e-001	 1.274670810508044e+001
 1.910821432844467e+000	 6.703629254459109e-001	 1.280643438032157e+001
 1.904122062709863e+000	 6.891619333144453e-001	 1.285310207946219e+001
 1.897222407633088e+000	 7.079351213216277e-001	 1.288652671960427e+001
 1.890122219435584e+000	 7.266794311240886e-001	 1.290653949163240e+001
 1.882821309653291e+000	 7.453917868712325e-001	 1.291298761830167e+001
 1.970867864287377e+000	 5.640743404469928e-001	 1.266800615409084e+001
 1.965293772793916e+000	 5.831984110459895e-001	 1.263805888878461e+001
 1.959519654522553e+000	 6.023144723205506e-001	 1.259858260883114e+001
 1.953544913104652e+000	 6.214195623795153e-001	 1.254895158547233e+001
 1.947369007437591e+000	 6.405106938176606e-001	 1.259674879058515e+001
 1.940991452627468e+000	 6.595848549268031e-001	 1.265807410433893e+001
 1.934411820902369e+000	 6.786390109428899e-001	 1.270776433460262e+001
 1.927629742494751e+000	 6.976701053283415e-001	 1.274567187426735e+001
 1.920644906491468e+000	 7.166750610888373e-001	 1.277166419435599e+001
 1.913457061650030e+000	 7.356507821236823e-001	 1.278562416602466e+001
 1.906066017179662e+000	 7.545941546088181e-001	 1.278745036082584e+001
 1.994902838241532e+000	 5.709532958177074e-001	 1.257396961594241e+001
 1.989260770022222e+000	 5.903105867893066e-001	 1.253731236441339e+001
 1.983416235674150e+000	 6.096597707618821e-001	 1.249237227726734e+001
 1.977368631555889e+000	 6.289978497236504e-001	 1.246454580801126e+001
 1.971117409966007e+000	 6.483217998376175e-001	 1.252657396214377e+001
 1.964662080097263e+000	 6.676285726674529e-001	 1.257826394646313e+001
 1.958002208961012e+000	 6.869150964397870e-001	 1.261950488705536e+001
 1.951137422280351e+000	 7.061782773421914e-001	 1.265020050446682e+001
 1.944067405350511e+000	 7.254150008560257e-001	 1.267026940137762e+001
 1.936791903865071e+000	 7.446221331232709e-001	 1.267964532856713e+001
 1.929310724706539e+000	 7.637965223464036e-001	 1.267827742826557e+001
 2.018937812196181e+000	 5.778322511879159e-001	 1.248616391497227e+001
 2.013227767251113e+000	 5.974227625322126e-001	 1.244505468687876e+001
 2.007312816826402e+000	 6.170050692028881e-001	 1.239688669075658e+001
 2.001192350007833e+000	 6.365761370675351e-001	 1.241064163576200e+001
 1.994865812495163e+000	 6.561329058573907e-001	 1.246349970273542e+001
 1.988332707567807e+000	 6.756722904079746e-001	 1.250711827649538e+001
 1.981592597020396e+000	 6.951911819366017e-001	 1.254143712355070e+001
 1.974645102066663e+000	 7.146864493559949e-001	 1.256641048356312e+001
 1.967489904210219e+000	 7.341549406231938e-001	 1.258200730284721e+001
 1.960126746080707e+000	 7.535934841228539e-001	 1.258821144519957e+001
 1.952555432233920e+000	 7.729988900839893e-001	 1.258502187922033e+001
 2.042972786151324e+000	 5.847112065576181e-001	 1.240498246949250e+001
 2.037194764480589e+000	 6.045349382747075e-001	 1.236163056023825e+001
 2.031209397979309e+000	 6.243503676435684e-001	 1.231242279324741e+001
 2.025016068460483e+000	 6.441544244111702e-001	 1.236220487275391e+001
 2.018614215025055e+000	 6.639440118769794e-001	 1.240743409853083e+001
 2.012003335039101e+000	 6.837160081483685e-001	 1.244448748167199e+001
 2.005182985080521e+000	 7.034672674333341e-001	 1.247335463392372e+001
 1.998152781853689e+000	 7.231946213697521e-001	 1.249403953835696e+001
 1.990912403070590e+000	 7.428948803903412e-001	 1.250656072958026e+001
 1.983461588296937e+000	 7.625648351224319e-001	 1.251095145030240e+001
 1.975800139761806e+000	 7.822012578215748e-001	 1.250725978347407e+001
 2.067007760106961e+000	 5.915901619268141e-001	 1.233081417908955e+001
 2.061161761710647e+000	 6.116471140167914e-001	 1.228738299548744e+001
 2.055105979132871e+000	 6.316956660839231e-001	 1.227294929330487e+001
 2.048839786913839e+000	 6.517327117545554e-001	 1.231920600383318e+001
 2.042362617555685e+000	 6.717551178963843e-001	 1.235829176238058e+001
 2.035673962511146e+000	 6.917597258886343e-001	 1.239023112501659e+001
 2.028773373141387e+000	 7.117433529299844e-001	 1.241506278499910e+001
 2.021660461641427e+000	 7.317027933834631e-001	 1.243283972445317e+001
 2.014334901931625e+000	 7.516348201574681e-001	 1.244362934215549e+001
 2.006796430513763e+000	 7.715361861220048e-001	 1.244751355667092e+001
 1.999044847290198e+000	 7.914036255591603e-001	 1.244458888413573e+001
 2.091042734063091e+000	 5.984691172955039e-001	 1.226404368432113e+001
 2.085128758941291e+000	 6.187592897584642e-001	 1.222265340786239e+001
 2.079002560287087e+000	 6.390409645239521e-001	 1.224102149975565e+001
 2.072663505367901e+000	 6.593109990976909e-001	 1.228161912482692e+001
 2.066111020087053e+000	 6.795662239156053e-001	 1.231599345871859e+001
 2.059344589983939e+000	 6.998034436287719e-001	 1.234421741799602e+001
 2.052363761202996e+000	 7.200194384265527e-001	 1.236637804375254e+001
 2.045168141429878e+000	 7.402109653971275e-001	 1.238257660276623e+001
 2.037757400793325e+000	 7.603747599245742e-001	 1.239292866368707e+001
 2.030131272731183e+000	 7.805075371215727e-001	 1.239756414756054e+001
 2.022289554819095e+000	 8.006059932967460e-001	 1.239662735204580e+001
 2.115077708019714e+000	 6.053480726636871e-001	 1.220505160870644e+001
 2.109095756172518e+000	 6.258714654997258e-001	 1.217130441777533e+001
 2.102899141441959e+000	 6.463862629636555e-001	 1.221307012539539e+001
 2.096487223822670e+000	 6.668892864405762e-001	 1.224942173737377e+001
 2.089859422619159e+000	 6.873773299346420e-001	 1.228046575404036e+001
 2.083015217457482e+000	 7.078471613687812e-001	 1.230632272913161e+001
 2.075954149265345e+000	 7.282955239230388e-001	 1.232712734662044e+001
 2.068675821219042e+000	 7.487191374107458e-001	 1.234302847217307e+001
 2.061179899655689e+000	 7.691146996916598e-001	 1.235418917854418e+001
 2.053466114949198e+000	 7.894788881211352e-001	 1.236078674427425e+001
 2.045534262348497e+000	 8.098083610343312e-001	 1.236301262510983e+001
 2.139112681976832e+000	 6.122270280313643e-001	 1.215421478440252e+001
 2.133062753404329e+000	 6.329836412405763e-001	 1.215107933996101e+001
 2.126795722597485e+000	 6.537315614030334e-001	 1.218912523056576e+001
 2.120310942278145e+000	 6.744675737832117e-001	 1.222259455758622e+001
 2.113607825152002e+000	 6.951884359534949e-001	 1.225164069094443e+001
 2.106685844931774e+000	 7.158908791086627e-001	 1.227643112573758e+001
 2.099544537328434e+000	 7.365716094194424e-001	 1.229714751132789e+001
 2.092183501008918e+000	 7.572273094243178e-001	 1.231398565389731e+001
 2.084602398518715e+000	 7.778546394587246e-001	 1.232715549183108e+001
 2.076800957167808e+000	 7.984502391206926e-001	 1.233688104335100e+001
 2.068778969878404e+000	 8.190107287719171e-001	 1.234340032587898e+001
 2.163147655934445e+000	 6.191059833985354e-001	 1.211190646283541e+001
 2.157029750636725e+000	 6.400958169810158e-001	 1.213354513877070e+001
 2.150692303753667e+000	 6.610768598420859e-001	 1.216921773993551e+001
 2.144134660734327e+000	 6.820458611255977e-001	 1.220112133746872e+001
 2.137356227685585e+000	 7.029995419721639e-001	 1.222945548390445e+001
 2.130356472406817e+000	 7.239345968484162e-001	 1.225443394621039e+001
 2.123134925392267e+000	 7.448476949157646e-001	 1.227628468792829e+001
 2.115691180799508e+000	 7.657354814378438e-001	 1.229524982360100e+001
 2.108024897382408e+000	 7.865945792257690e-001	 1.231158554490183e+001
 2.100135799387014e+000	 8.074215901202453e-001	 1.232556201794141e+001
 2.092023677408817e+000	 8.282130965095027e-001	 1.233746325129200e+001
 1.859576602127425e+000	 7.361894191336469e-001	 1.306648873938841e+001
 1.852167457058817e+000	 7.546361447941515e-001	 1.308343176872266e+001
 1.844559875975170e+000	 7.730451888174859e-001	 1.309637788744771e+001
 1.836753853879597e+000	 7.914134698526776e-001	 1.310539331541298e+001
 1.828749447430661e+000	 8.097378949529311e-001	 1.311055006697800e+001
 1.820546775513088e+000	 8.280153610683618e-001	 1.311192591895080e+001
 1.812146019766516e+000	 8.462427565638447e-001	 1.310960436683047e+001
 1.803547425071165e+000	 8.644169627606541e-001	 1.310367456922532e+001
 1.794751299989325e+000	 8.825348555005105e-001	 1.309423128034723e+001
 1.785758017161617e+000	 9.005933067305987e-001	 1.308137477051400e+001
 1.776568013657048e+000	 9.185891861080785e-001	 1.306521073462298e+001
 1.882821309653291e+000	 7.453917868712325e-001	 1.291298761830167e+001
 1.875319550272018e+000	 7.640690966028914e-001	 1.292577338630679e+001
 1.867616874425373e+000	 7.827082536768359e-001	 1.294227410723570e+001
 1.859713277054009e+000	 8.013061382252062e-001	 1.295561471659179e+001
 1.851608815524722e+000	 8.198596186393714e-001	 1.296551432022135e+001
 1.843303610208294e+000	 8.383655530813222e-001	 1.297205618864876e+001
 1.834797845014858e+000	 8.568207910204947e-001	 1.297532918464296e+001
 1.826091767885635e+000	 8.752221747946787e-001	 1.297542769955767e+001
 1.817185691239944e+000	 8.935665411936152e-001	 1.297245157763268e+001
 1.808079992376415e+000	 9.118507230638294e-001	 1.296650602819868e+001
 1.798775113827414e+000	 9.300715509331942e-001	 1.295770152576118e+001
 1.906066017179662e+000	 7.545941546088181e-001	 1.278745036082584e+001
 1.898471643485632e+000	 7.735020484116312e-001	 1.280354565005753e+001
 1.890673872875920e+000	 7.923713185361858e-001	 1.281459665533511e+001
 1.882672700228715e+000	 8.111988065977347e-001	 1.282073868526735e+001
 1.874468183619045e+000	 8.299813423258116e-001	 1.282301632854220e+001
 1.866060444903749e+000	 8.487157450942827e-001	 1.283466423756422e+001
 1.857449670263458e+000	 8.673988254771449e-001	 1.284346411621810e+001
 1.848636110700394e+000	 8.860273868287032e-001	 1.284951566071583e+001
 1.839620082490902e+000	 9.045982268867203e-001	 1.285292388637339e+001
 1.830401967591619e+000	 9.231081393970597e-001	 1.285379903149916e+001
 1.820982213998275e+000	 9.415539157583098e-001	 1.285225644905336e+001
 1.929310724706539e+000	 7.637965223464036e-001	 1.267827742826557e+001
 1.921623736699662e+000	 7.829350002203711e-001	 1.269761157984132e+001
 1.913730871326810e+000	 8.020343833955359e-001	 1.271208777462395e+001
 1.905632123403714e+000	 8.210914749702637e-001	 1.272184936690158e+001
 1.897327551713629e+000	 8.401030660122518e-001	 1.272705219262807e+001
 1.888817279599456e+000	 8.590659371072432e-001	 1.272786449005331e+001
 1.880101495512317e+000	 8.779768599337948e-001	 1.272446679531426e+001
 1.871180453515440e+000	 8.968325988627278e-001	 1.272548011968823e+001
 1.862054473742195e+000	 9.156299125798251e-001	 1.273519017532713e+001
 1.852723942807230e+000	 9.343655557302906e-001	 1.274279622653858e+001
 1.843189314169633e+000	 9.530362805834256e-001	 1.274841860539079e+001
 1.952555432233920e+000	 7.729988900839893e-001	 1.258502187922033e+001
 1.944775829914107e+000	 7.923679520291109e-001	 1.260752197871500e+001
 1.936787869778046e+000	 8.116974482548859e-001	 1.262533740186331e+001
 1.928591546579005e+000	 8.309841433427923e-001	 1.263861966916101e+001
 1.920186919808476e+000	 8.502247896986920e-001	 1.264753296995780e+001
 1.911574114295413e+000	 8.694161291202035e-001	 1.265225407384374e+001
 1.902753320761436e+000	 8.885548943904447e-001	 1.265297221634006e+001
 1.893724796330773e+000	 9.076378108967522e-001	 1.264988895870298e+001
 1.884488864993826e+000	 9.266615982729300e-001	 1.264321802171599e+001
 1.875045918023246e+000	 9.456229720635210e-001	 1.263318509341336e+001
 1.865396414341487e+000	 9.645186454085410e-001	 1.264575539579003e+001
 1.975800139761806e+000	 7.822012578215748e-001	 1.250725978347407e+001
 1.967927923128965e+000	 8.018009038378509e-001	 1.253285069666178e+001
 1.959844868229625e+000	 8.213605131142361e-001	 1.255391726753324e+001
 1.951550969754591e+000	 8.408768117153211e-001	 1.257061930680195e+001
 1.943046287903584e+000	 8.603465133851320e-001	 1.258312949621602e+001
 1.934330948991621e+000	 8.797663211331642e-001	 1.259163329066356e+001
 1.925405146010814e+000	 8.991329288470951e-001	 1.259632879389954e+001
 1.916269139146395e+000	 9.184430229307767e-001	 1.259742660771030e+001
 1.906923256245794e+000	 9.376932839660348e-001	 1.259514965439905e+001
 1.897367893239669e+000	 9.568803883967515e-001	 1.258973297254658e+001
 1.887603514513837e+000	 9.760010102336569e-001	 1.258142348607263e+001
 1.999044847290198e+000	 7.914036255591603e-001	 1.244458888413573e+001
 1.991080016344239e+000	 8.112338556465905e-001	 1.247319329065364e+001
 1.982901866681548e+000	 8.310235779735861e-001	 1.249742083250966e+001
 1.974510392930469e+000	 8.507694800878495e-001	 1.251743973805489e+001
 1.965905655998954e+000	 8.704682370715721e-001	 1.253343132389260e+001
 1.957087783688078e+000	 8.901165131461245e-001	 1.254558988766118e+001
 1.948056971260451e+000	 9.097109633037451e-001	 1.255412257373039e+001
 1.938813481962305e+000	 9.292482349648014e-001	 1.255924921163283e+001
 1.929357647498098e+000	 9.487249696591398e-001	 1.256120212712285e+001
 1.919689868456498e+000	 9.681378047299820e-001	 1.256022592582758e+001
 1.909810614686682e+000	 9.874833750587725e-001	 1.255657724952879e+001
 2.022289554819095e+000	 8.006059932967460e-001	 1.239662735204580e+001
 2.014232109559929e+000	 8.206668074553304e-001	 1.242816577712334e+001
 2.005958865133815e+000	 8.406866428329360e-001	 1.245546203919098e+001
 1.997469816106640e+000	 8.606621484603783e-001	 1.247869291499966e+001
 1.988765024094585e+000	 8.805899607580122e-001	 1.249804850185600e+001
 1.979844618384787e+000	 9.004667051590849e-001	 1.251373210103871e+001
 1.970708796510347e+000	 9.202889977603952e-001	 1.252596007339351e+001
 1.961357824778503e+000	 9.400534469988258e-001	 1.253496166693427e+001
 1.951792038750740e+000	 9.597566553522445e-001	 1.254097881635146e+001
 1.942011843673734e+000	 9.793952210632124e-001	 1.254426591440256e+001
 1.932017714860024e+000	 9.989657398838882e-001	 1.254508955523646e+001
 2.045534262348497e+000	 8.098083610343312e-001	 1.236301262510983e+001
 2.037384202776032e+000	 8.300997592640702e-001	 1.239740346949494e+001
 2.029015863586428e+000	 8.503497076922864e-001	 1.242767414777532e+001
 2.020429239283104e+000	 8.705548168329070e-001	 1.245401011914208e+001
 2.011624392190480e+000	 8.907116844444527e-001	 1.247661041078627e+001
 2.002601453081745e+000	 9.108168971720454e-001	 1.249568749190111e+001
 1.993360621760502e+000	 9.308670322170453e-001	 1.251146711910122e+001
 1.983902167594988e+000	 9.508586590328503e-001	 1.252418815309281e+001
 1.974226430003719e+000	 9.707883410453497e-001	 1.253410234650347e+001
 1.964333818891376e+000	 9.906526373964433e-001	 1.254147410285725e+001
 1.954224815033862e+000	 1.010448104709004e+000	 1.254658020675949e+001
 2.068778969878404e+000	 8.190107287719171e-001	 1.234340032587898e+001
 2.060536295992551e+000	 8.395327110728100e-001	 1.238055989408326e+001
 2.052072862039383e+000	 8.600127725516362e-001	 1.241370865099077e+001
 2.043388662459861e+000	 8.804474852054356e-001	 1.244304087549116e+001
 2.034483760286635e+000	 9.008334081308929e-001	 1.246876467711829e+001
 2.025358287778955e+000	 9.211670891850060e-001	 1.249110186058749e+001
 2.016012447010917e+000	 9.414450666736953e-001	 1.251028776096160e+001
 2.006446510411761e+000	 9.616638710668748e-001	 1.252657104928557e+001
 1.996660821257035e+000	 9.818200267384545e-001	 1.254021350860602e+001
 1.986655794109424e+000	 1.001910053729674e+000	 1.255148978037199e+001
 1.976431915208197e+000	 1.021930469534119e+000	 1.256068708129398e+001
 2.092023677408817e+000	 8.282130965095027e-001	 1.233746325129200e+001
 2.083688389209485e+000	 8.489656628815500e-001	 1.237730577826655e+001
 2.075129860492684e+000	 8.696758374109868e-001	 1.241323426117716e+001
 2.066348085636912e+000	 8.903401535779647e-001	 1.244545193903121e+001
 2.057343128383053e+000	 9.109551318173331e-001	 1.247417615938869e+001
 2.048115122476415e+000	 9.315172811979668e-001	 1.249963823338037e+001
 2.038664272261591e+000	 9.520231011303459e-001	 1.252208326053981e+001
 2.028990853228824e+000	 9.724690831008999e-001	 1.254176992329428e+001
 2.019095212510688e+000	 9.928517124315597e-001	 1.255897025103884e+001
 2.008977769327879e+000	 1.013167470062905e+000	 1.257396935379980e+001
 1.998639015383027e+000	 1.033412834359236e+000	 1.258706512557754e+001
 1.776568013657048e+000	 9.185891861080785e-001	 1.306521073462298e+001
 1.767181791275910e+000	 9.365193626221506e-001	 1.309424234415698e+001
 1.757599916804693e+000	 9.543807062332064e-001	 1.310787476172061e+001
 1.747823022222099e+000	 9.721700895268440e-001	 1.310582248023739e+001
 1.737851804855421e+000	 9.898843893801794e-001	 1.308781299819467e+001
 1.727687027486658e+000	 1.007520488639880e+000	 1.305358716354288e+001
 1.717329518407681e+000	 1.025075277809822e+000	 1.300289950013925e+001
 1.706780171423916e+000	 1.042545656746592e+000	 1.293551851605460e+001
 1.696039945806038e+000	 1.059928536361033e+000	 1.285122699309966e+001
 1.685109866189261e+000	 1.077220840323977e+000	 1.274982225696672e+001
 1.673991022419878e+000	 1.094419506774317e+000	 1.263111642742386e+001
 1.798775113827414e+000	 9.300715509331942e-001	 1.295770152576118e+001
 1.789271563665848e+000	 9.482258546533824e-001	 1.298161608728104e+001
 1.779569915763154e+000	 9.663104650593967e-001	 1.299201211687954e+001
 1.769670809997764e+000	 9.843222156441562e-001	 1.298864952085328e+001
 1.759574952413566e+000	 1.002257944245742e+000	 1.297130007693700e+001
 1.749283115327332e+000	 1.020114494746404e+000	 1.293974771925012e+001
 1.738796137384582e+000	 1.037888718781317e+000	 1.289378880653460e+001
 1.728114923563312e+000	 1.055577477455278e+000	 1.283323237311029e+001
 1.717240445125080e+000	 1.073177643065514e+000	 1.275790036201146e+001
 1.706173739513039e+000	 1.090686100828743e+000	 1.266762783980684e+001
 1.694915910196563e+000	 1.108099750610596e+000	 1.256226319264722e+001
 1.820982213998275e+000	 9.415539157583098e-001	 1.285225644905336e+001
 1.811361336056378e+000	 9.599323466846091e-001	 1.287244458929235e+001
 1.801539914722290e+000	 9.782402238855672e-001	 1.288095505902377e+001
 1.791518597774181e+000	 9.964743417614238e-001	 1.287759247364680e+001
 1.781298099972528e+000	 1.014631499111225e+000	 1.286217220986471e+001
 1.770879203168879e+000	 1.032708500852804e+000	 1.283452063241028e+001
 1.760262756362403e+000	 1.050702159752635e+000	 1.279447530478320e+001
 1.749449675703662e+000	 1.068609298163722e+000	 1.274188518353121e+001
 1.738440944445101e+000	 1.086426749769678e+000	 1.267661079564441e+001
 1.727237612837812e+000	 1.104151361333108e+000	 1.259852439867126e+001
 1.715840797974247e+000	 1.121779994446377e+000	 1.250751012320482e+001
 1.843189314169633e+000	 9.530362805834256e-001	 1.274841860539079e+001
 1.833451108447498e+000	 9.716388387158305e-001	 1.276621773150655e+001
 1.823509913682104e+000	 9.901699827117181e-001	 1.277414161177226e+001
 1.813366385551350e+000	 1.008626467878647e+000	 1.277203889803251e+001
 1.803021247532308e+000	 1.027005053976628e+000	 1.275976791667362e+001
 1.792475291011298e+000	 1.045302506959080e+000	 1.273719683782693e+001
 1.781729375341142e+000	 1.063515600723774e+000	 1.270420382927773e+001
 1.770784427844967e+000	 1.081641118871923e+000	 1.266067719471710e+001
 1.759641443766102e+000	 1.099675856473525e+000	 1.260651549600977e+001
 1.748301486163579e+000	 1.117616621837070e+000	 1.254162765919197e+001
 1.736765685752931e+000	 1.135460238281661e+000	 1.246593306395095e+001
 1.865396414341487e+000	 9.645186454085410e-001	 1.264575539579003e+001
 1.855540880839211e+000	 9.833453307470476e-001	 1.266245218876439e+001
 1.845479912642594e+000	 1.002099741537849e+000	 1.267103901735398e+001
 1.835214173329271e+000	 1.020778593995827e+000	 1.267140792736605e+001
 1.824744395092904e+000	 1.039378608841954e+000	 1.266345957517369e+001
 1.814071378854591e+000	 1.057896513065233e+000	 1.264710334006351e+001
 1.803195994320799e+000	 1.076329041694735e+000	 1.262225742195747e+001
 1.792119179987226e+000	 1.094672939579880e+000	 1.258884892424856e+001
 1.780841943088082e+000	 1.112924963177053e+000	 1.254681392152809e+001
 1.769365359490343e+000	 1.131081882340629e+000	 1.249609751202068e+001
 1.757690573532616e+000	 1.149140482116448e+000	 1.243665385458300e+001
 1.887603514513837e+000	 9.760010102336569e-001	 1.258142348607263e+001
 1.877630653231514e+000	 9.950518227782595e-001	 1.256865005585999e+001
 1.867449911603760e+000	 1.014029500363961e+000	 1.257114201786605e+001
 1.857061961107944e+000	 1.032930720112961e+000	 1.257514841165353e+001
 1.846467542654319e+000	 1.051752163707200e+000	 1.257265142963509e+001
 1.835667466698758e+000	 1.070490519171262e+000	 1.256360109169278e+001
 1.824662613301375e+000	 1.089142482665518e+000	 1.254795508480550e+001
 1.813453932130439e+000	 1.107704760287595e+000	 1.252567879105292e+001
 1.802042442411042e+000	 1.126174069880264e+000	 1.249674530135799e+001
 1.790429232818100e+000	 1.144547142843786e+000	 1.246113541488664e+001
 1.778615461313300e+000	 1.162820725950737e+000	 1.241883762406240e+001
 1.909810614686682e+000	 9.874833750587725e-001	 1.255657724952879e+001
 1.899720425624409e+000	 1.006758314809467e+000	 1.254272690707815e+001
 1.889419910565603e+000	 1.025959259190052e+000	 1.252250437669937e+001
 1.878909748887369e+000	 1.045082846230051e+000	 1.249602898436629e+001
 1.868190690216551e+000	 1.064125718572367e+000	 1.248677773808716e+001
 1.857263554543797e+000	 1.083084525277167e+000	 1.248608301957527e+001
 1.846129232282870e+000	 1.101955923636123e+000	 1.248064968914854e+001
 1.834788684274607e+000	 1.120736580995067e+000	 1.247048091183745e+001
 1.823242941734981e+000	 1.139423176583158e+000	 1.245558632314405e+001
 1.811493106146852e+000	 1.158012403346541e+000	 1.243598197590590e+001
 1.799540349094984e+000	 1.176500969784529e+000	 1.241169027379700e+001
 1.932017714860024e+000	 9.989657398838882e-001	 1.254508955523646e+001
 1.921810198017894e+000	 1.018464806840669e+000	 1.253121223466589e+001
 1.911389909528122e+000	 1.037889018016124e+000	 1.251243571720841e+001
 1.900757536667546e+000	 1.057234972347097e+000	 1.248892630144756e+001
 1.889913837779600e+000	 1.076499273437455e+000	 1.246086297212513e+001
 1.878859642389709e+000	 1.095678531382949e+000	 1.242843716621668e+001
 1.867595851265284e+000	 1.114769364606549e+000	 1.241972602914284e+001
 1.856123436419728e+000	 1.133768401702296e+000	 1.242260304949286e+001
 1.844443441059901e+000	 1.152672283285734e+000	 1.242264898023008e+001
 1.832556979476600e+000	 1.171477663848893e+000	 1.241991470355909e+001
 1.820465236877668e+000	 1.190181213617824e+000	 1.241445613439684e+001
 1.954224815033862e+000	 1.010448104709004e+000	 1.254658020675949e+001
 1.943899970411971e+000	 1.030171298871866e+000	 1.253368198732857e+001
 1.933359908491318e+000	 1.049818776842177e+000	 1.251732049796431e+001
 1.922605324448474e+000	 1.069387098464099e+000	 1.249770862059783e+001
 1.911636985343467e+000	 1.088872828302464e+000	 1.247507120006294e+001
 1.900455730236494e+000	 1.108272537488608e+000	 1.244964474870458e+001
 1.889062470248616e+000	 1.127582805576797e+000	 1.242167712412413e+001
 1.877458188565804e+000	 1.146800222409282e+000	 1.239142718050516e+001
 1.865643940385800e+000	 1.165921389987992e+000	 1.239727856565363e+001
 1.853620852807342e+000	 1.184942924350843e+000	 1.241224591007980e+001
 1.841390124661353e+000	 1.203861457450621e+000	 1.242641578219685e+001
 1.976431915208197e+000	 1.021930469534119e+000	 1.256068708129398e+001
 1.965989742806639e+000	 1.041877790903058e+000	 1.254973204191237e+001
 1.955329907455190e+000	 1.061748535668210e+000	 1.253671358140642e+001
 1.944453112230156e+000	 1.081539224581056e+000	 1.252189080199911e+001
 1.933360132908153e+000	 1.101246383167394e+000	 1.250553407104700e+001
 1.922051818084153e+000	 1.120866543594142e+000	 1.248792466451942e+001
 1.910529089232867e+000	 1.140396246546867e+000	 1.246935438366674e+001
 1.898792940712833e+000	 1.159832043116026e+000	 1.245012514543078e+001
 1.886844439712678e+000	 1.179170496689932e+000	 1.243054854723229e+001
 1.874684726139079e+000	 1.198408184852390e+000	 1.241232075618753e+001
 1.862315012446037e+000	 1.217541701282921e+000	 1.244688400298006e+001
 1.998639015383027e+000	 1.033412834359236e+000	 1.258706512557754e+001
 1.988079515201900e+000	 1.053584282934246e+000	 1.257897709628535e+001
 1.977299906419740e+000	 1.073678294494223e+000	 1.257019035448865e+001
 1.966300900012589e+000	 1.093691350697970e+000	 1.256100988484244e+001
 1.955083280473654e+000	 1.113619938032245e+000	 1.255175126447613e+001
 1.943647905932685e+000	 1.133460549699554e+000	 1.254274024565460e+001
 1.931995708218038e+000	 1.153209687516760e+000	 1.253431231164553e+001
 1.920127692860818e+000	 1.172863863822527e+000	 1.252681220645605e+001
 1.908044939040537e+000	 1.192419603391556e+000	 1.252059343918447e+001
 1.895748599471812e+000	 1.211873445353536e+000	 1.251601776381558e+001
 1.883239900231722e+000	 1.231221945114724e+000	 1.251345463536735e+001
 1.673991022419878e+000	 1.094419506774317e+000	 1.263111642742386e+001
 1.662684569349107e+000	 1.111521490027895e+000	 1.259256292374998e+001
 1.651191726573076e+000	 1.128523762284198e+000	 1.256242811490201e+001
 1.639513778119492e+000	 1.145423315329686e+000	 1.254118605562191e+001
 1.627652072081568e+000	 1.162217162236540e+000	 1.252930383554380e+001
 1.615608020198319e+000	 1.178902339053813e+000	 1.252724093497256e+001
 1.603383097381650e+000	 1.195475906489392e+000	 1.253544858412649e+001
 1.590978841190437e+000	 1.211934951580842e+000	 1.255436912709731e+001
 1.578396851251905e+000	 1.228276589353181e+000	 1.258443539178860e+001
 1.565638788630636e+000	 1.244497964461666e+000	 1.262607006709577e+001
 1.552706375145675e+000	 1.260596252817663e+000	 1.248637704165991e+001
 1.694915910196563e+000	 1.108099750610596e+000	 1.256226319264722e+001
 1.683468126462488e+000	 1.125415508655709e+000	 1.255961708973763e+001
 1.671831623151878e+000	 1.142630309315913e+000	 1.256462709367886e+001
 1.660007700342781e+000	 1.159741106774995e+000	 1.257773302929174e+001
 1.647997722979581e+000	 1.176744876768540e+000	 1.259936846789319e+001
 1.635803120448028e+000	 1.193638618296214e+000	 1.262996011693047e+001
 1.623425386096425e+000	 1.210419355324751e+000	 1.266992721217127e+001
 1.610866076703136e+000	 1.227084138479685e+000	 1.271968091364790e+001
 1.598126811890726e+000	 1.243630046723848e+000	 1.277962370656258e+001
 1.585209273487082e+000	 1.260054189020686e+000	 1.266540902375165e+001
 1.572115204833990e+000	 1.276353705980456e+000	 1.244699355988833e+001
 1.715840797974247e+000	 1.121779994446377e+000	 1.250751012320482e+001
 1.704251683576865e+000	 1.139309527282935e+000	 1.253932571969836e+001
 1.692471519731658e+000	 1.156736856346968e+000	 1.257806096397327e+001
 1.680501622567027e+000	 1.174058898219595e+000	 1.262412234070748e+001
 1.668343373878515e+000	 1.191272591299802e+000	 1.267791078188438e+001
 1.655998220698613e+000	 1.208374897537865e+000	 1.273982108933225e+001
 1.643467674812023e+000	 1.225362804159370e+000	 1.281024135891572e+001
 1.630753312216592e+000	 1.242233325377818e+000	 1.288955240752439e+001
 1.617856772530227e+000	 1.258983504093854e+000	 1.281237403388556e+001
 1.604779758344124e+000	 1.275610413579114e+000	 1.260291564491463e+001
 1.591524034522806e+000	 1.292111159142748e+000	 1.240490024445180e+001
 1.736765685752931e+000	 1.135460238281661e+000	 1.246593306395095e+001
 1.725035240692236e+000	 1.153203545909574e+000	 1.253081349575764e+001
 1.713111416312420e+000	 1.170843403377367e+000	 1.260190229591458e+001
 1.700995544792228e+000	 1.188376689663488e+000	 1.267957347483286e+001
 1.688689024778370e+000	 1.205800305830324e+000	 1.276419618078865e+001
 1.676193320950074e+000	 1.223111176778767e+000	 1.285613415443941e+001
 1.663509963528440e+000	 1.240306252993248e+000	 1.295574518409275e+001
 1.650640547730804e+000	 1.257382512275240e+000	 1.292701070358298e+001
 1.637586733170410e+000	 1.274336961463198e+000	 1.272854275054231e+001
 1.624350243201763e+000	 1.291166638136951e+000	 1.253954539521061e+001
 1.610932864212123e+000	 1.307868612304539e+000	 1.236073781502985e+001
 1.757690573532616e+000	 1.149140482116448e+000	 1.243665385458300e+001
 1.745818797808603e+000	 1.167097564535626e+000	 1.253324869733275e+001
 1.733751312894162e+000	 1.184949950407107e+000	 1.263536490197533e+001
 1.721489467018384e+000	 1.202694481106671e+000	 1.274334484787538e+001
 1.709034675679145e+000	 1.220328020360107e+000	 1.285752673309484e+001
 1.696388421202410e+000	 1.237847456018919e+000	 1.297824405997875e+001
 1.683552252245679e+000	 1.255249701826387e+000	 1.300903287425956e+001
 1.670527783245771e+000	 1.272531699171952e+000	 1.282355389897796e+001
 1.657316693811275e+000	 1.289690418831882e+000	 1.264562082187314e+001
 1.643920728059999e+000	 1.306722862694197e+000	 1.247592516467417e+001
 1.630341693901942e+000	 1.323626065465828e+000	 1.231517107233137e+001
 1.778615461313300e+000	 1.162820725950737e+000	 1.241883762406240e+001
 1.766602354925964e+000	 1.180991583161090e+000	 1.254584063658625e+001
 1.754391209476884e+000	 1.199056497436190e+000	 1.267770141095108e+001
 1.741983389245496e+000	 1.217012272549147e+000	 1.281473151721316e+001
 1.729380326580841e+000	 1.234855734889152e+000	 1.295723901573197e+001
 1.716583521455622e+000	 1.252583735258322e+000	 1.305812267448363e+001
 1.703594540963738e+000	 1.270193150658785e+000	 1.288759770796338e+001
 1.690415018761496e+000	 1.287680886067953e+000	 1.272274417354099e+001
 1.677046654452820e+000	 1.305043876199905e+000	 1.256422193771648e+001
 1.663491212918830e+000	 1.322279087250851e+000	 1.241270636316394e+001
 1.649750523592262e+000	 1.339383518626616e+000	 1.226888748156346e+001
 1.799540349094984e+000	 1.176500969784529e+000	 1.241169027379700e+001
 1.787385912044321e+000	 1.194885601785967e+000	 1.256783727280113e+001
 1.775031106060586e+000	 1.213163044464614e+000	 1.272820101119737e+001
 1.762477311473562e+000	 1.231330063990914e+000	 1.289306305109419e+001
 1.749725977483457e+000	 1.249383449417458e+000	 1.306270210776451e+001
 1.736778621709710e+000	 1.267320014496975e+000	 1.292028577354082e+001
 1.723636829682618e+000	 1.285136599490444e+000	 1.277049711604768e+001
 1.710302254277976e+000	 1.302830072963244e+000	 1.262518257528589e+001
 1.696776615095046e+000	 1.320397333567267e+000	 1.248498467561221e+001
 1.683061697778258e+000	 1.337835311806915e+000	 1.235056349479135e+001
 1.669159353283084e+000	 1.355140971786903e+000	 1.222259585472818e+001
 1.820465236877668e+000	 1.190181213617824e+000	 1.241445613439684e+001
 1.808169469163672e+000	 1.208779620410255e+000	 1.259852299128202e+001
 1.795671002645267e+000	 1.227269591492381e+000	 1.278618734950562e+001
 1.782971233702585e+000	 1.245647855431973e+000	 1.297770154525316e+001
 1.770071628386994e+000	 1.263911163945024e+000	 1.292118677701292e+001
 1.756973721964674e+000	 1.282056293734879e+000	 1.278841902133229e+001
 1.743679118402320e+000	 1.300080048321362e+000	 1.265831999565587e+001
 1.730189489795212e+000	 1.317979259857823e+000	 1.253149534243475e+001
 1.716506575737955e+000	 1.335750790933968e+000	 1.240857107047407e+001
 1.702632182638282e+000	 1.353391536362387e+000	 1.229019283066483e+001
 1.688568182974407e+000	 1.370898424946689e+000	 1.217702512379523e+001
 1.841390124661353e+000	 1.203861457450621e+000	 1.242641578219685e+001
 1.828953026284019e+000	 1.222673639033957e+000	 1.263721653369478e+001
 1.816310899230930e+000	 1.241376138519491e+000	 1.285101657323744e+001
 1.803465155932562e+000	 1.259965646872323e+000	 1.288982130668127e+001
 1.790417279291451e+000	 1.278438878471852e+000	 1.277600138058350e+001
 1.777168822220513e+000	 1.296792572972033e+000	 1.266309959126776e+001
 1.763721407122842e+000	 1.315023497151540e+000	 1.255168067643863e+001
 1.750076725313204e+000	 1.333128446751693e+000	 1.244233247215619e+001
 1.736236536381544e+000	 1.351104248300008e+000	 1.233566528178433e+001
 1.722202667498902e+000	 1.368947760917267e+000	 1.223231117212868e+001
 1.707977012666231e+000	 1.386655878105973e+000	 1.213292319752198e+001
 1.862315012446037e+000	 1.217541701282921e+000	 1.244688400298006e+001
 1.849736583405360e+000	 1.236567657657071e+000	 1.268326906793383e+001
 1.836950795817573e+000	 1.255482685545942e+000	 1.282565738461291e+001
 1.823959078163495e+000	 1.274283438311966e+000	 1.273268293215280e+001
 1.810762930196829e+000	 1.292966592997942e+000	 1.263893394945102e+001
 1.797363922477228e+000	 1.311528852208438e+000	 1.254493027615892e+001
 1.783763695844185e+000	 1.329966945980979e+000	 1.245121749176144e+001
 1.769963960831952e+000	 1.348277633644851e+000	 1.235836638579310e+001
 1.755966497025814e+000	 1.366457705665387e+000	 1.226697235064053e+001
 1.741773152360120e+000	 1.384503985471557e+000	 1.217765469737891e+001
 1.727385842358557e+000	 1.402413331264755e+000	 1.209105589534185e+001
 1.883239900231722e+000	 1.231221945114724e+000	 1.251345463536735e+001
 1.870520140527698e+000	 1.250461676279598e+000	 1.272810668816339e+001
 1.857590692405196e+000	 1.269589232571736e+000	 1.265784549476513e+001
 1.844453000395384e+000	 1.288601229750900e+000	 1.258517828818742e+001
 1.831108581103128e+000	 1.307494307523292e+000	 1.251057605549794e+001
 1.817559022734820e+000	 1.326265131444094e+000	 1.243453806491912e+001
 1.803805984566350e+000	 1.344910394809677e+000	 1.235759144516485e+001
 1.789851196351457e+000	 1.363426820537300e+000	 1.228029068307511e+001
 1.775696457670766e+000	 1.381811163030105e+000	 1.220321703966570e+001
 1.761343637221934e+000	 1.400060210025256e+000	 1.212697788497167e+001
 1.746794672051384e+000	 1.418170784423037e+000	 1.205220595232678e+001
 1.552706375145675e+000	 1.260596252817663e+000	 1.248637704165991e+001
 1.539601392635642e+000	 1.276568663195416e+000	 1.236066511782625e+001
 1.526325682174240e+000	 1.292412438818711e+000	 1.224298032491753e+001
 1.512881143235718e+000	 1.308124858924892e+000	 1.213410120973239e+001
 1.499269732809776e+000	 1.323703240303929e+000	 1.203481288692684e+001
 1.485493464468560e+000	 1.339144938811549e+000	 1.194590592800656e+001
 1.471554407386076e+000	 1.354447350854373e+000	 1.186817521221723e+001
 1.457454685310996e+000	 1.369607914845309e+000	 1.180241874160777e+001
 1.443196475493935e+000	 1.384624112627510e+000	 1.174943642268454e+001
 1.428782007570310e+000	 1.399493470865233e+000	 1.171002881721114e+001
 1.414213562400000e+000	 1.414213562400000e+000	 1.168499586483826e+001
 1.572115204833990e+000	 1.276353705980456e+000	 1.244699355988833e+001
 1.558846410042997e+000	 1.292525771487219e+000	 1.234190394530084e+001
 1.545404753201172e+000	 1.308567594305193e+000	 1.224325312220891e+001
 1.531792157526195e+000	 1.324476419662191e+000	 1.215178864495081e+001
 1.518010604470134e+000	 1.340249530808056e+000	 1.206826691595303e+001
 1.504062132774790e+000	 1.355884250546713e+000	 1.199345209925157e+001
 1.489948837478841e+000	 1.371377942739865e+000	 1.192811499176190e+001
 1.475672868877818e+000	 1.386728013780582e+000	 1.187303185454329e+001
 1.461236431437968e+000	 1.401931914035057e+000	 1.182898320645750e+001
 1.446641782665153e+000	 1.416987139250849e+000	 1.179675258277024e+001
 1.431891231930000e+000	 1.431891231930000e+000	 1.177712526138318e+001
 1.591524034522806e+000	 1.292111159142748e+000	 1.240490024445180e+001
 1.578091427450757e+000	 1.308482879778616e+000	 1.231848765550778e+001
 1.564483824228426e+000	 1.324722749791354e+000	 1.223694259135358e+001
 1.550703171816918e+000	 1.340827980399244e+000	 1.216098300559596e+001
 1.536751476130674e+000	 1.356795821312002e+000	 1.209133799608279e+001
 1.522630801081145e+000	 1.372623562281752e+000	 1.202874674139401e+001
 1.508343267571685e+000	 1.388308534625277e+000	 1.197395739087754e+001
 1.493891052444684e+000	 1.403848112715810e+000	 1.192772591044963e+001
 1.479276387382022e+000	 1.419239715442583e+000	 1.189081488654429e+001
 1.464501557760002e+000	 1.434480807636460e+000	 1.186399229075720e+001
 1.449568901460000e+000	 1.449568901460000e+000	 1.184803020787950e+001
 1.610932864212123e+000	 1.307868612304539e+000	 1.236073781502985e+001
 1.597336444858925e+000	 1.324439988069607e+000	 1.229112118672784e+001
 1.583562895256002e+000	 1.340877905277195e+000	 1.222481585282570e+001
 1.569614186107887e+000	 1.357179541136051e+000	 1.216251153065742e+001
 1.555492347791394e+000	 1.373342111815768e+000	 1.210491139545318e+001
 1.541199469387626e+000	 1.389362874016665e+000	 1.205273103826344e+001
 1.526737697664610e+000	 1.405239126510609e+000	 1.200669737316749e+001
 1.512109236011597e+000	 1.420968211650994e+000	 1.196754749596190e+001
 1.497316343326096e+000	 1.436547516850090e+000	 1.193602749670308e+001
 1.482361332854856e+000	 1.451974476022066e+000	 1.191289122864775e+001
 1.467246570990000e+000	 1.467246570990000e+000	 1.189889903629800e+001
 1.630341693901942e+000	 1.323626065465828e+000	 1.231517107233137e+001
 1.616581462267498e+000	 1.340397096360191e+000	 1.226053039612453e+001
 1.602641966283898e+000	 1.357033060762714e+000	 1.220765784907731e+001
 1.588525200399102e+000	 1.373531101872612e+000	 1.215721625101883e+001
 1.574233219452296e+000	 1.389888402319353e+000	 1.210988421237247e+001
 1.559768137694232e+000	 1.406102185751452e+000	 1.206635511199749e+001
 1.545132127757616e+000	 1.422169718395861e+000	 1.202733601999486e+001
 1.530327419578553e+000	 1.438088310586131e+000	 1.199354656765399e+001
 1.515356299270190e+000	 1.453855318257577e+000	 1.196571776690353e+001
 1.500221107949715e+000	 1.469468144407667e+000	 1.194459078181472e+001
 1.484924240520000e+000	 1.484924240520000e+000	 1.193091565487761e+001
 1.649750523592262e+000	 1.339383518626616e+000	 1.226888748156346e+001
 1.635826479676479e+000	 1.356354204650368e+000	 1.222746082922173e+001
 1.621721037312115e+000	 1.373188216247912e+000	 1.218627029618680e+001
 1.607436214690563e+000	 1.389882662608927e+000	 1.214595311934664e+001
 1.592974091113377e+000	 1.406434692822757e+000	 1.210716467942798e+001
 1.578336806000964e+000	 1.422841497486114e+000	 1.207057749725869e+001
 1.563526557850702e+000	 1.439100310281031e+000	 1.203688017061445e+001
 1.548545603145556e+000	 1.455208409521224e+000	 1.200677625380693e+001
 1.533396255214304e+000	 1.471163119665044e+000	 1.198098308237291e+001
 1.518080883044578e+000	 1.486961812793264e+000	 1.196023054541654e+001
 1.502601910049999e+000	 1.502601910049999e+000	 1.194525980834494e+001
 1.669159353283084e+000	 1.355140971786903e+000	 1.222259585472818e+001
 1.655071497085865e+000	 1.372311312940140e+000	 1.219267657523163e+001
 1.640800108340654e+000	 1.389343371732789e+000	 1.216147070864792e+001
 1.626347228982270e+000	 1.406234223344997e+000	 1.212959120068404e+001
 1.611714962774640e+000	 1.422980983325981e+000	 1.209767151614397e+001
 1.596905474307821e+000	 1.439580809220650e+000	 1.206636465213462e+001
 1.581920987943868e+000	 1.456030902166122e+000	 1.203634208741145e+001
 1.566763786712603e+000	 1.472328508456272e+000	 1.200829267000738e+001
 1.551436211158439e+000	 1.488470921072490e+000	 1.198292144549988e+001
 1.535940658139447e+000	 1.504455481178854e+000	 1.196094842847945e+001
 1.520279579580000e+000	 1.520279579580000e+000	 1.194310731997900e+001
 1.688568182974407e+000	 1.370898424946689e+000	 1.217702512379523e+001
 1.674316514495657e+000	 1.388268421229506e+000	 1.215695920132534e+001
 1.659879179369514e+000	 1.405498527217344e+000	 1.213409149141511e+001
 1.645258243274223e+000	 1.422585784080819e+000	 1.210901191886617e+001
 1.630455834436083e+000	 1.439527273829023e+000	 1.208233332628444e+001
 1.615474142614804e+000	 1.456320120955061e+000	 1.205469050276826e+001
 1.600315418037115e+000	 1.472961494051132e+000	 1.202673914422748e+001
 1.584981970279696e+000	 1.489448607391274e+000	 1.199915474746328e+001
 1.569476167102593e+000	 1.505778722479917e+000	 1.197263144036556e+001
 1.553800433234321e+000	 1.521949149564441e+000	 1.194788075080162e+001
 1.537957249110000e+000	 1.537957249110000e+000	 1.192563031698169e+001
 1.707977012666231e+000	 1.386655878105973e+000	 1.213292319752198e+001
 1.693561531905856e+000	 1.404225529518465e+000	 1.212110675956735e+001
 1.678958250398695e+000	 1.421653682701579e+000	 1.210497909385441e+001
 1.664169257566422e+000	 1.438937344816397e+000	 1.208510835431597e+001
 1.649196706097708e+000	 1.456073564331885e+000	 1.206208803624826e+001
 1.634042810921913e+000	 1.473059432689346e+000	 1.203653601903696e+001
 1.618709848130441e+000	 1.489892085936061e+000	 1.200909353593673e+001
 1.603200153846835e+000	 1.506568706326231e+000	 1.198042407302548e+001
 1.587516123046768e+000	 1.523086523887323e+000	 1.195121219969251e+001
 1.571660208329200e+000	 1.539442817950021e+000	 1.192216233325024e+001
 1.555634918639999e+000	 1.555634918639999e+000	 1.189399744048223e+001
 1.727385842358557e+000	 1.402413331264755e+000	 1.209105589534185e+001
 1.712806549316460e+000	 1.420182637807017e+000	 1.208593286079772e+001
 1.698037321428197e+000	 1.437808838185492e+000	 1.207499322073179e+001
 1.683080271858867e+000	 1.455288905551728e+000	 1.205878458917978e+001
 1.667937577759513e+000	 1.472619854834566e+000	 1.203788237132599e+001
 1.652611479229147e+000	 1.489798744423506e+000	 1.201288881883687e+001
 1.637104278223849e+000	 1.506822677820911e+000	 1.198443200760156e+001
 1.621418337414018e+000	 1.523688805261142e+000	 1.195316473999422e+001
 1.605556078990962e+000	 1.540394325294709e+000	 1.191976337402249e+001
 1.589519983424084e+000	 1.556936486335597e+000	 1.188492658197104e+001
 1.573312588170000e+000	 1.573312588170000e+000	 1.184937404138393e+001
 1.746794672051384e+000	 1.418170784423037e+000	 1.205220595232678e+001
 1.732051566727472e+000	 1.436139746095164e+000	 1.205226581025581e+001
 1.717116392458021e+000	 1.453963993669085e+000	 1.204500609580183e+001
 1.701991286151559e+000	 1.471640466286814e+000	 1.203095509612041e+001
 1.686678449421500e+000	 1.489166145337067e+000	 1.201067136687234e+001
 1.671180147536507e+000	 1.506538056157540e+000	 1.198474279874858e+001
 1.655498708317338e+000	 1.523753269705680e+000	 1.195378560168427e+001
 1.639636520981248e+000	 1.540808904196010e+000	 1.191844320887201e+001
 1.623596034935177e+000	 1.557702126702076e+000	 1.187938510294851e+001
 1.607379758518974e+000	 1.574430154721169e+000	 1.183730556698414e+001
 1.590990257700000e+000	 1.590990257700000e+000	 1.179292236315451e+001
 1.414213562400000e+000	 1.414213562400000e+000	 1.168499586483826e+001
 1.399493470865234e+000	 1.428782007570309e+000	 1.162408476285668e+001
 1.384624112627510e+000	 1.443196475493934e+000	 1.155606596800025e+001
 1.369607914845310e+000	 1.457454685310996e+000	 1.148123724577788e+001
 1.354447350854374e+000	 1.471554407386076e+000	 1.139991350760612e+001
 1.339144938811550e+000	 1.485493464468560e+000	 1.131242592738298e+001
 1.323703240303929e+000	 1.499269732809775e+000	 1.121912101603919e+001
 1.308124858924892e+000	 1.512881143235717e+000	 1.112035965667067e+001
 1.292412438818711e+000	 1.526325682174239e+000	 1.101651610297478e+001
 1.276568663195417e+000	 1.539601392635642e+000	 1.090797694382417e+001
 1.260596252817662e+000	 1.552706375145675e+000	 1.079514003691262e+001
 1.431891231930000e+000	 1.431891231930000e+000	 1.177712526138318e+001
 1.416987139250849e+000	 1.446641782665152e+000	 1.170243454228197e+001
 1.401931914035057e+000	 1.461236431437968e+000	 1.162219065011471e+001
 1.386728013780583e+000	 1.475672868877817e+000	 1.153676066507945e+001
 1.371377942739866e+000	 1.489948837478840e+000	 1.144652800547291e+001
 1.355884250546714e+000	 1.504062132774790e+000	 1.135189145192259e+001
 1.340249530808056e+000	 1.518010604470134e+000	 1.125326412999536e+001
 1.324476419662191e+000	 1.531792157526194e+000	 1.115107245397609e+001
 1.308567594305194e+000	 1.545404753201172e+000	 1.104575503473119e+001
 1.292525771487220e+000	 1.558846410042996e+000	 1.093776155468222e+001
 1.276353705980456e+000	 1.572115204833990e+000	 1.082755161301321e+001
 1.449568901460000e+000	 1.449568901460000e+000	 1.184803020787950e+001
 1.434480807636461e+000	 1.464501557760002e+000	 1.176101435770434e+001
 1.419239715442584e+000	 1.479276387382022e+000	 1.166995012995862e+001
 1.403848112715812e+000	 1.493891052444684e+000	 1.157527392649601e+001
 1.388308534625278e+000	 1.508343267571685e+000	 1.147743773163687e+001
 1.372623562281752e+000	 1.522630801081144e+000	 1.137690804332554e+001
 1.356795821312003e+000	 1.536751476130674e+000	 1.127416476297561e+001
 1.340827980399244e+000	 1.550703171816918e+000	 1.116970004699030e+001
 1.324722749791355e+000	 1.564483824228426e+000	 1.106401712306795e+001
 1.308482879778617e+000	 1.578091427450757e+000	 1.095762907451131e+001
 1.292111159142748e+000	 1.591524034522806e+000	 1.085105759585740e+001
 1.467246570990000e+000	 1.467246570990000e+000	 1.189889903629800e+001
 1.451974476022067e+000	 1.482361332854855e+000	 1.180094097026953e+001
 1.436547516850091e+000	 1.497316343326095e+000	 1.170039029820310e+001
 1.420968211650994e+000	 1.512109236011596e+000	 1.159775279289698e+001
 1.405239126510610e+000	 1.526737697664610e+000	 1.149354910591247e+001
 1.389362874016665e+000	 1.541199469387625e+000	 1.138831360487718e+001
 1.373342111815769e+000	 1.555492347791394e+000	 1.128259316970117e+001
 1.357179541136051e+000	 1.569614186107886e+000	 1.117694595089019e+001
 1.340877905277195e+000	 1.583562895256001e+000	 1.107194009326258e+001
 1.324439988069607e+000	 1.597336444858925e+000	 1.096815242848586e+001
 1.307868612304539e+000	 1.610932864212123e+000	 1.086616713994603e+001
 1.484924240520000e+000	 1.484924240520000e+000	 1.193091565487761e+001
 1.469468144407668e+000	 1.500221107949714e+000	 1.182332972090727e+001
 1.453855318257577e+000	 1.515356299270189e+000	 1.171455856808399e+001
 1.438088310586132e+000	 1.530327419578553e+000	 1.160517743035739e+001
 1.422169718395861e+000	 1.545132127757615e+000	 1.149577576845642e+001
 1.406102185751453e+000	 1.559768137694231e+000	 1.138695601251493e+001
 1.389888402319354e+000	 1.574233219452295e+000	 1.127933226374926e+001
 1.373531101872613e+000	 1.588525200399102e+000	 1.117352895857104e+001
 1.357033060762715e+000	 1.602641966283897e+000	 1.107017949864157e+001
 1.340397096360191e+000	 1.616581462267498e+000	 1.096992485048364e+001
 1.323626065465828e+000	 1.630341693901942e+000	 1.087341211836471e+001
 1.502601910049999e+000	 1.502601910049999e+000	 1.194525980834494e+001
 1.486961812793264e+000	 1.518080883044577e+000	 1.182929461387348e+001
 1.471163119665044e+000	 1.533396255214303e+000	 1.171350378583916e+001
 1.455208409521225e+000	 1.548545603145556e+000	 1.159853214914573e+001
 1.439100310281032e+000	 1.563526557850701e+000	 1.148503815504155e+001
 1.422841497486115e+000	 1.578336806000964e+000	 1.137369252820170e+001
 1.406434692822758e+000	 1.592974091113377e+000	 1.126517687291439e+001
 1.389882662608928e+000	 1.607436214690562e+000	 1.116018224195705e+001
 1.373188216247913e+000	 1.621721037312115e+000	 1.105940767187127e+001
 1.356354204650370e+000	 1.635826479676478e+000	 1.096355868845620e+001
 1.339383518626616e+000	 1.649750523592262e+000	 1.087334578639623e+001
 1.520279579580000e+000	 1.520279579580000e+000	 1.194310731997900e+001
 1.504455481178855e+000	 1.535940658139447e+000	 1.181994839446369e+001
 1.488470921072491e+000	 1.551436211158438e+000	 1.169827614739459e+001
 1.472328508456273e+000	 1.566763786712603e+000	 1.157880516278246e+001
 1.456030902166122e+000	 1.581920987943867e+000	 1.146226310196287e+001
 1.439580809220651e+000	 1.596905474307821e+000	 1.134938925422682e+001
 1.422980983325981e+000	 1.611714962774640e+000	 1.124093304652140e+001
 1.406234223344997e+000	 1.626347228982270e+000	 1.113765251601122e+001
 1.389343371732789e+000	 1.640800108340653e+000	 1.104031274941522e+001
 1.372311312940141e+000	 1.655071497085864e+000	 1.094968429314543e+001
 1.355140971786903e+000	 1.669159353283084e+000	 1.086654153836978e+001
 1.537957249110000e+000	 1.537957249110000e+000	 1.192563031698169e+001
 1.521949149564441e+000	 1.553800433234320e+000	 1.179640262136716e+001
 1.505778722479917e+000	 1.569476167102593e+000	 1.166992712079613e+001
 1.489448607391275e+000	 1.584981970279696e+000	 1.154698836371535e+001
 1.472961494051132e+000	 1.600315418037114e+000	 1.142838347819157e+001
 1.456320120955062e+000	 1.615474142614804e+000	 1.131492062514115e+001
 1.439527273829024e+000	 1.630455834436083e+000	 1.120741741050990e+001
 1.422585784080820e+000	 1.645258243274223e+000	 1.110669926040005e+001
 1.405498527217345e+000	 1.659879179369513e+000	 1.101359776326981e+001
 1.388268421229506e+000	 1.674316514495656e+000	 1.092894898344054e+001
 1.370898424946689e+000	 1.688568182974407e+000	 1.085359175024436e+001
 1.555634918639999e+000	 1.555634918639999e+000	 1.189399744048223e+001
 1.539442817950022e+000	 1.571660208329199e+000	 1.175976773408777e+001
 1.523086523887323e+000	 1.587516123046767e+000	 1.162950937392975e+001
 1.506568706326231e+000	 1.603200153846834e+000	 1.150407711428934e+001
 1.489892085936062e+000	 1.618709848130441e+000	 1.138433784260916e+001
 1.473059432689347e+000	 1.634042810921912e+000	 1.127116893433340e+001
 1.456073564331886e+000	 1.649196706097707e+000	 1.116545656649027e+001
 1.438937344816397e+000	 1.664169257566422e+000	 1.106809399422608e+001
 1.421653682701580e+000	 1.678958250398694e+000	 1.097997979462712e+001
 1.404225529518465e+000	 1.693561531905855e+000	 1.090201608227879e+001
 1.386655878105973e+000	 1.707977012666231e+000	 1.083510670110723e+001
 1.573312588170000e+000	 1.573312588170000e+000	 1.184937404138393e+001
 1.556936486335598e+000	 1.589519983424083e+000	 1.171115311581948e+001
 1.540394325294709e+000	 1.605556078990961e+000	 1.157807670711494e+001
 1.523688805261143e+000	 1.621418337414017e+000	 1.145107005180852e+001
 1.506822677820911e+000	 1.637104278223849e+000	 1.133107012434982e+001
 1.489798744423506e+000	 1.652611479229146e+000	 1.121902389252207e+001
 1.472619854834567e+000	 1.667937577759512e+000	 1.111588653131264e+001
 1.455288905551728e+000	 1.683080271858867e+000	 1.102261959965513e+001
 1.437808838185493e+000	 1.698037321428196e+000	 1.094018918459451e+001
 1.420182637807018e+000	 1.712806549316460e+000	 1.086956401754165e+001
 1.402413331264755e+000	 1.727385842358557e+000	 1.081171356738017e+001
 1.590990257700000e+000	 1.590990257700000e+000	 1.179292236315451e+001
 1.574430154721170e+000	 1.607379758518973e+000	 1.165166715213028e+001
 1.557702126702076e+000	 1.623596034935176e+000	 1.151668399019174e+001
 1.540808904196010e+000	 1.639636520981247e+000	 1.138896890659409e+001
 1.523753269705680e+000	 1.655498708317337e+000	 1.126952932445282e+001
 1.506538056157541e+000	 1.671180147536507e+000	 1.115938221568179e+001
 1.489166145337068e+000	 1.686678449421499e+000	 1.105955221399820e+001
 1.471640466286814e+000	 1.701991286151559e+000	 1.097106969063512e+001
 1.453963993669085e+000	 1.717116392458020e+000	 1.089496879753234e+001
 1.436139746095165e+000	 1.732051566727472e+000	 1.083228548289130e+001
 1.418170784423037e+000	 1.746794672051384e+000	 1.078405548407866e+001
 1.260596252817662e+000	 1.552706375145675e+000	 1.079514003691262e+001
 1.244497964461667e+000	 1.565638788630635e+000	 1.073905219542128e+001
 1.228276589353182e+000	 1.578396851251904e+000	 1.066542100922812e+001
 1.211934951580843e+000	 1.590978841190437e+000	 1.056970834071850e+001
 1.195475906489393e+000	 1.603383097381649e+000	 1.045161045383801e+001
 1.178902339053814e+000	 1.615608020198319e+000	 1.031083459698800e+001
 1.162217162236541e+000	 1.627652072081567e+000	 1.014709905698591e+001
 1.145423315329686e+000	 1.639513778119491e+000	 9.960133204479650e+000
 1.128523762284199e+000	 1.651191726573076e+000	 9.749677531133056e+000
 1.111521490027896e+000	 1.662684569349107e+000	 9.515483678898587e+000
 1.094419506774317e+000	 1.673991022419878e+000	 9.257314461693612e+000
 1.276353705980456e+000	 1.572115204833990e+000	 1.082755161301321e+001
 1.260054189020686e+000	 1.585209273487081e+000	 1.077087032671078e+001
 1.243630046723849e+000	 1.598126811890726e+000	 1.070702661838299e+001
 1.227084138479686e+000	 1.610866076703136e+000	 1.063015988176315e+001
 1.210419355324752e+000	 1.623425386096425e+000	 1.053218829307284e+001
 1.193638618296214e+000	 1.635803120448028e+000	 1.041279617735865e+001
 1.176744876768541e+000	 1.647997722979580e+000	 1.027167793623956e+001
 1.159741106774995e+000	 1.660007700342781e+000	 1.010853811237048e+001
 1.142630309315913e+000	 1.671831623151877e+000	 9.923091446929705e+000
 1.125415508655710e+000	 1.683468126462488e+000	 9.715062930418592e+000
 1.108099750610596e+000	 1.694915910196563e+000	 9.484187847059612e+000
 1.292111159142748e+000	 1.591524034522806e+000	 1.085105759585740e+001
 1.275610413579115e+000	 1.604779758344124e+000	 1.079327195721154e+001
 1.258983504093854e+000	 1.617856772530227e+000	 1.072674817665015e+001
 1.242233325377819e+000	 1.630753312216591e+000	 1.065809617522675e+001
 1.225362804159370e+000	 1.643467674812022e+000	 1.057994598533337e+001
 1.208374897537865e+000	 1.655998220698612e+000	 1.048162851984947e+001
 1.191272591299802e+000	 1.668343373878515e+000	 1.036281477541435e+001
 1.174058898219596e+000	 1.680501622567026e+000	 1.022318494445274e+001
 1.156736856346969e+000	 1.692471519731658e+000	 1.006242849228139e+001
 1.139309527282936e+000	 1.704251683576865e+000	 9.880244228766367e+000
 1.121779994446377e+000	 1.715840797974247e+000	 9.676340374788250e+000
 1.307868612304539e+000	 1.610932864212123e+000	 1.086616713994603e+001
 1.291166638136952e+000	 1.624350243201763e+000	 1.080633883453826e+001
 1.274336961463199e+000	 1.637586733170410e+000	 1.073896843958798e+001
 1.257382512275241e+000	 1.650640547730803e+000	 1.066443588862302e+001
 1.240306252993249e+000	 1.663509963528439e+000	 1.059450035130040e+001
 1.223111176778767e+000	 1.676193320950074e+000	 1.051696665975688e+001
 1.205800305830324e+000	 1.688689024778369e+000	 1.042016348985460e+001
 1.188376689663488e+000	 1.700995544792228e+000	 1.030374715484672e+001
 1.170843403377367e+000	 1.713111416312419e+000	 1.016738231167456e+001
 1.153203545909575e+000	 1.725035240692236e+000	 1.001074205281850e+001
 1.135460238281661e+000	 1.736765685752931e+000	 9.833507994181064e+000
 1.323626065465828e+000	 1.630341693901942e+000	 1.087341211836471e+001
 1.306722862694197e+000	 1.643920728059998e+000	 1.081060815532574e+001
 1.289690418831883e+000	 1.657316693811274e+000	 1.074143531176710e+001
 1.272531699171953e+000	 1.670527783245771e+000	 1.066628680977647e+001
 1.255249701826388e+000	 1.683552252245678e+000	 1.058556768962125e+001
 1.237847456018920e+000	 1.696388421202410e+000	 1.051846331178531e+001
 1.220328020360108e+000	 1.709034675679144e+000	 1.044339457697451e+001
 1.202694481106672e+000	 1.721489467018384e+000	 1.034991365391980e+001
 1.184949950407108e+000	 1.733751312894161e+000	 1.023766085214618e+001
 1.167097564535627e+000	 1.745818797808602e+000	 1.010628400305774e+001
 1.149140482116448e+000	 1.757690573532615e+000	 9.955438568594461e+000
 1.339383518626616e+000	 1.649750523592262e+000	 1.087334578639623e+001
 1.322279087250852e+000	 1.663491212918830e+000	 1.080663760774792e+001
 1.305043876199906e+000	 1.677046654452820e+000	 1.073471108829137e+001
 1.287680886067954e+000	 1.690415018761495e+000	 1.065797410499089e+001
 1.270193150658786e+000	 1.703594540963737e+000	 1.057684594001165e+001
 1.252583735258323e+000	 1.716583521455622e+000	 1.049175595258427e+001
 1.234855734889153e+000	 1.729380326580840e+000	 1.043219414084213e+001
 1.217012272549147e+000	 1.741983389245495e+000	 1.036138789909516e+001
 1.199056497436191e+000	 1.754391209476883e+000	 1.027298552195711e+001
 1.180991583161090e+000	 1.766602354925964e+000	 1.016661002971396e+001
 1.162820725950737e+000	 1.778615461313300e+000	 1.004189117461287e+001
 1.355140971786903e+000	 1.669159353283084e+000	 1.086654153836978e+001
 1.337835311806915e+000	 1.683061697778258e+000	 1.079500418014926e+001
 1.320397333567268e+000	 1.696776615095046e+000	 1.071937649782186e+001
 1.302830072963244e+000	 1.710302254277975e+000	 1.064008239782487e+001
 1.285136599490445e+000	 1.723636829682618e+000	 1.055755680159929e+001
 1.267320014496976e+000	 1.736778621709710e+000	 1.047224427179463e+001
 1.249383449417458e+000	 1.749725977483456e+000	 1.038626298481574e+001
 1.231330063990914e+000	 1.762477311473562e+000	 1.033788704909303e+001
 1.213163044464615e+000	 1.775031106060585e+000	 1.027309040796289e+001
 1.194885601785967e+000	 1.787385912044320e+000	 1.019147171475525e+001
 1.176500969784529e+000	 1.799540349094984e+000	 1.009263545011706e+001
 1.370898424946689e+000	 1.688568182974407e+000	 1.085359175024436e+001
 1.353391536362387e+000	 1.702632182638281e+000	 1.077630305183974e+001
 1.335750790933969e+000	 1.716506575737954e+000	 1.069602964317670e+001
 1.317979259857824e+000	 1.730189489795211e+000	 1.061321284348206e+001
 1.300080048321363e+000	 1.743679118402319e+000	 1.052830461961881e+001
 1.282056293734880e+000	 1.756973721964673e+000	 1.044176616440849e+001
 1.263911163945025e+000	 1.770071628386993e+000	 1.035406645581915e+001
 1.245647855431973e+000	 1.782971233702584e+000	 1.027914117649970e+001
 1.227269591492382e+000	 1.795671002645267e+000	 1.023772154695872e+001
 1.208779620410256e+000	 1.808169469163672e+000	 1.018063160339770e+001
 1.190181213617824e+000	 1.820465236877668e+000	 1.010745098731296e+001
 1.386655878105973e+000	 1.707977012666231e+000	 1.083510670110723e+001
 1.368947760917268e+000	 1.722202667498902e+000	 1.075114655951713e+001
 1.351104248300009e+000	 1.736236536381543e+000	 1.066528501416343e+001
 1.333128446751693e+000	 1.750076725313203e+000	 1.057798218951312e+001
 1.315023497151541e+000	 1.763721407122842e+000	 1.048970851319471e+001
 1.296792572972034e+000	 1.777168822220513e+000	 1.040094324419678e+001
 1.278438878471853e+000	 1.790417279291451e+000	 1.031217298210580e+001
 1.259965646872324e+000	 1.803465155932562e+000	 1.022389016168374e+001
 1.241376138519492e+000	 1.816310899230930e+000	 1.016663624670578e+001
 1.222673639033957e+000	 1.828953026284018e+000	 1.013386258119322e+001
 1.203861457450621e+000	 1.841390124661353e+000	 1.008612676714492e+001
 1.402413331264755e+000	 1.727385842358557e+000	 1.081171356738017e+001
 1.384503985471558e+000	 1.741773152360119e+000	 1.072016323336890e+001
 1.366457705665388e+000	 1.755966497025814e+000	 1.062777256696137e+001
 1.348277633644852e+000	 1.769963960831952e+000	 1.053502189984106e+001
 1.329966945980980e+000	 1.783763695844185e+000	 1.044240154534772e+001
 1.311528852208439e+000	 1.797363922477228e+000	 1.035041027429087e+001
 1.292966592997942e+000	 1.810762930196829e+000	 1.025955377195031e+001
 1.274283438311966e+000	 1.823959078163494e+000	 1.017034308070737e+001
 1.255482685545943e+000	 1.836950795817572e+000	 1.008329303277124e+001
 1.236567657657072e+000	 1.849736583405360e+000	 1.005094729311173e+001
 1.217541701282921e+000	 1.862315012446037e+000	 1.002846063183872e+001
 1.418170784423037e+000	 1.746794672051384e+000	 1.078405548407866e+001
 1.400060210025256e+000	 1.761343637221932e+000	 1.068399689743372e+001
 1.381811163030106e+000	 1.775696457670766e+000	 1.058413686487886e+001
 1.363426820537300e+000	 1.789851196351457e+000	 1.048497733718526e+001
 1.344910394809678e+000	 1.803805984566350e+000	 1.038702994833371e+001
 1.326265131444095e+000	 1.817559022734820e+000	 1.029081443666327e+001
 1.307494307523293e+000	 1.831108581103128e+000	 1.019685704732521e+001
 1.288601229750901e+000	 1.844453000395383e+000	 1.010568892063856e+001
 1.269589232571737e+000	 1.857590692405196e+000	 1.001784447096018e+001
 1.250461676279599e+000	 1.870520140527698e+000	 9.933859760682239e+000
 1.231221945114724e+000	 1.883239900231722e+000	 9.725952512931492e+000
 1.094419506774317e+000	 1.673991022419878e+000	 9.257314461693612e+000
 1.077220840323977e+000	 1.685109866189261e+000	 9.072723158384974e+000
 1.059928536361034e+000	 1.696039945806038e+000	 8.894534683603656e+000
 1.042545656746593e+000	 1.706780171423916e+000	 8.722622172171752e+000
 1.025075277809822e+000	 1.717329518407680e+000	 8.556837945308493e+000
 1.007520488639881e+000	 1.727687027486658e+000	 8.397013699859505e+000
 9.898843893801801e-001	 1.737851804855421e+000	 8.242960732344599e+000
 9.721700895268447e-001	 1.747823022222098e+000	 8.094470197278564e+000
 9.543807062332069e-001	 1.757599916804693e+000	 7.951313399138658e+000
 9.365193626221513e-001	 1.767181791275909e+000	 7.813242117268189e+000
 9.185891861080785e-001	 1.776568013657048e+000	 7.679988962931787e+000
 1.108099750610596e+000	 1.694915910196563e+000	 9.484187847059612e+000
 1.090686100828744e+000	 1.706173739513039e+000	 9.336788377690960e+000
 1.073177643065515e+000	 1.717240445125080e+000	 9.195478910328127e+000
 1.055577477455279e+000	 1.728114923563312e+000	 9.060116495615223e+000
 1.037888718781318e+000	 1.738796137384582e+000	 8.930537534125298e+000
 1.020114494746405e+000	 1.749283115327332e+000	 8.806557971180597e+000
 1.002257944245742e+000	 1.759574952413566e+000	 8.687973526514655e+000
 9.843222156441568e-001	 1.769670809997763e+000	 8.574559958233282e+000
 9.663104650593971e-001	 1.779569915763153e+000	 8.466073360444952e+000
 9.482258546533831e-001	 1.789271563665848e+000	 8.362250493852732e+000
 9.300715509331942e-001	 1.798775113827414e+000	 8.262809148518175e+000
 1.121779994446377e+000	 1.715840797974247e+000	 9.676340374788250e+000
 1.104151361333108e+000	 1.727237612837812e+000	 9.566079252499929e+000
 1.086426749769679e+000	 1.738440944445100e+000	 9.461627721733329e+000
 1.068609298163723e+000	 1.749449675703662e+000	 9.362826941031807e+000
 1.050702159752635e+000	 1.760262756362402e+000	 9.269497555982925e+000
 1.032708500852804e+000	 1.770879203168879e+000	 9.181439899442298e+000
 1.014631499111225e+000	 1.781298099972527e+000	 9.098434226664635e+000
 9.964743417614247e-001	 1.791518597774180e+000	 9.020240984798154e+000
 9.782402238855679e-001	 1.801539914722290e+000	 8.946601116114376e+000
 9.599323466846095e-001	 1.811361336056377e+000	 8.877236394262830e+000
 9.415539157583097e-001	 1.820982213998275e+000	 8.811849792761668e+000
 1.135460238281661e+000	 1.736765685752931e+000	 9.833507994181064e+000
 1.117616621837070e+000	 1.748301486163579e+000	 9.760344043009431e+000
 1.099675856473525e+000	 1.759641443766101e+000	 9.692741103353979e+000
 1.081641118871923e+000	 1.770784427844967e+000	 9.630524633811282e+000
 1.063515600723775e+000	 1.781729375341141e+000	 9.573499691030875e+000
 1.045302506959081e+000	 1.792475291011298e+000	 9.521451135151613e+000
 1.027005053976629e+000	 1.803021247532307e+000	 9.474143870249062e+000
 1.008626467878648e+000	 1.813366385551350e+000	 9.431323119252593e+000
 9.901699827117186e-001	 1.823509913682103e+000	 9.392714732703480e+000
 9.716388387158311e-001	 1.833451108447498e+000	 9.358025530642932e+000
 9.530362805834256e-001	 1.843189314169633e+000	 9.326943676838409e+000
 1.149140482116448e+000	 1.757690573532615e+000	 9.955438568594461e+000
 1.131081882340630e+000	 1.769365359490342e+000	 9.919342156023173e+000
 1.112924963177054e+000	 1.780841943088082e+000	 9.888589451948571e+000
 1.094672939579881e+000	 1.792119179987225e+000	 9.862990407488038e+000
 1.076329041694736e+000	 1.803195994320799e+000	 9.842334657004500e+000
 1.057896513065233e+000	 1.814071378854591e+000	 9.826391728556651e+000
 1.039378608841954e+000	 1.824744395092904e+000	 9.814911289505629e+000
 1.020778593995827e+000	 1.835214173329271e+000	 9.807623426738429e+000
 1.002099741537850e+000	 1.845479912642593e+000	 9.804238960877351e+000
 9.833453307470480e-001	 1.855540880839210e+000	 9.804449793765297e+000
 9.645186454085410e-001	 1.865396414341487e+000	 9.807929288431925e+000
 1.162820725950737e+000	 1.778615461313300e+000	 1.004189117461287e+001
 1.144547142843787e+000	 1.790429232818099e+000	 1.004284348926802e+001
 1.126174069880265e+000	 1.802042442411042e+000	 1.004895296307377e+001
 1.107704760287596e+000	 1.813453932130438e+000	 1.006001423267406e+001
 1.089142482665519e+000	 1.824662613301375e+000	 1.007580167760266e+001
 1.070490519171262e+000	 1.835667466698757e+000	 1.009606963554430e+001
 1.051752163707200e+000	 1.846467542654318e+000	 1.012055265293857e+001
 1.032930720112962e+000	 1.857061961107944e+000	 1.014896577038569e+001
 1.014029500363961e+000	 1.867449911603759e+000	 1.018100484222639e+001
 9.950518227782601e-001	 1.877630653231514e+000	 1.013781801205589e+001
 9.760010102336569e-001	 1.887603514513837e+000	 9.879535586663893e+000
 1.176500969784529e+000	 1.799540349094984e+000	 1.009263545011706e+001
 1.158012403346542e+000	 1.811493106146852e+000	 1.013062782145704e+001
 1.139423176583158e+000	 1.823242941734981e+000	 1.017362106138738e+001
 1.120736580995068e+000	 1.834788684274606e+000	 1.022139468583310e+001
 1.101955923636123e+000	 1.846129232282870e+000	 1.027370798795435e+001
 1.083084525277168e+000	 1.857263554543796e+000	 1.033030025801022e+001
 1.064125718572367e+000	 1.868190690216550e+000	 1.039089103879140e+001
 1.045082846230052e+000	 1.878909748887368e+000	 1.033874859923220e+001
 1.025959259190053e+000	 1.889419910565602e+000	 1.009219972624007e+001
 1.006758314809467e+000	 1.899720425624409e+000	 9.854728901001089e+000
 9.874833750587725e-001	 1.909810614686682e+000	 9.627981903419196e+000
 1.190181213617824e+000	 1.820465236877668e+000	 1.010745098731296e+001
 1.171477663848894e+000	 1.832556979476599e+000	 1.018248424441617e+001
 1.152672283285734e+000	 1.844443441059900e+000	 1.026239187023992e+001
 1.133768401702297e+000	 1.856123436419727e+000	 1.034693845469185e+001
 1.114769364606549e+000	 1.867595851265283e+000	 1.043586837419216e+001
 1.095678531382950e+000	 1.878859642389709e+000	 1.041613227998300e+001
 1.076499273437455e+000	 1.889913837779600e+000	 1.018610826769644e+001
 1.057234972347098e+000	 1.900757536667545e+000	 9.961666541527906e+000
 1.037889018016125e+000	 1.911389909528121e+000	 9.744665023666748e+000
 1.018464806840669e+000	 1.921810198017894e+000	 9.536909066639689e+000
 9.989657398838883e-001	 1.932017714860024e+000	 9.340146801642151e+000
 1.203861457450621e+000	 1.841390124661353e+000	 1.008612676714492e+001
 1.184942924350843e+000	 1.853620852807342e+000	 1.019821063393056e+001
 1.165921389987992e+000	 1.865643940385799e+000	 1.031507171743085e+001
 1.146800222409283e+000	 1.877458188565803e+000	 1.036724598439973e+001
 1.127582805576798e+000	 1.889062470248616e+000	 1.016001214507250e+001
 1.108272537488608e+000	 1.900455730236494e+000	 9.954263076698423e+000
 1.088872828302464e+000	 1.911636985343467e+000	 9.752057796382260e+000
 1.069387098464100e+000	 1.922605324448474e+000	 9.555411853942117e+000
 1.049818776842178e+000	 1.933359908491317e+000	 9.366292151277865e+000
 1.030171298871866e+000	 1.943899970411971e+000	 9.186611908393104e+000
 1.010448104709004e+000	 1.954224815033862e+000	 9.018225788193556e+000
 1.217541701282921e+000	 1.862315012446037e+000	 1.002846063183872e+001
 1.198408184852391e+000	 1.874684726139078e+000	 1.017761315626335e+001
 1.179170496689933e+000	 1.886844439712678e+000	 1.000934541605844e+001
 1.159832043116027e+000	 1.898792940712833e+000	 9.829488253627885e+000
 1.140396246546868e+000	 1.910529089232866e+000	 9.648668114332779e+000
 1.120866543594143e+000	 1.922051818084153e+000	 9.469097545037126e+000
 1.101246383167394e+000	 1.933360132908152e+000	 9.292950500074118e+000
 1.081539224581057e+000	 1.944453112230155e+000	 9.122356782967241e+000
 1.061748535668210e+000	 1.955329907455190e+000	 8.959396626035405e+000
 1.041877790903059e+000	 1.965989742806639e+000	 8.806095421142588e+000
 1.021930469534119e+000	 1.976431915208196e+000	 8.664418614246333e+000
 1.231221945114724e+000	 1.883239900231722e+000	 9.725952512931492e+000
 1.211873445353537e+000	 1.895748599471812e+000	 9.580768344671954e+000
 1.192419603391557e+000	 1.908044939040537e+000	 9.429514978596663e+000
 1.172863863822528e+000	 1.920127692860818e+000	 9.274585048862313e+000
 1.153209687516760e+000	 1.931995708218037e+000	 9.118344118342783e+000
 1.133460549699555e+000	 1.943647905932685e+000	 8.963124629305947e+000
 1.113619938032246e+000	 1.955083280473654e+000	 8.811219966666572e+000
 1.093691350697970e+000	 1.966300900012589e+000	 8.664878648771236e+000
 1.073678294494223e+000	 1.977299906419739e+000	 8.526298660130795e+000
 1.053584282934247e+000	 1.988079515201899e+000	 8.397621939926086e+000
 1.033412834359236e+000	 1.998639015383027e+000	 8.280929039490170e+000
 9.185891861080785e-001	 1.776568013657048e+000	 7.679988962931787e+000
 9.005933067305993e-001	 1.785758017161617e+000	 7.581511746874746e+000
 8.825348555005111e-001	 1.794751299989325e+000	 7.483650426882000e+000
 8.644169627606548e-001	 1.803547425071165e+000	 7.386222958408625e+000
 8.462427565638451e-001	 1.812146019766516e+000	 7.289029477895815e+000
 8.280153610683624e-001	 1.820546775513088e+000	 7.191852675992279e+000
 8.097378949529320e-001	 1.828749447430661e+000	 7.094458199576144e+000
 7.914134698526782e-001	 1.836753853879596e+000	 6.996595081494469e+000
 7.730451888174862e-001	 1.844559875975170e+000	 6.897996196884801e+000
 7.546361447941521e-001	 1.852167457058817e+000	 6.798378744887367e+000
 7.361894191336470e-001	 1.859576602127425e+000	 6.697444754508966e+000
 9.300715509331942e-001	 1.798775113827414e+000	 8.262809148518175e+000
 9.118507230638300e-001	 1.808079992376415e+000	 8.201430165793878e+000
 8.935665411936159e-001	 1.817185691239944e+000	 8.138498145678380e+000
 8.752221747946792e-001	 1.826091767885635e+000	 8.073796830824104e+000
 8.568207910204952e-001	 1.834797845014858e+000	 8.007094167777680e+000
 8.383655530813229e-001	 1.843303610208293e+000	 7.938142684638883e+000
 8.198596186393722e-001	 1.851608815524722e+000	 7.866679895203385e+000
 8.013061382252069e-001	 1.859713277054009e+000	 7.792428728545039e+000
 7.827082536768364e-001	 1.867616874425373e+000	 7.715097982934845e+000
 7.640690966028920e-001	 1.875319550272017e+000	 7.626730418618477e+000
 7.453917868712325e-001	 1.882821309653291e+000	 7.369573248479430e+000
 9.415539157583097e-001	 1.820982213998275e+000	 8.811849792761668e+000
 9.231081393970605e-001	 1.830401967591619e+000	 8.786620975281876e+000
 9.045982268867207e-001	 1.839620082490901e+000	 8.757746476194665e+000
 8.860273868287039e-001	 1.848636110700394e+000	 8.724976081436775e+000
 8.673988254771454e-001	 1.857449670263458e+000	 8.688045747712016e+000
 8.487157450942833e-001	 1.866060444903750e+000	 8.646677984827573e+000
 8.299813423258124e-001	 1.874468183619044e+000	 8.600582262273882e+000
 8.111988065977355e-001	 1.882672700228715e+000	 8.349864893073040e+000
 7.923713185361867e-001	 1.890673872875919e+000	 8.096583238828755e+000
 7.735020484116318e-001	 1.898471643485632e+000	 7.855716274291623e+000
 7.545941546088181e-001	 1.906066017179662e+000	 7.627982401491980e+000
 9.530362805834256e-001	 1.843189314169633e+000	 9.326943676838409e+000
 9.343655557302909e-001	 1.852723942807229e+000	 9.336967699083763e+000
 9.156299125798257e-001	 1.862054473742195e+000	 9.341327553437200e+000
 8.968325988627283e-001	 1.871180453515439e+000	 9.339739316140671e+000
 8.779768599337955e-001	 1.880101495512317e+000	 9.188298702418171e+000
 8.590659371072438e-001	 1.888817279599455e+000	 8.935374881760502e+000
 8.401030660122525e-001	 1.897327551713629e+000	 8.691200439665336e+000
 8.210914749702644e-001	 1.905632123403714e+000	 8.456778040699119e+000
 8.020343833955367e-001	 1.913730871326810e+000	 8.233037609800682e+000
 7.829350002203717e-001	 1.921623736699661e+000	 8.020833926694293e+000
 7.637965223464035e-001	 1.929310724706538e+000	 7.820944418198933e+000
 9.645186454085410e-001	 1.865396414341487e+000	 9.807929288431925e+000
 9.456229720635219e-001	 1.875045918023246e+000	 9.851004897443017e+000
 9.266615982729306e-001	 1.884488864993826e+000	 9.612230547168480e+000
 9.076378108967530e-001	 1.893724796330773e+000	 9.377626218683574e+000
 8.885548943904457e-001	 1.902753320761436e+000	 9.148462966481603e+000
 8.694161291202042e-001	 1.911574114295412e+000	 8.925947148972172e+000
 8.502247896986925e-001	 1.920186919808475e+000	 8.711217288595158e+000
 8.309841433427928e-001	 1.928591546579005e+000	 8.505341120805989e+000
 8.116974482548865e-001	 1.936787869778045e+000	 8.309312837495867e+000
 7.923679520291116e-001	 1.944775829914106e+000	 8.124050529745157e+000
 7.729988900839893e-001	 1.952555432233920e+000	 7.950393834137926e+000
 9.760010102336569e-001	 1.887603514513837e+000	 9.879535586663893e+000
 9.568803883967524e-001	 1.897367893239669e+000	 9.670349624479215e+000
 9.376932839660355e-001	 1.906923256245794e+000	 9.462852060051405e+000
 9.184430229307775e-001	 1.916269139146395e+000	 9.258446059179761e+000
 8.991329288470957e-001	 1.925405146010814e+000	 9.058473164609081e+000
 8.797663211331648e-001	 1.934330948991620e+000	 8.864209796830679e+000
 8.603465133851327e-001	 1.943046287903583e+000	 8.676863942184649e+000
 8.408768117153217e-001	 1.951550969754590e+000	 8.497572034839999e+000
 8.213605131142369e-001	 1.959844868229625e+000	 8.327396038549844e+000
 8.018009038378514e-001	 1.967927923128965e+000	 8.167320733390493e+000
 7.822012578215748e-001	 1.975800139761806e+000	 8.018251211999299e+000
 9.874833750587725e-001	 1.909810614686682e+000	 9.627981903419196e+000
 9.681378047299829e-001	 1.919689868456498e+000	 9.448705463068144e+000
 9.487249696591404e-001	 1.929357647498098e+000	 9.270045548307460e+000
 9.292482349648019e-001	 1.938813481962305e+000	 9.093480193093448e+000
 9.097109633037459e-001	 1.948056971260450e+000	 8.920425456433110e+000
 8.901165131461254e-001	 1.957087783688078e+000	 8.752231741052075e+000
 8.704682370715728e-001	 1.965905655998953e+000	 8.590180304261125e+000
 8.507694800878504e-001	 1.974510392930468e+000	 8.435479967961156e+000
 8.310235779735868e-001	 1.982901866681547e+000	 8.289264034024553e+000
 8.112338556465911e-001	 1.991080016344239e+000	 8.152587410578821e+000
 7.914036255591603e-001	 1.999044847290198e+000	 8.026423954001068e+000
 9.989657398838883e-001	 1.932017714860024e+000	 9.340146801642151e+000
 9.793952210632133e-001	 1.942011843673734e+000	 9.188241729853770e+000
 9.597566553522451e-001	 1.951792038750740e+000	 9.035956715910746e+000
 9.400534469988268e-001	 1.961357824778503e+000	 8.884848852504197e+000
 9.202889977603959e-001	 1.970708796510347e+000	 8.736412803546802e+000
 9.004667051590858e-001	 1.979844618384786e+000	 8.592076935146757e+000
 8.805899607580130e-001	 1.988765024094585e+000	 8.453199643923783e+000
 8.606621484603789e-001	 1.997469816106639e+000	 8.321065889979696e+000
 8.406866428329369e-001	 2.005958865133815e+000	 8.196883941108892e+000
 8.206668074553311e-001	 2.014232109559928e+000	 8.081782334100369e+000
 8.006059932967459e-001	 2.022289554819095e+000	 7.976807058237515e+000
 1.010448104709004e+000	 1.954224815033862e+000	 9.018225788193556e+000
 9.906526373964438e-001	 1.964333818891375e+000	 8.891130232296174e+000
 9.707883410453504e-001	 1.974226430003719e+000	 8.762731836424518e+000
 9.508586590328513e-001	 1.983902167594988e+000	 8.634671003227572e+000
 9.308670322170459e-001	 1.993360621760502e+000	 8.508525151210666e+000
 9.108168971720463e-001	 2.002601453081745e+000	 8.385804652362722e+000
 8.907116844444534e-001	 2.011624392190479e+000	 8.267948972516749e+000
 8.705548168329077e-001	 2.020429239283104e+000	 8.156323022136681e+000
 8.503497076922872e-001	 2.029015863586428e+000	 8.052213724474505e+000
 8.300997592640709e-001	 2.037384202776032e+000	 7.956826807277562e+000
 8.098083610343312e-001	 2.045534262348497e+000	 7.871283823459417e+000
 1.021930469534119e+000	 1.976431915208196e+000	 8.664418614246333e+000
 1.001910053729674e+000	 1.986655794109423e+000	 8.559545128737497e+000
 9.818200267384550e-001	 1.996660821257034e+000	 8.452517721001284e+000
 9.616638710668757e-001	 2.006446510411762e+000	 8.345064415953233e+000
 9.414450666736963e-001	 2.016012447010916e+000	 8.238849597809521e+000
 9.211670891850069e-001	 2.025358287778955e+000	 8.135469748622205e+000
 9.008334081308934e-001	 2.034483760286634e+000	 8.036449395188321e+000
 8.804474852054364e-001	 2.043388662459861e+000	 7.943237272417311e+000
 8.600127725516371e-001	 2.052072862039383e+000	 7.857202710462451e+000
 8.395327110728107e-001	 2.060536295992551e+000	 7.779632252137268e+000
 8.190107287719169e-001	 2.068778969878404e+000	 7.711726506340217e+000
 1.033412834359236e+000	 1.998639015383027e+000	 8.280929039490170e+000
 1.013167470062905e+000	 2.008977769327879e+000	 8.195662797798068e+000
 9.928517124315605e-001	 2.019095212510688e+000	 8.107461688516949e+000
 9.724690831009006e-001	 2.028990853228824e+000	 8.018145732640964e+000
 9.520231011303467e-001	 2.038664272261591e+000	 7.929470553012278e+000
 9.315172811979676e-001	 2.048115122476415e+000	 7.843122907927918e+000
 9.109551318173340e-001	 2.057343128383052e+000	 7.760716439013052e+000
 8.903401535779654e-001	 2.066348085636912e+000	 7.683787641842656e+000
 8.696758374109875e-001	 2.075129860492684e+000	 7.613792066990418e+000
 8.489656628815507e-001	 2.083688389209485e+000	 7.552100758372150e+000
 8.282130965095028e-001	 2.092023677408817e+000	 7.499996934924981e+000
 7.361894191336470e-001	 1.859576602127425e+000	 6.697444754508966e+000
 7.177080801244898e-001	 1.866787377221733e+000	 6.559586432321650e+000
 6.991951815543979e-001	 1.873799908775373e+000	 6.469718122935426e+000
 6.806537613005028e-001	 1.880614382925689e+000	 6.318546843655288e+000
 6.620868399488499e-001	 1.887231044787306e+000	 6.208755334673577e+000
 6.434974194451190e-001	 1.893650197690125e+000	 6.164628544185249e+000
 6.248884817771947e-001	 1.899872202382971e+000	 6.184107090435701e+000
 6.062629876904960e-001	 1.905897476204296e+000	 5.976134647415386e+000
 5.876238754369109e-001	 1.911726492221324e+000	 5.809361243688827e+000
 5.689740595581225e-001	 1.917359778339053e+000	 5.681235774021848e+000
 5.503164297040443e-001	 1.922797916380548e+000	 5.589218291730555e+000
 7.453917868712325e-001	 1.882821309653291e+000	 7.369573248479430e+000
 7.266794311240886e-001	 1.890122219435584e+000	 7.087943430432327e+000
 7.079351213216277e-001	 1.897222407633088e+000	 6.865667139622859e+000
 6.891619333144454e-001	 1.904122062709863e+000	 6.702829525671099e+000
 6.703629254459111e-001	 1.910821432844467e+000	 6.599399765066475e+000
 6.515411371860250e-001	 1.917320825158422e+000	 6.555230968332297e+000
 6.326995877975198e-001	 1.923620604909912e+000	 6.570060310829841e+000
 6.138412750351310e-001	 1.929721194654120e+000	 6.471307757930124e+000
 5.949691738788937e-001	 1.935623073371611e+000	 6.291347335097978e+000
 5.760862353022618e-001	 1.941326775566192e+000	 6.141507650868159e+000
 5.571953850757716e-001	 1.946832890333715e+000	 6.019240922322469e+000
 7.545941546088181e-001	 1.906066017179662e+000	 7.627982401491980e+000
 7.356507821236820e-001	 1.913457061650030e+000	 7.371142497308536e+000
 7.166750610888373e-001	 1.920644906491468e+000	 7.167226105367531e+000
 6.976701053283415e-001	 1.927629742494751e+000	 7.016412298668688e+000
 6.786390109428900e-001	 1.934411820902369e+000	 6.918767151892453e+000
 6.595848549268033e-001	 1.940991452627468e+000	 6.874243434060101e+000
 6.405106938176609e-001	 1.947369007437591e+000	 6.882680527549717e+000
 6.214195623795156e-001	 1.953544913104651e+000	 6.890174284080455e+000
 6.023144723205511e-001	 1.959519654522554e+000	 6.700606764658567e+000
 5.831984110459901e-001	 1.965293772793915e+000	 6.532808043803171e+000
 5.640743404469928e-001	 1.970867864287377e+000	 6.384217901086027e+000
 7.637965223464035e-001	 1.929310724706538e+000	 7.820944418198933e+000
 7.446221331232706e-001	 1.936791903865071e+000	 7.587497509900917e+000
 7.254150008560258e-001	 1.944067405350511e+000	 7.400797208205908e+000
 7.061782773421913e-001	 1.951137422280350e+000	 7.261118268041917e+000
 6.869150964397871e-001	 1.958002208961012e+000	 7.168625204496301e+000
 6.676285726674532e-001	 1.964662080097262e+000	 7.123371770227018e+000
 6.483217998376180e-001	 1.971117409966007e+000	 7.125300662283827e+000
 6.289978497236505e-001	 1.977368631555889e+000	 7.174243456371304e+000
 6.096597707618825e-001	 1.983416235674150e+000	 7.036319843303934e+000
 5.903105867893070e-001	 1.989260770022221e+000	 6.854333900333912e+000
 5.709532958177076e-001	 1.994902838241532e+000	 6.683355444698807e+000
 7.729988900839893e-001	 1.952555432233920e+000	 7.950393834137926e+000
 7.535934841228538e-001	 1.960126746080707e+000	 7.738906331076031e+000
 7.341549406231938e-001	 1.967489904210219e+000	 7.568235207940544e+000
 7.146864493559950e-001	 1.974645102066663e+000	 7.438752755116535e+000
 6.951911819366018e-001	 1.981592597020396e+000	 7.350723567651550e+000
 6.756722904079749e-001	 1.988332707567807e+000	 7.304303806533917e+000
 6.561329058573908e-001	 1.994865812495162e+000	 7.299540692776340e+000
 6.365761370675355e-001	 2.001192350007833e+000	 7.336372232681027e+000
 6.170050692028887e-001	 2.007312816826402e+000	 7.297651129935306e+000
 5.974227625322132e-001	 2.013227767251113e+000	 7.105267839507945e+000
 5.778322511879159e-001	 2.018937812196181e+000	 6.915847197240636e+000
 7.822012578215748e-001	 1.975800139761806e+000	 8.018251211999299e+000
 7.625648351224317e-001	 1.983461588296937e+000	 7.827251598518569e+000
 7.428948803903412e-001	 1.990912403070590e+000	 7.671378718057239e+000
 7.231946213697521e-001	 1.998152781853689e+000	 7.551104343271787e+000
 7.034672674333341e-001	 2.005182985080521e+000	 7.466794884181829e+000
 6.837160081483688e-001	 2.012003335039101e+000	 7.418710432298432e+000
 6.639440118769798e-001	 2.018614215025054e+000	 7.407004041291264e+000
 6.441544244111707e-001	 2.025016068460483e+000	 7.431721242916857e+000
 6.243503676435689e-001	 2.031209397979309e+000	 7.483750358011590e+000
 6.045349382747081e-001	 2.037194764480588e+000	 7.284778994763875e+000
 5.847112065576183e-001	 2.042972786151324e+000	 7.080874969758498e+000
 7.914036255591603e-001	 1.999044847290198e+000	 8.026423954001068e+000
 7.715361861220045e-001	 2.006796430513762e+000	 7.854401609916237e+000
 7.516348201574682e-001	 2.014334901931625e+000	 7.712051144464616e+000
 7.317027933834631e-001	 2.021660461641427e+000	 7.599945851076932e+000
 7.117433529299846e-001	 2.028773373141388e+000	 7.518555783446844e+000
 6.917597258886346e-001	 2.035673962511146e+000	 7.468246581360408e+000
 6.717551178963847e-001	 2.042362617555685e+000	 7.449278537140239e+000
 6.517327117545559e-001	 2.048839786913839e+000	 7.461805901765902e+000
 6.316956660839234e-001	 2.055105979132870e+000	 7.505876429063934e+000
 6.116471140167921e-001	 2.061161761710647e+000	 7.392023797978352e+000
 5.915901619268141e-001	 2.067007760106961e+000	 7.177609428233520e+000
 8.006059932967459e-001	 2.022289554819095e+000	 7.976807058237515e+000
 7.805075371215724e-001	 2.030131272731183e+000	 7.822211147097294e+000
 7.603747599245743e-001	 2.037757400793325e+000	 7.692061559492421e+000
 7.402109653971276e-001	 2.045168141429878e+000	 7.587035238314766e+000
 7.200194384265527e-001	 2.052363761202995e+000	 7.507707801656085e+000
 6.998034436287721e-001	 2.059344589983938e+000	 7.454552149064103e+000
 6.795662239156055e-001	 2.066111020087052e+000	 7.427937312829140e+000
 6.593109990976912e-001	 2.072663505367901e+000	 7.428127553702701e+000
 6.390409645239524e-001	 2.079002560287087e+000	 7.455281699755832e+000
 6.187592897584647e-001	 2.085128758941291e+000	 7.426146709441057e+000
 5.984691172955038e-001	 2.091042734063091e+000	 7.205210734101809e+000
 8.098083610343312e-001	 2.045534262348497e+000	 7.871283823459417e+000
 7.894788881211350e-001	 2.053466114949198e+000	 7.732522243977252e+000
 7.691146996916598e-001	 2.061179899655689e+000	 7.613205516299732e+000
 7.487191374107460e-001	 2.068675821219042e+000	 7.514116450230645e+000
 7.282955239230390e-001	 2.075954149265344e+000	 7.435938239434240e+000
 7.078471613687817e-001	 2.083015217457482e+000	 7.379252846717578e+000
 6.873773299346423e-001	 2.089859422619158e+000	 7.344539639103788e+000
 6.668892864405766e-001	 2.096487223822670e+000	 7.332174272432820e+000
 6.463862629636560e-001	 2.102899141441958e+000	 7.342427824507982e+000
 6.258714654997264e-001	 2.109095756172518e+000	 7.375466175107623e+000
 6.053480726636872e-001	 2.115077708019714e+000	 7.162829141103702e+000
 8.190107287719169e-001	 2.068778969878404e+000	 7.711726506340217e+000
 7.984502391206926e-001	 2.076800957167808e+000	 7.587164902733730e+000
 7.778546394587247e-001	 2.084602398518716e+000	 7.477265808378767e+000
 7.572273094243177e-001	 2.092183501008918e+000	 7.382920204866458e+000
 7.365716094194428e-001	 2.099544537328435e+000	 7.304920961573119e+000
 7.158908791086629e-001	 2.106685844931774e+000	 7.243960998448741e+000
 6.951884359534952e-001	 2.113607825152002e+000	 7.200631703700926e+000
 6.744675737832122e-001	 2.120310942278145e+000	 7.175421606442004e+000
 6.537315614030341e-001	 2.126795722597485e+000	 7.168715303629178e+000
 6.329836412405768e-001	 2.133062753404329e+000	 7.180792639896132e+000
 6.122270280313643e-001	 2.139112681976832e+000	 7.049605551896149e+000
 8.282130965095028e-001	 2.092023677408817e+000	 7.499996934924981e+000
 8.074215901202451e-001	 2.100135799387014e+000	 7.387957762236345e+000
 7.865945792257691e-001	 2.108024897382408e+000	 7.286013178425347e+000
 7.657354814378439e-001	 2.115691180799508e+000	 7.195164727905020e+000
 7.448476949157646e-001	 2.123134925392267e+000	 7.116317143466842e+000
 7.239345968484166e-001	 2.130356472406817e+000	 7.050276284937973e+000
 7.029995419721642e-001	 2.137356227685584e+000	 6.997747338181500e+000
 6.820458611255978e-001	 2.144134660734327e+000	 6.959333274841506e+000
 6.610768598420863e-001	 2.150692303753667e+000	 6.935533572465836e+000
 6.400958169810165e-001	 2.157029750636725e+000	 6.926743193885842e+000
 6.191059833985354e-001	 2.163147655934445e+000	 6.864672037556769e+000
 5.503164297040443e-001	 1.922797916380548e+000	 5.589218291730555e+000
 5.316538494870134e-001	 1.928041541140166e+000	 5.550515075513423e+000
 5.129891553722548e-001	 1.933091339410632e+000	 5.521312354636310e+000
 4.943251556054373e-001	 1.937948048985706e+000	 5.499524354288782e+000
 4.756646291775603e-001	 1.942612457640389e+000	 5.483105571030033e+000
 4.570103248275768e-001	 1.947085402089539e+000	 5.470053218229666e+000
 4.383649600831476e-001	 1.951367766926559e+000	 5.458409527849899e+000
 4.197312203398145e-001	 1.955460483543635e+000	 5.446263907483969e+000
 4.011117579788219e-001	 1.959364529034961e+000	 5.431754951975504e+000
 3.825091915237612e-001	 1.963080925084422e+000	 5.413072309334738e+000
 3.639261048361499e-001	 1.966610736839179e+000	 5.388458401055675e+000
 5.571953850757716e-001	 1.946832890333715e+000	 6.019240922322469e+000
 5.382995226068030e-001	 1.952142060403382e+000	 5.956024458899060e+000
 5.194015198162859e-001	 1.957254981152735e+000	 5.903957238699317e+000
 5.005042200529608e-001	 1.962172399597961e+000	 5.860867032558819e+000
 4.816104370452151e-001	 1.966895113361246e+000	 5.824622305515945e+000
 4.627229538912396e-001	 1.971423969616384e+000	 5.793134784720514e+000
 4.438445220877915e-001	 1.975759864014198e+000	 5.764361878968071e+000
 4.249778605978575e-001	 1.979903739589274e+000	 5.736308948671702e+000
 4.061256549574486e-001	 1.983856585649486e+000	 5.707031425506043e+000
 3.872905564217017e-001	 1.987619436649766e+000	 5.674636781363798e+000
 3.684751811504043e-001	 1.991193371051617e+000	 5.637286346670583e+000
 5.640743404469928e-001	 1.970867864287377e+000	 6.384217901086027e+000
 5.449451957259967e-001	 1.976242579666991e+000	 6.299814750311846e+000
 5.258138842596520e-001	 1.981418622895133e+000	 6.228123743714140e+000
 5.066832844997709e-001	 1.986396750210409e+000	 6.166883880585982e+000
 4.875562449121284e-001	 1.991177769082197e+000	 6.113875385820122e+000
 4.684355829541528e-001	 1.995762537143222e+000	 6.066922401589905e+000
 4.493240840916978e-001	 2.000151961101730e+000	 6.023895525745308e+000
 4.302245008551949e-001	 2.004346995634706e+000	 5.982714195633831e+000
 4.111395519354213e-001	 2.008348642263703e+000	 5.941348916490527e+000
 3.920719213190593e-001	 2.012157948214703e+000	 5.897823333968860e+000
 3.730242574641658e-001	 2.015776005263546e+000	 5.850216150799679e+000
 5.709532958177076e-001	 1.994902838241532e+000	 6.683355444698807e+000
 5.515908688445944e-001	 2.000343098930994e+000	 6.581121760064030e+000
 5.322262487023534e-001	 2.005582264637824e+000	 6.493078907424275e+000
 5.128623489458676e-001	 2.010621100823052e+000	 6.416874751750618e+000
 4.935020527783001e-001	 2.015460424803240e+000	 6.350199023541193e+000
 4.741482120163165e-001	 2.020101104670054e+000	 6.290786135632076e+000
 4.548036460948666e-001	 2.024544058189155e+000	 6.236417841614906e+000
 4.354711411118267e-001	 2.028790251679931e+000	 6.184925734469550e+000
 4.161534489127398e-001	 2.032840698877613e+000	 6.134193584470260e+000
 3.968532862158337e-001	 2.036696459779233e+000	 6.082159515870080e+000
 3.775733337774348e-001	 2.040358639474969e+000	 6.026818022294288e+000
 5.778322511879159e-001	 2.018937812196181e+000	 6.915847197240636e+000
 5.582365419625962e-001	 2.024443618195390e+000	 6.799169493574990e+000
 5.386386131443897e-001	 2.029745906380808e+000	 6.698078630520605e+000
 5.190414133912509e-001	 2.034845451435887e+000	 6.610128930839354e+000
 4.994478606437303e-001	 2.039743080524377e+000	 6.532917331298267e+000
 4.798608410777306e-001	 2.044439672196880e+000	 6.464086326018096e+000
 4.602832080972980e-001	 2.048936155276472e+000	 6.401326746121728e+000
 4.407177813677529e-001	 2.053233507724950e+000	 6.342380374189555e+000
 4.211673458894044e-001	 2.057332755491216e+000	 6.285042392497934e+000
 4.016346511120252e-001	 2.061234971343355e+000	 6.227163664478376e+000
 3.821224100902110e-001	 2.064941273685884e+000	 6.166652849279394e+000
 5.847112065576183e-001	 2.042972786151324e+000	 7.080874969758498e+000
 5.648822150800023e-001	 2.048544137460180e+000	 6.953170845776057e+000
 5.450509775857614e-001	 2.053909548124086e+000	 6.842368331761908e+000
 5.252204778359207e-001	 2.059069802048915e+000	 6.745925755727864e+000
 5.053936685084188e-001	 2.064025736245607e+000	 6.661344916789195e+000
 4.855734701383953e-001	 2.068778239723698e+000	 6.586174156508791e+000
 4.657627700989918e-001	 2.073328252363683e+000	 6.518011261033182e+000
 4.459644216229735e-001	 2.077676763769761e+000	 6.454506192427875e+000
 4.261812428654147e-001	 2.081824812104512e+000	 6.393363648107731e+000
 4.064160160076336e-001	 2.085773482907070e+000	 6.332345447736750e+000
 3.866714864024947e-001	 2.089523907896292e+000	 6.269272747432205e+000
 5.915901619268141e-001	 2.067007760106961e+000	 7.177609428233520e+000
 5.715278881968123e-001	 2.072644656725364e+000	 7.042328247069542e+000
 5.514633420264680e-001	 2.078073189867658e+000	 6.925183557389561e+000
 5.313995422798772e-001	 2.083294152662138e+000	 6.823535195689078e+000
 5.113394763723659e-001	 2.088308391966931e+000	 6.734787435401660e+000
 4.912860991983103e-001	 2.093116807250510e+000	 6.656392187745994e+000
 4.712423320999481e-001	 2.097720349450787e+000	 6.585852027652116e+000
 4.512110618774882e-001	 2.102120019814364e+000	 6.520723043079597e+000
 4.311951398407710e-001	 2.106316868717501e+000	 6.458617506542965e+000
 4.111973809026589e-001	 2.110311994470377e+000	 6.397206368159286e+000
 3.912205627142856e-001	 2.114106542106192e+000	 6.334221570007570e+000
 5.984691172955038e-001	 2.091042734063091e+000	 7.205210734101809e+000
 5.781735613130264e-001	 2.096745175990942e+000	 7.065834264738216e+000
 5.578757064665099e-001	 2.102236831611523e+000	 6.945750548513694e+000
 5.375786067231204e-001	 2.107518503275554e+000	 6.842218389818752e+000
 5.172852842355713e-001	 2.112591047688348e+000	 6.752542104714233e+000
 4.969987282574760e-001	 2.117455374777314e+000	 6.674074852834109e+000
 4.767218941001668e-001	 2.122112446537784e+000	 6.604221788452501e+000
 4.564577021312974e-001	 2.126563275858761e+000	 6.540443028929489e+000
 4.362090368154732e-001	 2.130808925330182e+000	 6.480256439278879e+000
 4.159787457971012e-001	 2.134850506033278e+000	 6.421240232109003e+000
 3.957696390255839e-001	 2.138689176315586e+000	 6.361035382690523e+000
 6.053480726636872e-001	 2.115077708019714e+000	 7.162829141103702e+000
 5.848192344286449e-001	 2.120845695256914e+000	 7.022872163350125e+000
 5.642880709058868e-001	 2.126400473355683e+000	 6.903286769813819e+000
 5.437576711656501e-001	 2.131742853889163e+000	 6.801228148750480e+000
 5.232310920980354e-001	 2.136873703409858e+000	 6.713898183917140e+000
 5.027113573158919e-001	 2.141793942304112e+000	 6.638548919132335e+000
 4.822014560996480e-001	 2.146504543624674e+000	 6.572485835876619e+000
 4.617043423844012e-001	 2.151006531902950e+000	 6.513070942056687e+000
 4.412229337895214e-001	 2.155300981942556e+000	 6.457725670600107e+000
 4.207601106909605e-001	 2.159389017595771e+000	 6.403933587078506e+000
 4.003187153363895e-001	 2.163271810524472e+000	 6.349242906071245e+000
 6.122270280313643e-001	 2.139112681976832e+000	 7.049605551896149e+000
 5.914649075436671e-001	 2.144946214523278e+000	 6.912616427382536e+000
 5.707004353445987e-001	 2.150564115100135e+000	 6.797001402596502e+000
 5.499367356074666e-001	 2.155967204502966e+000	 6.699809422546061e+000
 5.291768999597579e-001	 2.161156359131462e+000	 6.618137420912682e+000
 5.084239863735585e-001	 2.166132509830903e+000	 6.549133918914079e+000
 4.876810180983919e-001	 2.170896640711457e+000	 6.490002430876455e+000
 4.669509826367991e-001	 2.175449787946933e+000	 6.438004674547507e+000
 4.462368307629154e-001	 2.179793038554624e+000	 6.390463584746433e+000
 4.255414755842367e-001	 2.183927529157856e+000	 6.344766129492070e+000
 4.048677916467025e-001	 2.187854444732851e+000	 6.298365928291248e+000
 6.191059833985354e-001	 2.163147655934445e+000	 6.864672037556769e+000
 5.981105806580939e-001	 2.169046733790038e+000	 6.734233249005466e+000
 5.771127997826462e-001	 2.174727756844882e+000	 6.626095804983266e+000
 5.561158000485699e-001	 2.180191555116963e+000	 6.537199737394906e+000
 5.351227078207390e-001	 2.185439014853159e+000	 6.464534469609435e+000
 5.141366154304756e-001	 2.190471077357688e+000	 6.405142551316533e+000
 4.931605800963984e-001	 2.195288737798133e+000	 6.356123193551452e+000
 4.721976228884916e-001	 2.199893043990709e+000	 6.314635601829280e+000
 4.512507277356554e-001	 2.204285095166384e+000	 6.277902105915101e+000
 4.303228404769301e-001	 2.208466040719535e+000	 6.243211085321194e+000
 4.094168679565230e-001	 2.212437078940723e+000	 6.207919690179323e+000
 3.639261048361499e-001	 1.966610736839179e+000	 5.388458401055675e+000
 3.453650463502414e-001	 1.969955071770350e+000	 5.361141503959351e+000
 3.268285283464441e-001	 1.973115078522868e+000	 5.345354060157978e+000
 3.083190262635864e-001	 1.976091945755501e+000	 5.339257368165950e+000
 2.898389780504919e-001	 1.978886900971938e+000	 5.341056470926389e+000
 2.713907835560694e-001	 1.981501209344972e+000	 5.349001712249902e+000
 2.529768039579077e-001	 1.983936172534892e+000	 5.361390159920038e+000
 2.345993612291328e-001	 1.986193127503396e+000	 5.376566896893348e+000
 2.162607376432362e-001	 1.988273445324313e+000	 5.392926182304765e+000
 1.979631753165408e-001	 1.990178529992387e+000	 5.408912484255497e+000
 1.797088757879294e-001	 1.991909817231349e+000	 5.423021386610363e+000
 3.684751811504043e-001	 1.991193371051617e+000	 5.637286346670583e+000
 3.496821094332686e-001	 1.994579510169543e+000	 5.595908672084685e+000
 3.309138849542394e-001	 1.997779017006543e+000	 5.565875398004681e+000
 3.121730140951305e-001	 2.000793095079618e+000	 5.545289076882427e+000
 2.934619652791262e-001	 2.003622987236253e+000	 5.532297819104786e+000
 2.747831683532470e-001	 2.006269974463903e+000	 5.525096897478708e+000
 2.561390140098019e-001	 2.008735374693610e+000	 5.521930213403080e+000
 2.375318532465813e-001	 2.011020541599093e+000	 5.521091626225520e+000
 2.189639968654956e-001	 2.013126863392606e+000	 5.520926147570093e+000
 2.004377150093219e-001	 2.015055761618825e+000	 5.519831002701336e+000
 1.819552367361798e-001	 2.016808689948031e+000	 5.516256561246137e+000
 3.730242574641658e-001	 2.015776005263546e+000	 5.850216150799679e+000
 3.539991725158979e-001	 2.019203948568140e+000	 5.797583953865177e+000
 3.349992415617213e-001	 2.022442955489553e+000	 5.756030479793845e+000
 3.160270019264354e-001	 2.025494244403021e+000	 5.723597944697034e+000
 2.970849525075854e-001	 2.028359073499827e+000	 5.698376041606405e+000
 2.781755531503035e-001	 2.031038739582085e+000	 5.678503592931548e+000
 2.593012240616187e-001	 2.033534576851590e+000	 5.662170059464440e+000
 2.404643452639863e-001	 2.035847955694085e+000	 5.647616907499640e+000
 2.216672560877356e-001	 2.037980281460246e+000	 5.633138835939128e+000
 2.029122547020982e-001	 2.039932993244682e+000	 5.617084865538133e+000
 1.842015976844301e-001	 2.041707562664222e+000	 5.597859292715873e+000
 3.775733337774348e-001	 2.040358639474969e+000	 6.026818022294288e+000
 3.583162355981294e-001	 2.043828386966140e+000	 5.965765932024186e+000
 3.390845981688897e-001	 2.047106893971896e+000	 5.915446598916429e+000
 3.198809897575011e-001	 2.050195393725710e+000	 5.873840282942900e+000
 3.007079397358694e-001	 2.053095159762659e+000	 5.838976746145699e+000
 2.815679379472386e-001	 2.055807504699517e+000	 5.808936953013347e+000
 2.624634341133582e-001	 2.058333779008834e+000	 5.781854622099921e+000
 2.433968372813480e-001	 2.060675369788373e+000	 5.755917630530045e+000
 2.243705153099564e-001	 2.062833699527232e+000	 5.729369273348038e+000
 2.053867943948698e-001	 2.064810224869957e+000	 5.700509379964108e+000
 1.864479586326805e-001	 2.066606435379921e+000	 5.667695290226737e+000
 3.821224100902110e-001	 2.064941273685884e+000	 6.166652849279394e+000
 3.626332986799630e-001	 2.068452825363543e+000	 6.100044404116355e+000
 3.431699547757446e-001	 2.071770832453574e+000	 6.043742746598210e+000
 3.237349775883274e-001	 2.074896543047685e+000	 5.995664531508901e+000
 3.043309269639780e-001	 2.077831246024749e+000	 5.953778047729962e+000
 2.849603227440523e-001	 2.080576269816200e+000	 5.916104966498986e+000
 2.656256441650203e-001	 2.083132981165341e+000	 5.880721935439769e+000
 2.463293292986662e-001	 2.085502783881955e+000	 5.845762020089112e+000
 2.270737745321580e-001	 2.087687117593565e+000	 5.809415994969904e+000
 2.078613340876365e-001	 2.089687456494649e+000	 5.769933486565270e+000
 1.886943195809308e-001	 2.091505308095129e+000	 5.725623970835559e+000
 3.866714864024947e-001	 2.089523907896292e+000	 6.269272747432205e+000
 3.669503617613986e-001	 2.093077263760348e+000	 6.200000899302084e+000
 3.472553113822862e-001	 2.096434770934586e+000	 6.140530100261689e+000
 3.275889654189145e-001	 2.099597692368945e+000	 6.088711721865365e+000
 3.079539141919114e-001	 2.102567332286097e+000	 6.042451009406942e+000
 2.883527075407447e-001	 2.105345034932132e+000	 5.999708878040612e+000
 2.687878542166050e-001	 2.107932183321110e+000	 5.958503549034577e+000
 2.492618213159412e-001	 2.110330197974833e+000	 5.916912027969143e+000
 2.297770337543404e-001	 2.112540535659244e+000	 5.873071427024582e+000
 2.103358737803985e-001	 2.114564688118760e+000	 5.825180133822174e+000
 1.909406805291811e-001	 2.116404180809844e+000	 5.771498829575626e+000
 3.912205627142856e-001	 2.114106542106192e+000	 6.334221570007570e+000
 3.712674248424364e-001	 2.117701702156558e+000	 6.265209159068304e+000
 3.513406679885142e-001	 2.121098709414933e+000	 6.205412477817419e+000
 3.314429532492624e-001	 2.124298841689493e+000	 6.152615907786419e+000
 3.115769014196696e-001	 2.127303418546704e+000	 6.104660052262422e+000
 2.917450923373158e-001	 2.130113800047316e+000	 6.059443580268065e+000
 2.719500642681121e-001	 2.132731385476141e+000	 6.014924904866101e+000
 2.521943133331726e-001	 2.135157612067005e+000	 5.969123697690112e+000
 2.324802929765036e-001	 2.137393953724271e+000	 5.920122241950286e+000
 2.128104134731557e-001	 2.139441919742287e+000	 5.866066626487672e+000
 1.931870414774315e-001	 2.141303053524068e+000	 5.805167783759871e+000
 3.957696390255839e-001	 2.138689176315586e+000	 6.361035382690523e+000
 3.755844879230763e-001	 2.142326140552169e+000	 6.295235584795633e+000
 3.554260245944290e-001	 2.145762647894614e+000	 6.237986760624281e+000
 3.352969410793710e-001	 2.148999991009326e+000	 6.187004566366844e+000
 3.151998886472525e-001	 2.152039504806568e+000	 6.140063337142009e+000
 2.951374771337656e-001	 2.154882565161751e+000	 6.094997978847591e+000
 2.751122743195421e-001	 2.157530587630436e+000	 6.049705688356636e+000
 2.551268053503606e-001	 2.159985026158471e+000	 6.002147504055717e+000
 2.351835521986475e-001	 2.162247371788643e+000	 5.950349689080356e+000
 2.152849531659080e-001	 2.164319151365234e+000	 5.892404949939658e+000
 1.954334024256818e-001	 2.166201926237801e+000	 5.826473493539967e+000
 4.003187153363895e-001	 2.163271810524472e+000	 6.349242906071245e+000
 3.799015510033184e-001	 2.166950578947185e+000	 6.289639654810219e+000
 3.595113812000301e-001	 2.170426586373628e+000	 6.237843287611826e+000
 3.391509289092405e-001	 2.173701140328445e+000	 6.191498971697262e+000
 3.188228758746604e-001	 2.176775591065690e+000	 6.148313120346992e+000
 2.985298619300941e-001	 2.179651330275435e+000	 6.106055332650045e+000
 2.782744843708945e-001	 2.182329789783994e+000	 6.062560155446374e+000
 2.580592973675053e-001	 2.184812440249233e+000	 6.015728669557627e+000
 2.378868114207722e-001	 2.187100789852362e+000	 5.963529902774713e+000
 2.177594928586556e-001	 2.189196382987598e+000	 5.904002072417713e+000
 1.976797633739321e-001	 2.191100798951041e+000	 5.835253660608514e+000
 4.048677916467025e-001	 2.187854444732851e+000	 6.298365928291248e+000
 3.842186140831626e-001	 2.191575017341604e+000	 6.247974313319499e+000
 3.635967378053180e-001	 2.195090524851978e+000	 6.204566222832690e+000
 3.430049167388707e-001	 2.198402289646850e+000	 6.165714543347208e+000
 3.224458631018928e-001	 2.201511677324071e+000	 6.129056085349662e+000
 3.019222467263013e-001	 2.204420095388370e+000	 6.092293570986851e+000
 2.814366944221695e-001	 2.207128991936814e+000	 6.053197437620681e+000
 2.609917893846066e-001	 2.209639854339290e+000	 6.009607459449320e+000
 2.405900706428777e-001	 2.211954207915429e+000	 5.959434189778065e+000
 2.202340325513984e-001	 2.214073614609379e+000	 5.900660226885364e+000
 1.999261243221825e-001	 2.215999671663790e+000	 5.831341306764017e+000
 4.094168679565230e-001	 2.212437078940723e+000	 6.207919690179323e+000
 3.885356771626090e-001	 2.216199455735425e+000	 6.169786333417970e+000
 3.676820944102924e-001	 2.219754463329662e+000	 6.137733898510764e+000
 3.468589045682616e-001	 2.223103438964542e+000	 6.109261171616591e+000
 3.260688503289501e-001	 2.226247763581710e+000	 6.081933652395793e+000
 3.053146315223872e-001	 2.229188860500556e+000	 6.053385589696539e+000
 2.845989044733674e-001	 2.231928194088898e+000	 6.021321826601866e+000
 2.639242814016646e-001	 2.234467268428642e+000	 5.983519457147984e+000
 2.432933298649641e-001	 2.236807625977843e+000	 5.937829297419575e+000
 2.227085722441365e-001	 2.238950846230580e+000	 5.882177174100549e+000
 2.021724852704328e-001	 2.240898544376048e+000	 5.814565033905154e+000
 1.797088757879294e-001	 1.991909817231349e+000	 5.423021386610363e+000
 1.614999996355343e-001	 1.993468773302665e+000	 5.463109182452417e+000
 1.433386661295952e-001	 1.994856893815574e+000	 5.506650202765798e+000
 1.252269529212347e-001	 1.996075702539929e+000	 5.552185319818744e+000
 1.071668957668299e-001	 1.997126750223276e+000	 5.598305072117079e+000
 8.916048828710535e-002	 1.998011613412721e+000	 5.643650167038230e+000
 7.120968176046696e-002	 1.998731893282784e+000	 5.686911874768933e+000
 5.331638494996584e-002	 1.999289214470238e+000	 5.726832316813936e+000
 3.548246396324870e-002	 1.999685223916897e+000	 5.762204652472445e+000
 1.770974214483060e-002	 1.999921589721275e+000	 5.791873166795478e+000
 0.000000000000000e+000	 2.000000000000000e+000	 5.814733263633873e+000
 1.819552367361798e-001	 2.016808689948031e+000	 5.516256561246137e+000
 1.635187496314781e-001	 2.018387132969990e+000	 5.538085563343051e+000
 1.451303994563842e-001	 2.019792604989089e+000	 5.564125803106291e+000
 1.267922898326589e-001	 2.021026648822303e+000	 5.592876645017324e+000
 1.085064819636337e-001	 2.022090834601525e+000	 5.622887993175948e+000
 9.027499439029102e-002	 2.022986758580697e+000	 5.652760827181495e+000
 7.209980278201651e-002	 2.023716041949021e+000	 5.681147625979650e+000
 5.398283976139859e-002	 2.024280329651229e+000	 5.706752683021188e+000
 3.592599476242884e-002	 2.024681289215908e+000	 5.728332316212514e+000
 1.793111392142803e-002	 2.024920609592803e+000	 5.744694976259181e+000
 0.000000000000000e+000	 2.025000000000000e+000	 5.754701257103815e+000
 1.842015976844301e-001	 2.041707562664222e+000	 5.597859292715873e+000
 1.655374996274219e-001	 2.043305492636919e+000	 5.604023495281550e+000
 1.469221327831731e-001	 2.044728316162292e+000	 5.615027813292072e+000
 1.283576267440832e-001	 2.045977595104440e+000	 5.629329682638983e+000
 1.098460681604373e-001	 2.047054918979600e+000	 5.645438068499987e+000
 9.138950049347672e-002	 2.047961903748553e+000	 5.661914032525427e+000
 7.298992380356607e-002	 2.048700190615181e+000	 5.677371184536900e+000
 5.464929457283133e-002	 2.049271444832177e+000	 5.690476022168820e+000
 3.636952556160897e-002	 2.049677354514900e+000	 5.699948162025513e+000
 1.815248569802546e-002	 2.049919629464327e+000	 5.704560466046480e+000
 0.000000000000000e+000	 2.050000000000000e+000	 5.703139066883871e+000
 1.864479586326805e-001	 2.066606435379921e+000	 5.667695290226737e+000
 1.675562496233656e-001	 2.068223852303450e+000	 5.660795586089254e+000
 1.487138661099620e-001	 2.069664027335182e+000	 5.659237162711850e+000
 1.299229636555074e-001	 2.070928541386338e+000	 5.661435079620638e+000
 1.111856543572410e-001	 2.072019003357499e+000	 5.665857031717093e+000
 9.250400659666239e-002	 2.072937048916287e+000	 5.671023945847119e+000
 7.388004482511562e-002	 2.073684339281264e+000	 5.675510458310539e+000
 5.531574938426406e-002	 2.074262560013081e+000	 5.677945276837642e+000
 3.681305636078910e-002	 2.074673419813873e+000	 5.677011430698909e+000
 1.837385747462289e-002	 2.074918649335846e+000	 5.671446412744886e+000
 0.000000000000000e+000	 2.075000000000000e+000	 5.660042217285215e+000
 1.886943195809308e-001	 2.091505308095129e+000	 5.725623970835559e+000
 1.695749996193094e-001	 2.093142211969584e+000	 5.708269300505386e+000
 1.505055994367510e-001	 2.094599738507759e+000	 5.696630673769787e+000
 1.314883005669316e-001	 2.095879487667998e+000	 5.689080299777161e+000
 1.125252405540447e-001	 2.096983087735225e+000	 5.684044245745308e+000
 9.361851269984806e-002	 2.097912194083901e+000	 5.680003061007135e+000
 7.477016584666514e-002	 2.098668487947270e+000	 5.675492278309642e+000
 5.598220419569681e-002	 2.099253675193944e+000	 5.669102795989939e+000
 3.725658715996924e-002	 2.099669485112827e+000	 5.659481144800246e+000
 1.859522925122032e-002	 2.099917669207360e+000	 5.645329643287390e+000
 0.000000000000000e+000	 2.100000000000000e+000	 5.625406445747331e+000
 1.909406805291811e-001	 2.116404180809844e+000	 5.771498829575626e+000
 1.715937496152531e-001	 2.118060571635321e+000	 5.746307262720625e+000
 1.522973327635400e-001	 2.119535449680024e+000	 5.727081303472914e+000
 1.330536374783559e-001	 2.120830433949419e+000	 5.712149811044131e+000
 1.138648267508484e-001	 2.121947172112776e+000	 5.699896842245524e+000
 9.473301880303371e-002	 2.122887339251393e+000	 5.688762301120703e+000
 7.566028686821472e-002	 2.123652636613199e+000	 5.677242462026548e+000
 5.664865900712956e-002	 2.124244790374762e+000	 5.663890369887976e+000
 3.770011795914937e-002	 2.124665550411762e+000	 5.647316121513423e+000
 1.881660102781774e-002	 2.124916689078869e+000	 5.626187031990273e+000
 0.000000000000000e+000	 2.125000000000000e+000	 5.599227690300650e+000
 1.931870414774315e-001	 2.141303053524068e+000	 5.805167783759871e+000
 1.736124996111969e-001	 2.142978931300661e+000	 5.774767537805317e+000
 1.540890660903289e-001	 2.144471160851976e+000	 5.750458368163667e+000
 1.346189743897801e-001	 2.145781380230602e+000	 5.730525259656612e+000
 1.152044129476521e-001	 2.146911256490152e+000	 5.713309851345882e+000
 9.584752490621940e-002	 2.147862484418765e+000	 5.697211109880429e+000
 7.655040788976425e-002	 2.148636785279050e+000	 5.680685872362767e+000
 5.731511381856230e-002	 2.149235905555538e+000	 5.662249262576999e+000
 3.814364875832950e-002	 2.149661615710678e+000	 5.640474984579767e+000
 1.903797280441517e-002	 2.149915708950374e+000	 5.613995497798732e+000
 0.000000000000000e+000	 2.150000000000000e+000	 5.581502077904394e+000
 1.954334024256818e-001	 2.166201926237801e+000	 5.826473493539967e+000
 1.756312496071406e-001	 2.167897290965605e+000	 5.793503893727073e+000
 1.558807994171179e-001	 2.169406872023616e+000	 5.766627752753409e+000
 1.361843113012044e-001	 2.170732326511546e+000	 5.744085632316053e+000
 1.165439991444558e-001	 2.171875340867353e+000	 5.724176322420263e+000
 9.696203100940506e-002	 2.172837629586016e+000	 5.705257536580357e+000
 7.744052891131380e-002	 2.173620933944825e+000	 5.685746472490339e+000
 5.798156862999504e-002	 2.174227020736269e+000	 5.664120242127290e+000
 3.858717955750964e-002	 2.174657681009574e+000	 5.638916175415231e+000
 1.925934458101260e-002	 2.174914728821873e+000	 5.608732001721747e+000
 0.000000000000000e+000	 2.175000000000000e+000	 5.572225913588706e+000
 1.976797633739321e-001	 2.191100798951041e+000	 5.835253660608514e+000
 1.776499996030844e-001	 2.192815650630152e+000	 5.802366045504408e+000
 1.576725327439068e-001	 2.194342583194942e+000	 5.775452105689873e+000
 1.377496482126286e-001	 2.195683272792251e+000	 5.752707407299656e+000
 1.178835853412595e-001	 2.196839425244380e+000	 5.732387436630075e+000
 9.807653711259075e-002	 2.197812774753146e+000	 5.712808315343382e+000
 7.833064993286333e-002	 2.198605082610522e+000	 5.692347376972768e+000
 5.864802344142778e-002	 2.199218135916958e+000	 5.669443608814677e+000
 3.903071035668978e-002	 2.199653746308452e+000	 5.642597963469943e+000
 1.948071635761003e-002	 2.199913748693368e+000	 5.610373544442136e+000
 0.000000000000000e+000	 2.199999999999999e+000	 5.571395670336752e+000
 1.999261243221825e-001	 2.215999671663790e+000	 5.831341306764017e+000
 1.796687495990281e-001	 2.217734010294301e+000	 5.801199882900914e+000
 1.594642660706957e-001	 2.219278294365957e+000	 5.776791020781325e+000
 1.393149851240528e-001	 2.220634219072718e+000	 5.756264695384245e+000
 1.192231715380632e-001	 2.221803509621232e+000	 5.737832611880740e+000
 9.919104321577643e-002	 2.222787919920156e+000	 5.719768939006930e+000
 7.922077095441289e-002	 2.223589231276143e+000	 5.700410899439746e+000
 5.931447825286054e-002	 2.224209251097604e+000	 5.678159221401155e+000
 3.947424115586991e-002	 2.224649811607310e+000	 5.651478455889037e+000
 1.970208813420746e-002	 2.224912768564859e+000	 5.618897164087804e+000
 0.000000000000000e+000	 2.224999999999999e+000	 5.579007979649465e+000
 2.021724852704328e-001	 2.240898544376048e+000	 5.814565033905154e+000
 1.816874995949720e-001	 2.242652369958055e+000	 5.789847682939227e+000
 1.612559993974847e-001	 2.244214005536660e+000	 5.770501206898571e+000
 1.408803220354772e-001	 2.245585165352948e+000	 5.754629371372266e+000
 1.205627577348670e-001	 2.246767593997911e+000	 5.740399600780084e+000
 1.003055493189621e-001	 2.247763065087045e+000	 5.726043728083802e+000
 8.011089197596248e-002	 2.248573379941687e+000	 5.709858597083498e+000
 5.998093306429331e-002	 2.249200366278207e+000	 5.690206521663247e+000
 3.991777195505006e-002	 2.249645876906150e+000	 5.665515606529803e+000
 1.992345991080489e-002	 2.249911788436345e+000	 5.634279934151358e+000
 0.000000000000000e+000	 2.250000000000000e+000	 5.595059622738865e+000
 2.250000000000000e+000	 0.000000000000000e+000	 1.175797396202822e+001
 2.249911788436345e+000	 1.992345991080426e-002	 1.176632295206087e+001
 2.249645876906150e+000	 3.991777195504948e-002	 1.177578456701655e+001
 2.249200366278207e+000	 5.998093306429280e-002	 1.178604080591459e+001
 2.248573379941687e+000	 8.011089197596204e-002	 1.179675700288345e+001
 2.247763065087045e+000	 1.003055493189618e-001	 1.180758180903766e+001
 2.246767593997911e+000	 1.205627577348667e-001	 1.181814720597961e+001
 2.245585165352948e+000	 1.408803220354769e-001	 1.182806855211914e+001
 2.244214005536660e+000	 1.612559993974846e-001	 1.183694466296644e+001
 2.242652369958055e+000	 1.816874995949719e-001	 1.184435792651375e+001
 2.240898544376048e+000	 2.021724852704328e-001	 1.184987445477453e+001
 2.275000000000000e+000	 0.000000000000000e+000	 1.169884849088885e+001
 2.274910808307830e+000	 2.014483168749044e-002	 1.170858957870341e+001
 2.274641942204990e+000	 4.036130275438817e-002	 1.171978348083329e+001
 2.274191481458810e+000	 6.064738787593468e-002	 1.173206779894763e+001
 2.273557528607230e+000	 8.100101299775189e-002	 1.174506207056230e+001
 2.272738210253934e+000	 1.014200554223994e-001	 1.175836776367399e+001
 2.271731678374588e+000	 1.219023439319140e-001	 1.177156830540641e+001
 2.270536111633176e+000	 1.424456589471165e-001	 1.178422914591838e+001
 2.269149716707362e+000	 1.630477327244403e-001	 1.179589785878468e+001
 2.267570729621808e+000	 1.837062495910135e-001	 1.180610427901561e+001
 2.265797417088305e+000	 2.044188462186914e-001	 1.181436067983137e+001
 2.300000000000000e+000	 0.000000000000000e+000	 1.165199305133214e+001
 2.299909828179320e+000	 2.036620346435412e-002	 1.166166214048310e+001
 2.299638007503847e+000	 4.080483355404389e-002	 1.167313995458734e+001
 2.299182596639455e+000	 6.131384268799480e-002	 1.168602025164457e+001
 2.298541677272850e+000	 8.189113402002239e-002	 1.169987731679259e+001
 2.297713355420943e+000	 1.025345615263407e-001	 1.171426596909712e+001
 2.296695762751440e+000	 1.232419301294487e-001	 1.172872160474694e+001
 2.295487057913643e+000	 1.440109958591868e-001	 1.174276027796336e+001
 2.294085427878376e+000	 1.648394660517298e-001	 1.175587882089033e+001
 2.292489089285957e+000	 1.857249995872509e-001	 1.176755500368362e+001
 2.290696289801054e+000	 2.066652071669667e-001	 1.177724773596393e+001
 2.325000000000000e+000	 0.000000000000000e+000	 1.161691261030837e+001
 2.324908848050816e+000	 2.058757524139532e-002	 1.162510888617896e+001
 2.324634072802724e+000	 4.124836435401671e-002	 1.163548576525186e+001
 2.324173711820144e+000	 6.198029750047319e-002	 1.164759369247342e+001
 2.323525825938548e+000	 8.278125504277353e-002	 1.166096222115578e+001
 2.322688500588074e+000	 1.036490676307858e-001	 1.167510003132613e+001
 2.321659847128467e+000	 1.245815163274705e-001	 1.168949498688217e+001
 2.320438004194349e+000	 1.455763327716879e-001	 1.170361423292263e+001
 2.319021139049704e+000	 1.666311993793529e-001	 1.171690433457632e+001
 2.317407448950504e+000	 1.877437495836841e-001	 1.172879145860184e+001
 2.315595162514295e+000	 2.089115681152584e-001	 1.173868159897263e+001
 2.350000000000000e+000	 0.000000000000000e+000	 1.159313320000315e+001
 2.349907867922315e+000	 2.080894701861403e-002	 1.159851673472024e+001
 2.349630138101621e+000	 4.169189515430661e-002	 1.160646896436055e+001
 2.349164827000877e+000	 6.264675231336984e-002	 1.161649752926617e+001
 2.348509974604323e+000	 8.367137606600530e-002	 1.162808774870627e+001
 2.347663645755325e+000	 1.047635737357347e-001	 1.164070265019474e+001
 2.346623931505669e+000	 1.259211025259797e-001	 1.165378304002302e+001
 2.345388950475293e+000	 1.471416696846196e-001	 1.166674761643832e+001
 2.343956850221343e+000	 1.684229327073097e-001	 1.167899312684894e+001
 2.342325808615448e+000	 1.897624995803130e-001	 1.168989457038393e+001
 2.340494035228027e+000	 2.111579290635668e-001	 1.169880544707321e+001
 2.375000000000000e+000	 0.000000000000000e+000	 1.158020080914087e+001
 2.374906887793820e+000	 2.103031879601026e-002	 1.158149029254684e+001
 2.374626203400537e+000	 4.213542595491358e-002	 1.158575302145180e+001
 2.374155942181652e+000	 6.331320712668474e-002	 1.159245431872594e+001
 2.373494123270175e+000	 8.456149708971773e-002	 1.160103574547289e+001
 2.372638790922696e+000	 1.058780798411875e-001	 1.161091514072946e+001
 2.371588015883045e+000	 1.272606887249762e-001	 1.162148670479822e+001
 2.370339896756476e+000	 1.487070065979821e-001	 1.163212112770643e+001
 2.368892561393295e+000	 1.702146660356002e-001	 1.164216576423231e+001
 2.367244168280788e+000	 1.917812495771377e-001	 1.165094485688225e+001
 2.365392907942251e+000	 2.134042900118918e-001	 1.165775980813798e+001
 2.400000000000000e+000	 0.000000000000000e+000	 1.157768034358167e+001
 2.399905907665330e+000	 2.125169057358399e-002	 1.157365093238499e+001
 2.399622268699472e+000	 4.257895675583762e-002	 1.157301602104768e+001
 2.399147057362470e+000	 6.397966194041792e-002	 1.157519908158986e+001
 2.398478271936104e+000	 8.545161811391079e-002	 1.157959837174146e+001
 2.397613936090188e+000	 1.069925859471440e-001	 1.158558698444167e+001
 2.396552100260595e+000	 1.286002749244599e-001	 1.159251294339926e+001
 2.395290843037896e+000	 1.502723435117752e-001	 1.159969934627097e+001
 2.393828272565560e+000	 1.720063993642244e-001	 1.160644455696023e+001
 2.392162527946525e+000	 1.937999995741582e-001	 1.161202244847745e+001
 2.390291780656967e+000	 2.156506509602334e-001	 1.161568269773456e+001
 2.425000000000000e+000	 0.000000000000000e+000	 1.158515465121140e+001
 2.424904927536844e+000	 2.147306235133523e-002	 1.157463592900563e+001
 2.424618333998425e+000	 4.302248755707874e-002	 1.156794990930425e+001
 2.424138172543332e+000	 6.464611675456937e-002	 1.156447866015324e+001
 2.423462420602109e+000	 8.634173913858448e-002	 1.156357757039209e+001
 2.422589081257803e+000	 1.081070920536042e-001	 1.156457540837480e+001
 2.421516184638321e+000	 1.299398611244310e-001	 1.156677442919052e+001
 2.420241789319556e+000	 1.518376804259992e-001	 1.156945053200592e+001
 2.418763983738137e+000	 1.737981326931823e-001	 1.157185346909425e+001
 2.417080887612659e+000	 1.958187495713745e-001	 1.157320710805122e+001
 2.415190653372174e+000	 2.178970119085915e-001	 1.157270974862610e+001
 2.449999999999999e+000	 0.000000000000000e+000	 1.160222360653218e+001
 2.449903947408363e+000	 2.169443412926399e-002	 1.158409764789557e+001
 2.449614399297399e+000	 4.346601835863694e-002	 1.157025978678532e+001
 2.449129287724237e+000	 6.531257156913906e-002	 1.156005111512875e+001
 2.448446569268192e+000	 8.723186016373880e-002	 1.155278456778714e+001
 2.447564226425537e+000	 1.092215981605683e-001	 1.154774498992403e+001
 2.446480269016221e+000	 1.312794473248893e-001	 1.154418925532294e+001
 2.445192735601454e+000	 1.534030173406537e-001	 1.154134643734343e+001
 2.443699694911027e+000	 1.755898660224737e-001	 1.153841803414463e+001
 2.441999247279191e+000	 1.978374995687864e-001	 1.153457824973633e+001
 2.440089526087873e+000	 2.201433728569663e-001	 1.152897433234301e+001
 2.474999999999999e+000	 0.000000000000000e+000	 1.162850325073231e+001
 2.474902967279886e+000	 2.191580590737025e-002	 1.160170278310030e+001
 2.474610464596390e+000	 4.390954916051220e-002	 1.157966324409856e+001
 2.474120402905185e+000	 6.597902638412702e-002	 1.156168515905973e+001
 2.473430717934352e+000	 8.812198118937380e-002	 1.154703940490861e+001
 2.472539371593392e+000	 1.103361042680361e-001	 1.153496728560660e+001
 2.471444353394296e+000	 1.326190335258349e-001	 1.152468066100738e+001
 2.470143681883590e+000	 1.549683542557390e-001	 1.151536213088183e+001
 2.468635406084229e+000	 1.773815993520989e-001	 1.150616527580529e+001
 2.466917606946119e+000	 1.998562495663942e-001	 1.149621495653012e+001
 2.464988398804064e+000	 2.223897338053576e-001	 1.148460767338655e+001
 2.500000000000000e+000	 0.000000000000000e+000	 1.166362498335196e+001
 2.499901987151415e+000	 2.213717768565403e-002	 1.162713164079589e+001
 2.499606529895403e+000	 4.435307996270457e-002	 1.159588973739315e+001
 2.499111518086177e+000	 6.664548119953326e-002	 1.156915962372864e+001
 2.498414866600589e+000	 8.901210221548943e-002	 1.154617049662711e+001
 2.497514516761369e+000	 1.114506103760078e-001	 1.152612048210545e+001
 2.496408437772546e+000	 1.339586197272678e-001	 1.150817677421169e+001
 2.495094628165966e+000	 1.565336911712552e-001	 1.149147583157749e+001
 2.493571117257745e+000	 1.791733326820579e-001	 1.147512363344467e+001
 2.491835966613445e+000	 2.018749995641979e-001	 1.145819599685131e+001
 2.489887271520747e+000	 2.246360947537655e-001	 1.143973895658035e+001
 2.240898544376048e+000	 2.021724852704328e-001	 1.184987445477453e+001
 2.238950846230580e+000	 2.227085722441359e-001	 1.186872606867363e+001
 2.236807625977843e+000	 2.432933298649636e-001	 1.188635155430788e+001
 2.234467268428643e+000	 2.639242814016641e-001	 1.190221964906414e+001
 2.231928194088898e+000	 2.845989044733670e-001	 1.191578158846257e+001
 2.229188860500555e+000	 3.053146315223869e-001	 1.192647145441704e+001
 2.226247763581711e+000	 3.260688503289499e-001	 1.193370656749448e+001
 2.223103438964543e+000	 3.468589045682617e-001	 1.193688792383596e+001
 2.219754463329662e+000	 3.676820944102924e-001	 1.193540067731042e+001
 2.216199455735425e+000	 3.885356771626091e-001	 1.192861466737517e+001
 2.212437078940723e+000	 4.094168679565229e-001	 1.191588499301457e+001
 2.265797417088305e+000	 2.044188462186914e-001	 1.181436067983137e+001
 2.263828077851779e+000	 2.251831119367893e-001	 1.183392247149664e+001
 2.261661044040257e+000	 2.459965890868868e-001	 1.185190940883088e+001
 2.259294682517993e+000	 2.668567734184952e-001	 1.186777078728694e+001
 2.256727396240981e+000	 2.877611145242888e-001	 1.188093811743548e+001
 2.253957625612741e+000	 3.087070163181626e-001	 1.189082549360398e+001
 2.250983849839349e+000	 3.296918375556778e-001	 1.189683000782044e+001
 2.247804588282233e+000	 3.507128923973188e-001	 1.189833220972917e+001
 2.244418401807346e+000	 3.717674510149444e-001	 1.189469661304990e+001
 2.240823894129246e+000	 3.928527402417595e-001	 1.188527224905223e+001
 2.237019713148594e+000	 4.139659442660895e-001	 1.186939326741021e+001
 2.290696289801054e+000	 2.066652071669667e-001	 1.177724773596393e+001
 2.288705309473562e+000	 2.276576516292786e-001	 1.179793402458476e+001
 2.286514462103322e+000	 2.486998483085035e-001	 1.181672721743038e+001
 2.284122096608050e+000	 2.697892654349162e-001	 1.183305701626248e+001
 2.281526598393801e+000	 2.909233245747360e-001	 1.184633502589071e+001
 2.278726390725676e+000	 3.120994011134392e-001	 1.185595514292227e+001
 2.275719936097730e+000	 3.333148247819218e-001	 1.186129399116139e+001
 2.272505737600639e+000	 3.545668802259482e-001	 1.186171140433108e+001
 2.269082340285696e+000	 3.758528076192648e-001	 1.185655095669137e+001
 2.265448332523665e+000	 3.971698033207162e-001	 1.184514054202374e+001
 2.261602347356972e+000	 4.185150205756415e-001	 1.182679300134263e+001
 2.315595162514295e+000	 2.089115681152584e-001	 1.173868159897263e+001
 2.313582541095926e+000	 2.301321913216035e-001	 1.176091657904554e+001
 2.311367880167042e+000	 2.514031075298135e-001	 1.178097038167759e+001
 2.308949510698813e+000	 2.727217574509269e-001	 1.179825295316698e+001
 2.306325800547358e+000	 2.940855346247088e-001	 1.181215580166737e+001
 2.303495155839361e+000	 3.154917859082166e-001	 1.182205240578856e+001
 2.300456022356853e+000	 3.369378120076823e-001	 1.182729867123147e+001
 2.297206886919757e+000	 3.584208680541495e-001	 1.182723343613674e+001
 2.293746278764711e+000	 3.799381642232539e-001	 1.182117902572456e+001
 2.290072770918680e+000	 4.014868663994791e-001	 1.180844185669566e+001
 2.286184981565858e+000	 4.230640968851787e-001	 1.178831309175045e+001
 2.340494035228027e+000	 2.111579290635668e-001	 1.169880544707321e+001
 2.338459772718871e+000	 2.326067310137641e-001	 1.172302316055397e+001
 2.336221298231414e+000	 2.541063667508169e-001	 1.174480147229751e+001
 2.333776924790279e+000	 2.756542494665274e-001	 1.176353040157379e+001
 2.331125002701653e+000	 2.972477446742072e-001	 1.177858115911544e+001
 2.328263920953794e+000	 3.188841707024950e-001	 1.178930657531796e+001
 2.325192108616717e+000	 3.405607992329588e-001	 1.179504157789840e+001
 2.321908036239591e+000	 3.622748558819232e-001	 1.179510371970013e+001
 2.318410217244391e+000	 3.840235208269116e-001	 1.178879375722617e+001
 2.314697209314293e+000	 4.058039294780482e-001	 1.177539628037245e+001
 2.310767615775252e+000	 4.276131731947014e-001	 1.175418039371550e+001
 2.365392907942251e+000	 2.134042900118918e-001	 1.165775980813798e+001
 2.363337004342399e+000	 2.350812707057606e-001	 1.168440411805935e+001
 2.361074716296441e+000	 2.568096259715136e-001	 1.170838037816073e+001
 2.358604338882452e+000	 2.785867414817178e-001	 1.172905849953767e+001
 2.355924204856685e+000	 3.004099547232311e-001	 1.174578918506879e+001
 2.353032686068978e+000	 3.222765554962743e-001	 1.175790437697150e+001
 2.349928194877324e+000	 3.441837864577518e-001	 1.176471775528059e+001
 2.346609185560137e+000	 3.661288437092686e-001	 1.176552528794688e+001
 2.343074155724738e+000	 3.881088774302378e-001	 1.175960583314467e+001
 2.339321647710502e+000	 4.101209925564235e-001	 1.174622179426238e+001
 2.335350249985152e+000	 4.321622495042093e-001	 1.172461982792898e+001
 2.390291780656967e+000	 2.156506509602334e-001	 1.161568269773456e+001
 2.388214235966510e+000	 2.375558103975928e-001	 1.164520726319821e+001
 2.385928134362120e+000	 2.595128851919036e-001	 1.167186444596349e+001
 2.383431752975329e+000	 2.815192334964980e-001	 1.169500385842403e+001
 2.380723407012454e+000	 3.035721647717806e-001	 1.171395547569506e+001
 2.377801451184912e+000	 3.256689402895545e-001	 1.172803010228814e+001
 2.374664281138672e+000	 3.478067736820609e-001	 1.173651989121330e+001
 2.371310334881399e+000	 3.699828315361862e-001	 1.173869891621738e+001
 2.367738094205750e+000	 3.921942340332327e-001	 1.173382379775501e+001
 2.363946086107307e+000	 4.144380556346051e-001	 1.172113438317009e+001
 2.359932884195560e+000	 4.367113258137025e-001	 1.169985448144101e+001
 2.415190653372174e+000	 2.178970119085915e-001	 1.157270974862610e+001
 2.413091467591202e+000	 2.400303500892606e-001	 1.160557800108351e+001
 2.410781552428453e+000	 2.622161444119871e-001	 1.163540861126748e+001
 2.408259167068910e+000	 2.844517255108679e-001	 1.166153069315051e+001
 2.405522609168961e+000	 3.067343748198556e-001	 1.168325326488049e+001
 2.402570216301594e+000	 3.290613250823355e-001	 1.169986573434470e+001
 2.399400367400761e+000	 3.514297609058864e-001	 1.171063843870648e+001
 2.396011484203374e+000	 3.738368193626758e-001	 1.171482323863719e+001
 2.392402032687428e+000	 3.962795906358961e-001	 1.171165416784784e+001
 2.388570524504710e+000	 4.187551187125929e-001	 1.170034813840397e+001
 2.384515518406475e+000	 4.412604021231812e-001	 1.168010570217819e+001
 2.440089526087873e+000	 2.201433728569663e-001	 1.152897433234301e+001
 2.437968699216476e+000	 2.425048897807643e-001	 1.156565945308661e+001
 2.435634970495439e+000	 2.649194036317638e-001	 1.159916552151699e+001
 2.433086581163199e+000	 2.873842175248279e-001	 1.162880094445475e+001
 2.430321811326204e+000	 3.098965848674560e-001	 1.165385354475450e+001
 2.427338981419025e+000	 3.324537098746175e-001	 1.167359106553441e+001
 2.424136453663593e+000	 3.550527481292282e-001	 1.168726172996647e+001
 2.420712633526063e+000	 3.776908071887374e-001	 1.169409485736266e+001
 2.417065971169772e+000	 4.003649472382281e-001	 1.169330153617269e+001
 2.413194962902710e+000	 4.230721817903868e-001	 1.168407535438308e+001
 2.409098152617898e+000	 4.458094784326451e-001	 1.166559318767435e+001
 2.464988398804064e+000	 2.223897338053576e-001	 1.148460767338655e+001
 2.462845930842334e+000	 2.449794294721036e-001	 1.152559257217763e+001
 2.460488388563079e+000	 2.676226628512340e-001	 1.156328565160029e+001
 2.457913995258191e+000	 2.903167095383774e-001	 1.159697439375208e+001
 2.455121013484184e+000	 3.130587949145822e-001	 1.162592517890965e+001
 2.452107746537208e+000	 3.358460946664004e-001	 1.164938380820764e+001
 2.448872539927167e+000	 3.586757353520862e-001	 1.166657608350735e+001
 2.445413782849466e+000	 3.815447950143711e-001	 1.167670844520564e+001
 2.441729909652781e+000	 4.044503038402286e-001	 1.167896866861173e+001
 2.437819401301307e+000	 4.273892448679871e-001	 1.167252661938917e+001
 2.433680786829828e+000	 4.503585547420945e-001	 1.165653506842378e+001
 2.489887271520747e+000	 2.246360947537655e-001	 1.143973895658035e+001
 2.487723162468774e+000	 2.474539691632789e-001	 1.148551625134559e+001
 2.485341806631373e+000	 2.703259220703975e-001	 1.152791741247759e+001
 2.482741409353889e+000	 2.932492015515170e-001	 1.156620877110151e+001
 2.479920215642903e+000	 3.162210049612340e-001	 1.159963500882857e+001
 2.476876511656140e+000	 3.392384794576842e-001	 1.162741969867397e+001
 2.473608626191484e+000	 3.622987225744606e-001	 1.164876590483549e+001
 2.470114932173584e+000	 3.853987828395771e-001	 1.166285684210072e+001
 2.466393848136457e+000	 4.085356604418979e-001	 1.166885659552306e+001
 2.462443839700501e+000	 4.317063079453937e-001	 1.166591090087351e+001
 2.458263421042266e+000	 4.549076310515292e-001	 1.165314798623316e+001
 2.212437078940723e+000	 4.094168679565229e-001	 1.191588499301457e+001
 2.208466040719535e+000	 4.303228404769294e-001	 1.197161299376748e+001
 2.204285095166384e+000	 4.512507277356548e-001	 1.202120771108532e+001
 2.199893043990709e+000	 4.721976228884912e-001	 1.206397993997134e+001
 2.195288737798134e+000	 4.931605800963981e-001	 1.209922731804360e+001
 2.190471077357688e+000	 5.141366154304753e-001	 1.212623510764230e+001
 2.185439014853160e+000	 5.351227078207387e-001	 1.214427702475607e+001
 2.180191555116964e+000	 5.561158000485698e-001	 1.215261611435495e+001
 2.174727756844882e+000	 5.771127997826461e-001	 1.215050567158071e+001
 2.169046733790038e+000	 5.981105806580940e-001	 1.213719020810642e+001
 2.163147655934445e+000	 6.191059833985354e-001	 1.211190646283541e+001
 2.237019713148594e+000	 4.139659442660895e-001	 1.186939326741021e+001
 2.233004552281214e+000	 4.351042053694189e-001	 1.192184401181684e+001
 2.228777151778144e+000	 4.562646247082412e-001	 1.196855441870591e+001
 2.224336300034484e+000	 4.774442631400799e-001	 1.200882089372669e+001
 2.219680834884810e+000	 4.986401420943508e-001	 1.204192592366625e+001
 2.214809644884473e+000	 5.198492444873889e-001	 1.206713887137627e+001
 2.209721670574856e+000	 5.410685156817663e-001	 1.208371681921538e+001
 2.204415905730960e+000	 5.622948644897696e-001	 1.209090546060359e+001
 2.198891398589630e+000	 5.835251642208402e-001	 1.208794003914506e+001
 2.193147253056797e+000	 6.047562537727174e-001	 1.207404633463150e+001
 2.187182629892056e+000	 6.259849387659531e-001	 1.205090273756247e+001
 2.261602347356972e+000	 4.185150205756415e-001	 1.182679300134263e+001
 2.257543063843300e+000	 4.398855702620842e-001	 1.187665001522433e+001
 2.253269208390209e+000	 4.612785216811742e-001	 1.192116665183000e+001
 2.248779556078465e+000	 4.826909033921671e-001	 1.195962431880659e+001
 2.244072931971593e+000	 5.041197040929341e-001	 1.199128972368047e+001
 2.239148212411263e+000	 5.255618735450451e-001	 1.201541568207161e+001
 2.234004326296460e+000	 5.470143235436287e-001	 1.203124197616392e+001
 2.228640256344763e+000	 5.684739289318761e-001	 1.203799626303746e+001
 2.223055040334082e+000	 5.899375286599927e-001	 1.203489503232414e+001
 2.217247772323162e+000	 6.114019268883302e-001	 1.202114461249968e+001
 2.211217603849173e+000	 6.328638941343707e-001	 1.201114680122057e+001
 2.286184981565858e+000	 4.230640968851787e-001	 1.178831309175045e+001
 2.282081575405792e+000	 4.446669351549252e-001	 1.183626688618427e+001
 2.277761265002584e+000	 4.662924186544543e-001	 1.187928751613343e+001
 2.273222812122656e+000	 4.879375436447529e-001	 1.191664077745344e+001
 2.268465029058483e+000	 5.095992660921479e-001	 1.194757696454749e+001
 2.263486779938061e+000	 5.312745026034441e-001	 1.197133169233866e+001
 2.258286982017970e+000	 5.529601314063262e-001	 1.198712677028330e+001
 2.252864606958372e+000	 5.746529933748897e-001	 1.199417112804120e+001
 2.247218682078241e+000	 5.963498931001036e-001	 1.199166179226896e+001
 2.241348291589134e+000	 6.180476000049329e-001	 1.197878491385005e+001
 2.235252577805797e+000	 6.397428495037884e-001	 1.197471298850256e+001
 2.310767615775252e+000	 4.276131731947014e-001	 1.175418039371550e+001
 2.306620086968692e+000	 4.494483000479418e-001	 1.180092863565147e+001
 2.302253321615266e+000	 4.713063156280811e-001	 1.184315841255941e+001
 2.297666068167052e+000	 4.931841838978371e-001	 1.188011928946811e+001
 2.292857126145480e+000	 5.150788280919922e-001	 1.191104450825814e+001
 2.287825347464866e+000	 5.369871316625858e-001	 1.193515182386529e+001
 2.282569637739388e+000	 5.589059392698583e-001	 1.195164439435567e+001
 2.277088957571788e+000	 5.808320578188099e-001	 1.195971172449758e+001
 2.271382323822106e+000	 6.027622575411730e-001	 1.195853066230190e+001
 2.265448810854712e+000	 6.246932731225250e-001	 1.194726644784435e+001
 2.259287551761927e+000	 6.466218048742060e-001	 1.194166337723119e+001
 2.335350249985152e+000	 4.321622495042093e-001	 1.172461982792898e+001
 2.331158598532001e+000	 4.542296649411343e-001	 1.177086750182745e+001
 2.326745378228254e+000	 4.763202126020547e-001	 1.181301912704118e+001
 2.322109324211656e+000	 4.984308241514199e-001	 1.185030741339101e+001
 2.317249223232584e+000	 5.205583900924672e-001	 1.188194790519962e+001
 2.312163914991677e+000	 5.426997607224701e-001	 1.190713983220233e+001
 2.306852293460711e+000	 5.648517471342254e-001	 1.192506701620584e+001
 2.301313308185011e+000	 5.870111222636374e-001	 1.193489883312978e+001
 2.295545965565678e+000	 6.091746219832009e-001	 1.193579122990756e+001
 2.289549330119895e+000	 6.313389462411065e-001	 1.192894552040756e+001
 2.283322525717564e+000	 6.535007602456238e-001	 1.191205954024044e+001
 2.359932884195560e+000	 4.367113258137025e-001	 1.169985448144101e+001
 2.355697110095715e+000	 4.590110298345022e-001	 1.174631404249145e+001
 2.351237434841551e+000	 4.813341095763753e-001	 1.178910791461720e+001
 2.346552580256467e+000	 5.036774644055012e-001	 1.182745132260949e+001
 2.341641320319795e+000	 5.260379520935725e-001	 1.186054146246828e+001
 2.336502482518496e+000	 5.484123897830974e-001	 1.188755836749985e+001
 2.331134949181942e+000	 5.707975549994275e-001	 1.190766583208453e+001
 2.325537658798039e+000	 5.931901867093715e-001	 1.192001239275970e+001
 2.319709607308956e+000	 6.155869864261875e-001	 1.192373236609950e+001
 2.313649849384685e+000	 6.379846193606777e-001	 1.191434119597413e+001
 2.307357499672707e+000	 6.603797156180414e-001	 1.188596257167703e+001
 2.384515518406475e+000	 4.412604021231812e-001	 1.168010570217819e+001
 2.380235621659837e+000	 4.637923947280462e-001	 1.172749722161999e+001
 2.375729491455153e+000	 4.863480065510425e-001	 1.177166157834319e+001
 2.370995836301485e+000	 5.089241046600810e-001	 1.181179587675733e+001
 2.366033417407112e+000	 5.315175140953083e-001	 1.184707830795671e+001
 2.360841050045321e+000	 5.541250188444671e-001	 1.187666903148663e+001
 2.355417604903078e+000	 5.767433628654644e-001	 1.189971111674940e+001
 2.349762009410874e+000	 5.993692511560125e-001	 1.191533154370483e+001
 2.343873249051941e+000	 6.219993508701325e-001	 1.192264226235162e+001
 2.337750368649082e+000	 6.446302924812387e-001	 1.190323606851743e+001
 2.331392473627356e+000	 6.672586709914591e-001	 1.186343311167503e+001
 2.409098152617898e+000	 4.458094784326451e-001	 1.166559318767435e+001
 2.404774133224367e+000	 4.685737596217657e-001	 1.171464449070348e+001
 2.400221548069064e+000	 4.913619035260567e-001	 1.176091554337290e+001
 2.395439092346710e+000	 5.141707449151592e-001	 1.180358468874318e+001
 2.390425514494537e+000	 5.369970760976748e-001	 1.184181045051722e+001
 2.385179617572153e+000	 5.598376479065798e-001	 1.187473243096095e+001
 2.379700260624122e+000	 5.826891707323361e-001	 1.190147227048010e+001
 2.373986360023517e+000	 6.055483156035604e-001	 1.192113466851846e+001
 2.368036890794631e+000	 6.284117153150359e-001	 1.192831911576066e+001
 2.361850887913085e+000	 6.512759656027893e-001	 1.189569290747996e+001
 2.355427447581511e+000	 6.741376263658767e-001	 1.184453136951975e+001
 2.433680786829828e+000	 4.503585547420945e-001	 1.165653506842378e+001
 2.429312644789304e+000	 4.733551245156609e-001	 1.170798186513426e+001
 2.424713604683281e+000	 4.963758005014177e-001	 1.175710392654915e+001
 2.419882348392143e+000	 5.194173851707360e-001	 1.180306018771629e+001
 2.414817611582069e+000	 5.424766381006718e-001	 1.184498883647906e+001
 2.409518185098991e+000	 5.655502769694349e-001	 1.188200822803972e+001
 2.403982916345072e+000	 5.886349786000428e-001	 1.191321786324380e+001
 2.398210710635965e+000	 6.117273800520152e-001	 1.193769943026043e+001
 2.392200532537029e+000	 6.348240797608978e-001	 1.193543982851885e+001
 2.385951407176694e+000	 6.579216387253295e-001	 1.189177397349680e+001
 2.379462421535173e+000	 6.810165817412944e-001	 1.182931714540776e+001
 2.458263421042266e+000	 4.549076310515292e-001	 1.165314798623316e+001
 2.453851156354649e+000	 4.781364894097321e-001	 1.170773399601164e+001
 2.449205661297807e+000	 5.013896974771258e-001	 1.176045960181928e+001
 2.444325604437783e+000	 5.246640254268116e-001	 1.181046367825463e+001
 2.439209708669709e+000	 5.479562001042996e-001	 1.185686340277453e+001
 2.433856752625838e+000	 5.712629060330332e-001	 1.189875518739248e+001
 2.428265572065929e+000	 5.945807864685846e-001	 1.193521567621080e+001
 2.422435061248221e+000	 6.179064445013772e-001	 1.196530280847190e+001
 2.416364174279133e+000	 6.412364442077186e-001	 1.194617287772580e+001
 2.410051926439910e+000	 6.645673118488594e-001	 1.189154104383593e+001
 2.403497395488342e+000	 6.878955371177123e-001	 1.181784985090138e+001
 2.163147655934445e+000	 6.191059833985354e-001	 1.211190646283541e+001
 2.157029750636725e+000	 6.400958169810158e-001	 1.213354513877070e+001
 2.150692303753667e+000	 6.610768598420859e-001	 1.216921773993551e+001
 2.144134660734327e+000	 6.820458611255977e-001	 1.220112133746872e+001
 2.137356227685585e+000	 7.029995419721639e-001	 1.222945548390445e+001
 2.130356472406817e+000	 7.239345968484162e-001	 1.225443394621039e+001
 2.123134925392267e+000	 7.448476949157646e-001	 1.227628468792829e+001
 2.115691180799508e+000	 7.657354814378438e-001	 1.229524982360100e+001
 2.108024897382408e+000	 7.865945792257690e-001	 1.231158554490183e+001
 2.100135799387014e+000	 8.074215901202453e-001	 1.232556201794141e+001
 2.092023677408817e+000	 8.282130965095027e-001	 1.233746325129200e+001
 2.187182629892056e+000	 6.259849387659531e-001	 1.205090273756247e+001
 2.180996747869119e+000	 6.472079927217472e-001	 1.208913812686665e+001
 2.174588884909840e+000	 6.684221582814655e-001	 1.212379897719676e+001
 2.167958379190486e+000	 6.896241484683362e-001	 1.215507833584874e+001
 2.161104630219127e+000	 7.108106479912015e-001	 1.218318341054031e+001
 2.154027099881797e+000	 7.319783145885441e-001	 1.220833556907762e+001
 2.146725313456010e+000	 7.531237804124569e-001	 1.223077031155530e+001
 2.139198860589977e+000	 7.742436534517256e-001	 1.225073721445201e+001
 2.131447396245942e+000	 7.953345189931456e-001	 1.226849984604266e+001
 2.123470641606018e+000	 8.163929411200948e-001	 1.228433565260984e+001
 2.115268384938982e+000	 8.374154642473412e-001	 1.229853581500267e+001
 2.211217603849173e+000	 6.328638941343707e-001	 1.201114680122057e+001
 2.204963745100923e+000	 6.543201684634740e-001	 1.204794480859643e+001
 2.198485466065337e+000	 6.757674567218257e-001	 1.208152443141180e+001
 2.191782097645895e+000	 6.972024358120310e-001	 1.211208637643648e+001
 2.184853032751853e+000	 7.186217540111610e-001	 1.213984548663143e+001
 2.177697727355906e+000	 7.400220323295501e-001	 1.216503073156623e+001
 2.170315701518835e+000	 7.613998659099726e-001	 1.218788516994763e+001
 2.162706540379492e+000	 7.827518254663668e-001	 1.220866588362464e+001
 2.154869895108496e+000	 8.040744587612064e-001	 1.222764388249600e+001
 2.146805483824028e+000	 8.253642921205443e-001	 1.224510397980834e+001
 2.138513092468148e+000	 8.466178319856844e-001	 1.226134463740136e+001
 2.235252577805797e+000	 6.397428495037884e-001	 1.197471298850256e+001
 2.228930742332137e+000	 6.614323442061955e-001	 1.201002838093482e+001
 2.222382047220159e+000	 6.831127551631664e-001	 1.204245823269176e+001
 2.215605816100554e+000	 7.047807231566823e-001	 1.207221087279019e+001
 2.208601435283764e+000	 7.264328600320423e-001	 1.209950876267683e+001
 2.201368354829143e+000	 7.480657500714333e-001	 1.212458847768820e+001
 2.193906089580742e+000	 7.696759514083118e-001	 1.214770066017240e+001
 2.186214220168054e+000	 7.912599974817669e-001	 1.216910994364063e+001
 2.178292393970071e+000	 8.128143985299519e-001	 1.218909484737765e+001
 2.170140326041044e+000	 8.343356431215939e-001	 1.220794764100496e+001
 2.161757799996312e+000	 8.558201997245328e-001	 1.222597417855921e+001
 2.259287551761927e+000	 6.466218048742060e-001	 1.194166337723119e+001
 2.252897739562764e+000	 6.685445199499122e-001	 1.197545147338379e+001
 2.246278628374308e+000	 6.904580536054878e-001	 1.200666388891748e+001
 2.239429534554463e+000	 7.123590105022891e-001	 1.203551654102648e+001
 2.232349837814859e+000	 7.342439660538457e-001	 1.206223949595377e+001
 2.225038982301508e+000	 7.561094678141942e-001	 1.208707694178112e+001
 2.217496477641732e+000	 7.779520369074743e-001	 1.211028713240498e+001
 2.209721899955661e+000	 7.997681694979262e-001	 1.213214230206712e+001
 2.201714892830666e+000	 8.215543382993820e-001	 1.215292854987193e+001
 2.193475168257064e+000	 8.433069941232435e-001	 1.217294569378832e+001
 2.185002507523477e+000	 8.650225674638863e-001	 1.219250709370482e+001
 2.283322525717564e+000	 6.535007602456238e-001	 1.191205954024044e+001
 2.276864736792801e+000	 6.756566956946243e-001	 1.194427617783939e+001
 2.270175209527782e+000	 6.978033520487897e-001	 1.197420431848857e+001
 2.263253253007621e+000	 7.199372978488526e-001	 1.200206743652790e+001
 2.256098240345136e+000	 7.420550720765706e-001	 1.202810319226632e+001
 2.248709609773001e+000	 7.641531855578326e-001	 1.205256339638581e+001
 2.241086865701804e+000	 7.862281224074598e-001	 1.207571394502854e+001
 2.233229579742315e+000	 8.082763415148443e-001	 1.209783472493539e+001
 2.225137391690283e+000	 8.302942780694966e-001	 1.211921948807006e+001
 2.216810010472089e+000	 8.522783451254932e-001	 1.214017569522974e+001
 2.208247215049642e+000	 8.742249352037450e-001	 1.216102432821596e+001
 2.307357499672707e+000	 6.603797156180414e-001	 1.188596257167703e+001
 2.300831734022249e+000	 6.827688714403316e-001	 1.191656407659216e+001
 2.294071790680583e+000	 7.051486504930723e-001	 1.194514188102547e+001
 2.287076971460031e+000	 7.275155851963719e-001	 1.197192698835605e+001
 2.279846642874599e+000	 7.498661781002176e-001	 1.199716464508448e+001
 2.272380237243622e+000	 7.721969033023488e-001	 1.202111429713158e+001
 2.264677253760957e+000	 7.945042079082690e-001	 1.204404951628992e+001
 2.256737259528015e+000	 8.167845135325217e-001	 1.206625789619580e+001
 2.248559890548919e+000	 8.390342178402960e-001	 1.208804091725635e+001
 2.240144852686119e+000	 8.612496961283428e-001	 1.210971378003516e+001
 2.231491922574806e+000	 8.834273029441089e-001	 1.213160520667425e+001
 2.331392473627356e+000	 6.672586709914591e-001	 1.186343311167503e+001
 2.324798731251109e+000	 6.898810471870337e-001	 1.189237626859534e+001
 2.317968371832708e+000	 7.124939489383351e-001	 1.191953840617253e+001
 2.310900689911689e+000	 7.350938725448477e-001	 1.194515803153622e+001
 2.303595045403246e+000	 7.576772841247864e-001	 1.196948797226256e+001
 2.296050864713372e+000	 7.802406210477426e-001	 1.199279532484502e+001
 2.288267641819193e+000	 8.027802934099015e-001	 1.201536137276017e+001
 2.280244939312762e+000	 8.252926855509578e-001	 1.203748147349518e+001
 2.271982389406577e+000	 8.477741576117799e-001	 1.205946491397041e+001
 2.263479694899156e+000	 8.702210471317925e-001	 1.208163473386297e+001
 2.254736630098972e+000	 8.926296706849779e-001	 1.210432751641141e+001
 2.355427447581511e+000	 6.741376263658767e-001	 1.184453136951975e+001
 2.348765728479379e+000	 6.969932229347312e-001	 1.187177339412502e+001
 2.341864952984159e+000	 7.198392473845788e-001	 1.189745522063761e+001
 2.334724408362598e+000	 7.426721598942795e-001	 1.192182283736531e+001
 2.327343447931077e+000	 7.654883901502771e-001	 1.194513665050929e+001
 2.319721492182250e+000	 7.882843387940142e-001	 1.196767142508078e+001
 2.311858029876512e+000	 8.110563789123574e-001	 1.198971619482835e+001
 2.303752619096555e+000	 8.338008575701532e-001	 1.201157414053920e+001
 2.295404888263255e+000	 8.565140973839484e-001	 1.203356243614715e+001
 2.286814537111197e+000	 8.791923981358422e-001	 1.205601206215291e+001
 2.277981337622136e+000	 9.018320384263519e-001	 1.207926758594036e+001
 2.379462421535173e+000	 6.810165817412944e-001	 1.182931714540776e+001
 2.372732725707062e+000	 7.041053986834239e-001	 1.185481565794563e+001
 2.365761534134936e+000	 7.271845458318029e-001	 1.187895317359292e+001
 2.358548126812756e+000	 7.502504472446672e-001	 1.190198314188307e+001
 2.351091850458092e+000	 7.732994961766896e-001	 1.192417354776894e+001
 2.343392119650255e+000	 7.963280565411631e-001	 1.194580684525655e+001
 2.335448417932912e+000	 8.193324644156368e-001	 1.196717985943785e+001
 2.327260298879395e+000	 8.423090295901078e-001	 1.198860365628142e+001
 2.318827387118954e+000	 8.652540371568017e-001	 1.201040337961194e+001
 2.310149379322243e+000	 8.881637491404918e-001	 1.203291805478366e+001
 2.301226045144301e+000	 9.110344061682311e-001	 1.205650035863294e+001
 2.403497395488342e+000	 6.878955371177123e-001	 1.181784985090138e+001
 2.396699722934155e+000	 7.112175744331118e-001	 1.184156285108552e+001
 2.389658115285039e+000	 7.345298442800079e-001	 1.186409266055178e+001
 2.382371845262166e+000	 7.578287345960117e-001	 1.188570017263487e+001
 2.374840252984291e+000	 7.811106022040244e-001	 1.190666095365951e+001
 2.367062747117389e+000	 8.043717742891899e-001	 1.192726516955986e+001
 2.359038805988396e+000	 8.276085499197398e-001	 1.194781748025882e+001
 2.350767978661281e+000	 8.508172016108216e-001	 1.196863690116082e+001
 2.342249885973674e+000	 8.739939769303399e-001	 1.199005663118618e+001
 2.333484221532295e+000	 8.971351001457417e-001	 1.201242384685082e+001
 2.324470752665467e+000	 9.202367739106158e-001	 1.203609946197695e+001
 2.092023677408817e+000	 8.282130965095027e-001	 1.233746325129200e+001
 2.083688389209485e+000	 8.489656628815500e-001	 1.237730577826655e+001
 2.075129860492684e+000	 8.696758374109868e-001	 1.241323426117716e+001
 2.066348085636912e+000	 8.903401535779647e-001	 1.244545193903121e+001
 2.057343128383053e+000	 9.109551318173331e-001	 1.247417615938869e+001
 2.048115122476415e+000	 9.315172811979668e-001	 1.249963823338037e+001
 2.038664272261591e+000	 9.520231011303459e-001	 1.252208326053981e+001
 2.028990853228824e+000	 9.724690831008999e-001	 1.254176992329428e+001
 2.019095212510688e+000	 9.928517124315597e-001	 1.255897025103884e+001
 2.008977769327879e+000	 1.013167470062905e+000	 1.257396935379980e+001
 1.998639015383027e+000	 1.033412834359236e+000	 1.258706512557754e+001
 2.115268384938982e+000	 8.374154642473412e-001	 1.229853581500267e+001
 2.106840482426126e+000	 8.583986146904973e-001	 1.233682335998270e+001
 2.098186858945657e+000	 8.793389022705093e-001	 1.237078552870650e+001
 2.089307508813609e+000	 9.002328219506398e-001	 1.240062859252721e+001
 2.080202496479100e+000	 9.210768555039042e-001	 1.242657355255271e+001
 2.070871957173500e+000	 9.418674732110525e-001	 1.244885599528701e+001
 2.061316097511894e+000	 9.626011355871257e-001	 1.246772591696917e+001
 2.051535196045530e+000	 9.832742951350683e-001	 1.248344751643870e+001
 2.041529603764009e+000	 1.003883398124833e+000	 1.249629895643906e+001
 2.031299744546037e+000	 1.024424886396339e+000	 1.250657209335586e+001
 2.020846115557606e+000	 1.044895199184599e+000	 1.251457217547254e+001
 2.138513092468148e+000	 8.466178319856844e-001	 1.226134463740136e+001
 2.129992575641768e+000	 8.678315664998595e-001	 1.229784047801327e+001
 2.121243857397628e+000	 8.890019671303754e-001	 1.232959520123499e+001
 2.112266931989306e+000	 9.101254903236083e-001	 1.235681836864336e+001
 2.103061864574150e+000	 9.311985791907373e-001	 1.237973490412630e+001
 2.093628791869585e+000	 9.522176652243886e-001	 1.239858494994920e+001
 2.083967922761197e+000	 9.731791700441644e-001	 1.241362369037793e+001
 2.074079538861235e+000	 9.940795071695248e-001	 1.242512114267144e+001
 2.063963995016330e+000	 1.014915083818443e+000	 1.243336191534363e+001
 2.053621719763195e+000	 1.035682302730178e+000	 1.243864493368098e+001
 2.043053215731184e+000	 1.056377564010459e+000	 1.244128313259175e+001
 2.161757799996312e+000	 8.558201997245328e-001	 1.222597417855921e+001
 2.153144668856409e+000	 8.772645183096366e-001	 1.226044433294439e+001
 2.144300855848600e+000	 8.986650319905858e-001	 1.228975299152873e+001
 2.135226355164003e+000	 9.200181586968698e-001	 1.231411326340847e+001
 2.125921232668198e+000	 9.413203028778321e-001	 1.233375426410843e+001
 2.116385626564671e+000	 9.625678572379754e-001	 1.234892097187661e+001
 2.106619748009500e+000	 9.837572045014623e-001	 1.235987405036954e+001
 2.096623881675941e+000	 1.004884719204269e+000	 1.236688963752626e+001
 2.086398386267651e+000	 1.025946769512391e+000	 1.237025910051793e+001
 2.075943694979353e+000	 1.046939719064425e+000	 1.237028875674969e+001
 2.065260315903762e+000	 1.067859928836815e+000	 1.236729956098444e+001
 2.185002507523477e+000	 8.650225674638863e-001	 1.219250709370482e+001
 2.176296762070050e+000	 8.866974701198287e-001	 1.222472014024122e+001
 2.167357854298572e+000	 9.083280968511406e-001	 1.225134645155482e+001
 2.158185778337701e+000	 9.299108270704243e-001	 1.227260294108209e+001
 2.148780600761246e+000	 9.514420265651886e-001	 1.228872318457150e+001
 2.139142461258755e+000	 9.729180492518126e-001	 1.229995727641101e+001
 2.129271573256804e+000	 9.943352389590194e-001	 1.230657165115544e+001
 2.119168224489646e+000	 1.015689931239302e+000	 1.230884887003678e+001
 2.108832777517972e+000	 1.036978455206675e+000	 1.230708737233127e+001
 2.098265670194510e+000	 1.058197135399078e+000	 1.230160119155091e+001
 2.087467416075340e+000	 1.079342293663667e+000	 1.229271963652236e+001
 2.208247215049642e+000	 8.742249352037450e-001	 1.216102432821596e+001
 2.199448855282691e+000	 8.961304219304351e-001	 1.219075123472796e+001
 2.190414852747545e+000	 9.179911617120392e-001	 1.221446108620770e+001
 2.181145201510398e+000	 9.398034954442719e-001	 1.223237485687924e+001
 2.171639968853294e+000	 9.615637502528069e-001	 1.224473085113109e+001
 2.161899295951840e+000	 9.832682412659003e-001	 1.225178455968243e+001
 2.151923398503107e+000	 1.004913273416836e+000	 1.225380847973359e+001
 2.141712567302352e+000	 1.026495143274622e+000	 1.225109189886798e+001
 2.131267168767293e+000	 1.048010140901296e+000	 1.224394064256725e+001
 2.120587645408667e+000	 1.069454551734136e+000	 1.223267678529771e+001
 2.109674516245919e+000	 1.090824658491015e+000	 1.221763832522491e+001
 2.231491922574806e+000	 8.834273029441089e-001	 1.213160520667425e+001
 2.222600948494332e+000	 9.055633737414569e-001	 1.215861916853789e+001
 2.213471851195516e+000	 9.276542265732820e-001	 1.217918045992746e+001
 2.204104624682095e+000	 9.496961638184125e-001	 1.219351437202483e+001
 2.194499336944342e+000	 9.716854739406873e-001	 1.220186420619893e+001
 2.184656130643925e+000	 9.936184332802384e-001	 1.220449112981821e+001
 2.174575223748410e+000	 1.015491307874911e+000	 1.220167399480580e+001
 2.164256910114058e+000	 1.037300355310230e+000	 1.219370911868959e+001
 2.153701560015615e+000	 1.059041826596255e+000	 1.218091002799594e+001
 2.142909620621825e+000	 1.080711968069602e+000	 1.216360716393660e+001
 2.131881616415496e+000	 1.102307023318859e+000	 1.214214755043889e+001
 2.254736630098972e+000	 8.926296706849779e-001	 1.210432751641141e+001
 2.245753041704973e+000	 9.149963255528933e-001	 1.212840380300470e+001
 2.236528849642488e+000	 9.373172914348692e-001	 1.214558629672329e+001
 2.227064047852792e+000	 9.595888321928465e-001	 1.215610486169122e+001
 2.217358705034390e+000	 9.818071976288294e-001	 1.216020806461200e+001
 2.207412965335010e+000	 1.003968625294827e+000	 1.215816303003583e+001
 2.197227048992713e+000	 1.026069342333246e+000	 1.215025525710235e+001
 2.186801252924763e+000	 1.048105567346126e+000	 1.213678839749540e+001
 2.176135951262936e+000	 1.070073512291550e+000	 1.211808399444671e+001
 2.165231595833983e+000	 1.091969384405473e+000	 1.209448118272806e+001
 2.154088716584075e+000	 1.113789388147199e+000	 1.206633634967737e+001
 2.277981337622136e+000	 9.018320384263519e-001	 1.207926758594036e+001
 2.268905134914614e+000	 9.244292773647448e-001	 1.210018339492769e+001
 2.259585848088461e+000	 9.469803562968006e-001	 1.211375857407302e+001
 2.250023471022489e+000	 9.694815005675734e-001	 1.212022781632751e+001
 2.240218073123439e+000	 9.919289213172334e-001	 1.211984522218219e+001
 2.230169800025095e+000	 1.014318817309666e+000	 1.211288415419956e+001
 2.219878874236016e+000	 1.036647376791840e+000	 1.209963705172735e+001
 2.209345595734469e+000	 1.058910779382311e+000	 1.208041520551540e+001
 2.198570342509257e+000	 1.081105197987182e+000	 1.205554849206029e+001
 2.187553571045141e+000	 1.103226800741751e+000	 1.202538506760827e+001
 2.176295816751653e+000	 1.125271752976035e+000	 1.199029102185605e+001
 2.301226045144301e+000	 9.110344061682311e-001	 1.205650035863294e+001
 2.292057228123256e+000	 9.338622291770110e-001	 1.207403467760900e+001
 2.282642846533433e+000	 9.566434211590758e-001	 1.208377561113174e+001
 2.272982894191185e+000	 9.793741689425934e-001	 1.208596293684751e+001
 2.263077441211487e+000	 1.002050645005899e+000	 1.208085655766735e+001
 2.252926634714181e+000	 1.024669009324756e+000	 1.206873635537370e+001
 2.242530699478319e+000	 1.047225411250692e+000	 1.204990200308949e+001
 2.231889938543174e+000	 1.069715991418782e+000	 1.202467273631481e+001
 2.221004733754578e+000	 1.092136883683151e+000	 1.199338708234380e+001
 2.209875546255298e+000	 1.114484217078435e+000	 1.195640254798313e+001
 2.198502916918232e+000	 1.136754117805368e+000	 1.191409526560626e+001
 2.324470752665467e+000	 9.202367739106158e-001	 1.203609946197695e+001
 2.315209321330897e+000	 9.432951809896923e-001	 1.205003293702831e+001
 2.305699844977406e+000	 9.663064860216959e-001	 1.205571415164797e+001
 2.295942317358883e+000	 9.892668373179069e-001	 1.205338822410658e+001
 2.285936809298535e+000	 1.012172368694827e+000	 1.204332112862392e+001
 2.275683469402266e+000	 1.035019201340096e+000	 1.202579954786252e+001
 2.265182524719623e+000	 1.057803445709805e+000	 1.200113068293670e+001
 2.254434281350881e+000	 1.080521203455543e+000	 1.196964202062743e+001
 2.243439124998900e+000	 1.103168569379458e+000	 1.193168105760242e+001
 2.232197521464457e+000	 1.125741633415526e+000	 1.188761498155485e+001
 2.220710017083810e+000	 1.148236482635196e+000	 1.183783030928917e+001
 1.998639015383027e+000	 1.033412834359236e+000	 1.258706512557754e+001
 1.988079515201900e+000	 1.053584282934246e+000	 1.257897709628535e+001
 1.977299906419740e+000	 1.073678294494223e+000	 1.257019035448865e+001
 1.966300900012589e+000	 1.093691350697970e+000	 1.256100988484244e+001
 1.955083280473654e+000	 1.113619938032245e+000	 1.255175126447613e+001
 1.943647905932685e+000	 1.133460549699554e+000	 1.254274024565460e+001
 1.931995708218038e+000	 1.153209687516760e+000	 1.253431231164553e+001
 1.920127692860818e+000	 1.172863863822527e+000	 1.252681220645605e+001
 1.908044939040537e+000	 1.192419603391556e+000	 1.252059343918447e+001
 1.895748599471812e+000	 1.211873445353536e+000	 1.251601776381558e+001
 1.883239900231722e+000	 1.231221945114724e+000	 1.251345463536735e+001
 2.020846115557606e+000	 1.044895199184599e+000	 1.251457217547254e+001
 2.010169287596954e+000	 1.065290774965724e+000	 1.250277405110509e+001
 1.999269905384128e+000	 1.085608053320554e+000	 1.249302958290121e+001
 1.988148687794898e+000	 1.105843476815214e+000	 1.248574454682004e+001
 1.976806428039066e+000	 1.125993492897426e+000	 1.248133369179495e+001
 1.965243993781153e+000	 1.146054555805278e+000	 1.248022019530090e+001
 1.953462327203167e+000	 1.166023128486932e+000	 1.248283509278325e+001
 1.941462445008779e+000	 1.185895684529261e+000	 1.248961668183770e+001
 1.929245438368385e+000	 1.205668710093352e+000	 1.250100990211607e+001
 1.916812472804541e+000	 1.225338705854776e+000	 1.251746569201585e+001
 1.904164788017406e+000	 1.244902188946530e+000	 1.253944032329233e+001
 2.043053215731184e+000	 1.056377564010459e+000	 1.244128313259175e+001
 2.032259059991009e+000	 1.076997266997788e+000	 1.242832960815575e+001
 2.021239904347514e+000	 1.097537812147543e+000	 1.242011817608568e+001
 2.009996475576207e+000	 1.117995602933166e+000	 1.241715419414303e+001
 1.998529575603476e+000	 1.138367047763345e+000	 1.241995041148217e+001
 1.986840081628622e+000	 1.158648561911752e+000	 1.242902629829336e+001
 1.974928946187296e+000	 1.178836569457846e+000	 1.244490734992008e+001
 1.962797197155740e+000	 1.198927505236708e+000	 1.246812436656487e+001
 1.950445937695233e+000	 1.218917816795809e+000	 1.249921270978510e+001
 1.937876346136271e+000	 1.238803966356608e+000	 1.253871153706450e+001
 1.925089675802090e+000	 1.258582432778837e+000	 1.244435614819527e+001
 2.065260315903762e+000	 1.067859928836815e+000	 1.236729956098444e+001
 2.054348832384064e+000	 1.088703759030439e+000	 1.235565473631328e+001
 2.043209903309902e+000	 1.109467570975188e+000	 1.235137830186921e+001
 2.031844263356516e+000	 1.130147729051825e+000	 1.235507403984990e+001
 2.020252723166888e+000	 1.150740602630003e+000	 1.236735157943550e+001
 2.008436169475090e+000	 1.171242568018975e+000	 1.238882560162380e+001
 1.996395565170425e+000	 1.191650010429500e+000	 1.242011501910975e+001
 1.984131949301702e+000	 1.211959325944865e+000	 1.246184213254713e+001
 1.971646437021081e+000	 1.232166923498928e+000	 1.251463176461813e+001
 1.958940219467000e+000	 1.252269226859033e+000	 1.254217207022841e+001
 1.946014563585775e+000	 1.272262676611648e+000	 1.229013660545604e+001
 2.087467416075340e+000	 1.079342293663667e+000	 1.229271963652236e+001
 2.076438604776118e+000	 1.100410251063676e+000	 1.228476076109012e+001
 2.065179902271288e+000	 1.121397329803490e+000	 1.228673614919319e+001
 2.053692051135825e+000	 1.142299855171193e+000	 1.229934690016373e+001
 2.041975870729298e+000	 1.163114157497399e+000	 1.232329845236728e+001
 2.030032257320558e+000	 1.183836574126947e+000	 1.235929966429478e+001
 2.017862184152554e+000	 1.204463451401894e+000	 1.240806187122732e+001
 2.005466701446663e+000	 1.224991146653734e+000	 1.247029791903277e+001
 1.992846936345929e+000	 1.245416030202710e+000	 1.254672117674300e+001
 1.980004092796730e+000	 1.265734487362051e+000	 1.238514643918006e+001
 1.966939451368459e+000	 1.285942920444961e+000	 1.216197357972538e+001
 2.109674516245919e+000	 1.090824658491015e+000	 1.221763832522491e+001
 2.098528377167173e+000	 1.112116743097499e+000	 1.221565934586486e+001
 2.087149901231676e+000	 1.133327088632449e+000	 1.222612171647556e+001
 2.075539838914133e+000	 1.154451981291268e+000	 1.224982279432462e+001
 2.063699018290709e+000	 1.175487712365534e+000	 1.228756280355109e+001
 2.051628345165026e+000	 1.196430580235669e+000	 1.234014379352956e+001
 2.039328803133683e+000	 1.217276892375028e+000	 1.240836857329437e+001
 2.026801453590624e+000	 1.238022967363314e+000	 1.249303962380154e+001
 2.014047435669777e+000	 1.258665136907153e+000	 1.245861467063100e+001
 2.001067966125459e+000	 1.279199747865661e+000	 1.225157127258462e+001
 1.987864339150143e+000	 1.299623164278777e+000	 1.205919141599258e+001
 2.131881616415496e+000	 1.102307023318859e+000	 1.214214755043889e+001
 2.120618149557228e+000	 1.123823235131908e+000	 1.214836247428506e+001
 2.109119900191063e+000	 1.145256847462065e+000	 1.216946861320066e+001
 2.097387626691442e+000	 1.166604107412050e+000	 1.220635856943263e+001
 2.085422165851120e+000	 1.187861267234407e+000	 1.225992637508414e+001
 2.073224433008494e+000	 1.209024586345141e+000	 1.233106632871891e+001
 2.060795422113812e+000	 1.230090333348904e+000	 1.242067180847138e+001
 2.048136205733585e+000	 1.251054788073605e+000	 1.251337356716607e+001
 2.035247934992625e+000	 1.271914243612258e+000	 1.231839448504938e+001
 2.022131839453188e+000	 1.292665008369863e+000	 1.214085746964434e+001
 2.008789226930828e+000	 1.313303408113096e+000	 1.198114158391245e+001
 2.154088716584075e+000	 1.113789388147199e+000	 1.206633634967737e+001
 2.142707921946283e+000	 1.135529727166903e+000	 1.208288243375855e+001
 2.131089899149450e+000	 1.157186606292337e+000	 1.211671387378172e+001
 2.119235414467750e+000	 1.178756233533540e+000	 1.216881754849612e+001
 2.107145313410531e+000	 1.200234822104019e+000	 1.224018036403045e+001
 2.094820520850962e+000	 1.221618592455362e+000	 1.233178796965992e+001
 2.082262041092941e+000	 1.242903774323519e+000	 1.244462345048352e+001
 2.069470957875546e+000	 1.264086608784609e+000	 1.236523629045204e+001
 2.056448434314473e+000	 1.285163350318026e+000	 1.219859761261627e+001
 2.043195712779918e+000	 1.306130268874658e+000	 1.205243914286345e+001
 2.029714114710512e+000	 1.326983651947917e+000	 1.192720127962674e+001
 2.176295816751653e+000	 1.125271752976035e+000	 1.199029102185605e+001
 2.164797694334338e+000	 1.147236219202485e+000	 1.201923179995542e+001
 2.153059898106837e+000	 1.169116365123266e+000	 1.206779778281961e+001
 2.141083202243060e+000	 1.190908359655737e+000	 1.213706920002828e+001
 2.128868460968942e+000	 1.212608376974370e+000	 1.222812494002456e+001
 2.116416608692431e+000	 1.234212598566333e+000	 1.234204114592301e+001
 2.103728660071070e+000	 1.255717215298876e+000	 1.239453465879721e+001
 2.090805710016507e+000	 1.277118429496322e+000	 1.223516405513901e+001
 2.077648933635321e+000	 1.298412457024455e+000	 1.209873659288821e+001
 2.064259586105647e+000	 1.319595529380045e+000	 1.198577243369597e+001
 2.050639002489196e+000	 1.340663895783240e+000	 1.189677211318828e+001
 2.198502916918232e+000	 1.136754117805368e+000	 1.191409526560626e+001
 2.186887466721392e+000	 1.158942711238653e+000	 1.195742342224937e+001
 2.175029897063225e+000	 1.181046123954852e+000	 1.202266371095197e+001
 2.162930990017369e+000	 1.203060485778643e+000	 1.211098882766822e+001
 2.150591608526353e+000	 1.224981931845459e+000	 1.222356879211139e+001
 2.138012696532899e+000	 1.246806604678053e+000	 1.236156942443917e+001
 2.125195279048198e+000	 1.268530656274972e+000	 1.225295653685424e+001
 2.112140462156469e+000	 1.290150250208748e+000	 1.212274380245071e+001
 2.098849432955169e+000	 1.311661563731547e+000	 1.201834254381873e+001
 2.085323459430377e+000	 1.333060789886026e+000	 1.194033439997251e+001
 2.071563890266881e+000	 1.354344139619067e+000	 1.188927887553507e+001
 2.220710017083810e+000	 1.148236482635196e+000	 1.183783030928917e+001
 2.208977239107448e+000	 1.170649203275409e+000	 1.189747041003245e+001
 2.196999896018612e+000	 1.192975882787095e+000	 1.198125796055137e+001
 2.184778777790678e+000	 1.215212611902256e+000	 1.209045727842451e+001
 2.172314756082764e+000	 1.237355486717287e+000	 1.222632870277571e+001
 2.159608784372368e+000	 1.259400610790523e+000	 1.225402731580599e+001
 2.146661898024329e+000	 1.281344097251810e+000	 1.212682081852901e+001
 2.133475214295431e+000	 1.303182070921885e+000	 1.202757783349614e+001
 2.120049932274017e+000	 1.324910670439300e+000	 1.195696423283855e+001
 2.106387332754107e+000	 1.346526050392598e+000	 1.191562197008149e+001
 2.092488778043565e+000	 1.368024383455396e+000	 1.190416837944605e+001
 1.883239900231722e+000	 1.231221945114724e+000	 1.251345463536735e+001
 1.870520140527698e+000	 1.250461676279598e+000	 1.272810668816339e+001
 1.857590692405196e+000	 1.269589232571736e+000	 1.265784549476513e+001
 1.844453000395384e+000	 1.288601229750900e+000	 1.258517828818742e+001
 1.831108581103128e+000	 1.307494307523292e+000	 1.251057605549794e+001
 1.817559022734820e+000	 1.326265131444094e+000	 1.243453806491912e+001
 1.803805984566350e+000	 1.344910394809677e+000	 1.235759144516485e+001
 1.789851196351457e+000	 1.363426820537300e+000	 1.228029068307511e+001
 1.775696457670766e+000	 1.381811163030105e+000	 1.220321703966570e+001
 1.761343637221934e+000	 1.400060210025256e+000	 1.212697788497167e+001
 1.746794672051384e+000	 1.418170784423037e+000	 1.205220595232678e+001
 1.904164788017406e+000	 1.244902188946530e+000	 1.253944032329233e+001
 1.891303697650032e+000	 1.264355694902035e+000	 1.252320590318117e+001
 1.878230588992809e+000	 1.283695779597362e+000	 1.241699452292261e+001
 1.864946922627250e+000	 1.302919021189604e+000	 1.235575251351014e+001
 1.851454232009387e+000	 1.322022022048363e+000	 1.230733806839183e+001
 1.837754122992349e+000	 1.341001410679437e+000	 1.225643738564887e+001
 1.823848273288425e+000	 1.359853843638046e+000	 1.220355570206332e+001
 1.809738431870839e+000	 1.378576007429415e+000	 1.214922767516504e+001
 1.795426418315559e+000	 1.397164620394503e+000	 1.209401682521961e+001
 1.780914122083544e+000	 1.415616434578661e+000	 1.203851489185337e+001
 1.766203501743962e+000	 1.433928237581068e+000	 1.198334110589660e+001
 1.925089675802090e+000	 1.258582432778837e+000	 1.244435614819527e+001
 1.912087254771367e+000	 1.278249713524880e+000	 1.236542260831806e+001
 1.898870485579421e+000	 1.297802326623310e+000	 1.228183756297350e+001
 1.885440844858116e+000	 1.317236812628554e+000	 1.219352316527551e+001
 1.871799882914646e+000	 1.336549736573617e+000	 1.211681224918352e+001
 1.857949223248877e+000	 1.355737689914908e+000	 1.209007453319876e+001
 1.843890562009500e+000	 1.374797292466496e+000	 1.206027104039698e+001
 1.829625667389222e+000	 1.393725194321576e+000	 1.202791736090501e+001
 1.815156378959351e+000	 1.412518077758920e+000	 1.199356007574027e+001
 1.800484606944156e+000	 1.431172659132071e+000	 1.195777613451927e+001
 1.785612331435539e+000	 1.449685690739098e+000	 1.192117214407773e+001
 1.946014563585775e+000	 1.272262676611648e+000	 1.229013660545604e+001
 1.932870811891701e+000	 1.292143732148131e+000	 1.223333144113311e+001
 1.919510382165035e+000	 1.311908873649581e+000	 1.217131953451004e+001
 1.905934767087982e+000	 1.331554604067751e+000	 1.210398356835736e+001
 1.892145533818904e+000	 1.351077451099051e+000	 1.203120927307074e+001
 1.878144323504406e+000	 1.370473969150504e+000	 1.195288572417975e+001
 1.863932850729575e+000	 1.389740741295026e+000	 1.192837774430837e+001
 1.849512902906604e+000	 1.408874381213783e+000	 1.191703225068926e+001
 1.834886339602143e+000	 1.427871535123358e+000	 1.190255025486786e+001
 1.820055091803767e+000	 1.446728883685487e+000	 1.188549474360694e+001
 1.805021161126117e+000	 1.465443143897129e+000	 1.186646056611963e+001
 1.966939451368459e+000	 1.285942920444961e+000	 1.216197357972538e+001
 1.953654369011035e+000	 1.306037750771791e+000	 1.212626310018642e+001
 1.940150278749647e+000	 1.326015420676173e+000	 1.208480568165774e+001
 1.926428689316847e+000	 1.345872395507195e+000	 1.203744491329286e+001
 1.912491184722163e+000	 1.365605165624668e+000	 1.198402782039516e+001
 1.898339423758935e+000	 1.385210248386226e+000	 1.192440520915732e+001
 1.883975139448649e+000	 1.404684190123636e+000	 1.185843201260907e+001
 1.869400138422987e+000	 1.424023568106035e+000	 1.181726512830150e+001
 1.854616300243935e+000	 1.443224992487817e+000	 1.182170977568018e+001
 1.839625576662378e+000	 1.462285108238907e+000	 1.182242150105871e+001
 1.824429990815695e+000	 1.481200597055160e+000	 1.181998425093361e+001
 1.987864339150143e+000	 1.299623164278777e+000	 1.205919141599258e+001
 1.974437926129370e+000	 1.319931769395858e+000	 1.204357549244820e+001
 1.960790175333260e+000	 1.340121967703088e+000	 1.202168706999314e+001
 1.946922611544713e+000	 1.360190186946887e+000	 1.199333100227837e+001
 1.932836835624422e+000	 1.380132880150466e+000	 1.195831595727526e+001
 1.918534524012464e+000	 1.399946527622075e+000	 1.191645480900735e+001
 1.904017428166724e+000	 1.419627638952329e+000	 1.186756503033871e+001
 1.889287373938370e+000	 1.439172754998333e+000	 1.181146908592034e+001
 1.874346260884728e+000	 1.458578449852296e+000	 1.175177900335387e+001
 1.859196061519990e+000	 1.477841332792333e+000	 1.176932391110571e+001
 1.843838820504272e+000	 1.496958050213191e+000	 1.178253659500534e+001
 2.008789226930828e+000	 1.313303408113096e+000	 1.198114158391245e+001
 1.995221483246704e+000	 1.333825788020332e+000	 1.198465231619421e+001
 1.981430071915873e+000	 1.354228514730326e+000	 1.198137924167635e+001
 1.967416533771580e+000	 1.374507978386825e+000	 1.197108881869137e+001
 1.953182486525681e+000	 1.394660594676446e+000	 1.195355168785919e+001
 1.938729624264993e+000	 1.414682806858050e+000	 1.192854311059216e+001
 1.924059716883799e+000	 1.434571087781101e+000	 1.189584340851878e+001
 1.909174609452752e+000	 1.454321941890676e+000	 1.185523840284126e+001
 1.894076221524520e+000	 1.473931907216794e+000	 1.180651985262334e+001
 1.878766546376601e+000	 1.493397557345763e+000	 1.174948589099053e+001
 1.863247650191850e+000	 1.512715503371221e+000	 1.175492570418787e+001
 2.029714114710512e+000	 1.326983651947917e+000	 1.192720127962674e+001
 2.016005040363038e+000	 1.347719806645214e+000	 1.194890173155689e+001
 2.002069968497485e+000	 1.368335061757886e+000	 1.196332095377171e+001
 1.987910455997445e+000	 1.388825769827010e+000	 1.197018733218404e+001
 1.973528137425939e+000	 1.409188309202607e+000	 1.196923379290060e+001
 1.958924724516521e+000	 1.429419086094151e+000	 1.196019828729790e+001
 1.944102005599874e+000	 1.449514536609955e+000	 1.194282427789378e+001
 1.929061844966134e+000	 1.469471128783064e+000	 1.191686122394321e+001
 1.913806182163312e+000	 1.489285364581313e+000	 1.188206506566785e+001
 1.898337031232213e+000	 1.508953781899199e+000	 1.183819870601368e+001
 1.882656479878427e+000	 1.528472956529252e+000	 1.178503248881864e+001
 2.050639002489196e+000	 1.340663895783240e+000	 1.189677211318828e+001
 2.036788597478372e+000	 1.361613825270504e+000	 1.193575511247146e+001
 2.022709865078098e+000	 1.382441608785768e+000	 1.196697299381371e+001
 2.008404378222311e+000	 1.403143561267443e+000	 1.199011637693466e+001
 1.993873788325198e+000	 1.423716023728950e+000	 1.200488076972782e+001
 1.979119824767050e+000	 1.444155365330379e+000	 1.201096709972212e+001
 1.964144294314948e+000	 1.464457985438890e+000	 1.200808224623031e+001
 1.948949080478517e+000	 1.484620315675499e+000	 1.199593957202692e+001
 1.933536142801105e+000	 1.504638821945852e+000	 1.197425945337813e+001
 1.917907516086823e+000	 1.524510006452639e+000	 1.194276980723093e+001
 1.902065309564005e+000	 1.544230409687283e+000	 1.190120661435566e+001
 2.071563890266881e+000	 1.354344139619067e+000	 1.188927887553507e+001
 2.057572154592707e+000	 1.375507843896201e+000	 1.194466587426158e+001
 2.043349761657711e+000	 1.396548155813973e+000	 1.199181706715707e+001
 2.028898300446177e+000	 1.417461352708122e+000	 1.203038559788359e+001
 2.014219439223457e+000	 1.438243738255475e+000	 1.206002983645720e+001
 1.999314925016579e+000	 1.458891644566732e+000	 1.208041395692572e+001
 1.984186583029023e+000	 1.479401434267905e+000	 1.209120851563935e+001
 1.968836315989899e+000	 1.499769502567978e+000	 1.209209102887074e+001
 1.953266103437897e+000	 1.519992279310412e+000	 1.208274654852014e+001
 1.937478000940435e+000	 1.540066231006085e+000	 1.206286823462550e+001
 1.921474139248582e+000	 1.559987862845314e+000	 1.203215792338487e+001
 2.092488778043565e+000	 1.368024383455396e+000	 1.190416837944605e+001
 2.078355711706041e+000	 1.389401862522306e+000	 1.197510837157003e+001
 2.063989658236324e+000	 1.410654702842500e+000	 1.203735475108571e+001
 2.049392222669044e+000	 1.431779144149049e+000	 1.209052346019522e+001
 2.034565090120716e+000	 1.452771452782182e+000	 1.213423599595377e+001
 2.019510025265108e+000	 1.473627923803213e+000	 1.216812003400978e+001
 2.004228871742098e+000	 1.494344883097002e+000	 1.219181005285892e+001
 1.988723551500283e+000	 1.514918689460504e+000	 1.220494795728184e+001
 1.972996064073690e+000	 1.535345736674992e+000	 1.220718369961481e+001
 1.957048485793046e+000	 1.555622455559537e+000	 1.219817589748616e+001
 1.940882968932161e+000	 1.575745316003345e+000	 1.217759244663831e+001
 1.746794672051384e+000	 1.418170784423037e+000	 1.205220595232678e+001
 1.732051566727472e+000	 1.436139746095164e+000	 1.205226581025581e+001
 1.717116392458021e+000	 1.453963993669085e+000	 1.204500609580183e+001
 1.701991286151559e+000	 1.471640466286814e+000	 1.203095509612041e+001
 1.686678449421500e+000	 1.489166145337067e+000	 1.201067136687234e+001
 1.671180147536507e+000	 1.506538056157540e+000	 1.198474279874858e+001
 1.655498708317338e+000	 1.523753269705680e+000	 1.195378560168427e+001
 1.639636520981248e+000	 1.540808904196010e+000	 1.191844320887201e+001
 1.623596034935177e+000	 1.557702126702076e+000	 1.187938510294851e+001
 1.607379758518974e+000	 1.574430154721169e+000	 1.183730556698414e+001
 1.590990257700000e+000	 1.590990257700000e+000	 1.179292236315451e+001
 1.766203501743962e+000	 1.433928237581068e+000	 1.198334110589660e+001
 1.751296584138190e+000	 1.452096854383105e+000	 1.199595556256379e+001
 1.736195463487515e+000	 1.470119149152507e+000	 1.199914879236952e+001
 1.720902300443896e+000	 1.487992027021754e+000	 1.199344792844101e+001
 1.705419321083116e+000	 1.505712435839437e+000	 1.197941351226522e+001
 1.689748815843492e+000	 1.523277367891449e+000	 1.195763855220341e+001
 1.673893138410456e+000	 1.540683861590319e+000	 1.192874749401872e+001
 1.657854704548121e+000	 1.557929003130731e+000	 1.189339510555453e+001
 1.641635990879062e+000	 1.575009928109272e+000	 1.185226527798059e+001
 1.625239533613567e+000	 1.591923823106535e+000	 1.180606974629431e+001
 1.608667927229750e+000	 1.608667927229750e+000	 1.175554673202879e+001
 1.785612331435539e+000	 1.449685690739098e+000	 1.192117214407773e+001
 1.770541601547911e+000	 1.468053962671041e+000	 1.194554610785020e+001
 1.755274534516028e+000	 1.486274304635908e+000	 1.195841049795365e+001
 1.739813314735277e+000	 1.504343587756649e+000	 1.196029218269494e+001
 1.724160192743812e+000	 1.522258726341727e+000	 1.195175459934178e+001
 1.708317484149603e+000	 1.540016679625232e+000	 1.193339680348175e+001
 1.692287568502754e+000	 1.557614453474778e+000	 1.190585242465404e+001
 1.676072888114240e+000	 1.575049102065207e+000	 1.186978853042254e+001
 1.659675946822266e+000	 1.592317729516148e+000	 1.182590440135157e+001
 1.643099308707566e+000	 1.609417491491496e+000	 1.177493021963325e+001
 1.626345596759000e+000	 1.626345596759000e+000	 1.171762567439246e+001
 1.805021161126117e+000	 1.465443143897129e+000	 1.186646056611963e+001
 1.789786618956639e+000	 1.484011070958972e+000	 1.190181821535319e+001
 1.774353605543562e+000	 1.502429460119290e+000	 1.192358926919992e+001
 1.758724329025703e+000	 1.520695148491498e+000	 1.193230121476452e+001
 1.742901064403588e+000	 1.538805016843937e+000	 1.192852129103547e+001
 1.726886152454837e+000	 1.556755991358891e+000	 1.191285552794622e+001
 1.710681998594231e+000	 1.574545045359057e+000	 1.188594768590313e+001
 1.694291071679603e+000	 1.592169200999439e+000	 1.184847809798053e+001
 1.677715902764791e+000	 1.609625530922704e+000	 1.180116241729324e+001
 1.660959083800970e+000	 1.626911159876051e+000	 1.174475027235760e+001
 1.644023266287750e+000	 1.644023266287750e+000	 1.168002383354556e+001
 1.824429990815695e+000	 1.481200597055160e+000	 1.181998425093361e+001
 1.809031636364370e+000	 1.499968179246898e+000	 1.186556812093166e+001
 1.793432676570116e+000	 1.518584615602652e+000	 1.189549777234425e+001
 1.777635343315174e+000	 1.537046709226302e+000	 1.191030218959113e+001
 1.761641936062444e+000	 1.555351307346067e+000	 1.191055331576059e+001
 1.745454820759197e+000	 1.573495303092426e+000	 1.189686508023329e+001
 1.729076428684889e+000	 1.591475637243155e+000	 1.186989232089782e+001
 1.712509255244211e+000	 1.609289299933425e+000	 1.183032960319454e+001
 1.695755858706636e+000	 1.626933332328940e+000	 1.177890993854661e+001
 1.678818858893779e+000	 1.644404828260202e+000	 1.171640340505631e+001
 1.661700935816000e+000	 1.661700935816000e+000	 1.164361567365214e+001
 1.843838820504272e+000	 1.496958050213191e+000	 1.178253659500534e+001
 1.828276653771107e+000	 1.515925287534819e+000	 1.183760671303253e+001
 1.812511747595690e+000	 1.534739771085993e+000	 1.187496251428681e+001
 1.796546357603691e+000	 1.553398269961063e+000	 1.189513535438252e+001
 1.780382807720380e+000	 1.571897597848118e+000	 1.189870277975566e+001
 1.764023489062682e+000	 1.590234614825834e+000	 1.188628754271237e+001
 1.747470858774727e+000	 1.608406229127074e+000	 1.185855650512490e+001
 1.730727438808065e+000	 1.626409398867167e+000	 1.181621943304687e+001
 1.713795814647801e+000	 1.644241133734856e+000	 1.176002768486129e+001
 1.696678633985994e+000	 1.661898496643949e+000	 1.169077279590688e+001
 1.679378605343750e+000	 1.679378605343750e+000	 1.160928496285267e+001
 1.863247650191850e+000	 1.512715503371221e+000	 1.175492570418787e+001
 1.847521671176849e+000	 1.531882395822735e+000	 1.181875876953514e+001
 1.831590818620283e+000	 1.550894926569315e+000	 1.186282312172417e+001
 1.815457371891252e+000	 1.569749830695778e+000	 1.188765335724485e+001
 1.799123679377396e+000	 1.588443888350088e+000	 1.189383352240471e+001
 1.782592157365292e+000	 1.606973926559118e+000	 1.188199611466661e+001
 1.765865288863745e+000	 1.625336821010813e+000	 1.185282096661578e+001
 1.748945622371164e+000	 1.643529497800664e+000	 1.180703401486837e+001
 1.731835770588285e+000	 1.661548935140452e+000	 1.174540595658882e+001
 1.714538409077612e+000	 1.679392165027290e+000	 1.166875079663426e+001
 1.697056274871000e+000	 1.697056274871000e+000	 1.157792428868192e+001
 1.882656479878427e+000	 1.528472956529252e+000	 1.178503248881864e+001
 1.866766688581596e+000	 1.547839504110645e+000	 1.180986224180111e+001
 1.850669889643897e+000	 1.567050082052617e+000	 1.185993166487108e+001
 1.834368386177858e+000	 1.586101391430448e+000	 1.188872060796098e+001
 1.817864551033491e+000	 1.604990178851978e+000	 1.189682051143627e+001
 1.801160825667026e+000	 1.623713238292278e+000	 1.188487453925580e+001
 1.784259718951942e+000	 1.642267412894373e+000	 1.185357644200100e+001
 1.767163805933506e+000	 1.660649596733915e+000	 1.180366929879487e+001
 1.749875726528090e+000	 1.678856736545729e+000	 1.173594414083730e+001
 1.732398184168636e+000	 1.696885833410226e+000	 1.165123845964756e+001
 1.714733944397750e+000	 1.714733944397750e+000	 1.155043460346094e+001
 1.902065309564005e+000	 1.544230409687283e+000	 1.190120661435566e+001
 1.886011705985348e+000	 1.563796612398551e+000	 1.188122393909711e+001
 1.869748960666530e+000	 1.583205237535899e+000	 1.186715202258709e+001
 1.853279400463509e+000	 1.602452952165073e+000	 1.189921267790498e+001
 1.836605422688667e+000	 1.621536469353789e+000	 1.190854927515039e+001
 1.819729493967886e+000	 1.640452550025312e+000	 1.189581656556375e+001
 1.802654149039319e+000	 1.659198004777752e+000	 1.186172316586729e+001
 1.785381989495096e+000	 1.677769695666922e+000	 1.180703027190964e+001
 1.767915682467214e+000	 1.696164537950685e+000	 1.173255024786113e+001
 1.750257959259065e+000	 1.714379501792756e+000	 1.163914509412757e+001
 1.732411613923999e+000	 1.732411613923999e+000	 1.152772479752232e+001
 1.921474139248582e+000	 1.559987862845314e+000	 1.203215792338487e+001
 1.905256723388105e+000	 1.579753720686452e+000	 1.201807410670705e+001
 1.888828031688184e+000	 1.599360393019160e+000	 1.197467508655903e+001
 1.872190414748205e+000	 1.618804512899653e+000	 1.192001573632538e+001
 1.855346294342923e+000	 1.638082759855519e+000	 1.192991536905669e+001
 1.838298162267870e+000	 1.657191861758221e+000	 1.191572544324836e+001
 1.821048579125877e+000	 1.676128596660951e+000	 1.187817039106284e+001
 1.803600173055928e+000	 1.694889794599684e+000	 1.181803050183193e+001
 1.785955638405659e+000	 1.713472339355321e+000	 1.173614047554877e+001
 1.768117734348899e+000	 1.731873170174883e+000	 1.163338784901804e+001
 1.750089283449750e+000	 1.750089283449750e+000	 1.151071129830038e+001
 1.940882968932161e+000	 1.575745316003345e+000	 1.217759244663831e+001
 1.924501740789867e+000	 1.595710828974349e+000	 1.216888398818783e+001
 1.907907102708858e+000	 1.615515548502402e+000	 1.212927214260387e+001
 1.891101429031947e+000	 1.635156073634189e+000	 1.205833593921172e+001
 1.874087165996259e+000	 1.654629050357170e+000	 1.196182387451365e+001
 1.856866830566980e+000	 1.673931173491006e+000	 1.194551344751300e+001
 1.839443009211615e+000	 1.693059188543971e+000	 1.190383593778425e+001
 1.821818356616007e+000	 1.712009893532202e+000	 1.183759170769016e+001
 1.803995594343424e+000	 1.730780140759638e+000	 1.174763880004086e+001
 1.785977509438138e+000	 1.749366838556604e+000	 1.163489132103763e+001
 1.767766952975000e+000	 1.767766952975000e+000	 1.150031769347619e+001
 1.590990257700000e+000	 1.590990257700000e+000	 1.179292236315451e+001
 1.574430154721170e+000	 1.607379758518973e+000	 1.165166715213028e+001
 1.557702126702076e+000	 1.623596034935176e+000	 1.151668399019174e+001
 1.540808904196010e+000	 1.639636520981247e+000	 1.138896890659409e+001
 1.523753269705680e+000	 1.655498708317337e+000	 1.126952932445282e+001
 1.506538056157541e+000	 1.671180147536507e+000	 1.115938221568179e+001
 1.489166145337068e+000	 1.686678449421499e+000	 1.105955221399820e+001
 1.471640466286814e+000	 1.701991286151559e+000	 1.097106969063512e+001
 1.453963993669085e+000	 1.717116392458020e+000	 1.089496879753234e+001
 1.436139746095165e+000	 1.732051566727472e+000	 1.083228548289130e+001
 1.418170784423037e+000	 1.746794672051384e+000	 1.078405548407866e+001
 1.608667927229750e+000	 1.608667927229750e+000	 1.175554673202879e+001
 1.591923823106535e+000	 1.625239533613567e+000	 1.161611831793062e+001
 1.575009928109272e+000	 1.641635990879061e+000	 1.148578849029974e+001
 1.557929003130732e+000	 1.657854704548121e+000	 1.136559643032172e+001
 1.540683861590319e+000	 1.673893138410455e+000	 1.125659081990939e+001
 1.523277367891449e+000	 1.689748815843492e+000	 1.115982792752524e+001
 1.505712435839438e+000	 1.705419321083115e+000	 1.107636965365533e+001
 1.487992027021754e+000	 1.720902300443895e+000	 1.100728154073413e+001
 1.470119149152507e+000	 1.736195463487514e+000	 1.095363075244770e+001
 1.452096854383106e+000	 1.751296584138189e+000	 1.091648402745741e+001
 1.433928237581068e+000	 1.766203501743962e+000	 1.089690561267956e+001
 1.626345596759000e+000	 1.626345596759000e+000	 1.171762567439246e+001
 1.609417491491496e+000	 1.643099308707566e+000	 1.158001965482679e+001
 1.592317729516148e+000	 1.659675946822266e+000	 1.145425749533376e+001
 1.575049102065208e+000	 1.676072888114239e+000	 1.134142234562252e+001
 1.557614453474778e+000	 1.692287568502753e+000	 1.124260503702484e+001
 1.540016679625233e+000	 1.708317484149602e+000	 1.115890209762985e+001
 1.522258726341728e+000	 1.724160192743811e+000	 1.109141372854059e+001
 1.504343587756649e+000	 1.739813314735276e+000	 1.104124174621419e+001
 1.486274304635909e+000	 1.755274534516028e+000	 1.100948749597610e+001
 1.468053962671042e+000	 1.770541601547911e+000	 1.099724974190909e+001
 1.449685690739099e+000	 1.785612331435539e+000	 1.100562253840958e+001
 1.644023266287750e+000	 1.644023266287750e+000	 1.168002383354556e+001
 1.626911159876052e+000	 1.660959083800970e+000	 1.154421533737826e+001
 1.609625530922704e+000	 1.677715902764791e+000	 1.142291610621037e+001
 1.592169200999440e+000	 1.694291071679603e+000	 1.131725409203608e+001
 1.574545045359057e+000	 1.710681998594231e+000	 1.122836318272921e+001
 1.556755991358892e+000	 1.726886152454837e+000	 1.115738114489562e+001
 1.538805016843938e+000	 1.742901064403587e+000	 1.110544752920413e+001
 1.520695148491499e+000	 1.758724329025702e+000	 1.107370154332519e+001
 1.502429460119290e+000	 1.774353605543561e+000	 1.106327989773341e+001
 1.484011070958973e+000	 1.789786618956638e+000	 1.107531462973919e+001
 1.465443143897129e+000	 1.805021161126117e+000	 1.111093091120356e+001
 1.661700935816000e+000	 1.661700935816000e+000	 1.164361567365214e+001
 1.644404828260203e+000	 1.678818858893778e+000	 1.150955987044467e+001
 1.626933332328940e+000	 1.695755858706635e+000	 1.139260017974462e+001
 1.609289299933426e+000	 1.712509255244211e+000	 1.129391020657640e+001
 1.591475637243156e+000	 1.729076428684889e+000	 1.121466781884931e+001
 1.573495303092426e+000	 1.745454820759197e+000	 1.115605301631113e+001
 1.555351307346068e+000	 1.761641936062444e+000	 1.111924576322385e+001
 1.537046709226303e+000	 1.777635343315174e+000	 1.110542379006242e+001
 1.518584615602652e+000	 1.793432676570115e+000	 1.111576036966292e+001
 1.499968179246898e+000	 1.809031636364370e+000	 1.115142207335385e+001
 1.481200597055160e+000	 1.824429990815695e+000	 1.121356651269238e+001
 1.679378605343750e+000	 1.679378605343750e+000	 1.160928496285267e+001
 1.661898496643949e+000	 1.696678633985992e+000	 1.147691754548563e+001
 1.644241133734857e+000	 1.713795814647799e+000	 1.136415576255021e+001
 1.626409398867167e+000	 1.730727438808065e+000	 1.127221973965433e+001
 1.608406229127075e+000	 1.747470858774726e+000	 1.120233226448251e+001
 1.590234614825835e+000	 1.764023489062681e+000	 1.115571658021209e+001
 1.571897597848118e+000	 1.780382807720380e+000	 1.113359414378280e+001
 1.553398269961063e+000	 1.796546357603690e+000	 1.113718235449585e+001
 1.534739771085994e+000	 1.812511747595689e+000	 1.116769225854444e+001
 1.515925287534820e+000	 1.828276653771107e+000	 1.122632623518231e+001
 1.496958050213191e+000	 1.843838820504272e+000	 1.131427567032406e+001
 1.697056274871000e+000	 1.697056274871000e+000	 1.157792428868192e+001
 1.679392165027290e+000	 1.714538409077612e+000	 1.144716193084206e+001
 1.661548935140453e+000	 1.731835770588284e+000	 1.133843856032078e+001
 1.643529497800664e+000	 1.748945622371163e+000	 1.125302170750478e+001
 1.625336821010814e+000	 1.765865288863744e+000	 1.119218003572221e+001
 1.606973926559119e+000	 1.782592157365291e+000	 1.115718105746123e+001
 1.588443888350088e+000	 1.799123679377395e+000	 1.114928881646054e+001
 1.569749830695778e+000	 1.815457371891251e+000	 1.116976154132847e+001
 1.550894926569316e+000	 1.831590818620283e+000	 1.121984927647149e+001
 1.531882395822735e+000	 1.847521671176848e+000	 1.130079149621731e+001
 1.512715503371221e+000	 1.863247650191850e+000	 1.141381470810249e+001
 1.714733944397750e+000	 1.714733944397750e+000	 1.155043460346094e+001
 1.696885833410226e+000	 1.732398184168635e+000	 1.142117539354638e+001
 1.678856736545729e+000	 1.749875726528089e+000	 1.131631343993924e+001
 1.660649596733916e+000	 1.767163805933506e+000	 1.123716457848444e+001
 1.642267412894373e+000	 1.784259718951941e+000	 1.118504432003955e+001
 1.623713238292278e+000	 1.801160825667026e+000	 1.116126548781276e+001
 1.604990178851979e+000	 1.817864551033491e+000	 1.116713582148079e+001
 1.586101391430449e+000	 1.834368386177858e+000	 1.120395555392575e+001
 1.567050082052617e+000	 1.850669889643896e+000	 1.127301496655688e+001
 1.547839504110646e+000	 1.866766688581595e+000	 1.137559192928499e+001
 1.528472956529252e+000	 1.882656479878427e+000	 1.140363388961284e+001
 1.732411613923999e+000	 1.732411613923999e+000	 1.152772479752232e+001
 1.714379501792757e+000	 1.750257959259064e+000	 1.139984865040967e+001
 1.696164537950685e+000	 1.767915682467214e+000	 1.129865396206994e+001
 1.677769695666922e+000	 1.785381989495094e+000	 1.122550579082071e+001
 1.659198004777753e+000	 1.802654149039319e+000	 1.118176748284560e+001
 1.640452550025312e+000	 1.819729493967885e+000	 1.116879822894864e+001
 1.621536469353789e+000	 1.836605422688667e+000	 1.118795058888261e+001
 1.602452952165074e+000	 1.853279400463509e+000	 1.124056798928166e+001
 1.583205237535899e+000	 1.869748960666530e+000	 1.132798220134992e+001
 1.563796612398552e+000	 1.886011705985347e+000	 1.130478176925435e+001
 1.544230409687283e+000	 1.902065309564005e+000	 1.123992730233735e+001
 1.750089283449750e+000	 1.750089283449750e+000	 1.151071129830038e+001
 1.731873170174883e+000	 1.768117734348898e+000	 1.138408034631563e+001
 1.713472339355322e+000	 1.785955638405657e+000	 1.128634194207902e+001
 1.694889794599685e+000	 1.803600173055928e+000	 1.121891129958770e+001
 1.676128596660952e+000	 1.821048579125876e+000	 1.118320060395926e+001
 1.657191861758222e+000	 1.838298162267869e+000	 1.118061648587593e+001
 1.638082759855520e+000	 1.855346294342922e+000	 1.121255746428728e+001
 1.618804512899654e+000	 1.872190414748205e+000	 1.128041136359313e+001
 1.599360393019161e+000	 1.888828031688183e+000	 1.121341503699964e+001
 1.579753720686453e+000	 1.905256723388104e+000	 1.114077394757097e+001
 1.559987862845314e+000	 1.921474139248582e+000	 1.109658575520848e+001
 1.767766952975000e+000	 1.767766952975000e+000	 1.150031769347619e+001
 1.749366838556605e+000	 1.785977509438138e+000	 1.137477665781694e+001
 1.730780140759639e+000	 1.803995594343423e+000	 1.128026703729915e+001
 1.712009893532202e+000	 1.821818356616006e+000	 1.121825515086420e+001
 1.693059188543972e+000	 1.839443009211614e+000	 1.119020304188657e+001
 1.673931173491007e+000	 1.856866830566979e+000	 1.119756586856078e+001
 1.654629050357171e+000	 1.874087165996258e+000	 1.124178926311918e+001
 1.635156073634190e+000	 1.891101429031946e+000	 1.113672054408439e+001
 1.615515548502403e+000	 1.907907102708857e+000	 1.105171275407942e+001
 1.595710828974350e+000	 1.924501740789867e+000	 1.099726008989820e+001
 1.575745316003345e+000	 1.940882968932160e+000	 1.097349635423343e+001
 1.418170784423037e+000	 1.746794672051384e+000	 1.078405548407866e+001
 1.400060210025256e+000	 1.761343637221932e+000	 1.068399689743372e+001
 1.381811163030106e+000	 1.775696457670766e+000	 1.058413686487886e+001
 1.363426820537300e+000	 1.789851196351457e+000	 1.048497733718526e+001
 1.344910394809678e+000	 1.803805984566350e+000	 1.038702994833371e+001
 1.326265131444095e+000	 1.817559022734820e+000	 1.029081443666327e+001
 1.307494307523293e+000	 1.831108581103128e+000	 1.019685704732521e+001
 1.288601229750901e+000	 1.844453000395383e+000	 1.010568892063856e+001
 1.269589232571737e+000	 1.857590692405196e+000	 1.001784447096018e+001
 1.250461676279599e+000	 1.870520140527698e+000	 9.933859760682239e+000
 1.231221945114724e+000	 1.883239900231722e+000	 9.725952512931492e+000
 1.433928237581068e+000	 1.766203501743962e+000	 1.089690561267956e+001
 1.415616434578662e+000	 1.780914122083543e+000	 1.080982948623099e+001
 1.397164620394504e+000	 1.795426418315558e+000	 1.072674595390171e+001
 1.378576007429416e+000	 1.809738431870839e+000	 1.064823694952891e+001
 1.359853843638046e+000	 1.823848273288425e+000	 1.057489085897965e+001
 1.341001410679438e+000	 1.837754122992348e+000	 1.050730083758682e+001
 1.322022022048364e+000	 1.851454232009386e+000	 1.044606311322899e+001
 1.302919021189604e+000	 1.864946922627249e+000	 1.039177527985386e+001
 1.283695779597363e+000	 1.878230588992808e+000	 1.027078398684748e+001
 1.264355694902036e+000	 1.891303697650032e+000	 9.918776630892717e+000
 1.244902188946530e+000	 1.904164788017406e+000	 9.585238196746605e+000
 1.449685690739099e+000	 1.785612331435539e+000	 1.100562253840958e+001
 1.431172659132072e+000	 1.800484606944155e+000	 1.093291123344018e+001
 1.412518077758921e+000	 1.815156378959350e+000	 1.086790225360909e+001
 1.393725194321577e+000	 1.829625667389221e+000	 1.081125799011497e+001
 1.374797292466496e+000	 1.843890562009499e+000	 1.076364412150485e+001
 1.355737689914908e+000	 1.857949223248877e+000	 1.072572782572079e+001
 1.336549736573618e+000	 1.871799882914645e+000	 1.069817598204591e+001
 1.317236812628554e+000	 1.885440844858115e+000	 1.045679537637963e+001
 1.297802326623311e+000	 1.898870485579421e+000	 1.014472147758094e+001
 1.278249713524880e+000	 1.912087254771366e+000	 9.828498545057254e+000
 1.258582432778837e+000	 1.925089675802090e+000	 9.508089615165037e+000
 1.465443143897129e+000	 1.805021161126117e+000	 1.111093091120356e+001
 1.446728883685487e+000	 1.820055091803766e+000	 1.105389147120393e+001
 1.427871535123359e+000	 1.834886339602142e+000	 1.100818177486656e+001
 1.408874381213784e+000	 1.849512902906604e+000	 1.097454518685088e+001
 1.389740741295026e+000	 1.863932850729574e+000	 1.095372525970924e+001
 1.370473969150504e+000	 1.878144323504406e+000	 1.088525371532241e+001
 1.351077451099052e+000	 1.892145533818904e+000	 1.060799644661112e+001
 1.331554604067752e+000	 1.905934767087981e+000	 1.033008604312647e+001
 1.311908873649581e+000	 1.919510382165034e+000	 1.005147014137977e+001
 1.292143732148132e+000	 1.932870811891701e+000	 9.772112193944198e+000
 1.272262676611648e+000	 1.946014563585775e+000	 9.491991583325182e+000
 1.481200597055160e+000	 1.824429990815695e+000	 1.121356651269238e+001
 1.462285108238908e+000	 1.839625576662378e+000	 1.117343328952470e+001
 1.443224992487817e+000	 1.854616300243934e+000	 1.114817680963456e+001
 1.424023568106036e+000	 1.869400138422987e+000	 1.113862196802437e+001
 1.404684190123637e+000	 1.883975139448649e+000	 1.098235807030666e+001
 1.385210248386227e+000	 1.898339423758935e+000	 1.073041286431109e+001
 1.365605165624668e+000	 1.912491184722162e+000	 1.048114345577733e+001
 1.345872395507196e+000	 1.926428689316847e+000	 1.023450656387477e+001
 1.326015420676174e+000	 1.940150278749647e+000	 9.990471624908262e+000
 1.306037750771791e+000	 1.953654369011034e+000	 9.749020935809245e+000
 1.285942920444961e+000	 1.966939451368459e+000	 9.510149768758907e+000
 1.496958050213191e+000	 1.843838820504272e+000	 1.131427567032406e+001
 1.477841332792333e+000	 1.859196061519989e+000	 1.129221281216707e+001
 1.458578449852296e+000	 1.874346260884727e+000	 1.128849507406823e+001
 1.439172754998333e+000	 1.889287373938369e+000	 1.106150135838436e+001
 1.419627638952329e+000	 1.904017428166724e+000	 1.082971057998036e+001
 1.399946527622076e+000	 1.918534524012463e+000	 1.060380853646696e+001
 1.380132880150467e+000	 1.932836835624421e+000	 1.038376642670636e+001
 1.360190186946887e+000	 1.946922611544713e+000	 1.016956510447293e+001
 1.340121967703089e+000	 1.960790175333259e+000	 9.961195244412958e+000
 1.319931769395858e+000	 1.974437926129369e+000	 9.758657483012478e+000
 1.299623164278777e+000	 1.987864339150143e+000	 9.561962534268465e+000
 1.512715503371221e+000	 1.863247650191850e+000	 1.141381470810249e+001
 1.493397557345764e+000	 1.878766546376600e+000	 1.135327290504535e+001
 1.473931907216795e+000	 1.894076221524520e+000	 1.112773745120045e+001
 1.454321941890676e+000	 1.909174609452752e+000	 1.091119844119668e+001
 1.434571087781102e+000	 1.924059716883798e+000	 1.070364036477236e+001
 1.414682806858051e+000	 1.938729624264992e+000	 1.050505414763615e+001
 1.394660594676446e+000	 1.953182486525680e+000	 1.031543735340005e+001
 1.374507978386826e+000	 1.967416533771579e+000	 1.013479436492411e+001
 1.354228514730327e+000	 1.981430071915872e+000	 9.963136544598402e+000
 1.333825788020333e+000	 1.995221483246703e+000	 9.800482373158525e+000
 1.313303408113096e+000	 2.008789226930828e+000	 9.646857566700243e+000
 1.528472956529252e+000	 1.882656479878427e+000	 1.140363388961284e+001
 1.508953781899199e+000	 1.898337031232211e+000	 1.118576448368397e+001
 1.489285364581314e+000	 1.913806182163311e+000	 1.097983065186955e+001
 1.469471128783066e+000	 1.929061844966134e+000	 1.078584466875532e+001
 1.449514536609956e+000	 1.944102005599873e+000	 1.060382227704838e+001
 1.429419086094151e+000	 1.958924724516520e+000	 1.043378289385564e+001
 1.409188309202608e+000	 1.973528137425939e+000	 1.027574980041667e+001
 1.388825769827011e+000	 1.987910455997445e+000	 1.012975031473872e+001
 1.368335061757886e+000	 2.002069968497485e+000	 9.995815946644738e+000
 1.347719806645215e+000	 2.016005040363038e+000	 9.873982534805819e+000
 1.326983651947916e+000	 2.029714114710512e+000	 9.764290365395635e+000
 1.544230409687283e+000	 1.902065309564005e+000	 1.123992730233735e+001
 1.524510006452640e+000	 1.917907516086823e+000	 1.104020912280760e+001
 1.504638821945853e+000	 1.933536142801104e+000	 1.085527608564551e+001
 1.484620315675499e+000	 1.948949080478516e+000	 1.068517367688123e+001
 1.464457985438891e+000	 1.964144294314948e+000	 1.052994815499743e+001
 1.444155365330379e+000	 1.979119824767049e+000	 1.038964674215987e+001
 1.423716023728951e+000	 1.993873788325197e+000	 1.026431780233211e+001
 1.403143561267443e+000	 2.008404378222311e+000	 1.015401100571486e+001
 1.382441608785769e+000	 2.022709865078098e+000	 1.005877747899983e+001
 1.361613825270505e+000	 2.036788597478372e+000	 9.978669940989231e+000
 1.340663895783240e+000	 2.050639002489196e+000	 9.913742823186354e+000
 1.559987862845314e+000	 1.921474139248582e+000	 1.109658575520848e+001
 1.540066231006086e+000	 1.937478000940434e+000	 1.091644033648277e+001
 1.519992279310412e+000	 1.953266103437896e+000	 1.075386359406551e+001
 1.499769502567979e+000	 1.968836315989899e+000	 1.060893345315399e+001
 1.479401434267906e+000	 1.984186583029023e+000	 1.048172596476230e+001
 1.458891644566733e+000	 1.999314925016578e+000	 1.037231548255036e+001
 1.438243738255476e+000	 2.014219439223456e+000	 1.028077482990096e+001
 1.417461352708123e+000	 2.028898300446176e+000	 1.020717545667125e+001
 1.396548155813973e+000	 2.043349761657711e+000	 1.015158758509300e+001
 1.375507843896202e+000	 2.057572154592706e+000	 1.011408034434741e+001
 1.354344139619067e+000	 2.071563890266881e+000	 1.009472189338999e+001
 1.575745316003345e+000	 1.940882968932160e+000	 1.097349635423343e+001
 1.555622455559537e+000	 1.957048485793046e+000	 1.081430166942835e+001
 1.535345736674993e+000	 1.972996064073689e+000	 1.067539488897214e+001
 1.514918689460505e+000	 1.988723551500282e+000	 1.055688561932432e+001
 1.494344883097003e+000	 2.004228871742098e+000	 1.045887899404158e+001
 1.473627923803214e+000	 2.019510025265108e+000	 1.038147583684770e+001
 1.452771452782183e+000	 2.034565090120716e+000	 1.032477281824715e+001
 1.431779144149050e+000	 2.049392222669043e+000	 1.028886260509602e+001
 1.410654702842501e+000	 2.063989658236324e+000	 1.027383400258592e+001
 1.389401862522308e+000	 2.078355711706041e+000	 1.027977208814277e+001
 1.368024383455396e+000	 2.092488778043565e+000	 1.030675833678538e+001
 1.231221945114724e+000	 1.883239900231722e+000	 9.725952512931492e+000
 1.211873445353537e+000	 1.895748599471812e+000	 9.580768344671954e+000
 1.192419603391557e+000	 1.908044939040537e+000	 9.429514978596663e+000
 1.172863863822528e+000	 1.920127692860818e+000	 9.274585048862313e+000
 1.153209687516760e+000	 1.931995708218037e+000	 9.118344118342783e+000
 1.133460549699555e+000	 1.943647905932685e+000	 8.963124629305947e+000
 1.113619938032246e+000	 1.955083280473654e+000	 8.811219966666572e+000
 1.093691350697970e+000	 1.966300900012589e+000	 8.664878648771236e+000
 1.073678294494223e+000	 1.977299906419739e+000	 8.526298660130795e+000
 1.053584282934247e+000	 1.988079515201899e+000	 8.397621939926086e+000
 1.033412834359236e+000	 1.998639015383027e+000	 8.280929039490170e+000
 1.244902188946530e+000	 1.904164788017406e+000	 9.585238196746605e+000
 1.225338705854776e+000	 1.916812472804541e+000	 9.509047374591646e+000
 1.205668710093352e+000	 1.929245438368385e+000	 9.418690402615610e+000
 1.185895684529262e+000	 1.941462445008779e+000	 9.316637343225601e+000
 1.166023128486933e+000	 1.953462327203166e+000	 9.205338756805809e+000
 1.146054555805279e+000	 1.965243993781153e+000	 9.087219367263776e+000
 1.125993492897427e+000	 1.976806428039065e+000	 8.964671833427518e+000
 1.105843476815215e+000	 1.988148687794897e+000	 8.840050642022852e+000
 1.085608053320555e+000	 1.999269905384127e+000	 8.715666137413756e+000
 1.065290774965725e+000	 2.010169287596954e+000	 8.593778702703581e+000
 1.044895199184599e+000	 2.020846115557606e+000	 8.476593106159715e+000
 1.258582432778837e+000	 1.925089675802090e+000	 9.508089615165037e+000
 1.238803966356609e+000	 1.937876346136270e+000	 9.445706499101966e+000
 1.218917816795809e+000	 1.950445937695232e+000	 9.411999530006320e+000
 1.198927505236709e+000	 1.962797197155740e+000	 9.358740159592740e+000
 1.178836569457846e+000	 1.974928946187296e+000	 9.288469033204837e+000
 1.158648561911752e+000	 1.986840081628622e+000	 9.203708118688166e+000
 1.138367047763346e+000	 1.998529575603476e+000	 9.106954178898038e+000
 1.117995602933167e+000	 2.009996475576207e+000	 9.000672360065449e+000
 1.097537812147544e+000	 2.021239904347514e+000	 8.887289911991800e+000
 1.076997266997789e+000	 2.032259059991008e+000	 8.769190055448000e+000
 1.056377564010459e+000	 2.043053215731184e+000	 8.648706011518792e+000
 1.272262676611648e+000	 1.946014563585775e+000	 9.491991583325182e+000
 1.252269226859034e+000	 1.958940219467000e+000	 9.407177599740058e+000
 1.232166923498929e+000	 1.971646437021081e+000	 9.411655213842257e+000
 1.211959325944866e+000	 1.984131949301701e+000	 9.403121871631294e+000
 1.191650010429500e+000	 1.996395565170424e+000	 9.369972362707996e+000
 1.171242568018976e+000	 2.008436169475089e+000	 9.314830922179407e+000
 1.150740602630004e+000	 2.020252723166887e+000	 9.240303311818213e+000
 1.130147729051826e+000	 2.031844263356515e+000	 9.148970096892297e+000
 1.109467570975189e+000	 2.043209903309901e+000	 9.043380050130317e+000
 1.088703759030439e+000	 2.054348832384063e+000	 8.926043698994526e+000
 1.067859928836815e+000	 2.065260315903762e+000	 8.799427031787461e+000
 1.285942920444961e+000	 1.966939451368459e+000	 9.510149768758907e+000
 1.265734487362051e+000	 1.980004092796729e+000	 9.462161857912445e+000
 1.245416030202710e+000	 1.992846936345929e+000	 9.419895550635468e+000
 1.224991146653735e+000	 2.005466701446662e+000	 9.452032762973744e+000
 1.204463451401895e+000	 2.017862184152553e+000	 9.452104985775257e+000
 1.183836574126948e+000	 2.030032257320558e+000	 9.422843806280882e+000
 1.163114157497400e+000	 2.041975870729298e+000	 9.366968945212200e+000
 1.142299855171193e+000	 2.053692051135824e+000	 9.287181215015689e+000
 1.121397329803491e+000	 2.065179902271288e+000	 9.186155600791034e+000
 1.100410251063676e+000	 2.076438604776118e+000	 9.066534480883442e+000
 1.079342293663667e+000	 2.087467416075340e+000	 8.930921003465944e+000
 1.299623164278777e+000	 1.987864339150143e+000	 9.561962534268465e+000
 1.279199747865662e+000	 2.001067966125458e+000	 9.548086815782378e+000
 1.258665136907154e+000	 2.014047435669777e+000	 9.501927008000594e+000
 1.238022967363315e+000	 2.026801453590623e+000	 9.507743874062015e+000
 1.217276892375029e+000	 2.039328803133682e+000	 9.537140977353964e+000
 1.196430580235670e+000	 2.051628345165026e+000	 9.530017947903396e+000
 1.175487712365535e+000	 2.063699018290709e+000	 9.489213490899447e+000
 1.154451981291268e+000	 2.075539838914133e+000	 9.417553562913653e+000
 1.133327088632449e+000	 2.087149901231675e+000	 9.317844122858553e+000
 1.112116743097499e+000	 2.098528377167173e+000	 9.192864019217650e+000
 1.090824658491015e+000	 2.109674516245919e+000	 9.045358030688249e+000
 1.313303408113096e+000	 2.008789226930828e+000	 9.646857566700243e+000
 1.292665008369864e+000	 2.022131839453188e+000	 9.664460765372915e+000
 1.271914243612259e+000	 2.035247934992624e+000	 9.642399832054089e+000
 1.251054788073606e+000	 2.048136205733584e+000	 9.580572435920338e+000
 1.230090333348905e+000	 2.060795422113811e+000	 9.627371317998827e+000
 1.209024586345141e+000	 2.073224433008494e+000	 9.638638883347740e+000
 1.187861267234408e+000	 2.085422165851120e+000	 9.609311398099200e+000
 1.166604107412051e+000	 2.097387626691442e+000	 9.542344928885919e+000
 1.145256847462065e+000	 2.109119900191063e+000	 9.440681241914964e+000
 1.123823235131909e+000	 2.120618149557228e+000	 9.307240350029451e+000
 1.102307023318859e+000	 2.131881616415496e+000	 9.144913210866330e+000
 1.326983651947916e+000	 2.029714114710512e+000	 9.764290365395635e+000
 1.306130268874659e+000	 2.043195712779917e+000	 9.810816550027749e+000
 1.285163350318026e+000	 2.056448434314472e+000	 9.810444832705516e+000
 1.264086608784609e+000	 2.069470957875546e+000	 9.763022489214487e+000
 1.242903774323520e+000	 2.082262041092940e+000	 9.725103022449165e+000
 1.221618592455363e+000	 2.094820520850962e+000	 9.751005768129819e+000
 1.200234822104020e+000	 2.107145313410531e+000	 9.729548532946170e+000
 1.178756233533540e+000	 2.119235414467751e+000	 9.663822528691897e+000
 1.157186606292338e+000	 2.131089899149449e+000	 9.556910234431216e+000
 1.135529727166904e+000	 2.142707921946283e+000	 9.411877596459137e+000
 1.113789388147199e+000	 2.154088716584075e+000	 9.231766377304624e+000
 1.340663895783240e+000	 2.050639002489196e+000	 9.913742823186354e+000
 1.319595529380046e+000	 2.064259586105647e+000	 9.986710311792686e+000
 1.298412457024456e+000	 2.077648933635320e+000	 1.000568760212856e+001
 1.277118429496323e+000	 2.090805710016507e+000	 9.970472007503858e+000
 1.255717215298877e+000	 2.103728660071070e+000	 9.880927283903711e+000
 1.234212598566333e+000	 2.116416608692430e+000	 9.869430682122955e+000
 1.212608376974371e+000	 2.128868460968941e+000	 9.852221595994646e+000
 1.190908359655738e+000	 2.141083202243059e+000	 9.784262524557915e+000
 1.169116365123267e+000	 2.153059898106837e+000	 9.668781637415016e+000
 1.147236219202486e+000	 2.164797694334337e+000	 9.508995658188626e+000
 1.125271752976035e+000	 2.176295816751653e+000	 9.308101857572803e+000
 1.354344139619067e+000	 2.071563890266881e+000	 1.009472189338999e+001
 1.333060789886026e+000	 2.085323459430376e+000	 1.019172031471384e+001
 1.311661563731547e+000	 2.098849432955168e+000	 1.022777310577859e+001
 1.290150250208748e+000	 2.112140462156468e+000	 1.020262803060435e+001
 1.268530656274973e+000	 2.125195279048198e+000	 1.011610697167710e+001
 1.246806604678054e+000	 2.138012696532898e+000	 9.996237976812388e+000
 1.224981931845459e+000	 2.150591608526352e+000	 9.979637575025562e+000
 1.203060485778643e+000	 2.162930990017368e+000	 9.905949573335459e+000
 1.181046123954853e+000	 2.175029897063224e+000	 9.778552881717722e+000
 1.158942711238654e+000	 2.186887466721392e+000	 9.600819919696534e+000
 1.136754117805368e+000	 2.198502916918232e+000	 9.376108246522822e+000
 1.368024383455396e+000	 2.092488778043565e+000	 1.030675833678538e+001
 1.346526050392599e+000	 2.106387332754106e+000	 1.042544583873721e+001
 1.324910670439301e+000	 2.120049932274017e+000	 1.047636471372867e+001
 1.303182070921886e+000	 2.133475214295430e+000	 1.045921357256334e+001
 1.281344097251811e+000	 2.146661898024328e+000	 1.037377273986670e+001
 1.259400610790523e+000	 2.159608784372368e+000	 1.021990398283315e+001
 1.237355486717287e+000	 2.172314756082764e+000	 1.011411323068555e+001
 1.215212611902257e+000	 2.184778777790677e+000	 1.003117640176988e+001
 1.192975882787096e+000	 2.196999896018612e+000	 9.888487947341652e+000
 1.170649203275409e+000	 2.208977239107448e+000	 9.689580976018759e+000
 1.148236482635196e+000	 2.220710017083810e+000	 9.437978192924664e+000
 1.033412834359236e+000	 1.998639015383027e+000	 8.280929039490170e+000
 1.013167470062905e+000	 2.008977769327879e+000	 8.195662797798068e+000
 9.928517124315605e-001	 2.019095212510688e+000	 8.107461688516949e+000
 9.724690831009006e-001	 2.028990853228824e+000	 8.018145732640964e+000
 9.520231011303467e-001	 2.038664272261591e+000	 7.929470553012278e+000
 9.315172811979676e-001	 2.048115122476415e+000	 7.843122907927918e+000
 9.109551318173340e-001	 2.057343128383052e+000	 7.760716439013052e+000
 8.903401535779654e-001	 2.066348085636912e+000	 7.683787641842656e+000
 8.696758374109875e-001	 2.075129860492684e+000	 7.613792066990418e+000
 8.489656628815507e-001	 2.083688389209485e+000	 7.552100758372150e+000
 8.282130965095028e-001	 2.092023677408817e+000	 7.499996934924981e+000
 1.044895199184599e+000	 2.020846115557606e+000	 8.476593106159715e+000
 1.024424886396339e+000	 2.031299744546037e+000	 8.383376725345011e+000
 1.003883398124834e+000	 2.041529603764009e+000	 8.289203762399859e+000
 9.832742951350689e-001	 2.051535196045529e+000	 8.196023959116607e+000
 9.626011355871265e-001	 2.061316097511893e+000	 8.105718939891373e+000
 9.418674732110532e-001	 2.070871957173500e+000	 8.020097536537696e+000
 9.210768555039051e-001	 2.080202496479100e+000	 7.940891337164341e+000
 9.002328219506407e-001	 2.089307508813609e+000	 7.869750467948735e+000
 8.793389022705098e-001	 2.098186858945657e+000	 7.808239615794703e+000
 8.583986146904981e-001	 2.106840482426126e+000	 7.757834299019639e+000
 8.374154642473412e-001	 2.115268384938982e+000	 7.719917392358008e+000
 1.056377564010459e+000	 2.043053215731184e+000	 8.648706011518792e+000
 1.035682302730179e+000	 2.053621719763194e+000	 8.546454543889794e+000
 1.014915083818444e+000	 2.063963995016330e+000	 8.445230973836136e+000
 9.940795071695259e-001	 2.074079538861236e+000	 8.347118856807715e+000
 9.731791700441653e-001	 2.083967922761197e+000	 8.254129852304237e+000
 9.522176652243896e-001	 2.093628791869585e+000	 8.168198833784405e+000
 9.311985791907380e-001	 2.103061864574148e+000	 8.091179232648866e+000
 9.101254903236087e-001	 2.112266931989306e+000	 8.024838625479951e+000
 8.890019671303761e-001	 2.121243857397628e+000	 7.970854572851120e+000
 8.678315664998603e-001	 2.129992575641767e+000	 7.930810717137304e+000
 8.466178319856844e-001	 2.138513092468148e+000	 7.906193145863731e+000
 1.067859928836815e+000	 2.065260315903762e+000	 8.799427031787461e+000
 1.046939719064425e+000	 2.075943694979352e+000	 8.686972070209118e+000
 1.025946769512391e+000	 2.086398386267651e+000	 8.577536165812726e+000
 1.004884719204270e+000	 2.096623881675940e+000	 8.473340856254422e+000
 9.837572045014631e-001	 2.106619748009500e+000	 8.376531944207153e+000
 9.625678572379760e-001	 2.116385626564670e+000	 8.289174386168705e+000
 9.413203028778328e-001	 2.125921232668197e+000	 8.213247425562507e+000
 9.200181586968704e-001	 2.135226355164003e+000	 8.150639979678545e+000
 8.986650319905866e-001	 2.144300855848600e+000	 8.103146289099128e+000
 8.772645183096371e-001	 2.153144668856408e+000	 8.072461837335055e+000
 8.558201997245326e-001	 2.161757799996312e+000	 8.060179547472101e+000
 1.079342293663667e+000	 2.087467416075340e+000	 8.930921003465944e+000
 1.058197135399078e+000	 2.098265670194510e+000	 8.807011431624867e+000
 1.036978455206676e+000	 2.108832777517972e+000	 8.688119219271437e+000
 1.015689931239302e+000	 2.119168224489647e+000	 8.576608130282960e+000
 9.943352389590204e-001	 2.129271573256804e+000	 8.474762292889196e+000
 9.729180492518131e-001	 2.139142461258754e+000	 8.384780861094964e+000
 9.514420265651892e-001	 2.148780600761245e+000	 8.308772930826253e+000
 9.299108270704248e-001	 2.158185778337700e+000	 8.248752720725475e+000
 9.083280968511410e-001	 2.167357854298572e+000	 8.206635026579129e+000
 8.866974701198294e-001	 2.176296762070050e+000	 8.184230957409788e+000
 8.650225674638863e-001	 2.185002507523477e+000	 8.183243960298643e+000
 1.090824658491015e+000	 2.109674516245919e+000	 9.045358030688249e+000
 1.069454551734137e+000	 2.120587645408667e+000	 8.908660733870489e+000
 1.048010140901297e+000	 2.131267168767293e+000	 8.778986682690485e+000
 1.026495143274623e+000	 2.141712567302352e+000	 8.658846186516881e+000
 1.004913273416837e+000	 2.151923398503107e+000	 8.550665955638856e+000
 9.832682412659007e-001	 2.161899295951840e+000	 8.456783528929172e+000
 9.615637502528079e-001	 2.171639968853294e+000	 8.379441966879828e+000
 9.398034954442726e-001	 2.181145201510397e+000	 8.320784820322155e+000
 9.179911617120399e-001	 2.190414852747544e+000	 8.282851384164500e+000
 8.961304219304360e-001	 2.199448855282691e+000	 8.267572244493602e+000
 8.742249352037450e-001	 2.208247215049642e+000	 8.276765126382168e+000
 1.102307023318859e+000	 2.131881616415496e+000	 9.144913210866330e+000
 1.080711968069602e+000	 2.142909620621825e+000	 8.994013749715052e+000
 1.059041826596255e+000	 2.153701560015614e+000	 8.852151424816727e+000
 1.037300355310231e+000	 2.164256910114057e+000	 8.721987485356795e+000
 1.015491307874912e+000	 2.174575223748410e+000	 8.606095554119102e+000
 9.936184332802392e-001	 2.184656130643925e+000	 8.506955814927867e+000
 9.716854739406878e-001	 2.194499336944341e+000	 8.426949476331622e+000
 9.496961638184135e-001	 2.204104624682095e+000	 8.368353522236514e+000
 9.276542265732828e-001	 2.213471851195516e+000	 8.333335759184561e+000
 9.055633737414577e-001	 2.222600948494332e+000	 8.323950168942494e+000
 8.834273029441089e-001	 2.231491922574806e+000	 8.342132574032274e+000
 1.113789388147199e+000	 2.154088716584075e+000	 9.231766377304624e+000
 1.091969384405474e+000	 2.165231595833983e+000	 9.065169626848210e+000
 1.070073512291550e+000	 2.176135951262935e+000	 8.909632308878512e+000
 1.048105567346128e+000	 2.186801252924763e+000	 8.767971081589293e+000
 1.026069342333247e+000	 2.197227048992712e+000	 8.642910884451132e+000
 1.003968625294828e+000	 2.207412965335010e+000	 8.537078878883317e+000
 9.818071976288300e-001	 2.217358705034390e+000	 8.452998676259441e+000
 9.595888321928472e-001	 2.227064047852791e+000	 8.393084864361635e+000
 9.373172914348700e-001	 2.236528849642489e+000	 8.359637842349539e+000
 9.149963255528941e-001	 2.245753041704973e+000	 8.354838973242423e+000
 8.926296706849778e-001	 2.254736630098971e+000	 8.380746061836051e+000
 1.125271752976035e+000	 2.176295816751653e+000	 9.308101857572803e+000
 1.103226800741752e+000	 2.187553571045140e+000	 9.124232613649591e+000
 1.081105197987183e+000	 2.198570342509257e+000	 8.953453886745201e+000
 1.058910779382311e+000	 2.209345595734469e+000	 8.798742287939083e+000
 1.036647376791840e+000	 2.219878874236016e+000	 8.662978551170534e+000
 1.014318817309667e+000	 2.230169800025095e+000	 8.548941220503773e+000
 9.919289213172341e-001	 2.240218073123438e+000	 8.459300636043484e+000
 9.694815005675743e-001	 2.250023471022488e+000	 8.396613230035266e+000
 9.469803562968012e-001	 2.259585848088461e+000	 8.363316143598709e+000
 9.244292773647455e-001	 2.268905134914613e+000	 8.361722173431057e+000
 9.018320384263519e-001	 2.277981337622136e+000	 8.394015056705324e+000
 1.136754117805368e+000	 2.198502916918232e+000	 9.376108246522822e+000
 1.114484217078436e+000	 2.209875546255298e+000	 9.173311801577983e+000
 1.092136883683152e+000	 2.221004733754577e+000	 8.985646111621781e+000
 1.069715991418784e+000	 2.231889938543174e+000	 8.816252359011271e+000
 1.047225411250693e+000	 2.242530699478319e+000	 8.668171623368124e+000
 1.024669009324757e+000	 2.252926634714181e+000	 8.544338308711300e+000
 1.002050645005900e+000	 2.263077441211487e+000	 8.447573880785662e+000
 9.793741689425942e-001	 2.272982894191185e+000	 8.380580926553407e+000
 9.566434211590766e-001	 2.282642846533432e+000	 8.345937546684569e+000
 9.338622291770118e-001	 2.292057228123255e+000	 8.346092090736619e+000
 9.110344061682311e-001	 2.301226045144301e+000	 8.383358243556918e+000
 1.148236482635196e+000	 2.220710017083810e+000	 9.437978192924664e+000
 1.125741633415527e+000	 2.232197521464456e+000	 9.214520883017681e+000
 1.103168569379458e+000	 2.243439124998900e+000	 9.008244067982044e+000
 1.080521203455544e+000	 2.254434281350881e+000	 8.822458194197324e+000
 1.057803445709806e+000	 2.265182524719623e+000	 8.660369311462093e+000
 1.035019201340097e+000	 2.275683469402266e+000	 8.525072233180422e+000
 1.012172368694828e+000	 2.285936809298535e+000	 8.419544018523238e+000
 9.892668373179077e-001	 2.295942317358883e+000	 8.346637788971897e+000
 9.663064860216967e-001	 2.305699844977406e+000	 8.309076890482082e+000
 9.432951809896932e-001	 2.315209321330896e+000	 8.309449411318655e+000
 9.202367739106159e-001	 2.324470752665467e+000	 8.350203064412812e+000
 8.282130965095028e-001	 2.092023677408817e+000	 7.499996934924981e+000
 8.074215901202451e-001	 2.100135799387014e+000	 7.387957762236345e+000
 7.865945792257691e-001	 2.108024897382408e+000	 7.286013178425347e+000
 7.657354814378439e-001	 2.115691180799508e+000	 7.195164727905020e+000
 7.448476949157646e-001	 2.123134925392267e+000	 7.116317143466842e+000
 7.239345968484166e-001	 2.130356472406817e+000	 7.050276284937973e+000
 7.029995419721642e-001	 2.137356227685584e+000	 6.997747338181500e+000
 6.820458611255978e-001	 2.144134660734327e+000	 6.959333274841506e+000
 6.610768598420863e-001	 2.150692303753667e+000	 6.935533572465836e+000
 6.400958169810165e-001	 2.157029750636725e+000	 6.926743193885842e+000
 6.191059833985354e-001	 2.163147655934445e+000	 6.864672037556769e+000
 8.374154642473412e-001	 2.115268384938982e+000	 7.719917392358008e+000
 8.163929411200946e-001	 2.123470641606018e+000	 7.619094092481443e+000
 7.953345189931456e-001	 2.131447396245942e+000	 7.523717824471022e+000
 7.742436534517256e-001	 2.139198860589977e+000	 7.434871272625348e+000
 7.531237804124570e-001	 2.146725313456010e+000	 7.353542150877495e+000
 7.319783145885445e-001	 2.154027099881797e+000	 7.280620936265530e+000
 7.108106479912019e-001	 2.161104630219127e+000	 7.216898867231729e+000
 6.896241484683368e-001	 2.167958379190486e+000	 7.163066207473741e+000
 6.684221582814661e-001	 2.174588884909840e+000	 7.119710775278822e+000
 6.472079927217480e-001	 2.180996747869118e+000	 7.087316737496010e+000
 6.259849387659531e-001	 2.187182629892056e+000	 7.066263666545103e+000
 8.466178319856844e-001	 2.138513092468148e+000	 7.906193145863731e+000
 8.253642921205442e-001	 2.146805483824028e+000	 7.813564400127929e+000
 8.040744587612064e-001	 2.154869895108496e+000	 7.721951418259508e+000
 7.827518254663669e-001	 2.162706540379492e+000	 7.632521072094357e+000
 7.613998659099727e-001	 2.170315701518835e+000	 7.546346891877049e+000
 7.400220323295502e-001	 2.177697727355906e+000	 7.464406592423566e+000
 7.186217540111615e-001	 2.184853032751853e+000	 7.387579868961535e+000
 6.972024358120316e-001	 2.191782097645894e+000	 7.316646463694282e+000
 6.757674567218264e-001	 2.198485466065337e+000	 7.252284503314780e+000
 6.543201684634744e-001	 2.204963745100922e+000	 7.195069106895317e+000
 6.328638941343707e-001	 2.211217603849173e+000	 7.145471262797578e+000
 8.558201997245326e-001	 2.161757799996312e+000	 8.060179547472101e+000
 8.343356431215939e-001	 2.170140326041044e+000	 7.972718816187458e+000
 8.128143985299519e-001	 2.178292393970071e+000	 7.882054484643676e+000
 7.912599974817669e-001	 2.186214220168053e+000	 7.789440726891783e+000
 7.696759514083118e-001	 2.193906089580743e+000	 7.696039793096507e+000
 7.480657500714335e-001	 2.201368354829143e+000	 7.602919326165991e+000
 7.264328600320427e-001	 2.208601435283764e+000	 7.511049953275435e+000
 7.047807231566827e-001	 2.215605816100554e+000	 7.421303153651124e+000
 6.831127551631671e-001	 2.222382047220160e+000	 7.334449403133537e+000
 6.614323442061960e-001	 2.228930742332137e+000	 7.251156595213624e+000
 6.397428495037884e-001	 2.235252577805797e+000	 7.171988737426368e+000
 8.650225674638863e-001	 2.185002507523477e+000	 8.183243960298643e+000
 8.433069941232435e-001	 2.193475168257064e+000	 8.097917011958737e+000
 8.215543382993820e-001	 2.201714892830667e+000	 8.005374830422188e+000
 7.997681694979264e-001	 2.209721899955661e+000	 7.906962073316403e+000
 7.779520369074741e-001	 2.217496477641732e+000	 7.803932682303985e+000
 7.561094678141944e-001	 2.225038982301508e+000	 7.697446987855115e+000
 7.342439660538458e-001	 2.232349837814859e+000	 7.588569094498371e+000
 7.123590105022898e-001	 2.239429534554463e+000	 7.478264548233141e+000
 6.904580536054884e-001	 2.246278628374308e+000	 7.367398286916369e+000
 6.685445199499128e-001	 2.252897739562763e+000	 7.256732873578537e+000
 6.466218048742060e-001	 2.259287551761928e+000	 7.146927011792347e+000
 8.742249352037450e-001	 2.208247215049642e+000	 8.276765126382168e+000
 8.522783451254931e-001	 2.216810010472089e+000	 8.190527696906901e+000
 8.302942780694966e-001	 2.225137391690283e+000	 8.093267161079101e+000
 8.082763415148443e-001	 2.233229579742314e+000	 7.986421907821314e+000
 7.862281224074600e-001	 2.241086865701803e+000	 7.871340609397126e+000
 7.641531855578329e-001	 2.248709609773001e+000	 7.749279111903870e+000
 7.420550720765711e-001	 2.256098240345137e+000	 7.621397612196072e+000
 7.199372978488531e-001	 2.263253253007621e+000	 7.488758123242090e+000
 6.978033520487903e-001	 2.270175209527782e+000	 7.352322229011914e+000
 6.756566956946249e-001	 2.276864736792801e+000	 7.212949129115623e+000
 6.535007602456237e-001	 2.283322525717564e+000	 7.071393972547423e+000
 8.834273029441089e-001	 2.231491922574806e+000	 8.342132574032274e+000
 8.612496961283427e-001	 2.240144852686119e+000	 8.251928147925915e+000
 8.390342178402960e-001	 2.248559890548920e+000	 8.147092721477504e+000
 8.167845135325217e-001	 2.256737259528015e+000	 8.029161728672881e+000
 7.945042079082694e-001	 2.264677253760958e+000	 7.899581678584262e+000
 7.721969033023490e-001	 2.272380237243623e+000	 7.759706829064222e+000
 7.498661781002181e-001	 2.279846642874600e+000	 7.610796153193927e+000
 7.275155851963726e-001	 2.287076971460031e+000	 7.454010600803215e+000
 7.051486504930726e-001	 2.294071790680582e+000	 7.290410656448154e+000
 6.827688714403323e-001	 2.300831734022249e+000	 7.120954194323253e+000
 6.603797156180413e-001	 2.307357499672706e+000	 6.946494629692222e+000
 8.926296706849778e-001	 2.254736630098971e+000	 8.380746061836051e+000
 8.702210471317924e-001	 2.263479694899155e+000	 8.283503767718326e+000
 8.477741576117799e-001	 2.271982389406577e+000	 8.168218958778057e+000
 8.252926855509581e-001	 2.280244939312762e+000	 8.036527493589221e+000
 8.027802934099018e-001	 2.288267641819193e+000	 7.889976890945592e+000
 7.802406210477429e-001	 2.296050864713371e+000	 7.730022784142334e+000
 7.576772841247869e-001	 2.303595045403246e+000	 7.558025674707682e+000
 7.350938725448480e-001	 2.310900689911689e+000	 7.375247988214621e+000
 7.124939489383357e-001	 2.317968371832707e+000	 7.182851433846393e+000
 6.898810471870346e-001	 2.324798731251109e+000	 6.981894668445497e+000
 6.672586709914591e-001	 2.331392473627356e+000	 6.773331264856903e+000
 9.018320384263519e-001	 2.277981337622136e+000	 8.394015056705324e+000
 8.791923981358421e-001	 2.286814537111197e+000	 8.286647670213403e+000
 8.565140973839484e-001	 2.295404888263255e+000	 8.158019205995222e+000
 8.338008575701534e-001	 2.303752619096555e+000	 8.009869392216976e+000
 8.110563789123576e-001	 2.311858029876512e+000	 7.843849996633383e+000
 7.882843387940145e-001	 2.319721492182250e+000	 7.661521058750587e+000
 7.654883901502774e-001	 2.327343447931077e+000	 7.464347428507275e+000
 7.426721598942798e-001	 2.334724408362597e+000	 7.253695614417979e+000
 7.198392473845794e-001	 2.341864952984158e+000	 7.030830943135515e+000
 6.969932229347319e-001	 2.348765728479379e+000	 6.796915031413327e+000
 6.741376263658767e-001	 2.355427447581511e+000	 6.553003570503782e+000
 9.110344061682311e-001	 2.301226045144301e+000	 8.383358243556918e+000
 8.881637491404917e-001	 2.310149379322243e+000	 8.262760291111015e+000
 8.652540371568017e-001	 2.318827387118954e+000	 8.117872384731900e+000
 8.423090295901078e-001	 2.327260298879394e+000	 7.950541632397742e+000
 8.193324644156370e-001	 2.335448417932912e+000	 7.762527356030386e+000
 7.963280565411635e-001	 2.343392119650254e+000	 7.555497098741465e+000
 7.732994961766900e-001	 2.351091850458091e+000	 7.331022946040354e+000
 7.502504472446678e-001	 2.358548126812756e+000	 7.090578164259293e+000
 7.271845458318036e-001	 2.365761534134936e+000	 6.835534158435517e+000
 7.041053986834246e-001	 2.372732725707061e+000	 6.567157750881036e+000
 6.810165817412944e-001	 2.379462421535173e+000	 6.286608780693821e+000
 9.202367739106159e-001	 2.324470752665467e+000	 8.350203064412812e+000
 8.971351001457416e-001	 2.333484221532295e+000	 8.213249021793308e+000
 8.739939769303398e-001	 2.342249885973674e+000	 8.049162725750227e+000
 8.508172016108218e-001	 2.350767978661280e+000	 7.859902239258448e+000
 8.276085499197399e-001	 2.359038805988395e+000	 7.647337809237952e+000
 8.043717742891903e-001	 2.367062747117389e+000	 7.413247645995934e+000
 7.811106022040246e-001	 2.374840252984291e+000	 7.159314024448599e+000
 7.578287345960121e-001	 2.382371845262165e+000	 6.887119710693265e+000
 7.345298442800083e-001	 2.389658115285038e+000	 6.598144716448117e+000
 7.112175744331125e-001	 2.396699722934155e+000	 6.293763382839848e+000
 6.878955371177123e-001	 2.403497395488342e+000	 5.975241794006029e+000
 6.191059833985354e-001	 2.163147655934445e+000	 6.864672037556769e+000
 5.981105806580939e-001	 2.169046733790038e+000	 6.734233249005466e+000
 5.771127997826462e-001	 2.174727756844882e+000	 6.626095804983266e+000
 5.561158000485699e-001	 2.180191555116963e+000	 6.537199737394906e+000
 5.351227078207390e-001	 2.185439014853159e+000	 6.464534469609435e+000
 5.141366154304756e-001	 2.190471077357688e+000	 6.405142551316533e+000
 4.931605800963984e-001	 2.195288737798133e+000	 6.356123193551452e+000
 4.721976228884916e-001	 2.199893043990709e+000	 6.314635601829280e+000
 4.512507277356554e-001	 2.204285095166384e+000	 6.277902105915101e+000
 4.303228404769301e-001	 2.208466040719535e+000	 6.243211085321194e+000
 4.094168679565230e-001	 2.212437078940723e+000	 6.207919690179323e+000
 6.259849387659531e-001	 2.187182629892056e+000	 7.066263666545103e+000
 6.047562537727171e-001	 2.193147253056797e+000	 6.951350454908239e+000
 5.835251642208401e-001	 2.198891398589630e+000	 6.845893290209381e+000
 5.622948644897696e-001	 2.204415905730961e+000	 6.757047367173600e+000
 5.410685156817665e-001	 2.209721670574856e+000	 6.681710316943121e+000
 5.198492444873892e-001	 2.214809644884472e+000	 6.616837269153848e+000
 4.986401420943512e-001	 2.219680834884810e+000	 6.559444450124079e+000
 4.774442631400803e-001	 2.224336300034484e+000	 6.506612570378692e+000
 4.562646247082417e-001	 2.228777151778144e+000	 6.455490000118154e+000
 4.351042053694196e-001	 2.233004552281214e+000	 6.403295731824821e+000
 4.139659442660896e-001	 2.237019713148595e+000	 6.347322129777184e+000
 6.328638941343707e-001	 2.211217603849173e+000	 7.145471262797578e+000
 6.114019268883301e-001	 2.217247772323162e+000	 7.100935621979309e+000
 5.899375286599927e-001	 2.223055040334081e+000	 7.001280735080213e+000
 5.684739289318763e-001	 2.228640256344763e+000	 6.915605198720220e+000
 5.470143235436290e-001	 2.234004326296460e+000	 6.840711788522821e+000
 5.255618735450454e-001	 2.239148212411263e+000	 6.773465224518835e+000
 5.041197040929345e-001	 2.244072931971593e+000	 6.710795835026501e+000
 4.826909033921675e-001	 2.248779556078466e+000	 6.649703000906425e+000
 4.612785216811748e-001	 2.253269208390210e+000	 6.587258378880013e+000
 4.398855702620848e-001	 2.257543063843300e+000	 6.520608903209921e+000
 4.185150205756415e-001	 2.261602347356972e+000	 6.446979565631692e+000
 6.397428495037884e-001	 2.235252577805797e+000	 7.171988737426368e+000
 6.180476000049326e-001	 2.241348291589134e+000	 7.182058937260109e+000
 5.963498931001037e-001	 2.247218682078241e+000	 7.091379489039880e+000
 5.746529933748897e-001	 2.252864606958373e+000	 7.012044159430252e+000
 5.529601314063263e-001	 2.258286982017971e+000	 6.940757777311407e+000
 5.312745026034443e-001	 2.263486779938061e+000	 6.874291637280074e+000
 5.095992660921482e-001	 2.268465029058483e+000	 6.809487231760535e+000
 4.879375436447532e-001	 2.273222812122655e+000	 6.743259754335440e+000
 4.662924186544548e-001	 2.277761265002584e+000	 6.672601373070696e+000
 4.446669351549258e-001	 2.282081575405792e+000	 6.594584273233988e+000
 4.230640968851787e-001	 2.286184981565858e+000	 6.506363469422209e+000
 6.466218048742060e-001	 2.259287551761928e+000	 7.146927011792347e+000
 6.246932731225249e-001	 2.265448810854711e+000	 7.193787086536190e+000
 6.027622575411730e-001	 2.271382323822106e+000	 7.115307148773312e+000
 5.808320578188102e-001	 2.277088957571788e+000	 7.045531218635317e+000
 5.589059392698584e-001	 2.282569637739387e+000	 6.981063058826613e+000
 5.369871316625859e-001	 2.287825347464866e+000	 6.918577496106659e+000
 5.150788280919926e-001	 2.292857126145480e+000	 6.854824224178963e+000
 4.931841838978376e-001	 2.297666068167052e+000	 6.786631368452834e+000
 4.713063156280816e-001	 2.302253321615265e+000	 6.710908811534113e+000
 4.494483000479425e-001	 2.306620086968692e+000	 6.624651278950881e+000
 4.276131731947014e-001	 2.310767615775252e+000	 6.524941185249962e+000
 6.535007602456237e-001	 2.283322525717564e+000	 7.071393972547423e+000
 6.313389462411063e-001	 2.289549330119895e+000	 7.092868833264683e+000
 6.091746219832009e-001	 2.295545965565678e+000	 7.072177755719879e+000
 5.870111222636374e-001	 2.301313308185010e+000	 7.015229595921998e+000
 5.648517471342256e-001	 2.306852293460711e+000	 6.960838507849023e+000
 5.426997607224704e-001	 2.312163914991677e+000	 6.905579781162585e+000
 5.205583900924674e-001	 2.317249223232584e+000	 6.846108322783032e+000
 4.984308241514204e-001	 2.322109324211656e+000	 6.779162285443179e+000
 4.763202126020553e-001	 2.326745378228254e+000	 6.701566447511442e+000
 4.542296649411349e-001	 2.331158598532000e+000	 6.610235343694365e+000
 4.321622495042093e-001	 2.335350249985153e+000	 6.502176146879456e+000
 6.603797156180413e-001	 2.307357499672706e+000	 6.946494629692222e+000
 6.379846193606776e-001	 2.313649849384685e+000	 6.939198829705706e+000
 6.155869864261875e-001	 2.319709607308956e+000	 6.961101981242318e+000
 5.931901867093715e-001	 2.325537658798039e+000	 6.920298956431160e+000
 5.707975549994278e-001	 2.331134949181942e+000	 6.879291301584923e+000
 5.484123897830977e-001	 2.336502482518496e+000	 6.834551672883194e+000
 5.260379520935729e-001	 2.341641320319794e+000	 6.782637176875974e+000
 5.036774644055017e-001	 2.346552580256467e+000	 6.720193065201237e+000
 4.813341095763758e-001	 2.351237434841550e+000	 6.643956170911279e+000
 4.590110298345030e-001	 2.355697110095715e+000	 6.550758086126444e+000
 4.367113258137025e-001	 2.359932884195560e+000	 6.437528081401407e+000
 6.672586709914591e-001	 2.331392473627356e+000	 6.773331264856903e+000
 6.446302924812386e-001	 2.337750368649082e+000	 6.736333150127557e+000
 6.219993508701324e-001	 2.343873249051940e+000	 6.781187300342189e+000
 5.993692511560126e-001	 2.349762009410874e+000	 6.759895594076546e+000
 5.767433628654646e-001	 2.355417604903078e+000	 6.735625110263379e+000
 5.541250188444674e-001	 2.360841050045321e+000	 6.704742747837308e+000
 5.315175140953088e-001	 2.366033417407113e+000	 6.663704773594126e+000
 5.089241046600814e-001	 2.370995836301485e+000	 6.609060585449714e+000
 4.863480065510432e-001	 2.375729491455153e+000	 6.537456207450738e+000
 4.637923947280468e-001	 2.380235621659837e+000	 6.445637516354884e+000
 4.412604021231812e-001	 2.384515518406475e+000	 6.330453200298847e+000
 6.741376263658767e-001	 2.355427447581511e+000	 6.553003570503782e+000
 6.512759656027893e-001	 2.361850887913085e+000	 6.485322396273621e+000
 6.284117153150359e-001	 2.368036890794632e+000	 6.518423630979653e+000
 6.055483156035606e-001	 2.373986360023517e+000	 6.533172603546626e+000
 5.826891707323364e-001	 2.379700260624122e+000	 6.529040276063356e+000
 5.598376479065801e-001	 2.385179617572152e+000	 6.515399162598251e+000
 5.369970760976752e-001	 2.390425514494537e+000	 6.488601624751365e+000
 5.141707449151598e-001	 2.395439092346710e+000	 6.445098229605731e+000
 4.913619035260574e-001	 2.400221548069063e+000	 6.381441305604312e+000
 4.685737596217664e-001	 2.404774133224367e+000	 6.294288220041843e+000
 4.458094784326451e-001	 2.409098152617898e+000	 6.180404378814582e+000
 6.810165817412944e-001	 2.379462421535173e+000	 6.286608780693821e+000
 6.579216387253294e-001	 2.385951407176694e+000	 6.187214482820052e+000
 6.348240797608978e-001	 2.392200532537029e+000	 6.191053999442250e+000
 6.117273800520153e-001	 2.398210710635965e+000	 6.239280041880929e+000
 5.886349786000431e-001	 2.403982916345072e+000	 6.258733981197180e+000
 5.655502769694353e-001	 2.409518185098991e+000	 6.265763826470539e+000
 5.424766381006722e-001	 2.414817611582069e+000	 6.256614942361881e+000
 5.194173851707366e-001	 2.419882348392142e+000	 6.227636063260429e+000
 4.963758005014184e-001	 2.424713604683281e+000	 6.175282912221677e+000
 4.733551245156617e-001	 2.429312644789304e+000	 6.096121531356896e+000
 4.503585547420944e-001	 2.433680786829828e+000	 5.986831324447803e+000
 6.878955371177123e-001	 2.403497395488342e+000	 5.975241794006029e+000
 6.645673118488593e-001	 2.410051926439911e+000	 5.843054771730111e+000
 6.412364442077186e-001	 2.416364174279133e+000	 5.816676896013253e+000
 6.179064445013772e-001	 2.422435061248221e+000	 5.877365080353306e+000
 5.945807864685849e-001	 2.428265572065930e+000	 5.923900405908603e+000
 5.712629060330334e-001	 2.433856752625838e+000	 5.955076563853509e+000
 5.479562001042998e-001	 2.439209708669709e+000	 5.967028803628518e+000
 5.246640254268120e-001	 2.444325604437782e+000	 5.956001000069989e+000
 5.013896974771264e-001	 2.449205661297806e+000	 5.918349337609250e+000
 4.781364894097328e-001	 2.453851156354649e+000	 5.850545695551401e+000
 4.549076310515292e-001	 2.458263421042266e+000	 5.749180735342139e+000
 4.094168679565230e-001	 2.212437078940723e+000	 6.207919690179323e+000
 3.885356771626090e-001	 2.216199455735425e+000	 6.169786333417970e+000
 3.676820944102924e-001	 2.219754463329662e+000	 6.137733898510764e+000
 3.468589045682616e-001	 2.223103438964542e+000	 6.109261171616591e+000
 3.260688503289501e-001	 2.226247763581710e+000	 6.081933652395793e+000
 3.053146315223872e-001	 2.229188860500556e+000	 6.053385589696539e+000
 2.845989044733674e-001	 2.231928194088898e+000	 6.021321826601866e+000
 2.639242814016646e-001	 2.234467268428642e+000	 5.983519457147984e+000
 2.432933298649641e-001	 2.236807625977843e+000	 5.937829297419575e+000
 2.227085722441365e-001	 2.238950846230580e+000	 5.882177174100549e+000
 2.021724852704328e-001	 2.240898544376048e+000	 5.814565033905154e+000
 4.139659442660896e-001	 2.237019713148595e+000	 6.347322129777184e+000
 3.928527402417594e-001	 2.240823894129246e+000	 6.290475377546973e+000
 3.717674510149444e-001	 2.244418401807346e+000	 6.242360283572223e+000
 3.507128923973190e-001	 2.247804588282233e+000	 6.200390046417014e+000
 3.296918375556780e-001	 2.250983849839349e+000	 6.162044572553855e+000
 3.087070163181628e-001	 2.253957625612741e+000	 6.124872631654262e+000
 2.877611145242892e-001	 2.256727396240980e+000	 6.086493816302681e+000
 2.668567734184957e-001	 2.259294682517993e+000	 6.044600308406907e+000
 2.459965890868874e-001	 2.261661044040256e+000	 5.996958454981942e+000
 2.251831119367900e-001	 2.263828077851780e+000	 5.941410156374056e+000
 2.044188462186914e-001	 2.265797417088305e+000	 5.875874070352241e+000
 4.185150205756415e-001	 2.261602347356972e+000	 6.446979565631692e+000
 3.971698033207161e-001	 2.265448332523665e+000	 6.375363559663707e+000
 3.758528076192648e-001	 2.269082340285696e+000	 6.314971250519278e+000
 3.545668802259483e-001	 2.272505737600639e+000	 6.263128775482124e+000
 3.333148247819220e-001	 2.275719936097731e+000	 6.217229126921157e+000
 3.120994011134395e-001	 2.278726390725676e+000	 6.174734426227865e+000
 2.909233245747364e-001	 2.281526598393801e+000	 6.133177997040726e+000
 2.697892654349166e-001	 2.284122096608050e+000	 6.090166239995265e+000
 2.486998483085041e-001	 2.286514462103322e+000	 6.043380311660619e+000
 2.276576516292792e-001	 2.288705309473562e+000	 5.990577610721430e+000
 2.066652071669667e-001	 2.290696289801054e+000	 5.929593074841478e+000
 4.230640968851787e-001	 2.286184981565858e+000	 6.506363469422209e+000
 4.014868663994790e-001	 2.290072770918680e+000	 6.423928009459210e+000
 3.799381642232539e-001	 2.293746278764711e+000	 6.355052076293492e+000
 3.584208680541498e-001	 2.297206886919758e+000	 6.296973231894964e+000
 3.369378120076825e-001	 2.300456022356853e+000	 6.246996192883245e+000
 3.154917859082169e-001	 2.303495155839361e+000	 6.202495222200233e+000
 2.940855346247092e-001	 2.306325800547358e+000	 6.160916314732738e+000
 2.727217574509273e-001	 2.308949510698812e+000	 6.119779179095913e+000
 2.514031075298141e-001	 2.311367880167042e+000	 6.076679018227821e+000
 2.301321913216042e-001	 2.313582541095925e+000	 6.029288111854201e+000
 2.089115681152584e-001	 2.315595162514295e+000	 5.975357204277902e+000
 4.276131731947014e-001	 2.310767615775252e+000	 6.524941185249962e+000
 4.058039294780481e-001	 2.314697209314293e+000	 6.435643174262596e+000
 3.840235208269116e-001	 2.318410217244391e+000	 6.362086662133478e+000
 3.622748558819232e-001	 2.321908036239591e+000	 6.301419081841908e+000
 3.405607992329590e-001	 2.325192108616717e+000	 6.250855472655051e+000
 3.188841707024953e-001	 2.328263920953795e+000	 6.207680988668773e+000
 2.972477446742077e-001	 2.331125002701653e+000	 6.169253195759568e+000
 2.756542494665278e-001	 2.333776924790279e+000	 6.133004159137210e+000
 2.541063667508174e-001	 2.336221298231415e+000	 6.096442324142522e+000
 2.326067310137648e-001	 2.338459772718871e+000	 6.057154193361645e+000
 2.111579290635668e-001	 2.340494035228026e+000	 6.012805803530313e+000
 4.321622495042093e-001	 2.335350249985153e+000	 6.502176146879456e+000
 4.101209925564234e-001	 2.339321647710502e+000	 6.409980960217414e+000
 3.881088774302378e-001	 2.343074155724738e+000	 6.335557605979382e+000
 3.661288437092686e-001	 2.346609185560137e+000	 6.275961795501281e+000
 3.441837864577519e-001	 2.349928194877324e+000	 6.228317449868315e+000
 3.222765554962745e-001	 2.353032686068978e+000	 6.189819324502429e+000
 3.004099547232315e-001	 2.355924204856685e+000	 6.157735416415362e+000
 2.785867414817183e-001	 2.358604338882453e+000	 6.129409156305991e+000
 2.568096259715142e-001	 2.361074716296441e+000	 6.102261388146635e+000
 2.350812707057613e-001	 2.363337004342400e+000	 6.073792139349447e+000
 2.134042900118918e-001	 2.365392907942251e+000	 6.041582185012507e+000
 4.367113258137025e-001	 2.359932884195560e+000	 6.437528081401407e+000
 4.144380556346050e-001	 2.363946086107308e+000	 6.346410864635292e+000
 3.921942340332327e-001	 2.367738094205750e+000	 6.274946270354131e+000
 3.699828315361861e-001	 2.371310334881398e+000	 6.220096657252465e+000
 3.478067736820611e-001	 2.374664281138672e+000	 6.178893348873095e+000
 3.256689402895547e-001	 2.377801451184911e+000	 6.148439373458078e+000
 3.035721647717810e-001	 2.380723407012454e+000	 6.125911980516527e+000
 2.815192334964985e-001	 2.383431752975329e+000	 6.108564936278887e+000
 2.595128851919042e-001	 2.385928134362120e+000	 6.093730600697530e+000
 2.375558103975934e-001	 2.388214235966509e+000	 6.078821789099471e+000
 2.156506509602334e-001	 2.390291780656967e+000	 6.061333422039364e+000
 4.412604021231812e-001	 2.384515518406475e+000	 6.330453200298847e+000
 4.187551187125927e-001	 2.388570524504710e+000	 6.244400100162429e+000
 3.962795906358961e-001	 2.392402032687428e+000	 6.179732846043831e+000
 3.738368193626758e-001	 2.396011484203374e+000	 6.133318775253107e+000
 3.514297609058866e-001	 2.399400367400761e+000	 6.102095096556130e+000
 3.290613250823358e-001	 2.402570216301593e+000	 6.083071744547004e+000
 3.067343748198559e-001	 2.405522609168960e+000	 6.073334004580163e+000
 2.844517255108684e-001	 2.408259167068911e+000	 6.070044910434892e+000
 2.622161444119877e-001	 2.410781552428453e+000	 6.070447417384949e+000
 2.400303500892613e-001	 2.413091467591202e+000	 6.071866353814087e+000
 2.178970119085915e-001	 2.415190653372174e+000	 6.071710154966894e+000
 4.458094784326451e-001	 2.409098152617898e+000	 6.180404378814582e+000
 4.230721817903867e-001	 2.413194962902710e+000	 6.103413711344264e+000
 4.003649472382280e-001	 2.417065971169771e+000	 6.049396411880601e+000
 3.776908071887375e-001	 2.420712633526063e+000	 6.015123090429868e+000
 3.550527481292284e-001	 2.424136453663594e+000	 5.997435286497649e+000
 3.324537098746178e-001	 2.427338981419026e+000	 5.993248437276965e+000
 3.098965848674565e-001	 2.430321811326204e+000	 5.999554610034238e+000
 2.873842175248283e-001	 2.433086581163198e+000	 6.013425000869358e+000
 2.649194036317644e-001	 2.435634970495439e+000	 6.032012202546760e+000
 2.425048897807650e-001	 2.437968699216476e+000	 6.052552244578757e+000
 2.201433728569663e-001	 2.440089526087873e+000	 6.072366409200173e+000
 4.503585547420944e-001	 2.433680786829828e+000	 5.986831324447803e+000
 4.273892448679870e-001	 2.437819401301307e+000	 5.922914684125688e+000
 4.044503038402286e-001	 2.441729909652781e+000	 5.883414990902040e+000
 3.815447950143713e-001	 2.445413782849466e+000	 5.865004384924998e+000
 3.586757353520864e-001	 2.448872539927167e+000	 5.864427145299085e+000
 3.358460946664006e-001	 2.452107746537207e+000	 5.878502771424865e+000
 3.130587949145826e-001	 2.455121013484184e+000	 5.904128821958742e+000
 2.903167095383779e-001	 2.457913995258190e+000	 5.938283513591136e+000
 2.676226628512345e-001	 2.460488388563079e+000	 5.978028082362840e+000
 2.449794294721043e-001	 2.462845930842333e+000	 6.020508910752532e+000
 2.223897338053576e-001	 2.464988398804064e+000	 6.062959424230505e+000
 4.549076310515292e-001	 2.458263421042266e+000	 5.749180735342139e+000
 4.317063079453936e-001	 2.462443839700501e+000	 5.702364048780264e+000
 4.085356604418978e-001	 2.466393848136456e+000	 5.681265603140482e+000
 3.853987828395771e-001	 2.470114932173583e+000	 5.682457290034541e+000
 3.622987225744608e-001	 2.473608626191483e+000	 5.702584500933306e+000
 3.392384794576846e-001	 2.476876511656139e+000	 5.738369321024048e+000
 3.162210049612343e-001	 2.479920215642903e+000	 5.786613473903993e+000
 2.932492015515175e-001	 2.482741409353888e+000	 5.844201019326309e+000
 2.703259220703981e-001	 2.485341806631372e+000	 5.908100806761962e+000
 2.474539691632796e-001	 2.487723162468774e+000	 5.975368688053180e+000
 2.246360947537655e-001	 2.489887271520747e+000	 6.043149492932057e+000
 2.021724852704328e-001	 2.240898544376048e+000	 5.814565033905154e+000
 1.816874995949720e-001	 2.242652369958055e+000	 5.789847682939227e+000
 1.612559993974847e-001	 2.244214005536660e+000	 5.770501206898571e+000
 1.408803220354772e-001	 2.245585165352948e+000	 5.754629371372266e+000
 1.205627577348670e-001	 2.246767593997911e+000	 5.740399600780084e+000
 1.003055493189621e-001	 2.247763065087045e+000	 5.726043728083802e+000
 8.011089197596248e-002	 2.248573379941687e+000	 5.709858597083498e+000
 5.998093306429331e-002	 2.249200366278207e+000	 5.690206521663247e+000
 3.991777195505006e-002	 2.249645876906150e+000	 5.665515606529803e+000
 1.992345991080489e-002	 2.249911788436345e+000	 5.634279934151358e+000
 0.000000000000000e+000	 2.250000000000000e+000	 5.595059622738865e+000
 2.044188462186914e-001	 2.265797417088305e+000	 5.875874070352241e+000
 1.837062495910136e-001	 2.267570729621807e+000	 5.857288041192454e+000
 1.630477327244405e-001	 2.269149716707362e+000	 5.843346999212069e+000
 1.424456589471168e-001	 2.270536111633177e+000	 5.832038329747815e+000
 1.219023439319143e-001	 2.271731678374588e+000	 5.821416788345736e+000
 1.014200554223997e-001	 2.272738210253934e+000	 5.809605290912101e+000
 8.100101299775234e-002	 2.273557528607230e+000	 5.794795549285610e+000
 6.064738787593518e-002	 2.274191481458810e+000	 5.775248556787918e+000
 4.036130275438873e-002	 2.274641942204990e+000	 5.749294928491755e+000
 2.014483168749108e-002	 2.274910808307830e+000	 5.715335101118431e+000
 0.000000000000000e+000	 2.275000000000000e+000	 5.671839397621988e+000
 2.066652071669667e-001	 2.290696289801054e+000	 5.929593074841478e+000
 1.857249995872511e-001	 2.292489089285958e+000	 5.916672357047720e+000
 1.648394660517300e-001	 2.294085427878376e+000	 5.907567792586968e+000
 1.440109958591870e-001	 2.295487057913643e+000	 5.900150785991476e+000
 1.232419301294489e-001	 2.296695762751440e+000	 5.892363916860140e+000
 1.025345615263411e-001	 2.297713355420943e+000	 5.882221768351201e+000
 8.189113402002285e-002	 2.298541677272851e+000	 5.867811593846082e+000
 6.131384268799531e-002	 2.299182596639455e+000	 5.847293826526735e+000
 4.080483355404448e-002	 2.299638007503847e+000	 5.818902436820070e+000
 2.036620346435478e-002	 2.299909828179321e+000	 5.780945142825008e+000
 0.000000000000000e+000	 2.300000000000000e+000	 5.731803479001830e+000
 2.089115681152584e-001	 2.315595162514295e+000	 5.975357204277902e+000
 1.877437495836842e-001	 2.317407448950504e+000	 5.967753999887777e+000
 1.666311993793531e-001	 2.319021139049704e+000	 5.963035185664451e+000
 1.455763327716881e-001	 2.320438004194349e+000	 5.958956529285760e+000
 1.245815163274709e-001	 2.321659847128467e+000	 5.953348873194964e+000
 1.036490676307862e-001	 2.322688500588073e+000	 5.944118999359429e+000
 8.278125504277401e-002	 2.323525825938549e+000	 5.929250324846860e+000
 6.198029750047370e-002	 2.324173711820143e+000	 5.906803433172043e+000
 4.124836435401730e-002	 2.324634072802725e+000	 5.874916446567243e+000
 2.058757524139598e-002	 2.324908848050816e+000	 5.831805244518702e+000
 0.000000000000000e+000	 2.325000000000000e+000	 5.775763534070832e+000
 2.111579290635668e-001	 2.340494035228026e+000	 6.012805803530313e+000
 1.897624995803131e-001	 2.342325808615447e+000	 6.010286817125533e+000
 1.684229327073099e-001	 2.343956850221343e+000	 6.009617504067187e+000
 1.471416696846198e-001	 2.345388950475293e+000	 6.008438285501091e+000
 1.259211025259800e-001	 2.346623931505669e+000	 6.004468653236375e+000
 1.047635737357351e-001	 2.347663645755324e+000	 5.995508068705210e+000
 8.367137606600578e-002	 2.348509974604323e+000	 5.979436685293599e+000
 6.264675231337037e-002	 2.349164827000877e+000	 5.954215899199648e+000
 4.169189515430721e-002	 2.349630138101621e+000	 5.917888734195261e+000
 2.080894701861470e-002	 2.349907867922315e+000	 5.868580065856192e+000
 0.000000000000000e+000	 2.350000000000000e+000	 5.804496690993286e+000
 2.134042900118918e-001	 2.365392907942251e+000	 6.041582185012507e+000
 1.917812495771378e-001	 2.367244168280787e+000	 6.044025109044022e+000
 1.702146660356004e-001	 2.368892561393295e+000	 6.047179972663694e+000
 1.487070065979823e-001	 2.370339896756475e+000	 6.048572088950442e+000
 1.272606887249765e-001	 2.371588015883045e+000	 6.045809935093953e+000
 1.058780798411878e-001	 2.372638790922696e+000	 6.036586083505249e+000
 8.456149708971820e-002	 2.373494123270175e+000	 6.018677948750757e+000
 6.331320712668530e-002	 2.374155942181652e+000	 5.989948355679069e+000
 4.213542595491417e-002	 2.374626203400537e+000	 5.948345934343358e+000
 2.103031879601092e-002	 2.374906887793820e+000	 5.891905347513021e+000
 0.000000000000000e+000	 2.375000000000000e+000	 5.818747356748868e+000
 2.156506509602334e-001	 2.390291780656967e+000	 6.061333422039364e+000
 1.937999995741583e-001	 2.392162527946525e+000	 6.068723605210548e+000
 1.720063993642245e-001	 2.393828272565560e+000	 6.075584877065841e+000
 1.502723435117755e-001	 2.395290843037897e+000	 6.079327630907185e+000
 1.286002749244602e-001	 2.396552100260595e+000	 6.077449616485307e+000
 1.069925859471443e-001	 2.397613936090189e+000	 6.067536901226082e+000
 8.545161811391125e-002	 2.398478271936103e+000	 6.047264639625242e+000
 6.397966194041847e-002	 2.399147057362471e+000	 6.014397656410754e+000
 4.257895675583822e-002	 2.399622268699472e+000	 5.966790849298258e+000
 2.125169057358466e-002	 2.399905907665329e+000	 5.902389417380321e+000
 0.000000000000000e+000	 2.400000000000000e+000	 5.819228921361098e+000
 2.178970119085915e-001	 2.415190653372174e+000	 6.071710154966894e+000
 1.958187495713746e-001	 2.417080887612659e+000	 6.084137442347344e+000
 1.737981326931824e-001	 2.418763983738137e+000	 6.094691715137041e+000
 1.518376804259994e-001	 2.420241789319555e+000	 6.100668586565866e+000
 1.299398611244313e-001	 2.421516184638321e+000	 6.099455318880149e+000
 1.081070920536046e-001	 2.422589081257802e+000	 6.088531812655521e+000
 8.634173913858495e-002	 2.423462420602109e+000	 6.065471396525212e+000
 6.464611675456990e-002	 2.424138172543332e+000	 6.027941423144901e+000
 4.302248755707935e-002	 2.424618333998426e+000	 5.973703677465960e+000
 2.147306235133592e-002	 2.424904927536844e+000	 5.900614603594942e+000
 0.000000000000000e+000	 2.425000000000000e+000	 5.806625356709230e+000
 2.201433728569663e-001	 2.440089526087873e+000	 6.072366409200173e+000
 1.978374995687866e-001	 2.441999247279191e+000	 6.090022143559038e+000
 1.755898660224739e-001	 2.443699694911027e+000	 6.104357339223739e+000
 1.534030173406540e-001	 2.445192735601454e+000	 6.112552921985675e+000
 1.312794473248896e-001	 2.446480269016221e+000	 6.111885860777964e+000
 1.092215981605687e-001	 2.447564226425537e+000	 6.099730183061146e+000
 8.723186016373929e-002	 2.448446569268191e+000	 6.073557782759510e+000
 6.531257156913961e-002	 2.449129287724237e+000	 6.030939026809246e+000
 4.346601835863755e-002	 2.449614399297399e+000	 5.969543166630682e+000
 2.169443412926468e-002	 2.449903947408362e+000	 5.887138561057649e+000
 0.000000000000000e+000	 2.449999999999999e+000	 5.781592717453838e+000
 2.223897338053576e-001	 2.464988398804064e+000	 6.062959424230505e+000
 1.998562495663943e-001	 2.466917606946119e+000	 6.086133598818493e+000
 1.773815993520991e-001	 2.468635406084229e+000	 6.104436089768415e+000
 1.549683542557393e-001	 2.470143681883591e+000	 6.114933182429998e+000
 1.326190335258352e-001	 2.471444353394295e+000	 6.114791702302503e+000
 1.103361042680365e-001	 2.472539371593392e+000	 6.101280054487334e+000
 8.812198118937427e-002	 2.473430717934351e+000	 6.071769047716806e+000
 6.597902638412759e-002	 2.474120402905185e+000	 6.023732509267384e+000
 4.390954916051283e-002	 2.474610464596391e+000	 5.954747697319242e+000
 2.191580590737095e-002	 2.474902967279885e+000	 5.862495517555926e+000
 0.000000000000000e+000	 2.474999999999999e+000	 5.744760550997764e+000
 2.246360947537655e-001	 2.489887271520747e+000	 6.043149492932057e+000
 2.018749995641979e-001	 2.491835966613445e+000	 6.072228046622623e+000
 1.791733326820581e-001	 2.493571117257746e+000	 6.094779920903702e+000
 1.565336911712554e-001	 2.495094628165967e+000	 6.107756763405958e+000
 1.339586197272681e-001	 2.496408437772546e+000	 6.108215363120685e+000
 1.114506103760082e-001	 2.497514516761370e+000	 6.093318711918241e+000
 8.901210221548993e-002	 2.498414866600590e+000	 6.060336842561672e+000
 6.664548119953383e-002	 2.499111518086177e+000	 6.006647449771991e+000
 4.435307996270520e-002	 2.499606529895404e+000	 5.929736301164921e+000
 2.213717768565474e-002	 2.499901987151415e+000	 5.827197445119955e+000
 0.000000000000000e+000	 2.500000000000000e+000	 5.696733222848565e+000
 2.500000000000000e+000	 0.000000000000000e+000	 1.166362498335196e+001
 2.499901987151415e+000	 2.213717768565403e-002	 1.162713164079589e+001
 2.499606529895403e+000	 4.435307996270457e-002	 1.159588973739315e+001
 2.499111518086177e+000	 6.664548119953326e-002	 1.156915962372864e+001
 2.498414866600589e+000	 8.901210221548943e-002	 1.154617049662711e+001
 2.497514516761369e+000	 1.114506103760078e-001	 1.152612048210545e+001
 2.496408437772546e+000	 1.339586197272678e-001	 1.150817677421169e+001
 2.495094628165966e+000	 1.565336911712552e-001	 1.149147583157749e+001
 2.493571117257745e+000	 1.791733326820579e-001	 1.147512363344467e+001
 2.491835966613445e+000	 2.018749995641979e-001	 1.145819599685131e+001
 2.489887271520747e+000	 2.246360947537655e-001	 1.143973895658035e+001
 2.525000000000000e+000	 0.000000000000000e+000	 1.164122820588879e+001
 2.524901007022946e+000	 2.235854946393780e-002	 1.159767434985269e+001
 2.524602595194425e+000	 4.479661076489691e-002	 1.156303307694682e+001
 2.524102633267189e+000	 6.731193601493948e-002	 1.153531319954317e+001
 2.523399015266866e+000	 8.990222324160503e-002	 1.151259334562632e+001
 2.522489661929405e+000	 1.125651164839795e-001	 1.149302626312710e+001
 2.521372522150882e+000	 1.352982059287007e-001	 1.147484306672001e+001
 2.520045574448461e+000	 1.580990280867712e-001	 1.145635741578343e+001
 2.518506828431417e+000	 1.809650660120168e-001	 1.143596961202592e+001
 2.516754326280969e+000	 2.038937495620014e-001	 1.141217060512129e+001
 2.514786144237676e+000	 2.268824557021734e-001	 1.138354589455854e+001
 2.550000000000000e+000	 0.000000000000000e+000	 1.159625661529706e+001
 2.549900026894477e+000	 2.257992124204407e-002	 1.154802005835474e+001
 2.549598660493445e+000	 4.524014156677218e-002	 1.150811510383430e+001
 2.549093748448203e+000	 6.797839082992745e-002	 1.147461766723390e+001
 2.548383163933142e+000	 9.079234426724003e-002	 1.144567804152272e+001
 2.547464807097442e+000	 1.136796225914473e-001	 1.141952525890457e+001
 2.546336606529218e+000	 1.366377921296463e-001	 1.139447138861408e+001
 2.544996520730955e+000	 1.596643650018565e-001	 1.136891575908066e+001
 2.543442539605088e+000	 1.827567993416420e-001	 1.134134909260471e+001
 2.541672685948493e+000	 2.059124995596092e-001	 1.131035754053122e+001
 2.539685016954604e+000	 2.291288166505647e-001	 1.127462660677615e+001
 2.575000000000000e+000	 0.000000000000000e+000	 1.152989269862503e+001
 2.574899046766007e+000	 2.280129301997283e-002	 1.148175075882931e+001
 2.574594725792466e+000	 4.568367236833036e-002	 1.144124960498865e+001
 2.574084863629216e+000	 6.864484564449713e-002	 1.140652971988626e+001
 2.573367312599416e+000	 9.168246529239434e-002	 1.137581061019068e+001
 2.572439952265480e+000	 1.147941286984114e-001	 1.134739522986973e+001
 2.571300690907555e+000	 1.379773783301046e-001	 1.131967433315993e+001
 2.569947467013449e+000	 1.612297019165111e-001	 1.129113074505388e+001
 2.568378250778760e+000	 1.845485326709335e-001	 1.126034353708252e+001
 2.566591045616016e+000	 2.079312495570212e-001	 1.122599209600998e+001
 2.564583889671532e+000	 2.313751775989394e-001	 1.118686007293526e+001
 2.600000000000000e+000	 0.000000000000000e+000	 1.144327346264764e+001
 2.599898066637538e+000	 2.302266479772407e-002	 1.139987729007871e+001
 2.599590791091487e+000	 4.612720316957149e-002	 1.136332055375133e+001
 2.599075978810229e+000	 6.931130045864856e-002	 1.133180581224440e+001
 2.598351461265692e+000	 9.257258631706804e-002	 1.130361938074053e+001
 2.597415097433516e+000	 1.159086348048716e-001	 1.127713582031671e+001
 2.596264775285892e+000	 1.393169645300756e-001	 1.125082235026560e+001
 2.594898413295944e+000	 1.627950388307350e-001	 1.122324317102905e+001
 2.593313961952431e+000	 1.863402659998913e-001	 1.119306368514176e+001
 2.591509405283540e+000	 2.099499995542374e-001	 1.115905460342713e+001
 2.589482762388461e+000	 2.336215385472976e-001	 1.112009592356853e+001
 2.625000000000000e+000	 0.000000000000000e+000	 1.133749259959385e+001
 2.624897086509069e+000	 2.324403657529780e-002	 1.130337145003423e+001
 2.624586856390508e+000	 4.657073397049554e-002	 1.127517713123635e+001
 2.624067093991241e+000	 6.997775527238173e-002	 1.125117182856304e+001
 2.623335609931968e+000	 9.346270734126111e-002	 1.122970630473393e+001
 2.622390242601552e+000	 1.170231409108281e-001	 1.120922445922737e+001
 2.621228859664228e+000	 1.406565507295594e-001	 1.118826780413760e+001
 2.619849359578439e+000	 1.643603757445282e-001	 1.116547984368029e+001
 2.618249673126103e+000	 1.881319993285155e-001	 1.113961034435422e+001
 2.616427764951063e+000	 2.119687495512579e-001	 1.110951948261645e+001
 2.614381635105390e+000	 2.358678994956392e-001	 1.107418185681300e+001
 2.650000000000000e+000	 0.000000000000000e+000	 1.121360253028577e+001
 2.649896106380600e+000	 2.346540835269402e-002	 1.119316783730684e+001
 2.649582921689528e+000	 4.701426477110250e-002	 1.117763536747325e+001
 2.649058209172255e+000	 7.064421008569664e-002	 1.116532452461150e+001
 2.648319758598243e+000	 9.435282836497352e-002	 1.115464820040783e+001
 2.647365387769589e+000	 1.181376470162808e-001	 1.114411740816345e+001
 2.646192944042564e+000	 1.419961369285558e-001	 1.113234582637997e+001
 2.644800305860933e+000	 1.659257126578906e-001	 1.111805423896611e+001
 2.643185384299774e+000	 1.899237326568060e-001	 1.110007485867675e+001
 2.641346124618587e+000	 2.139874995480826e-001	 1.107735552024531e+001
 2.639280507822317e+000	 2.381142604439641e-001	 1.104896372956091e+001
 2.675000000000000e+000	 0.000000000000000e+000	 1.107261633270911e+001
 2.674895126252130e+000	 2.368678012991273e-002	 1.107016558947318e+001
 2.674578986988550e+000	 4.745779557139240e-002	 1.107147969052312e+001
 2.674049324353267e+000	 7.131066489859329e-002	 1.107493288881827e+001
 2.673303907264519e+000	 9.524294938820530e-002	 1.107899792712881e+001
 2.672340532937625e+000	 1.192521531212298e-001	 1.108225075039842e+001
 2.671157028420902e+000	 1.433357231270650e-001	 1.108337512125608e+001
 2.669751252143427e+000	 1.674910495708224e-001	 1.108116712506019e+001
 2.668121095473445e+000	 1.917154659847628e-001	 1.107453955067643e+001
 2.666264484286111e+000	 2.160062495447115e-001	 1.106252613304689e+001
 2.664179380539246e+000	 2.403606213922725e-001	 1.104428564349896e+001
 2.699999999999999e+000	 0.000000000000000e+000	 1.091550956344087e+001
 2.699894146123661e+000	 2.390815190695394e-002	 1.093523002479008e+001
 2.699575052287571e+000	 4.790132637136522e-002	 1.095746438953299e+001
 2.699040439534280e+000	 7.197711971107168e-002	 1.098063942779573e+001
 2.698288055930794e+000	 9.613307041095642e-002	 1.100328549460020e+001
 2.697315678105662e+000	 1.203666592256749e-001	 1.102404132509733e+001
 2.696121112799238e+000	 1.446753093250869e-001	 1.104165872621375e+001
 2.694702198425921e+000	 1.690563864833234e-001	 1.105500715067456e+001
 2.693056806647117e+000	 1.935071993123859e-001	 1.106307813918735e+001
 2.691182843953635e+000	 2.180249995411447e-001	 1.106498961642819e+001
 2.689078253256174e+000	 2.426069823405643e-001	 1.105999002636806e+001
 2.724999999999999e+000	 0.000000000000000e+000	 1.074322197881497e+001
 2.724893165995192e+000	 2.412952368381761e-002	 1.078919419353970e+001
 2.724571117586591e+000	 4.834485717102095e-002	 1.083631499725455e+001
 2.724031554715293e+000	 7.264357452313183e-002	 1.088306138110252e+001
 2.723272204597070e+000	 9.702319143322694e-002	 1.092801911101157e+001
 2.722290823273699e+000	 1.214811653296162e-001	 1.096988761007434e+001
 2.721085197177575e+000	 1.460148955226216e-001	 1.100748473054646e+001
 2.719653144708416e+000	 1.706217233953938e-001	 1.103975140099846e+001
 2.717992517820789e+000	 1.952989326396754e-001	 1.106575613397722e+001
 2.716101203621158e+000	 2.200437495373821e-001	 1.108469937939324e+001
 2.713977125973103e+000	 2.448533432888396e-001	 1.109591770874968e+001
 2.750000000000000e+000	 0.000000000000000e+000	 1.055665916220622e+001
 2.749892185866724e+000	 2.435089546050380e-002	 1.063286034475567e+001
 2.749567182885613e+000	 4.878838797035964e-002	 1.070872959715330e+001
 2.749022669896307e+000	 7.331002933477374e-002	 1.078279186974600e+001
 2.748256353263346e+000	 9.791331245501683e-002	 1.085368617401693e+001
 2.747265968441735e+000	 1.225956714330538e-001	 1.092017055639929e+001
 2.746049281555912e+000	 1.473544817196689e-001	 1.098112695485481e+001
 2.744604090990912e+000	 1.721870603070334e-001	 1.103556592331276e+001
 2.742928228994461e+000	 1.970906659666313e-001	 1.108263120888696e+001
 2.741019563288683e+000	 2.220624995334238e-001	 1.112160416665220e+001
 2.738875998690032e+000	 2.470997042370982e-001	 1.115190799666404e+001
 2.489887271520747e+000	 2.246360947537655e-001	 1.143973895658035e+001
 2.487723162468774e+000	 2.474539691632789e-001	 1.148551625134559e+001
 2.485341806631373e+000	 2.703259220703975e-001	 1.152791741247759e+001
 2.482741409353889e+000	 2.932492015515170e-001	 1.156620877110151e+001
 2.479920215642903e+000	 3.162210049612340e-001	 1.159963500882857e+001
 2.476876511656140e+000	 3.392384794576842e-001	 1.162741969867397e+001
 2.473608626191484e+000	 3.622987225744606e-001	 1.164876590483549e+001
 2.470114932173584e+000	 3.853987828395771e-001	 1.166285684210072e+001
 2.466393848136457e+000	 4.085356604418979e-001	 1.166885659552306e+001
 2.462443839700501e+000	 4.317063079453937e-001	 1.166591090087351e+001
 2.458263421042266e+000	 4.549076310515292e-001	 1.165314798623316e+001
 2.514786144237676e+000	 2.268824557021734e-001	 1.138354589455854e+001
 2.512600394095503e+000	 2.499285088544540e-001	 1.142612510675437e+001
 2.510195224699992e+000	 2.730291812895609e-001	 1.146170127010281e+001
 2.507568823449939e+000	 2.961816935646565e-001	 1.148938275571587e+001
 2.504719417801991e+000	 3.193832150078855e-001	 1.150839090847503e+001
 2.501645276775445e+000	 3.426308642489679e-001	 1.151806312434247e+001
 2.498344712456171e+000	 3.659217097968349e-001	 1.151910592626991e+001
 2.494816081498056e+000	 3.892527706647828e-001	 1.151590351727260e+001
 2.491057786620465e+000	 4.126210170435670e-001	 1.150803374318975e+001
 2.487068278099993e+000	 4.360233710228000e-001	 1.149464415409037e+001
 2.482846055254957e+000	 4.594567073609637e-001	 1.147486156514067e+001
 2.539685016954604e+000	 2.291288166505647e-001	 1.127462660677615e+001
 2.537477625722233e+000	 2.524030485457934e-001	 1.131733682406791e+001
 2.535048642768612e+000	 2.757324405090311e-001	 1.135353349807501e+001
 2.532396237545989e+000	 2.991141855782061e-001	 1.138235104221254e+001
 2.529518619961077e+000	 3.225454250550116e-001	 1.140303981152363e+001
 2.526414041894753e+000	 3.460232490407509e-001	 1.141496920387539e+001
 2.523080798720857e+000	 3.695446970196929e-001	 1.141763057120125e+001
 2.519517230822531e+000	 3.931067584904165e-001	 1.141063992875768e+001
 2.515721725104473e+000	 4.167063736455676e-001	 1.139374045054975e+001
 2.511692716499485e+000	 4.403404341004003e-001	 1.136680473931191e+001
 2.507428689467647e+000	 4.640057836704130e-001	 1.132983685970667e+001
 2.564583889671532e+000	 2.313751775989394e-001	 1.118686007293526e+001
 2.562354857348963e+000	 2.548775882372970e-001	 1.122982797477854e+001
 2.559902060837231e+000	 2.784356997288078e-001	 1.126662583402369e+001
 2.557223651642040e+000	 3.020466775921659e-001	 1.129641383093245e+001
 2.554317822120163e+000	 3.257076351026121e-001	 1.131847120536174e+001
 2.551182807014059e+000	 3.494156338330329e-001	 1.133219938467747e+001
 2.547816884985543e+000	 3.731676842430348e-001	 1.133712491502616e+001
 2.544218380147004e+000	 3.969607463164781e-001	 1.133290218365248e+001
 2.540385663588481e+000	 4.207917302478996e-001	 1.131931592014961e+001
 2.536317154898977e+000	 4.446574971781943e-001	 1.129628346477045e+001
 2.532011323680339e+000	 4.685548599798769e-001	 1.126385679221804e+001
 2.589482762388461e+000	 2.336215385472976e-001	 1.112009592356853e+001
 2.587232088975693e+000	 2.573521279289648e-001	 1.116341674874480e+001
 2.584755478905850e+000	 2.811389589488912e-001	 1.120076528799278e+001
 2.582051065738089e+000	 3.049791696065359e-001	 1.123132723926001e+001
 2.579117024279251e+000	 3.288698451506871e-001	 1.125441062910263e+001
 2.575951572133363e+000	 3.528080186258140e-001	 1.126944897014645e+001
 2.572552971250230e+000	 3.767906714668602e-001	 1.127600421503192e+001
 2.568919529471479e+000	 4.008147341429678e-001	 1.127376949424337e+001
 2.565049602072488e+000	 4.248770868505629e-001	 1.126257162543029e+001
 2.560941593298468e+000	 4.489745602561820e-001	 1.124237338208175e+001
 2.556593957893029e+000	 4.731039362893555e-001	 1.121327550971768e+001
 2.614381635105390e+000	 2.358678994956392e-001	 1.107418185681300e+001
 2.612109320602422e+000	 2.598266676207970e-001	 1.111791955034345e+001
 2.609608896974470e+000	 2.838422181692813e-001	 1.115573717046045e+001
 2.606878479834139e+000	 3.079116616213161e-001	 1.118684570929754e+001
 2.603916226438336e+000	 3.320320551992366e-001	 1.121058190862051e+001
 2.600720337252670e+000	 3.562004034190942e-001	 1.122641144966024e+001
 2.597289057514916e+000	 3.804136586911693e-001	 1.123393193236998e+001
 2.593620678795953e+000	 4.046687219698854e-001	 1.123287563120865e+001
 2.589713540556496e+000	 4.289624434535578e-001	 1.122311201476962e+001
 2.585566031697961e+000	 4.532916233343636e-001	 1.120465001683894e+001
 2.581176592105721e+000	 4.776530125988487e-001	 1.117764004678227e+001
 2.639280507822317e+000	 2.381142604439641e-001	 1.104896372956091e+001
 2.636986552229153e+000	 2.623012073127934e-001	 1.109315108269036e+001
 2.634462315043090e+000	 2.865454773899780e-001	 1.113132517250734e+001
 2.631705893930189e+000	 3.108441536365065e-001	 1.116272208688830e+001
 2.628715428597424e+000	 3.351942652482605e-001	 1.118670723736372e+001
 2.625489102371976e+000	 3.595927882128733e-001	 1.120277858414394e+001
 2.622025143779603e+000	 3.840366459159622e-001	 1.121056964332226e+001
 2.618321828120427e+000	 4.085227097972309e-001	 1.120985226304820e+001
 2.614377479040504e+000	 4.330478000568840e-001	 1.120053915569092e+001
 2.610190470097453e+000	 4.576086864127390e-001	 1.118268617329081e+001
 2.605759226318411e+000	 4.822020889083566e-001	 1.115649431392380e+001
 2.664179380539246e+000	 2.403606213922725e-001	 1.104428564349896e+001
 2.661863783855882e+000	 2.647757470049541e-001	 1.108892442713872e+001
 2.659315733111709e+000	 2.892487366109813e-001	 1.112731144148919e+001
 2.656533308026239e+000	 3.137766456521070e-001	 1.115870769620788e+001
 2.653514630756510e+000	 3.383564752977589e-001	 1.118250725263633e+001
 2.650257867491283e+000	 3.629851730071518e-001	 1.119824048683855e+001
 2.646761230044289e+000	 3.876596331412389e-001	 1.120557712737922e+001
 2.643022977444901e+000	 4.123766976250042e-001	 1.120432905431611e+001
 2.639041417524512e+000	 4.371331566605417e-001	 1.119445284611784e+001
 2.634814908496944e+000	 4.619257494913081e-001	 1.117605206150755e+001
 2.630341860531103e+000	 4.867511652178794e-001	 1.114937924357403e+001
 2.689078253256174e+000	 2.426069823405643e-001	 1.105999002636806e+001
 2.686741015482612e+000	 2.672502866972791e-001	 1.110505111836058e+001
 2.684169151180329e+000	 2.919519958322914e-001	 1.114347665250577e+001
 2.681360722122289e+000	 3.167091376681178e-001	 1.117455241021176e+001
 2.678313832915597e+000	 3.415186853477317e-001	 1.119770110764186e+001
 2.675026632610588e+000	 3.663775578019292e-001	 1.121248569958279e+001
 2.671497316308976e+000	 3.912826203669992e-001	 1.121861245042454e+001
 2.667724126769375e+000	 4.162306854532056e-001	 1.121593375839595e+001
 2.663705356008520e+000	 4.412185132645308e-001	 1.120445071944842e+001
 2.659439346896436e+000	 4.662428125700709e-001	 1.118431541748149e+001
 2.654924494743793e+000	 4.913002415274165e-001	 1.115583292795845e+001
 2.713977125973103e+000	 2.448533432888396e-001	 1.109591770874968e+001
 2.711618247109342e+000	 2.697248263897683e-001	 1.114134121529558e+001
 2.709022569248949e+000	 2.946552550539081e-001	 1.117960007593537e+001
 2.706188136218339e+000	 3.196416296845387e-001	 1.121000471720511e+001
 2.703113035074683e+000	 3.446808953981789e-001	 1.123200653956117e+001
 2.699795397729894e+000	 3.697699425972058e-001	 1.124520126489562e+001
 2.696233402573662e+000	 3.949056075932433e-001	 1.124933204334108e+001
 2.692425276093849e+000	 4.200846732818350e-001	 1.124429230516915e+001
 2.688369294492528e+000	 4.453038698688512e-001	 1.123012834384527e+001
 2.684063785295928e+000	 4.705598756490277e-001	 1.120704161661706e+001
 2.679507128956485e+000	 4.958493178369686e-001	 1.117539074938114e+001
 2.738875998690032e+000	 2.470997042370982e-001	 1.115190799666404e+001
 2.736495478736073e+000	 2.721993660824219e-001	 1.119760336822960e+001
 2.733875987317569e+000	 2.973585142758315e-001	 1.123545964128589e+001
 2.731015550314390e+000	 3.225741217013698e-001	 1.126481178378139e+001
 2.727912237233771e+000	 3.478431054491009e-001	 1.128513993391726e+001
 2.724564162849201e+000	 3.731623273929816e-001	 1.129607279412718e+001
 2.720969488838349e+000	 3.985285948199712e-001	 1.129739077632897e+001
 2.717126425418323e+000	 4.239386611108925e-001	 1.128902888390145e+001
 2.713033232976537e+000	 4.493892264735033e-001	 1.127107931610985e+001
 2.708688223695421e+000	 4.748769387281783e-001	 1.124379378103004e+001
 2.704089763169176e+000	 5.003983941465353e-001	 1.120758550340283e+001
 2.458263421042266e+000	 4.549076310515292e-001	 1.165314798623316e+001
 2.453851156354649e+000	 4.781364894097321e-001	 1.170773399601164e+001
 2.449205661297807e+000	 5.013896974771258e-001	 1.176045960181928e+001
 2.444325604437783e+000	 5.246640254268116e-001	 1.181046367825463e+001
 2.439209708669709e+000	 5.479562001042996e-001	 1.185686340277453e+001
 2.433856752625838e+000	 5.712629060330332e-001	 1.189875518739248e+001
 2.428265572065929e+000	 5.945807864685846e-001	 1.193521567621080e+001
 2.422435061248221e+000	 6.179064445013772e-001	 1.196530280847190e+001
 2.416364174279133e+000	 6.412364442077186e-001	 1.194617287772580e+001
 2.410051926439910e+000	 6.645673118488594e-001	 1.189154104383593e+001
 2.403497395488342e+000	 6.878955371177123e-001	 1.181784985090138e+001
 2.482846055254957e+000	 4.594567073609637e-001	 1.147486156514067e+001
 2.478389667920199e+000	 4.829178543038031e-001	 1.152622312603252e+001
 2.473697717912495e+000	 5.064035944528337e-001	 1.157840888407605e+001
 2.468768860483547e+000	 5.299106656828868e-001	 1.163059231886692e+001
 2.463601805757440e+000	 5.534357621079269e-001	 1.168192316930353e+001
 2.458195320152747e+000	 5.769755350966310e-001	 1.173152830878989e+001
 2.452548227786828e+000	 6.005265943371261e-001	 1.177851268828238e+001
 2.446659411860499e+000	 6.240855089507389e-001	 1.182196034698881e+001
 2.440527816021248e+000	 6.476488086545392e-001	 1.178780592155559e+001
 2.434152445703129e+000	 6.712129849723892e-001	 1.173433786369417e+001
 2.427532369441510e+000	 6.947744924941302e-001	 1.166414895257429e+001
 2.507428689467647e+000	 4.640057836704130e-001	 1.132983685970667e+001
 2.502928179485754e+000	 4.876992191976984e-001	 1.136364465867622e+001
 2.498189774527202e+000	 5.114174914281946e-001	 1.140459469685736e+001
 2.493212116529356e+000	 5.351573059384637e-001	 1.146097098379179e+001
 2.487993902845249e+000	 5.589153241109239e-001	 1.151921285170865e+001
 2.482533887679780e+000	 5.826881641594864e-001	 1.157847607268531e+001
 2.476830883507902e+000	 6.064724022048329e-001	 1.163789233408525e+001
 2.470883762473018e+000	 6.302645733991935e-001	 1.167746225980541e+001
 2.464691457763677e+000	 6.540611731004011e-001	 1.164055929804562e+001
 2.458252964966745e+000	 6.778586580949292e-001	 1.158929848841598e+001
 2.451567343395171e+000	 7.016534478695476e-001	 1.152359610728998e+001
 2.532011323680339e+000	 4.685548599798769e-001	 1.126385679221804e+001
 2.527466691051314e+000	 4.924805840914179e-001	 1.130694544623196e+001
 2.522681831141929e+000	 5.164313884032088e-001	 1.134878247204028e+001
 2.517655372575207e+000	 5.404039461935420e-001	 1.139002691279837e+001
 2.512385999933136e+000	 5.643948861132904e-001	 1.143147373741305e+001
 2.506872455206933e+000	 5.884007932215990e-001	 1.147405420220494e+001
 2.501113539229152e+000	 6.124182100717047e-001	 1.151883590680219e+001
 2.495108113085776e+000	 6.364436378467416e-001	 1.154013573688861e+001
 2.488855099506419e+000	 6.604735375453046e-001	 1.150428053324734e+001
 2.482353484230762e+000	 6.845043312164799e-001	 1.145624001616439e+001
 2.475602317349326e+000	 7.085324032439653e-001	 1.139597928168332e+001
 2.556593957893029e+000	 4.731039362893555e-001	 1.121327550971768e+001
 2.552005202616878e+000	 4.972619489849618e-001	 1.126604836902612e+001
 2.547173887756675e+000	 5.214452853778763e-001	 1.131750307729061e+001
 2.542098628621103e+000	 5.456505864481217e-001	 1.136840152268703e+001
 2.536778097021101e+000	 5.698744481150264e-001	 1.141964604762272e+001
 2.531211022734208e+000	 5.941134222829688e-001	 1.147227973890920e+001
 2.525396194950578e+000	 6.183640179377415e-001	 1.152748640096765e+001
 2.519332463698774e+000	 6.426227022933825e-001	 1.149991552550102e+001
 2.513018741249476e+000	 6.668859019892494e-001	 1.143400150349148e+001
 2.506454003495176e+000	 6.911500043370408e-001	 1.136065648631275e+001
 2.499637291303976e+000	 7.154113586173830e-001	 1.128109652383942e+001
 2.581176592105721e+000	 4.776530125988487e-001	 1.117764004678227e+001
 2.576543714182448e+000	 5.020433138783298e-001	 1.124042220431353e+001
 2.571665944371440e+000	 5.264591823521967e-001	 1.130169737962890e+001
 2.566541884667042e+000	 5.508972267022031e-001	 1.136233114062556e+001
 2.561170194109143e+000	 5.753540101161319e-001	 1.142333419068869e+001
 2.555549590261605e+000	 5.998260513435958e-001	 1.148586258809037e+001
 2.549678850672179e+000	 6.243098258029435e-001	 1.155121763696920e+001
 2.543556814312013e+000	 6.488017667391168e-001	 1.148975422887746e+001
 2.537182382992848e+000	 6.732982664322361e-001	 1.141989429970549e+001
 2.530554522759990e+000	 6.977956774566119e-001	 1.134523421935458e+001
 2.523672265259118e+000	 7.222903139898007e-001	 1.126568777657391e+001
 2.605759226318411e+000	 4.822020889083566e-001	 1.115649431392380e+001
 2.601082225748022e+000	 5.068246787715222e-001	 1.122953403546457e+001
 2.596158000986225e+000	 5.314730793261705e-001	 1.130075555238840e+001
 2.590985140713025e+000	 5.561438669557858e-001	 1.137112899754491e+001
 2.585562291197262e+000	 5.808335721166066e-001	 1.144177447467634e+001
 2.579888157789124e+000	 6.055386804034804e-001	 1.151396220772853e+001
 2.573961506393957e+000	 6.302556336673109e-001	 1.155799961119717e+001
 2.567781164925491e+000	 6.549808311839440e-001	 1.148700869687092e+001
 2.561346024736534e+000	 6.797106308742639e-001	 1.141383524986869e+001
 2.554655042025202e+000	 7.044413505751935e-001	 1.133846103237711e+001
 2.547707239214755e+000	 7.291692693612185e-001	 1.126085138018319e+001
 2.630341860531103e+000	 4.867511652178794e-001	 1.114937924357403e+001
 2.625620737313602e+000	 5.116060436645390e-001	 1.123284933111864e+001
 2.620650057601029e+000	 5.364869762997971e-001	 1.131406747688686e+001
 2.615428396759052e+000	 5.613905072088702e-001	 1.139410931353641e+001
 2.609954388285460e+000	 5.863131341164509e-001	 1.147420543555397e+001
 2.604226725316765e+000	 6.112513094626219e-001	 1.155574147913516e+001
 2.598244162115911e+000	 6.362014415308429e-001	 1.156753340192886e+001
 2.592005515539210e+000	 6.611598956278643e-001	 1.149131176399763e+001
 2.585509666480534e+000	 6.861229953153334e-001	 1.141542378409133e+001
 2.578755561290814e+000	 7.110870236927859e-001	 1.133990435692269e+001
 2.571742213170885e+000	 7.360482247316361e-001	 1.126476995940848e+001
 2.654924494743793e+000	 4.913002415274165e-001	 1.115583292795845e+001
 2.650159248879185e+000	 5.163874085573799e-001	 1.124983201994021e+001
 2.645142114215853e+000	 5.415008732730773e-001	 1.134102275594589e+001
 2.639871652805121e+000	 5.666371474614558e-001	 1.143058725205739e+001
 2.634346485373736e+000	 5.917926961156648e-001	 1.151986773404902e+001
 2.628565292844527e+000	 6.169639385210209e-001	 1.161036654846556e+001
 2.622526817838040e+000	 6.421472493935403e-001	 1.158315913886125e+001
 2.616229866153168e+000	 6.673389600708778e-001	 1.150230168256980e+001
 2.609673308224849e+000	 6.925353597554443e-001	 1.142426576153860e+001
 2.602856080556825e+000	 7.177326968093883e-001	 1.134913902032352e+001
 2.595777187127509e+000	 7.429271801010537e-001	 1.127698869573510e+001
 2.679507128956485e+000	 4.958493178369686e-001	 1.117539074938114e+001
 2.674697760444774e+000	 5.211687734500451e-001	 1.127994456125995e+001
 2.669634170830695e+000	 5.465147702460103e-001	 1.138101072666591e+001
 2.664314908851234e+000	 5.718837877135431e-001	 1.147987887665749e+001
 2.658738582462090e+000	 5.972722581142482e-001	 1.157800405818223e+001
 2.652903860372412e+000	 6.226765675786771e-001	 1.167700667695544e+001
 2.646809473560346e+000	 6.480930572554027e-001	 1.160455296615307e+001
 2.640454216767367e+000	 6.735180245129844e-001	 1.151962187417267e+001
 2.633836949969478e+000	 6.989477241945967e-001	 1.143997317551987e+001
 2.626956599823234e+000	 7.243783699250014e-001	 1.136574690644527e+001
 2.619812161084627e+000	 7.498061354694716e-001	 1.129706070636097e+001
 2.704089763169176e+000	 5.003983941465353e-001	 1.120758550340283e+001
 2.699236272010369e+000	 5.259501383425348e-001	 1.132264801186254e+001
 2.694126227445558e+000	 5.515286672185968e-001	 1.143342047250447e+001
 2.688758164897393e+000	 5.771304279651320e-001	 1.154130111006535e+001
 2.683130679550521e+000	 6.027518201122010e-001	 1.164785903111783e+001
 2.677242427900419e+000	 6.283891966355910e-001	 1.172737134850694e+001
 2.671092129282827e+000	 6.540388651164306e-001	 1.163139500141605e+001
 2.664678567381806e+000	 6.796970889541845e-001	 1.154292069469776e+001
 2.658000591714422e+000	 7.053600886327910e-001	 1.146216387466399e+001
 2.651057119090043e+000	 7.310240430396249e-001	 1.138931663493561e+001
 2.643847135042239e+000	 7.566850908368894e-001	 1.132454668348230e+001
 2.403497395488342e+000	 6.878955371177123e-001	 1.181784985090138e+001
 2.396699722934155e+000	 7.112175744331118e-001	 1.184156285108552e+001
 2.389658115285039e+000	 7.345298442800079e-001	 1.186409266055178e+001
 2.382371845262166e+000	 7.578287345960117e-001	 1.188570017263487e+001
 2.374840252984291e+000	 7.811106022040244e-001	 1.190666095365951e+001
 2.367062747117389e+000	 8.043717742891899e-001	 1.192726516955986e+001
 2.359038805988396e+000	 8.276085499197398e-001	 1.194781748025882e+001
 2.350767978661281e+000	 8.508172016108216e-001	 1.196863690116082e+001
 2.342249885973674e+000	 8.739939769303399e-001	 1.199005663118618e+001
 2.333484221532295e+000	 8.971351001457417e-001	 1.201242384685082e+001
 2.324470752665467e+000	 9.202367739106158e-001	 1.203609946197695e+001
 2.427532369441510e+000	 6.947744924941302e-001	 1.166414895257429e+001
 2.420666720161247e+000	 7.183297501827995e-001	 1.170069104671597e+001
 2.413554696435142e+000	 7.418751427282125e-001	 1.173491345833365e+001
 2.406195563711574e+000	 7.654070219473556e-001	 1.176705993414985e+001
 2.398588655510490e+000	 7.889217082313587e-001	 1.179738998285886e+001
 2.390733374584523e+000	 8.124154920372165e-001	 1.182617883385070e+001
 2.382629194043878e+000	 8.358846354238425e-001	 1.185371736246610e+001
 2.374275658443166e+000	 8.593253736315351e-001	 1.188031198105717e+001
 2.365672384828394e+000	 8.827339167038776e-001	 1.190628449520428e+001
 2.356819063742346e+000	 9.061064511509912e-001	 1.193197192451696e+001
 2.347715460186632e+000	 9.294391416530003e-001	 1.195772628753118e+001
 2.451567343395171e+000	 7.016534478695476e-001	 1.152359610728998e+001
 2.444633717388931e+000	 7.254419259314924e-001	 1.157245444545345e+001
 2.437451277585918e+000	 7.492204411754367e-001	 1.161786246275167e+001
 2.430019282161732e+000	 7.729853092977436e-001	 1.166004713891266e+001
 2.422337058037504e+000	 7.967328142577711e-001	 1.169925231263836e+001
 2.414404002052529e+000	 8.204592097843656e-001	 1.173573867220678e+001
 2.406219582100278e+000	 8.441607209271218e-001	 1.176978371135481e+001
 2.397783338226006e+000	 8.678335456514897e-001	 1.180168164963747e+001
 2.389094883684093e+000	 8.914738564767308e-001	 1.183174331653596e+001
 2.380153905953393e+000	 9.150778021556408e-001	 1.186029599866725e+001
 2.370960167708796e+000	 9.386415093948796e-001	 1.188768324953310e+001
 2.475602317349326e+000	 7.085324032439653e-001	 1.139597928168332e+001
 2.468600714617200e+000	 7.325541016791896e-001	 1.145665505938401e+001
 2.461347858737369e+000	 7.565657396216802e-001	 1.151275513438334e+001
 2.453843000612641e+000	 7.805635966471755e-001	 1.156449008988706e+001
 2.446085460565335e+000	 8.045439202832618e-001	 1.161208847343340e+001
 2.438074629521406e+000	 8.285029275306373e-001	 1.165579681915902e+001
 2.429809970157598e+000	 8.524368064295778e-001	 1.169587963407356e+001
 2.421291018009799e+000	 8.763417176706853e-001	 1.173261934745945e+001
 2.412517382540770e+000	 9.002137962488995e-001	 1.176631622259135e+001
 2.403488748165434e+000	 9.240491531596906e-001	 1.179728823005208e+001
 2.394204875231962e+000	 9.478438771362537e-001	 1.182587088200944e+001
 2.499637291303976e+000	 7.154113586173830e-001	 1.128109652383942e+001
 2.492567711846060e+000	 7.396662774258920e-001	 1.135310443325835e+001
 2.485244439889495e+000	 7.639110380669433e-001	 1.141941593561865e+001
 2.477666719064299e+000	 7.881418839956510e-001	 1.148022557929516e+001
 2.469833863093983e+000	 8.123550263078306e-001	 1.153574699103909e+001
 2.461745256991154e+000	 8.365466452760306e-001	 1.158621292970501e+001
 2.453400358215832e+000	 8.607128919312104e-001	 1.163187530269255e+001
 2.444798697794545e+000	 8.848498896891213e-001	 1.167300514413980e+001
 2.435939881398428e+000	 9.089537360203835e-001	 1.170989255398495e+001
 2.426823590378469e+000	 9.330205041631401e-001	 1.174284659709691e+001
 2.417449582756126e+000	 9.570462448771225e-001	 1.177219516176560e+001
 2.523672265259118e+000	 7.222903139898007e-001	 1.126568777657391e+001
 2.516534709075509e+000	 7.467784531715990e-001	 1.131851014556482e+001
 2.509141021042295e+000	 7.712563365112256e-001	 1.136717942980037e+001
 2.501490437516708e+000	 7.957201713431703e-001	 1.141161955743247e+001
 2.493582265623444e+000	 8.201661323314774e-001	 1.147008400587889e+001
 2.485415884461776e+000	 8.445903630205471e-001	 1.152685382119160e+001
 2.476990746274987e+000	 8.689889774320194e-001	 1.157764761777880e+001
 2.468306377580246e+000	 8.933580617067989e-001	 1.162272542268467e+001
 2.459362380257065e+000	 9.176936757911830e-001	 1.166236756866886e+001
 2.450158432592499e+000	 9.419918551659895e-001	 1.169687461887014e+001
 2.440694290281292e+000	 9.662486126174865e-001	 1.172656724920567e+001
 2.547707239214755e+000	 7.291692693612185e-001	 1.126085138018319e+001
 2.540501706305546e+000	 7.538906289163111e-001	 1.131846717565857e+001
 2.533037602195769e+000	 7.786016349545277e-001	 1.137141907073354e+001
 2.525314155969867e+000	 8.032984586897338e-001	 1.141961671740890e+001
 2.517330668153723e+000	 8.279772383542029e-001	 1.146295224662051e+001
 2.509086511933269e+000	 8.526340807641855e-001	 1.150129976325020e+001
 2.500581134335058e+000	 8.772650629320049e-001	 1.153451487334631e+001
 2.491814057366899e+000	 9.018662337237169e-001	 1.158167258168825e+001
 2.482784879116681e+000	 9.264336155612974e-001	 1.162364216281296e+001
 2.473493274807525e+000	 9.509632061682394e-001	 1.165928109373202e+001
 2.463938997807456e+000	 9.754509803573452e-001	 1.168890324382306e+001
 2.571742213170885e+000	 7.360482247316361e-001	 1.126476995940848e+001
 2.564468703536172e+000	 7.610028046600280e-001	 1.132644361627975e+001
 2.556934183349918e+000	 7.859469333968490e-001	 1.138296890420664e+001
 2.549137874423777e+000	 8.108767460353411e-001	 1.143424174310731e+001
 2.541079070684818e+000	 8.357883443760059e-001	 1.148014027738592e+001
 2.532757139405635e+000	 8.606777985069465e-001	 1.152052437208504e+001
 2.524171522396048e+000	 8.855411484311675e-001	 1.155523514209981e+001
 2.515321737154507e+000	 9.103744057398759e-001	 1.158409451674491e+001
 2.506207377977276e+000	 9.351735553307278e-001	 1.160690484192452e+001
 2.496828117023545e+000	 9.599345571698892e-001	 1.162997985263881e+001
 2.487183705334621e+000	 9.846533480966988e-001	 1.165912395340190e+001
 2.595777187127509e+000	 7.429271801010537e-001	 1.127698869573510e+001
 2.588435700767387e+000	 7.681149804027497e-001	 1.134199094536459e+001
 2.580830764504741e+000	 7.932922318381895e-001	 1.140138653755286e+001
 2.572961592878435e+000	 8.184550333799919e-001	 1.145505820066637e+001
 2.564827473216729e+000	 8.435994503968872e-001	 1.150287061102651e+001
 2.556427766878872e+000	 8.687215162488298e-001	 1.154466988923926e+001
 2.547761910457956e+000	 8.938172339295067e-001	 1.158028313046050e+001
 2.538829416943069e+000	 9.188825777552763e-001	 1.160951797092799e+001
 2.529629876838851e+000	 9.439134950994733e-001	 1.163216219304848e+001
 2.520162959240561e+000	 9.689059081709387e-001	 1.164798337127732e+001
 2.510428412862785e+000	 9.938557158355472e-001	 1.165672856096677e+001
 2.619812161084627e+000	 7.498061354694716e-001	 1.129706070636097e+001
 2.612402697999191e+000	 7.752271561444764e-001	 1.136466814457983e+001
 2.604727345660238e+000	 8.006375302785499e-001	 1.142623666397043e+001
 2.596785311333844e+000	 8.260333207236867e-001	 1.148163633862783e+001
 2.588575875749454e+000	 8.514105564168468e-001	 1.153071889193316e+001
 2.580098394352980e+000	 8.767652339898355e-001	 1.157331719209640e+001
 2.571352298520780e+000	 9.020933194270222e-001	 1.160924478253050e+001
 2.562337096732584e+000	 9.273907497699173e-001	 1.163829544942988e+001
 2.553052375701406e+000	 9.526534348675341e-001	 1.166024282888267e+001
 2.543497801458570e+000	 9.778772591713884e-001	 1.167484005579320e+001
 2.533673120391951e+000	 1.003058083573891e+000	 1.168181945682794e+001
 2.643847135042239e+000	 7.566850908368894e-001	 1.132454668348230e+001
 2.636369695231585e+000	 7.823393318852079e-001	 1.139404135824401e+001
 2.628623926816410e+000	 8.079828287179298e-001	 1.145709074043788e+001
 2.620609029790005e+000	 8.336116080664259e-001	 1.151355278419092e+001
 2.612324278282998e+000	 8.592216624358847e-001	 1.156326677204871e+001
 2.603769021827961e+000	 8.848089517299637e-001	 1.160605280876692e+001
 2.594942686584524e+000	 9.103694049237150e-001	 1.164171135085154e+001
 2.585844776523054e+000	 9.358989217837995e-001	 1.167002277426558e+001
 2.576474874564940e+000	 9.613933746349105e-001	 1.169074698267481e+001
 2.566832643677576e+000	 9.868486101712384e-001	 1.170362305855010e+001
 2.556917827922116e+000	 1.012260451311729e+000	 1.170836895937933e+001
 2.324470752665467e+000	 9.202367739106158e-001	 1.203609946197695e+001
 2.315209321330897e+000	 9.432951809896923e-001	 1.205003293702831e+001
 2.305699844977406e+000	 9.663064860216959e-001	 1.205571415164797e+001
 2.295942317358883e+000	 9.892668373179069e-001	 1.205338822410658e+001
 2.285936809298535e+000	 1.012172368694827e+000	 1.204332112862392e+001
 2.275683469402266e+000	 1.035019201340096e+000	 1.202579954786252e+001
 2.265182524719623e+000	 1.057803445709805e+000	 1.200113068293670e+001
 2.254434281350881e+000	 1.080521203455543e+000	 1.196964202062743e+001
 2.243439124998900e+000	 1.103168569379458e+000	 1.193168105760242e+001
 2.232197521464457e+000	 1.125741633415526e+000	 1.188761498155485e+001
 2.220710017083810e+000	 1.148236482635196e+000	 1.183783030928917e+001
 2.347715460186632e+000	 9.294391416530003e-001	 1.195772628753118e+001
 2.338361414538539e+000	 9.527281328023738e-001	 1.197056341719866e+001
 2.328756843421378e+000	 9.759695508843156e-001	 1.197623061560125e+001
 2.318901740526580e+000	 9.991595056932201e-001	 1.197500844572209e+001
 2.308796177385584e+000	 1.022294092383755e+000	 1.196719800203608e+001
 2.298440304090351e+000	 1.045369393355436e+000	 1.195312071777850e+001
 2.287834349960926e+000	 1.068381480168917e+000	 1.193311812915215e+001
 2.276978624158587e+000	 1.091326415492303e+000	 1.190755159623084e+001
 2.265873516243221e+000	 1.114200255075764e+000	 1.187680198042990e+001
 2.254519496673615e+000	 1.136999049752617e+000	 1.184126927853096e+001
 2.242917117249388e+000	 1.159718847465025e+000	 1.180137221336614e+001
 2.370960167708796e+000	 9.386415093948796e-001	 1.188768324953310e+001
 2.361513507747179e+000	 9.621610846146400e-001	 1.189993015359053e+001
 2.351813841866350e+000	 9.856326157465909e-001	 1.190605558860825e+001
 2.341861163695278e+000	 1.009052174068240e+000	 1.190637533982824e+001
 2.331655545473632e+000	 1.032415816072421e+000	 1.190122542568673e+001
 2.321197138779436e+000	 1.055719585370526e+000	 1.189096186021921e+001
 2.310486175203230e+000	 1.078959514627770e+000	 1.187596037179107e+001
 2.299522966967292e+000	 1.102131627528775e+000	 1.185661607797844e+001
 2.288307907488542e+000	 1.125231940771733e+000	 1.183334311654016e+001
 2.276841471883772e+000	 1.148256466089301e+000	 1.180657423254104e+001
 2.265124217415967e+000	 1.171201212294357e+000	 1.177676032180772e+001
 2.394204875231962e+000	 9.478438771362537e-001	 1.182587088200944e+001
 2.384665600956820e+000	 9.715940364264912e-001	 1.183801393751455e+001
 2.374870840312322e+000	 9.952956806085219e-001	 1.184505072440810e+001
 2.364820586864974e+000	 1.018944842442967e+000	 1.184733204195386e+001
 2.354514913562681e+000	 1.042537539760825e+000	 1.184522865029042e+001
 2.343953973469521e+000	 1.066069777385365e+000	 1.183913098831862e+001
 2.333138000446533e+000	 1.089537549086364e+000	 1.182944884726586e+001
 2.322067309776998e+000	 1.112936839564960e+000	 1.181661099981764e+001
 2.310742298734863e+000	 1.136263626467365e+000	 1.180106478482669e+001
 2.299163447094931e+000	 1.159513882425579e+000	 1.178327564773183e+001
 2.287331317583545e+000	 1.182683577123193e+000	 1.176372663694332e+001
 2.417449582756126e+000	 9.570462448771225e-001	 1.177219516176560e+001
 2.407817694167462e+000	 9.810269882379279e-001	 1.178470170485565e+001
 2.397927838759294e+000	 1.004958745470109e+000	 1.179308449521112e+001
 2.387780010035672e+000	 1.028837510817401e+000	 1.179772915162483e+001
 2.377374281652729e+000	 1.052659263448967e+000	 1.179904100725440e+001
 2.366710808160607e+000	 1.076419969399953e+000	 1.179744478332349e+001
 2.355789825690835e+000	 1.100115583544698e+000	 1.179338421781511e+001
 2.344611652587703e+000	 1.123742051600855e+000	 1.178732164911255e+001
 2.333176689982184e+000	 1.147295312162660e+000	 1.177973755466640e+001
 2.321485422307088e+000	 1.170771298761451e+000	 1.177113004489125e+001
 2.309538417752123e+000	 1.194165941951533e+000	 1.176201431262373e+001
 2.440694290281292e+000	 9.662486126174865e-001	 1.172656724920567e+001
 2.430969787379103e+000	 9.904599400489497e-001	 1.173988624347428e+001
 2.420984837207266e+000	 1.014621810331352e+000	 1.175003186700978e+001
 2.410739433207369e+000	 1.038730179191542e+000	 1.175742437693568e+001
 2.400233649743777e+000	 1.062780987136847e+000	 1.176250352388375e+001
 2.389467642852691e+000	 1.086770161414292e+000	 1.176572818182608e+001
 2.378441650936139e+000	 1.110693618002774e+000	 1.176757593217857e+001
 2.367155995399409e+000	 1.134547263636464e+000	 1.176854260219561e+001
 2.355611081230505e+000	 1.158326997857618e+000	 1.176914175780132e+001
 2.343807397520246e+000	 1.182028715096916e+000	 1.176990415113220e+001
 2.331745517921702e+000	 1.205648306779377e+000	 1.177137712319620e+001
 2.463938997807456e+000	 9.754509803573452e-001	 1.168890324382306e+001
 2.454121880591744e+000	 9.998928918595564e-001	 1.170346591716988e+001
 2.444041835656238e+000	 1.024284875192251e+000	 1.171577399326816e+001
 2.433698856380066e+000	 1.048622847565389e+000	 1.172628219923973e+001
 2.423093017835825e+000	 1.072902710824465e+000	 1.173546456036730e+001
 2.412224477545777e+000	 1.097120353428379e+000	 1.174381398636100e+001
 2.401093476182442e+000	 1.121271652460590e+000	 1.175184181113952e+001
 2.389700338212114e+000	 1.145352475671784e+000	 1.176007728620868e+001
 2.378045472479826e+000	 1.169358683552239e+000	 1.176906702784984e+001
 2.366129372734403e+000	 1.193286131431975e+000	 1.177937441846218e+001
 2.353952618092280e+000	 1.217130671606725e+000	 1.179157896253772e+001
 2.487183705334621e+000	 9.846533480966988e-001	 1.165912395340190e+001
 2.477273973805385e+000	 1.009325843669748e+000	 1.167534440512294e+001
 2.467098834106210e+000	 1.033947940052805e+000	 1.169019792578786e+001
 2.456658279553763e+000	 1.058515515938944e+000	 1.170417355664167e+001
 2.445952385928873e+000	 1.083024434511822e+000	 1.171777946711954e+001
 2.434981312239862e+000	 1.107470545442217e+000	 1.173154249783796e+001
 2.423745301429745e+000	 1.131849686918147e+000	 1.174600765630779e+001
 2.412244681025820e+000	 1.156157687706816e+000	 1.176173756551385e+001
 2.400479863730147e+000	 1.180390369246524e+000	 1.177931186563939e+001
 2.388451347949561e+000	 1.204543547766627e+000	 1.179932656934881e+001
 2.376159718263858e+000	 1.228613036433577e+000	 1.182239337117973e+001
 2.510428412862785e+000	 9.938557158355472e-001	 1.165672856096677e+001
 2.500426067020026e+000	 1.018758795479525e+000	 1.165621335300789e+001
 2.490155832557182e+000	 1.043611004913016e+000	 1.167319634163675e+001
 2.479617702728460e+000	 1.068408184312205e+000	 1.169097554507391e+001
 2.468811754022922e+000	 1.093146158198917e+000	 1.170931026115900e+001
 2.457738146934946e+000	 1.117820737455803e+000	 1.172876116839460e+001
 2.446397126678049e+000	 1.142427721375445e+000	 1.174990688063707e+001
 2.434789023840525e+000	 1.166962899741561e+000	 1.177334335108133e+001
 2.422914254981468e+000	 1.191422054940471e+000	 1.179968322868762e+001
 2.410773323165719e+000	 1.215800964100874e+000	 1.182955516753202e+001
 2.398366818436436e+000	 1.240095401259933e+000	 1.186360308970375e+001
 2.533673120391951e+000	 1.003058083573891e+000	 1.168181945682794e+001
 2.523578160235667e+000	 1.028191747288888e+000	 1.168388229863722e+001
 2.513212831009154e+000	 1.053274069772882e+000	 1.168696827446911e+001
 2.502577125904157e+000	 1.078300852685173e+000	 1.169093192792931e+001
 2.491671122117970e+000	 1.103267881885750e+000	 1.170992532030084e+001
 2.480494981631032e+000	 1.128170929469140e+000	 1.173532427335864e+001
 2.469048951927352e+000	 1.153005755832484e+000	 1.176338015928066e+001
 2.457333366656231e+000	 1.177768111776017e+000	 1.179472223137904e+001
 2.445348646233790e+000	 1.202453740634082e+000	 1.182999614328080e+001
 2.433095298382876e+000	 1.227058380434714e+000	 1.186986321246100e+001
 2.420573918610014e+000	 1.251577766085793e+000	 1.189456932116352e+001
 2.556917827922116e+000	 1.012260451311729e+000	 1.170836895937933e+001
 2.546730253452309e+000	 1.037624699097835e+000	 1.171332173823419e+001
 2.536269829462126e+000	 1.062937134632405e+000	 1.172074085487412e+001
 2.525536549080854e+000	 1.088193521057849e+000	 1.173050060269540e+001
 2.514530490214018e+000	 1.113389605572321e+000	 1.174244604811256e+001
 2.503251816328118e+000	 1.138521121482225e+000	 1.175639266720113e+001
 2.491700777177656e+000	 1.163583790289264e+000	 1.178627509949154e+001
 2.479877709472937e+000	 1.188573323810186e+000	 1.182570912339541e+001
 2.467783037487111e+000	 1.213485426327355e+000	 1.187007333771158e+001
 2.455417273601035e+000	 1.238315796768148e+000	 1.192006175585289e+001
 2.442781018784593e+000	 1.263060130911157e+000	 1.180899678090801e+001
 2.220710017083810e+000	 1.148236482635196e+000	 1.183783030928917e+001
 2.208977239107448e+000	 1.170649203275409e+000	 1.189747041003245e+001
 2.196999896018612e+000	 1.192975882787095e+000	 1.198125796055137e+001
 2.184778777790678e+000	 1.215212611902256e+000	 1.209045727842451e+001
 2.172314756082764e+000	 1.237355486717287e+000	 1.222632870277571e+001
 2.159608784372368e+000	 1.259400610790523e+000	 1.225402731580599e+001
 2.146661898024329e+000	 1.281344097251810e+000	 1.212682081852901e+001
 2.133475214295431e+000	 1.303182070921885e+000	 1.202757783349614e+001
 2.120049932274017e+000	 1.324910670439300e+000	 1.195696423283855e+001
 2.106387332754107e+000	 1.346526050392598e+000	 1.191562197008149e+001
 2.092488778043565e+000	 1.368024383455396e+000	 1.190416837944605e+001
 2.242917117249388e+000	 1.159718847465025e+000	 1.180137221336614e+001
 2.231067011493503e+000	 1.182355695312165e+000	 1.189334611533060e+001
 2.218969894973999e+000	 1.204905641619348e+000	 1.200726859127347e+001
 2.206626565563987e+000	 1.227364738025891e+000	 1.214435455637758e+001
 2.194037903639175e+000	 1.249729041589153e+000	 1.230581677773655e+001
 2.181204872211835e+000	 1.271994616903054e+000	 1.217836906588463e+001
 2.168128517000457e+000	 1.294157538228736e+000	 1.207205702876023e+001
 2.154809966434391e+000	 1.316213891635143e+000	 1.199136383193789e+001
 2.141250431592866e+000	 1.338159777147213e+000	 1.193689391192152e+001
 2.127451206077836e+000	 1.359991310899372e+000	 1.190922934950980e+001
 2.113413665820249e+000	 1.381704627291974e+000	 1.190892924778846e+001
 2.265124217415967e+000	 1.171201212294357e+000	 1.177676032180772e+001
 2.253156783880558e+000	 1.194062187348341e+000	 1.189902368516156e+001
 2.240939893930387e+000	 1.216835400450964e+000	 1.204106967629901e+001
 2.228474353338295e+000	 1.239516864148863e+000	 1.220406516092226e+001
 2.215761051196586e+000	 1.262102596460361e+000	 1.221897920682969e+001
 2.202800960052304e+000	 1.284588623014960e+000	 1.210915051549875e+001
 2.189595135977586e+000	 1.306970979205100e+000	 1.202207809077863e+001
 2.176144718574352e+000	 1.329245712347933e+000	 1.195832596356362e+001
 2.162450930912714e+000	 1.351408883854781e+000	 1.191843791618344e+001
 2.148515079402566e+000	 1.373456571405956e+000	 1.190293690966855e+001
 2.134338553597934e+000	 1.395384871128547e+000	 1.191232453968421e+001
 2.287331317583545e+000	 1.182683577123193e+000	 1.176372663694332e+001
 2.275246556268613e+000	 1.205768679383935e+000	 1.191428626818334e+001
 2.262909892887774e+000	 1.228765159281942e+000	 1.208249427290760e+001
 2.250322141113604e+000	 1.251668990271171e+000	 1.224635504341181e+001
 2.237484198754997e+000	 1.274476151330909e+000	 1.213630952080104e+001
 2.224397047893772e+000	 1.297182629126240e+000	 1.204630694788614e+001
 2.211061754955715e+000	 1.319784420180902e+000	 1.197686832512106e+001
 2.197479470715314e+000	 1.342277533060254e+000	 1.192849635380937e+001
 2.183651430233561e+000	 1.364657990562005e+000	 1.190167491493004e+001
 2.169578952728295e+000	 1.386921831912349e+000	 1.189686857468016e+001
 2.155263441376618e+000	 1.409065114965114e+000	 1.191452211763218e+001
 2.309538417752123e+000	 1.194165941951533e+000	 1.176201431262373e+001
 2.297336328657668e+000	 1.217475171418948e+000	 1.193892609771480e+001
 2.284879891846162e+000	 1.240694918112283e+000	 1.213138250017640e+001
 2.272169928889913e+000	 1.263821116392816e+000	 1.215128646173051e+001
 2.259207346314407e+000	 1.286849706200797e+000	 1.206155294013048e+001
 2.245993135736240e+000	 1.309776635236893e+000	 1.198977491478748e+001
 2.232528373934845e+000	 1.332597861156142e+000	 1.193641148515733e+001
 2.218814222857275e+000	 1.355309353772107e+000	 1.190190477476196e+001
 2.204851929555409e+000	 1.377907097268883e+000	 1.188667948845075e+001
 2.190642826055024e+000	 1.400387092418552e+000	 1.189114249549976e+001
 2.176188329156302e+000	 1.422745358801676e+000	 1.191568243930294e+001
 2.331745517921702e+000	 1.205648306779377e+000	 1.177137712319620e+001
 2.319426101047722e+000	 1.229181663453380e+000	 1.197274405913272e+001
 2.306849890805548e+000	 1.252624676941988e+000	 1.215213183734933e+001
 2.294017716667222e+000	 1.275973242513798e+000	 1.206561829548146e+001
 2.280930493874819e+000	 1.299223261070026e+000	 1.199460066265455e+001
 2.267589223579709e+000	 1.322370641346921e+000	 1.193949217604152e+001
 2.253994992914973e+000	 1.345411302130818e+000	 1.190069078409815e+001
 2.240148975000236e+000	 1.368341174483491e+000	 1.187857875722328e+001
 2.226052428878257e+000	 1.391156203975418e+000	 1.187352232273378e+001
 2.211706699382754e+000	 1.413852352924566e+000	 1.188587132482800e+001
 2.197113216936987e+000	 1.436425602638232e+000	 1.191595891014951e+001
 2.353952618092280e+000	 1.217130671606725e+000	 1.179157896253772e+001
 2.341515873438778e+000	 1.240888155487230e+000	 1.201554928175584e+001
 2.328819889765936e+000	 1.264554435771055e+000	 1.205660192650199e+001
 2.315865504445531e+000	 1.288125368634117e+000	 1.198919871309635e+001
 2.302653641436230e+000	 1.311596815938595e+000	 1.193534674706734e+001
 2.289185311424177e+000	 1.334964647456323e+000	 1.189539764259925e+001
 2.275461611896103e+000	 1.358224743104934e+000	 1.186968892047429e+001
 2.261483727144197e+000	 1.381372995194407e+000	 1.185854369643120e+001
 2.247252928202105e+000	 1.404405310681608e+000	 1.186227039315958e+001
 2.232770572711484e+000	 1.427317613430389e+000	 1.188116247646267e+001
 2.218038104718671e+000	 1.450105846474784e+000	 1.191549821605929e+001
 2.376159718263858e+000	 1.228613036433577e+000	 1.182239337117973e+001
 2.363605645830832e+000	 1.252594647520498e+000	 1.203289630569541e+001
 2.350789888727322e+000	 1.276484194599485e+000	 1.197171751552708e+001
 2.337713292224839e+000	 1.300277494753773e+000	 1.192188028099833e+001
 2.324376788998640e+000	 1.323970370806505e+000	 1.188368797923564e+001
 2.310781399269644e+000	 1.347558653565099e+000	 1.185743132273367e+001
 2.296928230878232e+000	 1.371038184078487e+000	 1.184338810218706e+001
 2.282818479289158e+000	 1.394404815904855e+000	 1.184182295185229e+001
 2.268453427526953e+000	 1.417654417387454e+000	 1.185298713789370e+001
 2.253834446041213e+000	 1.440782873936022e+000	 1.187711837010716e+001
 2.238962992501355e+000	 1.463786090311330e+000	 1.191444063735220e+001
 2.398366818436436e+000	 1.240095401259933e+000	 1.186360308970375e+001
 2.385695418223886e+000	 1.264301139553186e+000	 1.194059778561138e+001
 2.372759887689710e+000	 1.288413953427278e+000	 1.189729180654672e+001
 2.359561080005149e+000	 1.312429620872765e+000	 1.186351975999132e+001
 2.346099936562051e+000	 1.336343925673755e+000	 1.183952374594091e+001
 2.332377487116113e+000	 1.360152659673249e+000	 1.182553427123776e+001
 2.318394849861360e+000	 1.383851625051477e+000	 1.182177006922268e+001
 2.304153231435120e+000	 1.407436636614833e+000	 1.182843794143061e+001
 2.289653926852801e+000	 1.430903524092955e+000	 1.184573262164675e+001
 2.274898319371942e+000	 1.454248134441465e+000	 1.187383666257858e+001
 2.259887880285039e+000	 1.477466334147870e+000	 1.191292034533499e+001
 2.420573918610014e+000	 1.251577766085793e+000	 1.189456932116352e+001
 2.407785190617942e+000	 1.276007631585292e+000	 1.186007134159027e+001
 2.394729886653097e+000	 1.300343712254434e+000	 1.183314356044621e+001
 2.381408867786457e+000	 1.324581746991094e+000	 1.181397791285726e+001
 2.367823084126462e+000	 1.348717480540346e+000	 1.180275591557126e+001
 2.353973574963582e+000	 1.372746665780773e+000	 1.179964854141906e+001
 2.339861468845489e+000	 1.396665066023905e+000	 1.180481611511622e+001
 2.325487983582081e+000	 1.420468457324344e+000	 1.181840823064814e+001
 2.310854426179649e+000	 1.444152630798112e+000	 1.184056369042005e+001
 2.295962192703672e+000	 1.467713394946719e+000	 1.187141046628879e+001
 2.280812768069723e+000	 1.491146577984406e+000	 1.191106568253094e+001
 2.442781018784593e+000	 1.263060130911157e+000	 1.180899678090801e+001
 2.429874963012998e+000	 1.287714123616817e+000	 1.179109968712343e+001
 2.416699885617485e+000	 1.312273471080953e+000	 1.177909684420301e+001
 2.403256655568767e+000	 1.336733873108761e+000	 1.177311932244792e+001
 2.389546231691873e+000	 1.361091035406278e+000	 1.177328872532115e+001
 2.375569662812050e+000	 1.385340671887671e+000	 1.177971713971266e+001
 2.361328087830620e+000	 1.409478506995771e+000	 1.179250710724483e+001
 2.346822735730043e+000	 1.433500278033387e+000	 1.181175161672787e+001
 2.332054925507497e+000	 1.457401737502925e+000	 1.183753411781054e+001
 2.317026066036402e+000	 1.481178655451782e+000	 1.186992855580824e+001
 2.301737655855408e+000	 1.504826821820936e+000	 1.190899942762472e+001
 2.092488778043565e+000	 1.368024383455396e+000	 1.190416837944605e+001
 2.078355711706041e+000	 1.389401862522306e+000	 1.197510837157003e+001
 2.063989658236324e+000	 1.410654702842500e+000	 1.203735475108571e+001
 2.049392222669044e+000	 1.431779144149049e+000	 1.209052346019522e+001
 2.034565090120716e+000	 1.452771452782182e+000	 1.213423599595377e+001
 2.019510025265108e+000	 1.473627923803213e+000	 1.216812003400978e+001
 2.004228871742098e+000	 1.494344883097002e+000	 1.219181005285892e+001
 1.988723551500283e+000	 1.514918689460504e+000	 1.220494795728184e+001
 1.972996064073690e+000	 1.535345736674992e+000	 1.220718369961481e+001
 1.957048485793046e+000	 1.555622455559537e+000	 1.219817589748616e+001
 1.940882968932161e+000	 1.575745316003345e+000	 1.217759244663831e+001
 2.113413665820249e+000	 1.381704627291974e+000	 1.190892924778846e+001
 2.099139268819376e+000	 1.403295881148705e+000	 1.196490415770592e+001
 2.084629554814937e+000	 1.424761249871356e+000	 1.201290921409522e+001
 2.069886144891910e+000	 1.446096935590330e+000	 1.205259541768613e+001
 2.054910741017975e+000	 1.467299167309258e+000	 1.208361871318872e+001
 2.039705125513637e+000	 1.488364203040067e+000	 1.210564057923458e+001
 2.024271160455173e+000	 1.509288331926469e+000	 1.211832861961491e+001
 2.008610787010665e+000	 1.530067876353384e+000	 1.212135715453796e+001
 1.992726024709482e+000	 1.550699194039902e+000	 1.211440781060564e+001
 1.976618970645658e+000	 1.571178680113283e+000	 1.209717010819048e+001
 1.960291798615738e+000	 1.591502769161626e+000	 1.206934204487966e+001
 2.134338553597934e+000	 1.395384871128547e+000	 1.191232453968421e+001
 2.119922825933710e+000	 1.417189899775284e+000	 1.195453487059234e+001
 2.105269451394550e+000	 1.438867796900547e+000	 1.198948560500291e+001
 2.090380067115776e+000	 1.460414727032072e+000	 1.201686203178864e+001
 2.075256391916234e+000	 1.481826881836891e+000	 1.203635377603075e+001
 2.059900225763166e+000	 1.503100482277545e+000	 1.204765535599647e+001
 2.044313449169248e+000	 1.524231780756594e+000	 1.205046674220085e+001
 2.028498022522048e+000	 1.545217063246930e+000	 1.204449391732647e+001
 2.012455985346274e+000	 1.566052651405453e+000	 1.202944943574948e+001
 1.996189455499269e+000	 1.586734904667616e+000	 1.200505298140057e+001
 1.979700628300315e+000	 1.607260222320409e+000	 1.197103192267262e+001
 2.155263441376618e+000	 1.409065114965114e+000	 1.191452211763218e+001
 2.140706383049044e+000	 1.431083918402042e+000	 1.194413473941897e+001
 2.125909347975163e+000	 1.452974343930074e+000	 1.196718499262344e+001
 2.110873989340642e+000	 1.474732518474275e+000	 1.198339169941521e+001
 2.095602042815492e+000	 1.496354596365081e+000	 1.199247741323393e+001
 2.080095326013694e+000	 1.517836761515647e+000	 1.199416894362449e+001
 2.064355737884323e+000	 1.539175229587379e+000	 1.198819788394919e+001
 2.048385258034430e+000	 1.560366250141140e+000	 1.197430114079877e+001
 2.032185945984066e+000	 1.581406108771645e+000	 1.195222146389896e+001
 2.015759940353880e+000	 1.602291129222534e+000	 1.192170797528644e+001
 1.999109457985893e+000	 1.623017675479693e+000	 1.188251669650962e+001
 2.176188329156302e+000	 1.422745358801676e+000	 1.191568243930294e+001
 2.161489940165379e+000	 1.444977937028980e+000	 1.193383194218738e+001
 2.146549244556776e+000	 1.467080890959936e+000	 1.194610373172402e+001
 2.131367911566508e+000	 1.489050309916940e+000	 1.195224942338698e+001
 2.115947693715751e+000	 1.510882310893828e+000	 1.195202376155518e+001
 2.100290426265223e+000	 1.532573040754371e+000	 1.194518511301439e+001
 2.084398026600397e+000	 1.554118678418822e+000	 1.193149596413289e+001
 2.068272493547812e+000	 1.575515437036016e+000	 1.191072342058106e+001
 2.051915906622858e+000	 1.596759566138477e+000	 1.188263970843703e+001
 2.035330425209492e+000	 1.617847353778039e+000	 1.184702267549701e+001
 2.018518287672471e+000	 1.638775128639479e+000	 1.180365629158737e+001
 2.197113216936987e+000	 1.436425602638232e+000	 1.191595891014951e+001
 2.182273497282713e+000	 1.458871955656099e+000	 1.192374889386282e+001
 2.167189141139388e+000	 1.481187437990134e+000	 1.192633368750302e+001
 2.151861833793374e+000	 1.503368101360066e+000	 1.192349697405717e+001
 2.136293344617009e+000	 1.525410025423133e+000	 1.191502496537334e+001
 2.120485526517752e+000	 1.547309319993719e+000	 1.190070686512545e+001
 2.104440315317472e+000	 1.569062127250925e+000	 1.188033533625404e+001
 2.088159729062195e+000	 1.590664623931557e+000	 1.185370697179939e+001
 2.071645867262651e+000	 1.612113023505951e+000	 1.182062276801369e+001
 2.054900910066103e+000	 1.633403578334130e+000	 1.178088859861368e+001
 2.037927117360048e+000	 1.654532581799765e+000	 1.173431568901137e+001
 2.218038104718671e+000	 1.450105846474784e+000	 1.191549821605929e+001
 2.203057054401048e+000	 1.472765974283397e+000	 1.191400251821565e+001
 2.187829037723001e+000	 1.495293985020667e+000	 1.190796244736188e+001
 2.172355756021239e+000	 1.517685892803653e+000	 1.189719304178598e+001
 2.156638995519268e+000	 1.539937739952995e+000	 1.188151127066916e+001
 2.140680626771281e+000	 1.562045599233690e+000	 1.186073646729826e+001
 2.124482604035547e+000	 1.584005576083688e+000	 1.183469076756136e+001
 2.108046964577578e+000	 1.605813810827763e+000	 1.180319955268823e+001
 2.091375827903443e+000	 1.627466480874064e+000	 1.176609189516548e+001
 2.074471394923714e+000	 1.648959802890808e+000	 1.172320100672883e+001
 2.057335947048625e+000	 1.670290034960553e+000	 1.167436468730972e+001
 2.238962992501355e+000	 1.463786090311330e+000	 1.191444063735220e+001
 2.223840611520382e+000	 1.486659992910875e+000	 1.190470450441908e+001
 2.208468934307614e+000	 1.509400532051535e+000	 1.189107352080233e+001
 2.192849678250105e+000	 1.532003684247701e+000	 1.187339338086549e+001
 2.176984646422527e+000	 1.554465454483414e+000	 1.185151111373551e+001
 2.160875727025809e+000	 1.576781878474284e+000	 1.182527548753590e+001
 2.144524892754621e+000	 1.598949024917110e+000	 1.179453741971613e+001
 2.127934200093959e+000	 1.620962997724634e+000	 1.175915039248244e+001
 2.111105788545236e+000	 1.642819938242819e+000	 1.171897087230197e+001
 2.094041879782326e+000	 1.664516027448071e+000	 1.167385873242209e+001
 2.076744776738203e+000	 1.686047488121843e+000	 1.162367767731983e+001
 2.259887880285039e+000	 1.477466334147870e+000	 1.191292034533499e+001
 2.244624168640716e+000	 1.500554011538533e+000	 1.189596154939177e+001
 2.229108830893226e+000	 1.523507079082740e+000	 1.187574652821795e+001
 2.213343600479971e+000	 1.546321475692211e+000	 1.185215094544875e+001
 2.197330297326785e+000	 1.568993169014391e+000	 1.182505120495923e+001
 2.181070827281339e+000	 1.591518157715502e+000	 1.179432482688076e+001
 2.164567181474696e+000	 1.613892473751190e+000	 1.175985083053248e+001
 2.147821435611343e+000	 1.636112184622170e+000	 1.172151012331554e+001
 2.130835749188027e+000	 1.658173395612215e+000	 1.167918589458220e+001
 2.113612364641937e+000	 1.680072252005921e+000	 1.163276401345986e+001
 2.096153606428781e+000	 1.701804941283633e+000	 1.158213342958159e+001
 2.280812768069723e+000	 1.491146577984406e+000	 1.191106568253094e+001
 2.265407725762050e+000	 1.514448030166370e+000	 1.188787558680019e+001
 2.249748727479840e+000	 1.537613626114280e+000	 1.186205737929364e+001
 2.233837522710837e+000	 1.560639267137182e+000	 1.183351601799650e+001
 2.217675948232044e+000	 1.583520883545925e+000	 1.180215660799115e+001
 2.201265927537867e+000	 1.606254436957342e+000	 1.176788475000899e+001
 2.184609470195770e+000	 1.628835922585930e+000	 1.173060689672260e+001
 2.167708671129724e+000	 1.651261371520371e+000	 1.169023071586654e+001
 2.150565709831820e+000	 1.673526852982251e+000	 1.164666545923795e+001
 2.133182849502548e+000	 1.695628476564357e+000	 1.159982233659416e+001
 2.115562436120359e+000	 1.717562394445926e+000	 1.154961489343346e+001
 2.301737655855408e+000	 1.504826821820936e+000	 1.190899942762472e+001
 2.286191282884384e+000	 1.528342048794389e+000	 1.188054400357020e+001
 2.270388624067453e+000	 1.551720173146155e+000	 1.185007844167421e+001
 2.254331444942703e+000	 1.574957058582615e+000	 1.181753633071777e+001
 2.238021599138304e+000	 1.598048598078016e+000	 1.178285081459771e+001
 2.221461027795396e+000	 1.620990716199806e+000	 1.174595491415633e+001
 2.204651758917846e+000	 1.643779371421331e+000	 1.170678185758325e+001
 2.187595906649108e+000	 1.666410558419238e+000	 1.166526541851683e+001
 2.170295670476613e+000	 1.688880310352928e+000	 1.162134026093403e+001
 2.152753334364160e+000	 1.711184701123380e+000	 1.157494228988146e+001
 2.134971265812936e+000	 1.733319847608720e+000	 1.152600900706720e+001
 1.940882968932161e+000	 1.575745316003345e+000	 1.217759244663831e+001
 1.924501740789867e+000	 1.595710828974349e+000	 1.216888398818783e+001
 1.907907102708858e+000	 1.615515548502402e+000	 1.212927214260387e+001
 1.891101429031947e+000	 1.635156073634189e+000	 1.205833593921172e+001
 1.874087165996259e+000	 1.654629050357170e+000	 1.196182387451365e+001
 1.856866830566980e+000	 1.673931173491006e+000	 1.194551344751300e+001
 1.839443009211615e+000	 1.693059188543971e+000	 1.190383593778425e+001
 1.821818356616007e+000	 1.712009893532202e+000	 1.183759170769016e+001
 1.803995594343424e+000	 1.730780140759638e+000	 1.174763880004086e+001
 1.785977509438138e+000	 1.749366838556604e+000	 1.163489132103763e+001
 1.767766952975000e+000	 1.767766952975000e+000	 1.150031769347619e+001
 1.960291798615738e+000	 1.591502769161626e+000	 1.206934204487966e+001
 1.943746758191629e+000	 1.611667937262448e+000	 1.205317560260864e+001
 1.926986173729532e+000	 1.631670703985805e+000	 1.201113107786073e+001
 1.910012443315688e+000	 1.651507634368847e+000	 1.194283354778923e+001
 1.892828037649594e+000	 1.671175340858911e+000	 1.184793310536955e+001
 1.875435498866089e+000	 1.690670485223853e+000	 1.172610553593117e+001
 1.857837439297353e+000	 1.709989780427031e+000	 1.169790692219444e+001
 1.840036540176085e+000	 1.729129992464741e+000	 1.165304169360983e+001
 1.822035550281188e+000	 1.748087942163965e+000	 1.158943646502075e+001
 1.803837284527377e+000	 1.766860506938327e+000	 1.150806709183882e+001
 1.785444622500250e+000	 1.785444622500250e+000	 1.140996031135114e+001
 1.979700628300315e+000	 1.607260222320409e+000	 1.197103192267262e+001
 1.962991775594386e+000	 1.627625045550958e+000	 1.194895653270341e+001
 1.946065244751185e+000	 1.647825859469548e+000	 1.190592964429651e+001
 1.928923457600384e+000	 1.667859195103797e+000	 1.184162136295635e+001
 1.911568909303851e+000	 1.687721631360913e+000	 1.175572226853484e+001
 1.894004167166073e+000	 1.707409796956951e+000	 1.164794404287270e+001
 1.876231869383910e+000	 1.726920372310351e+000	 1.151802007247191e+001
 1.858254723736918e+000	 1.746250091397571e+000	 1.148647647549544e+001
 1.840075506219632e+000	 1.765395743568631e+000	 1.144969166108203e+001
 1.821697059617211e+000	 1.784354175320461e+000	 1.140004148916055e+001
 1.803122292026000e+000	 1.803122292026000e+000	 1.133861157398412e+001
 1.999109457985893e+000	 1.623017675479693e+000	 1.188251669650962e+001
 1.982236792998138e+000	 1.643582153839881e+000	 1.185603807748754e+001
 1.965144315773819e+000	 1.663981014953634e+000	 1.181343870286135e+001
 1.947834471886035e+000	 1.684210755839037e+000	 1.175443270855498e+001
 1.930309780959026e+000	 1.704267921863176e+000	 1.167875022253556e+001
 1.912572835466933e+000	 1.724149108690299e+000	 1.158613794470889e+001
 1.894626299471288e+000	 1.743850964193931e+000	 1.147635970780211e+001
 1.876472907298507e+000	 1.763370190330691e+000	 1.134919701782205e+001
 1.858115462158757e+000	 1.782703544973638e+000	 1.132909667204499e+001
 1.839556834707640e+000	 1.801847843703005e+000	 1.131147773896058e+001
 1.820799961552250e+000	 1.820799961552250e+000	 1.128690805377826e+001
 2.018518287672471e+000	 1.638775128639479e+000	 1.180365629158737e+001
 2.001481810402884e+000	 1.659539262129213e+000	 1.177423858349504e+001
 1.984223386797433e+000	 1.680136170438060e+000	 1.173343779081525e+001
 1.966745486172641e+000	 1.700562316574568e+000	 1.168101110257054e+001
 1.949050652615122e+000	 1.720814212365699e+000	 1.161672727493075e+001
 1.931141503768667e+000	 1.740888420423898e+000	 1.154036716448768e+001
 1.913020729559484e+000	 1.760781556077772e+000	 1.145172424840679e+001
 1.894691090860849e+000	 1.780490289264100e+000	 1.135060513011933e+001
 1.876155418098561e+000	 1.800011346378984e+000	 1.123683002924007e+001
 1.857416609798664e+000	 1.819341512085958e+000	 1.124305599478710e+001
 1.838477631079000e+000	 1.838477631079000e+000	 1.125550397164404e+001
 2.037927117360048e+000	 1.654532581799765e+000	 1.173431568901137e+001
 2.020726827808627e+000	 1.675496370418957e+000	 1.170338310918248e+001
 2.003302457822026e+000	 1.696291325922827e+000	 1.166571470857033e+001
 1.985656500460203e+000	 1.716913877310390e+000	 1.162110977169656e+001
 1.967791524272138e+000	 1.737360502868482e+000	 1.156937478104633e+001
 1.949710172071277e+000	 1.757627732157747e+000	 1.151032390482886e+001
 1.931415159648502e+000	 1.777712147961872e+000	 1.144377947744083e+001
 1.912909274423948e+000	 1.797610388197801e+000	 1.136957247136840e+001
 1.894195374039046e+000	 1.817319147784671e+000	 1.128754295927360e+001
 1.875276384890283e+000	 1.836835180469322e+000	 1.119754056502433e+001
 1.856155300606249e+000	 1.856155300606249e+000	 1.124507035659411e+001
 2.057335947048625e+000	 1.670290034960553e+000	 1.167436468730972e+001
 2.039971845215364e+000	 1.691453478709113e+000	 1.164330310832885e+001
 2.022381528847600e+000	 1.712446481407934e+000	 1.161006512991957e+001
 2.004567514748719e+000	 1.733265438046503e+000	 1.157449119337675e+001
 1.986532395930074e+000	 1.753906793371527e+000	 1.153642462285395e+001
 1.968278840374762e+000	 1.774367043891847e+000	 1.149571206869907e+001
 1.949809589738340e+000	 1.794642739846233e+000	 1.145220394925621e+001
 1.931127457987802e+000	 1.814730487131791e+000	 1.140575488994051e+001
 1.912235329980211e+000	 1.834626949190698e+000	 1.135622415838953e+001
 1.893136159982496e+000	 1.854328848853095e+000	 1.130347609449650e+001
 1.873832970134000e+000	 1.873832970134000e+000	 1.125629425290840e+001
 2.076744776738203e+000	 1.686047488121843e+000	 1.162367767731983e+001
 2.059216862623095e+000	 1.707410586999680e+000	 1.159383613118867e+001
 2.041460599874153e+000	 1.728601636893384e+000	 1.156629223412182e+001
 2.023478529038190e+000	 1.749616998782907e+000	 1.154092666352699e+001
 2.005273267588929e+000	 1.770453083874832e+000	 1.151761871707178e+001
 1.986847508679122e+000	 1.791106355626197e+000	 1.149624671266656e+001
 1.968204019828998e+000	 1.811573331730855e+000	 1.147668839261714e+001
 1.949345641552410e+000	 1.831850586066071e+000	 1.145882133082193e+001
 1.930275285922055e+000	 1.851934750597065e+000	 1.144252334187369e+001
 1.910995935075306e+000	 1.871822517237279e+000	 1.142767289091581e+001
 1.891510639662249e+000	 1.891510639662249e+000	 1.127566544878540e+001
 2.096153606428781e+000	 1.701804941283633e+000	 1.158213342958159e+001
 2.078461880031822e+000	 1.723367695290657e+000	 1.155482554224780e+001
 2.060539670901687e+000	 1.744756792379174e+000	 1.153420635842647e+001
 2.042389543328616e+000	 1.765968559519601e+000	 1.152019588827267e+001
 2.024014139248705e+000	 1.786999374378398e+000	 1.151270855059273e+001
 2.005416176984356e+000	 1.807845667360798e+000	 1.151165353053076e+001
 1.986598449920476e+000	 1.828503923615737e+000	 1.151693514706986e+001
 1.967563825117773e+000	 1.848970685000643e+000	 1.152845322928899e+001
 1.948315241864580e+000	 1.869242552003772e+000	 1.154610350029037e+001
 1.928855710168709e+000	 1.889316185621873e+000	 1.145229315755519e+001
 1.909188309190999e+000	 1.909188309190999e+000	 1.131849446605447e+001
 2.115562436120359e+000	 1.717562394445926e+000	 1.154961489343346e+001
 2.097706897441544e+000	 1.739324803582046e+000	 1.152612025351557e+001
 2.079618741930201e+000	 1.760911947865306e+000	 1.151362466972530e+001
 2.061300557619997e+000	 1.782320120256587e+000	 1.151208659815929e+001
 2.042755010909402e+000	 1.803545664882225e+000	 1.152145474148578e+001
 2.023984845290466e+000	 1.824584979095649e+000	 1.154166836537597e+001
 2.004992880012773e+000	 1.845434515500879e+000	 1.157265763033798e+001
 1.985782008683892e+000	 1.866090783935503e+000	 1.161434393795931e+001
 1.966355197807784e+000	 1.886550353410819e+000	 1.157373494551612e+001
 1.946715485262708e+000	 1.906809854006876e+000	 1.147360090153542e+001
 1.926865978720250e+000	 1.926865978720250e+000	 1.138525847668846e+001
 2.134971265812936e+000	 1.733319847608720e+000	 1.152600900706720e+001
 2.116951914852261e+000	 1.755281911873847e+000	 1.150757447236460e+001
 2.098697812959695e+000	 1.777067103351779e+000	 1.150437085411419e+001
 2.080211571912335e+000	 1.798671680993865e+000	 1.151639418340609e+001
 2.061495882571019e+000	 1.820091955386313e+000	 1.154362662394245e+001
 2.042553513597452e+000	 1.841324290830751e+000	 1.158603674824009e+001
 2.023387310105893e+000	 1.862365107386282e+000	 1.164357983476892e+001
 2.004000192250767e+000	 1.883210882870655e+000	 1.165134096669781e+001
 1.984395153751670e+000	 1.903858154818206e+000	 1.157615272169115e+001
 1.964575260357303e+000	 1.924303522392291e+000	 1.151762626426407e+001
 1.944543648250000e+000	 1.944543648250000e+000	 1.147536664594126e+001
 1.767766952975000e+000	 1.767766952975000e+000	 1.150031769347619e+001
 1.749366838556605e+000	 1.785977509438138e+000	 1.137477665781694e+001
 1.730780140759639e+000	 1.803995594343423e+000	 1.128026703729915e+001
 1.712009893532202e+000	 1.821818356616006e+000	 1.121825515086420e+001
 1.693059188543972e+000	 1.839443009211614e+000	 1.119020304188657e+001
 1.673931173491007e+000	 1.856866830566979e+000	 1.119756586856078e+001
 1.654629050357171e+000	 1.874087165996258e+000	 1.124178926311918e+001
 1.635156073634190e+000	 1.891101429031946e+000	 1.113672054408439e+001
 1.615515548502403e+000	 1.907907102708857e+000	 1.105171275407942e+001
 1.595710828974350e+000	 1.924501740789867e+000	 1.099726008989820e+001
 1.575745316003345e+000	 1.940882968932160e+000	 1.097349635423343e+001
 1.785444622500250e+000	 1.785444622500250e+000	 1.140996031135114e+001
 1.766860506938328e+000	 1.803837284527377e+000	 1.133270736267664e+001
 1.748087942163965e+000	 1.822035550281187e+000	 1.128120579094761e+001
 1.729129992464742e+000	 1.840036540176085e+000	 1.125690636058844e+001
 1.709989780427031e+000	 1.857837439297352e+000	 1.126126164634903e+001
 1.690670485223853e+000	 1.875435498866088e+000	 1.129108108099515e+001
 1.671175340858912e+000	 1.892828037649594e+000	 1.116684243861515e+001
 1.651507634368848e+000	 1.910012443315687e+000	 1.106744626150079e+001
 1.631670703985806e+000	 1.926986173729531e+000	 1.099301982387133e+001
 1.611667937262449e+000	 1.943746758191628e+000	 1.094367905074977e+001
 1.591502769161626e+000	 1.960291798615738e+000	 1.091952873173120e+001
 1.803122292026000e+000	 1.803122292026000e+000	 1.133861157398412e+001
 1.784354175320462e+000	 1.821697059617210e+000	 1.130740171931547e+001
 1.765395743568632e+000	 1.840075506219632e+000	 1.129673865455303e+001
 1.746250091397571e+000	 1.858254723736918e+000	 1.130805945669464e+001
 1.726920372310352e+000	 1.876231869383909e+000	 1.133040400149890e+001
 1.707409796956951e+000	 1.894004167166073e+000	 1.120677898378272e+001
 1.687721631360914e+000	 1.911568909303850e+000	 1.110260662921016e+001
 1.667859195103797e+000	 1.928923457600383e+000	 1.101798095991724e+001
 1.647825859469549e+000	 1.946065244751184e+000	 1.095298970468016e+001
 1.627625045550959e+000	 1.962991775594385e+000	 1.090771454522188e+001
 1.607260222320409e+000	 1.979700628300316e+000	 1.088223136105849e+001
 1.820799961552250e+000	 1.820799961552250e+000	 1.128690805377826e+001
 1.801847843703005e+000	 1.839556834707639e+000	 1.129953977876741e+001
 1.782703544973638e+000	 1.858115462158756e+000	 1.132758562958514e+001
 1.763370190330692e+000	 1.876472907298506e+000	 1.135838355275601e+001
 1.743850964193932e+000	 1.894626299471286e+000	 1.124442699685276e+001
 1.724149108690300e+000	 1.912572835466932e+000	 1.114471740324885e+001
 1.704267921863176e+000	 1.930309780959026e+000	 1.105930563464613e+001
 1.684210755839037e+000	 1.947834471886034e+000	 1.098824117193757e+001
 1.663981014953635e+000	 1.965144315773818e+000	 1.093157240689302e+001
 1.643582153839881e+000	 1.982236792998137e+000	 1.088934692708411e+001
 1.623017675479693e+000	 1.999109457985893e+000	 1.086161179204600e+001
 1.838477631079000e+000	 1.838477631079000e+000	 1.125550397164404e+001
 1.819341512085959e+000	 1.857416609798663e+000	 1.130981724151136e+001
 1.800011346378985e+000	 1.876155418098561e+000	 1.136391560079345e+001
 1.780490289264101e+000	 1.894691090860849e+000	 1.126828957759219e+001
 1.760781556077772e+000	 1.913020729559484e+000	 1.118190013370093e+001
 1.740888420423898e+000	 1.931141503768667e+000	 1.110474537271974e+001
 1.720814212365700e+000	 1.949050652615121e+000	 1.103682676471467e+001
 1.700562316574569e+000	 1.966745486172640e+000	 1.097814949871105e+001
 1.680136170438060e+000	 1.984223386797432e+000	 1.092872282136061e+001
 1.659539262129213e+000	 2.001481810402884e+000	 1.088856036066870e+001
 1.638775128639479e+000	 2.018518287672471e+000	 1.085768043372072e+001
 1.856155300606249e+000	 1.856155300606249e+000	 1.124507035659411e+001
 1.836835180469322e+000	 1.875276384890282e+000	 1.133650974735611e+001
 1.817319147784672e+000	 1.894195374039045e+000	 1.126747580857992e+001
 1.797610388197802e+000	 1.912909274423947e+000	 1.120287421751371e+001
 1.777712147961873e+000	 1.931415159648502e+000	 1.114264104726935e+001
 1.757627732157748e+000	 1.949710172071276e+000	 1.108672030405261e+001
 1.737360502868484e+000	 1.967791524272137e+000	 1.103506435242528e+001
 1.716913877310390e+000	 1.985656500460202e+000	 1.098763432095404e+001
 1.696291325922827e+000	 2.003302457822025e+000	 1.094440048699385e+001
 1.675496370418958e+000	 2.020726827808626e+000	 1.090534263941530e+001
 1.654532581799765e+000	 2.037927117360048e+000	 1.087045041815359e+001
 1.873832970134000e+000	 1.873832970134000e+000	 1.125629425290840e+001
 1.854328848853096e+000	 1.893136159982496e+000	 1.123170091001933e+001
 1.834626949190698e+000	 1.912235329980210e+000	 1.119695723740533e+001
 1.814730487131792e+000	 1.931127457987802e+000	 1.116192337857360e+001
 1.794642739846234e+000	 1.949809589738339e+000	 1.112647675335106e+001
 1.774367043891848e+000	 1.968278840374761e+000	 1.109050759242207e+001
 1.753906793371528e+000	 1.986532395930073e+000	 1.105391942272160e+001
 1.733265438046504e+000	 2.004567514748718e+000	 1.101662952632883e+001
 1.712446481407935e+000	 2.022381528847599e+000	 1.097856937151622e+001
 1.691453478709113e+000	 2.039971845215363e+000	 1.093968501468653e+001
 1.670290034960553e+000	 2.057335947048625e+000	 1.089993747201410e+001
 1.891510639662249e+000	 1.891510639662249e+000	 1.127566544878540e+001
 1.871822517237279e+000	 1.910995935075305e+000	 1.115406570808553e+001
 1.851934750597065e+000	 1.930275285922054e+000	 1.115211388083180e+001
 1.831850586066072e+000	 1.949345641552410e+000	 1.114523334135594e+001
 1.811573331730856e+000	 1.968204019828997e+000	 1.113324320996206e+001
 1.791106355626198e+000	 1.986847508679121e+000	 1.111598024326773e+001
 1.770453083874833e+000	 2.005273267588929e+000	 1.109329937977418e+001
 1.749616998782907e+000	 2.023478529038189e+000	 1.106507425210988e+001
 1.728601636893384e+000	 2.041460599874153e+000	 1.103119766450943e+001
 1.707410586999680e+000	 2.059216862623094e+000	 1.099158203418277e+001
 1.686047488121843e+000	 2.076744776738203e+000	 1.094615979532736e+001
 1.909188309190999e+000	 1.909188309190999e+000	 1.131849446605447e+001
 1.889316185621873e+000	 1.928855710168709e+000	 1.121331941073944e+001
 1.869242552003772e+000	 1.948315241864579e+000	 1.113271108774705e+001
 1.848970685000643e+000	 1.967563825117773e+000	 1.115261028067340e+001
 1.828503923615737e+000	 1.986598449920475e+000	 1.116278490334942e+001
 1.807845667360799e+000	 2.005416176984356e+000	 1.116301851996735e+001
 1.786999374378399e+000	 2.024014139248705e+000	 1.115311771164595e+001
 1.765968559519602e+000	 2.042389543328615e+000	 1.113291264214599e+001
 1.744756792379175e+000	 2.060539670901687e+000	 1.110225758195736e+001
 1.723367695290658e+000	 2.078461880031821e+000	 1.106103138933408e+001
 1.701804941283634e+000	 2.096153606428781e+000	 1.100913794696692e+001
 1.926865978720250e+000	 1.926865978720250e+000	 1.138525847668846e+001
 1.906809854006877e+000	 1.946715485262708e+000	 1.131992679471537e+001
 1.886550353410819e+000	 1.966355197807783e+000	 1.122896248404877e+001
 1.866090783935504e+000	 1.985782008683891e+000	 1.118386981170362e+001
 1.845434515500880e+000	 2.004992880012773e+000	 1.121495445678816e+001
 1.824584979095650e+000	 2.023984845290466e+000	 1.123150961090372e+001
 1.803545664882226e+000	 2.042755010909401e+000	 1.123329371121447e+001
 1.782320120256588e+000	 2.061300557619997e+000	 1.122009361720117e+001
 1.760911947865307e+000	 2.079618741930200e+000	 1.119172518154855e+001
 1.739324803582047e+000	 2.097706897441543e+000	 1.114803377109231e+001
 1.717562394445926e+000	 2.115562436120359e+000	 1.108889473645064e+001
 1.944543648250000e+000	 1.944543648250000e+000	 1.147536664594126e+001
 1.924303522392292e+000	 1.964575260357303e+000	 1.144857654693293e+001
 1.903858154818207e+000	 1.984395153751669e+000	 1.139178596797389e+001
 1.883210882870656e+000	 2.004000192250766e+000	 1.130430657975941e+001
 1.862365107386283e+000	 2.023387310105892e+000	 1.128961226071617e+001
 1.841324290830752e+000	 2.042553513597451e+000	 1.132134731469180e+001
 1.820091955386314e+000	 2.061495882571018e+000	 1.133375221231685e+001
 1.798671680993865e+000	 2.080211571912334e+000	 1.132657065782191e+001
 1.777067103351780e+000	 2.098697812959694e+000	 1.129958018805329e+001
 1.755281911873849e+000	 2.116951914852261e+000	 1.125259273358919e+001
 1.733319847608720e+000	 2.134971265812937e+000	 1.118545512163874e+001
 1.575745316003345e+000	 1.940882968932160e+000	 1.097349635423343e+001
 1.555622455559537e+000	 1.957048485793046e+000	 1.081430166942835e+001
 1.535345736674993e+000	 1.972996064073689e+000	 1.067539488897214e+001
 1.514918689460505e+000	 1.988723551500282e+000	 1.055688561932432e+001
 1.494344883097003e+000	 2.004228871742098e+000	 1.045887899404158e+001
 1.473627923803214e+000	 2.019510025265108e+000	 1.038147583684770e+001
 1.452771452782183e+000	 2.034565090120716e+000	 1.032477281824715e+001
 1.431779144149050e+000	 2.049392222669043e+000	 1.028886260509602e+001
 1.410654702842501e+000	 2.063989658236324e+000	 1.027383400258592e+001
 1.389401862522308e+000	 2.078355711706041e+000	 1.027977208814277e+001
 1.368024383455396e+000	 2.092488778043565e+000	 1.030675833678538e+001
 1.591502769161626e+000	 1.960291798615738e+000	 1.091952873173120e+001
 1.571178680113283e+000	 1.976618970645657e+000	 1.075684329184012e+001
 1.550699194039903e+000	 1.992726024709482e+000	 1.061468935597806e+001
 1.530067876353385e+000	 2.008610787010665e+000	 1.049318760706784e+001
 1.509288331926469e+000	 2.024271160455172e+000	 1.039245410314236e+001
 1.488364203040068e+000	 2.039705125513637e+000	 1.031260043787717e+001
 1.467299167309258e+000	 2.054910741017974e+000	 1.025373389462755e+001
 1.446096935590331e+000	 2.069886144891909e+000	 1.021595759337694e+001
 1.424761249871357e+000	 2.084629554814937e+000	 1.019937063004695e+001
 1.403295881148706e+000	 2.099139268819376e+000	 1.020406820766350e+001
 1.381704627291974e+000	 2.113413665820249e+000	 1.023014175892075e+001
 1.607260222320409e+000	 1.979700628300316e+000	 1.088223136105849e+001
 1.586734904667616e+000	 1.996189455499269e+000	 1.071642324316595e+001
 1.566052651405454e+000	 2.012455985346274e+000	 1.057137634687540e+001
 1.545217063246931e+000	 2.028498022522047e+000	 1.044722203563983e+001
 1.524231780756594e+000	 2.044313449169247e+000	 1.034408691047739e+001
 1.503100482277546e+000	 2.059900225763165e+000	 1.026209296845042e+001
 1.481826881836892e+000	 2.075256391916233e+000	 1.020135775458428e+001
 1.460414727032073e+000	 2.090380067115775e+000	 1.016199450662442e+001
 1.438867796900548e+000	 2.105269451394549e+000	 1.014411229207465e+001
 1.417189899775285e+000	 2.119922825933710e+000	 1.014781613700492e+001
 1.395384871128547e+000	 2.134338553597933e+000	 1.017320714616516e+001
 1.623017675479693e+000	 1.999109457985893e+000	 1.086161179204600e+001
 1.602291129222535e+000	 2.015759940353880e+000	 1.069303774256182e+001
 1.581406108771645e+000	 2.032185945984065e+000	 1.054544090075469e+001
 1.560366250141141e+000	 2.048385258034430e+000	 1.041896291726293e+001
 1.539175229587380e+000	 2.064355737884322e+000	 1.031374055712161e+001
 1.517836761515647e+000	 2.080095326013694e+000	 1.022990585667328e+001
 1.496354596365082e+000	 2.095602042815492e+000	 1.016758627382622e+001
 1.474732518474276e+000	 2.110873989340641e+000	 1.012690483105112e+001
 1.452974343930075e+000	 2.125909347975162e+000	 1.010798025055036e+001
 1.431083918402043e+000	 2.140706383049044e+000	 1.011092708108145e+001
 1.409065114965114e+000	 2.155263441376618e+000	 1.013585581596530e+001
 1.638775128639479e+000	 2.018518287672471e+000	 1.085768043372072e+001
 1.617847353778040e+000	 2.035330425209491e+000	 1.068668639615373e+001
 1.596759566138478e+000	 2.051915906622858e+000	 1.053687196286374e+001
 1.575515437036018e+000	 2.068272493547812e+000	 1.040838868068397e+001
 1.554118678418823e+000	 2.084398026600397e+000	 1.030138310199487e+001
 1.532573040754372e+000	 2.100290426265222e+000	 1.021599694055037e+001
 1.510882310893829e+000	 2.115947693715750e+000	 1.015236722053464e+001
 1.489050309916940e+000	 2.131367911566507e+000	 1.011062641822901e+001
 1.467080890959937e+000	 2.146549244556775e+000	 1.009090259571506e+001
 1.444977937028982e+000	 2.161489940165378e+000	 1.009331952608840e+001
 1.422745358801676e+000	 2.176188329156302e+000	 1.011799680970591e+001
 1.654532581799765e+000	 2.037927117360048e+000	 1.087045041815359e+001
 1.633403578334131e+000	 2.054900910066102e+000	 1.069737203575372e+001
 1.612113023505951e+000	 2.071645867262650e+000	 1.054566219860001e+001
 1.590664623931558e+000	 2.088159729062195e+000	 1.041548196086358e+001
 1.569062127250926e+000	 2.104440315317471e+000	 1.030698728767876e+001
 1.547309319993720e+000	 2.120485526517752e+000	 1.022032921037080e+001
 1.525410025423134e+000	 2.136293344617009e+000	 1.015565397476924e+001
 1.503368101360066e+000	 2.151861833793372e+000	 1.011310318197675e+001
 1.481187437990135e+000	 2.167189141139388e+000	 1.009281392100932e+001
 1.458871955656099e+000	 2.182273497282713e+000	 1.009491889277456e+001
 1.436425602638232e+000	 2.197113216936987e+000	 1.011954652490338e+001
 1.670290034960553e+000	 2.057335947048625e+000	 1.089993747201410e+001
 1.648959802890809e+000	 2.074471394923714e+000	 1.072510056670452e+001
 1.627466480874065e+000	 2.091375827903443e+000	 1.057180781803199e+001
 1.605813810827764e+000	 2.108046964577577e+000	 1.044022940056960e+001
 1.584005576083689e+000	 2.124482604035546e+000	 1.033053031948919e+001
 1.562045599233691e+000	 2.140680626771280e+000	 1.024287056567581e+001
 1.539937739952996e+000	 2.156638995519268e+000	 1.017740526375697e+001
 1.517685892803653e+000	 2.172355756021239e+000	 1.013428481240502e+001
 1.495293985020668e+000	 2.187829037723001e+000	 1.011365501631868e+001
 1.472765974283397e+000	 2.203057054401047e+000	 1.011565720934042e+001
 1.450105846474784e+000	 2.218038104718671e+000	 1.014042836821851e+001
 1.686047488121843e+000	 2.076744776738203e+000	 1.094615979532736e+001
 1.664516027448072e+000	 2.094041879782325e+000	 1.076988082425689e+001
 1.642819938242820e+000	 2.111105788545235e+000	 1.061530841026017e+001
 1.620962997724635e+000	 2.127934200093960e+000	 1.048262146309649e+001
 1.598949024917111e+000	 2.144524892754621e+000	 1.037199365693750e+001
 1.576781878474284e+000	 2.160875727025809e+000	 1.028359358585465e+001
 1.554465454483415e+000	 2.176984646422526e+000	 1.021758491202428e+001
 1.532003684247702e+000	 2.192849678250104e+000	 1.017412650599609e+001
 1.509400532051537e+000	 2.208468934307613e+000	 1.015337257842002e+001
 1.486659992910876e+000	 2.223840611520381e+000	 1.015547280267887e+001
 1.463786090311330e+000	 2.238962992501355e+000	 1.018057242792628e+001
 1.701804941283634e+000	 2.096153606428781e+000	 1.100913794696692e+001
 1.680072252005922e+000	 2.113612364641936e+000	 1.083172443792563e+001
 1.658173395612215e+000	 2.130835749188027e+000	 1.067616678698057e+001
 1.636112184622171e+000	 2.147821435611342e+000	 1.054265225538918e+001
 1.613892473751192e+000	 2.164567181474696e+000	 1.043136281677687e+001
 1.591518157715502e+000	 2.181070827281338e+000	 1.034247531348478e+001
 1.568993169014392e+000	 2.197330297326785e+000	 1.027616160541115e+001
 1.546321475692212e+000	 2.213343600479970e+000	 1.023258871067922e+001
 1.523507079082741e+000	 2.229108830893226e+000	 1.021191893751457e+001
 1.500554011538533e+000	 2.244624168640715e+000	 1.021431000676906e+001
 1.477466334147870e+000	 2.259887880285039e+000	 1.023991516458179e+001
 1.717562394445926e+000	 2.115562436120359e+000	 1.108889473645064e+001
 1.695628476564358e+000	 2.133182849502547e+000	 1.091064570331232e+001
 1.673526852982252e+000	 2.150565709831819e+000	 1.075438883465916e+001
 1.651261371520371e+000	 2.167708671129724e+000	 1.062031936090297e+001
 1.628835922585932e+000	 2.184609470195770e+000	 1.050862718689032e+001
 1.606254436957343e+000	 2.201265927537867e+000	 1.041949704959853e+001
 1.583520883545926e+000	 2.217675948232044e+000	 1.035310866807507e+001
 1.560639267137183e+000	 2.233837522710836e+000	 1.030963688493875e+001
 1.537613626114280e+000	 2.249748727479839e+000	 1.028925179881377e+001
 1.514448030166371e+000	 2.265407725762049e+000	 1.029211888712192e+001
 1.491146577984406e+000	 2.280812768069723e+000	 1.031839911871416e+001
 1.733319847608720e+000	 2.134971265812937e+000	 1.118545512163874e+001
 1.711184701123380e+000	 2.152753334364159e+000	 1.100666146091958e+001
 1.688880310352929e+000	 2.170295670476612e+000	 1.084998337476957e+001
 1.666410558419238e+000	 2.187595906649108e+000	 1.071562368158044e+001
 1.643779371421331e+000	 2.204651758917846e+000	 1.060377985033030e+001
 1.620990716199807e+000	 2.221461027795396e+000	 1.051464416011705e+001
 1.598048598078017e+000	 2.238021599138303e+000	 1.044840385165835e+001
 1.574957058582615e+000	 2.254331444942703e+000	 1.040524127006149e+001
 1.551720173146156e+000	 2.270388624067453e+000	 1.038533399822079e+001
 1.528342048794390e+000	 2.286191282884385e+000	 1.038885498025613e+001
 1.504826821820936e+000	 2.301737655855408e+000	 1.041597263446374e+001
 1.368024383455396e+000	 2.092488778043565e+000	 1.030675833678538e+001
 1.346526050392599e+000	 2.106387332754106e+000	 1.042544583873721e+001
 1.324910670439301e+000	 2.120049932274017e+000	 1.047636471372867e+001
 1.303182070921886e+000	 2.133475214295430e+000	 1.045921357256334e+001
 1.281344097251811e+000	 2.146661898024328e+000	 1.037377273986670e+001
 1.259400610790523e+000	 2.159608784372368e+000	 1.021990398283315e+001
 1.237355486717287e+000	 2.172314756082764e+000	 1.011411323068555e+001
 1.215212611902257e+000	 2.184778777790677e+000	 1.003117640176988e+001
 1.192975882787096e+000	 2.196999896018612e+000	 9.888487947341652e+000
 1.170649203275409e+000	 2.208977239107448e+000	 9.689580976018759e+000
 1.148236482635196e+000	 2.220710017083810e+000	 9.437978192924664e+000
 1.381704627291974e+000	 2.113413665820249e+000	 1.023014175892075e+001
 1.359991310899373e+000	 2.127451206077835e+000	 1.032725023536511e+001
 1.338159777147214e+000	 2.141250431592865e+000	 1.036203922345279e+001
 1.316213891635144e+000	 2.154809966434391e+000	 1.033423504701454e+001
 1.294157538228737e+000	 2.168128517000457e+000	 1.024364111892969e+001
 1.271994616903055e+000	 2.181204872211835e+000	 1.009013768602775e+001
 1.249729041589154e+000	 2.194037903639174e+000	 9.876265263884848e+000
 1.227364738025892e+000	 2.206626565563986e+000	 9.813310671372165e+000
 1.204905641619349e+000	 2.218969894973999e+000	 9.697122481249123e+000
 1.182355695312166e+000	 2.231067011493503e+000	 9.531403943327019e+000
 1.159718847465025e+000	 2.242917117249388e+000	 9.319840491576734e+000
 1.395384871128547e+000	 2.134338553597933e+000	 1.017320714616516e+001
 1.373456571405956e+000	 2.148515079402566e+000	 1.025029434009952e+001
 1.351408883854781e+000	 2.162450930912713e+000	 1.027039315299558e+001
 1.329245712347934e+000	 2.176144718574352e+000	 1.023325714582906e+001
 1.306970979205101e+000	 2.189595135977586e+000	 1.013871242709359e+001
 1.284588623014961e+000	 2.202800960052303e+000	 9.986657413752059e+000
 1.262102596460362e+000	 2.215761051196585e+000	 9.777062485196211e+000
 1.239516864148863e+000	 2.228474353338295e+000	 9.614373552718735e+000
 1.216835400450964e+000	 2.240939893930386e+000	 9.523311380462394e+000
 1.194062187348342e+000	 2.253156783880557e+000	 9.389302501585364e+000
 1.171201212294357e+000	 2.265124217415967e+000	 9.216200340001933e+000
 1.409065114965114e+000	 2.155263441376618e+000	 1.013585581596530e+001
 1.386921831912350e+000	 2.169578952728295e+000	 1.019443059499271e+001
 1.364657990562005e+000	 2.183651430233561e+000	 1.020123318119550e+001
 1.342277533060255e+000	 2.197479470715313e+000	 1.015604390582725e+001
 1.319784420180903e+000	 2.211061754955715e+000	 1.005871118740610e+001
 1.297182629126240e+000	 2.224397047893771e+000	 9.909151308621819e+000
 1.274476151330910e+000	 2.237484198754996e+000	 9.707348091479918e+000
 1.251668990271172e+000	 2.250322141113604e+000	 9.453352472143173e+000
 1.228765159281943e+000	 2.262909892887774e+000	 9.368962298796127e+000
 1.205768679383936e+000	 2.275246556268613e+000	 9.265094312055297e+000
 1.182683577123193e+000	 2.287331317583545e+000	 9.128788459232215e+000
 1.422745358801676e+000	 2.176188329156302e+000	 1.011799680970591e+001
 1.400387092418553e+000	 2.190642826055024e+000	 1.015952110438467e+001
 1.377907097268885e+000	 2.204851929555409e+000	 1.015437746389300e+001
 1.355309353772108e+000	 2.218814222857275e+000	 1.010237253147455e+001
 1.332597861156142e+000	 2.232528373934844e+000	 1.000337665677897e+001
 1.309776635236894e+000	 2.245993135736240e+000	 9.857323688637624e+000
 1.286849706200798e+000	 2.259207346314407e+000	 9.664210671204074e+000
 1.263821116392817e+000	 2.272169928889912e+000	 9.424097444829487e+000
 1.240694918112284e+000	 2.284879891846161e+000	 9.236002640288509e+000
 1.217475171418949e+000	 2.297336328657667e+000	 9.160617727811609e+000
 1.194165941951533e+000	 2.309538417752123e+000	 9.059357078829407e+000
 1.436425602638232e+000	 2.197113216936987e+000	 1.011954652490338e+001
 1.413852352924566e+000	 2.211706699382753e+000	 1.014543717479438e+001
 1.391156203975419e+000	 2.226052428878257e+000	 1.012965508740634e+001
 1.368341174483492e+000	 2.240148975000236e+000	 1.007203276785107e+001
 1.345411302130819e+000	 2.253994992914973e+000	 9.972462124375719e+000
 1.322370641346922e+000	 2.267589223579707e+000	 9.830894276928644e+000
 1.299223261070027e+000	 2.280930493874818e+000	 9.647339274118664e+000
 1.275973242513799e+000	 2.294017716667221e+000	 9.421865719847258e+000
 1.252624676941988e+000	 2.306849890805547e+000	 9.154600311094670e+000
 1.229181663453380e+000	 2.319426101047722e+000	 9.077730808417694e+000
 1.205648306779377e+000	 2.331745517921702e+000	 9.009678912669509e+000
 1.450105846474784e+000	 2.218038104718671e+000	 1.014042836821851e+001
 1.427317613430390e+000	 2.232770572711484e+000	 1.015205888085470e+001
 1.404405310681609e+000	 2.247252928202105e+000	 1.012690555294316e+001
 1.381372995194408e+000	 2.261483727144197e+000	 1.006482630911295e+001
 1.358224743104934e+000	 2.275461611896102e+000	 9.965734249712634e+000
 1.334964647456323e+000	 2.289185311424176e+000	 9.829597475095683e+000
 1.311596815938596e+000	 2.302653641436229e+000	 9.656438823230124e+000
 1.288125368634118e+000	 2.315865504445530e+000	 9.446335521823539e+000
 1.264554435771056e+000	 2.328819889765935e+000	 9.199418756346493e+000
 1.240888155487231e+000	 2.341515873438777e+000	 9.018310390374476e+000
 1.217130671606725e+000	 2.353952618092280e+000	 8.981546192701455e+000
 1.463786090311330e+000	 2.238962992501355e+000	 1.018057242792628e+001
 1.440782873936023e+000	 2.253834446041212e+000	 1.017927465558748e+001
 1.417654417387455e+000	 2.268453427526952e+000	 1.014597828992337e+001
 1.394404815904855e+000	 2.282818479289158e+000	 1.008056624012443e+001
 1.371038184078486e+000	 2.296928230878231e+000	 9.982972437876205e+000
 1.347558653565099e+000	 2.310781399269644e+000	 9.853181677301109e+000
 1.323970370806506e+000	 2.324376788998640e+000	 9.691229373060594e+000
 1.300277494753773e+000	 2.337713292224839e+000	 9.497201237718853e+000
 1.276484194599485e+000	 2.350789888727321e+000	 9.271232879657514e+000
 1.252594647520499e+000	 2.363605645830832e+000	 9.013509323009444e+000
 1.228613036433577e+000	 2.376159718263858e+000	 8.976769756887659e+000
 1.477466334147870e+000	 2.259887880285039e+000	 1.023991516458179e+001
 1.454248134441466e+000	 2.274898319371942e+000	 1.022698090344095e+001
 1.430903524092956e+000	 2.289653926852800e+000	 1.018673219633964e+001
 1.407436636614834e+000	 2.304153231435119e+000	 1.011907650911025e+001
 1.383851625051477e+000	 2.318394849861360e+000	 1.002396824945017e+001
 1.360152659673249e+000	 2.332377487116112e+000	 9.901408622465267e+000
 1.336343925673756e+000	 2.346099936562050e+000	 9.751445409114570e+000
 1.312429620872766e+000	 2.359561080005148e+000	 9.574172668571015e+000
 1.288413953427279e+000	 2.372759887689709e+000	 9.369730365692956e+000
 1.264301139553187e+000	 2.385695418223886e+000	 9.138303924973195e+000
 1.240095401259933e+000	 2.398366818436436e+000	 8.997178187814351e+000
 1.491146577984406e+000	 2.280812768069723e+000	 1.031839911871416e+001
 1.467713394946719e+000	 2.295962192703671e+000	 1.029508163462825e+001
 1.444152630798113e+000	 2.310854426179648e+000	 1.024903520441942e+001
 1.420468457324345e+000	 2.325487983582081e+000	 1.018019142933643e+001
 1.396665066023906e+000	 2.339861468845489e+000	 1.008852484292422e+001
 1.372746665780774e+000	 2.353973574963581e+000	 9.974052782121465e+000
 1.348717480540347e+000	 2.367823084126461e+000	 9.836835185907347e+000
 1.324581746991095e+000	 2.381408867786456e+000	 9.676974322427489e+000
 1.300343712254434e+000	 2.394729886653096e+000	 9.494614445700657e+000
 1.276007631585293e+000	 2.407785190617941e+000	 9.289941383172124e+000
 1.251577766085793e+000	 2.420573918610014e+000	 9.063182055540256e+000
 1.504826821820936e+000	 2.301737655855408e+000	 1.041597263446374e+001
 1.481178655451783e+000	 2.317026066036402e+000	 1.038348811941060e+001
 1.457401737502926e+000	 2.332054925507497e+000	 1.033276386997777e+001
 1.433500278033387e+000	 2.346822735730043e+000	 1.026375520797187e+001
 1.409478506995772e+000	 2.361328087830619e+000	 1.017645644751626e+001
 1.385340671887672e+000	 2.375569662812049e+000	 1.007090078166107e+001
 1.361091035406279e+000	 2.389546231691873e+000	 9.947160101100952e+000
 1.336733873108762e+000	 2.403256655568766e+000	 9.805344745844888e+000
 1.312273471080953e+000	 2.416699885617484e+000	 9.645603190847883e+000
 1.287714123616818e+000	 2.429874963012997e+000	 9.468121666771239e+000
 1.263060130911157e+000	 2.442781018784593e+000	 9.273123717193439e+000
 1.148236482635196e+000	 2.220710017083810e+000	 9.437978192924664e+000
 1.125741633415527e+000	 2.232197521464456e+000	 9.214520883017681e+000
 1.103168569379458e+000	 2.243439124998900e+000	 9.008244067982044e+000
 1.080521203455544e+000	 2.254434281350881e+000	 8.822458194197324e+000
 1.057803445709806e+000	 2.265182524719623e+000	 8.660369311462093e+000
 1.035019201340097e+000	 2.275683469402266e+000	 8.525072233180422e+000
 1.012172368694828e+000	 2.285936809298535e+000	 8.419544018523238e+000
 9.892668373179077e-001	 2.295942317358883e+000	 8.346637788971897e+000
 9.663064860216967e-001	 2.305699844977406e+000	 8.309076890482082e+000
 9.432951809896932e-001	 2.315209321330896e+000	 8.309449411318655e+000
 9.202367739106159e-001	 2.324470752665467e+000	 8.350203064412812e+000
 1.159718847465025e+000	 2.242917117249388e+000	 9.319840491576734e+000
 1.136999049752618e+000	 2.254519496673615e+000	 9.145095195197786e+000
 1.114200255075764e+000	 2.265873516243221e+000	 8.983956921265106e+000
 1.091326415492304e+000	 2.276978624158585e+000	 8.839839443170295e+000
 1.068381480168918e+000	 2.287834349960926e+000	 8.716053799899404e+000
 1.045369393355437e+000	 2.298440304090351e+000	 8.615801176996810e+000
 1.022294092383756e+000	 2.308796177385584e+000	 8.542166113838478e+000
 9.991595056932210e-001	 2.318901740526580e+000	 8.498110050212057e+000
 9.759695508843165e-001	 2.328756843421378e+000	 8.486465223999085e+000
 9.527281328023748e-001	 2.338361414538538e+000	 8.509928930540340e+000
 9.294391416530002e-001	 2.347715460186632e+000	 8.571058153035862e+000
 1.171201212294357e+000	 2.265124217415967e+000	 9.216200340001933e+000
 1.148256466089302e+000	 2.276841471883772e+000	 9.085335502235065e+000
 1.125231940771734e+000	 2.288307907488541e+000	 8.964630282186128e+000
 1.102131627528776e+000	 2.299522966967293e+000	 8.857607352514640e+000
 1.078959514627771e+000	 2.310486175203229e+000	 8.767688165198749e+000
 1.055719585370527e+000	 2.321197138779436e+000	 8.698185546490368e+000
 1.032415816072421e+000	 2.331655545473632e+000	 8.652296622842668e+000
 1.009052174068241e+000	 2.341861163695277e+000	 8.633096091402539e+000
 9.856326157465916e-001	 2.351813841866349e+000	 8.643529847433177e+000
 9.621610846146407e-001	 2.361513507747179e+000	 8.686408979786030e+000
 9.386415093948795e-001	 2.370960167708796e+000	 8.764404144277192e+000
 1.182683577123193e+000	 2.287331317583545e+000	 9.128788459232215e+000
 1.159513882425580e+000	 2.299163447094930e+000	 9.036980728705778e+000
 1.136263626467366e+000	 2.310742298734863e+000	 8.952008205927257e+000
 1.112936839564960e+000	 2.322067309776997e+000	 8.877508087692837e+000
 1.089537549086365e+000	 2.333138000446532e+000	 8.817017716624793e+000
 1.066069777385366e+000	 2.343953973469521e+000	 8.773966883238726e+000
 1.042537539760825e+000	 2.354514913562680e+000	 8.751670463971843e+000
 1.018944842442968e+000	 2.364820586864974e+000	 8.753321409372637e+000
 9.952956806085229e-001	 2.374870840312322e+000	 8.781984095394257e+000
 9.715940364264921e-001	 2.384665600956820e+000	 8.840588049455509e+000
 9.478438771362536e-001	 2.394204875231962e+000	 8.931922061640135e+000
 1.194165941951533e+000	 2.309538417752123e+000	 9.059357078829407e+000
 1.170771298761452e+000	 2.321485422307088e+000	 9.001788460340910e+000
 1.147295312162661e+000	 2.333176689982184e+000	 8.947850677660835e+000
 1.123742051600857e+000	 2.344611652587702e+000	 8.901301129890577e+000
 1.100115583544699e+000	 2.355789825690836e+000	 8.865798582404409e+000
 1.076419969399954e+000	 2.366710808160606e+000	 8.844895169056500e+000
 1.052659263448968e+000	 2.377374281652728e+000	 8.842028735663860e+000
 1.028837510817402e+000	 2.387780010035671e+000	 8.860515539585146e+000
 1.004958745470110e+000	 2.397927838759293e+000	 8.903543318922871e+000
 9.810269882379288e-001	 2.407817694167461e+000	 8.974164743567743e+000
 9.570462448771225e-001	 2.417449582756126e+000	 9.075291258975167e+000
 1.205648306779377e+000	 2.331745517921702e+000	 9.009678912669509e+000
 1.182028715096917e+000	 2.343807397520245e+000	 8.981534055399655e+000
 1.158326997857619e+000	 2.355611081230504e+000	 8.953932853978785e+000
 1.134547263636465e+000	 2.367155995399408e+000	 8.930758641934750e+000
 1.110693618002774e+000	 2.378441650936138e+000	 8.915797194537692e+000
 1.086770161414292e+000	 2.389467642852691e+000	 8.912728424079305e+000
 1.062780987136848e+000	 2.400233649743777e+000	 8.925118422072792e+000
 1.038730179191543e+000	 2.410739433207369e+000	 8.956411863819966e+000
 1.014621810331353e+000	 2.420984837207266e+000	 9.009924789470047e+000
 9.904599400489506e-001	 2.430969787379103e+000	 9.088837774350333e+000
 9.662486126174865e-001	 2.440694290281291e+000	 9.196189499987126e+000
 1.217130671606725e+000	 2.353952618092280e+000	 8.981546192701455e+000
 1.193286131431976e+000	 2.366129372734403e+000	 8.978009806342584e+000
 1.169358683552240e+000	 2.378045472479826e+000	 8.972044347259228e+000
 1.145352475671785e+000	 2.389700338212114e+000	 8.967664870103016e+000
 1.121271652460591e+000	 2.401093476182441e+000	 8.968789802770999e+000
 1.097120353428380e+000	 2.412224477545776e+000	 8.979232327597686e+000
 1.072902710824466e+000	 2.423093017835825e+000	 9.002692115440702e+000
 1.048622847565390e+000	 2.433698856380066e+000	 9.042747428744287e+000
 1.024284875192252e+000	 2.444041835656237e+000	 9.102847608311549e+000
 9.998928918595572e-001	 2.454121880591744e+000	 9.186305957135330e+000
 9.754509803573452e-001	 2.463938997807456e+000	 9.296293033242183e+000
 1.228613036433577e+000	 2.376159718263858e+000	 8.976769756887659e+000
 1.204543547766628e+000	 2.388451347949561e+000	 8.993024148513920e+000
 1.180390369246525e+000	 2.400479863730146e+000	 9.003988550162660e+000
 1.156157687706817e+000	 2.412244681025819e+000	 9.013815579476400e+000
 1.131849686918148e+000	 2.423745301429745e+000	 9.026562015823787e+000
 1.107470545442218e+000	 2.434981312239862e+000	 9.046179860152705e+000
 1.083024434511823e+000	 2.445952385928873e+000	 9.076507754037502e+000
 1.058515515938945e+000	 2.456658279553762e+000	 9.121262774656202e+000
 1.033947940052806e+000	 2.467098834106210e+000	 9.184032621042297e+000
 1.009325843669749e+000	 2.477273973805384e+000	 9.268268205541427e+000
 9.846533480966987e-001	 2.487183705334621e+000	 9.377276662968471e+000
 1.240095401259933e+000	 2.398366818436436e+000	 8.997178187814351e+000
 1.215800964100875e+000	 2.410773323165718e+000	 9.028400912785667e+000
 1.191422054940472e+000	 2.422914254981468e+000	 9.051581997655974e+000
 1.166962899741562e+000	 2.434789023840525e+000	 9.071017520661293e+000
 1.142427721375446e+000	 2.446397126678048e+000	 9.090908368102875e+000
 1.117820737455804e+000	 2.457738146934946e+000	 9.115350965515043e+000
 1.093146158198918e+000	 2.468811754022922e+000	 9.148328374659684e+000
 1.068408184312206e+000	 2.479617702728460e+000	 9.193701773742371e+000
 1.043611004913017e+000	 2.490155832557182e+000	 9.255202336820796e+000
 1.018758795479526e+000	 2.500426067020025e+000	 9.333079978707499e+000
 9.938557158355471e-001	 2.510428412862785e+000	 9.342322459361331e+000
 1.251577766085793e+000	 2.420573918610014e+000	 9.063182055540256e+000
 1.227058380434714e+000	 2.433095298382876e+000	 9.085978619340743e+000
 1.202453740634082e+000	 2.445348646233789e+000	 9.116653764154190e+000
 1.177768111776018e+000	 2.457333366656231e+000	 9.141087925866566e+000
 1.153005755832485e+000	 2.469048951927352e+000	 9.163631910267078e+000
 1.128170929469140e+000	 2.480494981631032e+000	 9.188532231270795e+000
 1.103267881885750e+000	 2.491671122117970e+000	 9.219921878752933e+000
 1.078300852685174e+000	 2.502577125904156e+000	 9.250275977909462e+000
 1.053274069772883e+000	 2.513212831009154e+000	 9.242935573021288e+000
 1.028191747288888e+000	 2.523578160235667e+000	 9.225805266313113e+000
 1.003058083573891e+000	 2.533673120391951e+000	 9.198283349497842e+000
 1.263060130911157e+000	 2.442781018784593e+000	 9.273123717193439e+000
 1.238315796768149e+000	 2.455417273601034e+000	 9.167609809977140e+000
 1.213485426327356e+000	 2.467783037487111e+000	 9.201044893545546e+000
 1.188573323810187e+000	 2.479877709472937e+000	 9.225854032466744e+000
 1.163583790289265e+000	 2.491700777177655e+000	 9.246543822125025e+000
 1.138521121482226e+000	 2.503251816328117e+000	 9.260958089647923e+000
 1.113389605572322e+000	 2.514530490214019e+000	 9.251899532363082e+000
 1.088193521057850e+000	 2.525536549080854e+000	 9.229795417314485e+000
 1.062937134632406e+000	 2.536269829462126e+000	 9.193797244136295e+000
 1.037624699097836e+000	 2.546730253452308e+000	 9.143160398208977e+000
 1.012260451311729e+000	 2.556917827922117e+000	 9.077244231712291e+000
 9.202367739106159e-001	 2.324470752665467e+000	 8.350203064412812e+000
 8.971351001457416e-001	 2.333484221532295e+000	 8.213249021793308e+000
 8.739939769303398e-001	 2.342249885973674e+000	 8.049162725750227e+000
 8.508172016108218e-001	 2.350767978661280e+000	 7.859902239258448e+000
 8.276085499197399e-001	 2.359038805988395e+000	 7.647337809237952e+000
 8.043717742891903e-001	 2.367062747117389e+000	 7.413247645995934e+000
 7.811106022040246e-001	 2.374840252984291e+000	 7.159314024448599e+000
 7.578287345960121e-001	 2.382371845262165e+000	 6.887119710693265e+000
 7.345298442800083e-001	 2.389658115285038e+000	 6.598144716448117e+000
 7.112175744331125e-001	 2.396699722934155e+000	 6.293763382839848e+000
 6.878955371177123e-001	 2.403497395488342e+000	 5.975241794006029e+000
 9.294391416530002e-001	 2.347715460186632e+000	 8.571058153035862e+000
 9.061064511509912e-001	 2.356819063742346e+000	 8.439247713826152e+000
 8.827339167038776e-001	 2.365672384828394e+000	 8.290889172604400e+000
 8.593253736315352e-001	 2.374275658443166e+000	 8.128051797124192e+000
 8.358846354238427e-001	 2.382629194043878e+000	 7.952704574150032e+000
 8.124154920372169e-001	 2.390733374584523e+000	 7.766711947079939e+000
 7.889217082313591e-001	 2.398588655510490e+000	 7.571829895783002e+000
 7.654070219473562e-001	 2.406195563711575e+000	 7.369702361989258e+000
 7.418751427282131e-001	 2.413554696435142e+000	 7.161858022469084e+000
 7.183297501828003e-001	 2.420666720161248e+000	 6.949707411161245e+000
 6.947744924941302e-001	 2.427532369441510e+000	 6.734540390351910e+000
 9.386415093948795e-001	 2.370960167708796e+000	 8.764404144277192e+000
 9.150778021556407e-001	 2.380153905953393e+000	 8.637720133542016e+000
 8.914738564767309e-001	 2.389094883684093e+000	 8.504984131877778e+000
 8.678335456514899e-001	 2.397783338226006e+000	 8.368380738717336e+000
 8.441607209271220e-001	 2.406219582100278e+000	 8.229981762850287e+000
 8.204592097843662e-001	 2.414404002052529e+000	 8.091741912676964e+000
 7.967328142577717e-001	 2.422337058037505e+000	 7.955494849351986e+000
 7.729853092977440e-001	 2.430019282161732e+000	 7.822949605926446e+000
 7.492204411754374e-001	 2.437451277585919e+000	 7.695687374453755e+000
 7.254419259314929e-001	 2.444633717388930e+000	 7.575158661899416e+000
 7.016534478695476e-001	 2.451567343395171e+000	 7.462680814596360e+000
 9.478438771362536e-001	 2.394204875231962e+000	 8.931922061640135e+000
 9.240491531596904e-001	 2.403488748165434e+000	 8.810230514374709e+000
 9.002137962488996e-001	 2.412517382540771e+000	 8.692900187462648e+000
 8.763417176706850e-001	 2.421291018009798e+000	 8.582235190895863e+000
 8.524368064295779e-001	 2.429809970157597e+000	 8.480414285443787e+000
 8.285029275306374e-001	 2.438074629521406e+000	 8.389486519974302e+000
 8.045439202832622e-001	 2.446085460565335e+000	 8.311367252584702e+000
 7.805635966471758e-001	 2.453843000612641e+000	 8.247834558431137e+000
 7.565657396216809e-001	 2.461347858737370e+000	 8.200526025950353e+000
 7.325541016791903e-001	 2.468600714617200e+000	 8.170935942002384e+000
 7.085324032439653e-001	 2.475602317349326e+000	 8.160412865317476e+000
 9.570462448771225e-001	 2.417449582756126e+000	 9.075291258975167e+000
 9.330205041631401e-001	 2.426823590378469e+000	 8.958343478000757e+000
 9.089537360203834e-001	 2.435939881398428e+000	 8.856092195046077e+000
 8.848498896891215e-001	 2.444798697794545e+000	 8.770965261790785e+000
 8.607128919312104e-001	 2.453400358215832e+000	 8.705252569083259e+000
 8.365466452760311e-001	 2.461745256991155e+000	 8.661101625749517e+000
 8.123550263078310e-001	 2.469833863093982e+000	 8.640513542385012e+000
 7.881418839956514e-001	 2.477666719064299e+000	 8.645339422799680e+000
 7.639110380669438e-001	 2.485244439889495e+000	 8.677277164549281e+000
 7.396662774258928e-001	 2.492567711846060e+000	 8.737868668768810e+000
 7.154113586173831e-001	 2.499637291303976e+000	 8.828497458340500e+000
 9.662486126174865e-001	 2.440694290281291e+000	 9.196189499987126e+000
 9.419918551659895e-001	 2.450158432592499e+000	 9.083624015851402e+000
 9.176936757911829e-001	 2.459362380257065e+000	 8.996017173929625e+000
 8.933580617067988e-001	 2.468306377580245e+000	 8.935924851221548e+000
 8.689889774320195e-001	 2.476990746274987e+000	 8.905752295251805e+000
 8.445903630205472e-001	 2.485415884461776e+000	 8.907749638771557e+000
 8.201661323314781e-001	 2.493582265623445e+000	 8.944007840871191e+000
 7.957201713431709e-001	 2.501490437516708e+000	 8.973819419297598e+000
 7.712563365112262e-001	 2.509141021042294e+000	 8.837848901722660e+000
 7.467784531715996e-001	 2.516534709075508e+000	 8.701604466211007e+000
 7.222903139898008e-001	 2.523672265259119e+000	 8.565367908986341e+000
 9.754509803573452e-001	 2.463938997807456e+000	 9.296293033242183e+000
 9.509632061682393e-001	 2.473493274807525e+000	 9.187637471671494e+000
 9.264336155612976e-001	 2.482784879116681e+000	 9.114134204971984e+000
 9.018662337237170e-001	 2.491814057366899e+000	 9.078471471842867e+000
 8.772650629320055e-001	 2.500581134335059e+000	 9.071831246249339e+000
 8.526340807641859e-001	 2.509086511933269e+000	 8.930523328247528e+000
 8.279772383542032e-001	 2.517330668153723e+000	 8.795150808095913e+000
 8.032984586897343e-001	 2.525314155969867e+000	 8.665739906820267e+000
 7.786016349545281e-001	 2.533037602195768e+000	 8.542390349110107e+000
 7.538906289163119e-001	 2.540501706305546e+000	 8.425274090681430e+000
 7.291692693612184e-001	 2.547707239214755e+000	 8.314633911183249e+000
 9.846533480966987e-001	 2.487183705334621e+000	 9.377276662968471e+000
 9.599345571698887e-001	 2.496828117023545e+000	 9.271949525056236e+000
 9.351735553307278e-001	 2.506207377977277e+000	 9.124580429859670e+000
 9.103744057398764e-001	 2.515321737154507e+000	 8.951651070410685e+000
 8.855411484311677e-001	 2.524171522396047e+000	 8.791309641610217e+000
 8.606777985069467e-001	 2.532757139405634e+000	 8.643412024254355e+000
 8.357883443760064e-001	 2.541079070684818e+000	 8.507885909380399e+000
 8.108767460353414e-001	 2.549137874423776e+000	 8.384729899508205e+000
 7.859469333968494e-001	 2.556934183349917e+000	 8.274012465387461e+000
 7.610028046600288e-001	 2.564468703536172e+000	 8.175870763657006e+000
 7.360482247316361e-001	 2.571742213170885e+000	 8.090509321090963e+000
 9.938557158355471e-001	 2.510428412862785e+000	 9.342322459361331e+000
 9.689059081709385e-001	 2.520162959240560e+000	 9.112096496993038e+000
 9.439134950994733e-001	 2.529629876838852e+000	 8.901310115501905e+000
 9.188825777552764e-001	 2.538829416943069e+000	 8.709661121818455e+000
 8.938172339295070e-001	 2.547761910457955e+000	 8.536916627663002e+000
 8.687215162488302e-001	 2.556427766878872e+000	 8.382912538098999e+000
 8.435994503968877e-001	 2.564827473216728e+000	 8.247552887123236e+000
 8.184550333799924e-001	 2.572961592878435e+000	 8.130809024948757e+000
 7.932922318381903e-001	 2.580830764504740e+000	 8.032718661958075e+000
 7.681149804027504e-001	 2.588435700767387e+000	 7.953384774596930e+000
 7.429271801010537e-001	 2.595777187127509e+000	 7.892974378752196e+000
 1.003058083573891e+000	 2.533673120391951e+000	 9.198283349497842e+000
 9.778772591713881e-001	 2.543497801458570e+000	 8.937760037725802e+000
 9.526534348675341e-001	 2.553052375701406e+000	 8.702861192454463e+000
 9.273907497699173e-001	 2.562337096732584e+000	 8.493272087854910e+000
 9.020933194270226e-001	 2.571352298520780e+000	 8.308743586153870e+000
 8.767652339898359e-001	 2.580098394352981e+000	 8.149091708094641e+000
 8.514105564168474e-001	 2.588575875749455e+000	 8.014197051712506e+000
 8.260333207236873e-001	 2.596785311333844e+000	 7.904004063942632e+000
 8.006375302785507e-001	 2.604727345660238e+000	 7.818520169904324e+000
 7.752271561444770e-001	 2.612402697999191e+000	 7.757814765002149e+000
 7.498061354694716e-001	 2.619812161084627e+000	 7.722018075260467e+000
 1.012260451311729e+000	 2.556917827922117e+000	 9.077244231712291e+000
 9.868486101712383e-001	 2.566832643677576e+000	 8.787488569080439e+000
 9.613933746349105e-001	 2.576474874564940e+000	 8.529384944820677e+000
 9.358989217837996e-001	 2.585844776523053e+000	 8.302605916493048e+000
 9.103694049237151e-001	 2.594942686584524e+000	 8.106886044227331e+000
 8.848089517299641e-001	 2.603769021827961e+000	 7.942021541740560e+000
 8.592216624358853e-001	 2.612324278282998e+000	 7.807869776777251e+000
 8.336116080664262e-001	 2.620609029790004e+000	 7.704348625357293e+000
 8.079828287179304e-001	 2.628623926816410e+000	 7.631435684548166e+000
 7.823393318852088e-001	 2.636369695231585e+000	 7.589167348777708e+000
 7.566850908368894e-001	 2.643847135042238e+000	 7.577637754984950e+000
 6.878955371177123e-001	 2.403497395488342e+000	 5.975241794006029e+000
 6.645673118488593e-001	 2.410051926439911e+000	 5.843054771730111e+000
 6.412364442077186e-001	 2.416364174279133e+000	 5.816676896013253e+000
 6.179064445013772e-001	 2.422435061248221e+000	 5.877365080353306e+000
 5.945807864685849e-001	 2.428265572065930e+000	 5.923900405908603e+000
 5.712629060330334e-001	 2.433856752625838e+000	 5.955076563853509e+000
 5.479562001042998e-001	 2.439209708669709e+000	 5.967028803628518e+000
 5.246640254268120e-001	 2.444325604437782e+000	 5.956001000069989e+000
 5.013896974771264e-001	 2.449205661297806e+000	 5.918349337609250e+000
 4.781364894097328e-001	 2.453851156354649e+000	 5.850545695551401e+000
 4.549076310515292e-001	 2.458263421042266e+000	 5.749180735342139e+000
 6.947744924941302e-001	 2.427532369441510e+000	 6.734540390351910e+000
 6.712129849723891e-001	 2.434152445703129e+000	 6.708980770672619e+000
 6.476488086545391e-001	 2.440527816021247e+000	 6.777592412645432e+000
 6.240855089507390e-001	 2.446659411860499e+000	 6.939796807791071e+000
 6.005265943371264e-001	 2.452548227786828e+000	 7.114635192810820e+000
 5.769755350966314e-001	 2.458195320152747e+000	 7.256986792282346e+000
 5.534357621079273e-001	 2.463601805757441e+000	 7.362951889112102e+000
 5.299106656828874e-001	 2.468768860483547e+000	 7.428755748860372e+000
 5.064035944528342e-001	 2.473697717912495e+000	 7.450752080548452e+000
 4.829178543038038e-001	 2.478389667920199e+000	 7.425426180909007e+000
 4.594567073609638e-001	 2.482846055254957e+000	 7.349397763744316e+000
 7.016534478695476e-001	 2.451567343395171e+000	 7.462680814596360e+000
 6.778586580949291e-001	 2.458252964966745e+000	 7.540615634797910e+000
 6.540611731004010e-001	 2.464691457763677e+000	 7.701487093984392e+000
 6.302645733991937e-001	 2.470883762473018e+000	 7.945523389671458e+000
 6.064724022048331e-001	 2.476830883507902e+000	 8.244704571776966e+000
 5.826881641594867e-001	 2.482533887679779e+000	 8.500949680600259e+000
 5.589153241109244e-001	 2.487993902845249e+000	 8.703892175584860e+000
 5.351573059384641e-001	 2.493212116529355e+000	 8.849733644331741e+000
 5.114174914281953e-001	 2.498189774527202e+000	 8.934820216844221e+000
 4.876992191976991e-001	 2.502928179485754e+000	 8.773399187766778e+000
 4.640057836704129e-001	 2.507428689467647e+000	 8.455722323019549e+000
 7.085324032439653e-001	 2.475602317349326e+000	 8.160412865317476e+000
 6.845043312164796e-001	 2.482353484230761e+000	 8.338715939695517e+000
 6.604735375453047e-001	 2.488855099506419e+000	 8.589116578972028e+000
 6.364436378467417e-001	 2.495108113085776e+000	 8.911955889385178e+000
 6.124182100717048e-001	 2.501113539229152e+000	 9.251629268501995e+000
 5.884007932215993e-001	 2.506872455206933e+000	 9.285116715471656e+000
 5.643948861132908e-001	 2.512385999933136e+000	 9.238223994926466e+000
 5.404039461935424e-001	 2.517655372575207e+000	 9.122487068978753e+000
 5.164313884032095e-001	 2.522681831141929e+000	 8.948363204327455e+000
 4.924805840914187e-001	 2.527466691051314e+000	 8.725231791252636e+000
 4.685548599798770e-001	 2.532011323680339e+000	 8.461397532731072e+000
 7.154113586173831e-001	 2.499637291303976e+000	 8.828497458340500e+000
 6.911500043370404e-001	 2.506454003495176e+000	 8.828030870481756e+000
 6.668859019892492e-001	 2.513018741249476e+000	 8.836889391936387e+000
 6.426227022933826e-001	 2.519332463698774e+000	 8.869417734716395e+000
 6.183640179377417e-001	 2.525396194950578e+000	 8.943199479329893e+000
 5.941134222829690e-001	 2.531211022734207e+000	 9.015061441458771e+000
 5.698744481150269e-001	 2.536778097021101e+000	 9.007433229203162e+000
 5.456505864481224e-001	 2.542098628621103e+000	 8.932437219310467e+000
 5.214452853778768e-001	 2.547173887756675e+000	 8.801084117453712e+000
 4.972619489849625e-001	 2.552005202616878e+000	 8.623273525769498e+000
 4.731039362893555e-001	 2.556593957893029e+000	 8.407796957122201e+000
 7.222903139898008e-001	 2.523672265259119e+000	 8.565367908986341e+000
 6.977956774566120e-001	 2.530554522759990e+000	 8.566044439922814e+000
 6.732982664322361e-001	 2.537182382992848e+000	 8.575795145754766e+000
 6.488017667391167e-001	 2.543556814312013e+000	 8.594785618275299e+000
 6.243098258029439e-001	 2.549678850672179e+000	 8.626381723083757e+000
 5.998260513435961e-001	 2.555549590261605e+000	 8.726335425177876e+000
 5.753540101161321e-001	 2.561170194109142e+000	 8.748575251291577e+000
 5.508972267022037e-001	 2.566541884667042e+000	 8.705821889502634e+000
 5.264591823521972e-001	 2.571665944371441e+000	 8.609650152896542e+000
 5.020433138783306e-001	 2.576543714182448e+000	 8.470489300611746e+000
 4.776530125988488e-001	 2.581176592105721e+000	 8.297625884173272e+000
 7.291692693612184e-001	 2.547707239214755e+000	 8.314633911183249e+000
 7.044413505751935e-001	 2.554655042025202e+000	 8.328073821420569e+000
 6.797106308742640e-001	 2.561346024736534e+000	 8.336331761899677e+000
 6.549808311839440e-001	 2.567781164925491e+000	 8.339635786043749e+000
 6.302556336673110e-001	 2.573961506393957e+000	 8.338285453306542e+000
 6.055386804034806e-001	 2.579888157789124e+000	 8.422960512842852e+000
 5.808335721166071e-001	 2.585562291197262e+000	 8.465405714768146e+000
 5.561438669557863e-001	 2.590985140713025e+000	 8.446131973180171e+000
 5.314730793261709e-001	 2.596158000986225e+000	 8.377289116407640e+000
 5.068246787715230e-001	 2.601082225748022e+000	 8.269845735687319e+000
 4.822020889083566e-001	 2.605759226318411e+000	 8.133591870402711e+000
 7.360482247316361e-001	 2.571742213170885e+000	 8.090509321090963e+000
 7.110870236927857e-001	 2.578755561290814e+000	 8.114143057300970e+000
 6.861229953153335e-001	 2.585509666480533e+000	 8.118568124638879e+000
 6.611598956278644e-001	 2.592005515539209e+000	 8.104073871729774e+000
 6.362014415308431e-001	 2.598244162115911e+000	 8.071034503087542e+000
 6.112513094626224e-001	 2.604226725316765e+000	 8.108960856195557e+000
 5.863131341164515e-001	 2.609954388285460e+000	 8.161681984927977e+000
 5.613905072088706e-001	 2.615428396759050e+000	 8.156859766794277e+000
 5.364869762997979e-001	 2.620650057601029e+000	 8.107230190345169e+000
 5.116060436645397e-001	 2.625620737313601e+000	 8.024311081582672e+000
 4.867511652178794e-001	 2.630341860531103e+000	 7.918404634860826e+000
 7.429271801010537e-001	 2.595777187127509e+000	 7.892974378752196e+000
 7.177326968093882e-001	 2.602856080556824e+000	 7.924283409349758e+000
 6.925353597554443e-001	 2.609673308224849e+000	 7.922578665760387e+000
 6.673389600708780e-001	 2.616229866153168e+000	 7.888209663554237e+000
 6.421472493935406e-001	 2.622526817838040e+000	 7.821624040728525e+000
 6.169639385210213e-001	 2.628565292844528e+000	 7.788362805769200e+000
 5.917926961156652e-001	 2.634346485373736e+000	 7.841163059538296e+000
 5.666371474614564e-001	 2.639871652805121e+000	 7.841498904676860e+000
 5.415008732730777e-001	 2.645142114215853e+000	 7.802703869941653e+000
 5.163874085573806e-001	 2.650159248879185e+000	 7.736855144068122e+000
 4.913002415274165e-001	 2.654924494743793e+000	 7.654775959012688e+000
 7.498061354694716e-001	 2.619812161084627e+000	 7.722018075260467e+000
 7.243783699250013e-001	 2.626956599823234e+000	 7.758533027644551e+000
 6.989477241945968e-001	 2.633836949969477e+000	 7.748443110099148e+000
 6.735180245129846e-001	 2.640454216767366e+000	 7.692156913676669e+000
 6.480930572554030e-001	 2.646809473560346e+000	 7.590194339389589e+000
 6.226765675786774e-001	 2.652903860372411e+000	 7.465194810025612e+000
 5.972722581142484e-001	 2.658738582462088e+000	 7.507609493954484e+000
 5.718837877135435e-001	 2.664314908851234e+000	 7.503544297669482e+000
 5.465147702460110e-001	 2.669634170830696e+000	 7.466941903080506e+000
 5.211687734500459e-001	 2.674697760444774e+000	 7.410449212759074e+000
 4.958493178369686e-001	 2.679507128956484e+000	 7.345419592131474e+000
 7.566850908368894e-001	 2.643847135042238e+000	 7.577637754984950e+000
 7.310240430396248e-001	 2.651057119090043e+000	 7.616936637450606e+000
 7.053600886327910e-001	 2.658000591714422e+000	 7.596246234943598e+000
 6.796970889541847e-001	 2.664678567381807e+000	 7.516033158016601e+000
 6.540388651164307e-001	 2.671092129282827e+000	 7.376888439889271e+000
 6.283891966355913e-001	 2.677242427900419e+000	 7.179524450642898e+000
 6.027518201122013e-001	 2.683130679550520e+000	 7.164783330320184e+000
 5.771304279651326e-001	 2.688758164897393e+000	 7.146492075100024e+000
 5.515286672185974e-001	 2.694126227445558e+000	 7.103177233357285e+000
 5.259501383425356e-001	 2.699236272010369e+000	 7.048065993669059e+000
 5.003983941465354e-001	 2.704089763169176e+000	 6.993051161853253e+000
 4.549076310515292e-001	 2.458263421042266e+000	 5.749180735342139e+000
 4.317063079453936e-001	 2.462443839700501e+000	 5.702364048780264e+000
 4.085356604418978e-001	 2.466393848136456e+000	 5.681265603140482e+000
 3.853987828395771e-001	 2.470114932173583e+000	 5.682457290034541e+000
 3.622987225744608e-001	 2.473608626191483e+000	 5.702584500933306e+000
 3.392384794576846e-001	 2.476876511656139e+000	 5.738369321024048e+000
 3.162210049612343e-001	 2.479920215642903e+000	 5.786613473903993e+000
 2.932492015515175e-001	 2.482741409353888e+000	 5.844201019326309e+000
 2.703259220703981e-001	 2.485341806631372e+000	 5.908100806761962e+000
 2.474539691632796e-001	 2.487723162468774e+000	 5.975368688053180e+000
 2.246360947537655e-001	 2.489887271520747e+000	 6.043149492932057e+000
 4.594567073609638e-001	 2.482846055254957e+000	 7.349397763744316e+000
 4.360233710227999e-001	 2.487068278099993e+000	 7.314989669651928e+000
 4.126210170435670e-001	 2.491057786620465e+000	 7.280646915105698e+000
 3.892527706647829e-001	 2.494816081498057e+000	 7.242988604480511e+000
 3.659217097968351e-001	 2.498344712456170e+000	 7.198729386281601e+000
 3.426308642489683e-001	 2.501645276775445e+000	 7.076370288207182e+000
 3.193832150078860e-001	 2.504719417801991e+000	 6.910889519371621e+000
 2.961816935646570e-001	 2.507568823449939e+000	 6.779870291517974e+000
 2.730291812895615e-001	 2.510195224699992e+000	 6.682307857034934e+000
 2.499285088544547e-001	 2.512600394095503e+000	 6.616266060283625e+000
 2.268824557021734e-001	 2.514786144237676e+000	 6.578900410452870e+000
 4.640057836704129e-001	 2.507428689467647e+000	 8.455722323019549e+000
 4.403404341004001e-001	 2.511692716499485e+000	 8.197623561598205e+000
 4.167063736455675e-001	 2.515721725104473e+000	 7.957938747063224e+000
 3.931067584904167e-001	 2.519517230822531e+000	 7.740963662632910e+000
 3.695446970196931e-001	 2.523080798720856e+000	 7.549946992990710e+000
 3.460232490407513e-001	 2.526414041894752e+000	 7.387105366771829e+000
 3.225454250550121e-001	 2.529518619961077e+000	 7.253640244424356e+000
 2.991141855782066e-001	 2.532396237545988e+000	 7.149756560963649e+000
 2.757324405090316e-001	 2.535048642768611e+000	 7.074683031231262e+000
 2.524030485457940e-001	 2.537477625722233e+000	 7.026694023709418e+000
 2.291288166505648e-001	 2.539685016954604e+000	 7.003132907730945e+000
 4.685548599798770e-001	 2.532011323680339e+000	 8.461397532731072e+000
 4.446574971781941e-001	 2.536317154898977e+000	 8.255727329955445e+000
 4.207917302478996e-001	 2.540385663588481e+000	 8.063183563235434e+000
 3.969607463164783e-001	 2.544218380147005e+000	 7.888416835093294e+000
 3.731676842430350e-001	 2.547816884985544e+000	 7.735005828823803e+000
 3.494156338330333e-001	 2.551182807014058e+000	 7.605472389006200e+000
 3.257076351026126e-001	 2.554317822120163e+000	 7.501298503907666e+000
 3.020466775921665e-001	 2.557223651642039e+000	 7.422945097216205e+000
 2.784356997288085e-001	 2.559902060837231e+000	 7.369872534554290e+000
 2.548775882372977e-001	 2.562354857348963e+000	 7.340562748598829e+000
 2.313751775989394e-001	 2.564583889671531e+000	 7.332542885358687e+000
 4.731039362893555e-001	 2.556593957893029e+000	 8.407796957122201e+000
 4.489745602561820e-001	 2.560941593298469e+000	 8.246106998059553e+000
 4.248770868505629e-001	 2.565049602072488e+000	 8.093363069333133e+000
 4.008147341429679e-001	 2.568919529471480e+000	 7.954575043324313e+000
 3.767906714668604e-001	 2.572552971250230e+000	 7.833654794787960e+000
 3.528080186258144e-001	 2.575951572133364e+000	 7.733431336891277e+000
 3.288698451506876e-001	 2.579117024279250e+000	 7.655667917265590e+000
 3.049791696065365e-001	 2.582051065738089e+000	 7.601080979347022e+000
 2.811389589488919e-001	 2.584755478905850e+000	 7.569360892220754e+000
 2.573521279289656e-001	 2.587232088975692e+000	 7.559194350487538e+000
 2.336215385472976e-001	 2.589482762388461e+000	 7.568288344332262e+000
 4.776530125988488e-001	 2.581176592105721e+000	 8.297625884173272e+000
 4.532916233343635e-001	 2.585566031697960e+000	 8.171321560648906e+000
 4.289624434535578e-001	 2.589713540556496e+000	 8.050887359487472e+000
 4.046687219698854e-001	 2.593620678795952e+000	 7.941697067882073e+000
 3.804136586911696e-001	 2.597289057514917e+000	 7.847999132501210e+000
 3.562004034190944e-001	 2.600720337252671e+000	 7.772931868509526e+000
 3.320320551992371e-001	 2.603916226438336e+000	 7.718540688335736e+000
 3.079116616213166e-001	 2.606878479834140e+000	 7.685797253231715e+000
 2.838422181692820e-001	 2.609608896974470e+000	 7.674620448515761e+000
 2.598266676207978e-001	 2.612109320602423e+000	 7.683899081630329e+000
 2.358678994956391e-001	 2.614381635105389e+000	 7.711516200747929e+000
 4.822020889083566e-001	 2.605759226318411e+000	 8.133591870402711e+000
 4.576086864127388e-001	 2.610190470097453e+000	 8.033928928181981e+000
 4.330478000568840e-001	 2.614377479040504e+000	 7.938162559718525e+000
 4.085227097972309e-001	 2.618321828120427e+000	 7.852035303354101e+000
 3.840366459159625e-001	 2.622025143779602e+000	 7.780135742494461e+000
 3.595927882128737e-001	 2.625489102371976e+000	 7.725913805021474e+000
 3.351942652482610e-001	 2.628715428597423e+000	 7.691698143821318e+000
 3.108441536365070e-001	 2.631705893930189e+000	 7.678715499153581e+000
 2.865454773899787e-001	 2.634462315043090e+000	 7.687111941363157e+000
 2.623012073127942e-001	 2.636986552229152e+000	 7.715975890588786e+000
 2.381142604439641e-001	 2.639280507822317e+000	 7.763362808674287e+000
 4.867511652178794e-001	 2.630341860531103e+000	 7.918404634860826e+000
 4.619257494913080e-001	 2.634814908496944e+000	 7.836485977504725e+000
 4.371331566605418e-001	 2.639041417524512e+000	 7.757591013360938e+000
 4.123766976250043e-001	 2.643022977444900e+000	 7.687836056769127e+000
 3.876596331412391e-001	 2.646761230044289e+000	 7.632153573980593e+000
 3.629851730071521e-001	 2.650257867491282e+000	 7.594307590335336e+000
 3.383564752977594e-001	 2.653514630756510e+000	 7.576911241568500e+000
 3.137766456521076e-001	 2.656533308026239e+000	 7.581446367578669e+000
 2.892487366109821e-001	 2.659315733111709e+000	 7.608285044680001e+000
 2.647757470049549e-001	 2.661863783855882e+000	 7.656712950442076e+000
 2.403606213922725e-001	 2.664179380539246e+000	 7.724954453705641e+000
 4.913002415274165e-001	 2.654924494743793e+000	 7.654775959012688e+000
 4.662428125700708e-001	 2.659439346896436e+000	 7.581548599702868e+000
 4.412185132645307e-001	 2.663705356008520e+000	 7.511571456188034e+000
 4.162306854532058e-001	 2.667724126769374e+000	 7.451339829428304e+000
 3.912826203669995e-001	 2.671497316308976e+000	 7.406133992972118e+000
 3.663775578019295e-001	 2.675026632610588e+000	 7.380034725238476e+000
 3.415186853477322e-001	 2.678313832915597e+000	 7.375941050606073e+000
 3.167091376681183e-001	 2.681360722122288e+000	 7.395590085166036e+000
 2.919519958322920e-001	 2.684169151180329e+000	 7.439578880599088e+000
 2.672502866972798e-001	 2.686741015482612e+000	 7.507388157651304e+000
 2.426069823405643e-001	 2.689078253256174e+000	 7.597407819094619e+000
 4.958493178369686e-001	 2.679507128956484e+000	 7.345419592131474e+000
 4.705598756490275e-001	 2.684063785295928e+000	 7.271671745320965e+000
 4.453038698688512e-001	 2.688369294492528e+000	 7.202499181896450e+000
 4.200846732818352e-001	 2.692425276093848e+000	 7.144781583223219e+000
 3.949056075932435e-001	 2.696233402573661e+000	 7.104151130133482e+000
 3.697699425972060e-001	 2.699795397729894e+000	 7.085008177632362e+000
 3.446808953981795e-001	 2.703113035074683e+000	 7.090539204761220e+000
 3.196416296845391e-001	 2.706188136218339e+000	 7.122736932924351e+000
 2.946552550539088e-001	 2.709022569248948e+000	 7.182422503495507e+000
 2.697248263897690e-001	 2.711618247109342e+000	 7.269269603464610e+000
 2.448533432888395e-001	 2.713977125973103e+000	 7.381830426226332e+000
 5.003983941465354e-001	 2.704089763169176e+000	 6.993051161853253e+000
 4.748769387281781e-001	 2.708688223695421e+000	 6.909409467112804e+000
 4.493892264735033e-001	 2.713033232976536e+000	 6.832766198564098e+000
 4.239386611108925e-001	 2.717126425418323e+000	 6.770390992427330e+000
 3.985285948199714e-001	 2.720969488838350e+000	 6.728272209661766e+000
 3.731623273929819e-001	 2.724564162849201e+000	 6.711132770391646e+000
 3.478431054491013e-001	 2.727912237233770e+000	 6.722448331531938e+000
 3.225741217013704e-001	 2.731015550314390e+000	 6.764467698286127e+000
 2.973585142758322e-001	 2.733875987317568e+000	 6.838235357611898e+000
 2.721993660824226e-001	 2.736495478736074e+000	 6.943616019607850e+000
 2.470997042370982e-001	 2.738875998690031e+000	 7.079321051067447e+000
 2.246360947537655e-001	 2.489887271520747e+000	 6.043149492932057e+000
 2.018749995641979e-001	 2.491835966613445e+000	 6.072228046622623e+000
 1.791733326820581e-001	 2.493571117257746e+000	 6.094779920903702e+000
 1.565336911712554e-001	 2.495094628165967e+000	 6.107756763405958e+000
 1.339586197272681e-001	 2.496408437772546e+000	 6.108215363120685e+000
 1.114506103760082e-001	 2.497514516761370e+000	 6.093318711918241e+000
 8.901210221548993e-002	 2.498414866600590e+000	 6.060336842561672e+000
 6.664548119953383e-002	 2.499111518086177e+000	 6.006647449771991e+000
 4.435307996270520e-002	 2.499606529895404e+000	 5.929736301164921e+000
 2.213717768565474e-002	 2.499901987151415e+000	 5.827197445119955e+000
 0.000000000000000e+000	 2.500000000000000e+000	 5.696733222848565e+000
 2.268824557021734e-001	 2.514786144237676e+000	 6.578900410452870e+000
 2.038937495620015e-001	 2.516754326280969e+000	 6.514109339863601e+000
 1.809650660120170e-001	 2.518506828431417e+000	 6.470505216443502e+000
 1.580990280867715e-001	 2.520045574448460e+000	 6.442312096340864e+000
 1.352982059287010e-001	 2.521372522150882e+000	 6.422956609673678e+000
 1.125651164839799e-001	 2.522489661929406e+000	 6.405096952138428e+000
 8.990222324160553e-002	 2.523399015266865e+000	 6.380652726534477e+000
 6.731193601494005e-002	 2.524102633267189e+000	 6.340835541739552e+000
 4.479661076489755e-002	 2.524602595194424e+000	 6.276180277828551e+000
 2.235854946393852e-002	 2.524901007022946e+000	 6.176576927407811e+000
 0.000000000000000e+000	 2.525000000000000e+000	 6.031302924838378e+000
 2.291288166505648e-001	 2.539685016954604e+000	 7.003132907730945e+000
 2.059124995596093e-001	 2.541672685948493e+000	 6.937697704082178e+000
 1.827567993416422e-001	 2.543442539605088e+000	 6.891874781545748e+000
 1.596643650018568e-001	 2.544996520730956e+000	 6.860120575471331e+000
 1.366377921296466e-001	 2.546336606529219e+000	 6.836068695410595e+000
 1.136796225914477e-001	 2.547464807097442e+000	 6.812559385607718e+000
 9.079234426724051e-002	 2.548383163933141e+000	 6.781669872931828e+000
 6.797839082992800e-002	 2.549093748448203e+000	 6.734745507269254e+000
 4.524014156677282e-002	 2.549598660493445e+000	 6.662431600559578e+000
 2.257992124204479e-002	 2.549900026894476e+000	 6.554705872041617e+000
 0.000000000000000e+000	 2.550000000000000e+000	 6.400911408900298e+000
 2.313751775989394e-001	 2.564583889671531e+000	 7.332542885358687e+000
 2.079312495570213e-001	 2.566591045616016e+000	 7.274700029642034e+000
 1.845485326709337e-001	 2.568378250778760e+000	 7.235931197687470e+000
 1.612297019165114e-001	 2.569947467013449e+000	 7.210916467641093e+000
 1.379773783301049e-001	 2.571300690907556e+000	 7.193486735980584e+000
 1.147941286984118e-001	 2.572439952265479e+000	 7.176653676668095e+000
 9.168246529239485e-002	 2.573367312599416e+000	 7.152640626003235e+000
 6.864484564449770e-002	 2.574084863629215e+000	 7.112914295594206e+000
 4.568367236833103e-002	 2.574594725792466e+000	 7.048217217039139e+000
 2.280129301997355e-002	 2.574899046766007e+000	 6.948600823310077e+000
 0.000000000000000e+000	 2.575000000000000e+000	 6.803459073471256e+000
 2.336215385472976e-001	 2.589482762388461e+000	 7.568288344332262e+000
 2.099499995542375e-001	 2.591509405283540e+000	 7.525953027345280e+000
 1.863402659998916e-001	 2.593313961952431e+000	 7.503190263889197e+000
 1.627950388307353e-001	 2.594898413295944e+000	 7.494895211198693e+000
 1.393169645300759e-001	 2.596264775285892e+000	 7.495086524677308e+000
 1.159086348048721e-001	 2.597415097433515e+000	 7.496936845574934e+000
 9.257258631706855e-002	 2.598351461265692e+000	 7.492804253348823e+000
 6.931130045864915e-002	 2.599075978810228e+000	 7.474264582464492e+000
 4.612720316957215e-002	 2.599590791091487e+000	 7.432144504556533e+000
 2.302266479772481e-002	 2.599898066637538e+000	 7.356555278286399e+000
 0.000000000000000e+000	 2.600000000000000e+000	 7.236927070898388e+000
 2.358678994956391e-001	 2.614381635105389e+000	 7.711516200747929e+000
 2.119687495512579e-001	 2.616427764951064e+000	 7.692289485555585e+000
 1.881319993285157e-001	 2.618249673126103e+000	 7.694171401444106e+000
 1.643603757445284e-001	 2.619849359578438e+000	 7.712263786943010e+000
 1.406565507295597e-001	 2.621228859664229e+000	 7.740763686020326e+000
 1.170231409108286e-001	 2.622390242601552e+000	 7.772994394209297e+000
 9.346270734126161e-002	 2.623335609931967e+000	 7.801437509163094e+000
 6.997775527238233e-002	 2.624067093991242e+000	 7.817765882632312e+000
 4.657073397049620e-002	 2.624586856390508e+000	 7.812877372043664e+000
 2.324403657529854e-002	 2.624897086509069e+000	 7.776929291289799e+000
 0.000000000000000e+000	 2.625000000000000e+000	 7.699373462014600e+000
 2.381142604439641e-001	 2.639280507822317e+000	 7.763362808674287e+000
 2.139874995480826e-001	 2.641346124618587e+000	 7.774538455221507e+000
 1.899237326568062e-001	 2.643185384299774e+000	 7.809397483055394e+000
 1.659257126578909e-001	 2.644800305860933e+000	 7.863240173670553e+000
 1.419961369285562e-001	 2.646192944042565e+000	 7.930432740318733e+000
 1.181376470162813e-001	 2.647365387769589e+000	 8.004438962603926e+000
 9.435282836497402e-002	 2.648319758598243e+000	 8.077852866000802e+000
 7.064421008569725e-002	 2.649058209172255e+000	 8.142432340465421e+000
 4.701426477110317e-002	 2.649582921689529e+000	 8.189133593488347e+000
 2.346540835269477e-002	 2.649896106380599e+000	 8.208146334392911e+000
 0.000000000000000e+000	 2.650000000000000e+000	 8.188929588379702e+000
 2.403606213922725e-001	 2.664179380539246e+000	 7.724954453705641e+000
 2.160062495447116e-001	 2.666264484286111e+000	 7.773525424520028e+000
 1.917154659847630e-001	 2.668121095473445e+000	 7.849394671555963e+000
 1.674910495708227e-001	 2.669751252143427e+000	 7.948052834248521e+000
 1.433357231270654e-001	 2.671157028420902e+000	 8.064026220691932e+000
 1.192521531212302e-001	 2.672340532937625e+000	 8.190909060805643e+000
 9.524294938820582e-002	 2.673303907264519e+000	 8.321396845693242e+000
 7.131066489859390e-002	 2.674049324353267e+000	 8.447320644451240e+000
 4.745779557139308e-002	 2.674578986988550e+000	 8.559682290875601e+000
 2.368678012991349e-002	 2.674895126252130e+000	 8.648690333976420e+000
 0.000000000000000e+000	 2.675000000000000e+000	 8.703796647947234e+000
 2.426069823405643e-001	 2.689078253256174e+000	 7.597407819094619e+000
 2.180249995411448e-001	 2.691182843953635e+000	 7.690072483800322e+000
 1.935071993123861e-001	 2.693056806647117e+000	 7.814692267586629e+000
 1.690563864833238e-001	 2.694702198425921e+000	 7.966940230242004e+000
 1.446753093250873e-001	 2.696121112799238e+000	 8.141493839142704e+000
 1.203666592256753e-001	 2.697315678105662e+000	 8.332067871189690e+000
 9.613307041095698e-002	 2.698288055930795e+000	 8.531448442993307e+000
 7.197711971107230e-002	 2.699040439534280e+000	 8.731528057561944e+000
 4.790132637136590e-002	 2.699575052287571e+000	 8.923341556965688e+000
 2.390815190695469e-002	 2.699894146123661e+000	 9.097102871915897e+000
 0.000000000000000e+000	 2.699999999999999e+000	 9.242242460971839e+000
 2.448533432888395e-001	 2.713977125973103e+000	 7.381830426226332e+000
 2.200437495373822e-001	 2.716101203621158e+000	 7.524998481447724e+000
 1.952989326396756e-001	 2.717992517820788e+000	 7.705822565661140e+000
 1.706217233953940e-001	 2.719653144708416e+000	 7.920150363258311e+000
 1.460148955226219e-001	 2.721085197177575e+000	 8.162801698534230e+000
 1.214811653296167e-001	 2.722290823273699e+000	 8.427602116701294e+000
 9.702319143322748e-002	 2.723272204597070e+000	 8.707417635991938e+000
 7.264357452313244e-002	 2.724031554715293e+000	 8.994190556037959e+000
 4.834485717102164e-002	 2.724571117586591e+000	 9.278976208926663e+000
 2.412952368381839e-002	 2.724893165995192e+000	 9.551980540836500e+000
 0.000000000000000e+000	 2.724999999999999e+000	 9.802598413940707e+000
 2.470997042370982e-001	 2.738875998690031e+000	 7.079321051067447e+000
 2.220624995334239e-001	 2.741019563288683e+000	 7.279119171244938e+000
 1.970906659666314e-001	 2.742928228994460e+000	 7.523320718080385e+000
 1.721870603070337e-001	 2.744604090990911e+000	 7.807940341307550e+000
 1.473544817196693e-001	 2.746049281555912e+000	 8.127931547551873e+000
 1.225956714330543e-001	 2.747265968441736e+000	 8.477220990829496e+000
 9.791331245501737e-002	 2.748256353263346e+000	 8.848743977785116e+000
 7.331002933477435e-002	 2.749022669896307e+000	 9.234481069696310e+000
 4.878838797036033e-002	 2.749567182885613e+000	 9.625495664500349e+000
 2.435089546050458e-002	 2.749892185866723e+000	 1.001197244362304e+001
 0.000000000000000e+000	 2.750000000000000e+000	 1.038325657019835e+001
 2.750000000000000e+000	 0.000000000000000e+000	 1.055665916220622e+001
 2.749892185866724e+000	 2.435089546050380e-002	 1.063286034475567e+001
 2.749567182885613e+000	 4.878838797035964e-002	 1.070872959715330e+001
 2.749022669896307e+000	 7.331002933477374e-002	 1.078279186974600e+001
 2.748256353263346e+000	 9.791331245501683e-002	 1.085368617401693e+001
 2.747265968441735e+000	 1.225956714330538e-001	 1.092017055639929e+001
 2.746049281555912e+000	 1.473544817196689e-001	 1.098112695485481e+001
 2.744604090990912e+000	 1.721870603070334e-001	 1.103556592331276e+001
 2.742928228994461e+000	 1.970906659666313e-001	 1.108263120888696e+001
 2.741019563288683e+000	 2.220624995334238e-001	 1.112160416665220e+001
 2.738875998690032e+000	 2.470997042370982e-001	 1.115190799666404e+001
 2.775000000000000e+000	 0.000000000000000e+000	 1.060840679599143e+001
 2.774891205738252e+000	 2.457226723710123e-002	 1.067468690834384e+001
 2.774563248184625e+000	 4.923191876953977e-002	 1.074236290677868e+001
 2.774013785077298e+000	 7.397648414620646e-002	 1.080988719274640e+001
 2.773240501929583e+000	 9.880343347656635e-002	 1.087582636210701e+001
 2.772241113609713e+000	 1.237101775362395e-001	 1.093886626589143e+001
 2.771013365934162e+000	 1.486940679164726e-001	 1.099781695287551e+001
 2.769555037273286e+000	 1.737523972184576e-001	 1.105161747879643e+001
 2.767863940167976e+000	 1.988823992934202e-001	 1.109934056686138e+001
 2.765937922956008e+000	 2.240812495293675e-001	 1.114019710405502e+001
 2.763774871406714e+000	 2.493460651853486e-001	 1.117354045765546e+001
 2.800000000000000e+000	 0.000000000000000e+000	 1.069112045576127e+001
 2.799890225609775e+000	 2.479363901369865e-002	 1.074536232532449e+001
 2.799559313483616e+000	 4.967544956871989e-002	 1.080253303446827e+001
 2.799004900258245e+000	 7.464293895763922e-002	 1.086101164199135e+001
 2.798224650595743e+000	 9.969355449811594e-002	 1.091929169927310e+001
 2.797216258777568e+000	 1.248246836394252e-001	 1.097598640253757e+001
 2.795977450312236e+000	 1.500336541132763e-001	 1.102983362585072e+001
 2.794505983555422e+000	 1.753177341298819e-001	 1.107970081940470e+001
 2.792799651341178e+000	 2.006741326202091e-001	 1.112458975745620e+001
 2.790856282622936e+000	 2.260999995253113e-001	 1.116364112014133e+001
 2.788673744122905e+000	 2.515924261335989e-001	 1.119613889328752e+001
 2.825000000000000e+000	 0.000000000000000e+000	 1.080445654547505e+001
 2.824889245481293e+000	 2.501501079029607e-002	 1.084460546495463e+001
 2.824555378782589e+000	 5.011898036790001e-002	 1.088902249865217e+001
 2.823996015439152e+000	 7.530939376907195e-002	 1.093601256198307e+001
 2.823208799261825e+000	 1.005836755196655e-001	 1.098399552590361e+001
 2.822191403945302e+000	 1.259391897426109e-001	 1.103151146524057e+001
 2.820941534690137e+000	 1.513732403100800e-001	 1.107722578654934e+001
 2.819456929837322e+000	 1.768830710413061e-001	 1.111993421976306e+001
 2.817735362514068e+000	 2.024658659469981e-001	 1.115856765770774e+001
 2.815774642289468e+000	 2.281187495212551e-001	 1.119219682740719e+001
 2.813572616838604e+000	 2.538387870818492e-001	 1.122003677699827e+001
 2.850000000000000e+000	 0.000000000000000e+000	 1.094808352509345e+001
 2.849888265352808e+000	 2.523638256689349e-002	 1.097214457006043e+001
 2.849551444081544e+000	 5.056251116708015e-002	 1.100162041982974e+001
 2.848987130620012e+000	 7.597584858050469e-002	 1.103474103879983e+001
 2.848192947927831e+000	 1.014737965412150e-001	 1.106985197460002e+001
 2.847166549112915e+000	 1.270536958457965e-001	 1.110541970705942e+001
 2.845905619067861e+000	 1.527128265068837e-001	 1.114003687537081e+001
 2.844407876118980e+000	 1.784484079527304e-001	 1.117242736741227e+001
 2.842671073686645e+000	 2.042575992737870e-001	 1.120145125499387e+001
 2.840693001955603e+000	 2.301374995171988e-001	 1.122610955864414e+001
 2.838471489553812e+000	 2.560851480300996e-001	 1.124554882544366e+001
 2.875000000000000e+000	 0.000000000000000e+000	 1.112168138640460e+001
 2.874887285224318e+000	 2.545775434349091e-002	 1.112771684949091e+001
 2.874547509380478e+000	 5.100604196626029e-002	 1.114012223352304e+001
 2.873978245800831e+000	 7.664230339193742e-002	 1.115705173741824e+001
 2.873177096593760e+000	 1.023639175627646e-001	 1.117677593573303e+001
 2.872141694280408e+000	 1.281682019489822e-001	 1.119768723285448e+001
 2.870869703445413e+000	 1.540524127036874e-001	 1.121830519392638e+001
 2.869358822400401e+000	 1.800137448641546e-001	 1.123728173615967e+001
 2.867606784858910e+000	 2.060493326005759e-001	 1.125340616397568e+001
 2.865611361621339e+000	 2.321562495131426e-001	 1.126561003127438e+001
 2.863370362268527e+000	 2.583315089783499e-001	 1.127297181400958e+001
 2.900000000000000e+000	 0.000000000000000e+000	 1.132494115596254e+001
 2.899886305095822e+000	 2.567912612008834e-002	 1.131106809165134e+001
 2.899543574679393e+000	 5.144957276544040e-002	 1.130432941807760e+001
 2.898969360981606e+000	 7.730875820337015e-002	 1.130280274745083e+001
 2.898161245259613e+000	 1.032540385843141e-001	 1.130468302478012e+001
 2.897116839447780e+000	 1.292827080521679e-001	 1.130828809188245e+001
 2.895833787822788e+000	 1.553919989004911e-001	 1.131206412653861e+001
 2.894309768681584e+000	 1.815790817755789e-001	 1.131459094011951e+001
 2.892542496030862e+000	 2.078410659273649e-001	 1.131458711680087e+001
 2.890529721286680e+000	 2.341749995090863e-001	 1.131091497732347e+001
 2.888269234982751e+000	 2.605778699266002e-001	 1.130258535014268e+001
 2.925000000000000e+000	 0.000000000000000e+000	 1.155756442351602e+001
 2.924885324967321e+000	 2.590049789668575e-002	 1.152195229785554e+001
 2.924539639978291e+000	 5.189310356462054e-002	 1.149404923642205e+001
 2.923960476162338e+000	 7.797521301480291e-002	 1.147185543679386e+001
 2.923145393925387e+000	 1.041441596058636e-001	 1.145348955133794e+001
 2.922091984615031e+000	 1.303972141553535e-001	 1.143719436564256e+001
 2.920797872199990e+000	 1.567315850972948e-001	 1.142134235038192e+001
 2.919260714962528e+000	 1.831444186870031e-001	 1.140444106959718e+001
 2.917478207202503e+000	 2.096327992541539e-001	 1.138513842816828e+001
 2.915448080951624e+000	 2.361937495050301e-001	 1.136222774108687e+001
 2.913168107696484e+000	 2.628242308748505e-001	 1.133465260702277e+001
 2.949999999999999e+000	 0.000000000000000e+000	 1.181926289441556e+001
 2.949884344838818e+000	 2.612186967328318e-002	 1.176013133432110e+001
 2.949535705277168e+000	 5.233663436380066e-002	 1.170909449095880e+001
 2.948951591343028e+000	 7.864166782623562e-002	 1.166407431271712e+001
 2.948129542591084e+000	 1.050342806274132e-001	 1.162311248971050e+001
 2.947067129782162e+000	 1.315117202585392e-001	 1.158437625125599e+001
 2.945761956577017e+000	 1.580711712940985e-001	 1.154616403493802e+001
 2.944211661243234e+000	 1.847097555984273e-001	 1.150691100989479e+001
 2.942413918373829e+000	 2.114245325809427e-001	 1.146519443674544e+001
 2.940366440616170e+000	 2.382124995009738e-001	 1.141973884640673e+001
 2.938066980409724e+000	 2.650705918231008e-001	 1.136942101993028e+001
 2.974999999999999e+000	 0.000000000000000e+000	 1.210975796458807e+001
 2.974883364710307e+000	 2.634324144988059e-002	 1.202537460171177e+001
 2.974531770576026e+000	 5.278016516298079e-002	 1.194928329081286e+001
 2.973942706523673e+000	 7.930812263766840e-002	 1.187932688995722e+001
 2.973113691256704e+000	 1.059244016489627e-001	 1.181346945098036e+001
 2.972042274949171e+000	 1.326262263617249e-001	 1.174980214064176e+001
 2.970726040953869e+000	 1.594107574909022e-001	 1.168654903139472e+001
 2.969162607523700e+000	 1.862750925098516e-001	 1.162207274404233e+001
 2.967349629544843e+000	 2.132162659077317e-001	 1.155487992432924e+001
 2.965284800280319e+000	 2.402312494969176e-001	 1.148362653534628e+001
 2.962965853122473e+000	 2.673169527713512e-001	 1.140712294750236e+001
 3.000000000000000e+000	 0.000000000000000e+000	 1.242878031676287e+001
 2.999882384581794e+000	 2.656461322647803e-002	 1.231745872120159e+001
 2.999527835874867e+000	 5.322369596216094e-002	 1.221443883071850e+001
 2.998933821704276e+000	 7.997457744910114e-002	 1.211748356540685e+001
 2.998097839922250e+000	 1.068145226705123e-001	 1.202447865647620e+001
 2.997017420116060e+000	 1.337407324649106e-001	 1.193343869573314e+001
 2.995690125330548e+000	 1.607503436877060e-001	 1.184251305257495e+001
 2.994113553803930e+000	 1.878404294212759e-001	 1.174999164039238e+001
 2.992285340715546e+000	 2.150079992345207e-001	 1.165431051404917e+001
 2.990203159944073e+000	 2.422499994928614e-001	 1.155405727993057e+001
 2.987864725834731e+000	 2.695633137196016e-001	 1.144797629992643e+001
 2.738875998690032e+000	 2.470997042370982e-001	 1.115190799666404e+001
 2.736495478736073e+000	 2.721993660824219e-001	 1.119760336822960e+001
 2.733875987317569e+000	 2.973585142758315e-001	 1.123545964128589e+001
 2.731015550314390e+000	 3.225741217013698e-001	 1.126481178378139e+001
 2.727912237233771e+000	 3.478431054491009e-001	 1.128513993391726e+001
 2.724564162849201e+000	 3.731623273929816e-001	 1.129607279412718e+001
 2.720969488838349e+000	 3.985285948199712e-001	 1.129739077632897e+001
 2.717126425418323e+000	 4.239386611108925e-001	 1.128902888390145e+001
 2.713033232976537e+000	 4.493892264735033e-001	 1.127107931610985e+001
 2.708688223695421e+000	 4.748769387281783e-001	 1.124379378103004e+001
 2.704089763169176e+000	 5.003983941465353e-001	 1.120758550340283e+001
 2.763774871406714e+000	 2.493460651853486e-001	 1.117354045765546e+001
 2.761372710362509e+000	 2.746739057751574e-001	 1.120640676208894e+001
 2.758729405385852e+000	 3.000617734979081e-001	 1.123279976352951e+001
 2.755842964410066e+000	 3.255066137184060e-001	 1.125211927542680e+001
 2.752711439392451e+000	 3.510053155002598e-001	 1.126391338544829e+001
 2.749332927968071e+000	 3.765547121890067e-001	 1.126788183317486e+001
 2.745705575102577e+000	 4.021515820469409e-001	 1.126387913086735e+001
 2.741827574742320e+000	 4.277926489401637e-001	 1.125191741249775e+001
 2.737697171460055e+000	 4.534745830783211e-001	 1.123216899652246e+001
 2.733312662094415e+000	 4.791940018074255e-001	 1.120496864821726e+001
 2.728672397381367e+000	 5.049474704561092e-001	 1.117081552779204e+001
 2.788673744122905e+000	 2.515924261335989e-001	 1.119613889328752e+001
 2.786249941988360e+000	 2.771484454678931e-001	 1.121666960854796e+001
 2.783582823453462e+000	 3.027650327199848e-001	 1.123190650976797e+001
 2.780670378504992e+000	 3.284391057354422e-001	 1.124131355566498e+001
 2.777510641550316e+000	 3.541675255514188e-001	 1.124450625614501e+001
 2.774101693086072e+000	 3.799470969850320e-001	 1.124125503729175e+001
 2.770441661365887e+000	 4.057745692739104e-001	 1.123148834102820e+001
 2.766528724065364e+000	 4.316466367694350e-001	 1.121529544437223e+001
 2.762361109942594e+000	 4.575599396831386e-001	 1.119292898350651e+001
 2.757937100492415e+000	 4.835110648866728e-001	 1.116480716824042e+001
 2.753255031592557e+000	 5.094965467656832e-001	 1.113151567285770e+001
 2.813572616838604e+000	 2.538387870818492e-001	 1.122003677699827e+001
 2.811127173613622e+000	 2.796229851606287e-001	 1.122867791859740e+001
 2.808436241520401e+000	 3.054682919420614e-001	 1.123301931157510e+001
 2.805497792599172e+000	 3.313715977524784e-001	 1.123258839823564e+001
 2.802309843707365e+000	 3.573297356025777e-001	 1.122706762281366e+001
 2.798870458203201e+000	 3.833394817810573e-001	 1.121629778731715e+001
 2.795177747628282e+000	 4.093975565008801e-001	 1.120028113344394e+001
 2.791229873387455e+000	 4.355006245987063e-001	 1.117918413520984e+001
 2.787025048424154e+000	 4.616452962879563e-001	 1.115333998724019e+001
 2.782561538889420e+000	 4.878281279659203e-001	 1.112325077404877e+001
 2.777837665802749e+000	 5.140456230752573e-001	 1.108958930606251e+001
 2.838471489553812e+000	 2.560851480300996e-001	 1.124554882544366e+001
 2.836004405238297e+000	 2.820975248533642e-001	 1.124269964392883e+001
 2.833289659586666e+000	 3.081715511641380e-001	 1.123636016069561e+001
 2.830325206692602e+000	 3.343040897695145e-001	 1.122612067749228e+001
 2.827109045863601e+000	 3.604919456537368e-001	 1.121173012330554e+001
 2.823639223319458e+000	 3.867318665770823e-001	 1.119309940460057e+001
 2.819913833889759e+000	 4.130205437278497e-001	 1.117030447283397e+001
 2.815931022708593e+000	 4.393546124279776e-001	 1.114358909358214e+001
 2.811688986904735e+000	 4.657306528927738e-001	 1.111336730195637e+001
 2.807185977285430e+000	 4.921451910451676e-001	 1.108022552936433e+001
 2.802420300011939e+000	 5.185946993848312e-001	 1.104492438712905e+001
 2.863370362268527e+000	 2.583315089783499e-001	 1.127297181400958e+001
 2.860881636862386e+000	 2.845720645460999e-001	 1.125898546212140e+001
 2.858143077652259e+000	 3.108748103862146e-001	 1.124213436729828e+001
 2.855152620785284e+000	 3.372365817865506e-001	 1.122207110315813e+001
 2.851908248019021e+000	 3.636541557048958e-001	 1.119861067125411e+001
 2.848407988434845e+000	 3.901242513731076e-001	 1.117173384924035e+001
 2.844649920150318e+000	 4.166435309548194e-001	 1.114159024730531e+001
 2.840632172028777e+000	 4.432086002572488e-001	 1.110850105690876e+001
 2.836352925384337e+000	 4.698160094975915e-001	 1.107296147620110e+001
 2.831810415680446e+000	 4.964622541244149e-001	 1.103564279690926e+001
 2.827002934220130e+000	 5.231437756944052e-001	 1.099739413794156e+001
 2.888269234982751e+000	 2.605778699266002e-001	 1.130258535014268e+001
 2.885758868485888e+000	 2.870466042388355e-001	 1.127776952121572e+001
 2.882996495717180e+000	 3.135780696082913e-001	 1.125053127900967e+001
 2.879980034877217e+000	 3.401690738035869e-001	 1.122058491707751e+001
 2.876707450173628e+000	 3.668163657560547e-001	 1.118781113384304e+001
 2.873176753549361e+000	 3.935166361691328e-001	 1.115226038220656e+001
 2.869386006409961e+000	 4.202665181817890e-001	 1.111415591820653e+001
 2.865333321348009e+000	 4.470625880865201e-001	 1.107389653245535e+001
 2.861016863862959e+000	 4.739013661024092e-001	 1.103205894842359e+001
 2.856434854074466e+000	 5.007793172036623e-001	 1.098939987206960e+001
 2.851585568427321e+000	 5.276928520039791e-001	 1.094685767779756e+001
 2.913168107696484e+000	 2.628242308748505e-001	 1.133465260702277e+001
 2.910636100108802e+000	 2.895211439315710e-001	 1.129927014610438e+001
 2.907849913781428e+000	 3.162813288303680e-001	 1.126172496307389e+001
 2.904807448968402e+000	 3.431015658206231e-001	 1.122179255423621e+001
 2.901506652327419e+000	 3.699785758072137e-001	 1.117941897481691e+001
 2.897945518663008e+000	 3.969090209651581e-001	 1.113472419350892e+001
 2.894122092668686e+000	 4.238895054087587e-001	 1.108800513665588e+001
 2.890034470666286e+000	 4.509165759157914e-001	 1.103973840545978e+001
 2.885680802340603e+000	 4.779867227072268e-001	 1.099058264997174e+001
 2.881059292467492e+000	 5.050963802829096e-001	 1.094138058406346e+001
 2.876168202633513e+000	 5.322419283135530e-001	 1.089316062608253e+001
 2.938066980409724e+000	 2.650705918231008e-001	 1.136942101993028e+001
 2.935513331731131e+000	 2.919956836243067e-001	 1.132369050900434e+001
 2.932703331845003e+000	 3.189845880524446e-001	 1.127587485382646e+001
 2.929634863058839e+000	 3.460340578376593e-001	 1.122581027017083e+001
 2.926305854480396e+000	 3.731407858583726e-001	 1.117350786479640e+001
 2.922714283775782e+000	 4.003014057611832e-001	 1.111915699842391e+001
 2.918858178926495e+000	 4.275124926357283e-001	 1.106312832872056e+001
 2.914735619983611e+000	 4.547705637450627e-001	 1.100597651633677e+001
 2.910344740817267e+000	 4.820720793120443e-001	 1.094844257742695e+001
 2.905683730859524e+000	 5.094134433621569e-001	 1.089145586654139e+001
 2.900750836838703e+000	 5.367910046231269e-001	 1.083613567430006e+001
 2.962965853122473e+000	 2.673169527713512e-001	 1.140712294750236e+001
 2.960390563352871e+000	 2.944702233170423e-001	 1.135121926612398e+001
 2.957556749907905e+000	 3.216878472745212e-001	 1.129312636752243e+001
 2.954462277148526e+000	 3.489665498546954e-001	 1.123274073674390e+001
 2.951105056632558e+000	 3.763029959095316e-001	 1.117013826082124e+001
 2.947483048887686e+000	 4.036937905572084e-001	 1.110557760366003e+001
 2.943594265183386e+000	 4.311354798626980e-001	 1.103950325109117e+001
 2.939436769299983e+000	 4.586245515743339e-001	 1.097254820877962e+001
 2.935008679292952e+000	 4.861574359168621e-001	 1.090553633608179e+001
 2.930308169250560e+000	 5.137305064414043e-001	 1.083948429941692e+001
 2.925333471042894e+000	 5.413400809327010e-001	 1.077560312926015e+001
 2.987864725834731e+000	 2.695633137196016e-001	 1.144797629992643e+001
 2.985267794974027e+000	 2.969447630097781e-001	 1.138203116249676e+001
 2.982410167970137e+000	 3.243911064965980e-001	 1.131361148642299e+001
 2.979289691237467e+000	 3.518990418717317e-001	 1.124267360813035e+001
 2.975904258783907e+000	 3.794652059606907e-001	 1.116935795691624e+001
 2.972251813998720e+000	 4.070861753532337e-001	 1.109399244521476e+001
 2.968330351439360e+000	 4.347584670896676e-001	 1.101709551897234e+001
 2.964137918615402e+000	 4.624785394036054e-001	 1.093937885045701e+001
 2.959672617767659e+000	 4.902427925216799e-001	 1.086174965624354e+001
 2.954932607640602e+000	 5.180475695206518e-001	 1.078531262360567e+001
 2.949916105246086e+000	 5.458891572422751e-001	 1.071137142910815e+001
 2.704089763169176e+000	 5.003983941465353e-001	 1.120758550340283e+001
 2.699236272010369e+000	 5.259501383425348e-001	 1.132264801186254e+001
 2.694126227445558e+000	 5.515286672185968e-001	 1.143342047250447e+001
 2.688758164897393e+000	 5.771304279651320e-001	 1.154130111006535e+001
 2.683130679550521e+000	 6.027518201122010e-001	 1.164785903111783e+001
 2.677242427900419e+000	 6.283891966355910e-001	 1.172737134850694e+001
 2.671092129282827e+000	 6.540388651164306e-001	 1.163139500141605e+001
 2.664678567381806e+000	 6.796970889541845e-001	 1.154292069469776e+001
 2.658000591714422e+000	 7.053600886327910e-001	 1.146216387466399e+001
 2.651057119090043e+000	 7.310240430396249e-001	 1.138931663493561e+001
 2.643847135042239e+000	 7.566850908368894e-001	 1.132454668348230e+001
 2.728672397381367e+000	 5.049474704561092e-001	 1.117081552779204e+001
 2.723774783575466e+000	 5.307315032349365e-001	 1.130508888934609e+001
 2.718618284059930e+000	 5.565425641910099e-001	 1.143262505949518e+001
 2.713201420943072e+000	 5.823770682164715e-001	 1.155494449627993e+001
 2.707522776638490e+000	 6.082313821098385e-001	 1.167374568231371e+001
 2.701580995427987e+000	 6.341018256921331e-001	 1.171262710621914e+001
 2.695374785004896e+000	 6.599846729770404e-001	 1.161260255605045e+001
 2.688902917995866e+000	 6.858761533949309e-001	 1.152099345167810e+001
 2.682164233459023e+000	 7.117724530705059e-001	 1.143808909405164e+001
 2.675157638356550e+000	 7.376697161537533e-001	 1.136415510914910e+001
 2.667882108999597e+000	 7.635640462038071e-001	 1.129943232299249e+001
 2.753255031592557e+000	 5.094965467656832e-001	 1.113151567285770e+001
 2.748313295139561e+000	 5.355128681273381e-001	 1.128566353394064e+001
 2.743110340673302e+000	 5.615564611634224e-001	 1.143053114704952e+001
 2.737644676987750e+000	 5.876237084678109e-001	 1.156776224692963e+001
 2.731914873725460e+000	 6.137109441074761e-001	 1.169918588037149e+001
 2.725919562954553e+000	 6.398144547486753e-001	 1.169251005740246e+001
 2.719657440725966e+000	 6.659304808376508e-001	 1.158991717841731e+001
 2.713127268608924e+000	 6.920552178356770e-001	 1.149665701952197e+001
 2.706327875202622e+000	 7.181848175082203e-001	 1.141309223002957e+001
 2.699258157622057e+000	 7.443153892678819e-001	 1.133956144262069e+001
 2.691917082955955e+000	 7.704430015707247e-001	 1.127637805620654e+001
 2.777837665802749e+000	 5.140456230752573e-001	 1.108958930606251e+001
 2.772851806702656e+000	 5.402942330197397e-001	 1.126418425692444e+001
 2.767602397285674e+000	 5.665703581358352e-001	 1.142685892186509e+001
 2.762087933031430e+000	 5.928703487191506e-001	 1.157938140411066e+001
 2.756306970811430e+000	 6.191905061051135e-001	 1.172371255306166e+001
 2.750258130480121e+000	 6.455270838052174e-001	 1.166699897267361e+001
 2.743940096446035e+000	 6.718762886982610e-001	 1.156326117802457e+001
 2.737351619220983e+000	 6.982342822764236e-001	 1.146977765410872e+001
 2.730491516945223e+000	 7.245971819459351e-001	 1.138698392050741e+001
 2.723358676886566e+000	 7.509610623820104e-001	 1.131529111911693e+001
 2.715952056911313e+000	 7.773219569376425e-001	 1.125508470470557e+001
 2.802420300011939e+000	 5.185946993848312e-001	 1.104492438712905e+001
 2.797390318264753e+000	 5.450755979121414e-001	 1.124044974073514e+001
 2.792094453897046e+000	 5.715842551082483e-001	 1.142131671713853e+001
 2.786531189074109e+000	 5.981169889704899e-001	 1.158941892742355e+001
 2.780699067896399e+000	 6.246700681027509e-001	 1.174685031154747e+001
 2.774596698004689e+000	 6.512397128617599e-001	 1.163606606602372e+001
 2.768222752165105e+000	 6.778220965588712e-001	 1.153255206103294e+001
 2.761575969832041e+000	 7.044133467171696e-001	 1.144021855374299e+001
 2.754655158686824e+000	 7.310095463836498e-001	 1.135957348327828e+001
 2.747459196150073e+000	 7.576067354961390e-001	 1.129110003061843e+001
 2.739987030865671e+000	 7.842009123045602e-001	 1.123525521666966e+001
 2.827002934220130e+000	 5.231437756944052e-001	 1.099739413794156e+001
 2.821928829825849e+000	 5.498569628045430e-001	 1.121424563152794e+001
 2.816586510507418e+000	 5.765981520806611e-001	 1.141360152793508e+001
 2.810974445115789e+000	 6.033636292218294e-001	 1.159748213234259e+001
 2.805091164980370e+000	 6.301496301003886e-001	 1.171316003455423e+001
 2.798935265528255e+000	 6.569523419183017e-001	 1.159967727988882e+001
 2.792505407883173e+000	 6.837679044194810e-001	 1.149770273909720e+001
 2.785800320442101e+000	 7.105924111579161e-001	 1.140783999209285e+001
 2.778818800427425e+000	 7.374219108213646e-001	 1.133066897341526e+001
 2.771559715412581e+000	 7.642524086102674e-001	 1.126674445957135e+001
 2.764022004819029e+000	 7.910798676714779e-001	 1.121659457441689e+001
 2.851585568427321e+000	 5.276928520039791e-001	 1.094685767779756e+001
 2.846467341385945e+000	 5.546383276969448e-001	 1.118534510108444e+001
 2.841078567116790e+000	 5.816120490530741e-001	 1.140339949990127e+001
 2.835417701156468e+000	 6.086102694731690e-001	 1.160316910591084e+001
 2.829483262063339e+000	 6.356291920980260e-001	 1.166933642410815e+001
 2.823273833050822e+000	 6.626649709748441e-001	 1.155779255547577e+001
 2.816788063600243e+000	 6.897137122800912e-001	 1.145862172740517e+001
 2.810024671051159e+000	 7.167714755986625e-001	 1.137249944425164e+001
 2.802982442167025e+000	 7.438342752590792e-001	 1.130007723769893e+001
 2.795660234674087e+000	 7.708980817243959e-001	 1.124198106205709e+001
 2.788056978771388e+000	 7.979588230383955e-001	 1.119880970672515e+001
 2.876168202633513e+000	 5.322419283135530e-001	 1.089316062608253e+001
 2.871005852945042e+000	 5.594196925893464e-001	 1.115350937990542e+001
 2.865570623725160e+000	 5.866259460254867e-001	 1.139038639291516e+001
 2.859860957196147e+000	 6.138569097245085e-001	 1.160606910111761e+001
 2.853875359145309e+000	 6.411087540956634e-001	 1.161876290144626e+001
 2.847612400572389e+000	 6.683776000313860e-001	 1.151036608922482e+001
 2.841070719316312e+000	 6.956595201407014e-001	 1.141521333256095e+001
 2.834249021659218e+000	 7.229505400394087e-001	 1.133405170633523e+001
 2.827146083905626e+000	 7.502466396967938e-001	 1.126760396625384e+001
 2.819760753934596e+000	 7.775437548385245e-001	 1.121656685182487e+001
 2.812091952722746e+000	 8.048377784053130e-001	 1.118160940564992e+001
 2.900750836838703e+000	 5.367910046231269e-001	 1.083613567430006e+001
 2.895544364503137e+000	 5.642010574817481e-001	 1.111848826319747e+001
 2.890062680332532e+000	 5.916398429978996e-001	 1.137422802116138e+001
 2.884304213234825e+000	 6.191035499758478e-001	 1.160576291122271e+001
 2.878267456226280e+000	 6.465883160933010e-001	 1.156143692897894e+001
 2.871950968092957e+000	 6.740902290879284e-001	 1.145734657623206e+001
 2.865353375031381e+000	 7.016053280013114e-001	 1.136737783091468e+001
 2.858473372266277e+000	 7.291296044801551e-001	 1.129234900899802e+001
 2.851309725643227e+000	 7.566590041345086e-001	 1.123305374155934e+001
 2.843861273194103e+000	 7.841894279526531e-001	 1.119025918513641e+001
 2.836126926673104e+000	 8.117167337722308e-001	 1.116470424757197e+001
 2.925333471042894e+000	 5.413400809327010e-001	 1.077560312926015e+001
 2.920082876060233e+000	 5.689824223741498e-001	 1.108002059134739e+001
 2.914554736938903e+000	 5.966537399703125e-001	 1.135458067101732e+001
 2.908747469272504e+000	 6.243501902271874e-001	 1.160182322520739e+001
 2.902659553306250e+000	 6.520678780909385e-001	 1.149734928425348e+001
 2.896289535612524e+000	 6.798028581444706e-001	 1.139867744139823e+001
 2.889636030745451e+000	 7.075511358619215e-001	 1.131501163790107e+001
 2.882697722872335e+000	 7.353086689209013e-001	 1.124724112522539e+001
 2.875473367379827e+000	 7.630713685722234e-001	 1.119623008498926e+001
 2.867961792452610e+000	 7.908351010667816e-001	 1.116281574637456e+001
 2.860161900622463e+000	 8.185956891391486e-001	 1.114780651822567e+001
 2.949916105246086e+000	 5.458891572422751e-001	 1.071137142910815e+001
 2.944621387616330e+000	 5.737637872665515e-001	 1.103783470637304e+001
 2.939046793544276e+000	 6.016676369427255e-001	 1.133109149804518e+001
 2.933190725309185e+000	 6.295968304785271e-001	 1.153358591385062e+001
 2.927051650385221e+000	 6.575474400885762e-001	 1.142648433849001e+001
 2.920628103131091e+000	 6.855154872010131e-001	 1.133429705902026e+001
 2.913918686458520e+000	 7.134969437225318e-001	 1.125800746891071e+001
 2.906922073477395e+000	 7.414877333616480e-001	 1.119857547273664e+001
 2.899637009115428e+000	 7.694837330099382e-001	 1.115693550102475e+001
 2.892062311710120e+000	 7.974807741809104e-001	 1.113399453437167e+001
 2.884196874570821e+000	 8.254746445060665e-001	 1.113063014147586e+001
 2.643847135042239e+000	 7.566850908368894e-001	 1.132454668348230e+001
 2.636369695231585e+000	 7.823393318852079e-001	 1.139404135824401e+001
 2.628623926816410e+000	 8.079828287179298e-001	 1.145709074043788e+001
 2.620609029790005e+000	 8.336116080664259e-001	 1.151355278419092e+001
 2.612324278282998e+000	 8.592216624358847e-001	 1.156326677204871e+001
 2.603769021827961e+000	 8.848089517299637e-001	 1.160605280876692e+001
 2.594942686584524e+000	 9.103694049237150e-001	 1.164171135085154e+001
 2.585844776523054e+000	 9.358989217837995e-001	 1.167002277426558e+001
 2.576474874564940e+000	 9.613933746349105e-001	 1.169074698267481e+001
 2.566832643677576e+000	 9.868486101712384e-001	 1.170362305855010e+001
 2.556917827922116e+000	 1.012260451311729e+000	 1.170836895937933e+001
 2.667882108999597e+000	 7.635640462038071e-001	 1.129943232299249e+001
 2.660336692463774e+000	 7.894515076254417e-001	 1.136514978012176e+001
 2.652520507972429e+000	 8.153281271568192e-001	 1.142468494419486e+001
 2.644432748246060e+000	 8.411898954086865e-001	 1.147790624381306e+001
 2.636072680816487e+000	 8.670327684544615e-001	 1.152466277866429e+001
 2.627439649302939e+000	 8.928526694696530e-001	 1.156478378344053e+001
 2.618533074648314e+000	 9.186454904199954e-001	 1.159807812839678e+001
 2.609352456313619e+000	 9.444070937973023e-001	 1.162433385905955e+001
 2.599897373428621e+000	 9.701333144019444e-001	 1.164331777754680e+001
 2.590167485896778e+000	 9.958199611707879e-001	 1.165477506790547e+001
 2.580162535452529e+000	 1.021462819049315e+000	 1.165842896780659e+001
 2.691917082955955e+000	 7.704430015707247e-001	 1.127637805620654e+001
 2.684303689694970e+000	 7.965636833656756e-001	 1.133813973705403e+001
 2.676417089127467e+000	 8.226734255957088e-001	 1.139399671531789e+001
 2.668256466701160e+000	 8.487681827509468e-001	 1.144382811486502e+001
 2.659821083349055e+000	 8.748438744730380e-001	 1.148749305433976e+001
 2.651110276777040e+000	 9.008963872093422e-001	 1.152483008054614e+001
 2.642123462711282e+000	 9.269215759162763e-001	 1.155565663938784e+001
 2.632860136103426e+000	 9.529152658108047e-001	 1.157976858696565e+001
 2.623319872291618e+000	 9.788732541689786e-001	 1.159693974338568e+001
 2.613502328115381e+000	 1.004791312170338e+000	 1.160692149177472e+001
 2.603407242982436e+000	 1.030665186786900e+000	 1.160944242493231e+001
 2.715952056911313e+000	 7.773219569376425e-001	 1.125508470470557e+001
 2.708270686925169e+000	 8.036758591059093e-001	 1.131270231165063e+001
 2.700313670281525e+000	 8.300187240345980e-001	 1.136470758841087e+001
 2.692080185155305e+000	 8.563464700932075e-001	 1.141099058086890e+001
 2.683569485880700e+000	 8.826549804916150e-001	 1.145142063423395e+001
 2.674780904250262e+000	 9.089401049490316e-001	 1.148584579521893e+001
 2.665713850773425e+000	 9.351976614125571e-001	 1.151409225271450e+001
 2.656367815892474e+000	 9.614234378243071e-001	 1.153596381965356e+001
 2.646742371153929e+000	 9.876131939360126e-001	 1.155124145871319e+001
 2.636837170333382e+000	 1.013762663169887e+000	 1.155968285444233e+001
 2.626651950511838e+000	 1.039867554524486e+000	 1.156102203433570e+001
 2.739987030865671e+000	 7.842009123045602e-001	 1.123525521666966e+001
 2.732237684154373e+000	 8.107880348461433e-001	 1.128853086273126e+001
 2.724210251434601e+000	 8.373640224734873e-001	 1.133650152483386e+001
 2.715903903608492e+000	 8.639247574354682e-001	 1.137906840352567e+001
 2.707317888411426e+000	 8.904660865101917e-001	 1.141611128392364e+001
 2.698451531722607e+000	 9.169838226887207e-001	 1.144748790600611e+001
 2.689304238834745e+000	 9.434737469088375e-001	 1.147303337436492e+001
 2.679875495680764e+000	 9.699316098378095e-001	 1.149255961020658e+001
 2.670164870015556e+000	 9.963531337030464e-001	 1.150585484834432e+001
 2.660172012550785e+000	 1.022734014169437e+000	 1.151268318186410e+001
 2.649896658040735e+000	 1.049069922262071e+000	 1.151278415707754e+001
 2.764022004819029e+000	 7.910798676714779e-001	 1.121659457441689e+001
 2.756204681382582e+000	 8.179002105863771e-001	 1.126532092635977e+001
 2.748106832586698e+000	 8.447093209123768e-001	 1.130906480719200e+001
 2.739727622060724e+000	 8.715030447777291e-001	 1.134773881062059e+001
 2.731066290941226e+000	 8.982771925287684e-001	 1.138123338068982e+001
 2.722122159194074e+000	 9.250275404284098e-001	 1.140941614950103e+001
 2.712894626895242e+000	 9.517498324051180e-001	 1.143213131537784e+001
 2.703383175468293e+000	 9.784397818513121e-001	 1.144919906436448e+001
 2.693587368876499e+000	 1.005093073470081e+000	 1.146041503789614e+001
 2.683506854767586e+000	 1.031705365168986e+000	 1.146554984942062e+001
 2.673141365569126e+000	 1.058272289999657e+000	 1.146434865267930e+001
 2.788056978771388e+000	 7.979588230383955e-001	 1.119880970672515e+001
 2.780171678609796e+000	 8.250123863266109e-001	 1.124277012199750e+001
 2.772003413737814e+000	 8.520546193512663e-001	 1.128208593928178e+001
 2.763551340511999e+000	 8.790813321199896e-001	 1.131668138972636e+001
 2.754814693470106e+000	 9.060882985473453e-001	 1.134645780094418e+001
 2.745792786664664e+000	 9.330712581680991e-001	 1.137129290146198e+001
 2.736485014954915e+000	 9.600259179013986e-001	 1.139104016662487e+001
 2.726890855255063e+000	 9.869479538648144e-001	 1.140552820894350e+001
 2.717009867736758e+000	 1.013833013237114e+000	 1.141456021582222e+001
 2.706841696983789e+000	 1.040676716168536e+000	 1.141791343754545e+001
 2.696386073097013e+000	 1.067474657737242e+000	 1.141533872832735e+001
 2.812091952722746e+000	 8.048377784053130e-001	 1.118160940564992e+001
 2.804138675836015e+000	 8.321245620668447e-001	 1.122057806346918e+001
 2.795899994887949e+000	 8.593999177901556e-001	 1.125525555116839e+001
 2.787375058962319e+000	 8.866596194622503e-001	 1.128557798735761e+001
 2.778563095998066e+000	 9.138994045659219e-001	 1.131145781342867e+001
 2.769463414134377e+000	 9.411149759077886e-001	 1.133278306402733e+001
 2.760075403013765e+000	 9.683020033976790e-001	 1.134941668001423e+001
 2.750398535041075e+000	 9.954561258783168e-001	 1.136119586700406e+001
 2.740432366596330e+000	 1.022572953004148e+000	 1.136793150252227e+001
 2.730176539199392e+000	 1.049648067168086e+000	 1.136940759475710e+001
 2.719630780624395e+000	 1.076677025474828e+000	 1.136538079581039e+001
 2.836126926673104e+000	 8.117167337722308e-001	 1.116470424757197e+001
 2.828105673061239e+000	 8.392367378070784e-001	 1.119844627445593e+001
 2.819796576037104e+000	 8.667452162290449e-001	 1.122826630908954e+001
 2.811198777411681e+000	 8.942379068045109e-001	 1.125411261325293e+001
 2.802311498525101e+000	 9.217105105844986e-001	 1.127590897784558e+001
 2.793134041603211e+000	 9.491586936474777e-001	 1.129355395866551e+001
 2.783665791071792e+000	 9.765780888939598e-001	 1.130692015573496e+001
 2.773906214826328e+000	 1.003964297891819e+000	 1.131585353936574e+001
 2.763854865455219e+000	 1.031312892771182e+000	 1.132017282610704e+001
 2.753511381414393e+000	 1.058619418167635e+000	 1.131966890765535e+001
 2.742875488151270e+000	 1.085879393212413e+000	 1.131410433573125e+001
 2.860161900622463e+000	 8.185956891391486e-001	 1.114780651822567e+001
 2.852072670285467e+000	 8.463489135473123e-001	 1.117607810824936e+001
 2.843693157185278e+000	 8.740905146679343e-001	 1.120081282990203e+001
 2.835022495860088e+000	 9.018161941467714e-001	 1.122197134948320e+001
 2.826059901051216e+000	 9.295216166030753e-001	 1.123948904859873e+001
 2.816804669071168e+000	 9.572024113871669e-001	 1.125327522452254e+001
 2.807256179128995e+000	 9.848541743902404e-001	 1.126321233518629e+001
 2.797413894610822e+000	 1.012472469905322e+000	 1.126915529209652e+001
 2.787277364313423e+000	 1.040052832538216e+000	 1.127093080442731e+001
 2.776846223628796e+000	 1.067590769167185e+000	 1.126833677747258e+001
 2.766120195677642e+000	 1.095081760949999e+000	 1.126114176856505e+001
 2.884196874570821e+000	 8.254746445060665e-001	 1.113063014147586e+001
 2.876039667508701e+000	 8.534610892875464e-001	 1.115317867151763e+001
 2.867589738332473e+000	 8.814358131068238e-001	 1.117259159980596e+001
 2.858846214307540e+000	 9.093944814890325e-001	 1.118884226410430e+001
 2.849808303576409e+000	 9.373327226216522e-001	 1.120187788334751e+001
 2.840475296538247e+000	 9.652461291268561e-001	 1.121161872185210e+001
 2.830846567185376e+000	 9.931302598865214e-001	 1.121795729926058e+001
 2.820921574394556e+000	 1.020980641918824e+000	 1.122075764962729e+001
 2.810699863170943e+000	 1.048792772305250e+000	 1.121985463300138e+001
 2.800181065842599e+000	 1.076562120166735e+000	 1.121505330279725e+001
 2.789364903203508e+000	 1.104284128687585e+000	 1.120612833216459e+001
 2.556917827922116e+000	 1.012260451311729e+000	 1.170836895937933e+001
 2.546730253452309e+000	 1.037624699097835e+000	 1.171332173823419e+001
 2.536269829462126e+000	 1.062937134632405e+000	 1.172074085487412e+001
 2.525536549080854e+000	 1.088193521057849e+000	 1.173050060269540e+001
 2.514530490214018e+000	 1.113389605572321e+000	 1.174244604811256e+001
 2.503251816328118e+000	 1.138521121482225e+000	 1.175639266720113e+001
 2.491700777177656e+000	 1.163583790289264e+000	 1.178627509949154e+001
 2.479877709472937e+000	 1.188573323810186e+000	 1.182570912339541e+001
 2.467783037487111e+000	 1.213485426327355e+000	 1.187007333771158e+001
 2.455417273601035e+000	 1.238315796768148e+000	 1.192006175585289e+001
 2.442781018784593e+000	 1.263060130911157e+000	 1.180899678090801e+001
 2.580162535452529e+000	 1.021462819049315e+000	 1.165842896780659e+001
 2.569882346669243e+000	 1.047057650906575e+000	 1.166850034519670e+001
 2.559326827915428e+000	 1.072600199491755e+000	 1.168230757931788e+001
 2.548495972257905e+000	 1.098086189430378e+000	 1.169975763632592e+001
 2.537389858310435e+000	 1.123511329258761e+000	 1.172072676865363e+001
 2.526008651025578e+000	 1.148871313495186e+000	 1.174506009564783e+001
 2.514352602428330e+000	 1.174161824745914e+000	 1.177257124817022e+001
 2.502422052289999e+000	 1.199378535844211e+000	 1.180304207941770e+001
 2.490217428740764e+000	 1.224517112020460e+000	 1.185365879505732e+001
 2.477739248819490e+000	 1.249573213101379e+000	 1.191484503676510e+001
 2.464988118959423e+000	 1.274542495736273e+000	 1.167199620280995e+001
 2.603407242982436e+000	 1.030665186786900e+000	 1.160944242493231e+001
 2.593034439885761e+000	 1.056490602715315e+000	 1.162533798045966e+001
 2.582383826368383e+000	 1.082263264351105e+000	 1.164623993397782e+001
 2.571455395434662e+000	 1.107978857802907e+000	 1.167208751544638e+001
 2.560249226406592e+000	 1.133633052945201e+000	 1.170278773567936e+001
 2.548765485722786e+000	 1.159221505508146e+000	 1.173821491104634e+001
 2.537004427678744e+000	 1.184739859202564e+000	 1.177821025414934e+001
 2.524966395106772e+000	 1.210183747878236e+000	 1.182258153286988e+001
 2.512651819994080e+000	 1.235548797713565e+000	 1.187110280003160e+001
 2.500061224037538e+000	 1.260830629434609e+000	 1.178684168354796e+001
 2.487195219133758e+000	 1.286024860561388e+000	 1.155224217184679e+001
 2.626651950511838e+000	 1.039867554524486e+000	 1.156102203433570e+001
 2.616186533101865e+000	 1.065923554524055e+000	 1.158342036563306e+001
 2.605440824820995e+000	 1.091926329210455e+000	 1.161209729479792e+001
 2.594414818611126e+000	 1.117871526175435e+000	 1.164702392153696e+001
 2.583108594502486e+000	 1.143754776631642e+000	 1.168813760191075e+001
 2.571522320419746e+000	 1.169571697521107e+000	 1.173534141715054e+001
 2.559656252928899e+000	 1.195317893659214e+000	 1.178850371050234e+001
 2.547510737923258e+000	 1.220988959912260e+000	 1.184745769463244e+001
 2.535086211247058e+000	 1.246580483406670e+000	 1.191200113197525e+001
 2.522383199255180e+000	 1.272088045767840e+000	 1.170582206623637e+001
 2.509402319307596e+000	 1.297507225386504e+000	 1.146616725892674e+001
 2.649896658040735e+000	 1.049069922262071e+000	 1.151278415707754e+001
 2.639338626317554e+000	 1.075356506332795e+000	 1.154233771665674e+001
 2.628497823273262e+000	 1.101589394069805e+000	 1.157944435536441e+001
 2.617374241787298e+000	 1.127764194547964e+000	 1.162410666304253e+001
 2.605967962598117e+000	 1.153876500318082e+000	 1.167629194191597e+001
 2.594279155116453e+000	 1.179921889534068e+000	 1.173593161955918e+001
 2.582308078178795e+000	 1.205895928115864e+000	 1.180292073198168e+001
 2.570055080739456e+000	 1.231794171946284e+000	 1.187711747950706e+001
 2.557520602499700e+000	 1.257612169099775e+000	 1.186372968591940e+001
 2.544705174472415e+000	 1.283345462101070e+000	 1.163383000500313e+001
 2.531609419480937e+000	 1.308989590211620e+000	 1.141469189634719e+001
 2.673141365569126e+000	 1.058272289999657e+000	 1.146434865267930e+001
 2.662490719532829e+000	 1.084789458141534e+000	 1.150168454839467e+001
 2.651554821725185e+000	 1.111252458929155e+000	 1.154785089570397e+001
 2.640333664963176e+000	 1.137656862920493e+000	 1.160288140898287e+001
 2.628827330693487e+000	 1.163998224004522e+000	 1.166677295116051e+001
 2.617035989812912e+000	 1.190272081547028e+000	 1.173948489085309e+001
 2.604959903428432e+000	 1.216473962572514e+000	 1.182093853174850e+001
 2.592599423555366e+000	 1.242599383980309e+000	 1.191101661705788e+001
 2.579954993752005e+000	 1.268643854792879e+000	 1.178041319850847e+001
 2.567027149689245e+000	 1.294602878434300e+000	 1.157050030193649e+001
 2.553816519653783e+000	 1.320471955036735e+000	 1.137262276025686e+001
 2.696386073097013e+000	 1.067474657737242e+000	 1.141533872832735e+001
 2.685642812747688e+000	 1.094222409950274e+000	 1.146105948933662e+001
 2.674611820176765e+000	 1.120915523788505e+000	 1.151689156304061e+001
 2.663293088138761e+000	 1.147549531293021e+000	 1.158289943634170e+001
 2.651686698788596e+000	 1.174119947690962e+000	 1.165910916062367e+001
 2.639792824509119e+000	 1.200622273559988e+000	 1.174550765305282e+001
 2.627611728677810e+000	 1.227051997029165e+000	 1.184204207230345e+001
 2.615143766370987e+000	 1.253404596014333e+000	 1.190711525912979e+001
 2.602389385003972e+000	 1.279675540485985e+000	 1.170466661313822e+001
 2.589349124905668e+000	 1.305860294767531e+000	 1.151547752006463e+001
 2.576023619826133e+000	 1.331954319861851e+000	 1.133958673735065e+001
 2.719630780624395e+000	 1.076677025474828e+000	 1.136538079581039e+001
 2.708794905962132e+000	 1.103655361759014e+000	 1.142006510580206e+001
 2.697668818627999e+000	 1.130578588647855e+000	 1.148614566379579e+001
 2.686252511314053e+000	 1.157442199665550e+000	 1.156371739041011e+001
 2.674546066883441e+000	 1.184241671377402e+000	 1.165283516605007e+001
 2.662549659205076e+000	 1.210972465572949e+000	 1.175351307636059e+001
 2.650263553926928e+000	 1.237630031485815e+000	 1.186572373431818e+001
 2.637688109186321e+000	 1.264209808048358e+000	 1.181839824044947e+001
 2.624823776255603e+000	 1.290707226179089e+000	 1.163616140639754e+001
 2.611671100121684e+000	 1.317117711100762e+000	 1.146841556622128e+001
 2.598230719997987e+000	 1.343436684686967e+000	 1.131522067066740e+001
 2.742875488151270e+000	 1.085879393212413e+000	 1.131410433573125e+001
 2.731946999176162e+000	 1.113088313567753e+000	 1.137830773508305e+001
 2.720725817078891e+000	 1.140241653507206e+000	 1.145519696616479e+001
 2.709211934489051e+000	 1.167334868038079e+000	 1.154489705731582e+001
 2.697405434978026e+000	 1.194363395063842e+000	 1.164749137096811e+001
 2.685306493900782e+000	 1.221322657585909e+000	 1.176302079322029e+001
 2.672915379175788e+000	 1.248208065942465e+000	 1.189148300230615e+001
 2.660232452001367e+000	 1.275015020082382e+000	 1.173589059188992e+001
 2.647258167506898e+000	 1.301738911872195e+000	 1.157457740189309e+001
 2.633993075337294e+000	 1.328375127433993e+000	 1.142897729512191e+001
 2.620437820169345e+000	 1.354919049512082e+000	 1.129917093771075e+001
 2.766120195677642e+000	 1.095081760949999e+000	 1.126114176856505e+001
 2.755099092389776e+000	 1.122521265376493e+000	 1.133539732699994e+001
 2.743782815529437e+000	 1.149904718366555e+000	 1.142363351264719e+001
 2.732171357663757e+000	 1.177227536410608e+000	 1.152600514802177e+001
 2.720264803072348e+000	 1.204485118750283e+000	 1.164262374266542e+001
 2.708063328596238e+000	 1.231672849598870e+000	 1.177355662679483e+001
 2.695567204424388e+000	 1.258786100399115e+000	 1.181579101138956e+001
 2.682776794816125e+000	 1.285820232116407e+000	 1.165929699563103e+001
 2.669692558757854e+000	 1.312770597565299e+000	 1.151960241953407e+001
 2.656315050552499e+000	 1.339632543767223e+000	 1.139683413340223e+001
 2.642644920340206e+000	 1.366401414337198e+000	 1.129109304984153e+001
 2.789364903203508e+000	 1.104284128687585e+000	 1.120612833216459e+001
 2.778251185602976e+000	 1.131954217185233e+000	 1.129094729337945e+001
 2.766839813979641e+000	 1.159567783225906e+000	 1.139104744195095e+001
 2.755130780838170e+000	 1.187120204783136e+000	 1.150661309312456e+001
 2.743124171166409e+000	 1.214606842436723e+000	 1.163778358036559e+001
 2.730820163291444e+000	 1.242023041611831e+000	 1.178465233301943e+001
 2.718219029672730e+000	 1.269364134855765e+000	 1.172370977566580e+001
 2.705321137630596e+000	 1.296625444150432e+000	 1.158832923255053e+001
 2.692126950008475e+000	 1.323802283258404e+000	 1.147093194235312e+001
 2.678637025767297e+000	 1.350889960100454e+000	 1.137166572245488e+001
 2.664852020510573e+000	 1.377883779162314e+000	 1.129065127170028e+001
 2.442781018784593e+000	 1.263060130911157e+000	 1.180899678090801e+001
 2.429874963012998e+000	 1.287714123616817e+000	 1.179109968712343e+001
 2.416699885617485e+000	 1.312273471080953e+000	 1.177909684420301e+001
 2.403256655568767e+000	 1.336733873108761e+000	 1.177311932244792e+001
 2.389546231691873e+000	 1.361091035406278e+000	 1.177328872532115e+001
 2.375569662812050e+000	 1.385340671887671e+000	 1.177971713971266e+001
 2.361328087830620e+000	 1.409478506995771e+000	 1.179250710724483e+001
 2.346822735730043e+000	 1.433500278033387e+000	 1.181175161672787e+001
 2.332054925507497e+000	 1.457401737502925e+000	 1.183753411781054e+001
 2.317026066036402e+000	 1.481178655451782e+000	 1.186992855580824e+001
 2.301737655855408e+000	 1.504826821820936e+000	 1.190899942762472e+001
 2.464988118959423e+000	 1.274542495736273e+000	 1.167199620280995e+001
 2.451964735408257e+000	 1.299420615648048e+000	 1.166993303604124e+001
 2.438669884582033e+000	 1.324203229907142e+000	 1.167236946092965e+001
 2.425104443351200e+000	 1.348885999226073e+000	 1.167937067027527e+001
 2.411269379257375e+000	 1.373464590271839e+000	 1.169099307671177e+001
 2.397165750660582e+000	 1.397934677994195e+000	 1.170728434209740e+001
 2.382794706815789e+000	 1.422291947967267e+000	 1.172828342802175e+001
 2.368157487878027e+000	 1.446532098742073e+000	 1.175402066740197e+001
 2.353255424835356e+000	 1.470650844207406e+000	 1.178451785707623e+001
 2.338089939369135e+000	 1.494643915956548e+000	 1.181978837123622e+001
 2.322662543641093e+000	 1.518507065657215e+000	 1.185983729547398e+001
 2.487195219133758e+000	 1.286024860561388e+000	 1.155224217184679e+001
 2.474054507802924e+000	 1.311127107679275e+000	 1.156441761025604e+001
 2.460639883545905e+000	 1.336132988733313e+000	 1.157972710639955e+001
 2.446952231132881e+000	 1.361038125343341e+000	 1.159817069361976e+001
 2.432992526822060e+000	 1.385838145137323e+000	 1.161974029389570e+001
 2.418761838508240e+000	 1.410528684100595e+000	 1.164441982569256e+001
 2.404261325800040e+000	 1.435105388938584e+000	 1.167218533302389e+001
 2.389492240025056e+000	 1.459563919450516e+000	 1.170300513556471e+001
 2.374455924162235e+000	 1.483899950911571e+000	 1.173683999958713e+001
 2.359153812700872e+000	 1.508109176460913e+000	 1.177364332942117e+001
 2.343587431425777e+000	 1.532187309492996e+000	 1.181336137907581e+001
 2.509402319307596e+000	 1.297507225386504e+000	 1.146616725892674e+001
 2.496144280197001e+000	 1.322833599710497e+000	 1.147423504052545e+001
 2.482609882509102e+000	 1.348062747559464e+000	 1.150089368159062e+001
 2.468800018913809e+000	 1.373190251460564e+000	 1.152928491358532e+001
 2.454715674385928e+000	 1.398211700002727e+000	 1.155933684438673e+001
 2.440357926355026e+000	 1.423122690206871e+000	 1.159097030731708e+001
 2.425727944783373e+000	 1.447918829909723e+000	 1.162409906813809e+001
 2.410826992171133e+000	 1.472595740158717e+000	 1.165863005308108e+001
 2.395656423488133e+000	 1.497149057615417e+000	 1.169446359754727e+001
 2.380217686031613e+000	 1.521574436964875e+000	 1.173149371504385e+001
 2.364512319209461e+000	 1.545867553328280e+000	 1.176960838585171e+001
 2.531609419480937e+000	 1.308989590211620e+000	 1.141469189634719e+001
 2.518234052590487e+000	 1.334540091741714e+000	 1.143177956520978e+001
 2.504579881471621e+000	 1.359992506385595e+000	 1.144455398170066e+001
 2.490647806693987e+000	 1.385342377577744e+000	 1.147248587912144e+001
 2.476438821948977e+000	 1.410585254868052e+000	 1.150959482878823e+001
 2.461954014200937e+000	 1.435716696313024e+000	 1.154678676861425e+001
 2.447194563765786e+000	 1.460732270880685e+000	 1.158391380305138e+001
 2.432161744316254e+000	 1.485627560866675e+000	 1.162082206257016e+001
 2.416856922813053e+000	 1.510398164318945e+000	 1.165735202957035e+001
 2.401281559361361e+000	 1.535039697468434e+000	 1.169333888426188e+001
 2.385437206992146e+000	 1.559547797163067e+000	 1.172861286987346e+001
 2.553816519653783e+000	 1.320471955036735e+000	 1.137262276025686e+001
 2.540323824983382e+000	 1.346246583772926e+000	 1.140482970274126e+001
 2.526549880433464e+000	 1.371922265211707e+000	 1.143146607692752e+001
 2.512495594473411e+000	 1.397494503694878e+000	 1.145213044405574e+001
 2.498161969511209e+000	 1.422958809733298e+000	 1.147033173587590e+001
 2.483550102045977e+000	 1.448310702419053e+000	 1.151172427062464e+001
 2.468661182747280e+000	 1.473545711851467e+000	 1.155152150412927e+001
 2.453496496460421e+000	 1.498659381574389e+000	 1.158950934737223e+001
 2.438057422136992e+000	 1.523647271022156e+000	 1.162546898648801e+001
 2.422345432690113e+000	 1.548504957971591e+000	 1.165917730508014e+001
 2.406362094773829e+000	 1.573228040997356e+000	 1.169040732548694e+001
 2.576023619826133e+000	 1.331954319861851e+000	 1.133958673735065e+001
 2.562413597375686e+000	 1.357953075804133e+000	 1.138555111526885e+001
 2.548519879394631e+000	 1.383852024037798e+000	 1.142471632369429e+001
 2.534343382252085e+000	 1.409646629811968e+000	 1.145661531154194e+001
 2.519885117072623e+000	 1.435332364598465e+000	 1.148077239688842e+001
 2.505146189890143e+000	 1.460904708524959e+000	 1.149670379645539e+001
 2.490127801727858e+000	 1.486359152822072e+000	 1.152681681386923e+001
 2.474831248603635e+000	 1.511691202281862e+000	 1.156462156513844e+001
 2.459257921459952e+000	 1.536896377725050e+000	 1.159877845789216e+001
 2.443409306017870e+000	 1.561970218474346e+000	 1.162900659563334e+001
 2.427286982554514e+000	 1.586908284831148e+000	 1.165502227609347e+001
 2.598230719997987e+000	 1.343436684686967e+000	 1.131522067066740e+001
 2.584503369767397e+000	 1.369659567835335e+000	 1.137361734620374e+001
 2.570489878355120e+000	 1.395781782863870e+000	 1.142401445068486e+001
 2.556191170030005e+000	 1.421798755929014e+000	 1.146587993034506e+001
 2.541608264633220e+000	 1.447705919463553e+000	 1.149867356504194e+001
 2.526742277733436e+000	 1.473498714630740e+000	 1.152184757313828e+001
 2.511594420707515e+000	 1.499172593792499e+000	 1.153484724670662e+001
 2.496166000745893e+000	 1.524723022989091e+000	 1.154608978482603e+001
 2.480458420781933e+000	 1.550145484427626e+000	 1.157724471936743e+001
 2.464473179344633e+000	 1.575435478976698e+000	 1.160282356050524e+001
 2.448211870334198e+000	 1.600588528664443e+000	 1.162248635837819e+001
 2.620437820169345e+000	 1.354919049512082e+000	 1.129917093771075e+001
 2.606593142158518e+000	 1.381366059866532e+000	 1.136871024033906e+001
 2.592459877314934e+000	 1.407711541689923e+000	 1.142907727516497e+001
 2.578038957807174e+000	 1.433950882046016e+000	 1.147967557579138e+001
 2.563331412193000e+000	 1.460079474328562e+000	 1.151990095487668e+001
 2.548338365575856e+000	 1.486092720736399e+000	 1.154914218381969e+001
 2.533061039686253e+000	 1.511986034762747e+000	 1.156678170320523e+001
 2.517500752887198e+000	 1.537754843696077e+000	 1.157219636311934e+001
 2.501658920102934e+000	 1.563394591129884e+000	 1.156475819234071e+001
 2.485537052670400e+000	 1.588900739478647e+000	 1.158062422520107e+001
 2.469136758112883e+000	 1.614268772497240e+000	 1.159282640225567e+001
 2.642644920340206e+000	 1.366401414337198e+000	 1.129109304984153e+001
 2.628682914549048e+000	 1.393072551897724e+000	 1.137051959505230e+001
 2.614429876274071e+000	 1.419641300515955e+000	 1.143962840514273e+001
 2.599886745583592e+000	 1.446103008162973e+000	 1.149775917216759e+001
 2.585054559751962e+000	 1.472453029193492e+000	 1.154424429377598e+001
 2.569934453417402e+000	 1.498686726841934e+000	 1.157840962712225e+001
 2.554527658664074e+000	 1.524799475732817e+000	 1.159957527399961e+001
 2.538835505027548e+000	 1.550786664402821e+000	 1.160705639618441e+001
 2.522859419422954e+000	 1.576643697831824e+000	 1.160016405987321e+001
 2.506600925995174e+000	 1.602365999980195e+000	 1.157820610798974e+001
 2.490061645890567e+000	 1.627949016329540e+000	 1.156606750678463e+001
 2.664852020510573e+000	 1.377883779162314e+000	 1.129065127170028e+001
 2.650772686938987e+000	 1.404779043928912e+000	 1.137874282894763e+001
 2.636399875232532e+000	 1.431571059341969e+000	 1.145539795642093e+001
 2.621734533359258e+000	 1.458255134279886e+000	 1.151989305734744e+001
 2.606777707310107e+000	 1.484826584058343e+000	 1.157149764832217e+001
 2.591530541258077e+000	 1.511280732947345e+000	 1.160947518688559e+001
 2.575994277640976e+000	 1.537612916702709e+000	 1.163308393081014e+001
 2.560170257166945e+000	 1.563818485109321e+000	 1.164157782796425e+001
 2.544059918741997e+000	 1.589892804533448e+000	 1.163420743551226e+001
 2.527664799318953e+000	 1.615831260481341e+000	 1.161022086710197e+001
 2.510986533667252e+000	 1.641629260161343e+000	 1.156886476658486e+001
 2.301737655855408e+000	 1.504826821820936e+000	 1.190899942762472e+001
 2.286191282884384e+000	 1.528342048794389e+000	 1.188054400357020e+001
 2.270388624067453e+000	 1.551720173146155e+000	 1.185007844167421e+001
 2.254331444942703e+000	 1.574957058582615e+000	 1.181753633071777e+001
 2.238021599138304e+000	 1.598048598078016e+000	 1.178285081459771e+001
 2.221461027795396e+000	 1.620990716199806e+000	 1.174595491415633e+001
 2.204651758917846e+000	 1.643779371421331e+000	 1.170678185758325e+001
 2.187595906649108e+000	 1.666410558419238e+000	 1.166526541851683e+001
 2.170295670476613e+000	 1.688880310352928e+000	 1.162134026093403e+001
 2.152753334364160e+000	 1.711184701123380e+000	 1.157494228988146e+001
 2.134971265812936e+000	 1.733319847608720e+000	 1.152600900706720e+001
 2.322662543641093e+000	 1.518507065657215e+000	 1.185983729547398e+001
 2.306974840006722e+000	 1.542236067422203e+000	 1.182998811526606e+001
 2.291028520655076e+000	 1.565826720177869e+000	 1.179906548100913e+001
 2.274825367174592e+000	 1.589274850027924e+000	 1.176702206652330e+001
 2.258367250044602e+000	 1.612576312610017e+000	 1.173380917321663e+001
 2.241656128052988e+000	 1.635726995442207e+000	 1.169937703343604e+001
 2.224694047640011e+000	 1.658722820256689e+000	 1.166367512371186e+001
 2.207483142168612e+000	 1.681559745318081e+000	 1.162665248705276e+001
 2.190025631121565e+000	 1.704233767723595e+000	 1.158825806340513e+001
 2.172323819225973e+000	 1.726740925682399e+000	 1.154844102735174e+001
 2.154380095505764e+000	 1.749077300771513e+000	 1.150715113208868e+001
 2.343587431425777e+000	 1.532187309492996e+000	 1.181336137907581e+001
 2.327758397128064e+000	 1.556130086049429e+000	 1.178277944569984e+001
 2.311668417241718e+000	 1.579933267208925e+000	 1.175204583699369e+001
 2.295319289405525e+000	 1.603592641472524e+000	 1.172113177832123e+001
 2.278712900949981e+000	 1.627104027141278e+000	 1.169000619975752e+001
 2.261851228309703e+000	 1.650463274683859e+000	 1.165863602160612e+001
 2.244736336361354e+000	 1.673666269091308e+000	 1.162698645113414e+001
 2.227370377687361e+000	 1.696708932216214e+000	 1.159502128970864e+001
 2.209755591765835e+000	 1.719587225093601e+000	 1.156270324947287e+001
 2.191894304087190e+000	 1.742297150240827e+000	 1.152999427865802e+001
 2.173788925198088e+000	 1.764834753933805e+000	 1.149685589458751e+001
 2.364512319209461e+000	 1.545867553328280e+000	 1.176960838585171e+001
 2.348541954248410e+000	 1.570024104676068e+000	 1.173893892108400e+001
 2.332308313827381e+000	 1.594039814239324e+000	 1.170902513851753e+001
 2.315813211635502e+000	 1.617910432916416e+000	 1.167985628863415e+001
 2.299058551854437e+000	 1.641631741671800e+000	 1.165141840809392e+001
 2.282046328565542e+000	 1.665199553924760e+000	 1.162369458805811e+001
 2.264778625081876e+000	 1.688609717925187e+000	 1.159666525505626e+001
 2.247257613205353e+000	 1.711858119113636e+000	 1.157030846360654e+001
 2.229485552409424e+000	 1.734940682462945e+000	 1.154460019975093e+001
 2.211464788947810e+000	 1.757853374798664e+000	 1.151951469462089e+001
 2.193197754889913e+000	 1.780592207095596e+000	 1.149502474710696e+001
 2.385437206992146e+000	 1.559547797163067e+000	 1.172861286987346e+001
 2.369325511367762e+000	 1.583918123302120e+000	 1.169848592279181e+001
 2.352948210412062e+000	 1.608146361269064e+000	 1.167000806270503e+001
 2.336307133864524e+000	 1.632228224359600e+000	 1.164318604552897e+001
 2.319404202757974e+000	 1.656159456201584e+000	 1.161802249886975e+001
 2.302241428820505e+000	 1.679935833164913e+000	 1.159451617378612e+001
 2.284820913801577e+000	 1.703553166758325e+000	 1.157266221042413e+001
 2.267144848722589e+000	 1.727007306010347e+000	 1.155245241675888e+001
 2.249215513052332e+000	 1.750294139831629e+000	 1.153387555962584e+001
 2.231035273807834e+000	 1.773409599355910e+000	 1.151691766717679e+001
 2.212606584581236e+000	 1.796349660256885e+000	 1.150156234184836e+001
 2.406362094773829e+000	 1.573228040997356e+000	 1.169040732548694e+001
 2.390109068486118e+000	 1.597812141927584e+000	 1.166143835452412e+001
 2.373588106995765e+000	 1.622252908298146e+000	 1.163499837629637e+001
 2.356801056092591e+000	 1.646546015802075e+000	 1.161111113889754e+001
 2.339749853660591e+000	 1.670687170730628e+000	 1.158979535137881e+001
 2.322436529074593e+000	 1.694672112404316e+000	 1.157106491957786e+001
 2.304863202520458e+000	 1.718496615590724e+000	 1.155492919715196e+001
 2.287032084239069e+000	 1.742156492906349e+000	 1.154139325107314e+001
 2.268945473694559e+000	 1.765647597199652e+000	 1.153045814078867e+001
 2.250605758667262e+000	 1.788965823912565e+000	 1.152212121019902e+001
 2.232015414272057e+000	 1.812107113417673e+000	 1.151637639155565e+001
 2.427286982554514e+000	 1.586908284831148e+000	 1.165502227609347e+001
 2.410892625603480e+000	 1.611706160552461e+000	 1.162781270600219e+001
 2.394228003578486e+000	 1.636359455326572e+000	 1.160399897488819e+001
 2.377294978319703e+000	 1.660863807243842e+000	 1.158362131589533e+001
 2.360095504562287e+000	 1.685214885258934e+000	 1.156671401586436e+001
 2.342631629327805e+000	 1.709408391642969e+000	 1.155330563585121e+001
 2.324905491238517e+000	 1.733440064422382e+000	 1.154341924818401e+001
 2.306919319754793e+000	 1.757305679801639e+000	 1.153707268933921e+001
 2.288675434336104e+000	 1.781001054567014e+000	 1.153427882785976e+001
 2.270176243526094e+000	 1.804522048468628e+000	 1.153504584648326e+001
 2.251424243962378e+000	 1.827864566577960e+000	 1.153937753759535e+001
 2.448211870334198e+000	 1.600588528664443e+000	 1.162248635837819e+001
 2.431676182719846e+000	 1.625600179176749e+000	 1.159762411339423e+001
 2.414867900160228e+000	 1.650466002354339e+000	 1.157701192016199e+001
 2.397788900545858e+000	 1.675181598684901e+000	 1.156070599558821e+001
 2.380441155463061e+000	 1.699742599786501e+000	 1.154875570621362e+001
 2.362826729580142e+000	 1.724144670880873e+000	 1.154120377403758e+001
 2.344947779955756e+000	 1.748383513253301e+000	 1.153808650021983e+001
 2.326806555269760e+000	 1.772454866696219e+000	 1.153943400596083e+001
 2.308405394976968e+000	 1.796354511933715e+000	 1.154527048980206e+001
 2.289746728384329e+000	 1.820078273024100e+000	 1.155561450052868e+001
 2.270833073652197e+000	 1.843622019737746e+000	 1.157047922480182e+001
 2.469136758112883e+000	 1.614268772497240e+000	 1.159282640225567e+001
 2.452459739835218e+000	 1.639494197800451e+000	 1.157088641666926e+001
 2.435507796740989e+000	 1.664572549381447e+000	 1.155403847521951e+001
 2.418282822771060e+000	 1.689499390125252e+000	 1.154235428285462e+001
 2.400786806362917e+000	 1.714270314313329e+000	 1.153589779302366e+001
 2.383021829831603e+000	 1.738880950118027e+000	 1.153472539942019e+001
 2.364990068672173e+000	 1.763326962083479e+000	 1.153888614694489e+001
 2.346693790783973e+000	 1.787604053590088e+000	 1.154842196120928e+001
 2.328135355617151e+000	 1.811707969299755e+000	 1.156336789583876e+001
 2.309317213241968e+000	 1.835634497578981e+000	 1.158375239677075e+001
 2.290241903341514e+000	 1.859379472897029e+000	 1.160959758268617e+001
 2.490061645890567e+000	 1.627949016329540e+000	 1.156606750678463e+001
 2.473243296949594e+000	 1.653388216423565e+000	 1.154761221405928e+001
 2.456147693320770e+000	 1.678679096407899e+000	 1.153507913813649e+001
 2.438776744995305e+000	 1.703817181564894e+000	 1.152855498158663e+001
 2.421132457261850e+000	 1.728798028839418e+000	 1.152811779701700e+001
 2.403216930082187e+000	 1.753617229354432e+000	 1.153383716534214e+001
 2.385032357387770e+000	 1.778270410912917e+000	 1.154577439461953e+001
 2.366581026297427e+000	 1.802753240483247e+000	 1.156398273879202e+001
 2.347865316256653e+000	 1.827061426665134e+000	 1.158850763561045e+001
 2.328887698099011e+000	 1.851190722133270e+000	 1.161938696294539e+001
 2.309650733030330e+000	 1.875136926055812e+000	 1.165565690370576e+001
 2.510986533667252e+000	 1.641629260161343e+000	 1.156886476658486e+001
 2.494026854062975e+000	 1.667282235046092e+000	 1.152781291379836e+001
 2.476787589899573e+000	 1.692785643433693e+000	 1.152013367383880e+001
 2.459270667218596e+000	 1.718134973003828e+000	 1.151929660723112e+001
 2.441478108159864e+000	 1.743325743364768e+000	 1.152539338278633e+001
 2.423412030331897e+000	 1.768353508590087e+000	 1.153850628870375e+001
 2.405074646102547e+000	 1.793213859741615e+000	 1.155870841988824e+001
 2.386468261810128e+000	 1.817902427375695e+000	 1.158606388654274e+001
 2.367595276895474e+000	 1.842414884029852e+000	 1.162062804332439e+001
 2.348458182955458e+000	 1.866746946686970e+000	 1.166244773828465e+001
 2.329059562718645e+000	 1.890894379214094e+000	 1.159716882162048e+001
 2.134971265812936e+000	 1.733319847608720e+000	 1.152600900706720e+001
 2.116951914852261e+000	 1.755281911873847e+000	 1.150757447236460e+001
 2.098697812959695e+000	 1.777067103351779e+000	 1.150437085411419e+001
 2.080211571912335e+000	 1.798671680993865e+000	 1.151639418340609e+001
 2.061495882571019e+000	 1.820091955386313e+000	 1.154362662394245e+001
 2.042553513597452e+000	 1.841324290830751e+000	 1.158603674824009e+001
 2.023387310105893e+000	 1.862365107386282e+000	 1.164357983476892e+001
 2.004000192250767e+000	 1.883210882870655e+000	 1.165134096669781e+001
 1.984395153751670e+000	 1.903858154818206e+000	 1.157615272169115e+001
 1.964575260357303e+000	 1.924303522392291e+000	 1.151762626426407e+001
 1.944543648250000e+000	 1.944543648250000e+000	 1.147536664594126e+001
 2.154380095505764e+000	 1.749077300771513e+000	 1.150715113208868e+001
 2.136196932263273e+000	 1.771239020165651e+000	 1.149783812551585e+001
 2.117776883989519e+000	 1.793222258838262e+000	 1.150342306282168e+001
 2.099122586205026e+000	 1.815023241731164e+000	 1.152388443962479e+001
 2.080236754233004e+000	 1.836638245890440e+000	 1.155918704823995e+001
 2.061122181904812e+000	 1.858063602565916e+000	 1.160928228013495e+001
 2.041781740199380e+000	 1.879295699271775e+000	 1.164071865582260e+001
 2.022218375817995e+000	 1.900330981805929e+000	 1.155717817417980e+001
 2.002435109695884e+000	 1.921165956225753e+000	 1.149032563455153e+001
 1.982435035452192e+000	 1.941797190777907e+000	 1.143975913816278e+001
 1.962221317780000e+000	 1.962221317780000e+000	 1.140505801598165e+001
 2.173788925198088e+000	 1.764834753933805e+000	 1.149685589458751e+001
 2.155441949673878e+000	 1.787196128457048e+000	 1.149642895535708e+001
 2.136855955019020e+000	 1.809377414324423e+000	 1.151057184012069e+001
 2.118033600497471e+000	 1.831374802468217e+000	 1.153924542147379e+001
 2.098977625894810e+000	 1.853184536394388e+000	 1.158239702839178e+001
 2.079690850212046e+000	 1.874802914300954e+000	 1.163996077519547e+001
 2.060176170292788e+000	 1.896226291157187e+000	 1.154974975414078e+001
 2.040436559385178e+000	 1.917451080741156e+000	 1.147478467716042e+001
 2.020475065640079e+000	 1.938473757633280e+000	 1.141616819316647e+001
 2.000294810547076e+000	 1.959290859163518e+000	 1.137347242576307e+001
 1.979898987310000e+000	 1.979898987310000e+000	 1.134625067163195e+001
 2.193197754889913e+000	 1.780592207095596e+000	 1.149502474710696e+001
 2.174686967084077e+000	 1.803153236748038e+000	 1.150325697601042e+001
 2.155935026048202e+000	 1.825532569810264e+000	 1.152573564323244e+001
 2.136944614789670e+000	 1.847726363205024e+000	 1.156240390472000e+001
 2.117718497556434e+000	 1.869730826898153e+000	 1.161319152814111e+001
 2.098259518519155e+000	 1.891542226035867e+000	 1.155330055622430e+001
 2.078570600386115e+000	 1.913156883042519e+000	 1.147035508138210e+001
 2.058654742952317e+000	 1.934571179676340e+000	 1.140386380858832e+001
 2.038515021584253e+000	 1.955781559040786e+000	 1.135339248397056e+001
 2.018154585641954e+000	 1.976784527549124e+000	 1.131848694629153e+001
 1.997576656840000e+000	 1.997576656840000e+000	 1.129867413676129e+001
 2.212606584581236e+000	 1.796349660256885e+000	 1.150156234184836e+001
 2.193931984493869e+000	 1.819110345038622e+000	 1.151823516722514e+001
 2.175014097077062e+000	 1.841687725295783e+000	 1.154883566579149e+001
 2.155855629081623e+000	 1.864077923941585e+000	 1.159328917726385e+001
 2.136459369217878e+000	 1.886277117401738e+000	 1.156737995001314e+001
 2.116828186826138e+000	 1.908281537770655e+000	 1.147650430588436e+001
 2.096965030479361e+000	 1.930087474927769e+000	 1.140223107373923e+001
 2.076872926519410e+000	 1.951691278611478e+000	 1.134412056799902e+001
 2.056554977528407e+000	 1.973089360448274e+000	 1.130171206202206e+001
 2.036014360736829e+000	 1.994278195934725e+000	 1.127452479520538e+001
 2.015254326370000e+000	 2.015254326370001e+000	 1.126205902474052e+001
 2.232015414272057e+000	 1.812107113417673e+000	 1.151637639155565e+001
 2.213177001903255e+000	 1.835067453328800e+000	 1.154127934543745e+001
 2.194093168105600e+000	 1.857842880780981e+000	 1.157979571887126e+001
 2.174766643373330e+000	 1.880429484677900e+000	 1.159165559157404e+001
 2.155200240879140e+000	 1.902823407905142e+000	 1.149281780751639e+001
 2.135396855132995e+000	 1.925020849505317e+000	 1.141077261482249e+001
 2.115359460572527e+000	 1.947018066812940e+000	 1.134507595612174e+001
 2.095091110086457e+000	 1.968811377546571e+000	 1.129526154905446e+001
 2.074594933472542e+000	 1.990397161855740e+000	 1.126084188714979e+001
 2.053874135831698e+000	 2.011771864320321e+000	 1.124130928870416e+001
 2.032931995899999e+000	 2.032931995899999e+000	 1.123613699107256e+001
 2.251424243962378e+000	 1.827864566577960e+000	 1.153937753759535e+001
 2.232422019312235e+000	 1.851024561618572e+000	 1.157230804149943e+001
 2.213172239133817e+000	 1.873998036265857e+000	 1.161854211816342e+001
 2.193677657664791e+000	 1.896781045413970e+000	 1.151900101785054e+001
 2.173941112540222e+000	 1.919369698408366e+000	 1.142911079305059e+001
 2.153965523439727e+000	 1.941760161239853e+000	 1.135579724648650e+001
 2.133753890665613e+000	 1.963948658698031e+000	 1.129858966505604e+001
 2.113309293653459e+000	 1.985931476481618e+000	 1.125699487083073e+001
 2.092634889416656e+000	 2.007704963263187e+000	 1.123049826340258e+001
 2.071733910926561e+000	 2.029265532705912e+000	 1.121856491111161e+001
 2.050609665430000e+000	 2.050609665430000e+000	 1.122064068847288e+001
 2.270833073652197e+000	 1.843622019737746e+000	 1.157047922480182e+001
 2.251667036720809e+000	 1.866981669907937e+000	 1.161124238467840e+001
 2.232251310161714e+000	 1.890153191750413e+000	 1.155488105669549e+001
 2.212588671956006e+000	 1.913132606149792e+000	 1.145698964407042e+001
 2.192681984201123e+000	 1.935915988911408e+000	 1.137594452240995e+001
 2.172534191746333e+000	 1.958499472974264e+000	 1.131127178574653e+001
 2.152148320758619e+000	 1.980879250583041e+000	 1.126247377553951e+001
 2.131527477220416e+000	 2.003051575416620e+000	 1.122903011262938e+001
 2.110674845360750e+000	 2.025012764670613e+000	 1.121039878160400e+001
 2.089593686021420e+000	 2.046759201091498e+000	 1.120601726495568e+001
 2.068287334960000e+000	 2.068287334960000e+000	 1.121530372425371e+001
 2.290241903341514e+000	 1.859379472897029e+000	 1.160959758268617e+001
 2.270912054128976e+000	 1.882938778196897e+000	 1.160040817288135e+001
 2.251330381189289e+000	 1.906308347234647e+000	 1.149427654815494e+001
 2.231499686246975e+000	 1.929484166885369e+000	 1.140530125259207e+001
 2.211422855861843e+000	 1.952462279414270e+000	 1.133300653525033e+001
 2.191102860052814e+000	 1.975238784708548e+000	 1.127689156171624e+001
 2.170542750851544e+000	 1.997809842467970e+000	 1.123643143161368e+001
 2.149745660787329e+000	 2.020171674351577e+000	 1.121107825210353e+001
 2.128714801304825e+000	 2.042320566078019e+000	 1.120026226482807e+001
 2.107453461116274e+000	 2.064252869477079e+000	 1.120339302358720e+001
 2.085965004490000e+000	 2.085965004490000e+000	 1.121986061987481e+001
 2.309650733030330e+000	 1.875136926055812e+000	 1.165565690370576e+001
 2.290157071536736e+000	 1.898895886485449e+000	 1.154096362169487e+001
 2.270409452216543e+000	 1.922463502718561e+000	 1.144377591593192e+001
 2.250410700537698e+000	 1.945835727620701e+000	 1.136361764501907e+001
 2.230163727522383e+000	 1.969008569916951e+000	 1.129998621425483e+001
 2.209671528359169e+000	 1.991978096442708e+000	 1.125235357446521e+001
 2.188937180944389e+000	 2.014740434352820e+000	 1.122016728043809e+001
 2.167963844354195e+000	 2.037291773286488e+000	 1.120285160650353e+001
 2.146754757248878e+000	 2.059628367485406e+000	 1.119980871662395e+001
 2.125313236211122e+000	 2.081746537862655e+000	 1.121041988618714e+001
 2.103642674020000e+000	 2.103642674020000e+000	 1.123404677253418e+001
 2.329059562718645e+000	 1.890894379214094e+000	 1.159716882162048e+001
 2.309402088944092e+000	 1.914852994773596e+000	 1.149140334170985e+001
 2.289488523243476e+000	 1.938618658202153e+000	 1.140305553122766e+001
 2.269321714828176e+000	 1.962187288355787e+000	 1.133162255806491e+001
 2.248904599182743e+000	 1.985554860419452e+000	 1.127657470834095e+001
 2.228240196665399e+000	 2.008717408176742e+000	 1.123735642539577e+001
 2.207331611037154e+000	 2.031671026237589e+000	 1.121338740966022e+001
 2.186182027921018e+000	 2.054411872221356e+000	 1.120406377686044e+001
 2.164794713192912e+000	 2.076936168892772e+000	 1.120875927182946e+001
 2.143173011305967e+000	 2.099240206248227e+000	 1.122682653502379e+001
 2.121320343550000e+000	 2.121320343550000e+000	 1.125759841867871e+001
 1.944543648250000e+000	 1.944543648250000e+000	 1.147536664594126e+001
 1.924303522392292e+000	 1.964575260357303e+000	 1.144857654693293e+001
 1.903858154818207e+000	 1.984395153751669e+000	 1.139178596797389e+001
 1.883210882870656e+000	 2.004000192250766e+000	 1.130430657975941e+001
 1.862365107386283e+000	 2.023387310105892e+000	 1.128961226071617e+001
 1.841324290830752e+000	 2.042553513597451e+000	 1.132134731469180e+001
 1.820091955386314e+000	 2.061495882571018e+000	 1.133375221231685e+001
 1.798671680993865e+000	 2.080211571912334e+000	 1.132657065782191e+001
 1.777067103351780e+000	 2.098697812959694e+000	 1.129958018805329e+001
 1.755281911873849e+000	 2.116951914852261e+000	 1.125259273358919e+001
 1.733319847608720e+000	 2.134971265812937e+000	 1.118545512163874e+001
 1.962221317780000e+000	 1.962221317780000e+000	 1.140505801598165e+001
 1.941797190777907e+000	 1.982435035452191e+000	 1.137856228372575e+001
 1.921165956225753e+000	 2.002435109695884e+000	 1.132412434583391e+001
 1.900330981805930e+000	 2.022218375817995e+000	 1.124105992684316e+001
 1.879295699271775e+000	 2.041781740199379e+000	 1.112871066351842e+001
 1.858063602565916e+000	 2.061122181904811e+000	 1.112847102358598e+001
 1.836638245890441e+000	 2.080236754233004e+000	 1.114587921551520e+001
 1.815023241731165e+000	 2.099122586205025e+000	 1.114582721797080e+001
 1.793222258838262e+000	 2.117776883989518e+000	 1.112809673535997e+001
 1.771239020165652e+000	 2.136196932263272e+000	 1.109250217031478e+001
 1.749077300771513e+000	 2.154380095505764e+000	 1.103889113851607e+001
 1.979898987310000e+000	 1.979898987310000e+000	 1.134625067163195e+001
 1.959290859163519e+000	 2.000294810547075e+000	 1.132090747505062e+001
 1.938473757633281e+000	 2.020475065640078e+000	 1.126964506617223e+001
 1.917451080741158e+000	 2.040436559385178e+000	 1.119178245647988e+001
 1.896226291157188e+000	 2.060176170292787e+000	 1.108666249937183e+001
 1.874802914300955e+000	 2.079690850212045e+000	 1.095527971009028e+001
 1.853184536394388e+000	 2.098977625894809e+000	 1.097818112637660e+001
 1.831374802468217e+000	 2.118033600497470e+000	 1.098570309468817e+001
 1.809377414324423e+000	 2.136855955019020e+000	 1.097763102345490e+001
 1.787196128457048e+000	 2.155441949673877e+000	 1.095378135749249e+001
 1.764834753933805e+000	 2.173788925198089e+000	 1.091400210530800e+001
 1.997576656840000e+000	 1.997576656840000e+000	 1.129867413676129e+001
 1.976784527549125e+000	 2.018154585641954e+000	 1.127532568934211e+001
 1.955781559040787e+000	 2.038515021584253e+000	 1.122804688601134e+001
 1.934571179676341e+000	 2.058654742952316e+000	 1.115615926176218e+001
 1.913156883042519e+000	 2.078570600386114e+000	 1.105900614022650e+001
 1.891542226035868e+000	 2.098259518519154e+000	 1.093595392609604e+001
 1.869730826898154e+000	 2.117718497556433e+000	 1.083059723723048e+001
 1.847726363205025e+000	 2.136944614789669e+000	 1.084612699985634e+001
 1.825532569810264e+000	 2.155935026048201e+000	 1.084810218842467e+001
 1.803153236748039e+000	 2.174686967084076e+000	 1.083634086081641e+001
 1.780592207095596e+000	 2.193197754889913e+000	 1.081069102285730e+001
 2.015254326370000e+000	 2.015254326370001e+000	 1.126205902474052e+001
 1.994278195934726e+000	 2.036014360736828e+000	 1.124153226757727e+001
 1.973089360448274e+000	 2.056554977528407e+000	 1.119903098214222e+001
 1.951691278611479e+000	 2.076872926519409e+000	 1.113387846665870e+001
 1.930087474927771e+000	 2.096965030479361e+000	 1.104541777098055e+001
 1.908281537770655e+000	 2.116828186826137e+000	 1.093301300670903e+001
 1.886277117401739e+000	 2.136459369217877e+000	 1.079605063865806e+001
 1.864077923941586e+000	 2.155855629081622e+000	 1.072703275423132e+001
 1.841687725295783e+000	 2.175014097077061e+000	 1.073943490201719e+001
 1.819110345038623e+000	 2.193931984493868e+000	 1.074009717098777e+001
 1.796349660256885e+000	 2.212606584581236e+000	 1.072886716878167e+001
 2.032931995899999e+000	 2.032931995899999e+000	 1.123613699107256e+001
 2.011771864320322e+000	 2.053874135831696e+000	 1.121924424620862e+001
 1.990397161855741e+000	 2.074594933472541e+000	 1.118230084591706e+001
 1.968811377546571e+000	 2.095091110086456e+000	 1.112463109423692e+001
 1.947018066812941e+000	 2.115359460572527e+000	 1.104557702535261e+001
 1.925020849505317e+000	 2.135396855132994e+000	 1.094449973241517e+001
 1.902823407905143e+000	 2.155200240879139e+000	 1.082078068069212e+001
 1.880429484677901e+000	 2.174766643373329e+000	 1.067382300173802e+001
 1.857842880780981e+000	 2.194093168105599e+000	 1.065155913096072e+001
 1.835067453328801e+000	 2.213177001903255e+000	 1.066497244610575e+001
 1.812107113417673e+000	 2.232015414272058e+000	 1.066844582457039e+001
 2.050609665430000e+000	 2.050609665430000e+000	 1.122064068847288e+001
 2.029265532705913e+000	 2.071733910926561e+000	 1.120818028408329e+001
 2.007704963263187e+000	 2.092634889416655e+000	 1.117756218348364e+001
 1.985931476481619e+000	 2.113309293653459e+000	 1.112811094170211e+001
 1.963948658698032e+000	 2.133753890665613e+000	 1.105916683722580e+001
 1.941760161239854e+000	 2.153965523439726e+000	 1.097008722053731e+001
 1.919369698408366e+000	 2.173941112540221e+000	 1.086024784994715e+001
 1.896781045413970e+000	 2.193677657664790e+000	 1.072904421134208e+001
 1.873998036265858e+000	 2.213172239133817e+000	 1.058440990873195e+001
 1.851024561618573e+000	 2.232422019312234e+000	 1.061089426738320e+001
 1.827864566577960e+000	 2.251424243962378e+000	 1.062934801679676e+001
 2.068287334960000e+000	 2.068287334960000e+000	 1.121530372425371e+001
 2.046759201091498e+000	 2.089593686021419e+000	 1.120806059310998e+001
 2.025012764670613e+000	 2.110674845360750e+000	 1.118452282113593e+001
 2.003051575416621e+000	 2.131527477220416e+000	 1.114401446184430e+001
 1.980879250583042e+000	 2.152148320758618e+000	 1.108587329961499e+001
 1.958499472974264e+000	 2.172534191746333e+000	 1.100945221896062e+001
 1.935915988911409e+000	 2.192681984201123e+000	 1.091412056404239e+001
 1.913132606149793e+000	 2.212588671956005e+000	 1.079926548498300e+001
 1.890153191750414e+000	 2.232251310161713e+000	 1.066429326753397e+001
 1.866981669907938e+000	 2.251667036720807e+000	 1.057779540738957e+001
 1.843622019737746e+000	 2.270833073652197e+000	 1.061150027160171e+001
 2.085965004490000e+000	 2.085965004490000e+000	 1.121986061987481e+001
 2.064252869477080e+000	 2.107453461116273e+000	 1.121860687245111e+001
 2.042320566078020e+000	 2.128714801304823e+000	 1.120289261547749e+001
 2.020171674351577e+000	 2.149745660787327e+000	 1.117204065051355e+001
 1.997809842467971e+000	 2.170542750851543e+000	 1.112538553080529e+001
 1.975238784708549e+000	 2.191102860052813e+000	 1.106227495229514e+001
 1.952462279414271e+000	 2.211422855861843e+000	 1.098207113782575e+001
 1.929484166885371e+000	 2.231499686246975e+000	 1.088415221100834e+001
 1.906308347234648e+000	 2.251330381189288e+000	 1.076791355623046e+001
 1.882938778196897e+000	 2.270912054128975e+000	 1.063276916129462e+001
 1.859379472897029e+000	 2.290241903341515e+000	 1.061483438166131e+001
 2.103642674020000e+000	 2.103642674020000e+000	 1.123404677253418e+001
 2.081746537862656e+000	 2.125313236211122e+000	 1.123954224603334e+001
 2.059628367485406e+000	 2.146754757248877e+000	 1.123238336811426e+001
 2.037291773286489e+000	 2.167963844354194e+000	 1.121189093976872e+001
 2.014740434352821e+000	 2.188937180944389e+000	 1.117739554723990e+001
 1.991978096442709e+000	 2.209671528359169e+000	 1.112823897579495e+001
 1.969008569916952e+000	 2.230163727522383e+000	 1.106377561962463e+001
 1.945835727620701e+000	 2.250410700537697e+000	 1.098337388426254e+001
 1.922463502718562e+000	 2.270409452216542e+000	 1.088641757791338e+001
 1.898895886485450e+000	 2.290157071536736e+000	 1.077230728809163e+001
 1.875136926055812e+000	 2.309650733030330e+000	 1.064046173999382e+001
 2.121320343550000e+000	 2.121320343550000e+000	 1.125759841867871e+001
 2.099240206248228e+000	 2.143173011305966e+000	 1.127059120318229e+001
 2.076936168892773e+000	 2.164794713192911e+000	 1.127270874461274e+001
 2.054411872221357e+000	 2.186182027921017e+000	 1.126326909636874e+001
 2.031671026237590e+000	 2.207331611037153e+000	 1.124159814276350e+001
 2.008717408176743e+000	 2.228240196665399e+000	 1.120703103658128e+001
 1.985554860419452e+000	 2.248904599182742e+000	 1.115891363568438e+001
 1.962187288355787e+000	 2.269321714828175e+000	 1.109660393498270e+001
 1.938618658202154e+000	 2.289488523243475e+000	 1.101947349006868e+001
 1.914852994773597e+000	 2.309402088944092e+000	 1.092690882882512e+001
 1.890894379214094e+000	 2.329059562718646e+000	 1.081831284733114e+001
 1.733319847608720e+000	 2.134971265812937e+000	 1.118545512163874e+001
 1.711184701123380e+000	 2.152753334364159e+000	 1.100666146091958e+001
 1.688880310352929e+000	 2.170295670476612e+000	 1.084998337476957e+001
 1.666410558419238e+000	 2.187595906649108e+000	 1.071562368158044e+001
 1.643779371421331e+000	 2.204651758917846e+000	 1.060377985033030e+001
 1.620990716199807e+000	 2.221461027795396e+000	 1.051464416011705e+001
 1.598048598078017e+000	 2.238021599138303e+000	 1.044840385165835e+001
 1.574957058582615e+000	 2.254331444942703e+000	 1.040524127006149e+001
 1.551720173146156e+000	 2.270388624067453e+000	 1.038533399822079e+001
 1.528342048794390e+000	 2.286191282884385e+000	 1.038885498025613e+001
 1.504826821820936e+000	 2.301737655855408e+000	 1.041597263446374e+001
 1.749077300771513e+000	 2.154380095505764e+000	 1.103889113851607e+001
 1.726740925682399e+000	 2.172323819225972e+000	 1.088283063641298e+001
 1.704233767723596e+000	 2.190025631121564e+000	 1.074586945032454e+001
 1.681559745318082e+000	 2.207483142168611e+000	 1.062817998448889e+001
 1.658722820256690e+000	 2.224694047640010e+000	 1.052993249652144e+001
 1.635726995442208e+000	 2.241656128052987e+000	 1.045129528018421e+001
 1.612576312610017e+000	 2.258367250044601e+000	 1.039243483540474e+001
 1.589274850027924e+000	 2.274825367174592e+000	 1.035351602483258e+001
 1.565826720177870e+000	 2.291028520655075e+000	 1.033470221628558e+001
 1.542236067422204e+000	 2.306974840006721e+000	 1.033615541050466e+001
 1.518507065657215e+000	 2.322662543641092e+000	 1.035803635370427e+001
 1.764834753933805e+000	 2.173788925198089e+000	 1.091400210530800e+001
 1.742297150240828e+000	 2.191894304087189e+000	 1.077977335707985e+001
 1.719587225093601e+000	 2.209755591765834e+000	 1.066167247363466e+001
 1.696708932216215e+000	 2.227370377687360e+000	 1.055984149637442e+001
 1.673666269091309e+000	 2.244736336361353e+000	 1.047442349856904e+001
 1.650463274683859e+000	 2.261851228309702e+000	 1.040556279165376e+001
 1.627104027141279e+000	 2.278712900949980e+000	 1.035340511408001e+001
 1.603592641472525e+000	 2.295319289405524e+000	 1.031809780199102e+001
 1.579933267208926e+000	 2.311668417241718e+000	 1.029978994106776e+001
 1.556130086049430e+000	 2.327758397128063e+000	 1.029863249896887e+001
 1.532187309492996e+000	 2.343587431425777e+000	 1.031477843786621e+001
 1.780592207095596e+000	 2.193197754889913e+000	 1.081069102285730e+001
 1.757853374798665e+000	 2.211464788947809e+000	 1.069741684539035e+001
 1.734940682462946e+000	 2.229485552409423e+000	 1.059734244223550e+001
 1.711858119113637e+000	 2.247257613205352e+000	 1.051057953253260e+001
 1.688609717925187e+000	 2.264778625081875e+000	 1.043724402248467e+001
 1.665199553924762e+000	 2.282046328565541e+000	 1.037745623548230e+001
 1.641631741671801e+000	 2.299058551854437e+000	 1.033134112010493e+001
 1.617910432916417e+000	 2.315813211635502e+000	 1.029902843525193e+001
 1.594039814239324e+000	 2.332308313827379e+000	 1.028065291174230e+001
 1.570024104676069e+000	 2.348541954248411e+000	 1.027635438980953e+001
 1.545867553328280e+000	 2.364512319209462e+000	 1.028627793200852e+001
 1.796349660256885e+000	 2.212606584581236e+000	 1.072886716878167e+001
 1.773409599355911e+000	 2.231035273807834e+000	 1.063569383461836e+001
 1.750294139831630e+000	 2.249215513052330e+000	 1.055283414670253e+001
 1.727007306010349e+000	 2.267144848722588e+000	 1.048036953199781e+001
 1.703553166758326e+000	 2.284820913801577e+000	 1.041838873740370e+001
 1.679935833164914e+000	 2.302241428820505e+000	 1.036698808401292e+001
 1.656159456201584e+000	 2.319404202757973e+000	 1.032627169458684e+001
 1.632228224359601e+000	 2.336307133864524e+000	 1.029635169348260e+001
 1.608146361269064e+000	 2.352948210412062e+000	 1.027734837836317e+001
 1.583918123302121e+000	 2.369325511367761e+000	 1.026939036311938e+001
 1.559547797163067e+000	 2.385437206992145e+000	 1.027261469153350e+001
 1.812107113417673e+000	 2.232015414272058e+000	 1.066844582457039e+001
 1.788965823912565e+000	 2.250605758667261e+000	 1.059454232924122e+001
 1.765647597199653e+000	 2.268945473694558e+000	 1.052810696225806e+001
 1.742156492906350e+000	 2.287032084239068e+000	 1.046919087825016e+001
 1.718496615590724e+000	 2.304863202520457e+000	 1.041785566327541e+001
 1.694672112404317e+000	 2.322436529074593e+000	 1.037417361352347e+001
 1.670687170730629e+000	 2.339749853660590e+000	 1.033822798259413e+001
 1.646546015802076e+000	 2.356801056092591e+000	 1.031011319656532e+001
 1.622252908298147e+000	 2.373588106995764e+000	 1.028993503617323e+001
 1.597812141927584e+000	 2.390109068486117e+000	 1.027781078553476e+001
 1.573228040997356e+000	 2.406362094773829e+000	 1.027386934695434e+001
 1.827864566577960e+000	 2.251424243962378e+000	 1.062934801679676e+001
 1.804522048468628e+000	 2.270176243526093e+000	 1.057390537773266e+001
 1.781001054567015e+000	 2.288675434336103e+000	 1.052312465115719e+001
 1.757305679801639e+000	 2.306919319754792e+000	 1.047702672919627e+001
 1.733440064422383e+000	 2.324905491238517e+000	 1.043564602643144e+001
 1.709408391642970e+000	 2.342631629327805e+000	 1.039903078336740e+001
 1.685214885258935e+000	 2.360095504562285e+000	 1.036724333384759e+001
 1.660863807243844e+000	 2.377294978319702e+000	 1.034036033561240e+001
 1.636359455326572e+000	 2.394228003578486e+000	 1.031847296331145e+001
 1.611706160552461e+000	 2.410892625603479e+000	 1.030168706340188e+001
 1.586908284831148e+000	 2.427286982554514e+000	 1.029012327048543e+001
 1.843622019737746e+000	 2.270833073652197e+000	 1.061150027160171e+001
 1.820078273024101e+000	 2.289746728384328e+000	 1.057373085700756e+001
 1.796354511933716e+000	 2.308405394976967e+000	 1.053785517520767e+001
 1.772454866696220e+000	 2.326806555269760e+000	 1.050386385586902e+001
 1.748383513253301e+000	 2.344947779955755e+000	 1.047176412256092e+001
 1.724144670880873e+000	 2.362826729580141e+000	 1.044158012131229e+001
 1.699742599786501e+000	 2.380441155463060e+000	 1.041335320850450e+001
 1.675181598684902e+000	 2.397788900545858e+000	 1.038714219727244e+001
 1.650466002354339e+000	 2.414867900160227e+000	 1.036302356171479e+001
 1.625600179176750e+000	 2.431676182719845e+000	 1.034109159834481e+001
 1.600588528664443e+000	 2.448211870334198e+000	 1.032145854434552e+001
 1.859379472897029e+000	 2.290241903341515e+000	 1.061483438166131e+001
 1.835634497578981e+000	 2.309317213241967e+000	 1.059397126782675e+001
 1.811707969299756e+000	 2.328135355617151e+000	 1.057227051782284e+001
 1.787604053590089e+000	 2.346693790783972e+000	 1.054969248932903e+001
 1.763326962083480e+000	 2.364990068672173e+000	 1.052621718665286e+001
 1.738880950118028e+000	 2.383021829831602e+000	 1.050184461470884e+001
 1.714270314313330e+000	 2.400786806362916e+000	 1.047659508773330e+001
 1.689499390125253e+000	 2.418282822771059e+000	 1.045050949188570e+001
 1.664572549381449e+000	 2.435507796740989e+000	 1.042364950102506e+001
 1.639494197800452e+000	 2.452459739835217e+000	 1.039609774509259e+001
 1.614268772497240e+000	 2.469136758112883e+000	 1.036795793067276e+001
 1.875136926055812e+000	 2.309650733030330e+000	 1.064046173999382e+001
 1.851190722133271e+000	 2.328887698099010e+000	 1.063458354051804e+001
 1.827061426665134e+000	 2.347865316256653e+000	 1.062634651504661e+001
 1.802753240483248e+000	 2.366581026297427e+000	 1.061450617528524e+001
 1.778270410912918e+000	 2.385032357387770e+000	 1.059901526949624e+001
 1.753617229354433e+000	 2.403216930082186e+000	 1.057984960714703e+001
 1.728798028839419e+000	 2.421132457261850e+000	 1.055700838879726e+001
 1.703817181564895e+000	 2.438776744995304e+000	 1.053051448526162e+001
 1.678679096407900e+000	 2.456147693320770e+000	 1.050041466532407e+001
 1.653388216423566e+000	 2.473243296949593e+000	 1.046677977143286e+001
 1.627949016329540e+000	 2.490061645890567e+000	 1.042970484295690e+001
 1.890894379214094e+000	 2.329059562718646e+000	 1.081831284733114e+001
 1.866746946686970e+000	 2.348458182955457e+000	 1.069552885041069e+001
 1.842414884029853e+000	 2.367595276895474e+000	 1.070006269502713e+001
 1.817902427375696e+000	 2.386468261810127e+000	 1.069830163598466e+001
 1.793213859741616e+000	 2.405074646102546e+000	 1.069017112035500e+001
 1.768353508590089e+000	 2.423412030331897e+000	 1.067562270027944e+001
 1.743325743364769e+000	 2.441478108159864e+000	 1.065463438438378e+001
 1.718134973003829e+000	 2.459270667218595e+000	 1.062721093386771e+001
 1.692785643433694e+000	 2.476787589899572e+000	 1.059338410253188e+001
 1.667282235046093e+000	 2.494026854062976e+000	 1.055321282016772e+001
 1.641629260161343e+000	 2.510986533667252e+000	 1.051793509887997e+001
 1.504826821820936e+000	 2.301737655855408e+000	 1.041597263446374e+001
 1.481178655451783e+000	 2.317026066036402e+000	 1.038348811941060e+001
 1.457401737502926e+000	 2.332054925507497e+000	 1.033276386997777e+001
 1.433500278033387e+000	 2.346822735730043e+000	 1.026375520797187e+001
 1.409478506995772e+000	 2.361328087830619e+000	 1.017645644751626e+001
 1.385340671887672e+000	 2.375569662812049e+000	 1.007090078166107e+001
 1.361091035406279e+000	 2.389546231691873e+000	 9.947160101100952e+000
 1.336733873108762e+000	 2.403256655568766e+000	 9.805344745844888e+000
 1.312273471080953e+000	 2.416699885617484e+000	 9.645603190847883e+000
 1.287714123616818e+000	 2.429874963012997e+000	 9.468121666771239e+000
 1.263060130911157e+000	 2.442781018784593e+000	 9.273123717193439e+000
 1.518507065657215e+000	 2.322662543641092e+000	 1.035803635370427e+001
 1.494643915956549e+000	 2.338089939369133e+000	 1.030960588582575e+001
 1.470650844207407e+000	 2.353255424835356e+000	 1.024788581902805e+001
 1.446532098742074e+000	 2.368157487878027e+000	 1.017280756437538e+001
 1.422291947967268e+000	 2.382794706815789e+000	 1.008433746731552e+001
 1.397934677994196e+000	 2.397165750660581e+000	 9.982476761913249e+000
 1.373464590271841e+000	 2.411269379257375e+000	 9.867261461369546e+000
 1.348885999226074e+000	 2.425104443351199e+000	 9.738762185505243e+000
 1.324203229907143e+000	 2.438669884582033e+000	 9.597083926045269e+000
 1.299420615648050e+000	 2.451964735408256e+000	 9.442365750694052e+000
 1.274542495736273e+000	 2.464988118959423e+000	 9.274780447141305e+000
 1.532187309492996e+000	 2.343587431425777e+000	 1.031477843786621e+001
 1.508109176460914e+000	 2.359153812700871e+000	 1.025023801982290e+001
 1.483899950911571e+000	 2.374455924162234e+000	 1.017725715768822e+001
 1.459563919450517e+000	 2.389492240025056e+000	 1.009574360251817e+001
 1.435105388938585e+000	 2.404261325800040e+000	 1.000563605046322e+001
 1.410528684100596e+000	 2.418761838508240e+000	 9.906904164009653e+000
 1.385838145137324e+000	 2.432992526822059e+000	 9.799548533601319e+000
 1.361038125343342e+000	 2.446952231132880e+000	 9.683600580154581e+000
 1.336132988733314e+000	 2.460639883545905e+000	 9.559122399133143e+000
 1.311127107679276e+000	 2.474054507802924e+000	 9.426206546996905e+000
 1.286024860561388e+000	 2.487195219133758e+000	 9.284975770986023e+000
 1.545867553328280e+000	 2.364512319209462e+000	 1.028627793200852e+001
 1.521574436964876e+000	 2.380217686031613e+000	 1.020546526489731e+001
 1.497149057615418e+000	 2.395656423488133e+000	 1.012096267575500e+001
 1.472595740158718e+000	 2.410826992171132e+000	 1.003265449447917e+001
 1.447918829909725e+000	 2.425727944783372e+000	 9.940452074061643e+000
 1.423122690206872e+000	 2.440357926355025e+000	 9.844293878245109e+000
 1.398211700002728e+000	 2.454715674385927e+000	 9.744145513571548e+000
 1.373190251460565e+000	 2.468800018913809e+000	 9.639999706171610e+000
 1.348062747559465e+000	 2.482609882509102e+000	 9.531876223792999e+000
 1.322833599710498e+000	 2.496144280197001e+000	 9.419821743709505e+000
 1.297507225386504e+000	 2.509402319307596e+000	 9.306353541274627e+000
 1.559547797163067e+000	 2.385437206992145e+000	 1.027261469153350e+001
 1.535039697468435e+000	 2.401281559361360e+000	 1.017536916868613e+001
 1.510398164318946e+000	 2.416856922813052e+000	 1.007908787499343e+001
 1.485627560866675e+000	 2.432161744316253e+000	 9.983631946496045e+000
 1.460732270880686e+000	 2.447194563765786e+000	 9.888885686315399e+000
 1.435716696313025e+000	 2.461954014200938e+000	 9.794756718154064e+000
 1.410585254868053e+000	 2.476438821948977e+000	 9.701176088117714e+000
 1.385342377577744e+000	 2.490647806693986e+000	 9.608098315046140e+000
 1.359992506385596e+000	 2.504579881471621e+000	 9.517439555313523e+000
 1.334540091741715e+000	 2.518234052590486e+000	 9.431664397782313e+000
 1.308989590211620e+000	 2.531609419480937e+000	 9.347022003508661e+000
 1.573228040997356e+000	 2.406362094773829e+000	 1.027386934695434e+001
 1.548504957971592e+000	 2.422345432690113e+000	 1.016003204800576e+001
 1.523647271022157e+000	 2.438057422136991e+000	 1.005171893818145e+001
 1.498659381574390e+000	 2.453496496460421e+000	 9.948768175740877e+000
 1.473545711851468e+000	 2.468661182747280e+000	 9.851037294744534e+000
 1.448310702419054e+000	 2.483550102045976e+000	 9.758403423848128e+000
 1.422958809733299e+000	 2.498161969511208e+000	 9.670763457267242e+000
 1.397494503694879e+000	 2.512495594473410e+000	 9.595425819412137e+000
 1.371922265211707e+000	 2.526549880433463e+000	 9.526879770645854e+000
 1.346246583772927e+000	 2.540323824983381e+000	 9.463939328455213e+000
 1.320471955036735e+000	 2.553816519653783e+000	 9.406445021846434e+000
 1.586908284831148e+000	 2.427286982554514e+000	 1.029012327048543e+001
 1.561970218474347e+000	 2.443409306017870e+000	 1.015953695569761e+001
 1.536896377725050e+000	 2.459257921459952e+000	 1.003894269975617e+001
 1.511691202281862e+000	 2.474831248603634e+000	 9.928155888296994e+000
 1.486359152822073e+000	 2.490127801727857e+000	 9.827007555006789e+000
 1.460904708524959e+000	 2.505146189890142e+000	 9.738916492221406e+000
 1.435332364598466e+000	 2.519885117072623e+000	 9.667786263322405e+000
 1.409646629811969e+000	 2.534343382252084e+000	 9.607010972848924e+000
 1.383852024037799e+000	 2.548519879394630e+000	 9.556354868660336e+000
 1.357953075804134e+000	 2.562413597375684e+000	 9.515591871727201e+000
 1.331954319861851e+000	 2.576023619826133e+000	 9.484506211512599e+000
 1.600588528664443e+000	 2.448211870334198e+000	 1.032145854434552e+001
 1.575435478976699e+000	 2.464473179344633e+000	 1.017396764917400e+001
 1.550145484427626e+000	 2.480458420781932e+000	 1.004084661796498e+001
 1.524723022989091e+000	 2.496166000745893e+000	 9.921888258265488e+000
 1.499172593792499e+000	 2.511594420707514e+000	 9.826400320663083e+000
 1.473498714630741e+000	 2.526742277733436e+000	 9.749084486142452e+000
 1.447705919463554e+000	 2.541608264633219e+000	 9.686721462457843e+000
 1.421798755929015e+000	 2.556191170030004e+000	 9.639021548337494e+000
 1.395781782863871e+000	 2.570489878355119e+000	 9.605700275990463e+000
 1.369659567835336e+000	 2.584503369767397e+000	 9.586479172386499e+000
 1.343436684686967e+000	 2.598230719997987e+000	 9.581086498535797e+000
 1.614268772497240e+000	 2.469136758112883e+000	 1.036795793067276e+001
 1.588900739478649e+000	 2.485537052670400e+000	 1.020340856056343e+001
 1.563394591129885e+000	 2.501658920102933e+000	 1.005895237068117e+001
 1.537754843696078e+000	 2.517500752887198e+000	 9.946292594466536e+000
 1.511986034762748e+000	 2.533061039686253e+000	 9.853529589369808e+000
 1.486092720736399e+000	 2.548338365575855e+000	 9.780328527426963e+000
 1.460079474328563e+000	 2.563331412192999e+000	 9.726354314125711e+000
 1.433950882046017e+000	 2.578038957807173e+000	 9.691272479723743e+000
 1.407711541689924e+000	 2.592459877314933e+000	 9.674750056631412e+000
 1.381366059866533e+000	 2.606593142158518e+000	 9.676456440620342e+000
 1.354919049512082e+000	 2.620437820169344e+000	 9.696064233697767e+000
 1.627949016329540e+000	 2.490061645890567e+000	 1.042970484295690e+001
 1.602365999980196e+000	 2.506600925995173e+000	 1.025420363132074e+001
 1.576643697831826e+000	 2.522859419422954e+000	 1.011232119736023e+001
 1.550786664402821e+000	 2.538835505027548e+000	 9.994976969679685e+000
 1.524799475732817e+000	 2.554527658664073e+000	 9.901804286697141e+000
 1.498686726841934e+000	 2.569934453417402e+000	 9.832431356946001e+000
 1.472453029193493e+000	 2.585054559751961e+000	 9.786482249495780e+000
 1.446103008162974e+000	 2.599886745583591e+000	 9.763577877051112e+000
 1.419641300515956e+000	 2.614429876274070e+000	 9.763336969194080e+000
 1.393072551897726e+000	 2.628682914549048e+000	 9.785377033300666e+000
 1.366401414337198e+000	 2.642644920340206e+000	 9.829315300736850e+000
 1.641629260161343e+000	 2.510986533667252e+000	 1.051793509887997e+001
 1.615831260481341e+000	 2.527664799318952e+000	 1.033785165758815e+001
 1.589892804533449e+000	 2.544059918741996e+000	 1.018692848984317e+001
 1.563818485109322e+000	 2.560170257166945e+000	 1.006477605228462e+001
 1.537612916702710e+000	 2.575994277640975e+000	 9.970994678359121e+000
 1.511280732947346e+000	 2.591530541258077e+000	 9.905175656441932e+000
 1.484826584058344e+000	 2.606777707310106e+000	 9.866902307700318e+000
 1.458255134279887e+000	 2.621734533359257e+000	 9.855751060885796e+000
 1.431571059341970e+000	 2.636399875232531e+000	 9.871292521295803e+000
 1.404779043928913e+000	 2.650772686938987e+000	 9.913092531205642e+000
 1.377883779162314e+000	 2.664852020510572e+000	 9.980713219141524e+000
 1.263060130911157e+000	 2.442781018784593e+000	 9.273123717193439e+000
 1.238315796768149e+000	 2.455417273601034e+000	 9.167609809977140e+000
 1.213485426327356e+000	 2.467783037487111e+000	 9.201044893545546e+000
 1.188573323810187e+000	 2.479877709472937e+000	 9.225854032466744e+000
 1.163583790289265e+000	 2.491700777177655e+000	 9.246543822125025e+000
 1.138521121482226e+000	 2.503251816328117e+000	 9.260958089647923e+000
 1.113389605572322e+000	 2.514530490214019e+000	 9.251899532363082e+000
 1.088193521057850e+000	 2.525536549080854e+000	 9.229795417314485e+000
 1.062937134632406e+000	 2.536269829462126e+000	 9.193797244136295e+000
 1.037624699097836e+000	 2.546730253452308e+000	 9.143160398208977e+000
 1.012260451311729e+000	 2.556917827922117e+000	 9.077244231712291e+000
 1.274542495736273e+000	 2.464988118959423e+000	 9.274780447141305e+000
 1.249573213101380e+000	 2.477739248819489e+000	 9.040260220568722e+000
 1.224517112020461e+000	 2.490217428740764e+000	 9.075966116696085e+000
 1.199378535844212e+000	 2.502422052289998e+000	 9.103933165100894e+000
 1.174161824745915e+000	 2.514352602428328e+000	 9.119433421460251e+000
 1.148871313495187e+000	 2.526008651025577e+000	 9.123875861372444e+000
 1.123511329258762e+000	 2.537389858310435e+000	 9.116214903372756e+000
 1.098086189430379e+000	 2.548495972257904e+000	 9.095509830551036e+000
 1.072600199491756e+000	 2.559326827915427e+000	 9.060925299791292e+000
 1.047057650906576e+000	 2.569882346669243e+000	 9.011731626244098e+000
 1.021462819049315e+000	 2.580162535452528e+000	 8.947304845922133e+000
 1.286024860561388e+000	 2.487195219133758e+000	 9.284975770986023e+000
 1.260830629434610e+000	 2.500061224037538e+000	 9.056828033571501e+000
 1.235548797713566e+000	 2.512651819994079e+000	 8.963307345753268e+000
 1.210183747878237e+000	 2.524966395106772e+000	 8.991525317107975e+000
 1.184739859202565e+000	 2.537004427678743e+000	 9.009770737750213e+000
 1.159221505508147e+000	 2.548765485722787e+000	 9.016900176543578e+000
 1.133633052945202e+000	 2.560249226406592e+000	 9.011876200483608e+000
 1.107978857802907e+000	 2.571455395434661e+000	 8.993768106584540e+000
 1.082263264351106e+000	 2.582383826368382e+000	 8.961752422177494e+000
 1.056490602715316e+000	 2.593034439885761e+000	 8.915113176007028e+000
 1.030665186786900e+000	 2.603407242982436e+000	 8.853241943100107e+000
 1.297507225386504e+000	 2.509402319307596e+000	 9.306353541274627e+000
 1.272088045767840e+000	 2.522383199255179e+000	 9.094834387768293e+000
 1.246580483406671e+000	 2.535086211247057e+000	 8.874372741263223e+000
 1.220988959912261e+000	 2.547510737923258e+000	 8.906725933214766e+000
 1.195317893659215e+000	 2.559656252928899e+000	 8.929004709210563e+000
 1.169571697521108e+000	 2.571522320419744e+000	 8.940070429021588e+000
 1.143754776631643e+000	 2.583108594502486e+000	 8.938892388447730e+000
 1.117871526175436e+000	 2.594414818611126e+000	 8.924548547912226e+000
 1.091926329210456e+000	 2.605440824820994e+000	 8.896226024820297e+000
 1.065923554524055e+000	 2.616186533101864e+000	 8.853221352142985e+000
 1.039867554524486e+000	 2.626651950511838e+000	 8.794940506285291e+000
 1.308989590211620e+000	 2.531609419480937e+000	 9.347022003508661e+000
 1.283345462101071e+000	 2.544705174472416e+000	 9.153113545539139e+000
 1.257612169099776e+000	 2.557520602499699e+000	 8.906755652044540e+000
 1.231794171946286e+000	 2.570055080739456e+000	 8.849635641877203e+000
 1.205895928115865e+000	 2.582308078178795e+000	 8.877207395057154e+000
 1.179921889534068e+000	 2.594279155116453e+000	 8.893429856042955e+000
 1.153876500318082e+000	 2.605967962598116e+000	 8.897277634858041e+000
 1.127764194547965e+000	 2.617374241787296e+000	 8.887836010292192e+000
 1.101589394069806e+000	 2.628497823273261e+000	 8.864301415319394e+000
 1.075356506332795e+000	 2.639338626317554e+000	 8.825981684027903e+000
 1.049069922262071e+000	 2.649896658040735e+000	 8.772296063206985e+000
 1.320471955036735e+000	 2.553816519653783e+000	 9.406445021846434e+000
 1.294602878434302e+000	 2.567027149689244e+000	 9.231519793056107e+000
 1.268643854792880e+000	 2.579954993752005e+000	 9.004017681464740e+000
 1.242599383980310e+000	 2.592599423555365e+000	 8.820356123355017e+000
 1.216473962572515e+000	 2.604959903428432e+000	 8.854453222317531e+000
 1.190272081547029e+000	 2.617035989812911e+000	 8.877025371117140e+000
 1.163998224004523e+000	 2.628827330693487e+000	 8.887051083937623e+000
 1.137656862920494e+000	 2.640333664963176e+000	 8.883621617818774e+000
 1.111252458929156e+000	 2.651554821725185e+000	 8.865941452128528e+000
 1.084789458141535e+000	 2.662490719532828e+000	 8.833328524693553e+000
 1.058272289999657e+000	 2.673141365569126e+000	 8.785214227819990e+000
 1.331954319861851e+000	 2.576023619826133e+000	 9.484506211512599e+000
 1.305860294767532e+000	 2.589349124905667e+000	 9.329905884903745e+000
 1.279675540485985e+000	 2.602389385003972e+000	 9.122591596365750e+000
 1.253404596014335e+000	 2.615143766370987e+000	 8.862521053891177e+000
 1.227051997029165e+000	 2.627611728677810e+000	 8.860818883770051e+000
 1.200622273559989e+000	 2.639792824509118e+000	 8.890907405566532e+000
 1.174119947690963e+000	 2.651686698788594e+000	 8.908236642030115e+000
 1.147549531293022e+000	 2.663293088138760e+000	 8.911902492735905e+000
 1.120915523788506e+000	 2.674611820176764e+000	 8.901116219087202e+000
 1.094222409950275e+000	 2.685642812747687e+000	 8.875204670497034e+000
 1.067474657737242e+000	 2.696386073097013e+000	 8.833610265553388e+000
 1.343436684686967e+000	 2.598230719997987e+000	 9.581086498535797e+000
 1.317117711100763e+000	 2.611671100121684e+000	 9.448123109531736e+000
 1.290707226179090e+000	 2.624823776255602e+000	 9.262299224758403e+000
 1.264209808048359e+000	 2.637688109186321e+000	 9.023603863308628e+000
 1.237630031485815e+000	 2.650263553926928e+000	 8.896383241116967e+000
 1.210972465572950e+000	 2.662549659205076e+000	 8.935129758192485e+000
 1.184241671377403e+000	 2.674546066883441e+000	 8.960862774089973e+000
 1.157442199665551e+000	 2.686252511314051e+000	 8.972681499105820e+000
 1.130578588647856e+000	 2.697668818627999e+000	 8.969802716643732e+000
 1.103655361759015e+000	 2.708794905962131e+000	 8.951561000295254e+000
 1.076677025474828e+000	 2.719630780624395e+000	 8.917408680854528e+000
 1.354919049512082e+000	 2.620437820169344e+000	 9.696064233697767e+000
 1.328375127433993e+000	 2.633993075337294e+000	 9.586021351379230e+000
 1.301738911872195e+000	 2.647258167506897e+000	 9.422962156773160e+000
 1.275015020082384e+000	 2.660232452001367e+000	 9.206906114335359e+000
 1.248208065942466e+000	 2.672915379175787e+000	 8.961227233080775e+000
 1.221322657585910e+000	 2.685306493900782e+000	 9.009749452585604e+000
 1.194363395063843e+000	 2.697405434978026e+000	 9.044962310521294e+000
 1.167334868038080e+000	 2.709211934489051e+000	 9.065966999511584e+000
 1.140241653507206e+000	 2.720725817078891e+000	 9.071984568778580e+000
 1.113088313567754e+000	 2.731946999176161e+000	 9.062356132965970e+000
 1.085879393212413e+000	 2.742875488151270e+000	 9.036542825705036e+000
 1.366401414337198e+000	 2.642644920340206e+000	 9.829315300736850e+000
 1.339632543767224e+000	 2.656315050552498e+000	 9.743449149866699e+000
 1.312770597565300e+000	 2.669692558757853e+000	 9.604401754655205e+000
 1.285820232116408e+000	 2.682776794816125e+000	 9.412222168110491e+000
 1.258786100399116e+000	 2.695567204424388e+000	 9.167025798033032e+000
 1.231672849598871e+000	 2.708063328596238e+000	 9.114826601630336e+000
 1.204485118750283e+000	 2.720264803072348e+000	 9.160572263755348e+000
 1.177227536410608e+000	 2.732171357663756e+000	 9.191772624027028e+000
 1.149904718366556e+000	 2.743782815529436e+000	 9.207651744704792e+000
 1.122521265376494e+000	 2.755099092389776e+000	 9.207556102196836e+000
 1.095081760949999e+000	 2.766120195677642e+000	 9.190954527875745e+000
 1.377883779162314e+000	 2.664852020510572e+000	 9.980713219141524e+000
 1.350889960100455e+000	 2.678637025767296e+000	 9.920253755438733e+000
 1.323802283258406e+000	 2.692126950008474e+000	 9.806439162259458e+000
 1.296625444150433e+000	 2.705321137630596e+000	 9.639347232811002e+000
 1.269364134855766e+000	 2.718219029672730e+000	 9.419122229607510e+000
 1.242023041611831e+000	 2.730820163291444e+000	 9.250424278784481e+000
 1.214606842436724e+000	 2.743124171166410e+000	 9.307733653999483e+000
 1.187120204783137e+000	 2.755130780838170e+000	 9.350117050737689e+000
 1.159567783225907e+000	 2.766839813979640e+000	 9.376800294482981e+000
 1.131954217185234e+000	 2.778251185602976e+000	 9.387134047535060e+000
 1.104284128687585e+000	 2.789364903203509e+000	 9.380593737768914e+000
 1.012260451311729e+000	 2.556917827922117e+000	 9.077244231712291e+000
 9.868486101712383e-001	 2.566832643677576e+000	 8.787488569080439e+000
 9.613933746349105e-001	 2.576474874564940e+000	 8.529384944820677e+000
 9.358989217837996e-001	 2.585844776523053e+000	 8.302605916493048e+000
 9.103694049237151e-001	 2.594942686584524e+000	 8.106886044227331e+000
 8.848089517299641e-001	 2.603769021827961e+000	 7.942021541740560e+000
 8.592216624358853e-001	 2.612324278282998e+000	 7.807869776777251e+000
 8.336116080664262e-001	 2.620609029790004e+000	 7.704348625357293e+000
 8.079828287179304e-001	 2.628623926816410e+000	 7.631435684548166e+000
 7.823393318852088e-001	 2.636369695231585e+000	 7.589167348777708e+000
 7.566850908368894e-001	 2.643847135042238e+000	 7.577637754984950e+000
 1.021462819049315e+000	 2.580162535452528e+000	 8.947304845922133e+000
 9.958199611707879e-001	 2.590167485896778e+000	 8.668879282091881e+000
 9.701333144019444e-001	 2.599897373428621e+000	 8.423259611318560e+000
 9.444070937973023e-001	 2.609352456313620e+000	 8.210086534550738e+000
 9.186454904199957e-001	 2.618533074648314e+000	 8.029063891398586e+000
 8.928526694696534e-001	 2.627439649302939e+000	 7.879958336503591e+000
 8.670327684544621e-001	 2.636072680816487e+000	 7.762598861423264e+000
 8.411898954086871e-001	 2.644432748246060e+000	 7.676876166473843e+000
 8.153281271568199e-001	 2.652520507972429e+000	 7.622741887312909e+000
 7.894515076254423e-001	 2.660336692463774e+000	 7.600207681356003e+000
 7.635640462038073e-001	 2.667882108999597e+000	 7.609344179409893e+000
 1.030665186786900e+000	 2.603407242982436e+000	 8.853241943100107e+000
 1.004791312170337e+000	 2.613502328115380e+000	 8.585734099934651e+000
 9.788732541689785e-001	 2.623319872291618e+000	 8.352122136869584e+000
 9.529152658108047e-001	 2.632860136103426e+000	 8.152014723340168e+000
 9.269215759162764e-001	 2.642123462711282e+000	 7.985084878639408e+000
 9.008963872093427e-001	 2.651110276777039e+000	 7.851069673040551e+000
 8.748438744730388e-001	 2.659821083349055e+000	 7.749769770407463e+000
 8.487681827509475e-001	 2.668256466701160e+000	 7.681048816797815e+000
 8.226734255957094e-001	 2.676417089127467e+000	 7.644832679910851e+000
 7.965636833656763e-001	 2.684303689694969e+000	 7.641108544554987e+000
 7.704430015707247e-001	 2.691917082955955e+000	 7.669923869606690e+000
 1.039867554524486e+000	 2.626651950511838e+000	 8.794940506285291e+000
 1.013762663169887e+000	 2.636837170333383e+000	 8.537944506461166e+000
 9.876131939360127e-001	 2.646742371153929e+000	 8.315870752249536e+000
 9.614234378243071e-001	 2.656367815892474e+000	 8.128295694945045e+000
 9.351976614125571e-001	 2.665713850773425e+000	 7.974861422286750e+000
 9.089401049490317e-001	 2.674780904250262e+000	 7.855275383741395e+000
 8.826549804916154e-001	 2.683569485880700e+000	 7.769309953128504e+000
 8.563464700932082e-001	 2.692080185155304e+000	 7.716801833156760e+000
 8.300187240345988e-001	 2.700313670281525e+000	 7.697651306797484e+000
 8.036758591059100e-001	 2.708270686925168e+000	 7.711821340755198e+000
 7.773219569376425e-001	 2.715952056911313e+000	 7.759336546599908e+000
 1.049069922262071e+000	 2.649896658040735e+000	 8.772296063206985e+000
 1.022734014169437e+000	 2.660172012550785e+000	 8.525412504646781e+000
 9.963531337030465e-001	 2.670164870015556e+000	 8.314414154491381e+000
 9.699316098378097e-001	 2.679875495680764e+000	 8.138845047739505e+000
 9.434737469088375e-001	 2.689304238834745e+000	 7.998316218111546e+000
 9.169838226887210e-001	 2.698451531722607e+000	 7.892505446909546e+000
 8.904660865101921e-001	 2.707317888411424e+000	 7.821156844953977e+000
 8.639247574354689e-001	 2.715903903608492e+000	 7.784080272231378e+000
 8.373640224734882e-001	 2.724210251434601e+000	 7.781150600260165e+000
 8.107880348461440e-001	 2.732237684154373e+000	 7.812306822520443e+000
 7.842009123045602e-001	 2.739987030865671e+000	 7.877551018612258e+000
 1.058272289999657e+000	 2.673141365569126e+000	 8.785214227819990e+000
 1.031705365168986e+000	 2.683506854767587e+000	 8.548050159236642e+000
 1.005093073470081e+000	 2.693587368876500e+000	 8.347671051830647e+000
 9.784397818513120e-001	 2.703383175468292e+000	 8.183588314810242e+000
 9.517498324051182e-001	 2.712894626895242e+000	 8.055381794386506e+000
 9.250275404284101e-001	 2.722122159194074e+000	 7.962699545635542e+000
 8.982771925287689e-001	 2.731066290941227e+000	 7.905257433048057e+000
 8.715030447777294e-001	 2.739727622060723e+000	 7.882838564475143e+000
 8.447093209123776e-001	 2.748106832586698e+000	 7.895292563555807e+000
 8.179002105863777e-001	 2.756204681382581e+000	 7.942534686068441e+000
 7.910798676714780e-001	 2.764022004819030e+000	 8.024544785969258e+000
 1.067474657737242e+000	 2.696386073097013e+000	 8.833610265553388e+000
 1.040676716168536e+000	 2.706841696983788e+000	 8.605779163048727e+000
 1.013833013237114e+000	 2.717009867736757e+000	 8.415569732188212e+000
 9.869479538648146e-001	 2.726890855255064e+000	 8.262460535735887e+000
 9.600259179013990e-001	 2.736485014954915e+000	 8.146000088071743e+000
 9.330712581680994e-001	 2.745792786664664e+000	 8.065806649486817e+000
 9.060882985473456e-001	 2.754814693470107e+000	 8.021567844656138e+000
 8.790813321199904e-001	 2.763551340511999e+000	 8.013040110071954e+000
 8.520546193512668e-001	 2.772003413737813e+000	 8.040047975610383e+000
 8.250123863266116e-001	 2.780171678609796e+000	 8.102483185767804e+000
 7.979588230383954e-001	 2.788056978771388e+000	 8.200303666439455e+000
 1.076677025474828e+000	 2.719630780624395e+000	 8.917408680854528e+000
 1.049648067168086e+000	 2.730176539199391e+000	 8.698530425517641e+000
 1.022572953004148e+000	 2.740432366596331e+000	 8.518047653781800e+000
 9.954561258783169e-001	 2.750398535041075e+000	 8.375405850327015e+000
 9.683020033976793e-001	 2.760075403013765e+000	 8.270122042733764e+000
 9.411149759077887e-001	 2.769463414134376e+000	 8.201784617650077e+000
 9.138994045659223e-001	 2.778563095998065e+000	 8.170052956502873e+000
 8.866596194622508e-001	 2.787375058962318e+000	 8.174656895614934e+000
 8.593999177901561e-001	 2.795899994887948e+000	 8.215396015990422e+000
 8.321245620668455e-001	 2.804138675836015e+000	 8.292138768405794e+000
 8.048377784053131e-001	 2.812091952722746e+000	 8.404821439788165e+000
 1.085879393212413e+000	 2.742875488151270e+000	 9.036542825705036e+000
 1.058619418167635e+000	 2.753511381414393e+000	 8.826243682160200e+000
 1.031312892771182e+000	 2.763854865455219e+000	 8.655051056554260e+000
 1.003964297891820e+000	 2.773906214826328e+000	 8.522377113022698e+000
 9.765780888939600e-001	 2.783665791071792e+000	 8.427707226909700e+000
 9.491586936474781e-001	 2.793134041603211e+000	 8.370599822252256e+000
 9.217105105844992e-001	 2.802311498525101e+000	 8.350686024051660e+000
 8.942379068045113e-001	 2.811198777411681e+000	 8.367669130274924e+000
 8.667452162290457e-001	 2.819796576037103e+000	 8.421323908943787e+000
 8.392367378070794e-001	 2.828105673061238e+000	 8.511495726051429e+000
 8.117167337722309e-001	 2.836126926673104e+000	 8.638099510404855e+000
 1.095081760949999e+000	 2.766120195677642e+000	 9.190954527875745e+000
 1.067590769167185e+000	 2.776846223628796e+000	 8.988867123731380e+000
 1.040052832538216e+000	 2.787277364313423e+000	 8.826534593193395e+000
 1.012472469905322e+000	 2.797413894610821e+000	 8.703335526730042e+000
 9.848541743902408e-001	 2.807256179128995e+000	 8.618723471713670e+000
 9.572024113871673e-001	 2.816804669071168e+000	 8.572226790674158e+000
 9.295216166030758e-001	 2.826059901051216e+000	 8.563448329456776e+000
 9.018161941467721e-001	 2.835022495860089e+000	 8.592064900314389e+000
 8.740905146679351e-001	 2.843693157185278e+000	 8.657826585387538e+000
 8.463489135473132e-001	 2.852072670285467e+000	 8.760555866422010e+000
 8.185956891391485e-001	 2.860161900622463e+000	 8.900146586940593e+000
 1.104284128687585e+000	 2.789364903203509e+000	 9.380593737768914e+000
 1.076562120166735e+000	 2.800181065842599e+000	 9.186357043922969e+000
 1.048792772305250e+000	 2.810699863170943e+000	 9.032460978601034e+000
 1.020980641918825e+000	 2.820921574394557e+000	 8.918250294971010e+000
 9.931302598865216e-001	 2.830846567185376e+000	 8.843146526562746e+000
 9.652461291268568e-001	 2.840475296538248e+000	 8.806647865748037e+000
 9.373327226216526e-001	 2.849808303576409e+000	 8.808328847117970e+000
 9.093944814890329e-001	 2.858846214307540e+000	 8.847839840875226e+000
 8.814358131068247e-001	 2.867589738332472e+000	 8.924906361797016e+000
 8.534610892875471e-001	 2.876039667508702e+000	 9.039328199731168e+000
 8.254746445060665e-001	 2.884196874570822e+000	 9.190978377964031e+000
 7.566850908368894e-001	 2.643847135042238e+000	 7.577637754984950e+000
 7.310240430396248e-001	 2.651057119090043e+000	 7.616936637450606e+000
 7.053600886327910e-001	 2.658000591714422e+000	 7.596246234943598e+000
 6.796970889541847e-001	 2.664678567381807e+000	 7.516033158016601e+000
 6.540388651164307e-001	 2.671092129282827e+000	 7.376888439889271e+000
 6.283891966355913e-001	 2.677242427900419e+000	 7.179524450642898e+000
 6.027518201122013e-001	 2.683130679550520e+000	 7.164783330320184e+000
 5.771304279651326e-001	 2.688758164897393e+000	 7.146492075100024e+000
 5.515286672185974e-001	 2.694126227445558e+000	 7.103177233357285e+000
 5.259501383425356e-001	 2.699236272010369e+000	 7.048065993669059e+000
 5.003983941465354e-001	 2.704089763169176e+000	 6.993051161853253e+000
 7.635640462038073e-001	 2.667882108999597e+000	 7.609344179409893e+000
 7.376697161537533e-001	 2.675157638356550e+000	 7.649810028277841e+000
 7.117724530705057e-001	 2.682164233459022e+000	 7.625824055681892e+000
 6.858761533949311e-001	 2.688902917995866e+000	 7.537940251351021e+000
 6.599846729770409e-001	 2.695374785004896e+000	 7.386841775699176e+000
 6.341018256921334e-001	 2.701580995427987e+000	 7.173337691129198e+000
 6.082313821098390e-001	 2.707522776638490e+000	 7.101827735468728e+000
 5.823770682164720e-001	 2.713201420943071e+000	 7.112603974524891e+000
 5.565425641910105e-001	 2.718618284059930e+000	 7.115575818070629e+000
 5.307315032349372e-001	 2.723774783575465e+000	 7.124544107273789e+000
 5.049474704561093e-001	 2.728672397381367e+000	 7.151925717553780e+000
 7.704430015707247e-001	 2.691917082955955e+000	 7.669923869606690e+000
 7.443153892678818e-001	 2.699258157622057e+000	 7.712537933480934e+000
 7.181848175082203e-001	 2.706327875202622e+000	 7.686266940082343e+000
 6.920552178356773e-001	 2.713127268608924e+000	 7.591751177624982e+000
 6.659304808376511e-001	 2.719657440725966e+000	 7.429764883638197e+000
 6.398144547486757e-001	 2.725919562954553e+000	 7.201212793639998e+000
 6.137109441074764e-001	 2.731914873725460e+000	 7.056835791569597e+000
 5.876237084678115e-001	 2.737644676987751e+000	 7.088655310648000e+000
 5.615564611634231e-001	 2.743110340673302e+000	 7.130653138918053e+000
 5.355128681273389e-001	 2.748313295139561e+000	 7.197215247652698e+000
 5.094965467656832e-001	 2.753255031592557e+000	 7.301292861251985e+000
 7.773219569376425e-001	 2.715952056911313e+000	 7.759336546599908e+000
 7.509610623820103e-001	 2.723358676886565e+000	 7.805034615442592e+000
 7.245971819459354e-001	 2.730491516945223e+000	 7.777441401680838e+000
 6.982342822764238e-001	 2.737351619220983e+000	 7.677282445644877e+000
 6.718762886982611e-001	 2.743940096446035e+000	 7.505422047449126e+000
 6.455270838052176e-001	 2.750258130480120e+000	 7.262859633244356e+000
 6.191905061051140e-001	 2.756306970811431e+000	 7.033050393026898e+000
 5.928703487191510e-001	 2.762087933031430e+000	 7.077560381812505e+000
 5.665703581358359e-001	 2.767602397285673e+000	 7.151002613670707e+000
 5.402942330197406e-001	 2.772851806702656e+000	 7.268359870447180e+000
 5.140456230752573e-001	 2.777837665802749e+000	 7.443128195207131e+000
 7.842009123045602e-001	 2.739987030865671e+000	 7.877551018612258e+000
 7.576067354961388e-001	 2.747459196150073e+000	 7.927225027962040e+000
 7.310095463836498e-001	 2.754655158686824e+000	 7.899226310286416e+000
 7.044133467171699e-001	 2.761575969832041e+000	 7.794364644805031e+000
 6.778220965588713e-001	 2.768222752165104e+000	 7.613593414033164e+000
 6.512397128617600e-001	 2.774596698004688e+000	 7.358005787775343e+000
 6.246700681027514e-001	 2.780699067896400e+000	 7.033734032408422e+000
 5.981169889704904e-001	 2.786531189074109e+000	 7.082255034462897e+000
 5.715842551082488e-001	 2.792094453897045e+000	 7.179241211405183e+000
 5.450755979121422e-001	 2.797390318264752e+000	 7.340284037786581e+000
 5.185946993848312e-001	 2.802420300011939e+000	 7.579435034028563e+000
 7.910798676714780e-001	 2.764022004819030e+000	 8.024544785969258e+000
 7.642524086102673e-001	 2.771559715412581e+000	 8.079044351409831e+000
 7.374219108213646e-001	 2.778818800427425e+000	 8.051512354751319e+000
 7.105924111579161e-001	 2.785800320442100e+000	 7.942841832887829e+000
 6.837679044194813e-001	 2.792505407883174e+000	 7.754074303747693e+000
 6.569523419183022e-001	 2.798935265528255e+000	 7.486395768144449e+000
 6.301496301003889e-001	 2.805091164980370e+000	 7.141132539103213e+000
 6.033636292218301e-001	 2.810974445115788e+000	 7.105695726271238e+000
 5.765981520806618e-001	 2.816586510507417e+000	 7.218008428533808e+000
 5.498569628045440e-001	 2.821928829825849e+000	 7.415318304962857e+000
 5.231437756944052e-001	 2.827002934220130e+000	 7.712243199790954e+000
 7.979588230383954e-001	 2.788056978771388e+000	 8.200303666439455e+000
 7.708980817243957e-001	 2.795660234674088e+000	 8.260437551928142e+000
 7.438342752590791e-001	 2.802982442167025e+000	 8.234201533530023e+000
 7.167714755986625e-001	 2.810024671051159e+000	 8.122570955529891e+000
 6.897137122800915e-001	 2.816788063600243e+000	 7.926674556377507e+000
 6.626649709748443e-001	 2.823273833050822e+000	 7.647790288467515e+000
 6.356291920980265e-001	 2.829483262063340e+000	 7.287340961209392e+000
 6.086102694731694e-001	 2.835417701156467e+000	 7.150858637722447e+000
 5.816120490530746e-001	 2.841078567116789e+000	 7.269965317798363e+000
 5.546383276969454e-001	 2.846467341385945e+000	 7.495816664690594e+000
 5.276928520039791e-001	 2.851585568427321e+000	 7.843607879470675e+000
 8.048377784053131e-001	 2.812091952722746e+000	 8.404821439788165e+000
 7.775437548385245e-001	 2.819760753934596e+000	 8.471358963234765e+000
 7.502466396967938e-001	 2.827146083905626e+000	 8.447206671362670e+000
 7.229505400394088e-001	 2.834249021659218e+000	 8.333421295459065e+000
 6.956595201407014e-001	 2.841070719316311e+000	 8.131217910647063e+000
 6.683776000313867e-001	 2.847612400572390e+000	 7.841965573619971e+000
 6.411087540956640e-001	 2.853875359145310e+000	 7.467182779405913e+000
 6.138569097245089e-001	 2.859860957196146e+000	 7.220738829258414e+000
 5.866259460254876e-001	 2.865570623725161e+000	 7.337793567059672e+000
 5.594196925893472e-001	 2.871005852945041e+000	 7.584155545508016e+000
 5.322419283135530e-001	 2.876168202633512e+000	 7.975608540976279e+000
 8.117167337722309e-001	 2.836126926673104e+000	 8.638099510404855e+000
 7.841894279526530e-001	 2.843861273194103e+000	 8.711771889692505e+000
 7.566590041345087e-001	 2.851309725643227e+000	 8.690450960534196e+000
 7.291296044801553e-001	 2.858473372266277e+000	 8.575273949736493e+000
 7.016053280013117e-001	 2.865353375031381e+000	 8.367541415281661e+000
 6.740902290879288e-001	 2.871950968092957e+000	 8.068712702001790e+000
 6.465883160933014e-001	 2.878267456226280e+000	 7.680401211940604e+000
 6.191035499758486e-001	 2.884304213234826e+000	 7.318349441280590e+000
 5.916398429979003e-001	 2.890062680332532e+000	 7.424194624928324e+000
 5.642010574817489e-001	 2.895544364503137e+000	 7.682732861106025e+000
 5.367910046231269e-001	 2.900750836838703e+000	 8.110347904294915e+000
 8.185956891391485e-001	 2.860161900622463e+000	 8.900146586940593e+000
 7.908351010667816e-001	 2.867961792452611e+000	 8.981648229390956e+000
 7.630713685722232e-001	 2.875473367379827e+000	 8.963867525263224e+000
 7.353086689209014e-001	 2.882697722872335e+000	 8.848021333355549e+000
 7.075511358619219e-001	 2.889636030745451e+000	 8.635494869764438e+000
 6.798028581444710e-001	 2.896289535612524e+000	 8.327836981439042e+000
 6.520678780909389e-001	 2.902659553306250e+000	 7.926755230004569e+000
 6.243501902271879e-001	 2.908747469272504e+000	 7.446720934487221e+000
 5.966537399703132e-001	 2.914554736938904e+000	 7.531888870480484e+000
 5.689824223741505e-001	 2.920082876060233e+000	 7.793967107591073e+000
 5.413400809327010e-001	 2.925333471042894e+000	 8.249950964514357e+000
 8.254746445060665e-001	 2.884196874570822e+000	 9.190978377964031e+000
 7.974807741809102e-001	 2.892062311710120e+000	 9.280968116074726e+000
 7.694837330099383e-001	 2.899637009115428e+000	 9.267399007871463e+000
 7.414877333616482e-001	 2.906922073477396e+000	 9.151566707661944e+000
 7.134969437225321e-001	 2.913918686458521e+000	 8.934940293054234e+000
 6.855154872010134e-001	 2.920628103131091e+000	 8.619157356291789e+000
 6.575474400885766e-001	 2.927051650385220e+000	 8.206018901359286e+000
 6.295968304785277e-001	 2.933190725309184e+000	 7.697484061335748e+000
 6.016676369427263e-001	 2.939046793544276e+000	 7.663614824489299e+000
 5.737637872665523e-001	 2.944621387616329e+000	 7.920296505884568e+000
 5.458891572422751e-001	 2.949916105246086e+000	 8.396564063694171e+000
 5.003983941465354e-001	 2.704089763169176e+000	 6.993051161853253e+000
 4.748769387281781e-001	 2.708688223695421e+000	 6.909409467112804e+000
 4.493892264735033e-001	 2.713033232976536e+000	 6.832766198564098e+000
 4.239386611108925e-001	 2.717126425418323e+000	 6.770390992427330e+000
 3.985285948199714e-001	 2.720969488838350e+000	 6.728272209661766e+000
 3.731623273929819e-001	 2.724564162849201e+000	 6.711132770391646e+000
 3.478431054491013e-001	 2.727912237233770e+000	 6.722448331531938e+000
 3.225741217013704e-001	 2.731015550314390e+000	 6.764467698286127e+000
 2.973585142758322e-001	 2.733875987317568e+000	 6.838235357611898e+000
 2.721993660824226e-001	 2.736495478736074e+000	 6.943616019607850e+000
 2.470997042370982e-001	 2.738875998690031e+000	 7.079321051067447e+000
 5.049474704561093e-001	 2.728672397381367e+000	 7.151925717553780e+000
 4.791940018074254e-001	 2.733312662094415e+000	 7.120548454084887e+000
 4.534745830783211e-001	 2.737697171460055e+000	 7.079543263446147e+000
 4.277926489401638e-001	 2.741827574742321e+000	 7.036686831123531e+000
 4.021515820469411e-001	 2.745705575102578e+000	 6.998454897301022e+000
 3.765547121890071e-001	 2.749332927968071e+000	 6.970037835189700e+000
 3.510053155002603e-001	 2.752711439392450e+000	 6.955358634181834e+000
 3.255066137184066e-001	 2.755842964410066e+000	 6.957093176659392e+000
 3.000617734979088e-001	 2.758729405385852e+000	 6.976692694604197e+000
 2.746739057751582e-001	 2.761372710362509e+000	 7.014408289930419e+000
 2.493460651853486e-001	 2.763774871406714e+000	 7.069317400665646e+000
 5.094965467656832e-001	 2.753255031592557e+000	 7.301292861251985e+000
 4.835110648866728e-001	 2.757937100492415e+000	 7.310045445551165e+000
 4.575599396831386e-001	 2.762361109942594e+000	 7.294008796497590e+000
 4.316466367694351e-001	 2.766528724065365e+000	 7.261470142754076e+000
 4.057745692739107e-001	 2.770441661365887e+000	 7.219394606200271e+000
 3.799470969850324e-001	 2.774101693086072e+000	 7.173440546551504e+000
 3.541675255514193e-001	 2.777510641550315e+000	 7.127977374226219e+000
 3.284391057354428e-001	 2.780670378504993e+000	 7.086105718351321e+000
 3.027650327199853e-001	 2.783582823453462e+000	 7.049679834021538e+000
 2.771484454678938e-001	 2.786249941988359e+000	 7.019332130599850e+000
 2.515924261335989e-001	 2.788673744122905e+000	 6.994499700974621e+000
 5.140456230752573e-001	 2.777837665802749e+000	 7.443128195207131e+000
 4.878281279659201e-001	 2.782561538889420e+000	 7.479771383968139e+000
 4.616452962879563e-001	 2.787025048424154e+000	 7.477919935818470e+000
 4.355006245987065e-001	 2.791229873387455e+000	 7.446375354983704e+000
 4.093975565008804e-001	 2.795177747628282e+000	 7.392594382279211e+000
 3.833394817810576e-001	 2.798870458203200e+000	 7.322704128265023e+000
 3.573297356025782e-001	 2.802309843707365e+000	 7.241519739880705e+000
 3.313715977524789e-001	 2.805497792599172e+000	 7.152564485423723e+000
 3.054682919420621e-001	 2.808436241520401e+000	 7.058092139856112e+000
 2.796229851606294e-001	 2.811127173613622e+000	 6.959111550006652e+000
 2.538387870818492e-001	 2.813572616838604e+000	 6.855413257276490e+000
 5.185946993848312e-001	 2.802420300011939e+000	 7.579435034028563e+000
 4.921451910451676e-001	 2.807185977285431e+000	 7.631620345787450e+000
 4.657306528927738e-001	 2.811688986904735e+000	 7.633053040599324e+000
 4.393546124279777e-001	 2.815931022708593e+000	 7.593052864765645e+000
 4.130205437278500e-001	 2.819913833889759e+000	 7.519570645383076e+000
 3.867318665770828e-001	 2.823639223319459e+000	 7.419203234148112e+000
 3.604919456537373e-001	 2.827109045863601e+000	 7.297211051696394e+000
 3.343040897695151e-001	 2.830325206692602e+000	 7.157538115222734e+000
 3.081715511641387e-001	 2.833289659586666e+000	 7.002834429142691e+000
 2.820975248533651e-001	 2.836004405238298e+000	 6.834480616049866e+000
 2.560851480300995e-001	 2.838471489553812e+000	 6.652614663171771e+000
 5.231437756944052e-001	 2.827002934220130e+000	 7.712243199790954e+000
 4.964622541244147e-001	 2.831810415680446e+000	 7.767508535629747e+000
 4.698160094975916e-001	 2.836352925384337e+000	 7.761202855420940e+000
 4.432086002572490e-001	 2.840632172028776e+000	 7.703168344024174e+000
 4.166435309548197e-001	 2.844649920150318e+000	 7.601852607806637e+000
 3.901242513731080e-001	 2.848407988434845e+000	 7.464323451090692e+000
 3.636541557048961e-001	 2.851908248019021e+000	 7.296286322023243e+000
 3.372365817865514e-001	 2.855152620785284e+000	 7.102104308410284e+000
 3.108748103862155e-001	 2.858143077652259e+000	 6.884820560958571e+000
 2.845720645461007e-001	 2.860881636862386e+000	 6.646183018767494e+000
 2.583315089783498e-001	 2.863370362268527e+000	 6.386671309783574e+000
 5.276928520039791e-001	 2.851585568427321e+000	 7.843607879470675e+000
 5.007793172036622e-001	 2.856434854074466e+000	 7.889373332484018e+000
 4.739013661024092e-001	 2.861016863862959e+000	 7.864181717781272e+000
 4.470625880865202e-001	 2.865333321348009e+000	 7.778402081250745e+000
 4.202665181817892e-001	 2.869386006409961e+000	 7.640981722896332e+000
 3.935166361691331e-001	 2.873176753549361e+000	 7.459460827801896e+000
 3.668163657560552e-001	 2.876707450173628e+000	 7.239989837260141e+000
 3.401690738035875e-001	 2.879980034877218e+000	 6.987349438303812e+000
 3.135780696082920e-001	 2.882996495717180e+000	 6.704973046678420e+000
 2.870466042388363e-001	 2.885758868485887e+000	 6.394971655588713e+000
 2.605778699266002e-001	 2.888269234982751e+000	 6.058160920345821e+000
 5.322419283135530e-001	 2.876168202633512e+000	 7.975608540976279e+000
 5.050963802829095e-001	 2.881059292467493e+000	 7.999172384820896e+000
 4.779867227072269e-001	 2.885680802340604e+000	 7.943818806260886e+000
 4.509165759157915e-001	 2.890034470666287e+000	 7.820448356864911e+000
 4.238895054087589e-001	 2.894122092668686e+000	 7.638511161927707e+000
 3.969090209651583e-001	 2.897945518663007e+000	 7.406021427723842e+000
 3.699785758072141e-001	 2.901506652327419e+000	 7.129574761527944e+000
 3.431015658206237e-001	 2.904807448968402e+000	 6.814368180249764e+000
 3.162813288303687e-001	 2.907849913781428e+000	 6.464222680219462e+000
 2.895211439315719e-001	 2.910636100108802e+000	 6.081608237856177e+000
 2.628242308748505e-001	 2.913168107696484e+000	 5.667671108661540e+000
 5.367910046231269e-001	 2.900750836838703e+000	 8.110347904294915e+000
 5.094134433621568e-001	 2.905683730859524e+000	 8.098882751715298e+000
 4.820720793120443e-001	 2.910344740817267e+000	 8.001959426918344e+000
 4.547705637450628e-001	 2.914735619983611e+000	 7.831014850335314e+000
 4.275124926357287e-001	 2.918858178926494e+000	 7.596005317583362e+000
 4.003014057611836e-001	 2.922714283775782e+000	 7.305420904677957e+000
 3.731407858583731e-001	 2.926305854480396e+000	 6.966302760495019e+000
 3.460340578376599e-001	 2.929634863058838e+000	 6.584263159842960e+000
 3.189845880524453e-001	 2.932703331845003e+000	 6.163508187085355e+000
 2.919956836243075e-001	 2.935513331731130e+000	 5.706862917354239e+000
 2.650705918231008e-001	 2.938066980409724e+000	 5.215798960009917e+000
 5.413400809327010e-001	 2.925333471042894e+000	 8.249950964514357e+000
 5.137305064414042e-001	 2.930308169250560e+000	 8.190500087275591e+000
 4.861574359168621e-001	 2.935008679292952e+000	 8.040464335664240e+000
 4.586245515743341e-001	 2.939436769299983e+000	 7.811822077194860e+000
 4.311354798626982e-001	 2.943594265183386e+000	 7.515039332465001e+000
 4.036937905572088e-001	 2.947483048887685e+000	 7.159084099908645e+000
 3.763029959095320e-001	 2.951105056632558e+000	 6.751443644169513e+000
 3.489665498546961e-001	 2.954462277148526e+000	 6.298144618882334e+000
 3.216878472745220e-001	 2.957556749907906e+000	 5.803775891107128e+000
 2.944702233170431e-001	 2.960390563352871e+000	 5.271513931670039e+000
 2.673169527713512e-001	 2.962965853122473e+000	 4.703150633185422e+000
 5.458891572422751e-001	 2.949916105246086e+000	 8.396564063694171e+000
 5.180475695206517e-001	 2.954932607640603e+000	 8.276037865850093e+000
 4.902427925216797e-001	 2.959672617767659e+000	 8.061209094518150e+000
 4.624785394036054e-001	 2.964137918615402e+000	 7.764602854204329e+000
 4.347584670896679e-001	 2.968330351439360e+000	 7.397198651180633e+000
 4.070861753532341e-001	 2.972251813998719e+000	 6.968444659273219e+000
 3.794652059606912e-001	 2.975904258783907e+000	 6.486275027551551e+000
 3.518990418717324e-001	 2.979289691237467e+000	 5.957130098029216e+000
 3.243911064965986e-001	 2.982410167970137e+000	 5.385979397845371e+000
 2.969447630097788e-001	 2.985267794974027e+000	 4.776347267283061e+000
 2.695633137196015e-001	 2.987864725834731e+000	 4.130340982434813e+000
 2.470997042370982e-001	 2.738875998690031e+000	 7.079321051067447e+000
 2.220624995334239e-001	 2.741019563288683e+000	 7.279119171244938e+000
 1.970906659666314e-001	 2.742928228994460e+000	 7.523320718080385e+000
 1.721870603070337e-001	 2.744604090990911e+000	 7.807940341307550e+000
 1.473544817196693e-001	 2.746049281555912e+000	 8.127931547551873e+000
 1.225956714330543e-001	 2.747265968441736e+000	 8.477220990829496e+000
 9.791331245501737e-002	 2.748256353263346e+000	 8.848743977785116e+000
 7.331002933477435e-002	 2.749022669896307e+000	 9.234481069696310e+000
 4.878838797036033e-002	 2.749567182885613e+000	 9.625495664500349e+000
 2.435089546050458e-002	 2.749892185866723e+000	 1.001197244362304e+001
 0.000000000000000e+000	 2.750000000000000e+000	 1.038325657019835e+001
 2.493460651853486e-001	 2.763774871406714e+000	 7.069317400665646e+000
 2.240812495293676e-001	 2.765937922956008e+000	 7.201966090111794e+000
 1.988823992934204e-001	 2.767863940167976e+000	 7.365992854137748e+000
 1.737523972184580e-001	 2.769555037273287e+000	 7.557545264729758e+000
 1.486940679164730e-001	 2.771013365934162e+000	 7.771693931478328e+000
 1.237101775362400e-001	 2.772241113609713e+000	 8.002467130177555e+000
 9.880343347656692e-002	 2.773240501929583e+000	 8.242886679665876e+000
 7.397648414620710e-002	 2.774013785077298e+000	 8.485004946613332e+000
 4.923191876954048e-002	 2.774563248184625e+000	 8.719942859181762e+000
 2.457226723710201e-002	 2.774891205738251e+000	 8.937928812024511e+000
 0.000000000000000e+000	 2.775000000000000e+000	 9.128338346920579e+000
 2.515924261335989e-001	 2.788673744122905e+000	 6.994499700974621e+000
 2.260999995253115e-001	 2.790856282622937e+000	 7.055927450877802e+000
 2.006741326202093e-001	 2.792799651341178e+000	 7.137173349509469e+000
 1.753177341298821e-001	 2.794505983555422e+000	 7.234509917187528e+000
 1.500336541132767e-001	 2.795977450312236e+000	 7.343115642338763e+000
 1.248246836394257e-001	 2.797216258777568e+000	 7.457109983706240e+000
 9.969355449811647e-002	 2.798224650595742e+000	 7.569589655239972e+000
 7.464293895763982e-002	 2.799004900258246e+000	 7.672666070943943e+000
 4.967544956872060e-002	 2.799559313483617e+000	 7.757503828201592e+000
 2.479363901369944e-002	 2.799890225609775e+000	 7.814360109633348e+000
 0.000000000000000e+000	 2.800000000000000e+000	 7.832624885396176e+000
 2.538387870818492e-001	 2.813572616838604e+000	 6.855413257276490e+000
 2.281187495212552e-001	 2.815774642289468e+000	 6.841537159429231e+000
 2.024658659469983e-001	 2.817735362514068e+000	 6.837376986335024e+000
 1.768830710413064e-001	 2.819456929837321e+000	 6.839322369771298e+000
 1.513732403100804e-001	 2.820941534690136e+000	 6.842650586751737e+000
 1.259391897426113e-001	 2.822191403945302e+000	 6.841561970851083e+000
 1.005836755196660e-001	 2.823208799261827e+000	 6.829216641584651e+000
 7.530939376907257e-002	 2.823996015439150e+000	 6.797772426611919e+000
 5.011898036790074e-002	 2.824555378782590e+000	 6.738423852771703e+000
 2.501501079029687e-002	 2.824889245481295e+000	 6.641442083506630e+000
 0.000000000000000e+000	 2.825000000000000e+000	 6.496215682112237e+000
 2.560851480300995e-001	 2.838471489553812e+000	 6.652614663171771e+000
 2.301374995171990e-001	 2.840693001955602e+000	 6.559336133615325e+000
 2.042575992737872e-001	 2.842671073686646e+000	 6.467121918737725e+000
 1.784484079527307e-001	 2.844407876118981e+000	 6.372471056960705e+000
 1.527128265068841e-001	 2.845905619067862e+000	 6.270750652260182e+000
 1.270536958457970e-001	 2.847166549112915e+000	 6.156231730114736e+000
 1.014737965412156e-001	 2.848192947927831e+000	 6.022126447832800e+000
 7.597584858050532e-002	 2.848987130620012e+000	 5.860626531422288e+000
 5.056251116708087e-002	 2.849551444081544e+000	 5.662942812407815e+000
 2.523638256689429e-002	 2.849888265352808e+000	 5.419345739566562e+000
 0.000000000000000e+000	 2.850000000000000e+000	 5.119206742450934e+000
 2.583315089783498e-001	 2.863370362268527e+000	 6.386671309783574e+000
 2.321562495131427e-001	 2.865611361621340e+000	 6.209871998379508e+000
 2.060493326005761e-001	 2.867606784858910e+000	 6.026929526215461e+000
 1.800137448641549e-001	 2.869358822400401e+000	 5.834444760826132e+000
 1.540524127036878e-001	 2.870869703445412e+000	 5.627865795117341e+000
 1.281682019489827e-001	 2.872141694280408e+000	 5.401524283457979e+000
 1.023639175627651e-001	 2.873177096593760e+000	 5.148673169433105e+000
 7.664230339193809e-002	 2.873978245800831e+000	 4.861525674717599e+000
 5.100604196626101e-002	 2.874547509380479e+000	 4.531295419784557e+000
 2.545775434349172e-002	 2.874887285224317e+000	 4.148237548736931e+000
 0.000000000000000e+000	 2.875000000000000e+000	 3.701690732476743e+000
 2.605778699266002e-001	 2.888269234982751e+000	 6.058160920345821e+000
 2.341749995090864e-001	 2.890529721286680e+000	 5.793698796662077e+000
 2.078410659273651e-001	 2.892542496030862e+000	 5.517324274617318e+000
 1.815790817755792e-001	 2.894309768681584e+000	 5.225732596045873e+000
 1.553919989004915e-001	 2.895833787822788e+000	 4.914444123531211e+000
 1.292827080521683e-001	 2.897116839447780e+000	 4.577841192183698e+000
 1.032540385843147e-001	 2.898161245259612e+000	 4.209206391324867e+000
 7.730875820337083e-002	 2.898969360981607e+000	 3.800762142743432e+000
 5.144957276544113e-002	 2.899543574679394e+000	 3.343711443444952e+000
 2.567912612008915e-002	 2.899886305095822e+000	 2.828279642417384e+000
 0.000000000000000e+000	 2.900000000000000e+000	 2.243757122872889e+000
 2.628242308748505e-001	 2.913168107696484e+000	 5.667671108661540e+000
 2.361937495050302e-001	 2.915448080951624e+000	 5.311376715124858e+000
 2.096327992541540e-001	 2.917478207202503e+000	 4.938833584246765e+000
 1.831444186870034e-001	 2.919260714962528e+000	 4.546823995692354e+000
 1.567315850972952e-001	 2.920797872199990e+000	 4.130931976641960e+000
 1.303972141553540e-001	 2.922091984615031e+000	 3.685580704828373e+000
 1.041441596058642e-001	 2.923145393925386e+000	 3.204071380695331e+000
 7.797521301480355e-002	 2.923960476162338e+000	 2.678623432455815e+000
 5.189310356462128e-002	 2.924539639978292e+000	 2.100415919088437e+000
 2.590049789668658e-002	 2.924885324967322e+000	 1.459629997931919e+000
 0.000000000000000e+000	 2.925000000000000e+000	 7.454923254956203e-001
 2.650705918231008e-001	 2.938066980409724e+000	 5.215798960009917e+000
 2.382124995009740e-001	 2.940366440616170e+000	 4.763471823825467e+000
 2.114245325809429e-001	 2.942413918373830e+000	 4.291987704674207e+000
 1.847097555984276e-001	 2.944211661243234e+000	 3.798208697739908e+000
 1.580711712940989e-001	 2.945761956577017e+000	 3.277773999481377e+000
 1.315117202585397e-001	 2.947067129782162e+000	 2.725137897534324e+000
 1.050342806274138e-001	 2.948129542591084e+000	 2.133609269935817e+000
 7.864166782623630e-002	 2.948951591343027e+000	 1.495392454457073e+000
 5.233663436380141e-002	 2.949535705277168e+000	 8.016293501141080e-001
 2.612186967328401e-002	 2.949884344838817e+000	 4.244261455047993e-002
 0.000000000000000e+000	 2.949999999999999e+000	-7.930201770145966e-001
 2.673169527713512e-001	 2.962965853122473e+000	 4.703150633185422e+000
 2.402312494969177e-001	 2.965284800280320e+000	 4.150555829014932e+000
 2.132162659077319e-001	 2.967349629544843e+000	 3.577319595859314e+000
 1.862750925098519e-001	 2.969162607523701e+000	 2.980376732255969e+000
 1.594107574909026e-001	 2.970726040953869e+000	 2.355413214154679e+000
 1.326262263617254e-001	 2.972042274949171e+000	 1.696904807342520e+000
 1.059244016489633e-001	 2.973113691256705e+000	 9.981572303706989e-001
 7.930812263766905e-002	 2.973942706523673e+000	 2.513477256996058e-001
 5.278016516298154e-002	 2.974531770576026e+000	-5.524321019458205e-001
 2.634324144988144e-002	 2.974883364710307e+000	-1.423132319366854e+000
 0.000000000000000e+000	 2.974999999999999e+000	-2.371699708155999e+000
 2.695633137196015e-001	 2.987864725834731e+000	 4.130340982434813e+000
 2.422499994928616e-001	 2.990203159944074e+000	 3.473205838296591e+000
 2.150079992345209e-001	 2.992285340715546e+000	 2.795364815218809e+000
 1.878404294212762e-001	 2.994113553803930e+000	 2.093818409227242e+000
 1.607503436877064e-001	 2.995690125330548e+000	 1.364291087462251e+000
 1.337407324649111e-001	 2.997017420116061e+000	 6.012705588230703e-001
 1.068145226705129e-001	 2.998097839922249e+000	-2.019513626955689e-001
 7.997457744910182e-002	 2.998933821704276e+000	-1.053236447444536e+000
 5.322369596216169e-002	 2.999527835874867e+000	-1.961556436514630e+000
 2.656461322647888e-002	 2.999882384581793e+000	-2.936948267580712e+000
 0.000000000000000e+000	 3.000000000000000e+000	-3.990468280643483e+000
 3.000000000000000e+000	 0.000000000000000e+000	 1.242878031676287e+001
 2.999882384581794e+000	 2.656461322647803e-002	 1.231745872120159e+001
 2.999527835874867e+000	 5.322369596216094e-002	 1.221443883071850e+001
 2.998933821704276e+000	 7.997457744910114e-002	 1.211748356540685e+001
 2.998097839922250e+000	 1.068145226705123e-001	 1.202447865647620e+001
 2.997017420116060e+000	 1.337407324649106e-001	 1.193343869573314e+001
 2.995690125330548e+000	 1.607503436877060e-001	 1.184251305257495e+001
 2.994113553803930e+000	 1.878404294212759e-001	 1.174999164039238e+001
 2.992285340715546e+000	 2.150079992345207e-001	 1.165431051404917e+001
 2.990203159944073e+000	 2.422499994928614e-001	 1.155405727993057e+001
 2.987864725834731e+000	 2.695633137196016e-001	 1.144797629992643e+001
 3.025000000000000e+000	 0.000000000000000e+000	 1.169225633085096e+001
 3.024881404453279e+000	 2.678598500307306e-002	 1.164324938549914e+001
 3.024523901173706e+000	 5.366722676133150e-002	 1.159822957344982e+001
 3.023924936884879e+000	 8.064103226051231e-002	 1.155503656028717e+001
 3.023081988587792e+000	 1.077046436920233e-001	 1.151164141596300e+001
 3.021992565282949e+000	 1.348552385680358e-001	 1.146615280329243e+001
 3.020654209707225e+000	 1.620899298844223e-001	 1.141682302381954e+001
 3.019064500084158e+000	 1.894057663325809e-001	 1.136205390232455e+001
 3.017221051886248e+000	 2.167997325611533e-001	 1.130040249101835e+001
 3.015121519607826e+000	 2.442687494886067e-001	 1.123058657429792e+001
 3.012763598546988e+000	 2.718096746676061e-001	 1.115148995481416e+001
 3.050000000000000e+000	 0.000000000000000e+000	 1.091887338817694e+001
 3.049880424324768e+000	 2.700735677966334e-002	 1.093784405075423e+001
 3.049519966472564e+000	 5.411075756048293e-002	 1.095639239841934e+001
 3.048916052065525e+000	 8.130748707188022e-002	 1.097243220816643e+001
 3.048066137253414e+000	 1.085947647134573e-001	 1.098401734175015e+001
 3.046967710449958e+000	 1.359697446710403e-001	 1.098934807764714e+001
 3.045618294084077e+000	 1.634295160809641e-001	 1.098677729019188e+001
 3.044015446364626e+000	 1.909711032436473e-001	 1.097481645652339e+001
 3.042156763057262e+000	 2.185914658874734e-001	 1.095214147175632e+001
 3.040039879271976e+000	 2.462874994839550e-001	 1.091759825261993e+001
 3.037662471259737e+000	 2.740560356151188e-001	 1.087020810969376e+001
 3.075000000000000e+000	 0.000000000000000e+000	 1.010997009520704e+001
 3.074879444196264e+000	 2.722872855624884e-002	 1.020244440332742e+001
 3.074516031771441e+000	 5.455428835961522e-002	 1.028999028031020e+001
 3.073907167246214e+000	 8.197394188320498e-002	 1.037059301737741e+001
 3.073050285919110e+000	 1.094848857348141e-001	 1.044238676026663e+001
 3.071942855617088e+000	 1.370842507739238e-001	 1.050366098913163e+001
 3.070582378461104e+000	 1.647691022773312e-001	 1.055286683536628e+001
 3.068966392645331e+000	 1.925364401544753e-001	 1.058862321534303e+001
 3.067092474228590e+000	 2.203831992134809e-001	 1.060972276083635e+001
 3.064958238936522e+000	 2.483062494789064e-001	 1.061513752573469e+001
 3.062561343972977e+000	 2.763023965621398e-001	 1.060402444853464e+001
 3.100000000000000e+000	 0.000000000000000e+000	 9.266841877553739e+000
 3.099878464067764e+000	 2.745010033282959e-002	 9.438212914405847e+000
 3.099512097070338e+000	 5.499781915872840e-002	 9.600050958409275e+000
 3.098898282426945e+000	 8.264039669448649e-002	 9.750410253384244e+000
 3.098034434584885e+000	 1.103750067560939e-001	 9.887502758974463e+000
 3.096918000784339e+000	 1.381987568766865e-001	 1.000970478298364e+001
 3.095546462838306e+000	 1.661086884735237e-001	 1.011556344032525e+001
 3.093917338926274e+000	 1.941017770650647e-001	 1.020380291792282e+001
 3.092028185400229e+000	 2.221749325391758e-001	 1.027333052467666e+001
 3.089876598601466e+000	 2.503249994734608e-001	 1.032324250545038e+001
 3.087460216686710e+000	 2.785487575086693e-001	 1.035282959792487e+001
 3.125000000000000e+000	 0.000000000000000e+000	 8.390742707210023e+000
 3.124877483939268e+000	 2.767147210940556e-002	 8.646274408609656e+000
 3.124508162369254e+000	 5.544134995782243e-002	 8.887568346023141e+000
 3.123889397607720e+000	 8.330685150572482e-002	 9.112745188497307e+000
 3.123018583250737e+000	 1.112651277772966e-001	 9.320092275927534e+000
 3.121893145951711e+000	 1.393132629793283e-001	 9.508070408348237e+000
 3.120510547215681e+000	 1.674482746695415e-001	 9.675320451467249e+000
 3.118868285207457e+000	 1.956671139754157e-001	 9.820669737116015e+000
 3.116963896572181e+000	 2.239666658645581e-001	 9.943138237066560e+000
 3.114794958266806e+000	 2.523437494676182e-001	 1.004194448850682e+001
 3.112359089400934e+000	 2.807951184547070e-001	 1.011651124936627e+001
 3.150000000000000e+000	 0.000000000000000e+000	 9.191710399472601e+000
 3.149876503810778e+000	 2.789284388597678e-002	 9.371549247188616e+000
 3.149504227668188e+000	 5.588488075689733e-002	 9.526848891371934e+000
 3.148880512788539e+000	 8.397330631691997e-002	 9.659937793951682e+000
 3.148002731916666e+000	 1.121552487984222e-001	 9.772947166542648e+000
 3.146868291119203e+000	 1.404277690818493e-001	 9.867799449832992e+000
 3.145474631593232e+000	 1.687878608653847e-001	 9.946196850823778e+000
 3.143819231488878e+000	 1.972324508855280e-001	 1.000960996638574e+001
 3.141899607744446e+000	 2.257583991896277e-001	 1.005926652247006e+001
 3.139713317932544e+000	 2.543624994613787e-001	 1.009614025912154e+001
 3.137257962115649e+000	 2.830414794002528e-001	 1.012093999220030e+001
 3.175000000000000e+000	 0.000000000000000e+000	 9.962651496888178e+000
 3.174875523682292e+000	 2.811421566254322e-002	 1.007629263660379e+001
 3.174500292967143e+000	 5.632841155595311e-002	 1.016761851893324e+001
 3.173871627969401e+000	 8.463976112807191e-002	 1.023919755944760e+001
 3.172986880582671e+000	 1.130453698194708e-001	 1.029339824996216e+001
 3.171843436286817e+000	 1.415422751842494e-001	 1.033237724837610e+001
 3.170438715970958e+000	 1.701274470610533e-001	 1.035806752245101e+001
 3.168770177770539e+000	 1.987977877954020e-001	 1.037216657668677e+001
 3.166835318917023e+000	 2.275501325143849e-001	 1.037612479235454e+001
 3.164631677598678e+000	 2.563812494547423e-001	 1.037113391159134e+001
 3.162156834830856e+000	 2.852878403453070e-001	 1.035811569724363e+001
 3.199999999999999e+000	 0.000000000000000e+000	 1.070470517388717e+001
 3.199874543553811e+000	 2.833558743910490e-002	 1.075390056001142e+001
 3.199496358266115e+000	 5.677194235498975e-002	 1.078313144816956e+001
 3.198862743150305e+000	 8.530621593918064e-002	 1.079520764342553e+001
 3.197971029248754e+000	 1.139354908404423e-001	 1.079273621656800e+001
 3.196818581454552e+000	 1.426567812865288e-001	 1.077810919842853e+001
 3.195402800348857e+000	 1.714670332565473e-001	 1.075349132427279e+001
 3.193721124052436e+000	 2.003631247050374e-001	 1.072080785813402e+001
 3.191771030089913e+000	 2.293418658388294e-001	 1.068173252788411e+001
 3.189550037265209e+000	 2.583999994477089e-001	 1.063767560271686e+001
 3.187055707546556e+000	 2.875342012898696e-001	 1.058977214552860e+001
 3.224999999999999e+000	 0.000000000000000e+000	 1.141897528166206e+001
 3.224873563425334e+000	 2.855695921566181e-002	 1.140534653723094e+001
 3.224492423565108e+000	 5.721547315400726e-002	 1.137423194633289e+001
 3.223853858331254e+000	 8.597267075024617e-002	 1.132868420586160e+001
 3.222955177914914e+000	 1.148256118613367e-001	 1.127155033061312e+001
 3.221793726622407e+000	 1.437712873886872e-001	 1.120545894603417e+001
 3.220366884726932e+000	 1.728066194518667e-001	 1.113280762722846e+001
 3.218672070334573e+000	 2.019284616144343e-001	 1.105575031481041e+001
 3.216706741263116e+000	 2.311335991629613e-001	 1.097618483915576e+001
 3.214468396932137e+000	 2.604187494402785e-001	 1.089574058550511e+001
 3.211954580262747e+000	 2.897805622339404e-001	 1.081576633321888e+001
 3.250000000000000e+000	 0.000000000000000e+000	 1.210653170675332e+001
 3.249872583296864e+000	 2.877833099221397e-002	 1.203157324270458e+001
 3.249488488864120e+000	 5.765900395300565e-002	 1.194173656566079e+001
 3.248844973512246e+000	 8.663912556126854e-002	 1.184031883210991e+001
 3.247939326581152e+000	 1.157157328821541e-001	 1.173040843106704e+001
 3.246768871790384e+000	 1.448857934907248e-001	 1.161487186913329e+001
 3.245330969105183e+000	 1.741462056470114e-001	 1.149634069804593e+001
 3.243623016616949e+000	 2.034937985235927e-001	 1.137719851604264e+001
 3.241642452436632e+000	 2.329253324867807e-001	 1.125956807535679e+001
 3.239386756599464e+000	 2.624374994324513e-001	 1.114529852909767e+001
 3.236853452979430e+000	 2.920269231775197e-001	 1.103595285164151e+001
 2.987864725834731e+000	 2.695633137196016e-001	 1.144797629992643e+001
 2.985267794974027e+000	 2.969447630097781e-001	 1.138203116249676e+001
 2.982410167970137e+000	 3.243911064965980e-001	 1.131361148642299e+001
 2.979289691237467e+000	 3.518990418717317e-001	 1.124267360813035e+001
 2.975904258783907e+000	 3.794652059606907e-001	 1.116935795691624e+001
 2.972251813998720e+000	 4.070861753532337e-001	 1.109399244521476e+001
 2.968330351439360e+000	 4.347584670896676e-001	 1.101709551897234e+001
 2.964137918615402e+000	 4.624785394036054e-001	 1.093937885045701e+001
 2.959672617767659e+000	 4.902427925216799e-001	 1.086174965624354e+001
 2.954932607640602e+000	 5.180475695206518e-001	 1.078531262360567e+001
 2.949916105246086e+000	 5.458891572422751e-001	 1.071137142910815e+001
 3.012763598546988e+000	 2.718096746676061e-001	 1.115148995481416e+001
 3.010145026595181e+000	 2.994193027022249e-001	 1.112831398977932e+001
 3.007263586032368e+000	 3.270943657183576e-001	 1.109824150277161e+001
 3.004117105326406e+000	 3.548315338884370e-001	 1.106125501134379e+001
 3.000703460935254e+000	 3.826274160115197e-001	 1.101752901026935e+001
 2.997020579109751e+000	 4.104785601489447e-001	 1.096743347443960e+001
 2.993066437695334e+000	 4.383814543163541e-001	 1.091153701006192e+001
 2.988839067930820e+000	 4.663325272326392e-001	 1.085060963591987e+001
 2.984336556242366e+000	 4.943281491263213e-001	 1.078562517688837e+001
 2.979557046030643e+000	 5.223646325997995e-001	 1.071776325240241e+001
 2.974498739449277e+000	 5.504382335518415e-001	 1.064841084315732e+001
 3.037662471259737e+000	 2.740560356151188e-001	 1.087020810969376e+001
 3.035022258216923e+000	 3.018938423940945e-001	 1.089018080430656e+001
 3.032117004095270e+000	 3.297976249394831e-001	 1.089872561231555e+001
 3.028944519416094e+000	 3.577640259044807e-001	 1.089585141645297e+001
 3.025502663087416e+000	 3.857896260616889e-001	 1.088176711047205e+001
 3.021789344221656e+000	 4.138709449440278e-001	 1.085688521711204e+001
 3.017802523952225e+000	 4.420044415424737e-001	 1.082182514234941e+001
 3.013540217247192e+000	 4.701865150611985e-001	 1.077741604712453e+001
 3.009000494718050e+000	 4.984135057306106e-001	 1.072469931817694e+001
 3.004181484421680e+000	 5.266816956787483e-001	 1.066493062014607e+001
 2.999081373653468e+000	 5.549873098613937e-001	 1.059958151168997e+001
 3.062561343972977e+000	 2.763023965621398e-001	 1.060402444853464e+001
 3.059899489839250e+000	 3.043683820853868e-001	 1.066747549613186e+001
 3.056970422158846e+000	 3.325008841599745e-001	 1.071485641032395e+001
 3.053771933506530e+000	 3.606965179198626e-001	 1.074620264006258e+001
 3.050301865240394e+000	 3.889518361111983e-001	 1.076175783037099e+001
 3.046558109334431e+000	 4.172633297384824e-001	 1.076197755782977e+001
 3.042538610210034e+000	 4.456274287680268e-001	 1.074753269012772e+001
 3.038241366564517e+000	 4.740405028892829e-001	 1.071931235028316e+001
 3.033664433194715e+000	 5.024988623345476e-001	 1.067842646660093e+001
 3.028805922813712e+000	 5.309987587574983e-001	 1.062620788996781e+001
 3.023664007858659e+000	 5.595363861709308e-001	 1.056421406070593e+001
 3.087460216686710e+000	 2.785487575086693e-001	 1.035282959792487e+001
 3.084776721462165e+000	 3.068429217761016e-001	 1.046003961437032e+001
 3.081823840223092e+000	 3.352041433798317e-001	 1.054642487274904e+001
 3.078599347597716e+000	 3.636290099345829e-001	 1.061204760602356e+001
 3.075101067394185e+000	 3.921140461600480e-001	 1.065718658132071e+001
 3.071326874448076e+000	 4.206557145323085e-001	 1.068234095540939e+001
 3.067274696468760e+000	 4.492504159930133e-001	 1.068823374181301e+001
 3.062942515882795e+000	 4.778944907168927e-001	 1.067581486956749e+001
 3.058328371672358e+000	 5.065842189381321e-001	 1.064626381411147e+001
 3.053430361206738e+000	 5.353158218360491e-001	 1.060099178134843e+001
 3.048246642064849e+000	 5.640854624804536e-001	 1.054164342655545e+001
 3.112359089400934e+000	 2.807951184547070e-001	 1.011651124936627e+001
 3.109653953085667e+000	 3.093174614662391e-001	 1.026771246083612e+001
 3.106677258288014e+000	 3.379074025990549e-001	 1.039322042099876e+001
 3.103426761689648e+000	 3.665615019486414e-001	 1.049312438114319e+001
 3.099900269548793e+000	 3.952762562082376e-001	 1.056773861964340e+001
 3.096095639562592e+000	 4.240480993255069e-001	 1.061760641991766e+001
 3.092010782728402e+000	 4.528734032174331e-001	 1.064350364737989e+001
 3.087643665202026e+000	 4.817484785440278e-001	 1.064644190479022e+001
 3.082992310150981e+000	 5.106695755413646e-001	 1.062767124590087e+001
 3.078054799600758e+000	 5.396328849144008e-001	 1.058868242786439e+001
 3.072829276272041e+000	 5.686345387899614e-001	 1.053120868352508e+001
 3.137257962115649e+000	 2.830414794002528e-001	 1.012093999220030e+001
 3.134531184709755e+000	 3.117920011557995e-001	 1.023429024258331e+001
 3.131530676353607e+000	 3.406106618176440e-001	 1.033397285751144e+001
 3.128254175782330e+000	 3.694939939620384e-001	 1.041972837852793e+001
 3.124699471704214e+000	 3.984384662557676e-001	 1.049309905278111e+001
 3.120864404677979e+000	 4.274404841180767e-001	 1.056740549079642e+001
 3.116746868988961e+000	 4.564963904412863e-001	 1.061291896829945e+001
 3.112344814522210e+000	 4.856024663706879e-001	 1.063071365300672e+001
 3.107656248630582e+000	 5.147549321442447e-001	 1.062211123352779e+001
 3.102679237995774e+000	 5.439499479925537e-001	 1.058868324170782e+001
 3.097411910480231e+000	 5.731836150994546e-001	 1.053225287963386e+001
 3.162156834830856e+000	 2.852878403453070e-001	 1.035811569724363e+001
 3.159408416334431e+000	 3.142665408447823e-001	 1.043310796365170e+001
 3.156384094419872e+000	 3.433139210355990e-001	 1.049765420083451e+001
 3.153081589875761e+000	 3.724264859747735e-001	 1.055155883281772e+001
 3.149498673860448e+000	 4.016006763026376e-001	 1.059431176723154e+001
 3.145633169794238e+000	 4.308328689100185e-001	 1.062507862561396e+001
 3.141482955250438e+000	 4.601193776645728e-001	 1.064269135833990e+001
 3.137045963843348e+000	 4.894564541968736e-001	 1.064563927908452e+001
 3.132320187111163e+000	 5.188402887467726e-001	 1.063206055382273e+001
 3.127303676391783e+000	 5.482670110705075e-001	 1.059973417935569e+001
 3.121994544689422e+000	 5.777326914089332e-001	 1.054412288018727e+001
 3.187055707546556e+000	 2.875342012898696e-001	 1.058977214552860e+001
 3.184285647959694e+000	 3.167410805331879e-001	 1.062581723242627e+001
 3.181237512486810e+000	 3.460171802529199e-001	 1.065477859148867e+001
 3.177909003969941e+000	 3.753589779868470e-001	 1.067652585214848e+001
 3.174297876017497e+000	 4.047628863488477e-001	 1.069060585005581e+001
 3.170401934911367e+000	 4.342252537013319e-001	 1.069623255447409e+001
 3.166219041512832e+000	 4.637423648872929e-001	 1.069227738872998e+001
 3.161747113165438e+000	 4.933104420225843e-001	 1.067725997953845e+001
 3.156984125592723e+000	 5.229256453489481e-001	 1.064933937112166e+001
 3.151928114788788e+000	 5.525840741482623e-001	 1.060630574003444e+001
 3.146577178899613e+000	 5.822817677183971e-001	 1.054557264648495e+001
 3.211954580262747e+000	 2.897805622339404e-001	 1.081576633321888e+001
 3.209162879585543e+000	 3.192156202210161e-001	 1.081224347915282e+001
 3.206090930554421e+000	 3.487204394696067e-001	 1.080514146970067e+001
 3.202736418064867e+000	 3.782914699982588e-001	 1.079439648819375e+001
 3.199097078175363e+000	 4.079250963943982e-001	 1.077961347104969e+001
 3.195170700029367e+000	 4.376176384920170e-001	 1.076005572650775e+001
 3.190955127776143e+000	 4.673653521094462e-001	 1.073463495500959e+001
 3.186448262488483e+000	 4.971644298478204e-001	 1.070190170797388e+001
 3.181648064075263e+000	 5.270110019507714e-001	 1.066003632181897e+001
 3.176552553186789e+000	 5.569011372258180e-001	 1.060684036408303e+001
 3.171159813110805e+000	 5.868308440278466e-001	 1.053972862836913e+001
 3.236853452979430e+000	 2.920269231775197e-001	 1.103595285164151e+001
 3.234040111211981e+000	 3.216901599082671e-001	 1.099221029277125e+001
 3.230944348622705e+000	 3.514236986856595e-001	 1.094853700199535e+001
 3.227563832160544e+000	 3.812239620090089e-001	 1.090493709041601e+001
 3.223896280334044e+000	 4.110873064392889e-001	 1.086107479192543e+001
 3.219939465148238e+000	 4.410100232820741e-001	 1.081626376747001e+001
 3.215691214040371e+000	 4.709883393310330e-001	 1.076945681971491e+001
 3.211149411812481e+000	 5.010184176725819e-001	 1.071923605580118e+001
 3.206312002558782e+000	 5.310963585522426e-001	 1.066380353600203e+001
 3.201176991585784e+000	 5.612182003031750e-001	 1.060097244608121e+001
 3.195742447322996e+000	 5.913799203372813e-001	 1.052815883103574e+001
 2.949916105246086e+000	 5.458891572422751e-001	 1.071137142910815e+001
 2.944621387616330e+000	 5.737637872665515e-001	 1.103783470637304e+001
 2.939046793544276e+000	 6.016676369427255e-001	 1.133109149804518e+001
 2.933190725309185e+000	 6.295968304785271e-001	 1.153358591385062e+001
 2.927051650385221e+000	 6.575474400885762e-001	 1.142648433849001e+001
 2.920628103131091e+000	 6.855154872010131e-001	 1.133429705902026e+001
 2.913918686458520e+000	 7.134969437225318e-001	 1.125800746891071e+001
 2.906922073477395e+000	 7.414877333616480e-001	 1.119857547273664e+001
 2.899637009115428e+000	 7.694837330099382e-001	 1.115693550102475e+001
 2.892062311710120e+000	 7.974807741809104e-001	 1.113399453437167e+001
 2.884196874570821e+000	 8.254746445060665e-001	 1.113063014147586e+001
 2.974498739449277e+000	 5.504382335518415e-001	 1.064841084315732e+001
 2.969159899172426e+000	 5.785451521590409e-001	 1.100833874283934e+001
 2.963538850149648e+000	 6.066815339153120e-001	 1.133007877444249e+001
 2.957633981345864e+000	 6.348434707301158e-001	 1.148428591631219e+001
 2.951443747464190e+000	 6.630270020865290e-001	 1.139049296921667e+001
 2.944966670649659e+000	 6.912281162579266e-001	 1.131061030171179e+001
 2.938201342171590e+000	 7.194427515835593e-001	 1.124558994314750e+001
 2.931146424082455e+000	 7.476667978028478e-001	 1.119636020408519e+001
 2.923800650851030e+000	 7.758960974481323e-001	 1.116382370252657e+001
 2.916162830967627e+000	 8.041264472955336e-001	 1.114885540035798e+001
 2.908231848519180e+000	 8.323535998734841e-001	 1.115230065468505e+001
 2.999081373653468e+000	 5.549873098613937e-001	 1.059958151168997e+001
 2.993698410729522e+000	 5.833265170517062e-001	 1.099015502433153e+001
 2.988030906756019e+000	 6.116954308882450e-001	 1.133747327428977e+001
 2.982077237383543e+000	 6.400901109822029e-001	 1.143756910485474e+001
 2.975835844544160e+000	 6.685065640851122e-001	 1.135547697037520e+001
 2.969305238169226e+000	 6.969407453155827e-001	 1.128632377229906e+001
 2.962483997885659e+000	 7.253885594454219e-001	 1.123103124503258e+001
 2.955370774688512e+000	 7.538458622449543e-001	 1.119049715655669e+001
 2.947964292587630e+000	 7.823084618872848e-001	 1.116559334457766e+001
 2.940263350226134e+000	 8.107721204111464e-001	 1.115716376383759e+001
 2.932266822468538e+000	 8.392325552419018e-001	 1.116602254929804e+001
 3.023664007858659e+000	 5.595363861709308e-001	 1.056421406070593e+001
 3.018236922287618e+000	 5.881078819445471e-001	 1.098260234202530e+001
 3.012522963363392e+000	 6.167093278615249e-001	 1.135258035048074e+001
 3.006520493422222e+000	 6.453367512347888e-001	 1.139319156196899e+001
 3.000227941625130e+000	 6.739861260843261e-001	 1.132121273604400e+001
 2.993643805689794e+000	 7.026533743739817e-001	 1.126123387930425e+001
 2.986766653600728e+000	 7.313343673081192e-001	 1.121414749049653e+001
 2.979595125295572e+000	 7.600249266879680e-001	 1.118082183652389e+001
 2.972127934325230e+000	 7.887208263273956e-001	 1.116209899706142e+001
 2.964363869485643e+000	 8.174177935277492e-001	 1.115879292127911e+001
 2.956301796418896e+000	 8.461115106113193e-001	 1.117168750142514e+001
 3.048246642064849e+000	 5.640854624804536e-001	 1.054164342655545e+001
 3.042775433846714e+000	 5.928892468375639e-001	 1.098500287735871e+001
 3.037015019971764e+000	 6.217232248351519e-001	 1.137470784007088e+001
 3.030963749461900e+000	 6.505833914878730e-001	 1.135091096269524e+001
 3.024620038707100e+000	 6.794656880841704e-001	 1.128747737622570e+001
 3.017982373211361e+000	 7.083660034331236e-001	 1.123513688603218e+001
 3.011049309316797e+000	 7.372801751716516e-001	 1.119475380508867e+001
 3.003819475903630e+000	 7.662039911318882e-001	 1.116716793128289e+001
 2.996291576063830e+000	 7.951331907684651e-001	 1.115319259904528e+001
 2.988464388746150e+000	 8.240634666453414e-001	 1.115361274403464e+001
 2.980336770370254e+000	 8.529904659817371e-001	 1.116918298567781e+001
 3.072829276272041e+000	 5.686345387899614e-001	 1.053120868352508e+001
 3.067313945406811e+000	 5.976706117307563e-001	 1.099668206642171e+001
 3.061507076581136e+000	 6.267371218091253e-001	 1.137628235221276e+001
 3.055407005502580e+000	 6.558300317414558e-001	 1.131048651092138e+001
 3.049012135790070e+000	 6.849452500846452e-001	 1.125404868821011e+001
 3.042320940733927e+000	 7.140786324930076e-001	 1.120782891637882e+001
 3.035331965033866e+000	 7.432259830360185e-001	 1.117266436359215e+001
 3.028043826512689e+000	 7.723830555767157e-001	 1.114936738181628e+001
 3.020455217803432e+000	 8.015455552104932e-001	 1.113872356401326e+001
 3.012564908007657e+000	 8.307091397639229e-001	 1.114148981534471e+001
 3.004371744322612e+000	 8.598694213531548e-001	 1.115839244322855e+001
 3.097411910480231e+000	 5.731836150994546e-001	 1.053225287963386e+001
 3.091852456967906e+000	 6.024519766241243e-001	 1.101696847080328e+001
 3.085999133191508e+000	 6.317510187834460e-001	 1.133119296637203e+001
 3.079850261544259e+000	 6.610766719955371e-001	 1.127167887871429e+001
 3.073404232874039e+000	 6.904248120857505e-001	 1.122070512930100e+001
 3.066659508257495e+000	 7.197912615536350e-001	 1.117910596036364e+001
 3.059614620751936e+000	 7.491717909012207e-001	 1.114769242775297e+001
 3.052268177122748e+000	 7.785621200224497e-001	 1.112725045209121e+001
 3.044618859544032e+000	 8.079579196534795e-001	 1.111853888008755e+001
 3.036665427270164e+000	 8.373548128834940e-001	 1.112228756081874e+001
 3.028406718275971e+000	 8.667483767255725e-001	 1.113919544186801e+001
 3.121994544689422e+000	 5.777326914089332e-001	 1.054412288018727e+001
 3.116390968530002e+000	 6.072333415176683e-001	 1.104519365454028e+001
 3.110491189802878e+000	 6.367649157581131e-001	 1.128902745930256e+001
 3.104293517586938e+000	 6.663233122501170e-001	 1.123425014851752e+001
 3.097796329959009e+000	 6.959043740874865e-001	 1.118722579083125e+001
 3.090998075782062e+000	 7.255038906150046e-001	 1.114876387940004e+001
 3.083897276471005e+000	 7.551175987672575e-001	 1.111965038222611e+001
 3.076492527733806e+000	 7.847411844690908e-001	 1.110064579508372e+001
 3.068782501285632e+000	 8.143702840974243e-001	 1.109248320551518e+001
 3.060765946533673e+000	 8.440004860040550e-001	 1.109586637275126e+001
 3.052441692230329e+000	 8.736273320989901e-001	 1.111146782850032e+001
 3.146577178899613e+000	 5.822817677183971e-001	 1.054557264648495e+001
 3.140929480093099e+000	 6.120147064113878e-001	 1.106585771859833e+001
 3.134983246415251e+000	 6.417788127331275e-001	 1.124347204560061e+001
 3.128736773630616e+000	 6.715699525051951e-001	 1.119699643640715e+001
 3.122188427044979e+000	 7.013839360898529e-001	 1.115339037339608e+001
 3.115336643307630e+000	 7.312165196771173e-001	 1.111659841131930e+001
 3.108179932191074e+000	 7.610634066341294e-001	 1.108834976883705e+001
 3.100716878345865e+000	 7.909202489166386e-001	 1.106938051570796e+001
 3.092946143028234e+000	 8.207826485423280e-001	 1.106039895967890e+001
 3.084866465798181e+000	 8.506461591256058e-001	 1.106208372861073e+001
 3.076476666185687e+000	 8.805062874734078e-001	 1.107508187449025e+001
 3.171159813110805e+000	 5.868308440278466e-001	 1.053972862836913e+001
 3.165467991657194e+000	 6.167960713052830e-001	 1.107449533815914e+001
 3.159475303028622e+000	 6.467927097084883e-001	 1.118351967837603e+001
 3.153180029675295e+000	 6.768165927607720e-001	 1.114915264854603e+001
 3.146580524131949e+000	 7.068634980928501e-001	 1.111611245037686e+001
 3.139675210834196e+000	 7.369291487399725e-001	 1.108521403581882e+001
 3.132462587912144e+000	 7.670092145018360e-001	 1.105729873951169e+001
 3.124941228958923e+000	 7.970993133650934e-001	 1.103328023081868e+001
 3.117109784771834e+000	 8.271950129881899e-001	 1.102212640987456e+001
 3.108966985063688e+000	 8.572918322481459e-001	 1.102079430401733e+001
 3.100511640142045e+000	 8.873852428488256e-001	 1.102990641425001e+001
 3.195742447322996e+000	 5.913799203372813e-001	 1.052815883103574e+001
 3.190006503222291e+000	 6.215774361993541e-001	 1.107647441933643e+001
 3.183967359642995e+000	 6.518066066841965e-001	 1.111462982475507e+001
 3.177623285720975e+000	 6.820632330168474e-001	 1.109158682104158e+001
 3.170972621219919e+000	 7.123430600964776e-001	 1.106853399278452e+001
 3.164013778361765e+000	 7.426417778035709e-001	 1.104624351870877e+001
 3.156745243634214e+000	 7.729550223703777e-001	 1.102551495627052e+001
 3.149165579572983e+000	 8.032783778144553e-001	 1.100717550019816e+001
 3.141273426516435e+000	 8.336073774350107e-001	 1.099208019777071e+001
 3.133067504330197e+000	 8.639375053716757e-001	 1.098111211825780e+001
 3.124546614099405e+000	 8.942641982252434e-001	 1.097580697742964e+001
 2.884196874570821e+000	 8.254746445060665e-001	 1.113063014147586e+001
 2.876039667508701e+000	 8.534610892875464e-001	 1.115317867151763e+001
 2.867589738332473e+000	 8.814358131068238e-001	 1.117259159980596e+001
 2.858846214307540e+000	 9.093944814890325e-001	 1.118884226410430e+001
 2.849808303576409e+000	 9.373327226216522e-001	 1.120187788334751e+001
 2.840475296538247e+000	 9.652461291268561e-001	 1.121161872185210e+001
 2.830846567185376e+000	 9.931302598865214e-001	 1.121795729926058e+001
 2.820921574394556e+000	 1.020980641918824e+000	 1.122075764962729e+001
 2.810699863170943e+000	 1.048792772305250e+000	 1.121985463300138e+001
 2.800181065842599e+000	 1.076562120166735e+000	 1.121505330279725e+001
 2.789364903203508e+000	 1.104284128687585e+000	 1.120612833216459e+001
 2.908231848519180e+000	 8.323535998734841e-001	 1.115230065468505e+001
 2.900006664731933e+000	 8.605732650282778e-001	 1.116412327698000e+001
 2.891486319479657e+000	 8.887811115462038e-001	 1.117396754757019e+001
 2.882669932754969e+000	 9.169727688317708e-001	 1.118187946517596e+001
 2.873556706101563e+000	 9.451438286406900e-001	 1.118787815938446e+001
 2.864145924005265e+000	 9.732898468669845e-001	 1.119195495867108e+001
 2.854436955241667e+000	 1.001406345383214e+000	 1.119407250416741e+001
 2.844429254178170e+000	 1.029488813932706e+000	 1.119416391276857e+001
 2.834122362028305e+000	 1.057532712072627e+000	 1.119213199312400e+001
 2.823515908056200e+000	 1.085533471166585e+000	 1.118784851799270e+001
 2.812609610729128e+000	 1.113486496425423e+000	 1.118115355636815e+001
 2.932266822468538e+000	 8.392325552419018e-001	 1.116602254929804e+001
 2.923973661956154e+000	 8.676854407700045e-001	 1.116839221375123e+001
 2.915382900627801e+000	 8.961264099865641e-001	 1.116994768950216e+001
 2.906493651203310e+000	 9.245510561754659e-001	 1.117080717248322e+001
 2.897305108627561e+000	 9.529549346606492e-001	 1.117106121636188e+001
 2.887816551473039e+000	 9.813335646079899e-001	 1.117077170421977e+001
 2.878027343298605e+000	 1.009682430880729e+000	 1.116997086602707e+001
 2.867936933962303e+000	 1.037996985947348e+000	 1.116866034569193e+001
 2.857544860886037e+000	 1.066272651840688e+000	 1.116681032141859e+001
 2.846850750270003e+000	 1.094504822167034e+000	 1.116435868304783e+001
 2.835854318254756e+000	 1.122688864163766e+000	 1.116121026997856e+001
 2.956301796418896e+000	 8.461115106113193e-001	 1.117168750142514e+001
 2.947940659181365e+000	 8.747976165127259e-001	 1.116583102760043e+001
 2.939279481776907e+000	 9.034717084279046e-001	 1.116033187451021e+001
 2.930317369652564e+000	 9.321293435201170e-001	 1.115537999511555e+001
 2.921053511154402e+000	 9.607660406815307e-001	 1.115113690403221e+001
 2.911487178941568e+000	 9.893772823498734e-001	 1.114773455269036e+001
 2.901617731356191e+000	 1.017958516379068e+000	 1.114527425037459e+001
 2.891444613746953e+000	 1.046505157962748e+000	 1.114382563511208e+001
 2.880967359744137e+000	 1.075012591609433e+000	 1.114342569833419e+001
 2.870185592484005e+000	 1.103476173168084e+000	 1.114407786717831e+001
 2.859099025780396e+000	 1.131891231902615e+000	 1.114575114822458e+001
 2.980336770370254e+000	 8.529904659817371e-001	 1.116918298567781e+001
 2.971907656407567e+000	 8.819097922564430e-001	 1.115628237425859e+001
 2.963176062926975e+000	 9.108170068702260e-001	 1.114491836596213e+001
 2.954141088102729e+000	 9.397076308657240e-001	 1.113535225353428e+001
 2.944801913682087e+000	 9.685771467033344e-001	 1.112781607222252e+001
 2.935157806410852e+000	 9.974210000926341e-001	 1.112251137821627e+001
 2.925208119414423e+000	 1.026234601878231e+000	 1.111960807308856e+001
 2.914952293532121e+000	 1.055013329978907e+000	 1.111924327839657e+001
 2.904389858602606e+000	 1.083752531378863e+000	 1.112152026455930e+001
 2.893520434698207e+000	 1.112447524169733e+000	 1.112650743807406e+001
 2.882343733306045e+000	 1.141093599641968e+000	 1.113423739106320e+001
 3.004371744322612e+000	 8.598694213531548e-001	 1.115839244322855e+001
 2.995874653634759e+000	 8.890219680011550e-001	 1.113958613501991e+001
 2.987072644078003e+000	 9.181623053135278e-001	 1.112350390510667e+001
 2.977964806553807e+000	 9.472859182122874e-001	 1.111047799111774e+001
 2.968550316210615e+000	 9.763882527260590e-001	 1.110081053083155e+001
 2.958828433880890e+000	 1.005464717836273e+000	 1.109477224367454e+001
 2.948798507473301e+000	 1.034510687378217e+000	 1.109260115837753e+001
 2.938459973317808e+000	 1.063521501995825e+000	 1.109450139113975e+001
 2.927812357461445e+000	 1.092492471148978e+000	 1.110064197861238e+001
 2.916855276912608e+000	 1.121418875171983e+000	 1.111115576996012e+001
 2.905588440831705e+000	 1.150295967381827e+000	 1.112613838219040e+001
 3.028406718275971e+000	 8.667483767255725e-001	 1.113919544186801e+001
 3.019841650862942e+000	 8.961341437468621e-001	 1.111557952683868e+001
 3.010969225229993e+000	 9.255076037578103e-001	 1.109588377147521e+001
 3.001788525005798e+000	 9.548642055598068e-001	 1.108051098515657e+001
 2.992298718739988e+000	 9.841993587497060e-001	 1.106983301173165e+001
 2.982499061351685e+000	 1.013508435580789e+000	 1.106418931383087e+001
 2.972388895532827e+000	 1.042786772879026e+000	 1.106388560352873e+001
 2.961967653104012e+000	 1.072029674013502e+000	 1.106919252389971e+001
 2.951234856320653e+000	 1.101232410919777e+000	 1.108034438597545e+001
 2.940190119127212e+000	 1.130390226174833e+000	 1.109753796555966e+001
 2.928833148357375e+000	 1.159498335122191e+000	 1.112093136428976e+001
 3.052441692230329e+000	 8.736273320989901e-001	 1.111146782850032e+001
 3.043808648092115e+000	 9.032463194935644e-001	 1.108409720722442e+001
 3.034865806382944e+000	 9.328529022030734e-001	 1.106185184042954e+001
 3.025612243458701e+000	 9.624424929082824e-001	 1.104520475732966e+001
 3.016047121270204e+000	 9.920104647742749e-001	 1.103459713247052e+001
 3.006169688823234e+000	 1.021552153326183e+000	 1.103043677258813e+001
 2.995979283592998e+000	 1.051062858380658e+000	 1.103309665004672e+001
 2.985475332890734e+000	 1.080537846031939e+000	 1.104291348759344e+001
 2.974657355180231e+000	 1.109972350691261e+000	 1.106018639913504e+001
 2.963524961342014e+000	 1.139361577178282e+000	 1.108517559119242e+001
 2.952077855883055e+000	 1.168700702863060e+000	 1.111810112962331e+001
 3.076476666185687e+000	 8.805062874734078e-001	 1.107508187449025e+001
 3.067775645322278e+000	 9.103584952412617e-001	 1.104497137422024e+001
 3.058762387536855e+000	 9.401982006493168e-001	 1.102120063801234e+001
 3.049435961912515e+000	 9.700207802577142e-001	 1.100431258368892e+001
 3.039795523801263e+000	 9.998215707997655e-001	 1.099481736167458e+001
 3.029840316295539e+000	 1.029595871072454e+000	 1.099319074411379e+001
 3.019569671653818e+000	 1.059338943883114e+000	 1.099987256083240e+001
 3.008983012677976e+000	 1.089046018051134e+000	 1.101526518707657e+001
 2.998079854040177e+000	 1.118712290463430e+000	 1.103973208793345e+001
 2.986859803557016e+000	 1.148332928182332e+000	 1.107359642429047e+001
 2.975322563408745e+000	 1.177903070604434e+000	 1.111713972512634e+001
 3.100511640142045e+000	 8.873852428488256e-001	 1.102990641425001e+001
 3.091742642553431e+000	 9.174706709899544e-001	 1.099803186173100e+001
 3.082658968691728e+000	 9.475434990965410e-001	 1.097372139324632e+001
 3.073259680367243e+000	 9.775990676081020e-001	 1.095758750417976e+001
 3.063543926333167e+000	 1.007632676826178e+000	 1.095020898606138e+001
 3.053510943768599e+000	 1.037639588819603e+000	 1.095212921763586e+001
 3.043160059715283e+000	 1.067615029386394e+000	 1.096385450307463e+001
 3.032490692465735e+000	 1.097554190071089e+000	 1.098585246246358e+001
 3.021502352900493e+000	 1.127452230236283e+000	 1.101855047967129e+001
 3.010194645772219e+000	 1.157304279186982e+000	 1.106233421265744e+001
 2.998567270934446e+000	 1.187105438346313e+000	 1.111754617121831e+001
 3.124546614099405e+000	 8.942641982252434e-001	 1.097580697742964e+001
 3.115709639785576e+000	 9.245828467396423e-001	 1.094310623045168e+001
 3.106555549847563e+000	 9.548887975447460e-001	 1.091920408801963e+001
 3.097083398822884e+000	 9.851773549594466e-001	 1.090478233172209e+001
 3.087292328865915e+000	 1.015443782853513e+000	 1.090048807897461e+001
 3.077181571242415e+000	 1.045683306567630e+000	 1.090693197570984e+001
 3.066750447777396e+000	 1.075891114890497e+000	 1.092468643654682e+001
 3.055998372254013e+000	 1.106062362091802e+000	 1.095428393777159e+001
 3.044924851761178e+000	 1.136192170009821e+000	 1.099621536843602e+001
 3.033529487987622e+000	 1.166275630192232e+000	 1.105092844483884e+001
 3.021811978460158e+000	 1.196307806088698e+000	 1.111882619359200e+001
 2.789364903203508e+000	 1.104284128687585e+000	 1.120612833216459e+001
 2.778251185602976e+000	 1.131954217185233e+000	 1.129094729337945e+001
 2.766839813979641e+000	 1.159567783225906e+000	 1.139104744195095e+001
 2.755130780838170e+000	 1.187120204783136e+000	 1.150661309312456e+001
 2.743124171166409e+000	 1.214606842436723e+000	 1.163778358036559e+001
 2.730820163291444e+000	 1.242023041611831e+000	 1.178465233301943e+001
 2.718219029672730e+000	 1.269364134855765e+000	 1.172370977566580e+001
 2.705321137630596e+000	 1.296625444150432e+000	 1.158832923255053e+001
 2.692126950008475e+000	 1.323802283258404e+000	 1.147093194235312e+001
 2.678637025767297e+000	 1.350889960100454e+000	 1.137166572245488e+001
 2.664852020510573e+000	 1.377883779162314e+000	 1.129065127170028e+001
 2.812609610729128e+000	 1.113486496425423e+000	 1.118115355636815e+001
 2.801403278815884e+000	 1.141387168994181e+000	 1.127959188548885e+001
 2.789896812429516e+000	 1.169230848085428e+000	 1.139310357032523e+001
 2.778090204012230e+000	 1.197012873155812e+000	 1.152184620322997e+001
 2.765983539260102e+000	 1.224728566123294e+000	 1.166593155047332e+001
 2.753576997986275e+000	 1.252373233624916e+000	 1.179844172807648e+001
 2.740870854920701e+000	 1.279942169312545e+000	 1.166032377826743e+001
 2.727865480444710e+000	 1.307430656184601e+000	 1.153938396099896e+001
 2.714561341258763e+000	 1.334833968951678e+000	 1.143576748657129e+001
 2.700959000981799e+000	 1.362147376433888e+000	 1.134959286773791e+001
 2.687059120680686e+000	 1.389366143987678e+000	 1.128095156628945e+001
 2.835854318254756e+000	 1.122688864163766e+000	 1.116121026997856e+001
 2.824555372028621e+000	 1.150820120803543e+000	 1.127243610005024e+001
 2.812953810879078e+000	 1.178893912945294e+000	 1.139855784222010e+001
 2.801049627185874e+000	 1.206905541528780e+000	 1.153970680793608e+001
 2.788842907353317e+000	 1.234850289810127e+000	 1.169596760739916e+001
 2.776333832680606e+000	 1.262723425638253e+000	 1.172527780019433e+001
 2.763522680168190e+000	 1.290520203769584e+000	 1.160171617324086e+001
 2.750409823258400e+000	 1.318235868219057e+000	 1.149472249048270e+001
 2.736995732508725e+000	 1.345865654645288e+000	 1.140441285807814e+001
 2.723280976196111e+000	 1.373404792767727e+000	 1.133087670395762e+001
 2.709266220850791e+000	 1.400848508813537e+000	 1.127417645573494e+001
 2.859099025780396e+000	 1.131891231902615e+000	 1.114575114822458e+001
 2.847707465241187e+000	 1.160253072613320e+000	 1.126894430420846e+001
 2.836010809328329e+000	 1.188556977805505e+000	 1.140688626650496e+001
 2.824009050359106e+000	 1.216798209902041e+000	 1.155968250121332e+001
 2.811702275446056e+000	 1.244972013497222e+000	 1.172739086700357e+001
 2.799090667374439e+000	 1.273073617651839e+000	 1.165713175821915e+001
 2.786174505415198e+000	 1.301098238226882e+000	 1.154762461779291e+001
 2.772954166071667e+000	 1.329041080253802e+000	 1.145409535902524e+001
 2.759430123758361e+000	 1.356897340339235e+000	 1.137663121225915e+001
 2.745602951410239e+000	 1.384662209101975e+000	 1.131529273237712e+001
 2.731473321020889e+000	 1.412330873639893e+000	 1.127011350772432e+001
 2.882343733306045e+000	 1.141093599641968e+000	 1.113423739106320e+001
 2.870859558453585e+000	 1.169686024423512e+000	 1.126858891165227e+001
 2.859067807777270e+000	 1.198220042666059e+000	 1.141757243010988e+001
 2.846968473531923e+000	 1.226690878275596e+000	 1.158126799658062e+001
 2.834561643538318e+000	 1.255093737184578e+000	 1.170499888138854e+001
 2.821847502067773e+000	 1.283423809665676e+000	 1.159373435667005e+001
 2.808826330661722e+000	 1.311676272684439e+000	 1.149779257561754e+001
 2.795498508884508e+000	 1.339846292288834e+000	 1.141725849513686e+001
 2.781864515007672e+000	 1.367929026033520e+000	 1.135219069024897e+001
 2.767924926624176e+000	 1.395919625436627e+000	 1.130262104677826e+001
 2.753680421190979e+000	 1.423813238466745e+000	 1.126855450097958e+001
 2.905588440831705e+000	 1.150295967381827e+000	 1.112613838219040e+001
 2.894011651665810e+000	 1.179118976234119e+000	 1.127085006075269e+001
 2.882124806225898e+000	 1.207883107526959e+000	 1.143010719490307e+001
 2.869927896704328e+000	 1.236583546649444e+000	 1.160396484232339e+001
 2.857421011630106e+000	 1.265215460872196e+000	 1.163247617668227e+001
 2.844604336760607e+000	 1.293774001679764e+000	 1.153482233422713e+001
 2.831478155907766e+000	 1.322254307142255e+000	 1.145196908463640e+001
 2.818042851696925e+000	 1.350651504324154e+000	 1.138397300219514e+001
 2.804298906256656e+000	 1.378960711728141e+000	 1.133086421950155e+001
 2.790246901837927e+000	 1.407177041771686e+000	 1.129264614976095e+001
 2.775887521361062e+000	 1.435295603294094e+000	 1.126929525681584e+001
 2.928833148357375e+000	 1.159498335122191e+000	 1.112093136428976e+001
 2.917163744877866e+000	 1.188551928045140e+000	 1.127521530802801e+001
 2.905181804674213e+000	 1.217546172388201e+000	 1.144398840900289e+001
 2.892887319876318e+000	 1.246476215023584e+000	 1.162728115027270e+001
 2.880280379721415e+000	 1.275337184560077e+000	 1.156466546118490e+001
 2.867361171452943e+000	 1.304124193694102e+000	 1.148013817626478e+001
 2.854129981153330e+000	 1.332832341600331e+000	 1.140990853579932e+001
 2.840587194508919e+000	 1.361456716359762e+000	 1.135400495309311e+001
 2.826733297505314e+000	 1.389992397423099e+000	 1.131242932385680e+001
 2.812568877051492e+000	 1.418434458107151e+000	 1.128515677779006e+001
 2.798094621531136e+000	 1.446777968121937e+000	 1.127213547872090e+001
 2.952077855883055e+000	 1.168700702863060e+000	 1.111810112962331e+001
 2.940315838089752e+000	 1.197984879856577e+000	 1.128117933609061e+001
 2.928238803122218e+000	 1.227209237249788e+000	 1.145872063172864e+001
 2.915846743047895e+000	 1.256368883398018e+000	 1.158696300758341e+001
 2.903139747812249e+000	 1.285458908248219e+000	 1.150130300660149e+001
 2.890118006144780e+000	 1.314474385708691e+000	 1.142942988860394e+001
 2.876781806398410e+000	 1.343410376058665e+000	 1.137137046233518e+001
 2.863131537320488e+000	 1.372261928395659e+000	 1.132712519458903e+001
 2.849167688753645e+000	 1.401024083118394e+000	 1.129666794258050e+001
 2.834890852264868e+000	 1.429691874443022e+000	 1.127994573450771e+001
 2.820301721701203e+000	 1.458260332950277e+000	 1.127687859951388e+001
 2.975322563408745e+000	 1.177903070604434e+000	 1.111713972512634e+001
 2.963467931301467e+000	 1.207417831668428e+000	 1.128824367528407e+001
 2.951295801569911e+000	 1.236872302111720e+000	 1.147381487144432e+001
 2.938806166219057e+000	 1.266261551772745e+000	 1.151516007368453e+001
 2.925999115902607e+000	 1.295580631936623e+000	 1.144213076199286e+001
 2.912874840836117e+000	 1.324824577723530e+000	 1.138245078186955e+001
 2.899433631643009e+000	 1.353988410517259e+000	 1.133611933888158e+001
 2.885675880131633e+000	 1.383067140431843e+000	 1.130310916082726e+001
 2.871602080001652e+000	 1.412055768814027e+000	 1.128336625788671e+001
 2.857212827478058e+000	 1.440949290779301e+000	 1.127680973185936e+001
 2.842508821871260e+000	 1.469742697779114e+000	 1.128333163566808e+001
 2.998567270934446e+000	 1.187105438346313e+000	 1.111754617121831e+001
 2.986620024513012e+000	 1.216850783480695e+000	 1.129591643826715e+001
 2.974352800017292e+000	 1.246535366973995e+000	 1.148878833559555e+001
 2.961765589389805e+000	 1.276154220147765e+000	 1.144776317461862e+001
 2.948858483992488e+000	 1.305702355625289e+000	 1.138689613372308e+001
 2.935631675526956e+000	 1.335174769738619e+000	 1.133895926587808e+001
 2.922085456887126e+000	 1.364566444976112e+000	 1.130392438995744e+001
 2.908220222942354e+000	 1.393872352468315e+000	 1.128173669553265e+001
 2.894036471249331e+000	 1.423087454509996e+000	 1.127231453048246e+001
 2.879534802691060e+000	 1.452206707115984e+000	 1.127554923860899e+001
 2.864715922041312e+000	 1.481225062608446e+000	 1.129130504840984e+001
 3.021811978460158e+000	 1.196307806088698e+000	 1.111882619359200e+001
 3.009772117724388e+000	 1.226283735293376e+000	 1.130371206684780e+001
 2.997409798464362e+000	 1.256198431836615e+000	 1.144623451706560e+001
 2.984725012560141e+000	 1.286046888523079e+000	 1.138451413131193e+001
 2.971717852081893e+000	 1.315824079314216e+000	 1.133535177556316e+001
 2.958388510217296e+000	 1.345524961753960e+000	 1.129871865351475e+001
 2.944737282130763e+000	 1.375144479435224e+000	 1.127455940727523e+001
 2.930764565752652e+000	 1.404677564505075e+000	 1.126279188241122e+001
 2.916470862496686e+000	 1.434119140206302e+000	 1.126330694270263e+001
 2.901856777903874e+000	 1.463464123453075e+000	 1.127596833584620e+001
 2.886923022211355e+000	 1.492707427438275e+000	 1.130061261122788e+001
 2.664852020510573e+000	 1.377883779162314e+000	 1.129065127170028e+001
 2.650772686938987e+000	 1.404779043928912e+000	 1.137874282894763e+001
 2.636399875232532e+000	 1.431571059341969e+000	 1.145539795642093e+001
 2.621734533359258e+000	 1.458255134279886e+000	 1.151989305734744e+001
 2.606777707310107e+000	 1.484826584058343e+000	 1.157149764832217e+001
 2.591530541258077e+000	 1.511280732947345e+000	 1.160947518688559e+001
 2.575994277640976e+000	 1.537612916702709e+000	 1.163308393081014e+001
 2.560170257166945e+000	 1.563818485109321e+000	 1.164157782796425e+001
 2.544059918741997e+000	 1.589892804533448e+000	 1.163420743551226e+001
 2.527664799318953e+000	 1.615831260481341e+000	 1.161022086710197e+001
 2.510986533667252e+000	 1.641629260161343e+000	 1.156886476658486e+001
 2.687059120680686e+000	 1.389366143987678e+000	 1.128095156628945e+001
 2.672862459328722e+000	 1.416485535960390e+000	 1.136427854584531e+001
 2.658369874190830e+000	 1.443500818168300e+000	 1.143677202706020e+001
 2.643582321134798e+000	 1.470407260397131e+000	 1.149768127203876e+001
 2.628500854868161e+000	 1.497200138923524e+000	 1.154624768156804e+001
 2.613126629098687e+000	 1.523874739053069e+000	 1.158170564703517e+001
 2.597460896617837e+000	 1.550426357672882e+000	 1.160328343592042e+001
 2.581505009306318e+000	 1.576850305816056e+000	 1.161020410970960e+001
 2.565260418061028e+000	 1.603141911235243e+000	 1.160168647295554e+001
 2.548728672642728e+000	 1.629296520982581e+000	 1.157694605210579e+001
 2.531911421443936e+000	 1.655309503993148e+000	 1.153519610260332e+001
 2.709266220850791e+000	 1.400848508813537e+000	 1.127417645573494e+001
 2.694952231718638e+000	 1.428192027992455e+000	 1.135230330874673e+001
 2.680339873149482e+000	 1.455430576995289e+000	 1.142019786428866e+001
 2.665430108910843e+000	 1.482559386515082e+000	 1.147708231206574e+001
 2.650224002426849e+000	 1.509573693789443e+000	 1.152217000185893e+001
 2.634722716940044e+000	 1.536468745159543e+000	 1.155466631976216e+001
 2.618927515595536e+000	 1.563239798643795e+000	 1.157376959987280e+001
 2.602839761446601e+000	 1.589882126523502e+000	 1.157867207025517e+001
 2.586460917381020e+000	 1.616391017937701e+000	 1.156856083187804e+001
 2.569792545967494e+000	 1.642761781484413e+000	 1.154261886910920e+001
 2.552836309221620e+000	 1.668989747825456e+000	 1.150002609023478e+001
 2.731473321020889e+000	 1.412330873639893e+000	 1.127011350772432e+001
 2.717042004108736e+000	 1.439898520025105e+000	 1.134261706632834e+001
 2.702309872108487e+000	 1.467360335822934e+000	 1.140548806661021e+001
 2.687277896687393e+000	 1.494711512633742e+000	 1.145792168885122e+001
 2.671947149986172e+000	 1.521947248656101e+000	 1.149910329063092e+001
 2.656318804782146e+000	 1.549062751266766e+000	 1.152820930736644e+001
 2.640394134574071e+000	 1.576053239615449e+000	 1.154440819019523e+001
 2.624174513587790e+000	 1.602913947231660e+000	 1.154686137999711e+001
 2.607661416701969e+000	 1.629640124640820e+000	 1.153472431622722e+001
 2.590856419293248e+000	 1.656227041986838e+000	 1.150714747910906e+001
 2.573761197000304e+000	 1.682669991658267e+000	 1.146327746361661e+001
 2.753680421190979e+000	 1.423813238466745e+000	 1.126855450097958e+001
 2.739131776499018e+000	 1.451605012058342e+000	 1.133502358937957e+001
 2.724279871067844e+000	 1.479290094651236e+000	 1.139245865973343e+001
 2.709125684464445e+000	 1.506863638753110e+000	 1.144002794028500e+001
 2.693670297546130e+000	 1.534320803523497e+000	 1.147688884938192e+001
 2.677914892624995e+000	 1.561656757374738e+000	 1.150218892030378e+001
 2.661860753553444e+000	 1.588866680587844e+000	 1.151506676533631e+001
 2.645509265729889e+000	 1.615945767940529e+000	 1.151465307786338e+001
 2.628861916023878e+000	 1.642889231344601e+000	 1.150007167111971e+001
 2.611920292619992e+000	 1.669692302489856e+000	 1.147044055211936e+001
 2.594686084779988e+000	 1.696350235491580e+000	 1.142487302915000e+001
 2.775887521361062e+000	 1.435295603294094e+000	 1.126929525681584e+001
 2.761221548889481e+000	 1.463311504092165e+000	 1.132933031791837e+001
 2.746249870027555e+000	 1.491219853480195e+000	 1.138092895948347e+001
 2.730973472242002e+000	 1.519015764873184e+000	 1.142323250966519e+001
 2.715393445106723e+000	 1.546694358391632e+000	 1.145537049486912e+001
 2.699510980468590e+000	 1.574250763483460e+000	 1.147646158885967e+001
 2.683327372533654e+000	 1.601680121560978e+000	 1.148561460302846e+001
 2.666844017872895e+000	 1.628977588650108e+000	 1.148192951657232e+001
 2.650062415346747e+000	 1.656138338049044e+000	 1.146449854519451e+001
 2.632984165947727e+000	 1.683157562993466e+000	 1.143240724681051e+001
 2.615610972560673e+000	 1.710030479325396e+000	 1.138473566260948e+001
 2.798094621531136e+000	 1.446777968121937e+000	 1.127213547872090e+001
 2.783311321280128e+000	 1.475017996126575e+000	 1.132534821558681e+001
 2.768219868987619e+000	 1.503149612309810e+000	 1.137072144124183e+001
 2.752821260020063e+000	 1.531167890993967e+000	 1.140736963040416e+001
 2.737116592667952e+000	 1.559067913260506e+000	 1.143439445929716e+001
 2.721107068312931e+000	 1.586844769592932e+000	 1.145088577902903e+001
 2.704793991514702e+000	 1.614493562534853e+000	 1.145592263206244e+001
 2.688178770016812e+000	 1.642009409360400e+000	 1.144857431049829e+001
 2.671262914670574e+000	 1.669387444754150e+000	 1.142790145475897e+001
 2.654048039276451e+000	 1.696622823497668e+000	 1.139295719111825e+001
 2.636535860342357e+000	 1.723710723159714e+000	 1.134278830639002e+001
 2.820301721701203e+000	 1.458260332950277e+000	 1.127687859951388e+001
 2.805401093670956e+000	 1.486724488161570e+000	 1.132289163092585e+001
 2.790189867948035e+000	 1.515079371140083e+000	 1.136166161555441e+001
 2.774669047798628e+000	 1.543320017115456e+000	 1.139227621618159e+001
 2.758839740229815e+000	 1.571441468130117e+000	 1.141380929522168e+001
 2.742703156158019e+000	 1.599438775703153e+000	 1.142532191237020e+001
 2.726260610496588e+000	 1.627307003509469e+000	 1.142586336728498e+001
 2.709513522161635e+000	 1.655041230071403e+000	 1.141447228600004e+001
 2.692463413995361e+000	 1.682636551459918e+000	 1.139017774962859e+001
 2.675111912606165e+000	 1.710088084002463e+000	 1.135200046376862e+001
 2.657460748125041e+000	 1.737390966994536e+000	 1.129895396688410e+001
 2.842508821871260e+000	 1.469742697779114e+000	 1.128333163566808e+001
 2.827490866061967e+000	 1.498430980197152e+000	 1.132177816515264e+001
 2.812159866908805e+000	 1.527009129971012e+000	 1.135357790957035e+001
 2.796516835577696e+000	 1.555472143237654e+000	 1.137779175624648e+001
 2.780562887792313e+000	 1.583815023000468e+000	 1.139346578491074e+001
 2.764299244003853e+000	 1.612032781814124e+000	 1.139963228961570e+001
 2.747727229479310e+000	 1.640120444484825e+000	 1.139531084764348e+001
 2.730848274307367e+000	 1.668073050783117e+000	 1.137950943407762e+001
 2.713663913321107e+000	 1.695885658166347e+000	 1.135122558056811e+001
 2.696175785936869e+000	 1.723553344507850e+000	 1.130944757666892e+001
 2.678385635908726e+000	 1.751071210829859e+000	 1.125315571198185e+001
 2.864715922041312e+000	 1.481225062608446e+000	 1.129130504840984e+001
 2.849580638453159e+000	 1.510137472233320e+000	 1.132182854608780e+001
 2.834129865869927e+000	 1.538938888802598e+000	 1.134630155399542e+001
 2.818364623357269e+000	 1.567624269360559e+000	 1.136375821558890e+001
 2.802286035355447e+000	 1.596188577871557e+000	 1.137321685392176e+001
 2.785895331850433e+000	 1.624626787925844e+000	 1.137368101783612e+001
 2.769193848462869e+000	 1.652933885460922e+000	 1.136414057711238e+001
 2.752183026454008e+000	 1.681104871495542e+000	 1.134357286523123e+001
 2.734864412647812e+000	 1.709134764873439e+000	 1.131094386824700e+001
 2.717239659268563e+000	 1.737018605013831e+000	 1.126520945811780e+001
 2.699310523693410e+000	 1.764751454665686e+000	 1.120531666868744e+001
 2.886923022211355e+000	 1.492707427438275e+000	 1.130061261122788e+001
 2.871670410844536e+000	 1.521843964270075e+000	 1.132286650790146e+001
 2.856099864831404e+000	 1.550868647634841e+000	 1.133966647526296e+001
 2.840212411137347e+000	 1.579776395484173e+000	 1.135001993971919e+001
 2.824009182919216e+000	 1.608562132743385e+000	 1.135291748866737e+001
 2.807491419697759e+000	 1.637220794038314e+000	 1.134733394096543e+001
 2.790660467447268e+000	 1.665747326437759e+000	 1.133222946834587e+001
 2.773517778601558e+000	 1.694136692208679e+000	 1.130655076640355e+001
 2.756064911975477e+000	 1.722383871581193e+000	 1.126923227362769e+001
 2.738303532601247e+000	 1.750483865520403e+000	 1.121919743679020e+001
 2.720235411479095e+000	 1.778431698502015e+000	 1.115536002084543e+001
 2.510986533667252e+000	 1.641629260161343e+000	 1.156886476658486e+001
 2.494026854062975e+000	 1.667282235046092e+000	 1.152781291379836e+001
 2.476787589899573e+000	 1.692785643433693e+000	 1.152013367383880e+001
 2.459270667218596e+000	 1.718134973003828e+000	 1.151929660723112e+001
 2.441478108159864e+000	 1.743325743364768e+000	 1.152539338278633e+001
 2.423412030331897e+000	 1.768353508590087e+000	 1.153850628870375e+001
 2.405074646102547e+000	 1.793213859741615e+000	 1.155870841988824e+001
 2.386468261810128e+000	 1.817902427375695e+000	 1.158606388654274e+001
 2.367595276895474e+000	 1.842414884029852e+000	 1.162062804332439e+001
 2.348458182955458e+000	 1.866746946686970e+000	 1.166244773828465e+001
 2.329059562718645e+000	 1.890894379214094e+000	 1.159716882162048e+001
 2.531911421443936e+000	 1.655309503993148e+000	 1.153519610260332e+001
 2.514810411176357e+000	 1.681176253668529e+000	 1.149383990015657e+001
 2.497427486478374e+000	 1.706892190459319e+000	 1.145962613148953e+001
 2.479764589441885e+000	 1.732452764442532e+000	 1.146926502393412e+001
 2.461823759057877e+000	 1.757853457889840e+000	 1.148645916784415e+001
 2.443607130581606e+000	 1.783089787825431e+000	 1.151128750717802e+001
 2.425116934817323e+000	 1.808157308569984e+000	 1.154381902554880e+001
 2.406355497322827e+000	 1.833051614267811e+000	 1.158411296227555e+001
 2.387325237534295e+000	 1.857768341394250e+000	 1.163221905026072e+001
 2.368028667811903e+000	 1.882303171240375e+000	 1.163534759331556e+001
 2.348468392406961e+000	 1.906651832372125e+000	 1.152611449413441e+001
 2.552836309221620e+000	 1.668989747825456e+000	 1.150002609023478e+001
 2.535593968290734e+000	 1.695070272291373e+000	 1.147417106174288e+001
 2.518067383058155e+000	 1.720998737485267e+000	 1.144928154393604e+001
 2.500258511666132e+000	 1.746770555881482e+000	 1.142519183522563e+001
 2.482169409956812e+000	 1.772381172415093e+000	 1.145291519039163e+001
 2.463802230832191e+000	 1.797826067060901e+000	 1.148957532690205e+001
 2.445159223532919e+000	 1.823100757398434e+000	 1.153454385215870e+001
 2.426242732836283e+000	 1.848200801159972e+000	 1.158787485198440e+001
 2.407055198173797e+000	 1.873121798758668e+000	 1.164961215731295e+001
 2.387599152668946e+000	 1.897859395793784e+000	 1.155555334823410e+001
 2.367877222095776e+000	 1.922409285530155e+000	 1.146263740170821e+001
 2.573761197000304e+000	 1.682669991658267e+000	 1.146327746361661e+001
 2.556377525406104e+000	 1.708964290914625e+000	 1.145315724763886e+001
 2.538707279638917e+000	 1.735105284511538e+000	 1.144461759428883e+001
 2.520752433891333e+000	 1.761088347320680e+000	 1.143748606671842e+001
 2.502515060856666e+000	 1.786908886940527e+000	 1.143157601882257e+001
 2.483997331083652e+000	 1.812562346296497e+000	 1.147333819801076e+001
 2.465201512249338e+000	 1.838044206226964e+000	 1.153085125866632e+001
 2.446129968350494e+000	 1.863349988052178e+000	 1.159731810083094e+001
 2.426785158813979e+000	 1.888475256123105e+000	 1.157506174095015e+001
 2.407169637526585e+000	 1.913415620347200e+000	 1.148292915125475e+001
 2.387286051785095e+000	 1.938166738688187e+000	 1.140644893821636e+001
 2.594686084779988e+000	 1.696350235491580e+000	 1.142487302915000e+001
 2.577161082522472e+000	 1.722858309538284e+000	 1.143071941701163e+001
 2.559347176220658e+000	 1.749211831538130e+000	 1.143875645654055e+001
 2.541246356117489e+000	 1.775406138760124e+000	 1.144880466876546e+001
 2.522860711757442e+000	 1.801436601466144e+000	 1.146066946098880e+001
 2.504192431335989e+000	 1.827298625532220e+000	 1.147414152632642e+001
 2.485243800966575e+000	 1.852987655055575e+000	 1.153271015107927e+001
 2.466017203865462e+000	 1.878499174944430e+000	 1.158673658210814e+001
 2.446515119454843e+000	 1.903828713487563e+000	 1.149358088607664e+001
 2.426740122384821e+000	 1.928971844900621e+000	 1.141718607938953e+001
 2.406694881474913e+000	 1.953924191846217e+000	 1.135726120360189e+001
 2.615610972560673e+000	 1.710030479325396e+000	 1.138473566260948e+001
 2.597944639639833e+000	 1.736752328162351e+000	 1.140677869289155e+001
 2.579987072803380e+000	 1.763318378565045e+000	 1.143161779271850e+001
 2.561740278344600e+000	 1.789723930199815e+000	 1.145906613419082e+001
 2.543206362659138e+000	 1.815964315991942e+000	 1.148892086841592e+001
 2.524387531589200e+000	 1.842034904768068e+000	 1.152096353373807e+001
 2.505286089684635e+000	 1.867931103884267e+000	 1.155496050237456e+001
 2.485904439381186e+000	 1.893648361836729e+000	 1.149670334562216e+001
 2.466245080096389e+000	 1.919182170852042e+000	 1.141857264653462e+001
 2.446310607243652e+000	 1.944528069454046e+000	 1.135803586084161e+001
 2.426103711165233e+000	 1.969681645004247e+000	 1.131478697563367e+001
 2.636535860342357e+000	 1.723710723159714e+000	 1.134278830639002e+001
 2.618728196758190e+000	 1.750646346786826e+000	 1.138125635566972e+001
 2.600626969387082e+000	 1.777424925592283e+000	 1.142312150591254e+001
 2.582234200572667e+000	 1.804041721639753e+000	 1.146818927348379e+001
 2.563552013561754e+000	 1.830492030517922e+000	 1.151624824347255e+001
 2.544582631843288e+000	 1.856771184004044e+000	 1.156707048701461e+001
 2.525328378403515e+000	 1.882874552713040e+000	 1.156194187143598e+001
 2.505791674897667e+000	 1.908797548729071e+000	 1.142931231653508e+001
 2.485975040738615e+000	 1.934535628216541e+000	 1.134974869973227e+001
 2.465881092103080e+000	 1.960084294007476e+000	 1.130519084916435e+001
 2.445512540856055e+000	 1.985439098162278e+000	 1.127873968300859e+001
 2.657460748125041e+000	 1.737390966994536e+000	 1.129895396688410e+001
 2.639511753877541e+000	 1.764540365411708e+000	 1.135407383690275e+001
 2.621266865971764e+000	 1.791531472619842e+000	 1.141318773078447e+001
 2.602728122801689e+000	 1.818359513079939e+000	 1.147609320229246e+001
 2.583897664465291e+000	 1.845019745044084e+000	 1.154256996039918e+001
 2.564777732098252e+000	 1.871507463240145e+000	 1.161238029610557e+001
 2.545370667123217e+000	 1.897818001541893e+000	 1.151627311594702e+001
 2.525678910414903e+000	 1.923946735621459e+000	 1.140440848701499e+001
 2.505705001381524e+000	 1.949889085581060e+000	 1.130339917194227e+001
 2.485451576963104e+000	 1.975640518560912e+000	 1.125836399864119e+001
 2.464921370547378e+000	 2.001196551320309e+000	 1.124883337972442e+001
 2.678385635908726e+000	 1.751071210829859e+000	 1.125315571198185e+001
 2.660295310997888e+000	 1.778434384036998e+000	 1.132515271340776e+001
 2.641906762557427e+000	 1.805638019647725e+000	 1.140173682452228e+001
 2.623222045031667e+000	 1.832677304520372e+000	 1.148269732950335e+001
 2.604243315369748e+000	 1.859547459570426e+000	 1.156780475078173e+001
 2.584972832354092e+000	 1.886243742476372e+000	 1.157254348206644e+001
 2.565412955843740e+000	 1.912761450370828e+000	 1.147055676334443e+001
 2.545566145932896e+000	 1.939095922513894e+000	 1.137957466926066e+001
 2.525434962025113e+000	 1.965242542945599e+000	 1.129995403695072e+001
 2.505022061823725e+000	 1.991196743114353e+000	 1.123204498536994e+001
 2.484330200239203e+000	 2.016954004478340e+000	 1.122478272065402e+001
 2.699310523693410e+000	 1.764751454665686e+000	 1.120531666868744e+001
 2.681078868119230e+000	 1.792328402662695e+000	 1.129441470163217e+001
 2.662546659144069e+000	 1.819744566675930e+000	 1.138868935821504e+001
 2.643715967262599e+000	 1.846995095961051e+000	 1.148792134587567e+001
 2.624588966275126e+000	 1.874075174096951e+000	 1.159187168970114e+001
 2.605167932610807e+000	 1.900980021712726e+000	 1.150626431465956e+001
 2.585455244565083e+000	 1.927704899199843e+000	 1.142478573542309e+001
 2.565453381451643e+000	 1.954245109406374e+000	 1.135480128538136e+001
 2.545164922669383e+000	 1.980596000310158e+000	 1.129667434645448e+001
 2.524592546684942e+000	 2.006752967667798e+000	 1.125076114367209e+001
 2.503739029931528e+000	 2.032711457636371e+000	 1.121741004893263e+001
 2.720235411479095e+000	 1.778431698502015e+000	 1.115536002084543e+001
 2.701862425241567e+000	 1.806222421288800e+000	 1.126178165228329e+001
 2.683186555731693e+000	 1.833851113704457e+000	 1.137396610862596e+001
 2.664209889494488e+000	 1.861312887401978e+000	 1.149168521320003e+001
 2.644934617181425e+000	 1.888602888623658e+000	 1.151224574907750e+001
 2.625363032868398e+000	 1.915716300949206e+000	 1.143980118194781e+001
 2.605497533287248e+000	 1.942648348028940e+000	 1.137895338427689e+001
 2.585340616971148e+000	 1.969394296298900e+000	 1.133007922847114e+001
 2.564894883314336e+000	 1.995949457674739e+000	 1.129354871401950e+001
 2.544163031546756e+000	 2.022309192221250e+000	 1.126972425285797e+001
 2.523147859624355e+000	 2.048468910794402e+000	 1.125895995586095e+001
 2.329059562718645e+000	 1.890894379214094e+000	 1.159716882162048e+001
 2.309402088944092e+000	 1.914852994773596e+000	 1.149140334170985e+001
 2.289488523243476e+000	 1.938618658202153e+000	 1.140305553122766e+001
 2.269321714828176e+000	 1.962187288355787e+000	 1.133162255806491e+001
 2.248904599182743e+000	 1.985554860419452e+000	 1.127657470834095e+001
 2.228240196665399e+000	 2.008717408176742e+000	 1.123735642539577e+001
 2.207331611037154e+000	 2.031671026237589e+000	 1.121338740966022e+001
 2.186182027921018e+000	 2.054411872221356e+000	 1.120406377686044e+001
 2.164794713192912e+000	 2.076936168892772e+000	 1.120875927182946e+001
 2.143173011305967e+000	 2.099240206248227e+000	 1.122682653502379e+001
 2.121320343550000e+000	 2.121320343550000e+000	 1.125759841867871e+001
 2.348468392406961e+000	 1.906651832372125e+000	 1.152611449413441e+001
 2.328647106351446e+000	 1.930810103061539e+000	 1.143080959406406e+001
 2.308567594270409e+000	 1.954773813685585e+000	 1.135111573709666e+001
 2.288232729118653e+000	 1.978538849090749e+000	 1.128650505909696e+001
 2.267645470843101e+000	 2.002101150921862e+000	 1.123642403316647e+001
 2.246808864971628e+000	 2.025456719910713e+000	 1.120029455004316e+001
 2.225726041129919e+000	 2.048601618122318e+000	 1.117751505846104e+001
 2.204400211487839e+000	 2.071531971156199e+000	 1.116746176283308e+001
 2.182834669136946e+000	 2.094243970300128e+000	 1.116948987543844e+001
 2.161032786400811e+000	 2.116733874633795e+000	 1.118293492012149e+001
 2.138998013080000e+000	 2.138998013080000e+000	 1.120711408434535e+001
 2.367877222095776e+000	 1.922409285530155e+000	 1.146263740170821e+001
 2.347892123759207e+000	 1.946767211349483e+000	 1.137777114029963e+001
 2.327646665297662e+000	 1.970928969169016e+000	 1.130675008818284e+001
 2.307143743409376e+000	 1.994890409825711e+000	 1.124902106551560e+001
 2.286386342503641e+000	 2.018647441424271e+000	 1.120400641257947e+001
 2.265377533277984e+000	 2.042196031644684e+000	 1.117110511206383e+001
 2.244120471222763e+000	 2.065532210007047e+000	 1.114969397044834e+001
 2.222618395054706e+000	 2.088652070091043e+000	 1.113912885575346e+001
 2.200874625081000e+000	 2.111551771707484e+000	 1.113874598874757e+001
 2.178892561495660e+000	 2.134227543019363e+000	 1.114786328452504e+001
 2.156675682610000e+000	 2.156675682610000e+000	 1.116578174120708e+001
 2.387286051785095e+000	 1.938166738688187e+000	 1.140644893821636e+001
 2.367137141167375e+000	 1.962724319637426e+000	 1.133200416322287e+001
 2.346725736325239e+000	 1.987084124652448e+000	 1.126967894002798e+001
 2.326054757700345e+000	 2.011241970560673e+000	 1.121889448382229e+001
 2.305127214164361e+000	 2.035193731926682e+000	 1.117904867699573e+001
 2.283946201584464e+000	 2.058935343378656e+000	 1.114951723379036e+001
 2.262514901315688e+000	 2.082462801891775e+000	 1.112965492324667e+001
 2.240836578621618e+000	 2.105772169025887e+000	 1.111879684761822e+001
 2.218914581025074e+000	 2.128859573114840e+000	 1.111625977324941e+001
 2.196752336590512e+000	 2.151721211404932e+000	 1.112134351073629e+001
 2.174353352140000e+000	 2.174353352140000e+000	 1.113333234102960e+001
 2.406694881474913e+000	 1.953924191846217e+000	 1.135726120360189e+001
 2.386382158575948e+000	 1.978681427925369e+000	 1.129322546256217e+001
 2.365804807353135e+000	 2.003239280135879e+000	 1.123962320120617e+001
 2.344965771991560e+000	 2.027593531295635e+000	 1.119584973498299e+001
 2.323868085825263e+000	 2.051740022429092e+000	 1.116127815809873e+001
 2.302514869891071e+000	 2.075674655112627e+000	 1.113526055103018e+001
 2.280909331408693e+000	 2.099393393776504e+000	 1.111712924558302e+001
 2.259054762188574e+000	 2.122892267960731e+000	 1.110619814457479e+001
 2.236954536969168e+000	 2.146167374522196e+000	 1.110176409304036e+001
 2.214612111685371e+000	 2.169214879790500e+000	 1.110310829768608e+001
 2.192031021670000e+000	 2.192031021670000e+000	 1.110949779115601e+001
 2.426103711165233e+000	 1.969681645004247e+000	 1.131478697563367e+001
 2.405627175984928e+000	 1.994638536213313e+000	 1.126115243029112e+001
 2.384883878381352e+000	 2.019394435619311e+000	 1.121630431120246e+001
 2.363876786283021e+000	 2.043945092030598e+000	 1.117961173384950e+001
 2.342608957486344e+000	 2.068286312931501e+000	 1.115042266878895e+001
 2.321083538197803e+000	 2.092413966846598e+000	 1.112806519252644e+001
 2.299303761501780e+000	 2.116323985661232e+000	 1.111184879524277e+001
 2.277272945755578e+000	 2.140012366895575e+000	 1.110106574235535e+001
 2.254994492913282e+000	 2.163475175929552e+000	 1.109499248671644e+001
 2.232471886780236e+000	 2.186708548176069e+000	 1.109289112807701e+001
 2.209708691200000e+000	 2.209708691200000e+000	 1.109401091628389e+001
 2.445512540856055e+000	 1.985439098162278e+000	 1.127873968300859e+001
 2.424872193394315e+000	 2.010595644501256e+000	 1.123550302712673e+001
 2.403962949409890e+000	 2.035549591102742e+000	 1.119944421934511e+001
 2.382787800574728e+000	 2.060296652765560e+000	 1.116990586956098e+001
 2.361349829147607e+000	 2.084832603433911e+000	 1.114621048408795e+001
 2.339652206504660e+000	 2.109153278580569e+000	 1.112766176039732e+001
 2.317698191594945e+000	 2.133254577545961e+000	 1.111354593807523e+001
 2.295491129322625e+000	 2.157132465830419e+000	 1.110313320288065e+001
 2.273034448857417e+000	 2.180782977336908e+000	 1.109567914060747e+001
 2.250331661875104e+000	 2.204202216561637e+000	 1.109042623728145e+001
 2.227386360730000e+000	 2.227386360730000e+000	 1.108660542206227e+001
 2.464921370547378e+000	 2.001196551320309e+000	 1.124883337972442e+001
 2.444117210804107e+000	 2.026552752789199e+000	 1.121599576013793e+001
 2.423042020438750e+000	 2.051704746586174e+000	 1.118876536473283e+001
 2.401698814866681e+000	 2.076648213500522e+000	 1.116645798687104e+001
 2.380090700809050e+000	 2.101378893936321e+000	 1.114837032294461e+001
 2.358220874811643e+000	 2.125892590314540e+000	 1.113378131149895e+001
 2.336092621688192e+000	 2.150185169430690e+000	 1.112195352799116e+001
 2.313709312889718e+000	 2.174252564765262e+000	 1.111213463196910e+001
 2.291074404801571e+000	 2.198090778744264e+000	 1.110355886327570e+001
 2.268191436969978e+000	 2.221695884947205e+000	 1.109544858370884e+001
 2.245064030260000e+000	 2.245064030260000e+000	 1.108701586040840e+001
 2.484330200239203e+000	 2.016954004478340e+000	 1.122478272065402e+001
 2.463362228214306e+000	 2.042509861077142e+000	 1.120234966140372e+001
 2.442121091467931e+000	 2.067859902069606e+000	 1.118399065710329e+001
 2.420609829158880e+000	 2.092999774235484e+000	 1.116899436835038e+001
 2.398831572470674e+000	 2.117925184438731e+000	 1.115663133089421e+001
 2.376789543118752e+000	 2.142631902048511e+000	 1.114615533966245e+001
 2.354487051781519e+000	 2.167115761315418e+000	 1.113680488789789e+001
 2.331927496456856e+000	 2.191372663700106e+000	 1.112780465809077e+001
 2.309114360745745e+000	 2.215398580151621e+000	 1.111836706120988e+001
 2.286051212064857e+000	 2.239189553332774e+000	 1.110769382056205e+001
 2.262741699790000e+000	 2.262741699790000e+000	 1.109497759645061e+001
 2.503739029931528e+000	 2.032711457636371e+000	 1.121741004893263e+001
 2.482607245624910e+000	 2.058466969365085e+000	 1.119428426766392e+001
 2.461200162497433e+000	 2.084015057553037e+000	 1.118484345859119e+001
 2.439520843451325e+000	 2.109351334970446e+000	 1.117724171741713e+001
 2.417572444132480e+000	 2.134471474941141e+000	 1.117072306352415e+001
 2.395358211425986e+000	 2.159371213782483e+000	 1.116451575875672e+001
 2.372881481874927e+000	 2.184046353200147e+000	 1.115783379152110e+001
 2.350145680024039e+000	 2.208492762634950e+000	 1.114987841210954e+001
 2.327154316689940e+000	 2.232706381558976e+000	 1.113983971564983e+001
 2.303910987159742e+000	 2.256683221718342e+000	 1.112689826890743e+001
 2.280419369320000e+000	 2.280419369320000e+000	 1.111022677700833e+001
 2.523147859624355e+000	 2.048468910794402e+000	 1.125895995586095e+001
 2.501852263035922e+000	 2.074424077653029e+000	 1.119705774968998e+001
 2.480279233527257e+000	 2.100170213036469e+000	 1.119104756632837e+001
 2.458431857744017e+000	 2.125702895705409e+000	 1.119092714215044e+001
 2.436313315794467e+000	 2.151017765443551e+000	 1.119037547070262e+001
 2.413926879733346e+000	 2.176110525516454e+000	 1.118859488653326e+001
 2.391275911968415e+000	 2.200976945084876e+000	 1.118477444606575e+001
 2.368363863591268e+000	 2.225612861569795e+000	 1.117809150796034e+001
 2.345194272634155e+000	 2.250014182966333e+000	 1.116771336048057e+001
 2.321770762254631e+000	 2.274176890103911e+000	 1.115279889198775e+001
 2.298097038850000e+000	 2.298097038850000e+000	 1.113250030052709e+001
 2.121320343550000e+000	 2.121320343550000e+000	 1.125759841867871e+001
 2.099240206248228e+000	 2.143173011305966e+000	 1.127059120318229e+001
 2.076936168892773e+000	 2.164794713192911e+000	 1.127270874461274e+001
 2.054411872221357e+000	 2.186182027921017e+000	 1.126326909636874e+001
 2.031671026237590e+000	 2.207331611037153e+000	 1.124159814276350e+001
 2.008717408176743e+000	 2.228240196665399e+000	 1.120703103658128e+001
 1.985554860419452e+000	 2.248904599182742e+000	 1.115891363568438e+001
 1.962187288355787e+000	 2.269321714828175e+000	 1.109660393498270e+001
 1.938618658202154e+000	 2.289488523243475e+000	 1.101947349006868e+001
 1.914852994773597e+000	 2.309402088944092e+000	 1.092690882882512e+001
 1.890894379214094e+000	 2.329059562718646e+000	 1.081831284733114e+001
 2.138998013080000e+000	 2.138998013080000e+000	 1.120711408434535e+001
 2.116733874633795e+000	 2.161032786400810e+000	 1.121340306232092e+001
 2.094243970300128e+000	 2.182834669136945e+000	 1.121108911040828e+001
 2.071531971156200e+000	 2.204400211487839e+000	 1.119945181990913e+001
 2.048601618122318e+000	 2.225726041129917e+000	 1.117777622000786e+001
 2.025456719910714e+000	 2.246808864971628e+000	 1.114535427969118e+001
 2.002101150921863e+000	 2.267645470843100e+000	 1.110148641213767e+001
 1.978538849090749e+000	 2.288232729118652e+000	 1.104548297773730e+001
 1.954773813685585e+000	 2.308567594270408e+000	 1.097666578188446e+001
 1.930810103061540e+000	 2.328647106351446e+000	 1.089436956368715e+001
 1.906651832372125e+000	 2.348468392406962e+000	 1.079794347174487e+001
 2.156675682610000e+000	 2.156675682610000e+000	 1.116578174120708e+001
 2.134227543019364e+000	 2.178892561495658e+000	 1.116515814123875e+001
 2.111551771707485e+000	 2.200874625080999e+000	 1.115817022928347e+001
 2.088652070091044e+000	 2.222618395054705e+000	 1.114405884709837e+001
 2.065532210007047e+000	 2.244120471222762e+000	 1.112206789703432e+001
 2.042196031644685e+000	 2.265377533277983e+000	 1.109144590892979e+001
 2.018647441424273e+000	 2.286386342503640e+000	 1.105144761288095e+001
 1.994890409825711e+000	 2.307143743409375e+000	 1.100133551389444e+001
 1.970928969169017e+000	 2.327646665297662e+000	 1.094038146440659e+001
 1.946767211349483e+000	 2.347892123759207e+000	 1.086786823064357e+001
 1.922409285530155e+000	 2.367877222095777e+000	 1.078309104880246e+001
 2.174353352140000e+000	 2.174353352140000e+000	 1.113333234102960e+001
 2.151721211404932e+000	 2.196752336590512e+000	 1.112559989825493e+001
 2.128859573114841e+000	 2.218914581025073e+000	 1.111370911854575e+001
 2.105772169025888e+000	 2.240836578621617e+000	 1.109686179646288e+001
 2.082462801891776e+000	 2.262514901315687e+000	 1.107426042489801e+001
 2.058935343378656e+000	 2.283946201584463e+000	 1.104510982756642e+001
 2.035193731926682e+000	 2.305127214164361e+000	 1.100861880076985e+001
 2.011241970560674e+000	 2.326054757700344e+000	 1.096400176028151e+001
 1.987084124652449e+000	 2.346725736325237e+000	 1.091048038917471e+001
 1.962724319637427e+000	 2.367137141167374e+000	 1.084728528240117e+001
 1.938166738688187e+000	 2.387286051785094e+000	 1.077365758392381e+001
 2.192031021670000e+000	 2.192031021670000e+000	 1.110949779115601e+001
 2.169214879790501e+000	 2.214612111685371e+000	 1.109447245709439e+001
 2.146167374522197e+000	 2.236954536969167e+000	 1.107746314076452e+001
 2.122892267960732e+000	 2.259054762188574e+000	 1.105763228183665e+001
 2.099393393776505e+000	 2.280909331408692e+000	 1.103414067037767e+001
 2.075674655112628e+000	 2.302514869891070e+000	 1.100614914558008e+001
 2.051740022429092e+000	 2.323868085825262e+000	 1.097282030714432e+001
 2.027593531295636e+000	 2.344965771991559e+000	 1.093332023500982e+001
 2.003239280135880e+000	 2.365804807353133e+000	 1.088682021309242e+001
 1.978681427925370e+000	 2.386382158575948e+000	 1.083249845266426e+001
 1.953924191846217e+000	 2.406694881474913e+000	 1.076954181100444e+001
 2.209708691200000e+000	 2.209708691200000e+000	 1.109401091628389e+001
 2.186708548176069e+000	 2.232471886780235e+000	 1.107152058027151e+001
 2.163475175929553e+000	 2.254994492913281e+000	 1.104918998996043e+001
 2.140012366895575e+000	 2.277272945755577e+000	 1.102614191254894e+001
 2.116323985661234e+000	 2.299303761501778e+000	 1.100149513134672e+001
 2.092413966846599e+000	 2.321083538197802e+000	 1.097436621139103e+001
 2.068286312931502e+000	 2.342608957486344e+000	 1.094387128108905e+001
 2.043945092030598e+000	 2.363876786283020e+000	 1.090912782542324e+001
 2.019394435619312e+000	 2.384883878381352e+000	 1.086925648621278e+001
 1.994638536213314e+000	 2.405627175984928e+000	 1.082338286489493e+001
 1.969681645004248e+000	 2.426103711165233e+000	 1.077063932327630e+001
 2.227386360730000e+000	 2.227386360730000e+000	 1.108660542206227e+001
 2.204202216561638e+000	 2.250331661875104e+000	 1.105648964374139e+001
 2.180782977336909e+000	 2.273034448857415e+000	 1.102864767845279e+001
 2.157132465830420e+000	 2.295491129322624e+000	 1.100216229360305e+001
 2.133254577545962e+000	 2.317698191594944e+000	 1.097610995141235e+001
 2.109153278580570e+000	 2.339652206504659e+000	 1.094956264208149e+001
 2.084832603433911e+000	 2.361349829147606e+000	 1.092158973634837e+001
 2.060296652765561e+000	 2.382787800574727e+000	 1.089125985281109e+001
 2.035549591102744e+000	 2.403962949409890e+000	 1.085764273534353e+001
 2.010595644501257e+000	 2.424872193394314e+000	 1.081981113589400e+001
 1.985439098162278e+000	 2.445512540856055e+000	 1.077684269793739e+001
 2.245064030260000e+000	 2.245064030260000e+000	 1.108701586040840e+001
 2.221695884947205e+000	 2.268191436969977e+000	 1.104912561274863e+001
 2.198090778744265e+000	 2.291074404801570e+000	 1.101559452432790e+001
 2.174252564765263e+000	 2.313709312889717e+000	 1.098546502584660e+001
 2.150185169430690e+000	 2.336092621688191e+000	 1.095777093386309e+001
 2.125892590314541e+000	 2.358220874811642e+000	 1.093153935218840e+001
 2.101378893936322e+000	 2.380090700809050e+000	 1.090579259602479e+001
 2.076648213500523e+000	 2.401698814866681e+000	 1.087955013406393e+001
 2.051704746586175e+000	 2.423042020438749e+000	 1.085183054370224e+001
 2.026552752789200e+000	 2.444117210804106e+000	 1.082165347448848e+001
 2.001196551320309e+000	 2.464921370547378e+000	 1.078804161489318e+001
 2.262741699790000e+000	 2.262741699790000e+000	 1.109497759645061e+001
 2.239189553332774e+000	 2.286051212064856e+000	 1.104917501880812e+001
 2.215398580151621e+000	 2.309114360745745e+000	 1.100978913949522e+001
 2.191372663700107e+000	 2.331927496456855e+000	 1.097582170613389e+001
 2.167115761315420e+000	 2.354487051781518e+000	 1.094626355496235e+001
 2.142631902048512e+000	 2.376789543118751e+000	 1.092009658114656e+001
 2.117925184438732e+000	 2.398831572470674e+000	 1.089629573518210e+001
 2.092999774235485e+000	 2.420609829158880e+000	 1.087383104043916e+001
 2.067859902069607e+000	 2.442121091467930e+000	 1.085166962683801e+001
 2.042509861077143e+000	 2.463362228214304e+000	 1.082877777559307e+001
 2.016954004478340e+000	 2.484330200239203e+000	 1.080412296993224e+001
 2.280419369320000e+000	 2.280419369320000e+000	 1.111022677700833e+001
 2.256683221718343e+000	 2.303910987159740e+000	 1.105638493775675e+001
 2.232706381558977e+000	 2.327154316689938e+000	 1.101099041829879e+001
 2.208492762634951e+000	 2.350145680024038e+000	 1.097300392748065e+001
 2.184046353200148e+000	 2.372881481874926e+000	 1.094137297662395e+001
 2.159371213782483e+000	 2.395358211425985e+000	 1.091503391945548e+001
 2.134471474941142e+000	 2.417572444132479e+000	 1.089291402146707e+001
 2.109351334970447e+000	 2.439520843451324e+000	 1.087393355359317e+001
 2.084015057553038e+000	 2.461200162497432e+000	 1.085700790502159e+001
 2.058466969365087e+000	 2.482607245624910e+000	 1.084104970989666e+001
 2.032711457636371e+000	 2.503739029931528e+000	 1.082803416784509e+001
 2.298097038850000e+000	 2.298097038850000e+000	 1.113250030052709e+001
 2.274176890103912e+000	 2.321770762254630e+000	 1.107050296881783e+001
 2.250014182966333e+000	 2.345194272634154e+000	 1.101895752665430e+001
 2.225612861569796e+000	 2.368363863591268e+000	 1.097678327921174e+001
 2.200976945084877e+000	 2.391275911968414e+000	 1.094288405850245e+001
 2.176110525516455e+000	 2.413926879733346e+000	 1.091615033363834e+001
 2.151017765443552e+000	 2.436313315794465e+000	 1.089546135385624e+001
 2.125702895705410e+000	 2.458431857744016e+000	 1.087968731902771e+001
 2.100170213036470e+000	 2.480279233527256e+000	 1.086769157229457e+001
 2.074424077653031e+000	 2.501852263035922e+000	 1.085973901010951e+001
 2.048468910794402e+000	 2.523147859624355e+000	 1.087033399484737e+001
 1.890894379214094e+000	 2.329059562718646e+000	 1.081831284733114e+001
 1.866746946686970e+000	 2.348458182955457e+000	 1.069552885041069e+001
 1.842414884029853e+000	 2.367595276895474e+000	 1.070006269502713e+001
 1.817902427375696e+000	 2.386468261810127e+000	 1.069830163598466e+001
 1.793213859741616e+000	 2.405074646102546e+000	 1.069017112035500e+001
 1.768353508590089e+000	 2.423412030331897e+000	 1.067562270027944e+001
 1.743325743364769e+000	 2.441478108159864e+000	 1.065463438438378e+001
 1.718134973003829e+000	 2.459270667218595e+000	 1.062721093386771e+001
 1.692785643433694e+000	 2.476787589899572e+000	 1.059338410253188e+001
 1.667282235046093e+000	 2.494026854062976e+000	 1.055321282016772e+001
 1.641629260161343e+000	 2.510986533667252e+000	 1.051793509887997e+001
 1.906651832372125e+000	 2.348468392406962e+000	 1.079794347174487e+001
 1.882303171240375e+000	 2.368028667811902e+000	 1.061619056933964e+001
 1.857768341394251e+000	 2.387325237534294e+000	 1.056362118428304e+001
 1.833051614267812e+000	 2.406355497322827e+000	 1.056659332536691e+001
 1.808157308569985e+000	 2.425116934817322e+000	 1.056286564866879e+001
 1.783089787825432e+000	 2.443607130581606e+000	 1.055239269798830e+001
 1.757853457889841e+000	 2.461823759057876e+000	 1.053515608113319e+001
 1.732452764442533e+000	 2.479764589441885e+000	 1.051116476949532e+001
 1.706892190459320e+000	 2.497427486478373e+000	 1.048045534031117e+001
 1.681176253668530e+000	 2.514810411176357e+000	 1.045886408433421e+001
 1.655309503993148e+000	 2.531911421443936e+000	 1.043577610139038e+001
 1.922409285530155e+000	 2.367877222095777e+000	 1.078309104880246e+001
 1.897859395793785e+000	 2.387599152668946e+000	 1.061462575172025e+001
 1.873121798758668e+000	 2.407055198173796e+000	 1.043927220916823e+001
 1.848200801159973e+000	 2.426242732836282e+000	 1.044721379625774e+001
 1.823100757398435e+000	 2.445159223532919e+000	 1.044811719842662e+001
 1.797826067060902e+000	 2.463802230832190e+000	 1.044193956852971e+001
 1.772381172415094e+000	 2.482169409956811e+000	 1.042866574305198e+001
 1.746770555881483e+000	 2.500258511666131e+000	 1.040856961586205e+001
 1.720998737485268e+000	 2.518067383058154e+000	 1.040074685701499e+001
 1.695070272291374e+000	 2.535593968290733e+000	 1.038875285256539e+001
 1.668989747825456e+000	 2.552836309221620e+000	 1.037259616337863e+001
 1.938166738688187e+000	 2.387286051785094e+000	 1.077365758392381e+001
 1.913415620347201e+000	 2.407169637526585e+000	 1.061896420770617e+001
 1.888475256123106e+000	 2.426785158813978e+000	 1.044078605368636e+001
 1.863349988052179e+000	 2.446129968350495e+000	 1.034033086642321e+001
 1.838044206226965e+000	 2.465201512249336e+000	 1.034608825714427e+001
 1.812562346296499e+000	 2.483997331083651e+000	 1.034442038591131e+001
 1.786908886940529e+000	 2.502515060856667e+000	 1.033788312448820e+001
 1.761088347320681e+000	 2.520752433891332e+000	 1.034191564349087e+001
 1.735105284511538e+000	 2.538707279638916e+000	 1.034164426518587e+001
 1.708964290914626e+000	 2.556377525406105e+000	 1.033706311114574e+001
 1.682669991658267e+000	 2.573761197000304e+000	 1.032818034426386e+001
 1.953924191846217e+000	 2.406694881474913e+000	 1.076954181100444e+001
 1.928971844900621e+000	 2.426740122384820e+000	 1.062910193910962e+001
 1.903828713487564e+000	 2.446515119454843e+000	 1.046477975684367e+001
 1.878499174944432e+000	 2.466017203865462e+000	 1.027598199019506e+001
 1.852987655055576e+000	 2.485243800966575e+000	 1.025693900645125e+001
 1.827298625532221e+000	 2.504192431335988e+000	 1.026425064755589e+001
 1.801436601466145e+000	 2.522860711757441e+000	 1.028073144415238e+001
 1.775406138760125e+000	 2.541246356117488e+000	 1.029279153281043e+001
 1.749211831538131e+000	 2.559347176220657e+000	 1.030041063878735e+001
 1.722858309538286e+000	 2.577161082522470e+000	 1.030358198487666e+001
 1.696350235491580e+000	 2.594686084779988e+000	 1.030231284424000e+001
 1.969681645004248e+000	 2.426103711165233e+000	 1.077063932327630e+001
 1.944528069454047e+000	 2.446310607243651e+000	 1.064493203841918e+001
 1.919182170852043e+000	 2.466245080096388e+000	 1.049494473095923e+001
 1.893648361836729e+000	 2.485904439381186e+000	 1.032006883679655e+001
 1.867931103884267e+000	 2.505286089684634e+000	 1.018608965880322e+001
 1.842034904768070e+000	 2.524387531589200e+000	 1.021558835946847e+001
 1.815964315991943e+000	 2.543206362659137e+000	 1.024056634367910e+001
 1.789723930199816e+000	 2.561740278344599e+000	 1.026098905719627e+001
 1.763318378565047e+000	 2.579987072803380e+000	 1.027683484606101e+001
 1.736752328162353e+000	 2.597944639639832e+000	 1.028809554320695e+001
 1.710030479325396e+000	 2.615610972560673e+000	 1.029477703864486e+001
 1.985439098162278e+000	 2.445512540856055e+000	 1.077684269793739e+001
 1.960084294007477e+000	 2.465881092103079e+000	 1.066634480424917e+001
 1.934535628216542e+000	 2.485975040738615e+000	 1.053116905255830e+001
 1.908797548729072e+000	 2.505791674897666e+000	 1.037626221380370e+001
 1.882874552713041e+000	 2.525328378403515e+000	 1.021132738661465e+001
 1.856771184004044e+000	 2.544582631843288e+000	 1.018337523328792e+001
 1.830492030517923e+000	 2.563552013561753e+000	 1.021718092930864e+001
 1.804041721639754e+000	 2.582234200572666e+000	 1.024629853241964e+001
 1.777424925592284e+000	 2.600626969387082e+000	 1.027070451991325e+001
 1.750646346786827e+000	 2.618728196758188e+000	 1.029038884211185e+001
 1.723710723159714e+000	 2.636535860342358e+000	 1.030535551069239e+001
 2.001196551320309e+000	 2.464921370547378e+000	 1.078804161489318e+001
 1.975640518560913e+000	 2.485451576963104e+000	 1.069322785133476e+001
 1.949889085581061e+000	 2.505705001381523e+000	 1.057859302778591e+001
 1.923946735621461e+000	 2.525678910414902e+000	 1.045404841870516e+001
 1.897818001541895e+000	 2.545370667123217e+000	 1.030719323558265e+001
 1.871507463240145e+000	 2.564777732098251e+000	 1.016740544687361e+001
 1.845019745044084e+000	 2.583897664465289e+000	 1.021036669325332e+001
 1.818359513079940e+000	 2.602728122801688e+000	 1.024850887403334e+001
 1.791531472619844e+000	 2.621266865971764e+000	 1.028180610655065e+001
 1.764540365411709e+000	 2.639511753877541e+000	 1.031024596399361e+001
 1.737390966994536e+000	 2.657460748125041e+000	 1.033383008265882e+001
 2.016954004478340e+000	 2.484330200239203e+000	 1.080412296993224e+001
 1.991196743114353e+000	 2.505022061823724e+000	 1.072985226638972e+001
 1.965242542945600e+000	 2.525434962025112e+000	 1.064615844383458e+001
 1.939095922513895e+000	 2.545566145932894e+000	 1.054042194137047e+001
 1.912761450370829e+000	 2.565412955843739e+000	 1.041218319743187e+001
 1.886243742476373e+000	 2.584972832354091e+000	 1.026099312371933e+001
 1.859547459570428e+000	 2.604243315369748e+000	 1.021991357674553e+001
 1.832677304520373e+000	 2.623222045031666e+000	 1.026740765206782e+001
 1.805638019647726e+000	 2.641906762557427e+000	 1.030992491183543e+001
 1.778434384036999e+000	 2.660295310997887e+000	 1.034745005571174e+001
 1.751071210829859e+000	 2.678385635908726e+000	 1.037998184560662e+001
 2.032711457636371e+000	 2.503739029931528e+000	 1.082803416784509e+001
 2.006752967667799e+000	 2.524592546684941e+000	 1.078557383549046e+001
 1.980596000310160e+000	 2.545164922669383e+000	 1.072138373754117e+001
 1.954245109406375e+000	 2.565453381451643e+000	 1.063498191810192e+001
 1.927704899199844e+000	 2.585455244565082e+000	 1.052589517628093e+001
 1.900980021712727e+000	 2.605167932610806e+000	 1.039366040525736e+001
 1.874075174096952e+000	 2.624588966275125e+000	 1.024561003015314e+001
 1.846995095961052e+000	 2.643715967262599e+000	 1.030278114318323e+001
 1.819744566675930e+000	 2.662546659144069e+000	 1.035484514548476e+001
 1.792328402662696e+000	 2.681078868119229e+000	 1.040178336484422e+001
 1.764751454665686e+000	 2.699310523693410e+000	 1.044359118772624e+001
 2.048468910794402e+000	 2.523147859624355e+000	 1.087033399484737e+001
 2.022309192221251e+000	 2.544163031546754e+000	 1.084803820123636e+001
 1.995949457674740e+000	 2.564894883314335e+000	 1.080386729944832e+001
 1.969394296298900e+000	 2.585340616971147e+000	 1.073732548133475e+001
 1.942648348028941e+000	 2.605497533287247e+000	 1.064792526251344e+001
 1.915716300949207e+000	 2.625363032868397e+000	 1.053518885784677e+001
 1.888602888623659e+000	 2.644934617181425e+000	 1.039864956814462e+001
 1.861312887401979e+000	 2.664209889494488e+000	 1.035441438041437e+001
 1.833851113704458e+000	 2.683186555731692e+000	 1.041634996323029e+001
 1.806222421288801e+000	 2.701862425241567e+000	 1.047302727427534e+001
 1.778431698502015e+000	 2.720235411479095e+000	 1.052443782136959e+001
 1.641629260161343e+000	 2.510986533667252e+000	 1.051793509887997e+001
 1.615831260481341e+000	 2.527664799318952e+000	 1.033785165758815e+001
 1.589892804533449e+000	 2.544059918741996e+000	 1.018692848984317e+001
 1.563818485109322e+000	 2.560170257166945e+000	 1.006477605228462e+001
 1.537612916702710e+000	 2.575994277640975e+000	 9.970994678359121e+000
 1.511280732947346e+000	 2.591530541258077e+000	 9.905175656441932e+000
 1.484826584058344e+000	 2.606777707310106e+000	 9.866902307700318e+000
 1.458255134279887e+000	 2.621734533359257e+000	 9.855751060885796e+000
 1.431571059341970e+000	 2.636399875232531e+000	 9.871292521295803e+000
 1.404779043928913e+000	 2.650772686938987e+000	 9.913092531205642e+000
 1.377883779162314e+000	 2.664852020510572e+000	 9.980713219141524e+000
 1.655309503993148e+000	 2.531911421443936e+000	 1.043577610139038e+001
 1.629296520982582e+000	 2.548728672642727e+000	 1.025387380785889e+001
 1.603141911235245e+000	 2.565260418061028e+000	 1.010156218938206e+001
 1.576850305816057e+000	 2.581505009306318e+000	 9.978445594436758e+000
 1.550426357672883e+000	 2.597460896617837e+000	 9.884117685021973e+000
 1.523874739053070e+000	 2.613126629098686e+000	 9.818162542875728e+000
 1.497200138923525e+000	 2.628500854868159e+000	 9.780155775960134e+000
 1.470407260397131e+000	 2.643582321134798e+000	 9.769665622321259e+000
 1.443500818168301e+000	 2.658369874190830e+000	 9.786254048483182e+000
 1.416485535960391e+000	 2.672862459328721e+000	 9.829477839596947e+000
 1.389366143987678e+000	 2.687059120680686e+000	 9.898889678636142e+000
 1.668989747825456e+000	 2.552836309221620e+000	 1.037259616337863e+001
 1.642761781484414e+000	 2.569792545967492e+000	 1.018914568998564e+001
 1.616391017937702e+000	 2.586460917381019e+000	 1.003570603303951e+001
 1.589882126523503e+000	 2.602839761446600e+000	 9.911875013092601e+000
 1.563239798643796e+000	 2.618927515595535e+000	 9.817239207288148e+000
 1.536468745159544e+000	 2.634722716940044e+000	 9.751375084325645e+000
 1.509573693789444e+000	 2.650224002426848e+000	 9.713850140208207e+000
 1.482559386515084e+000	 2.665430108910843e+000	 9.704224031795981e+000
 1.455430576995290e+000	 2.680339873149481e+000	 9.722049705243069e+000
 1.428192027992455e+000	 2.694952231718637e+000	 9.766874516457101e+000
 1.400848508813537e+000	 2.709266220850791e+000	 9.838241340792688e+000
 1.682669991658267e+000	 2.573761197000304e+000	 1.032818034426386e+001
 1.656227041986839e+000	 2.590856419293247e+000	 1.014345111936010e+001
 1.629640124640821e+000	 2.607661416701968e+000	 9.989142917310701e+000
 1.602913947231660e+000	 2.624174513587790e+000	 9.864846607564179e+000
 1.576053239615450e+000	 2.640394134574071e+000	 9.770141265375379e+000
 1.549062751266767e+000	 2.656318804782146e+000	 9.704595336180086e+000
 1.521947248656102e+000	 2.671947149986172e+000	 9.667767801252555e+000
 1.494711512633743e+000	 2.687277896687392e+000	 9.659209341586516e+000
 1.467360335822935e+000	 2.702309872108486e+000	 9.678463496993054e+000
 1.439898520025106e+000	 2.717042004108736e+000	 9.725067817472480e+000
 1.412330873639893e+000	 2.731473321020890e+000	 9.798555003988755e+000
 1.696350235491580e+000	 2.594686084779988e+000	 1.030231284424000e+001
 1.669692302489857e+000	 2.611920292619992e+000	 1.011657323298727e+001
 1.642889231344602e+000	 2.628861916023877e+000	 9.961655233186725e+000
 1.615945767940529e+000	 2.645509265729889e+000	 9.837142336531729e+000
 1.588866680587844e+000	 2.661860753553444e+000	 9.742605695682563e+000
 1.561656757374740e+000	 2.677914892624994e+000	 9.677605318718392e+000
 1.534320803523498e+000	 2.693670297546130e+000	 9.641691265360569e+000
 1.506863638753111e+000	 2.709125684464445e+000	 9.634404841822674e+000
 1.479290094651237e+000	 2.724279871067844e+000	 9.655279791195692e+000
 1.451605012058343e+000	 2.739131776499017e+000	 9.703843476341403e+000
 1.423813238466745e+000	 2.753680421190979e+000	 9.779618052339641e+000
 1.710030479325396e+000	 2.615610972560673e+000	 1.029477703864486e+001
 1.683157562993467e+000	 2.632984165947726e+000	 1.010829451662079e+001
 1.656138338049046e+000	 2.650062415346746e+000	 9.953024886374632e+000
 1.628977588650109e+000	 2.666844017872896e+000	 9.828543831668954e+000
 1.601680121560980e+000	 2.683327372533654e+000	 9.734414158142499e+000
 1.574250763483462e+000	 2.699510980468590e+000	 9.670187018515239e+000
 1.546694358391633e+000	 2.715393445106723e+000	 9.635403140040543e+000
 1.519015764873185e+000	 2.730973472242001e+000	 9.629594050973298e+000
 1.491219853480195e+000	 2.746249870027554e+000	 9.652283302876519e+000
 1.463311504092166e+000	 2.761221548889481e+000	 9.702987685653781e+000
 1.435295603294094e+000	 2.775887521361062e+000	 9.781218432268602e+000
 1.723710723159714e+000	 2.636535860342358e+000	 1.030535551069239e+001
 1.696622823497669e+000	 2.654048039276451e+000	 1.011839683060638e+001
 1.669387444754151e+000	 2.671262914670574e+000	 9.963033316554901e+000
 1.642009409360401e+000	 2.688178770016811e+000	 9.838832410619419e+000
 1.614493562534854e+000	 2.704793991514702e+000	 9.745348143224449e+000
 1.586844769592933e+000	 2.721107068312931e+000	 9.682122389778176e+000
 1.559067913260507e+000	 2.737116592667952e+000	 9.648686130024272e+000
 1.531167890993968e+000	 2.752821260020062e+000	 9.644560706785171e+000
 1.503149612309811e+000	 2.768219868987618e+000	 9.669259080831941e+000
 1.475017996126575e+000	 2.783311321280127e+000	 9.722287078681003e+000
 1.446777968121937e+000	 2.798094621531136e+000	 9.803144630193232e+000
 1.737390966994536e+000	 2.657460748125041e+000	 1.033383008265882e+001
 1.710088084002464e+000	 2.675111912606165e+000	 1.014666143450412e+001
 1.682636551459918e+000	 2.692463413995360e+000	 9.991461515728719e+000
 1.655041230071404e+000	 2.709513522161635e+000	 9.867789089360029e+000
 1.627307003509470e+000	 2.726260610496586e+000	 9.775188978606048e+000
 1.599438775703154e+000	 2.742703156158019e+000	 9.713193355621838e+000
 1.571441468130119e+000	 2.758839740229814e+000	 9.681323033439282e+000
 1.543320017115457e+000	 2.774669047798627e+000	 9.679088757650158e+000
 1.515079371140083e+000	 2.790189867948034e+000	 9.705992494488747e+000
 1.486724488161571e+000	 2.805401093670955e+000	 9.761528712026379e+000
 1.458260332950278e+000	 2.820301721701202e+000	 9.845185651265714e+000
 1.751071210829859e+000	 2.678385635908726e+000	 1.037998184560662e+001
 1.723553344507851e+000	 2.696175785936869e+000	 1.019286901055661e+001
 1.695885658166348e+000	 2.713663913321106e+000	 1.003809004570560e+001
 1.668073050783117e+000	 2.730848274307367e+000	 9.915194593984838e+000
 1.640120444484826e+000	 2.747727229479309e+000	 9.823717835532216e+000
 1.612032781814125e+000	 2.764299244003852e+000	 9.763181809282527e+000
 1.583815023000469e+000	 2.780562887792313e+000	 9.733096738160629e+000
 1.555472143237655e+000	 2.796516835577696e+000	 9.732962354376692e+000
 1.527009129971013e+000	 2.812159866908804e+000	 9.762269221379324e+000
 1.498430980197153e+000	 2.827490866061966e+000	 9.820500049088674e+000
 1.469742697779114e+000	 2.842508821871260e+000	 9.907130999109839e+000
 1.764751454665686e+000	 2.699310523693410e+000	 1.044359118772624e+001
 1.737018605013831e+000	 2.717239659268562e+000	 1.025679968606575e+001
 1.709134764873440e+000	 2.734864412647811e+000	 1.010269905477746e+001
 1.681104871495543e+000	 2.752183026454008e+000	 9.980829371940764e+000
 1.652933885460923e+000	 2.769193848462868e+000	 9.890715734878565e+000
 1.624626787925845e+000	 2.785895331850432e+000	 9.831869615276357e+000
 1.596188577871558e+000	 2.802286035355447e+000	 9.803790218332232e+000
 1.567624269360560e+000	 2.818364623357268e+000	 9.805965842344342e+000
 1.538938888802599e+000	 2.834129865869927e+000	 9.837875235199666e+000
 1.510137472233321e+000	 2.849580638453160e+000	 9.898988944294874e+000
 1.481225062608446e+000	 2.864715922041312e+000	 9.988770656500337e+000
 1.778431698502015e+000	 2.720235411479095e+000	 1.052443782136959e+001
 1.750483865520404e+000	 2.738303532601247e+000	 1.033823305473646e+001
 1.722383871581194e+000	 2.756064911975476e+000	 1.018506829362311e+001
 1.694136692208681e+000	 2.773517778601558e+000	 1.006447360274488e+001
 1.665747326437761e+000	 2.790660467447267e+000	 9.975963552934751e+000
 1.637220794038315e+000	 2.807491419697759e+000	 9.919038610503787e+000
 1.608562132743385e+000	 2.824009182919216e+000	 9.893186531048910e+000
 1.579776395484174e+000	 2.840212411137346e+000	 9.897883754020240e+000
 1.550868647634842e+000	 2.856099864831403e+000	 9.932596794418457e+000
 1.521843964270076e+000	 2.871670410844536e+000	 9.996783628060641e+000
 1.492707427438275e+000	 2.886923022211355e+000	 1.008989506693402e+001
 1.377883779162314e+000	 2.664852020510572e+000	 9.980713219141524e+000
 1.350889960100455e+000	 2.678637025767296e+000	 9.920253755438733e+000
 1.323802283258406e+000	 2.692126950008474e+000	 9.806439162259458e+000
 1.296625444150433e+000	 2.705321137630596e+000	 9.639347232811002e+000
 1.269364134855766e+000	 2.718219029672730e+000	 9.419122229607510e+000
 1.242023041611831e+000	 2.730820163291444e+000	 9.250424278784481e+000
 1.214606842436724e+000	 2.743124171166410e+000	 9.307733653999483e+000
 1.187120204783137e+000	 2.755130780838170e+000	 9.350117050737689e+000
 1.159567783225907e+000	 2.766839813979640e+000	 9.376800294482981e+000
 1.131954217185234e+000	 2.778251185602976e+000	 9.387134047535060e+000
 1.104284128687585e+000	 2.789364903203509e+000	 9.380593737768914e+000
 1.389366143987678e+000	 2.687059120680686e+000	 9.898889678636142e+000
 1.362147376433888e+000	 2.700959000981797e+000	 9.842702623287620e+000
 1.334833968951679e+000	 2.714561341258762e+000	 9.736245474672737e+000
 1.307430656184602e+000	 2.727865480444710e+000	 9.579564244279309e+000
 1.279942169312546e+000	 2.740870854920701e+000	 9.372769180833734e+000
 1.252373233624917e+000	 2.753576997986275e+000	 9.116034481547171e+000
 1.224728566123295e+000	 2.765983539260101e+000	 9.149005075360764e+000
 1.197012873155813e+000	 2.778090204012228e+000	 9.199863802177074e+000
 1.169230848085429e+000	 2.789896812429515e+000	 9.237474470401097e+000
 1.141387168994182e+000	 2.801403278815884e+000	 9.261118326147107e+000
 1.113486496425423e+000	 2.812609610729128e+000	 9.270202081048215e+000
 1.400848508813537e+000	 2.709266220850791e+000	 9.838241340792688e+000
 1.373404792767729e+000	 2.723280976196111e+000	 9.786308576125697e+000
 1.345865654645289e+000	 2.736995732508725e+000	 9.687131963583223e+000
 1.318235868219059e+000	 2.750409823258400e+000	 9.540725722386833e+000
 1.290520203769585e+000	 2.763522680168190e+000	 9.347166114163377e+000
 1.262723425638253e+000	 2.776333832680606e+000	 9.106591227517431e+000
 1.234850289810128e+000	 2.788842907353316e+000	 9.017282411036055e+000
 1.206905541528781e+000	 2.801049627185873e+000	 9.076075421891499e+000
 1.178893912945295e+000	 2.812953810879078e+000	 9.123982210416417e+000
 1.150820120803544e+000	 2.824555372028620e+000	 9.160214389209500e+000
 1.122688864163766e+000	 2.835854318254756e+000	 9.184109830114075e+000
 1.412330873639893e+000	 2.731473321020890e+000	 9.798555003988755e+000
 1.384662209101975e+000	 2.745602951410237e+000	 9.750864344923469e+000
 1.356897340339236e+000	 2.759430123758361e+000	 9.658898665224923e+000
 1.329041080253802e+000	 2.772954166071665e+000	 9.522640368406657e+000
 1.301098238226883e+000	 2.786174505415196e+000	 9.342131742050061e+000
 1.273073617651840e+000	 2.799090667374439e+000	 9.117474815650160e+000
 1.244972013497223e+000	 2.811702275446057e+000	 8.912730887702752e+000
 1.216798209902043e+000	 2.824009050359105e+000	 8.978933926007411e+000
 1.188556977805506e+000	 2.836010809328329e+000	 9.036523108211737e+000
 1.160253072613321e+000	 2.847707465241187e+000	 9.084640175070096e+000
 1.131891231902615e+000	 2.859099025780396e+000	 9.122554014110984e+000
 1.423813238466745e+000	 2.753680421190979e+000	 9.779618052339641e+000
 1.395919625436628e+000	 2.767924926624177e+000	 9.736163213527730e+000
 1.367929026033521e+000	 2.781864515007671e+000	 9.651346092422298e+000
 1.339846292288835e+000	 2.795498508884507e+000	 9.525117240740755e+000
 1.311676272684440e+000	 2.808826330661722e+000	 9.357484971712919e+000
 1.283423809665677e+000	 2.821847502067772e+000	 9.148515291168035e+000
 1.255093737184579e+000	 2.834561643538318e+000	 8.898331742800991e+000
 1.226690878275597e+000	 2.846968473531923e+000	 8.908620784015909e+000
 1.198220042666061e+000	 2.859067807777269e+000	 8.975295880081662e+000
 1.169686024423513e+000	 2.870859558453584e+000	 9.034612372758152e+000
 1.141093599641968e+000	 2.882343733306045e+000	 9.085770000169539e+000
 1.435295603294094e+000	 2.775887521361062e+000	 9.781218432268602e+000
 1.407177041771687e+000	 2.790246901837927e+000	 9.741998996546712e+000
 1.378960711728142e+000	 2.804298906256655e+000	 9.664275215526846e+000
 1.350651504324155e+000	 2.818042851696925e+000	 9.547965740635076e+000
 1.322254307142256e+000	 2.831478155907767e+000	 9.393044897346096e+000
 1.293774001679765e+000	 2.844604336760606e+000	 9.199542689500275e+000
 1.265215460872198e+000	 2.857421011630105e+000	 8.967544719231162e+000
 1.236583546649445e+000	 2.869927896704327e+000	 8.865316940637969e+000
 1.207883107526959e+000	 2.882124806225896e+000	 8.940498400027956e+000
 1.179118976234119e+000	 2.894011651665810e+000	 9.010346471957304e+000
 1.150295967381827e+000	 2.905588440831705e+000	 9.073991559886887e+000
 1.446777968121937e+000	 2.798094621531136e+000	 9.803144630193232e+000
 1.418434458107152e+000	 2.812568877051492e+000	 9.768166018287866e+000
 1.389992397423100e+000	 2.826733297505313e+000	 9.697487444261068e+000
 1.361456716359764e+000	 2.840587194508919e+000	 9.590995598574404e+000
 1.332832341600332e+000	 2.854129981153329e+000	 9.448630792698964e+000
 1.304124193694103e+000	 2.867361171452942e+000	 9.270387036671025e+000
 1.275337184560078e+000	 2.880280379721415e+000	 9.056312033645721e+000
 1.246476215023585e+000	 2.892887319876318e+000	 8.849202836648948e+000
 1.217546172388202e+000	 2.905181804674212e+000	 8.932327733183994e+000
 1.188551928045141e+000	 2.917163744877865e+000	 9.012056810598311e+000
 1.159498335122191e+000	 2.928833148357375e+000	 9.087450932641611e+000
 1.458260332950278e+000	 2.820301721701202e+000	 9.845185651265714e+000
 1.429691874443023e+000	 2.834890852264868e+000	 9.814459092691209e+000
 1.401024083118395e+000	 2.849167688753644e+000	 9.750784610420489e+000
 1.372261928395660e+000	 2.863131537320488e+000	 9.654016861320327e+000
 1.343410376058666e+000	 2.876781806398410e+000	 9.524062104007101e+000
 1.314474385708692e+000	 2.890118006144780e+000	 9.360878349669973e+000
 1.285458908248220e+000	 2.903139747812249e+000	 9.164475431235248e+000
 1.256368883398019e+000	 2.915846743047893e+000	 8.934914990976953e+000
 1.227209237249790e+000	 2.928238803122218e+000	 8.950980167659891e+000
 1.197984879856578e+000	 2.940315838089751e+000	 9.039956620203848e+000
 1.168700702863060e+000	 2.952077855883055e+000	 9.126378885917228e+000
 1.469742697779114e+000	 2.842508821871260e+000	 9.907130999109839e+000
 1.440949290779301e+000	 2.857212827478057e+000	 9.880673504202822e+000
 1.412055768814028e+000	 2.871602080001652e+000	 9.823968951386382e+000
 1.383067140431844e+000	 2.885675880131633e+000	 9.736839879556630e+000
 1.353988410517260e+000	 2.899433631643008e+000	 9.619158443254559e+000
 1.324824577723531e+000	 2.912874840836117e+000	 9.470846636805003e+000
 1.295580631936624e+000	 2.925999115902606e+000	 9.291876438096121e+000
 1.266261551772746e+000	 2.938806166219056e+000	 9.082269871941007e+000
 1.236872302111721e+000	 2.951295801569910e+000	 8.996651244895014e+000
 1.207417831668429e+000	 2.963467931301467e+000	 9.094258069107577e+000
 1.177903070604434e+000	 2.975322563408745e+000	 9.191004772798147e+000
 1.481225062608446e+000	 2.864715922041312e+000	 9.988770656500337e+000
 1.452206707115985e+000	 2.879534802691059e+000	 9.966604989538398e+000
 1.423087454509997e+000	 2.894036471249331e+000	 9.916843094405504e+000
 1.393872352468316e+000	 2.908220222942354e+000	 9.839275296109330e+000
 1.364566444976113e+000	 2.922085456887126e+000	 9.733739581749440e+000
 1.335174769738621e+000	 2.935631675526955e+000	 9.600121898038728e+000
 1.305702355625290e+000	 2.948858483992487e+000	 9.438356369722566e+000
 1.276154220147766e+000	 2.961765589389805e+000	 9.248425438672037e+000
 1.246535366973996e+000	 2.974352800017292e+000	 9.069535788598740e+000
 1.216850783480696e+000	 2.986620024513012e+000	 9.175172303662956e+000
 1.187105438346313e+000	 2.998567270934446e+000	 9.281556586791304e+000
 1.492707427438275e+000	 2.886923022211355e+000	 1.008989506693402e+001
 1.463464123453077e+000	 2.901856777903874e+000	 1.007204972028811e+001
 1.434119140206303e+000	 2.916470862496686e+000	 1.002921004159509e+001
 1.404677564505076e+000	 2.930764565752652e+000	 9.961134034710570e+000
 1.375144479435225e+000	 2.944737282130762e+000	 9.867625443996110e+000
 1.345524961753961e+000	 2.958388510217295e+000	 9.748534125309623e+000
 1.315824079314218e+000	 2.971717852081893e+000	 9.603756339106653e+000
 1.286046888523080e+000	 2.984725012560140e+000	 9.433234965266276e+000
 1.256198431836616e+000	 2.997409798464362e+000	 9.236959639459425e+000
 1.226283735293377e+000	 3.009772117724387e+000	 9.282909487550242e+000
 1.196307806088698e+000	 3.021811978460158e+000	 9.398261014117598e+000
 1.104284128687585e+000	 2.789364903203509e+000	 9.380593737768914e+000
 1.076562120166735e+000	 2.800181065842599e+000	 9.186357043922969e+000
 1.048792772305250e+000	 2.810699863170943e+000	 9.032460978601034e+000
 1.020980641918825e+000	 2.820921574394557e+000	 8.918250294971010e+000
 9.931302598865216e-001	 2.830846567185376e+000	 8.843146526562746e+000
 9.652461291268568e-001	 2.840475296538248e+000	 8.806647865748037e+000
 9.373327226216526e-001	 2.849808303576409e+000	 8.808328847117970e+000
 9.093944814890329e-001	 2.858846214307540e+000	 8.847839840875226e+000
 8.814358131068247e-001	 2.867589738332472e+000	 8.924906361797016e+000
 8.534610892875471e-001	 2.876039667508702e+000	 9.039328199731168e+000
 8.254746445060665e-001	 2.884196874570822e+000	 9.190978377964031e+000
 1.113486496425423e+000	 2.812609610729128e+000	 9.270202081048215e+000
 1.085533471166585e+000	 2.823515908056200e+000	 9.088670271977867e+000
 1.057532712072626e+000	 2.834122362028305e+000	 8.943565094517542e+000
 1.029488813932706e+000	 2.844429254178170e+000	 8.834267244481151e+000
 1.001406345383214e+000	 2.854436955241667e+000	 8.760239171314034e+000
 9.732898468669849e-001	 2.864145924005266e+000	 8.721024858269189e+000
 9.451438286406904e-001	 2.873556706101563e+000	 8.716249400530259e+000
 9.169727688317716e-001	 2.882669932754969e+000	 8.745618386716780e+000
 8.887811115462043e-001	 2.891486319479657e+000	 8.808917089654745e+000
 8.605732650282787e-001	 2.900006664731932e+000	 8.906009472712329e+000
 8.323535998734841e-001	 2.908231848519181e+000	 9.036837018385128e+000
 1.122688864163766e+000	 2.835854318254756e+000	 9.184109830114075e+000
 1.094504822167034e+000	 2.846850750270003e+000	 9.016034599082385e+000
 1.066272651840688e+000	 2.857544860886037e+000	 8.880478343904754e+000
 1.037996985947348e+000	 2.867936933962303e+000	 8.776856459378397e+000
 1.009682430880730e+000	 2.878027343298605e+000	 8.704671114131786e+000
 9.813335646079905e-001	 2.887816551473039e+000	 8.663510933200479e+000
 9.529549346606500e-001	 2.897305108627561e+000	 8.653050471488450e+000
 9.245510561754664e-001	 2.906493651203309e+000	 8.673049483868185e+000
 8.961264099865648e-001	 2.915382900627802e+000	 8.723351998132639e+000
 8.676854407700052e-001	 2.923973661956154e+000	 8.803885197438145e+000
 8.392325552419019e-001	 2.932266822468538e+000	 8.914658119269909e+000
 1.131891231902615e+000	 2.859099025780396e+000	 9.122554014110984e+000
 1.103476173168084e+000	 2.870185592484005e+000	 8.968666511807545e+000
 1.075012591609433e+000	 2.880967359744138e+000	 8.843395011477268e+000
 1.046505157962748e+000	 2.891444613746953e+000	 8.746188376548190e+000
 1.017958516379069e+000	 2.901617731356191e+000	 8.676587312585879e+000
 9.893772823498737e-001	 2.911487178941568e+000	 8.634223952948751e+000
 9.607660406815313e-001	 2.921053511154402e+000	 8.618821228153228e+000
 9.321293435201175e-001	 2.930317369652563e+000	 8.630192025024202e+000
 9.034717084279054e-001	 2.939279481776907e+000	 8.668238142173269e+000
 8.747976165127267e-001	 2.947940659181365e+000	 8.732949048786669e+000
 8.461115106113193e-001	 2.956301796418897e+000	 8.824400454103726e+000
 1.141093599641968e+000	 2.882343733306045e+000	 9.085770000169539e+000
 1.112447524169733e+000	 2.893520434698208e+000	 8.946781683572299e+000
 1.083752531378863e+000	 2.904389858602606e+000	 8.832509454027013e+000
 1.055013329978907e+000	 2.914952293532121e+000	 8.742434425923493e+000
 1.026234601878231e+000	 2.925208119414422e+000	 8.676134673363658e+000
 9.974210000926347e-001	 2.935157806410852e+000	 8.633284719550760e+000
 9.685771467033345e-001	 2.944801913682086e+000	 8.613654802600374e+000
 9.397076308657247e-001	 2.954141088102729e+000	 8.617109924168586e+000
 9.108170068702268e-001	 2.963176062926975e+000	 8.643608687774878e+000
 8.819097922564438e-001	 2.971907656407566e+000	 8.693201934143531e+000
 8.529904659817370e-001	 2.980336770370254e+000	 8.766031181297800e+000
 1.150295967381827e+000	 2.905588440831705e+000	 9.073991559886887e+000
 1.121418875171983e+000	 2.916855276912609e+000	 8.950595007169669e+000
 1.092492471148978e+000	 2.927812357461445e+000	 8.848016097540002e+000
 1.063521501995825e+000	 2.938459973317807e+000	 8.765766990763135e+000
 1.034510687378217e+000	 2.948798507473301e+000	 8.703461974304984e+000
 1.005464717836273e+000	 2.958828433880890e+000	 8.660816857088070e+000
 9.763882527260597e-001	 2.968550316210615e+000	 8.637648132264006e+000
 9.472859182122878e-001	 2.977964806553807e+000	 8.633871915722637e+000
 9.181623053135287e-001	 2.987072644078003e+000	 8.649502667549534e+000
 8.890219680011556e-001	 2.995874653634759e+000	 8.684651704101837e+000
 8.598694213531549e-001	 3.004371744322613e+000	 8.739525508792060e+000
 1.159498335122191e+000	 2.928833148357375e+000	 9.087450932641611e+000
 1.130390226174833e+000	 2.940190119127211e+000	 8.980320625743984e+000
 1.101232410919777e+000	 2.951234856320653e+000	 8.890109434450816e+000
 1.072029674013503e+000	 2.961967653104012e+000	 8.816359369821235e+000
 1.042786772879026e+000	 2.972388895532827e+000	 8.758719790150373e+000
 1.013508435580789e+000	 2.982499061351685e+000	 8.716946699700957e+000
 9.841993587497065e-001	 2.992298718739988e+000	 8.690901808930393e+000
 9.548642055598077e-001	 3.001788525005798e+000	 8.680551363257735e+000
 9.255076037578108e-001	 3.010969225229992e+000	 8.685964747920444e+000
 8.961341437468628e-001	 3.019841650862942e+000	 8.707312876937827e+000
 8.667483767255724e-001	 3.028406718275971e+000	 8.744866374629638e+000
 1.168700702863060e+000	 2.952077855883055e+000	 9.126378885917228e+000
 1.139361577178282e+000	 2.963524961342014e+000	 9.036171962304618e+000
 1.109972350691261e+000	 2.974657355180230e+000	 8.958984021026263e+000
 1.080537846031939e+000	 2.985475332890735e+000	 8.894385741304243e+000
 1.051062858380658e+000	 2.995979283592998e+000	 8.842060421796827e+000
 1.021552153326183e+000	 3.006169688823234e+000	 8.801803184893505e+000
 9.920104647742754e-001	 3.016047121270204e+000	 8.773519934865846e+000
 9.624424929082831e-001	 3.025612243458701e+000	 8.757226077245649e+000
 9.328529022030739e-001	 3.034865806382943e+000	 8.753045007318820e+000
 9.032463194935652e-001	 3.043808648092114e+000	 8.761206376103898e+000
 8.736273320989901e-001	 3.052441692230329e+000	 8.782044142621732e+000
 1.177903070604434e+000	 2.975322563408745e+000	 9.191004772798147e+000
 1.148332928182332e+000	 2.986859803557016e+000	 9.118361747856177e+000
 1.118712290463430e+000	 2.998079854040177e+000	 9.054834474872065e+000
 1.089046018051134e+000	 3.008983012677976e+000	 9.000021128517201e+000
 1.059338943883114e+000	 3.019569671653817e+000	 8.953637828869649e+000
 1.029595871072455e+000	 3.029840316295539e+000	 8.915517751839241e+000
 9.998215707997659e-001	 3.039795523801263e+000	 8.885609985688557e+000
 9.700207802577148e-001	 3.049435961912515e+000	 8.863978141351209e+000
 9.401982006493176e-001	 3.058762387536854e+000	 8.850798724777221e+000
 9.103584952412627e-001	 3.067775645322278e+000	 8.846359280026181e+000
 8.805062874734078e-001	 3.076476666185687e+000	 8.851056312278981e+000
 1.187105438346313e+000	 2.998567270934446e+000	 9.281556586791304e+000
 1.157304279186982e+000	 3.010194645772219e+000	 9.227102048220523e+000
 1.127452230236283e+000	 3.021502352900493e+000	 9.177855472555383e+000
 1.097554190071088e+000	 3.032490692465735e+000	 9.133441367108055e+000
 1.067615029386394e+000	 3.043160059715283e+000	 9.093607565431064e+000
 1.037639588819604e+000	 3.053510943768599e+000	 9.058224244417705e+000
 1.007632676826179e+000	 3.063543926333167e+000	 9.027282679618391e+000
 9.775990676081028e-001	 3.073259680367243e+000	 9.000893746804797e+000
 9.475434990965419e-001	 3.082658968691729e+000	 8.979286178355588e+000
 9.174706709899553e-001	 3.091742642553431e+000	 8.962804583539890e+000
 8.873852428488256e-001	 3.100511640142046e+000	 8.951907242233499e+000
 1.196307806088698e+000	 3.021811978460158e+000	 9.398261014117598e+000
 1.166275630192232e+000	 3.033529487987621e+000	 9.362604289620613e+000
 1.136192170009821e+000	 3.044924851761178e+000	 9.328241747337017e+000
 1.106062362091802e+000	 3.055998372254013e+000	 9.294823073823663e+000
 1.075891114890497e+000	 3.066750447777396e+000	 9.262126718655289e+000
 1.045683306567630e+000	 3.077181571242415e+000	 9.230058818725437e+000
 1.015443782853513e+000	 3.087292328865914e+000	 9.198651852761710e+000
 9.851773549594470e-001	 3.097083398822883e+000	 9.168063034419141e+000
 9.548887975447467e-001	 3.106555549847562e+000	 9.138572452871502e+000
 9.245828467396433e-001	 3.115709639785576e+000	 9.110580970334906e+000
 8.942641982252435e-001	 3.124546614099404e+000	 9.084607886427024e+000
 8.254746445060665e-001	 2.884196874570822e+000	 9.190978377964031e+000
 7.974807741809102e-001	 2.892062311710120e+000	 9.280968116074726e+000
 7.694837330099383e-001	 2.899637009115428e+000	 9.267399007871463e+000
 7.414877333616482e-001	 2.906922073477396e+000	 9.151566707661944e+000
 7.134969437225321e-001	 2.913918686458521e+000	 8.934940293054234e+000
 6.855154872010134e-001	 2.920628103131091e+000	 8.619157356291789e+000
 6.575474400885766e-001	 2.927051650385220e+000	 8.206018901359286e+000
 6.295968304785277e-001	 2.933190725309184e+000	 7.697484061335748e+000
 6.016676369427263e-001	 2.939046793544276e+000	 7.663614824489299e+000
 5.737637872665523e-001	 2.944621387616329e+000	 7.920296505884568e+000
 5.458891572422751e-001	 2.949916105246086e+000	 8.396564063694171e+000
 8.323535998734841e-001	 2.908231848519181e+000	 9.036837018385128e+000
 8.041264472955336e-001	 2.916162830967627e+000	 9.107655360704133e+000
 7.758960974481322e-001	 2.923800650851029e+000	 9.084122381450644e+000
 7.476667978028480e-001	 2.931146424082454e+000	 8.967474540221504e+000
 7.194427515835596e-001	 2.938201342171590e+000	 8.759117065739794e+000
 6.912281162579268e-001	 2.944966670649659e+000	 8.460619179398849e+000
 6.630270020865294e-001	 2.951443747464190e+000	 8.073709125488252e+000
 6.348434707301163e-001	 2.957633981345863e+000	 7.600269022409644e+000
 6.066815339153127e-001	 2.963538850149649e+000	 7.490983076167725e+000
 5.785451521590419e-001	 2.969159899172426e+000	 7.808170441217622e+000
 5.504382335518416e-001	 2.974498739449277e+000	 8.383604414008650e+000
 8.392325552419019e-001	 2.932266822468538e+000	 8.914658119269909e+000
 8.107721204111463e-001	 2.940263350226134e+000	 8.966071883424146e+000
 7.823084618872848e-001	 2.947964292587630e+000	 8.932134303496810e+000
 7.538458622449544e-001	 2.955370774688512e+000	 8.814023972640126e+000
 7.253885594454220e-001	 2.962483997885658e+000	 8.613083741839416e+000
 6.969407453155831e-001	 2.969305238169226e+000	 8.330816072141177e+000
 6.685065640851128e-001	 2.975835844544160e+000	 7.968878194345220e+000
 6.400901109822036e-001	 2.982077237383543e+000	 7.529077090308474e+000
 6.116954308882457e-001	 2.988030906756020e+000	 7.338509481127721e+000
 5.833265170517071e-001	 2.993698410729522e+000	 7.704178995740215e+000
 5.549873098613937e-001	 2.999081373653468e+000	 8.367427400375160e+000
 8.461115106113193e-001	 2.956301796418897e+000	 8.824400454103726e+000
 8.174177935277489e-001	 2.964363869485642e+000	 8.856164400232256e+000
 7.887208263273956e-001	 2.972127934325231e+000	 8.811372922527610e+000
 7.600249266879682e-001	 2.979595125295572e+000	 8.691148048955320e+000
 7.313343673081195e-001	 2.986766653600728e+000	 8.496771695495204e+000
 7.026533743739820e-001	 2.993643805689794e+000	 8.229681143570979e+000
 6.739861260843266e-001	 3.000227941625130e+000	 7.891464325598617e+000
 6.453367512347894e-001	 3.006520493422221e+000	 7.483854932648460e+000
 6.167093278615257e-001	 3.012522963363392e+000	 7.209211951197187e+000
 5.881078819445480e-001	 3.018236922287617e+000	 7.611104903849039e+000
 5.595363861709308e-001	 3.023664007858659e+000	 8.350593909610415e+000
 8.529904659817370e-001	 2.980336770370254e+000	 8.766031181297800e+000
 8.240634666453410e-001	 2.988464388746150e+000	 8.777888409440623e+000
 7.951331907684651e-001	 2.996291576063831e+000	 8.721785436054336e+000
 7.662039911318883e-001	 3.003819475903631e+000	 8.598788999060403e+000
 7.372801751716516e-001	 3.011049309316797e+000	 8.410121494708095e+000
 7.083660034331238e-001	 3.017982373211361e+000	 8.157156576765818e+000
 6.794656880841709e-001	 3.024620038707099e+000	 7.841414564356912e+000
 6.505833914878735e-001	 3.030963749461901e+000	 7.464557672292374e+000
 6.217232248351524e-001	 3.037015019971764e+000	 7.106116356855183e+000
 5.928892468375647e-001	 3.042775433846714e+000	 7.531738238849628e+000
 5.640854624804536e-001	 3.048246642064849e+000	 8.335671425867158e+000
 8.598694213531549e-001	 3.004371744322613e+000	 8.739525508792060e+000
 8.307091397639229e-001	 3.012564908007657e+000	 8.731207840383245e+000
 8.015455552104932e-001	 3.020455217803432e+000	 8.663327728622015e+000
 7.723830555767156e-001	 3.028043826512689e+000	 8.536897871269968e+000
 7.432259830360187e-001	 3.035331965033866e+000	 8.353082533583589e+000
 7.140786324930083e-001	 3.042320940733928e+000	 8.113193265867778e+000
 6.849452500846459e-001	 3.049012135790069e+000	 7.818684430070817e+000
 6.558300317414565e-001	 3.055407005502580e+000	 7.471148549140673e+000
 6.267371218091262e-001	 3.061507076581135e+000	 7.072311492972100e+000
 5.976706117307571e-001	 3.067313945406810e+000	 7.468876119400298e+000
 5.686345387899615e-001	 3.072829276272041e+000	 8.325233766740945e+000
 8.667483767255724e-001	 3.028406718275971e+000	 8.744866374629638e+000
 8.373548128834940e-001	 3.036665427270165e+000	 8.716094718851673e+000
 8.079579196534796e-001	 3.044618859544032e+000	 8.635964027086166e+000
 7.785621200224497e-001	 3.052268177122747e+000	 8.505434182382651e+000
 7.491717909012210e-001	 3.059614620751936e+000	 8.325612682089201e+000
 7.197912615536355e-001	 3.066659508257494e+000	 8.097750470406131e+000
 6.904248120857510e-001	 3.073404232874039e+000	 7.823237580250127e+000
 6.610766719955377e-001	 3.079850261544259e+000	 7.503598598026285e+000
 6.317510187834466e-001	 3.085999133191507e+000	 7.140487965015954e+000
 6.024519766241253e-001	 3.091852456967906e+000	 7.425322429934026e+000
 5.731836150994546e-001	 3.097411910480231e+000	 8.321860831942889e+000
 8.736273320989901e-001	 3.052441692230329e+000	 8.782044142621732e+000
 8.440004860040550e-001	 3.060765946533674e+000	 8.732528848336857e+000
 8.143702840974244e-001	 3.068782501285632e+000	 8.639666572175068e+000
 7.847411844690907e-001	 3.076492527733806e+000	 8.504365584276219e+000
 7.551175987672576e-001	 3.083897276471005e+000	 8.327677952359556e+000
 7.255038906150052e-001	 3.090998075782062e+000	 8.110795485951522e+000
 6.959043740874871e-001	 3.097796329959009e+000	 7.855045490067535e+000
 6.663233122501175e-001	 3.104293517586938e+000	 7.561886341827516e+000
 6.367649157581141e-001	 3.110491189802879e+000	 7.232902903604067e+000
 6.072333415176692e-001	 3.116390968530002e+000	 7.403887554290157e+000
 5.777326914089334e-001	 3.121994544689422e+000	 8.328138363846250e+000
 8.805062874734078e-001	 3.076476666185687e+000	 8.851056312278981e+000
 8.506461591256057e-001	 3.084866465798181e+000	 8.780497506212956e+000
 8.207826485423281e-001	 3.092946143028234e+000	 8.674415305447932e+000
 7.909202489166389e-001	 3.100716878345866e+000	 8.533667546131026e+000
 7.610634066341295e-001	 3.108179932191074e+000	 8.359252180642503e+000
 7.312165196771178e-001	 3.115336643307629e+000	 8.152303330208138e+000
 7.013839360898535e-001	 3.122188427044979e+000	 7.914087146981292e+000
 6.715699525051959e-001	 3.128736773630617e+000	 7.679805617353925e+000
 6.417788127331282e-001	 3.134983246415251e+000	 7.447278647672325e+000
 6.120147064113888e-001	 3.140929480093098e+000	 7.572008220480868e+000
 5.822817677183971e-001	 3.146577178899613e+000	 8.534816029945166e+000
 8.873852428488256e-001	 3.100511640142046e+000	 8.951907242233499e+000
 8.572918322481457e-001	 3.108966985063688e+000	 8.859995154051559e+000
 8.271950129881900e-001	 3.117109784771833e+000	 8.740197570813420e+000
 7.970993133650935e-001	 3.124941228958923e+000	 8.593323051434137e+000
 7.670092145018362e-001	 3.132462587912144e+000	 8.474889472075994e+000
 7.369291487399730e-001	 3.139675210834197e+000	 8.337903057771943e+000
 7.068634980928505e-001	 3.146580524131949e+000	 8.184054641913482e+000
 6.768165927607727e-001	 3.153180029675295e+000	 8.015417388820362e+000
 6.467927097084893e-001	 3.159475303028622e+000	 7.834045372604737e+000
 6.167960713052839e-001	 3.165467991657194e+000	 7.870638223241572e+000
 5.868308440278466e-001	 3.171159813110805e+000	 8.816085432991782e+000
 8.942641982252435e-001	 3.124546614099404e+000	 9.084607886427024e+000
 8.639375053716756e-001	 3.133067504330197e+000	 9.020100270745880e+000
 8.336073774350107e-001	 3.141273426516435e+000	 8.942165269164841e+000
 8.032783778144554e-001	 3.149165579572984e+000	 8.850282010427485e+000
 7.729550223703781e-001	 3.156745243634213e+000	 8.746525431723784e+000
 7.426417778035712e-001	 3.164013778361765e+000	 8.632947287371207e+000
 7.123430600964783e-001	 3.170972621219919e+000	 8.511575093473656e+000
 6.820632330168482e-001	 3.177623285720976e+000	 8.384411138083161e+000
 6.518066066841973e-001	 3.183967359642995e+000	 8.253431555431160e+000
 6.215774361993552e-001	 3.190006503222291e+000	 8.212397361849398e+000
 5.913799203372813e-001	 3.195742447322996e+000	 9.146421085751706e+000
 5.458891572422751e-001	 2.949916105246086e+000	 8.396564063694171e+000
 5.180475695206517e-001	 2.954932607640603e+000	 8.276037865850093e+000
 4.902427925216797e-001	 2.959672617767659e+000	 8.061209094518150e+000
 4.624785394036054e-001	 2.964137918615402e+000	 7.764602854204329e+000
 4.347584670896679e-001	 2.968330351439360e+000	 7.397198651180633e+000
 4.070861753532341e-001	 2.972251813998719e+000	 6.968444659273219e+000
 3.794652059606912e-001	 2.975904258783907e+000	 6.486275027551551e+000
 3.518990418717324e-001	 2.979289691237467e+000	 5.957130098029216e+000
 3.243911064965986e-001	 2.982410167970137e+000	 5.385979397845371e+000
 2.969447630097788e-001	 2.985267794974027e+000	 4.776347267283061e+000
 2.695633137196015e-001	 2.987864725834731e+000	 4.130340982434813e+000
 5.504382335518416e-001	 2.974498739449277e+000	 8.383604414008650e+000
 5.223646325997995e-001	 2.979557046030643e+000	 8.304411401527787e+000
 4.943281491263213e-001	 2.984336556242365e+000	 8.164660035610179e+000
 4.663325272326394e-001	 2.988839067930820e+000	 7.977236834892408e+000
 4.383814543163543e-001	 2.993066437695334e+000	 7.753419731954597e+000
 4.104785601489451e-001	 2.997020579109751e+000	 7.502893069050978e+000
 3.826274160115203e-001	 3.000703460935255e+000	 7.233765731674543e+000
 3.548315338884377e-001	 3.004117105326406e+000	 6.952592283730938e+000
 3.270943657183583e-001	 3.007263586032367e+000	 6.664396964339144e+000
 2.994193027022258e-001	 3.010145026595180e+000	 6.372700403104017e+000
 2.718096746676061e-001	 3.012763598546989e+000	 6.079548908073081e+000
 5.549873098613937e-001	 2.999081373653468e+000	 8.367427400375160e+000
 5.266816956787482e-001	 3.004181484421681e+000	 8.321565656238791e+000
 4.984135057306106e-001	 3.009000494718050e+000	 8.249675895528407e+000
 4.701865150611986e-001	 3.013540217247192e+000	 8.165015302376105e+000
 4.420044415424739e-001	 3.017802523952225e+000	 8.079168244340455e+000
 4.138709449440282e-001	 3.021789344221656e+000	 8.002062011141033e+000
 3.857896260616895e-001	 3.025502663087416e+000	 7.941985788959241e+000
 3.577640259044813e-001	 3.028944519416094e+000	 7.905612729655233e+000
 3.297976249394838e-001	 3.032117004095269e+000	 7.898024970401930e+000
 3.018938423940954e-001	 3.035022258216922e+000	 7.922741455969621e+000
 2.740560356151188e-001	 3.037662471259737e+000	 7.981748413207845e+000
 5.595363861709308e-001	 3.023664007858659e+000	 8.350593909610415e+000
 5.309987587574980e-001	 3.028805922813711e+000	 8.329788099937876e+000
 5.024988623345476e-001	 3.033664433194716e+000	 8.318282079299484e+000
 4.740405028892831e-001	 3.038241366564517e+000	 8.329713064606668e+000
 4.456274287680271e-001	 3.042538610210033e+000	 8.375979969377713e+000
 4.172633297384827e-001	 3.046558109334431e+000	 8.467259898678291e+000
 3.889518361111988e-001	 3.050301865240394e+000	 8.612027979171671e+000
 3.606965179198633e-001	 3.053771933506531e+000	 8.817080379125788e+000
 3.325008841599752e-001	 3.056970422158846e+000	 9.087560369275778e+000
 3.043683820853876e-001	 3.059899489839250e+000	 9.426987272088940e+000
 2.763023965621398e-001	 3.062561343972977e+000	 9.837288144221468e+000
 5.640854624804536e-001	 3.048246642064849e+000	 8.335671425867158e+000
 5.353158218360488e-001	 3.053430361206738e+000	 8.331374034558753e+000
 5.065842189381322e-001	 3.058328371672358e+000	 8.372513009180413e+000
 4.778944907168928e-001	 3.062942515882795e+000	 8.473115082580518e+000
 4.492504159930136e-001	 3.067274696468759e+000	 8.645401927515787e+000
 4.206557145323091e-001	 3.071326874448076e+000	 8.899807421135405e+000
 3.921140461600485e-001	 3.075101067394186e+000	 9.244998345948709e+000
 3.636290099345835e-001	 3.078599347597715e+000	 9.687898377541002e+000
 3.352041433798325e-001	 3.081823840223093e+000	 1.023371520524985e+001
 3.068429217761025e-001	 3.084776721462165e+000	 1.088597062857949e+001
 2.785487575086692e-001	 3.087460216686710e+000	 1.164653346930175e+001
 5.686345387899615e-001	 3.072829276272041e+000	 8.325233766740945e+000
 5.396328849144008e-001	 3.078054799600758e+000	 8.328626280734680e+000
 5.106695755413646e-001	 3.082992310150981e+000	 8.414411763968110e+000
 4.817484785440276e-001	 3.087643665202025e+000	 8.597016064217312e+000
 4.528734032174335e-001	 3.092010782728402e+000	 8.888991929037946e+000
 4.240480993255072e-001	 3.096095639562592e+000	 9.301037053269722e+000
 3.952762562082381e-001	 3.099900269548792e+000	 9.842015666242803e+000
 3.665615019486421e-001	 3.103426761689649e+000	 1.051898350429165e+001
 3.379074025990557e-001	 3.106677258288014e+000	 1.133721601001926e+001
 3.093174614662401e-001	 3.109653953085667e+000	 1.230023959623209e+001
 2.807951184547069e-001	 3.112359089400934e+000	 1.340986580957122e+001
 5.731836150994546e-001	 3.097411910480231e+000	 8.321860831942889e+000
 5.439499479925536e-001	 3.102679237995774e+000	 8.323854879437791e+000
 5.147549321442447e-001	 3.107656248630582e+000	 8.446029735487105e+000
 4.856024663706881e-001	 3.112344814522210e+000	 8.703220077577027e+000
 4.564963904412866e-001	 3.116746868988962e+000	 9.108318145893048e+000
 4.274404841180771e-001	 3.120864404677979e+000	 9.672292587452963e+000
 3.984384662557681e-001	 3.124699471704212e+000	 1.040421094503116e+001
 3.694939939620390e-001	 3.128254175782331e+000	 1.105660866326786e+001
 3.406106618176448e-001	 3.131530676353608e+000	 1.174505035281421e+001
 3.117920011558003e-001	 3.134531184709755e+000	 1.248546198265386e+001
 2.830414794002528e-001	 3.137257962115649e+000	 1.327827440752860e+001
 5.777326914089334e-001	 3.121994544689422e+000	 8.328138363846250e+000
 5.482670110705072e-001	 3.127303676391783e+000	 8.327259254369759e+000
 5.188402887467726e-001	 3.132320187111164e+000	 8.443061266821951e+000
 4.894564541968736e-001	 3.137045963843347e+000	 8.635461968153866e+000
 4.601193776645732e-001	 3.141482955250438e+000	 8.890757543516751e+000
 4.308328689100188e-001	 3.145633169794237e+000	 9.197733582124750e+000
 4.016006763026381e-001	 3.149498673860448e+000	 9.547621589270310e+000
 3.724264859747741e-001	 3.153081589875761e+000	 9.934051557036352e+000
 3.433139210355998e-001	 3.156384094419873e+000	 1.035300081877350e+001
 3.142665408447832e-001	 3.159408416334431e+000	 1.080273941495282e+001
 2.852878403453070e-001	 3.162156834830856e+000	 1.128377219976669e+001
 5.822817677183971e-001	 3.146577178899613e+000	 8.534816029945166e+000
 5.525840741482619e-001	 3.151928114788789e+000	 8.439931617199642e+000
 5.229256453489481e-001	 3.156984125592723e+000	 8.417009797505171e+000
 4.933104420225845e-001	 3.161747113165439e+000	 8.449418799318771e+000
 4.637423648872932e-001	 3.166219041512833e+000	 8.523127337432902e+000
 4.342252537013323e-001	 3.170401934911366e+000	 8.626664220317508e+000
 4.047628863488483e-001	 3.174297876017498e+000	 8.751073685328132e+000
 3.753589779868476e-001	 3.177909003969940e+000	 8.889866689185721e+000
 3.460171802529206e-001	 3.181237512486810e+000	 9.038968384563992e+000
 3.167410805331888e-001	 3.184285647959694e+000	 9.196662016237726e+000
 2.875342012898696e-001	 3.187055707546556e+000	 9.363529472045808e+000
 5.868308440278466e-001	 3.171159813110805e+000	 8.816085432991782e+000
 5.569011372258178e-001	 3.176552553186789e+000	 8.610235752301497e+000
 5.270110019507714e-001	 3.181648064075263e+000	 8.454470462347098e+000
 4.971644298478207e-001	 3.186448262488483e+000	 8.331751530000513e+000
 4.673653521094464e-001	 3.190955127776142e+000	 8.227714684319654e+000
 4.376176384920174e-001	 3.195170700029366e+000	 8.130627933596299e+000
 4.079250963943987e-001	 3.199097078175363e+000	 8.031345699144739e+000
 3.782914699982594e-001	 3.202736418064867e+000	 7.923258799020897e+000
 3.487204394696075e-001	 3.206090930554422e+000	 7.802240518392768e+000
 3.192156202210170e-001	 3.209162879585543e+000	 7.666589005952631e+000
 2.897805622339404e-001	 3.211954580262747e+000	 7.516966237621423e+000
 5.913799203372813e-001	 3.195742447322996e+000	 9.146421085751706e+000
 5.612182003031748e-001	 3.201176991585784e+000	 8.836656105485425e+000
 5.310963585522425e-001	 3.206312002558782e+000	 8.554076951794867e+000
 5.010184176725820e-001	 3.211149411812480e+000	 8.281232224847686e+000
 4.709883393310333e-001	 3.215691214040371e+000	 8.003419095142485e+000
 4.410100232820745e-001	 3.219939465148238e+000	 7.708640707469546e+000
 4.110873064392894e-001	 3.223896280334043e+000	 7.387559088449796e+000
 3.812239620090096e-001	 3.227563832160543e+000	 7.033443796737881e+000
 3.514236986856603e-001	 3.230944348622705e+000	 6.642116558595396e+000
 3.216901599082681e-001	 3.234040111211980e+000	 6.211892134275566e+000
 2.920269231775196e-001	 3.236853452979430e+000	 5.743515662576112e+000
 2.695633137196015e-001	 2.987864725834731e+000	 4.130340982434813e+000
 2.422499994928616e-001	 2.990203159944074e+000	 3.473205838296591e+000
 2.150079992345209e-001	 2.992285340715546e+000	 2.795364815218809e+000
 1.878404294212762e-001	 2.994113553803930e+000	 2.093818409227242e+000
 1.607503436877064e-001	 2.995690125330548e+000	 1.364291087462251e+000
 1.337407324649111e-001	 2.997017420116061e+000	 6.012705588230703e-001
 1.068145226705129e-001	 2.998097839922249e+000	-2.019513626955689e-001
 7.997457744910182e-002	 2.998933821704276e+000	-1.053236447444536e+000
 5.322369596216169e-002	 2.999527835874867e+000	-1.961556436514630e+000
 2.656461322647888e-002	 2.999882384581793e+000	-2.936948267580712e+000
 0.000000000000000e+000	 3.000000000000000e+000	-3.990468280643483e+000
 2.718096746676061e-001	 3.012763598546989e+000	 6.079548908073081e+000
 2.442687494886068e-001	 3.015121519607826e+000	 5.779235292138702e+000
 2.167997325611536e-001	 3.017221051886249e+000	 5.484824682425241e+000
 1.894057663325812e-001	 3.019064500084159e+000	 5.193336592720804e+000
 1.620899298844227e-001	 3.020654209707224e+000	 4.900464307932524e+000
 1.348552385680364e-001	 3.021992565282949e+000	 4.600615375127240e+000
 1.077046436920239e-001	 3.023081988587792e+000	 4.286953742240382e+000
 8.064103226051297e-002	 3.023924936884880e+000	 3.951443394584366e+000
 5.366722676133227e-002	 3.024523901173706e+000	 3.584893340615756e+000
 2.678598500307392e-002	 3.024881404453279e+000	 3.177003800136461e+000
 0.000000000000000e+000	 3.025000000000000e+000	 2.716413450207641e+000
 2.740560356151188e-001	 3.037662471259737e+000	 7.981748413207845e+000
 2.462874994839552e-001	 3.040039879271976e+000	 8.043718490057589e+000
 2.185914658874736e-001	 3.042156763057263e+000	 8.139141253887177e+000
 1.909711032436476e-001	 3.044015446364626e+000	 8.265049562336623e+000
 1.634295160809645e-001	 3.045618294084077e+000	 8.417098792462408e+000
 1.359697446710408e-001	 3.046967710449958e+000	 8.589608582225800e+000
 1.085947647134578e-001	 3.048066137253413e+000	 8.775606275525481e+000
 8.130748707188092e-002	 3.048916052065525e+000	 8.966871916426801e+000
 5.411075756048370e-002	 3.049519966472564e+000	 9.153984639595507e+000
 2.700735677966420e-002	 3.049880424324769e+000	 9.326370305693846e+000
 0.000000000000000e+000	 3.050000000000000e+000	 9.472350232664381e+000
 2.763023965621398e-001	 3.062561343972977e+000	 9.837288144221468e+000
 2.483062494789065e-001	 3.064958238936522e+000	 1.026671773556335e+001
 2.203831992134811e-001	 3.067092474228589e+000	 1.075809957589533e+001
 1.925364401544756e-001	 3.068966392645331e+000	 1.130847426092240e+001
 1.647691022773316e-001	 3.070582378461105e+000	 1.191345259109423e+001
 1.370842507739243e-001	 3.071942855617088e+000	 1.256725859379665e+001
 1.094848857348147e-001	 3.073050285919111e+000	 1.326277430588798e+001
 8.197394188320564e-002	 3.073907167246213e+000	 1.399158615765568e+001
 5.455428835961600e-002	 3.074516031771442e+000	 1.474403280065923e+001
 2.722872855624972e-002	 3.074879444196264e+000	 1.550925422372748e+001
 0.000000000000000e+000	 3.075000000000000e+000	 1.627524200358705e+001
 2.785487575086692e-001	 3.087460216686710e+000	 1.164653346930175e+001
 2.503249994734609e-001	 3.089876598601465e+000	 1.244831699162886e+001
 2.221749325391760e-001	 3.092028185400229e+000	 1.334151133465570e+001
 1.941017770650650e-001	 3.093917338926276e+000	 1.432315929212952e+001
 1.661086884735241e-001	 3.095546462838306e+000	 1.538882047364266e+001
 1.381987568766870e-001	 3.096918000784339e+000	 1.653261563800848e+001
 1.103750067560945e-001	 3.098034434584886e+000	 1.774727284470118e+001
 8.264039669448718e-002	 3.098898282426946e+000	 1.902417525977802e+001
 5.499781915872918e-002	 3.099512097070338e+000	 2.035341045412698e+001
 2.745010033283046e-002	 3.099878464067764e+000	 2.172382103371698e+001
 0.000000000000000e+000	 3.100000000000000e+000	 2.312305644380852e+001
 2.807951184547069e-001	 3.112359089400934e+000	 1.340986580957122e+001
 2.523437494676183e-001	 3.114794958266807e+000	 1.458862101430963e+001
 2.239666658645582e-001	 3.116963896572182e+000	 1.588921379069361e+001
 1.956671139754160e-001	 3.118868285207458e+000	 1.730868365397837e+001
 1.674482746695419e-001	 3.120510547215681e+000	 1.884253246090290e+001
 1.393132629793288e-001	 3.121893145951712e+000	 2.048477008494197e+001
 1.112651277772972e-001	 3.123018583250737e+000	 2.222796196827576e+001
 8.330685150572555e-002	 3.123889397607721e+000	 2.406327838215828e+001
 5.544134995782322e-002	 3.124508162369254e+000	 2.598054522879986e+001
 2.767147210940645e-002	 3.124877483939268e+000	 2.796829621978751e+001
 0.000000000000000e+000	 3.125000000000000e+000	 3.001382626837466e+001
 2.830414794002528e-001	 3.137257962115649e+000	 1.327827440752860e+001
 2.543624994613788e-001	 3.139713317932543e+000	 1.404299201875267e+001
 2.257583991896280e-001	 3.141899607744446e+000	 1.483638713781898e+001
 1.972324508855284e-001	 3.143819231488879e+000	 1.566541052129963e+001
 1.687878608653852e-001	 3.145474631593232e+000	 1.653894910013664e+001
 1.404277690818498e-001	 3.146868291119204e+000	 1.746775639501301e+001
 1.121552487984228e-001	 3.148002731916665e+000	 1.846438109425798e+001
 8.397330631692068e-002	 3.148880512788540e+000	 1.954309401172139e+001
 5.588488075689813e-002	 3.149504227668188e+000	 2.071981363862358e+001
 2.789284388597766e-002	 3.149876503810777e+000	 2.201203049941831e+001
 0.000000000000000e+000	 3.150000000000000e+000	 2.343873051733046e+001
 2.852878403453070e-001	 3.162156834830856e+000	 1.128377219976669e+001
 2.563812494547424e-001	 3.164631677598678e+000	 1.171502874221552e+001
 2.275501325143851e-001	 3.166835318917024e+000	 1.214681975933431e+001
 1.987977877954024e-001	 3.168770177770539e+000	 1.258657306486061e+001
 1.701274470610538e-001	 3.170438715970958e+000	 1.304370995794107e+001
 1.415422751842500e-001	 3.171843436286817e+000	 1.352957352982906e+001
 1.130453698194714e-001	 3.172986880582671e+000	 1.405735508805547e+001
 8.463976112807262e-002	 3.173871627969401e+000	 1.464201892135102e+001
 5.632841155595392e-002	 3.174500292967143e+000	 1.530022562504683e+001
 2.811421566254412e-002	 3.174875523682292e+000	 1.605025420263941e+001
 0.000000000000000e+000	 3.175000000000000e+000	 1.691192315464162e+001
 2.875342012898696e-001	 3.187055707546556e+000	 9.363529472045808e+000
 2.583999994477090e-001	 3.189550037265209e+000	 9.462541710679876e+000
 2.293418658388295e-001	 3.191771030089913e+000	 9.533042059201277e+000
 2.003631247050377e-001	 3.193721124052437e+000	 9.582939407360620e+000
 1.714670332565477e-001	 3.195402800348858e+000	 9.622194635685903e+000
 1.426567812865293e-001	 3.196818581454552e+000	 9.662746778261454e+000
 1.139354908404429e-001	 3.197971029248754e+000	 9.718437256944643e+000
 8.530621593918136e-002	 3.198862743150305e+000	 9.804932416226373e+000
 5.677194235499056e-002	 3.199496358266115e+000	 9.939644584306279e+000
 2.833558743910580e-002	 3.199874543553811e+000	 1.014165188178301e+001
 0.000000000000000e+000	 3.199999999999999e+000	 1.043161699468653e+001
 2.897805622339404e-001	 3.211954580262747e+000	 7.516966237621423e+000
 2.604187494402786e-001	 3.214468396932137e+000	 7.284893553300616e+000
 2.311335991629615e-001	 3.216706741263115e+000	 6.994346064930908e+000
 2.019284616144346e-001	 3.218672070334573e+000	 6.653717878571289e+000
 1.728066194518671e-001	 3.220366884726932e+000	 6.273514802051454e+000
 1.437712873886877e-001	 3.221793726622407e+000	 5.866278328212699e+000
 1.148256118613374e-001	 3.222955177914914e+000	 5.446507642544991e+000
 8.597267075024691e-002	 3.223853858331254e+000	 5.030579890489054e+000
 5.721547315400807e-002	 3.224492423565108e+000	 4.636668935898485e+000
 2.855695921566272e-002	 3.224873563425334e+000	 4.284662837880179e+000
 0.000000000000000e+000	 3.224999999999999e+000	 3.996080268450237e+000
 2.920269231775196e-001	 3.236853452979430e+000	 5.743515662576112e+000
 2.624374994324514e-001	 3.239386756599464e+000	 5.181463935858985e+000
 2.329253324867810e-001	 3.241642452436632e+000	 4.530044758123991e+000
 2.034937985235931e-001	 3.243623016616949e+000	 3.798141711618099e+000
 1.741462056470118e-001	 3.245330969105183e+000	 2.996811008295521e+000
 1.448857934907254e-001	 3.246768871790384e+000	 2.139203257501384e+000
 1.157157328821547e-001	 3.247939326581152e+000	 1.240483210030177e+000
 8.663912556126928e-002	 3.248844973512246e+000	 3.177477199647708e-001
 5.765900395300648e-002	 3.249488488864120e+000	-6.100578381659261e-001
 2.877833099221489e-002	 3.249872583296864e+000	-1.522224463767343e+000
 0.000000000000000e+000	 3.250000000000000e+000	-2.396365507881706e+000
 3.250000000000000e+000	 0.000000000000000e+000	 1.210653170675332e+001
 3.249872583296864e+000	 2.877833099221397e-002	 1.203157324270458e+001
 3.249488488864120e+000	 5.765900395300565e-002	 1.194173656566079e+001
 3.248844973512246e+000	 8.663912556126854e-002	 1.184031883210991e+001
 3.247939326581152e+000	 1.157157328821541e-001	 1.173040843106704e+001
 3.246768871790384e+000	 1.448857934907248e-001	 1.161487186913329e+001
 3.245330969105183e+000	 1.741462056470114e-001	 1.149634069804593e+001
 3.243623016616949e+000	 2.034937985235927e-001	 1.137719851604264e+001
 3.241642452436632e+000	 2.329253324867807e-001	 1.125956807535679e+001
 3.239386756599464e+000	 2.624374994324513e-001	 1.114529852909767e+001
 3.236853452979430e+000	 2.920269231775197e-001	 1.103595285164151e+001
 3.275000000000000e+000	 0.000000000000000e+000	 1.179397415546089e+001
 3.274871603168394e+000	 2.899970276876611e-002	 1.175915980591090e+001
 3.274484554163141e+000	 5.810253475200403e-002	 1.170805067007940e+001
 3.273836088693259e+000	 8.730558037229089e-002	 1.164392910185203e+001
 3.272923475247428e+000	 1.166058539029714e-001	 1.156986396607898e+001
 3.271744016958421e+000	 1.460002995927624e-001	 1.148869731843047e+001
 3.270295053483519e+000	 1.754857918421561e-001	 1.140303113107101e+001
 3.268573962899444e+000	 2.050591354327511e-001	 1.131521409611737e+001
 3.266578163610303e+000	 2.347170658106001e-001	 1.122732853985248e+001
 3.264305116266987e+000	 2.644562494246239e-001	 1.114117748162137e+001
 3.261752325696358e+000	 2.942732841210988e-001	 1.105827187221813e+001
 3.300000000000000e+000	 0.000000000000000e+000	 1.150740658541035e+001
 3.299870623039924e+000	 2.922107454532303e-002	 1.150752264446529e+001
 3.299480619462162e+000	 5.854606555102154e-002	 1.149011159610955e+001
 3.298827203874272e+000	 8.797203518335642e-002	 1.145844568170588e+001
 3.297907623913703e+000	 1.174959749238659e-001	 1.141557881373202e+001
 3.296719162126458e+000	 1.471148056949209e-001	 1.136433304226741e+001
 3.295259137861856e+000	 1.768253780374754e-001	 1.130728507060718e+001
 3.293524909181938e+000	 2.066244723421480e-001	 1.124675285262254e+001
 3.291513874783975e+000	 2.365087991347320e-001	 1.118478230551289e+001
 3.289223475934511e+000	 2.664749994171936e-001	 1.112313417256226e+001
 3.286651198413287e+000	 2.965196450651695e-001	 1.106327107141008e+001
 3.324999999999999e+000	 0.000000000000000e+000	 1.124666181313600e+001
 3.324869642911456e+000	 2.944244632188471e-002	 1.127652180012595e+001
 3.324476684761182e+000	 5.898959635005818e-002	 1.128780653461322e+001
 3.323818319055285e+000	 8.863848999446515e-002	 1.128378283045725e+001
 3.322891772579978e+000	 1.183860959448374e-001	 1.126749421373402e+001
 3.321694307294494e+000	 1.482293117972001e-001	 1.124174716766200e+001
 3.320223222240192e+000	 1.781649642329694e-001	 1.120909742994236e+001
 3.318475855464432e+000	 2.081898092517834e-001	 1.117183637580473e+001
 3.316449585957646e+000	 2.383005324591765e-001	 1.113197752109022e+001
 3.314141835602035e+000	 2.684937494101601e-001	 1.109124318068811e+001
 3.311550071130215e+000	 2.987660060097320e-001	 1.105105131855370e+001
 3.350000000000000e+000	 0.000000000000000e+000	 1.101157764572349e+001
 3.349868662782986e+000	 2.966381809845116e-002	 1.106602062818242e+001
 3.349472750060204e+000	 5.943312714911397e-002	 1.110102435819670e+001
 3.348809434236297e+000	 8.930494480561710e-002	 1.111985490318971e+001
 3.347875921246254e+000	 1.192762169658859e-001	 1.112554996408678e+001
 3.346669452462531e+000	 1.493438178996003e-001	 1.112090489045774e+001
 3.345187306618529e+000	 1.795045504286380e-001	 1.110845875134327e+001
 3.343426801746927e+000	 2.097551461616573e-001	 1.109048049573943e+001
 3.341385297131318e+000	 2.400922657839337e-001	 1.106895523777786e+001
 3.339060195269559e+000	 2.705124994035237e-001	 1.104557070263598e+001
 3.336448943847143e+000	 3.010123669547863e-001	 1.102170387013896e+001
 3.375000000000000e+000	 0.000000000000000e+000	 1.080199669597435e+001
 3.374867682654517e+000	 2.988518987502237e-002	 1.087588567473218e+001
 3.374468815359225e+000	 5.987665794818887e-002	 1.092965555892357e+001
 3.373800549417310e+000	 8.997139961681223e-002	 1.096657634771822e+001
 3.372860069912531e+000	 1.201663379870116e-001	 1.098968447448216e+001
 3.371644597630567e+000	 1.504583240021213e-001	 1.100176858388580e+001
 3.370151390996865e+000	 1.808441366244812e-001	 1.100535536794505e+001
 3.368377748029421e+000	 2.113204830717697e-001	 1.100269549567078e+001
 3.366321008304989e+000	 2.418839991090034e-001	 1.099574967208316e+001
 3.363978554937082e+000	 2.725312493972842e-001	 1.098617486336135e+001
 3.361347816564072e+000	 3.032587279003323e-001	 1.097531072584046e+001
 3.400000000000000e+000	 0.000000000000000e+000	 1.061776620572537e+001
 3.399866702526047e+000	 3.010656165159834e-002	 1.070598655937147e+001
 3.399464880658245e+000	 6.032018874728289e-002	 1.077359218877592e+001
 3.398791664598323e+000	 9.063785442805056e-002	 1.082386170117970e+001
 3.397844218578805e+000	 1.210564590082143e-001	 1.085983481734313e+001
 3.396619742798603e+000	 1.515728301047631e-001	 1.088429790233733e+001
 3.395115475375202e+000	 1.821837228204991e-001	 1.089976955849875e+001
 3.393328694311914e+000	 2.128858199821206e-001	 1.090848631593904e+001
 3.391256719478661e+000	 2.436757324343856e-001	 1.091238845710241e+001
 3.388896914604605e+000	 2.745499993914417e-001	 1.091310601289121e+001
 3.386246689281000e+000	 3.055050888463699e-001	 1.091194496884168e+001
 3.425000000000000e+000	 0.000000000000000e+000	 1.045873787690580e+001
 3.424865722397579e+000	 3.032793342817908e-002	 1.055619586302408e+001
 3.424460945957267e+000	 6.076371954639608e-002	 1.063272780272326e+001
 3.423782779779336e+000	 9.130430923933212e-002	 1.069162558677322e+001
 3.422828367245081e+000	 1.219465800294941e-001	 1.073593677662911e+001
 3.421594887966640e+000	 1.526873362075258e-001	 1.076844988059141e+001
 3.420079559753539e+000	 1.835233090166916e-001	 1.079167969534154e+001
 3.418279640594410e+000	 2.144511568927102e-001	 1.080785274897746e+001
 3.416192430652332e+000	 2.454674657600805e-001	 1.081889288279150e+001
 3.413815274272130e+000	 2.765687493859961e-001	 1.082640701008063e+001
 3.411145561997928e+000	 3.077514497928993e-001	 1.083167109125436e+001
 3.449999999999999e+000	 0.000000000000000e+000	 1.032476770993949e+001
 3.449864742269110e+000	 3.054930520476459e-002	 1.042638902064634e+001
 3.449457011256287e+000	 6.120725034552838e-002	 1.050695740426579e+001
 3.448773894960349e+000	 9.197076405065684e-002	 1.056978271064174e+001
 3.447812515911356e+000	 1.228367010508509e-001	 1.061792489451952e+001
 3.446570033134677e+000	 1.538018423104094e-001	 1.065417902872839e+001
 3.445043644131875e+000	 1.848628952130587e-001	 1.068106038593339e+001
 3.443230586876903e+000	 2.160164938035381e-001	 1.070078962583006e+001
 3.441128141826003e+000	 2.472591990860880e-001	 1.071527812578971e+001
 3.438733633939653e+000	 2.785874993809474e-001	 1.072611349403172e+001
 3.436044434714856e+000	 3.099978107399203e-001	 1.073454530538913e+001
 3.474999999999999e+000	 0.000000000000000e+000	 1.021571584912317e+001
 3.474863762140640e+000	 3.077067698135486e-002	 1.031644421856463e+001
 3.474453076555308e+000	 6.165078114467980e-002	 1.039617739332983e+001
 3.473765010141362e+000	 9.263721886202479e-002	 1.045824785888861e+001
 3.472796664577632e+000	 1.237268220722849e-001	 1.050573251608200e+001
 3.471545178302713e+000	 1.549163484134138e-001	 1.054143742294639e+001
 3.470007728510212e+000	 1.862024814096004e-001	 1.056788260828447e+001
 3.468181533159398e+000	 2.175818307146046e-001	 1.058728699461945e+001
 3.466063852999675e+000	 2.490509324124080e-001	 1.060155346932331e+001
 3.463651993607177e+000	 2.806062493762957e-001	 1.061225414379739e+001
 3.460943307431786e+000	 3.122441716874331e-001	 1.062061584159024e+001
 3.500000000000000e+000	 0.000000000000000e+000	 1.013144643463067e+001
 3.499862782012172e+000	 3.099204875794991e-002	 1.022624229621188e+001
 3.499449141854330e+000	 6.209431194385037e-002	 1.030028551639486e+001
 3.498756125322376e+000	 9.330367367343595e-002	 1.035693589472175e+001
 3.497780813243908e+000	 1.246169430937959e-001	 1.039929183202644e+001
 3.496520323470751e+000	 1.560308545165391e-001	 1.043017479248572e+001
 3.494971812888549e+000	 1.875420676063169e-001	 1.045211384057812e+001
 3.493132479441893e+000	 2.191471676259096e-001	 1.046733029136502e+001
 3.490999564173347e+000	 2.508426657390407e-001	 1.047772251368442e+001
 3.488570353274701e+000	 2.826249993720411e-001	 1.048485092695419e+001
 3.485842180148715e+000	 3.144905326354376e-001	 1.048992323330544e+001
 3.236853452979430e+000	 2.920269231775197e-001	 1.103595285164151e+001
 3.234040111211981e+000	 3.216901599082671e-001	 1.099221029277125e+001
 3.230944348622705e+000	 3.514236986856595e-001	 1.094853700199535e+001
 3.227563832160544e+000	 3.812239620090089e-001	 1.090493709041601e+001
 3.223896280334044e+000	 4.110873064392889e-001	 1.086107479192543e+001
 3.219939465148238e+000	 4.410100232820741e-001	 1.081626376747001e+001
 3.215691214040371e+000	 4.709883393310330e-001	 1.076945681971491e+001
 3.211149411812481e+000	 5.010184176725819e-001	 1.071923605580118e+001
 3.206312002558782e+000	 5.310963585522426e-001	 1.066380353600203e+001
 3.201176991585784e+000	 5.612182003031750e-001	 1.060097244608121e+001
 3.195742447322996e+000	 5.913799203372813e-001	 1.052815883103574e+001
 3.261752325696358e+000	 2.942732841210988e-001	 1.105827187221813e+001
 3.258917342838710e+000	 3.241646995955180e-001	 1.102439345243232e+001
 3.255797766691325e+000	 3.541269579017121e-001	 1.098879784077947e+001
 3.252391246256593e+000	 3.841564540197591e-001	 1.095154069496340e+001
 3.248695482493130e+000	 4.142495164841795e-001	 1.091233356549046e+001
 3.244708230267543e+000	 4.444024080721311e-001	 1.087053298986320e+001
 3.240427300305058e+000	 4.746113265526197e-001	 1.082513000305710e+001
 3.235850561136954e+000	 5.048724054973431e-001	 1.077474010268860e+001
 3.230975941042790e+000	 5.351817151537136e-001	 1.071759370740104e+001
 3.225801429985276e+000	 5.655352633805316e-001	 1.065152714699509e+001
 3.220325081535687e+000	 5.959289966467158e-001	 1.057397422270991e+001
 3.286651198413287e+000	 2.965196450651695e-001	 1.106327107141008e+001
 3.283794574465441e+000	 3.266392392833462e-001	 1.103974471501791e+001
 3.280651184759944e+000	 3.568302171183990e-001	 1.101295122224353e+001
 3.277218660352643e+000	 3.870889460311707e-001	 1.098299958753622e+001
 3.273494684652216e+000	 4.174117265297299e-001	 1.094965024289602e+001
 3.269476995386850e+000	 4.477947928628164e-001	 1.091230393495832e+001
 3.265163386569744e+000	 4.782343137747729e-001	 1.086999102443590e+001
 3.260551710461429e+000	 5.087263933225794e-001	 1.082136124706082e+001
 3.255639879526797e+000	 5.392670717555369e-001	 1.076467397529238e+001
 3.250425868384768e+000	 5.698523264580874e-001	 1.069778902006066e+001
 3.244907715748377e+000	 6.004780729561651e-001	 1.061815801169458e+001
 3.311550071130215e+000	 2.987660060097320e-001	 1.105105131855370e+001
 3.308671806092171e+000	 3.291137789717518e-001	 1.103830844323384e+001
 3.305504602828564e+000	 3.595334763357199e-001	 1.102098457511396e+001
 3.302046074448694e+000	 3.900214380432443e-001	 1.099924385213969e+001
 3.298293886811302e+000	 4.205739365759400e-001	 1.097289716887610e+001
 3.294245760506156e+000	 4.511871776541297e-001	 1.094139082941350e+001
 3.289899472834430e+000	 4.818573009974930e-001	 1.090379562889530e+001
 3.285252859785901e+000	 5.125803811482902e-001	 1.085879640356562e+001
 3.280303818010806e+000	 5.433524283577126e-001	 1.080468208936110e+001
 3.275050306784260e+000	 5.741693895358422e-001	 1.073933632907848e+001
 3.269490349961068e+000	 6.050271492656288e-001	 1.066022866802931e+001
 3.336448943847143e+000	 3.010123669547863e-001	 1.102170387013896e+001
 3.333549037718900e+000	 3.315883186607346e-001	 1.102012067814687e+001
 3.330358020897182e+000	 3.622367355536747e-001	 1.101287836143608e+001
 3.326873488544744e+000	 3.929539300559795e-001	 1.100019802489239e+001
 3.323093088970389e+000	 4.237361466228102e-001	 1.098194262296173e+001
 3.319014525625461e+000	 4.545795624460712e-001	 1.095760538127300e+001
 3.314635559099118e+000	 4.854802882207796e-001	 1.092629865334054e+001
 3.309954009110376e+000	 5.164343689744758e-001	 1.088674325301681e+001
 3.304967756494813e+000	 5.474377849602403e-001	 1.083725830349882e+001
 3.299674745183751e+000	 5.784864526137961e-001	 1.077575164370027e+001
 3.294072984173759e+000	 6.095762255751076e-001	 1.069971083268312e+001
 3.361347816564072e+000	 3.032587279003323e-001	 1.097531072584046e+001
 3.358426269345630e+000	 3.340628583502949e-001	 1.098520944739381e+001
 3.355211438965803e+000	 3.649399947722640e-001	 1.098860633459917e+001
 3.351700902640793e+000	 3.958864220693763e-001	 1.098578129950358e+001
 3.347892291129476e+000	 4.268983566703400e-001	 1.097665097004395e+001
 3.343783290744768e+000	 4.579719472386414e-001	 1.096075687324928e+001
 3.339371645363804e+000	 4.891032754446327e-001	 1.093725406017283e+001
 3.334655158434851e+000	 5.202883568011359e-001	 1.090490021401762e+001
 3.329631694978821e+000	 5.515231415631205e-001	 1.086204528305533e+001
 3.324299183583243e+000	 5.828035156919488e-001	 1.080662167995300e+001
 3.318655618386451e+000	 6.141253018846009e-001	 1.073613508900151e+001
 3.386246689281000e+000	 3.055050888463699e-001	 1.091194496884168e+001
 3.383303500972360e+000	 3.365373980404324e-001	 1.093359505979275e+001
 3.380064857034422e+000	 3.676432539914872e-001	 1.094813578597830e+001
 3.376528316736843e+000	 3.988189140834349e-001	 1.095590772368538e+001
 3.372691493288563e+000	 4.300605667185297e-001	 1.095688280429452e+001
 3.368552055864074e+000	 4.613643320318394e-001	 1.095065225188941e+001
 3.364107731628490e+000	 4.927262626690526e-001	 1.093641496944037e+001
 3.359356307759325e+000	 5.241423446282710e-001	 1.091296641583616e+001
 3.354295633462829e+000	 5.556084981663528e-001	 1.087868801618201e+001
 3.348923621982736e+000	 5.871205787703008e-001	 1.083153714779860e+001
 3.343238252599141e+000	 6.186743781941089e-001	 1.076903774423672e+001
 3.411145561997928e+000	 3.077514497928993e-001	 1.083167109125436e+001
 3.408180732599090e+000	 3.390119377311472e-001	 1.086529038705172e+001
 3.404918275103042e+000	 3.703465132113444e-001	 1.089142778077423e+001
 3.401355730832893e+000	 4.017514060981552e-001	 1.091048638696283e+001
 3.397490695447649e+000	 4.332227767673794e-001	 1.092249508678333e+001
 3.393320820983380e+000	 4.647567168256658e-001	 1.092709621283682e+001
 3.388843817893177e+000	 4.963492498940390e-001	 1.092353368958103e+001
 3.384057457083798e+000	 5.279963324558807e-001	 1.091064167246871e+001
 3.378959571946838e+000	 5.596938547699375e-001	 1.088683372905812e+001
 3.373548060382228e+000	 5.914376418488514e-001	 1.085009260536980e+001
 3.367820886811832e+000	 6.232234545036315e-001	 1.079796062064613e+001
 3.436044434714856e+000	 3.099978107399203e-001	 1.073454530538913e+001
 3.433057964225819e+000	 3.414864774224395e-001	 1.078030113322933e+001
 3.429771693171661e+000	 3.730497724318359e-001	 1.081843738359948e+001
 3.426183144928944e+000	 4.046838981135371e-001	 1.084942160031829e+001
 3.422289897606737e+000	 4.363849868168886e-001	 1.087334127711260e+001
 3.418089586102686e+000	 4.681491016201205e-001	 1.088989128238563e+001
 3.413579904157863e+000	 4.999722371195921e-001	 1.089836174682850e+001
 3.408758606408273e+000	 5.318503202839653e-001	 1.089762645783076e+001
 3.403623510430845e+000	 5.637792113738744e-001	 1.088613180480272e+001
 3.398172498781719e+000	 5.957547049276012e-001	 1.086188631954380e+001
 3.392403521024523e+000	 6.277725308131688e-001	 1.077274729585077e+001
 3.460943307431786e+000	 3.122441716874331e-001	 1.062061584159024e+001
 3.457935195852550e+000	 3.439610171143091e-001	 1.067862609256380e+001
 3.454625111240281e+000	 3.757530316529613e-001	 1.072911387432676e+001
 3.451010559024994e+000	 4.076163901295807e-001	 1.077261306808157e+001
 3.447089099765823e+000	 4.395471968670579e-001	 1.080927145936879e+001
 3.442858351221992e+000	 4.715414864152033e-001	 1.083883789551484e+001
 3.438315990422550e+000	 5.035952243457118e-001	 1.086064991334927e+001
 3.433459755732746e+000	 5.357043081125245e-001	 1.087362188201880e+001
 3.428287448914853e+000	 5.678645679781638e-001	 1.087623370588707e+001
 3.422796937181212e+000	 6.000717680065502e-001	 1.086652013253412e+001
 3.416986155237214e+000	 6.323216071227208e-001	 1.071253316766802e+001
 3.485842180148715e+000	 3.144905326354376e-001	 1.048992323330544e+001
 3.482812427479281e+000	 3.464355568067562e-001	 1.056025739625222e+001
 3.479478529308901e+000	 3.784562908747209e-001	 1.062340095468687e+001
 3.475837973121045e+000	 4.105488821462861e-001	 1.067995605245315e+001
 3.471888301924911e+000	 4.427094069178871e-001	 1.073013246267699e+001
 3.467627116341299e+000	 4.749338712109144e-001	 1.077373447057814e+001
 3.463052076687237e+000	 5.072182115723982e-001	 1.081014823417347e+001
 3.458160905057221e+000	 5.395582959415585e-001	 1.083832966858974e+001
 3.452951387398862e+000	 5.719499245828053e-001	 1.085679289987180e+001
 3.447421375580705e+000	 6.043888310856981e-001	 1.086359933419997e+001
 3.441568789449906e+000	 6.368706834322875e-001	 1.064950222357125e+001
 3.195742447322996e+000	 5.913799203372813e-001	 1.052815883103574e+001
 3.190006503222291e+000	 6.215774361993541e-001	 1.107647441933643e+001
 3.183967359642995e+000	 6.518066066841965e-001	 1.111462982475507e+001
 3.177623285720975e+000	 6.820632330168474e-001	 1.109158682104158e+001
 3.170972621219919e+000	 7.123430600964776e-001	 1.106853399278452e+001
 3.164013778361765e+000	 7.426417778035709e-001	 1.104624351870877e+001
 3.156745243634214e+000	 7.729550223703777e-001	 1.102551495627052e+001
 3.149165579572983e+000	 8.032783778144553e-001	 1.100717550019816e+001
 3.141273426516435e+000	 8.336073774350107e-001	 1.099208019777071e+001
 3.133067504330197e+000	 8.639375053716757e-001	 1.098111211825780e+001
 3.124546614099405e+000	 8.942641982252434e-001	 1.097580697742964e+001
 3.220325081535687e+000	 5.959289966467158e-001	 1.057397422270991e+001
 3.214545014787886e+000	 6.263588010934251e-001	 1.110772767912069e+001
 3.208459416257858e+000	 6.568205036599045e-001	 1.109467660207301e+001
 3.202066541767133e+000	 6.873098732729227e-001	 1.108007632576905e+001
 3.195364718308351e+000	 7.178226221001053e-001	 1.106464767266002e+001
 3.188352345889771e+000	 7.483544068671687e-001	 1.104913937612124e+001
 3.181027899356695e+000	 7.789008302389193e-001	 1.103432843269197e+001
 3.173389930187422e+000	 8.094574422638171e-001	 1.102102041332522e+001
 3.165437068261379e+000	 8.400197418818314e-001	 1.101004973093691e+001
 3.157168023597005e+000	 8.705831784952054e-001	 1.100227986155529e+001
 3.148581588057016e+000	 9.011431536016611e-001	 1.099860351639522e+001
 3.244907715748377e+000	 6.004780729561651e-001	 1.061815801169458e+001
 3.239083526353474e+000	 6.311401659873205e-001	 1.107578349799533e+001
 3.232951472872700e+000	 6.618344006352653e-001	 1.107164408908410e+001
 3.226509797813246e+000	 6.925565135284996e-001	 1.106516168299527e+001
 3.219756815396703e+000	 7.233021841031021e-001	 1.105703282822227e+001
 3.212690913417656e+000	 7.540670359300240e-001	 1.104798282413577e+001
 3.205310555079000e+000	 7.848466381066259e-001	 1.103876612665875e+001
 3.197614280801620e+000	 8.156365067122717e-001	 1.103016671262637e+001
 3.189600710006008e+000	 8.464321063276932e-001	 1.102299839999788e+001
 3.181268542863414e+000	 8.772288516177454e-001	 1.101810512109814e+001
 3.172616562014134e+000	 9.080221089770787e-001	 1.101636114608702e+001
 3.269490349961068e+000	 6.050271492656288e-001	 1.066022866802931e+001
 3.263622037919057e+000	 6.359215308810399e-001	 1.104103404012431e+001
 3.257443529487524e+000	 6.668482976102796e-001	 1.104549798725338e+001
 3.250953053859317e+000	 6.978031537835778e-001	 1.104682528185291e+001
 3.244148912484980e+000	 7.287817461054686e-001	 1.104568819031940e+001
 3.237029480945418e+000	 7.597796649921365e-001	 1.104278857855360e+001
 3.229593210801129e+000	 7.907924459734977e-001	 1.103885837149254e+001
 3.221838631415580e+000	 8.218155711598196e-001	 1.103465997099328e+001
 3.213764351750323e+000	 8.528444707725967e-001	 1.103098662911312e+001
 3.205369062129425e+000	 8.838745247392963e-001	 1.102866277383877e+001
 3.196651535970757e+000	 9.149010643514963e-001	 1.102854428433501e+001
 3.294072984173759e+000	 6.095762255751076e-001	 1.069971083268312e+001
 3.288160549484637e+000	 6.407028957745838e-001	 1.100343381534042e+001
 3.281935586102328e+000	 6.718621945849470e-001	 1.101620949513650e+001
 3.275396309905343e+000	 7.030497940381577e-001	 1.102505468071345e+001
 3.268541009573177e+000	 7.342613081072044e-001	 1.103061733748536e+001
 3.261368048473059e+000	 7.654922940535066e-001	 1.103357588779678e+001
 3.253875866523083e+000	 7.967382538395348e-001	 1.103463972474607e+001
 3.246062982029297e+000	 8.279946356064606e-001	 1.103454968402026e+001
 3.237927993494322e+000	 8.592568352165415e-001	 1.103407847066202e+001
 3.229469581395037e+000	 8.905201978598571e-001	 1.103403103769480e+001
 3.220686509926887e+000	 9.217800197249140e-001	 1.103524491354830e+001
 3.318655618386451e+000	 6.141253018846009e-001	 1.073613508900151e+001
 3.312699061050211e+000	 6.454842606679520e-001	 1.096294294856283e+001
 3.306427642717112e+000	 6.768760915592673e-001	 1.098375510478369e+001
 3.299839565951326e+000	 7.082964342922389e-001	 1.099984241573387e+001
 3.292933106661297e+000	 7.397408701083099e-001	 1.101182851639603e+001
 3.285706616000577e+000	 7.712049231141335e-001	 1.102036836503313e+001
 3.278158522244861e+000	 8.026840617047367e-001	 1.102614881174998e+001
 3.270287332642777e+000	 8.341737000521949e-001	 1.102988912471899e+001
 3.262091635238010e+000	 8.656691996595282e-001	 1.103234147086537e+001
 3.253570100660248e+000	 8.971658709794281e-001	 1.103429134780966e+001
 3.244721483882524e+000	 9.286589750973319e-001	 1.103655796387990e+001
 3.343238252599141e+000	 6.186743781941089e-001	 1.076903774423672e+001
 3.337237572615780e+000	 6.502656255611442e-001	 1.091952697336003e+001
 3.330919699331878e+000	 6.818899885332411e-001	 1.094811640712620e+001
 3.324282821997265e+000	 7.135430745458218e-001	 1.097118581784975e+001
 3.317325203749339e+000	 7.452204321087848e-001	 1.098933447024632e+001
 3.310045183527975e+000	 7.769175521740180e-001	 1.100319382770788e+001
 3.302441177966462e+000	 8.086298695691038e-001	 1.101342817606229e+001
 3.294511683256015e+000	 8.403527644970221e-001	 1.102073520464284e+001
 3.286255276981380e+000	 8.720815641015560e-001	 1.102584654133532e+001
 3.277670619925061e+000	 9.038115440980099e-001	 1.102952823827213e+001
 3.268756457837667e+000	 9.355379304687496e-001	 1.103258120485395e+001
 3.367820886811832e+000	 6.232234545036315e-001	 1.079796062064613e+001
 3.361776084181346e+000	 6.550469904541610e-001	 1.087315663455394e+001
 3.355411755946624e+000	 6.869038855068678e-001	 1.090927990588549e+001
 3.348726078043161e+000	 7.187897147989060e-001	 1.093908683778349e+001
 3.341717300837303e+000	 7.506999941086291e-001	 1.096315227464370e+001
 3.334383751055249e+000	 7.826301812331594e-001	 1.098208414410262e+001
 3.326723833687888e+000	 8.145756774326360e-001	 1.099652413646734e+001
 3.318736033869013e+000	 8.465318289409425e-001	 1.100714834109340e+001
 3.310418918724437e+000	 8.784939285426254e-001	 1.101466783625082e+001
 3.301771139189476e+000	 9.104572172156019e-001	 1.101982922901620e+001
 3.292791431792316e+000	 9.424168858391672e-001	 1.102341514173897e+001
 3.392403521024523e+000	 6.277725308131688e-001	 1.077274729585077e+001
 3.386314595746905e+000	 6.598283553470019e-001	 1.082380769940629e+001
 3.379903812561350e+000	 6.919177824801479e-001	 1.086723683957378e+001
 3.373169334089012e+000	 7.240363550514918e-001	 1.090355187866058e+001
 3.366109397925190e+000	 7.561795561078428e-001	 1.093330318063663e+001
 3.358722318582404e+000	 7.883428102915586e-001	 1.095707508656615e+001
 3.351006489409138e+000	 8.205214852953333e-001	 1.097548665019218e+001
 3.342960384481772e+000	 8.527108933839560e-001	 1.098919233010060e+001
 3.334582560467181e+000	 8.849062929827365e-001	 1.099888263487347e+001
 3.325871658453493e+000	 9.171028903322046e-001	 1.100528471763829e+001
 3.316826405746471e+000	 9.492958412085848e-001	 1.100916291642669e+001
 3.416986155237214e+000	 6.323216071227208e-001	 1.071253316766802e+001
 3.410853107312460e+000	 6.646097202396671e-001	 1.077146077695536e+001
 3.404395869176057e+000	 6.969316794530809e-001	 1.082198301117768e+001
 3.397612590134821e+000	 7.292829953035791e-001	 1.086459163585131e+001
 3.390501495012999e+000	 7.616591181064263e-001	 1.089981246451892e+001
 3.383060886109435e+000	 7.940554393492149e-001	 1.092820619108014e+001
 3.375289145130212e+000	 8.264672931571959e-001	 1.095036918202747e+001
 3.367184735094289e+000	 8.588899578260627e-001	 1.096693422488573e+001
 3.358746202209609e+000	 8.913186574218888e-001	 1.097857122913421e+001
 3.349972177717110e+000	 9.237485634478176e-001	 1.098598787588411e+001
 3.340861379700133e+000	 9.561747965770026e-001	 1.098993021258946e+001
 3.441568789449906e+000	 6.368706834322875e-001	 1.064950222357125e+001
 3.435391618878011e+000	 6.693910851321568e-001	 1.071610114509528e+001
 3.428887925790747e+000	 7.019455764256674e-001	 1.077351862514133e+001
 3.422055846180586e+000	 7.345296355551680e-001	 1.082222094367621e+001
 3.414893592100732e+000	 7.671386801043791e-001	 1.086270928407087e+001
 3.407399453636346e+000	 7.997680684061287e-001	 1.089552062284381e+001
 3.399571800851111e+000	 8.324131010182234e-001	 1.092122857905715e+001
 3.391409085706569e+000	 8.650690222672626e-001	 1.094044421953314e+001
 3.382909843951724e+000	 8.977310218600830e-001	 1.095381681603823e+001
 3.374072696980329e+000	 9.303942365624413e-001	 1.096203455057206e+001
 3.364896353653301e+000	 9.630537519444204e-001	 1.096582516490243e+001
 3.124546614099405e+000	 8.942641982252434e-001	 1.097580697742964e+001
 3.115709639785576e+000	 9.245828467396423e-001	 1.094310623045168e+001
 3.106555549847563e+000	 9.548887975447460e-001	 1.091920408801963e+001
 3.097083398822884e+000	 9.851773549594466e-001	 1.090478233172209e+001
 3.087292328865915e+000	 1.015443782853513e+000	 1.090048807897461e+001
 3.077181571242415e+000	 1.045683306567630e+000	 1.090693197570984e+001
 3.066750447777396e+000	 1.075891114890497e+000	 1.092468643654682e+001
 3.055998372254013e+000	 1.106062362091802e+000	 1.095428393777159e+001
 3.044924851761178e+000	 1.136192170009821e+000	 1.099621536843602e+001
 3.033529487987622e+000	 1.166275630192232e+000	 1.105092844483884e+001
 3.021811978460158e+000	 1.196307806088698e+000	 1.111882619359200e+001
 3.148581588057016e+000	 9.011431536016611e-001	 1.099860351639522e+001
 3.139676637017926e+000	 9.316950224893300e-001	 1.095870287980920e+001
 3.130452131003560e+000	 9.622340959929508e-001	 1.092432770909332e+001
 3.120907117278648e+000	 9.927556423107904e-001	 1.090416760717600e+001
 3.111040731398753e+000	 1.023254888880847e+000	 1.090448550074829e+001
 3.100852198716294e+000	 1.053727024315657e+000	 1.091673835709167e+001
 3.090340835839549e+000	 1.084167200394599e+000	 1.094146683444245e+001
 3.079506052042313e+000	 1.114570534112516e+000	 1.097916931779717e+001
 3.068347350621874e+000	 1.144932109783359e+000	 1.103030025776104e+001
 3.056864330203026e+000	 1.175246981197481e+000	 1.109526857645538e+001
 3.045056685985869e+000	 1.205510173831083e+000	 1.117443614580349e+001
 3.172616562014134e+000	 9.080221089770787e-001	 1.101636114608702e+001
 3.163643634249695e+000	 9.388071982380229e-001	 1.098226474244286e+001
 3.154348712158920e+000	 9.695793944401748e-001	 1.095415588783741e+001
 3.144730835733750e+000	 1.000333929661178e+000	 1.093315493524056e+001
 3.134789133930934e+000	 1.031065994907259e+000	 1.092041468404686e+001
 3.124522826189546e+000	 1.061770742062806e+000	 1.091809634303142e+001
 3.113931223901138e+000	 1.092443285897878e+000	 1.094822146953152e+001
 3.103013731830142e+000	 1.123078706132471e+000	 1.099246091542183e+001
 3.091769849482220e+000	 1.153672049556212e+000	 1.105123342703454e+001
 3.080199172418235e+000	 1.184218332202131e+000	 1.112490985168404e+001
 3.068301393511570e+000	 1.214712541572961e+000	 1.121381161017714e+001
 3.196651535970757e+000	 9.149010643514963e-001	 1.102854428433501e+001
 3.187610631480886e+000	 9.459193739857201e-001	 1.099920307847500e+001
 3.178245293313646e+000	 9.769246928864183e-001	 1.097628848548213e+001
 3.168554554188190e+000	 1.007912217010610e+000	 1.096088800127052e+001
 3.158537536462453e+000	 1.038877100932750e+000	 1.095412133316207e+001
 3.148193453662171e+000	 1.069814459809077e+000	 1.095714025155274e+001
 3.137521611962163e+000	 1.100719371400335e+000	 1.097112837202305e+001
 3.126521411617498e+000	 1.131586878151666e+000	 1.099730086556802e+001
 3.115192348342217e+000	 1.162411989328380e+000	 1.105885362720375e+001
 3.103534014633251e+000	 1.193189683206180e+000	 1.113971561496165e+001
 3.091546101037261e+000	 1.223914909314336e+000	 1.123684096760223e+001
 3.220686509926887e+000	 9.217800197249140e-001	 1.103524491354830e+001
 3.211577628711498e+000	 9.530315497324225e-001	 1.100963984715931e+001
 3.202141874467737e+000	 9.842699913316814e-001	 1.099087754277094e+001
 3.192378272641967e+000	 1.015490504359085e+000	 1.098001287330000e+001
 3.182285938993313e+000	 1.046688206957319e+000	 1.097813271591280e+001
 3.171864081134169e+000	 1.077858177554471e+000	 1.098635584490047e+001
 3.161112000022623e+000	 1.108995456901967e+000	 1.100583275534376e+001
 3.150029091404384e+000	 1.140095050170102e+000	 1.103774541515275e+001
 3.138614847201867e+000	 1.171151929099864e+000	 1.108330694318603e+001
 3.126868856848071e+000	 1.202161034209630e+000	 1.114376121128452e+001
 3.114790808562941e+000	 1.233117277055205e+000	 1.124340748138336e+001
 3.244721483882524e+000	 9.286589750973319e-001	 1.103655796387990e+001
 3.235544625941530e+000	 9.601437254781297e-001	 1.101369920078381e+001
 3.226038455621191e+000	 9.916152897759637e-001	 1.099807653070052e+001
 3.216201991095082e+000	 1.023068791706605e+000	 1.099071242509197e+001
 3.206034341523514e+000	 1.054499312980966e+000	 1.099266118026378e+001
 3.195534708605540e+000	 1.085901895298987e+000	 1.100500885185206e+001
 3.184702388082518e+000	 1.117271542402776e+000	 1.102887312040850e+001
 3.173536771190797e+000	 1.148603222187780e+000	 1.106540308557838e+001
 3.162037346061168e+000	 1.179891868870664e+000	 1.111577898648249e+001
 3.150203699062696e+000	 1.211132385212479e+000	 1.118121184604359e+001
 3.138035516088611e+000	 1.242319644795568e+000	 1.126294303713996e+001
 3.268756457837667e+000	 9.355379304687496e-001	 1.103258120485395e+001
 3.259511623170984e+000	 9.672559012228417e-001	 1.101150740404461e+001
 3.249935036774011e+000	 9.989605882192657e-001	 1.099804029793798e+001
 3.240025709547534e+000	 1.030647079053168e+000	 1.099317016583157e+001
 3.229782744053054e+000	 1.062310419003691e+000	 1.099791896011506e+001
 3.219205336076284e+000	 1.093945613042626e+000	 1.101334028278113e+001
 3.208292776141847e+000	 1.125547627902762e+000	 1.104051929330813e+001
 3.197044450976737e+000	 1.157111394204698e+000	 1.108057254531590e+001
 3.185459844920121e+000	 1.188631808640779e+000	 1.113464774951054e+001
 3.173538541277127e+000	 1.220103736214729e+000	 1.120392346056271e+001
 3.161280223614271e+000	 1.251522012535427e+000	 1.127858737777856e+001
 3.292791431792316e+000	 9.424168858391672e-001	 1.102341514173897e+001
 3.283478620399857e+000	 9.743680769665586e-001	 1.100319275695071e+001
 3.273831617926194e+000	 1.006305886661587e+000	 1.099092502054081e+001
 3.263849427999325e+000	 1.038225366398776e+000	 1.098757021693563e+001
 3.253531146581935e+000	 1.070121525025494e+000	 1.099411817946498e+001
 3.242875963546401e+000	 1.101989330785387e+000	 1.101159030932061e+001
 3.231883164200613e+000	 1.133823713401924e+000	 1.104103952612432e+001
 3.220552130762207e+000	 1.165619566220857e+000	 1.108355014741181e+001
 3.208882343778725e+000	 1.197371748410209e+000	 1.114023769445192e+001
 3.196873383491364e+000	 1.229075087216379e+000	 1.121224862194697e+001
 3.184524931139920e+000	 1.260724380274781e+000	 1.122641038705691e+001
 3.316826405746471e+000	 9.492958412085848e-001	 1.100916291642669e+001
 3.307445617628153e+000	 9.814802527092802e-001	 1.098888552108074e+001
 3.297728199077743e+000	 1.013651185102928e+000	 1.097688815386309e+001
 3.287673146450452e+000	 1.045803653743427e+000	 1.097409728987022e+001
 3.277279549110157e+000	 1.077932631046376e+000	 1.098147085639211e+001
 3.266546591015890e+000	 1.110033048527270e+000	 1.099999829475200e+001
 3.255473552258815e+000	 1.142099798900263e+000	 1.103070055395885e+001
 3.244059810547204e+000	 1.174127738236257e+000	 1.107463001338031e+001
 3.232304842636979e+000	 1.206111688178954e+000	 1.113287033175858e+001
 3.220208225705404e+000	 1.238046438217429e+000	 1.120653622001455e+001
 3.207769638665559e+000	 1.269926748013629e+000	 1.116464774173580e+001
 3.340861379700133e+000	 9.561747965770026e-001	 1.098993021258946e+001
 3.331412614855868e+000	 9.885924284510067e-001	 1.096871784902293e+001
 3.321624780228655e+000	 1.020996483543288e+000	 1.095608838653762e+001
 3.311496864900918e+000	 1.053381941087122e+000	 1.095293666492606e+001
 3.301027951637718e+000	 1.085743737066335e+000	 1.096018890686525e+001
 3.290217218484752e+000	 1.118076766268276e+000	 1.097880282308268e+001
 3.279063940316452e+000	 1.150375884397779e+000	 1.100976764950128e+001
 3.267567490331731e+000	 1.182635910250898e+000	 1.105410411347424e+001
 3.255727341494885e+000	 1.214851627947015e+000	 1.111286432633010e+001
 3.243543067919251e+000	 1.247017789217878e+000	 1.118713159957330e+001
 3.231014346191188e+000	 1.279129115751972e+000	 1.109349745001173e+001
 3.364896353653301e+000	 9.630537519444204e-001	 1.096582516490243e+001
 3.355379612083005e+000	 9.957046041917383e-001	 1.094282371683909e+001
 3.345521361378934e+000	 1.028341781982668e+000	 1.092868559643026e+001
 3.335320583350722e+000	 1.060960228429861e+000	 1.092427417090306e+001
 3.324776354164621e+000	 1.093554843085373e+000	 1.093048414839031e+001
 3.313887845952988e+000	 1.126120484008404e+000	 1.094824172687704e+001
 3.302654328373524e+000	 1.158651969894472e+000	 1.097850467525792e+001
 3.291075170115785e+000	 1.191144082264780e+000	 1.102226234351581e+001
 3.279149840352444e+000	 1.223591567714392e+000	 1.108053559914045e+001
 3.266877910132902e+000	 1.255989140217728e+000	 1.111835691546199e+001
 3.254259053716807e+000	 1.288331483489811e+000	 1.101315342248969e+001
 3.021811978460158e+000	 1.196307806088698e+000	 1.111882619359200e+001
 3.009772117724388e+000	 1.226283735293376e+000	 1.130371206684780e+001
 2.997409798464362e+000	 1.256198431836615e+000	 1.144623451706560e+001
 2.984725012560141e+000	 1.286046888523079e+000	 1.138451413131193e+001
 2.971717852081893e+000	 1.315824079314216e+000	 1.133535177556316e+001
 2.958388510217296e+000	 1.345524961753960e+000	 1.129871865351475e+001
 2.944737282130763e+000	 1.375144479435224e+000	 1.127455940727523e+001
 2.930764565752652e+000	 1.404677564505075e+000	 1.126279188241122e+001
 2.916470862496686e+000	 1.434119140206302e+000	 1.126330694270263e+001
 2.901856777903874e+000	 1.463464123453075e+000	 1.127596833584620e+001
 2.886923022211355e+000	 1.492707427438275e+000	 1.130061261122788e+001
 3.045056685985869e+000	 1.205510173831083e+000	 1.117443614580349e+001
 3.032924210935764e+000	 1.235716687106057e+000	 1.136350771552622e+001
 3.020466796911432e+000	 1.265861496699235e+000	 1.142548805473393e+001
 3.007684435730476e+000	 1.295939556898392e+000	 1.137271414032545e+001
 2.994577220171298e+000	 1.325945803003144e+000	 1.133162682996325e+001
 2.981145344907635e+000	 1.355875153769300e+000	 1.130218765790881e+001
 2.967389107374399e+000	 1.385722513894336e+000	 1.128433192496138e+001
 2.953308908562949e+000	 1.415482776541835e+000	 1.127796847713647e+001
 2.938905253744040e+000	 1.445150825902608e+000	 1.128297953421907e+001
 2.924178753116690e+000	 1.474721539790166e+000	 1.129922056941368e+001
 2.909130122381398e+000	 1.504189792268103e+000	 1.132652024119523e+001
 3.068301393511570e+000	 1.214712541572961e+000	 1.121381161017714e+001
 3.056076304147308e+000	 1.245149638918323e+000	 1.140680720284514e+001
 3.043523795358814e+000	 1.275524561561510e+000	 1.139365636942934e+001
 3.030643858901224e+000	 1.305832225273412e+000	 1.134985878216365e+001
 3.017436588261178e+000	 1.336067526691810e+000	 1.131689967127927e+001
 3.003902179598473e+000	 1.366225345784390e+000	 1.129473092259410e+001
 2.990040932618516e+000	 1.396300548353189e+000	 1.128327849617457e+001
 2.975853251373670e+000	 1.426287988578307e+000	 1.128244221844018e+001
 2.961339644991720e+000	 1.456182511598578e+000	 1.129209562433558e+001
 2.946500728329691e+000	 1.485978956126850e+000	 1.131208585077841e+001
 2.931337222551448e+000	 1.515672157097435e+000	 1.134223358247036e+001
 3.091546101037261e+000	 1.223914909314336e+000	 1.123684096760223e+001
 3.079228397359024e+000	 1.254582590730175e+000	 1.139566746811511e+001
 3.066580793806506e+000	 1.285187626423441e+000	 1.135082941009839e+001
 3.053603282072388e+000	 1.315724893648139e+000	 1.131603707622355e+001
 3.040295956351536e+000	 1.346189250380214e+000	 1.129125811788565e+001
 3.026659014289811e+000	 1.376575537799229e+000	 1.127643479178886e+001
 3.012692757863114e+000	 1.406878582811783e+000	 1.127148371629150e+001
 2.998397594184817e+000	 1.437093200614492e+000	 1.127629567673102e+001
 2.983774036239726e+000	 1.467214197294209e+000	 1.129073548103901e+001
 2.968822703542881e+000	 1.497236372463128e+000	 1.131464186684034e+001
 2.953544322721507e+000	 1.527154521926272e+000	 1.134782746110832e+001
 3.114790808562941e+000	 1.233117277055205e+000	 1.124340748138336e+001
 3.102380490570910e+000	 1.264015542541612e+000	 1.133210433221555e+001
 3.089637792254510e+000	 1.294850691285028e+000	 1.129709201024317e+001
 3.076562705243964e+000	 1.325617562022572e+000	 1.127133294344487e+001
 3.063155324442370e+000	 1.356310974068356e+000	 1.125478491737213e+001
 3.049415848981647e+000	 1.386925729813817e+000	 1.124738057733319e+001
 3.035344583108194e+000	 1.417456617270117e+000	 1.124902719749276e+001
 3.020941936996386e+000	 1.447898412650387e+000	 1.125960649921483e+001
 3.006208427488058e+000	 1.478245882989505e+000	 1.127897451994680e+001
 2.991144678756258e+000	 1.508493788799000e+000	 1.130696153382602e+001
 2.975751422891574e+000	 1.538636886754612e+000	 1.134337202506562e+001
 3.138035516088611e+000	 1.242319644795568e+000	 1.126294303713996e+001
 3.125532583782966e+000	 1.273448494352633e+000	 1.125890218382003e+001
 3.112694790702826e+000	 1.304513756146271e+000	 1.123252407738226e+001
 3.099522128415953e+000	 1.335510230396714e+000	 1.121582539514169e+001
 3.086014692533680e+000	 1.366432697756237e+000	 1.120755793435068e+001
 3.072172683673984e+000	 1.397275921828156e+000	 1.120764474507340e+001
 3.057996408353757e+000	 1.428034651728193e+000	 1.121598375332570e+001
 3.043486279808379e+000	 1.458703624685996e+000	 1.123244759223543e+001
 3.028642818736715e+000	 1.489277568684463e+000	 1.125688348402434e+001
 3.013466653969821e+000	 1.519751205134465e+000	 1.128911317398043e+001
 2.997958523061648e+000	 1.550119251582456e+000	 1.132893291746325e+001
 3.161280223614271e+000	 1.251522012535427e+000	 1.127858737777856e+001
 3.148684676995192e+000	 1.282881446163240e+000	 1.122617841026694e+001
 3.135751789151455e+000	 1.314176821007170e+000	 1.118122701328423e+001
 3.122481551588357e+000	 1.345402898770561e+000	 1.114958871350341e+001
 3.108874060625467e+000	 1.376554421443855e+000	 1.114965032997670e+001
 3.094929518366818e+000	 1.407626113842243e+000	 1.115729909302355e+001
 3.080648233599802e+000	 1.438612686186009e+000	 1.117242357512477e+001
 3.066030622620797e+000	 1.469508836721316e+000	 1.119488729557103e+001
 3.051077209985700e+000	 1.500309254379084e+000	 1.122452861537366e+001
 3.035788629183573e+000	 1.531008621469524e+000	 1.126116068446321e+001
 3.020165623231730e+000	 1.561601616409804e+000	 1.130457144220549e+001
 3.184524931139920e+000	 1.260724380274781e+000	 1.122641038705691e+001
 3.171836770207588e+000	 1.292314397973432e+000	 1.118370977855284e+001
 3.158808787600394e+000	 1.323839885867724e+000	 1.114749091553044e+001
 3.145440974761176e+000	 1.355295567144115e+000	 1.111807183598058e+001
 3.131733428717729e+000	 1.386676145131211e+000	 1.109577139614261e+001
 3.117686353060151e+000	 1.417976305856080e+000	 1.109641092172430e+001
 3.103300058846327e+000	 1.449190720643567e+000	 1.111841240070539e+001
 3.088574965433638e+000	 1.480314048756349e+000	 1.114698954909725e+001
 3.073511601235010e+000	 1.511340940073368e+000	 1.118197181949851e+001
 3.058110604397512e+000	 1.542266037804177e+000	 1.122316369884818e+001
 3.042372723401820e+000	 1.573083981236655e+000	 1.127034472234566e+001
 3.207769638665559e+000	 1.269926748013629e+000	 1.116464774173580e+001
 3.194988863420155e+000	 1.301747349783208e+000	 1.113169970900269e+001
 3.181865786049646e+000	 1.333502950727935e+000	 1.110427023321718e+001
 3.168400397934406e+000	 1.365188235517377e+000	 1.108267102189652e+001
 3.154592796810469e+000	 1.396797868818307e+000	 1.106721550147621e+001
 3.140443187753984e+000	 1.428326497869667e+000	 1.105821865158572e+001
 3.125951884093334e+000	 1.459768755100864e+000	 1.105599683030068e+001
 3.111119308246904e+000	 1.491119260791093e+000	 1.108881405220379e+001
 3.095945992484646e+000	 1.522372625767316e+000	 1.112927082242745e+001
 3.080432579611638e+000	 1.553523454138423e+000	 1.117517774160108e+001
 3.064579823571918e+000	 1.584566346063012e+000	 1.122630585156611e+001
 3.231014346191188e+000	 1.279129115751972e+000	 1.109349745001173e+001
 3.218140956632892e+000	 1.311180301592571e+000	 1.107034736908697e+001
 3.204922784499208e+000	 1.343166015587801e+000	 1.105176496702361e+001
 3.191359821108052e+000	 1.375080903890345e+000	 1.103805563570108e+001
 3.177452164903685e+000	 1.406919592505140e+000	 1.102952738102026e+001
 3.163200022448315e+000	 1.438676689883003e+000	 1.102649067677831e+001
 3.148603709340824e+000	 1.470346789557903e+000	 1.102925830850678e+001
 3.133663651060594e+000	 1.501924472825549e+000	 1.103814520705642e+001
 3.118380383734608e+000	 1.533404311460926e+000	 1.106647932105476e+001
 3.102754554825951e+000	 1.564780870472263e+000	 1.111725437588927e+001
 3.086786923742023e+000	 1.596048710888871e+000	 1.117250403911964e+001
 3.254259053716807e+000	 1.288331483489811e+000	 1.101315342248969e+001
 3.241293049845800e+000	 1.320613253401518e+000	 1.099984782530945e+001
 3.227979782949083e+000	 1.352829080447324e+000	 1.099017102175106e+001
 3.214319244282112e+000	 1.384973572263021e+000	 1.098442210037888e+001
 3.200311532997376e+000	 1.417041316191710e+000	 1.098290365350402e+001
 3.185956857143147e+000	 1.449026881896089e+000	 1.098592165064847e+001
 3.171255534588795e+000	 1.480924824014684e+000	 1.099378530096359e+001
 3.156207993874709e+000	 1.512729684859718e+000	 1.100680690433377e+001
 3.140814774984898e+000	 1.544435997154200e+000	 1.102530169091842e+001
 3.125076530040452e+000	 1.576038286805697e+000	 1.104958764891199e+001
 3.108994023912139e+000	 1.607531075714235e+000	 1.110898474855914e+001
 2.886923022211355e+000	 1.492707427438275e+000	 1.130061261122788e+001
 2.871670410844536e+000	 1.521843964270075e+000	 1.132286650790146e+001
 2.856099864831404e+000	 1.550868647634841e+000	 1.133966647526296e+001
 2.840212411137347e+000	 1.579776395484173e+000	 1.135001993971919e+001
 2.824009182919216e+000	 1.608562132743385e+000	 1.135291748866737e+001
 2.807491419697759e+000	 1.637220794038314e+000	 1.134733394096543e+001
 2.790660467447268e+000	 1.665747326437759e+000	 1.133222946834587e+001
 2.773517778601558e+000	 1.694136692208679e+000	 1.130655076640355e+001
 2.756064911975477e+000	 1.722383871581193e+000	 1.126923227362769e+001
 2.738303532601247e+000	 1.750483865520403e+000	 1.121919743679020e+001
 2.720235411479095e+000	 1.778431698502015e+000	 1.115536002084543e+001
 2.909130122381398e+000	 1.504189792268103e+000	 1.132652024119523e+001
 2.893760183235911e+000	 1.533550456306829e+000	 1.133557361800152e+001
 2.878069863792880e+000	 1.562798406467084e+000	 1.134069354206042e+001
 2.862060198917423e+000	 1.591928521607785e+000	 1.134097270326024e+001
 2.845732330482985e+000	 1.620935687615212e+000	 1.133548587914726e+001
 2.829087507545085e+000	 1.649814800150784e+000	 1.132329091104785e+001
 2.812127086431664e+000	 1.678560767414597e+000	 1.130342973209427e+001
 2.794852530749107e+000	 1.707168512921816e+000	 1.127492944594897e+001
 2.777265411303141e+000	 1.735632978288946e+000	 1.123680345486032e+001
 2.759367405933932e+000	 1.763949126026976e+000	 1.118805263552310e+001
 2.741160299264779e+000	 1.792111942338345e+000	 1.112766656105848e+001
 2.931337222551448e+000	 1.515672157097435e+000	 1.134223358247036e+001
 2.915849955627105e+000	 1.545256948342998e+000	 1.134039137177483e+001
 2.900039862754002e+000	 1.574728165298670e+000	 1.133612501975425e+001
 2.883907986696995e+000	 1.604080647730690e+000	 1.132861122134537e+001
 2.867455478046119e+000	 1.633309242486301e+000	 1.131700767909257e+001
 2.850683595391665e+000	 1.662408806262504e+000	 1.130045398605093e+001
 2.833593705415225e+000	 1.691374208390693e+000	 1.127807256157894e+001
 2.816187282895747e+000	 1.720200333634241e+000	 1.124896963897797e+001
 2.798465910629847e+000	 1.748882084996038e+000	 1.121223630377300e+001
 2.780431279265625e+000	 1.777414386532956e+000	 1.116694958126706e+001
 2.762085187049463e+000	 1.805792186174171e+000	 1.111217357184209e+001
 2.953544322721507e+000	 1.527154521926272e+000	 1.134782746110832e+001
 2.937939728018115e+000	 1.556963440378580e+000	 1.133734432757013e+001
 2.922009861714772e+000	 1.586657924129600e+000	 1.132593568545890e+001
 2.905755774476064e+000	 1.616232773852888e+000	 1.131286100068606e+001
 2.889178625608617e+000	 1.645682797356652e+000	 1.129735965980318e+001
 2.872279683237499e+000	 1.675002812373474e+000	 1.127865176079281e+001
 2.855060324397947e+000	 1.704187649366049e+000	 1.125593895776072e+001
 2.837522035041479e+000	 1.733232154345956e+000	 1.122840535864732e+001
 2.819666409955593e+000	 1.762131191702468e+000	 1.119521847491243e+001
 2.801495152596329e+000	 1.790879647038343e+000	 1.115553022198414e+001
 2.783010074833148e+000	 1.819472430009495e+000	 1.110847796909949e+001
 2.975751422891574e+000	 1.538636886754612e+000	 1.134337202506562e+001
 2.960029500408944e+000	 1.568669932413575e+000	 1.132645387585054e+001
 2.943979860675189e+000	 1.598587682959872e+000	 1.131009864657947e+001
 2.927603562254629e+000	 1.628384899974378e+000	 1.129364736367102e+001
 2.910901773170480e+000	 1.658056352226263e+000	 1.127641988010286e+001
 2.893875771082586e+000	 1.687596818483695e+000	 1.125771557517561e+001
 2.876526943379832e+000	 1.717001090340665e+000	 1.123681410921559e+001
 2.858856787186304e+000	 1.746263975056959e+000	 1.121297623249351e+001
 2.840866909280380e+000	 1.775380298408235e+000	 1.118544464747142e+001
 2.822559025926043e+000	 1.804344907543138e+000	 1.115344492332488e+001
 2.803934962615832e+000	 1.833152673844316e+000	 1.111618646152224e+001
 2.997958523061648e+000	 1.550119251582456e+000	 1.132893291746325e+001
 2.982119272799590e+000	 1.580376424447985e+000	 1.130773835652265e+001
 2.965949859635252e+000	 1.610517441789488e+000	 1.128858540265279e+001
 2.949451350032689e+000	 1.640537026095160e+000	 1.127089545519299e+001
 2.932624920731708e+000	 1.670429907095137e+000	 1.125406763865328e+001
 2.915471858926928e+000	 1.700190824593167e+000	 1.123747941251573e+001
 2.897993562360879e+000	 1.729814531314540e+000	 1.122048723703779e+001
 2.880191539330218e+000	 1.759295795767250e+000	 1.120242729449279e+001
 2.862067408604208e+000	 1.788629405113340e+000	 1.118261626511662e+001
 2.843622899254767e+000	 1.817810168047340e+000	 1.116035215686194e+001
 2.824859850397516e+000	 1.846832917678635e+000	 1.113491518789436e+001
 3.020165623231730e+000	 1.561601616409804e+000	 1.130457144220549e+001
 3.004209045190053e+000	 1.592082916481808e+000	 1.128121317108933e+001
 2.987919858594963e+000	 1.622447200618446e+000	 1.126136590446024e+001
 2.971299137810247e+000	 1.652689152215235e+000	 1.124453024917428e+001
 2.954348068292302e+000	 1.682803461963272e+000	 1.123018342837167e+001
 2.937067946770523e+000	 1.712784830701889e+000	 1.121777980235949e+001
 2.919460181341090e+000	 1.742627972287675e+000	 1.120675144658548e+001
 2.901526291473226e+000	 1.772327616476830e+000	 1.119650878629500e+001
 2.883267907927075e+000	 1.801878511817783e+000	 1.118644128729479e+001
 2.864686772582502e+000	 1.831275428550950e+000	 1.117591820207829e+001
 2.845784738178201e+000	 1.860513161512450e+000	 1.116428937039772e+001
 3.042372723401820e+000	 1.573083981236655e+000	 1.127034472234566e+001
 3.026298817580335e+000	 1.603789408515045e+000	 1.124689088989071e+001
 3.009889857554321e+000	 1.634376959446748e+000	 1.122840861055167e+001
 2.993146925587299e+000	 1.664841278334602e+000	 1.121447655480663e+001
 2.976071215852260e+000	 1.695177016830668e+000	 1.120464889284486e+001
 2.958664034613371e+000	 1.725378836809862e+000	 1.119845572755495e+001
 2.940926800320463e+000	 1.755441413260070e+000	 1.119540358571932e+001
 2.922861043615324e+000	 1.785359437185699e+000	 1.119497596716253e+001
 2.904468407248985e+000	 1.815127618521565e+000	 1.119663395143052e+001
 2.885750645909247e+000	 1.844740689053968e+000	 1.119981686140703e+001
 2.866709625957885e+000	 1.874193405345763e+000	 1.120394298310123e+001
 3.064579823571918e+000	 1.584566346063012e+000	 1.122630585156611e+001
 3.048388589970434e+000	 1.615495900547695e+000	 1.120478135468266e+001
 3.031859856513325e+000	 1.646306718274393e+000	 1.118968054131171e+001
 3.014994713363848e+000	 1.676993404453262e+000	 1.118065902251961e+001
 2.997794363411583e+000	 1.707550571697326e+000	 1.117734678463837e+001
 2.980260122455475e+000	 1.737972842917085e+000	 1.117934853536424e+001
 2.962393419298999e+000	 1.768254854231723e+000	 1.118624410920445e+001
 2.944195795756514e+000	 1.798391257893856e+000	 1.119758893217265e+001
 2.925668906569935e+000	 1.828376725224684e+000	 1.121291454546336e+001
 2.906814519235001e+000	 1.858205949556393e+000	 1.123172918766065e+001
 2.887634513736569e+000	 1.887873649178574e+000	 1.115928736602698e+001
 3.086786923742023e+000	 1.596048710888871e+000	 1.117250403911964e+001
 3.070478362360350e+000	 1.627202392579759e+000	 1.115489177678713e+001
 3.053829855471977e+000	 1.658236477101382e+000	 1.114514733069243e+001
 3.036842501139893e+000	 1.689145530571214e+000	 1.114300214969165e+001
 3.019517510970272e+000	 1.719924126563245e+000	 1.114816092540509e+001
 3.001856210296831e+000	 1.750566849023558e+000	 1.116030185241275e+001
 2.983860038276696e+000	 1.781068295202636e+000	 1.117907694896586e+001
 2.965530547896797e+000	 1.811423078601302e+000	 1.120411243826751e+001
 2.946869405889925e+000	 1.841625831927142e+000	 1.123500919020331e+001
 2.927878392559767e+000	 1.871671210058225e+000	 1.127134322322618e+001
 2.908559401514253e+000	 1.901553893010882e+000	 1.112020924117757e+001
 3.108994023912139e+000	 1.607531075714235e+000	 1.110898474855914e+001
 3.092568134750085e+000	 1.638908884611238e+000	 1.109722683103634e+001
 3.075799854430276e+000	 1.670166235927714e+000	 1.109477327572868e+001
 3.058690288915436e+000	 1.701297656688459e+000	 1.110143028611596e+001
 3.041240658528325e+000	 1.732297681428426e+000	 1.111697616770354e+001
 3.023452298137442e+000	 1.763160855129283e+000	 1.114116150328316e+001
 3.005326657253558e+000	 1.793881736172810e+000	 1.117370938990404e+001
 2.986865300036171e+000	 1.824454899308037e+000	 1.121431573775881e+001
 2.968069905208957e+000	 1.854874938628937e+000	 1.126264963101407e+001
 2.948942265883543e+000	 1.885136470559466e+000	 1.124566516081631e+001
 2.929484289290938e+000	 1.915234136842687e+000	 1.109241579386317e+001
 2.720235411479095e+000	 1.778431698502015e+000	 1.115536002084543e+001
 2.701862425241567e+000	 1.806222421288800e+000	 1.126178165228329e+001
 2.683186555731693e+000	 1.833851113704457e+000	 1.137396610862596e+001
 2.664209889494488e+000	 1.861312887401978e+000	 1.149168521320003e+001
 2.644934617181425e+000	 1.888602888623658e+000	 1.151224574907750e+001
 2.625363032868398e+000	 1.915716300949206e+000	 1.143980118194781e+001
 2.605497533287248e+000	 1.942648348028940e+000	 1.137895338427689e+001
 2.585340616971148e+000	 1.969394296298900e+000	 1.133007922847114e+001
 2.564894883314336e+000	 1.995949457674739e+000	 1.129354871401950e+001
 2.544163031546756e+000	 2.022309192221250e+000	 1.126972425285797e+001
 2.523147859624355e+000	 2.048468910794402e+000	 1.125895995586095e+001
 2.741160299264779e+000	 1.792111942338345e+000	 1.112766656105848e+001
 2.722645982363904e+000	 1.820116439914905e+000	 1.125693123021455e+001
 2.703826452319316e+000	 1.847957660732984e+000	 1.139065568575206e+001
 2.684703811726376e+000	 1.875630678842904e+000	 1.152372108972261e+001
 2.665280268087723e+000	 1.903130603150364e+000	 1.145922412977839e+001
 2.645558133125989e+000	 1.930452580185686e+000	 1.140420138403660e+001
 2.625539822009412e+000	 1.957591796858036e+000	 1.135894366936695e+001
 2.605227852490652e+000	 1.984543483191424e+000	 1.132373701054160e+001
 2.584624843959287e+000	 2.011302915039319e+000	 1.129886202224226e+001
 2.563733516408568e+000	 2.037865416774700e+000	 1.128459328900101e+001
 2.542556689317182e+000	 2.064226363952433e+000	 1.128119874456946e+001
 2.762085187049463e+000	 1.805792186174171e+000	 1.111217357184209e+001
 2.743429539485246e+000	 1.834010458540603e+000	 1.126213098541540e+001
 2.724466348905958e+000	 1.862064207761188e+000	 1.141527113175751e+001
 2.705197733957311e+000	 1.889948470283584e+000	 1.145853086899029e+001
 2.685625918993101e+000	 1.917658317676889e+000	 1.141105183190799e+001
 2.665753233382704e+000	 1.945188859422040e+000	 1.137133004911817e+001
 2.645582110730756e+000	 1.972535245687052e+000	 1.133956533977853e+001
 2.625115088009401e+000	 1.999692670083904e+000	 1.131595408871377e+001
 2.604354804603558e+000	 2.026656372403878e+000	 1.130068872329840e+001
 2.583304001269785e+000	 2.053421641328146e+000	 1.129395718673554e+001
 2.561965519009508e+000	 2.079983817110463e+000	 1.129594240907152e+001
 2.783010074833148e+000	 1.819472430009495e+000	 1.110847796909949e+001
 2.764213096605592e+000	 1.847904477165892e+000	 1.127703018370829e+001
 2.745106245491621e+000	 1.876170754789071e+000	 1.143867444635979e+001
 2.725691656187288e+000	 1.904266261724017e+000	 1.140016792598113e+001
 2.705971569897559e+000	 1.932186032203232e+000	 1.136761201151536e+001
 2.685948333638543e+000	 1.959925138658267e+000	 1.134111837980295e+001
 2.665624399451278e+000	 1.987478694515986e+000	 1.132079704565185e+001
 2.645002323527392e+000	 2.014841856976338e+000	 1.130675593866546e+001
 2.624084765247146e+000	 2.042009829768417e+000	 1.129910047378064e+001
 2.602874486130406e+000	 2.068977865881587e+000	 1.129793311666731e+001
 2.581374348701332e+000	 2.095741270268494e+000	 1.130335294517631e+001
 2.803934962615832e+000	 1.833152673844316e+000	 1.111618646152224e+001
 2.784996653724944e+000	 1.861798495790774e+000	 1.130128635402222e+001
 2.765746142076302e+000	 1.890277301816630e+000	 1.137251944006859e+001
 2.746185578416309e+000	 1.918584053164202e+000	 1.134847204164938e+001
 2.726317220801096e+000	 1.946713746729393e+000	 1.132879158720052e+001
 2.706143433893507e+000	 1.974661417894369e+000	 1.131349987308683e+001
 2.685666688170979e+000	 2.002422143344840e+000	 1.130261828060097e+001
 2.664889559044630e+000	 2.029991043868727e+000	 1.129616744662479e+001
 2.643814725890055e+000	 2.057363287132936e+000	 1.129416692662224e+001
 2.622444970990430e+000	 2.084534090435022e+000	 1.129663485096237e+001
 2.600783178392654e+000	 2.111498723426525e+000	 1.130358757560792e+001
 2.824859850397516e+000	 1.846832917678635e+000	 1.113491518789436e+001
 2.805780210843301e+000	 1.875692514415249e+000	 1.132937896382451e+001
 2.786386038660004e+000	 1.904383848843868e+000	 1.131489801082546e+001
 2.766679500644376e+000	 1.932901844604140e+000	 1.130328804983513e+001
 2.746662871703712e+000	 1.961241461255373e+000	 1.129448110076081e+001
 2.726338534147595e+000	 1.989397697130343e+000	 1.128841023537401e+001
 2.705708976889859e+000	 2.017365592173613e+000	 1.128500935047406e+001
 2.684776794561110e+000	 2.045140230761071e+000	 1.128421293120172e+001
 2.663544686532283e+000	 2.072716744497435e+000	 1.128595580530660e+001
 2.642015455849858e+000	 2.100090314988453e+000	 1.129017288921522e+001
 2.620192008083476e+000	 2.127256176584556e+000	 1.129679892678634e+001
 2.845784738178201e+000	 1.860513161512450e+000	 1.116428937039772e+001
 2.826563767960662e+000	 1.889586533039316e+000	 1.126817940681779e+001
 2.807025935242726e+000	 1.918490395870783e+000	 1.126561502211292e+001
 2.787173422871487e+000	 1.947219636043831e+000	 1.126446565149653e+001
 2.767008522605408e+000	 1.975769175781172e+000	 1.126457458398502e+001
 2.746533634400807e+000	 2.004133976366192e+000	 1.126578730124868e+001
 2.725751265607919e+000	 2.032309041002304e+000	 1.126795134349169e+001
 2.704664030076833e+000	 2.060289417653368e+000	 1.127091616425632e+001
 2.683274647173827e+000	 2.088070201861913e+000	 1.127453297480301e+001
 2.661585940708689e+000	 2.115646539541879e+000	 1.127865457876382e+001
 2.639600837773796e+000	 2.143013629742586e+000	 1.128313519780917e+001
 2.866709625957885e+000	 1.874193405345763e+000	 1.120394298310123e+001
 2.847347325077028e+000	 1.903480551662975e+000	 1.121708014651234e+001
 2.827665831824468e+000	 1.932596942897376e+000	 1.122448136785147e+001
 2.807667345097644e+000	 1.961537427483275e+000	 1.123185923707769e+001
 2.787354173506183e+000	 1.990296890306788e+000	 1.123896943128156e+001
 2.766728734653144e+000	 2.018870255601915e+000	 1.124557095580430e+001
 2.745793554325158e+000	 2.047252489830916e+000	 1.125142610169328e+001
 2.724551265591801e+000	 2.075438604545620e+000	 1.125630039085323e+001
 2.703004607814691e+000	 2.103423659226372e+000	 1.125996250939553e+001
 2.681156425566925e+000	 2.131202764095299e+000	 1.126218422973559e+001
 2.659009667463616e+000	 2.158771082900617e+000	 1.126274032203278e+001
 2.887634513736569e+000	 1.887873649178574e+000	 1.115928736602698e+001
 2.868130882192400e+000	 1.917374570286227e+000	 1.117585522594056e+001
 2.848305728405229e+000	 1.946703489923646e+000	 1.119131375390563e+001
 2.828161267322845e+000	 1.975855218922473e+000	 1.120532771659985e+001
 2.807699824406037e+000	 2.004824604832223e+000	 1.121756627784428e+001
 2.786923834904605e+000	 2.033606534837511e+000	 1.122770306034972e+001
 2.765835843041575e+000	 2.062195938659446e+000	 1.123541619362474e+001
 2.744438501106013e+000	 2.090587791437827e+000	 1.124038834834836e+001
 2.722734568454874e+000	 2.118777116590810e+000	 1.124230675756302e+001
 2.700726910424563e+000	 2.146758988648714e+000	 1.124086322509113e+001
 2.678418497152933e+000	 2.174528536058647e+000	 1.123575412162811e+001
 2.908559401514253e+000	 1.901553893010882e+000	 1.112020924117757e+001
 2.888914439306776e+000	 1.931268588909071e+000	 1.114428554935323e+001
 2.868945624985011e+000	 1.960810036949594e+000	 1.116593448902107e+001
 2.848655189547090e+000	 1.990173010361423e+000	 1.118473435708663e+001
 2.828045475304971e+000	 2.019352319357475e+000	 1.120026888307755e+001
 2.807118935155189e+000	 2.048342814072981e+000	 1.121212738132235e+001
 2.785878131757173e+000	 2.077139387487895e+000	 1.121990488820508e+001
 2.764325736619468e+000	 2.105736978329987e+000	 1.122320228465186e+001
 2.742464529094376e+000	 2.134130573955227e+000	 1.122162640405829e+001
 2.720297395281607e+000	 2.162315213202125e+000	 1.121479012591820e+001
 2.697827326841749e+000	 2.190285989216679e+000	 1.120231245546509e+001
 2.929484289290938e+000	 1.915234136842687e+000	 1.109241579386317e+001
 2.909697996420158e+000	 1.945162607531509e+000	 1.112215863717593e+001
 2.889585521563813e+000	 1.974916583975221e+000	 1.114817128472181e+001
 2.869149111770381e+000	 2.004490801800127e+000	 1.116994662695673e+001
 2.848391126202986e+000	 2.033880033882548e+000	 1.118698401901727e+001
 2.827314035404899e+000	 2.063079093308325e+000	 1.119878952224774e+001
 2.805920420471948e+000	 2.092082836316264e+000	 1.120487612971322e+001
 2.784212972132169e+000	 2.120886165222104e+000	 1.120476397570830e+001
 2.762194489733197e+000	 2.149484031319626e+000	 1.119798052932701e+001
 2.739867880138053e+000	 2.177871437755531e+000	 1.118406077221260e+001
 2.717236156530065e+000	 2.206043442374710e+000	 1.116254736065899e+001
 2.523147859624355e+000	 2.048468910794402e+000	 1.125895995586095e+001
 2.501852263035922e+000	 2.074424077653029e+000	 1.119705774968998e+001
 2.480279233527257e+000	 2.100170213036469e+000	 1.119104756632837e+001
 2.458431857744017e+000	 2.125702895705409e+000	 1.119092714215044e+001
 2.436313315794467e+000	 2.151017765443551e+000	 1.119037547070262e+001
 2.413926879733346e+000	 2.176110525516454e+000	 1.118859488653326e+001
 2.391275911968415e+000	 2.200976945084876e+000	 1.118477444606575e+001
 2.368363863591268e+000	 2.225612861569795e+000	 1.117809150796034e+001
 2.345194272634155e+000	 2.250014182966333e+000	 1.116771336048057e+001
 2.321770762254631e+000	 2.274176890103911e+000	 1.115279889198775e+001
 2.298097038850000e+000	 2.298097038850000e+000	 1.113250030052709e+001
 2.542556689317182e+000	 2.064226363952433e+000	 1.128119874456946e+001
 2.521097280446934e+000	 2.090381185940973e+000	 1.122051109561405e+001
 2.499358304557080e+000	 2.116325368519901e+000	 1.115680248149594e+001
 2.477342872036708e+000	 2.142054456440371e+000	 1.115496380348511e+001
 2.455054187456452e+000	 2.167564055945961e+000	 1.115368509884795e+001
 2.432495548040706e+000	 2.192849837250425e+000	 1.115216223810644e+001
 2.409670342061903e+000	 2.217907536969606e+000	 1.114957635244712e+001
 2.386582047158497e+000	 2.242732960504638e+000	 1.114509543662602e+001
 2.363234228578370e+000	 2.267321984373689e+000	 1.113787600155853e+001
 2.339630537349519e+000	 2.291670558489479e+000	 1.112706477265277e+001
 2.315774708380000e+000	 2.315774708380000e+000	 1.111180042977698e+001
 2.561965519009508e+000	 2.079983817110463e+000	 1.129594240907152e+001
 2.540342297857539e+000	 2.106338294228916e+000	 1.123692589457958e+001
 2.518437375586582e+000	 2.132480524003332e+000	 1.117365851062166e+001
 2.496253886329154e+000	 2.158406017175334e+000	 1.111746982445315e+001
 2.473795059118257e+000	 2.184110346448371e+000	 1.111597273566590e+001
 2.451064216347940e+000	 2.209589148984396e+000	 1.111521194312220e+001
 2.428064772155310e+000	 2.234838128854334e+000	 1.111436001761416e+001
 2.404800230725680e+000	 2.259853059439482e+000	 1.111257494783933e+001
 2.381274184522564e+000	 2.284629785781045e+000	 1.110900181911651e+001
 2.357490312444404e+000	 2.309164226875048e+000	 1.110277454048130e+001
 2.333452377910000e+000	 2.333452377910000e+000	 1.109301761597705e+001
 2.581374348701332e+000	 2.095741270268494e+000	 1.130335294517631e+001
 2.559587315267738e+000	 2.122295402516860e+000	 1.124645374167685e+001
 2.537516446615763e+000	 2.148635679486764e+000	 1.118598481017445e+001
 2.515164900621352e+000	 2.174757577910296e+000	 1.112206746031530e+001
 2.492535930779882e+000	 2.200656636950781e+000	 1.107710575008616e+001
 2.469632884655049e+000	 2.226328460718368e+000	 1.107760606098615e+001
 2.446459202248638e+000	 2.251768720739062e+000	 1.107898264933510e+001
 2.423018414292819e+000	 2.276973158374326e+000	 1.108038285525254e+001
 2.399314140466739e+000	 2.301937587188401e+000	 1.108093968948334e+001
 2.375350087539283e+000	 2.326657895260616e+000	 1.107977359018146e+001
 2.351130047440000e+000	 2.351130047440000e+000	 1.107599422647056e+001
 2.600783178392654e+000	 2.111498723426525e+000	 1.130358757560792e+001
 2.578832332677530e+000	 2.138252510804803e+000	 1.124924173242647e+001
 2.556595517644623e+000	 2.164790834970196e+000	 1.119199394205082e+001
 2.534075914913305e+000	 2.191109138645258e+000	 1.113198773548065e+001
 2.511276802441326e+000	 2.217202927453191e+000	 1.106937101241397e+001
 2.488201552962032e+000	 2.243067772452339e+000	 1.103920315798887e+001
 2.464853632341884e+000	 2.268699312623791e+000	 1.104329819131938e+001
 2.441236597859911e+000	 2.294093257309170e+000	 1.104836892824985e+001
 2.417354096410893e+000	 2.319245388595757e+000	 1.105353565513356e+001
 2.393209862634156e+000	 2.344151563646185e+000	 1.105790468353880e+001
 2.368807716970000e+000	 2.368807716970000e+000	 1.106057018702834e+001
 2.620192008083476e+000	 2.127256176584556e+000	 1.129679892678634e+001
 2.598077350086916e+000	 2.154209619092746e+000	 1.124543262943014e+001
 2.575674588673162e+000	 2.180945990453628e+000	 1.119181906624547e+001
 2.552986929205012e+000	 2.207460699380220e+000	 1.113612393391653e+001
 2.530017674102588e+000	 2.233749217955600e+000	 1.107851667953487e+001
 2.506770221268889e+000	 2.259807084186310e+000	 1.101916998184630e+001
 2.483248062435051e+000	 2.285629904508520e+000	 1.100715744410880e+001
 2.459454781426959e+000	 2.311213356244014e+000	 1.101638000469802e+001
 2.435394052355028e+000	 2.336553190003113e+000	 1.102663302964499e+001
 2.411069637729026e+000	 2.361645232031754e+000	 1.103700804693183e+001
 2.386485386499999e+000	 2.386485386500000e+000	 1.104658307227743e+001
 2.639600837773796e+000	 2.143013629742586e+000	 1.128313519780917e+001
 2.617322367495897e+000	 2.170166727380690e+000	 1.123516502166918e+001
 2.594753659701379e+000	 2.197101145937059e+000	 1.118558941483527e+001
 2.571897943496474e+000	 2.223812260115182e+000	 1.113459619005795e+001
 2.548758545763670e+000	 2.250295508458010e+000	 1.108237630122217e+001
 2.525338889575621e+000	 2.276546395920281e+000	 1.102912329155241e+001
 2.501642492528136e+000	 2.302560496393248e+000	 1.097503273403830e+001
 2.477672964993961e+000	 2.328333455178858e+000	 1.098426009872275e+001
 2.453434008299142e+000	 2.353860991410469e+000	 1.100007249802579e+001
 2.428929412823889e+000	 2.379138900417321e+000	 1.101692146454558e+001
 2.404163056029999e+000	 2.404163056029999e+000	 1.103386819214022e+001
 2.659009667463616e+000	 2.158771082900617e+000	 1.126274032203278e+001
 2.636567384904470e+000	 2.186123835668633e+000	 1.121857347682635e+001
 2.613832730729276e+000	 2.213256301420490e+000	 1.117343043533386e+001
 2.590808957787688e+000	 2.240163820850145e+000	 1.112752108267996e+001
 2.567499417424571e+000	 2.266841798960420e+000	 1.108105784472577e+001
 2.543907557882227e+000	 2.293285707654252e+000	 1.103425510313816e+001
 2.520036922621142e+000	 2.319491088277977e+000	 1.098732860338802e+001
 2.495891148560919e+000	 2.345453554113702e+000	 1.095185050376494e+001
 2.471473964243236e+000	 2.371168792817825e+000	 1.097369221264768e+001
 2.446789187918748e+000	 2.396632568802890e+000	 1.099748036750272e+001
 2.421840725560000e+000	 2.421840725560000e+000	 1.102225867448784e+001
 2.678418497152933e+000	 2.174528536058647e+000	 1.123575412162811e+001
 2.655812402312637e+000	 2.202080943956577e+000	 1.119578868698516e+001
 2.632911801756850e+000	 2.229411456903922e+000	 1.115546392781349e+001
 2.609719972078657e+000	 2.256515381585107e+000	 1.111501176372618e+001
 2.586240289085291e+000	 2.283388089462830e+000	 1.107466606341035e+001
 2.562476226188708e+000	 2.310025019388223e+000	 1.103466202646096e+001
 2.538431352714067e+000	 2.336421680162705e+000	 1.099523555883993e+001
 2.514109332127831e+000	 2.362573653048545e+000	 1.095662264362508e+001
 2.489513920187310e+000	 2.388476594225181e+000	 1.094732788500812e+001
 2.464648963013601e+000	 2.414126237188458e+000	 1.097851791911943e+001
 2.439518395090000e+000	 2.439518395090000e+000	 1.101158554420004e+001
 2.697827326841749e+000	 2.190285989216679e+000	 1.120231245546509e+001
 2.675057419720397e+000	 2.218038052244520e+000	 1.116693760803995e+001
 2.651990872784105e+000	 2.245566612387353e+000	 1.113180817610805e+001
 2.628630986369381e+000	 2.272866942320069e+000	 1.109717808157590e+001
 2.604981160745831e+000	 2.299934379965240e+000	 1.106330261236262e+001
 2.581044894495063e+000	 2.326764331122194e+000	 1.103043777089222e+001
 2.556825782806911e+000	 2.353352272047435e+000	 1.099883961689553e+001
 2.532327515694697e+000	 2.379693751983389e+000	 1.096876360625784e+001
 2.507553876131364e+000	 2.405784395632537e+000	 1.094046392766897e+001
 2.482508738108451e+000	 2.431619905574027e+000	 1.095986509648124e+001
 2.457196064620000e+000	 2.457196064620000e+000	 1.100167779881235e+001
 2.717236156530065e+000	 2.206043442374710e+000	 1.116254736065899e+001
 2.694302437127753e+000	 2.233995160532463e+000	 1.113214359313107e+001
 2.671069943811037e+000	 2.261721767870785e+000	 1.110257807339292e+001
 2.647542000659859e+000	 2.289218503055032e+000	 1.107412669902862e+001
 2.623722032406191e+000	 2.316480670467651e+000	 1.104706615904418e+001
 2.599613562801293e+000	 2.343503642856166e+000	 1.102167324890606e+001
 2.575220212899677e+000	 2.370282863932164e+000	 1.099822418056173e+001
 2.550545699261520e+000	 2.396813850918234e+000	 1.097699388925090e+001
 2.525593832075398e+000	 2.423092197039894e+000	 1.095825533893421e+001
 2.500368513203295e+000	 2.449113573959596e+000	 1.094227882817984e+001
 2.474873734150000e+000	 2.474873734150000e+000	 1.099236248092121e+001
 2.298097038850000e+000	 2.298097038850000e+000	 1.113250030052709e+001
 2.274176890103912e+000	 2.321770762254630e+000	 1.107050296881783e+001
 2.250014182966333e+000	 2.345194272634154e+000	 1.101895752665430e+001
 2.225612861569796e+000	 2.368363863591268e+000	 1.097678327921174e+001
 2.200976945084877e+000	 2.391275911968414e+000	 1.094288405850245e+001
 2.176110525516455e+000	 2.413926879733346e+000	 1.091615033363834e+001
 2.151017765443552e+000	 2.436313315794465e+000	 1.089546135385624e+001
 2.125702895705410e+000	 2.458431857744016e+000	 1.087968731902771e+001
 2.100170213036470e+000	 2.480279233527256e+000	 1.086769157229457e+001
 2.074424077653031e+000	 2.501852263035922e+000	 1.085973901010951e+001
 2.048468910794402e+000	 2.523147859624355e+000	 1.087033399484737e+001
 2.315774708380000e+000	 2.315774708380000e+000	 1.111180042977698e+001
 2.291670558489480e+000	 2.339630537349518e+000	 1.104974935987145e+001
 2.267321984373690e+000	 2.363234228578369e+000	 1.099687351018447e+001
 2.242732960504639e+000	 2.386582047158496e+000	 1.095207836352920e+001
 2.217907536969606e+000	 2.409670342061902e+000	 1.091425473898945e+001
 2.192849837250426e+000	 2.432495548040705e+000	 1.088228093710706e+001
 2.167564055945962e+000	 2.455054187456451e+000	 1.085502491713836e+001
 2.142054456440372e+000	 2.477342872036707e+000	 1.083134650100648e+001
 2.116325368519902e+000	 2.499358304557080e+000	 1.081009959849728e+001
 2.090381185940974e+000	 2.521097280446933e+000	 1.080680913165863e+001
 2.064226363952433e+000	 2.542556689317182e+000	 1.080827948904506e+001
 2.333452377910000e+000	 2.333452377910000e+000	 1.109301761597705e+001
 2.309164226875049e+000	 2.357490312444403e+000	 1.103142511448030e+001
 2.284629785781046e+000	 2.381274184522563e+000	 1.097775527780257e+001
 2.259853059439484e+000	 2.404800230725680e+000	 1.093089905517582e+001
 2.234838128854335e+000	 2.428064772155310e+000	 1.088973352007182e+001
 2.209589148984398e+000	 2.451064216347938e+000	 1.085312405139768e+001
 2.184110346448372e+000	 2.473795059118257e+000	 1.081992654609790e+001
 2.158406017175334e+000	 2.496253886329152e+000	 1.078898965769268e+001
 2.132480524003333e+000	 2.518437375586581e+000	 1.077237802795790e+001
 2.106338294228917e+000	 2.540342297857538e+000	 1.076221798658200e+001
 2.079983817110463e+000	 2.561965519009508e+000	 1.075528999237326e+001
 2.351130047440000e+000	 2.351130047440000e+000	 1.107599422647056e+001
 2.326657895260617e+000	 2.375350087539281e+000	 1.101536895728938e+001
 2.301937587188402e+000	 2.399314140466737e+000	 1.096143761787522e+001
 2.276973158374327e+000	 2.423018414292818e+000	 1.091307591122000e+001
 2.251768720739064e+000	 2.446459202248638e+000	 1.086914643119886e+001
 2.226328460718368e+000	 2.469632884655047e+000	 1.082850088086147e+001
 2.200656636950782e+000	 2.492535930779881e+000	 1.078998232149816e+001
 2.174757577910297e+000	 2.515164900621351e+000	 1.076211535107283e+001
 2.148635679486765e+000	 2.537516446615762e+000	 1.074226815774122e+001
 2.122295402516861e+000	 2.559587315267736e+000	 1.072548479287053e+001
 2.095741270268495e+000	 2.581374348701332e+000	 1.071087801078348e+001
 2.368807716970000e+000	 2.368807716970000e+000	 1.106057018702834e+001
 2.344151563646185e+000	 2.393209862634155e+000	 1.100141738492127e+001
 2.319245388595758e+000	 2.417354096410892e+000	 1.094775331674094e+001
 2.294093257309171e+000	 2.441236597859911e+000	 1.089843772502840e+001
 2.268699312623792e+000	 2.464853632341884e+000	 1.085231798865683e+001
 2.243067772452340e+000	 2.488201552962031e+000	 1.080823137930998e+001
 2.217202927453192e+000	 2.511276802441325e+000	 1.077127890541522e+001
 2.191109138645259e+000	 2.534075914913304e+000	 1.074361066690560e+001
 2.164790834970197e+000	 2.556595517644622e+000	 1.071885029808004e+001
 2.138252510804804e+000	 2.578832332677529e+000	 1.069612868649702e+001
 2.111498723426525e+000	 2.600783178392654e+000	 1.067455628907818e+001
 2.386485386499999e+000	 2.386485386500000e+000	 1.104658307227743e+001
 2.361645232031754e+000	 2.411069637729024e+000	 1.098940474849560e+001
 2.336553190003114e+000	 2.435394052355026e+000	 1.093653323285930e+001
 2.311213356244015e+000	 2.459454781426958e+000	 1.088681159158828e+001
 2.285629904508521e+000	 2.483248062435050e+000	 1.083907125161201e+001
 2.259807084186311e+000	 2.506770221268889e+000	 1.079531292593404e+001
 2.233749217955602e+000	 2.530017674102587e+000	 1.076161033370807e+001
 2.207460699380221e+000	 2.552986929205011e+000	 1.073067258352047e+001
 2.180945990453628e+000	 2.575674588673162e+000	 1.070164947107045e+001
 2.154209619092748e+000	 2.598077350086915e+000	 1.067366872445392e+001
 2.127256176584556e+000	 2.620192008083476e+000	 1.064583780206443e+001
 2.404163056029999e+000	 2.404163056029999e+000	 1.103386819214022e+001
 2.379138900417322e+000	 2.428929412823889e+000	 1.097916333250782e+001
 2.353860991410470e+000	 2.453434008299141e+000	 1.092760636768883e+001
 2.328333455178859e+000	 2.477672964993961e+000	 1.087802296994787e+001
 2.302560496393249e+000	 2.501642492528135e+000	 1.082985105558231e+001
 2.276546395920282e+000	 2.525338889575620e+000	 1.079181940570553e+001
 2.250295508458011e+000	 2.548758545763669e+000	 1.075642297418741e+001
 2.223812260115184e+000	 2.571897943496472e+000	 1.072283133087850e+001
 2.197101145937060e+000	 2.594753659701378e+000	 1.069019033562017e+001
 2.170166727380690e+000	 2.617322367495895e+000	 1.065762388765704e+001
 2.143013629742586e+000	 2.639600837773797e+000	 1.062423574609780e+001
 2.421840725560000e+000	 2.421840725560000e+000	 1.102225867448784e+001
 2.396632568802890e+000	 2.446789187918747e+000	 1.097052343025326e+001
 2.371168792817826e+000	 2.471473964243235e+000	 1.092079993346080e+001
 2.345453554113703e+000	 2.495891148560918e+000	 1.087189574292219e+001
 2.319491088277979e+000	 2.520036922621141e+000	 1.082998050345860e+001
 2.293285707654253e+000	 2.543907557882227e+000	 1.079176129033690e+001
 2.266841798960421e+000	 2.567499417424570e+000	 1.075525164829145e+001
 2.240163820850145e+000	 2.590808957787687e+000	 1.071961652265092e+001
 2.213256301420491e+000	 2.613832730729275e+000	 1.068399720070350e+001
 2.186123835668634e+000	 2.636567384904469e+000	 1.064751308372207e+001
 2.158771082900617e+000	 2.659009667463616e+000	 1.060926353099669e+001
 2.439518395090000e+000	 2.439518395090000e+000	 1.101158554420004e+001
 2.414126237188460e+000	 2.464648963013600e+000	 1.096331341597237e+001
 2.388476594225182e+000	 2.489513920187309e+000	 1.091593941800628e+001
 2.362573653048546e+000	 2.514109332127829e+000	 1.087202922074955e+001
 2.336421680162707e+000	 2.538431352714066e+000	 1.083253875431161e+001
 2.310025019388224e+000	 2.562476226188708e+000	 1.079467743466456e+001
 2.283388089462831e+000	 2.586240289085291e+000	 1.075763033683187e+001
 2.256515381585108e+000	 2.609719972078657e+000	 1.072055717854849e+001
 2.229411456903923e+000	 2.632911801756850e+000	 1.068259403804019e+001
 2.202080943956577e+000	 2.655812402312636e+000	 1.064285514962032e+001
 2.174528536058648e+000	 2.678418497152933e+000	 1.060043477230818e+001
 2.457196064620000e+000	 2.457196064620000e+000	 1.100167779881235e+001
 2.431619905574028e+000	 2.482508738108450e+000	 1.095735981388116e+001
 2.405784395632538e+000	 2.507553876131362e+000	 1.091409636439579e+001
 2.379693751983390e+000	 2.532327515694696e+000	 1.087480054167351e+001
 2.353352272047436e+000	 2.556825782806911e+000	 1.083706819323852e+001
 2.326764331122195e+000	 2.581044894495062e+000	 1.080010565514706e+001
 2.299934379965241e+000	 2.604981160745830e+000	 1.076309221023219e+001
 2.272866942320070e+000	 2.628630986369379e+000	 1.072518174568681e+001
 2.245566612387354e+000	 2.651990872784104e+000	 1.068550449422676e+001
 2.218038052244521e+000	 2.675057419720397e+000	 1.064316885421998e+001
 2.190285989216679e+000	 2.697827326841749e+000	 1.059726328390769e+001
 2.474873734150000e+000	 2.474873734150000e+000	 1.099236248092121e+001
 2.449113573959596e+000	 2.500368513203294e+000	 1.095250981986843e+001
 2.423092197039895e+000	 2.525593832075397e+000	 1.091478796163717e+001
 2.396813850918235e+000	 2.550545699261519e+000	 1.087857841573618e+001
 2.370282863932165e+000	 2.575220212899675e+000	 1.084310999376420e+001
 2.343503642856167e+000	 2.599613562801293e+000	 1.080758276695012e+001
 2.316480670467652e+000	 2.623722032406190e+000	 1.077116965747022e+001
 2.289218503055033e+000	 2.647542000659857e+000	 1.073301811903639e+001
 2.261721767870786e+000	 2.671069943811037e+000	 1.069225190234822e+001
 2.233995160532465e+000	 2.694302437127753e+000	 1.064797290071829e+001
 2.206043442374710e+000	 2.717236156530064e+000	 1.059926307091585e+001
 2.048468910794402e+000	 2.523147859624355e+000	 1.087033399484737e+001
 2.022309192221251e+000	 2.544163031546754e+000	 1.084803820123636e+001
 1.995949457674740e+000	 2.564894883314335e+000	 1.080386729944832e+001
 1.969394296298900e+000	 2.585340616971147e+000	 1.073732548133475e+001
 1.942648348028941e+000	 2.605497533287247e+000	 1.064792526251344e+001
 1.915716300949207e+000	 2.625363032868397e+000	 1.053518885784677e+001
 1.888602888623659e+000	 2.644934617181425e+000	 1.039864956814462e+001
 1.861312887401979e+000	 2.664209889494488e+000	 1.035441438041437e+001
 1.833851113704458e+000	 2.683186555731692e+000	 1.041634996323029e+001
 1.806222421288801e+000	 2.701862425241567e+000	 1.047302727427534e+001
 1.778431698502015e+000	 2.720235411479095e+000	 1.052443782136959e+001
 2.064226363952433e+000	 2.542556689317182e+000	 1.080827948904506e+001
 2.037865416774701e+000	 2.563733516408568e+000	 1.078611006832338e+001
 2.011302915039320e+000	 2.584624843959287e+000	 1.074530808953026e+001
 1.984543483191425e+000	 2.605227852490651e+000	 1.068532211778898e+001
 1.957591796858037e+000	 2.625539822009411e+000	 1.060560557980733e+001
 1.930452580185687e+000	 2.645558133125988e+000	 1.050561823835508e+001
 1.903130603150365e+000	 2.665280268087723e+000	 1.038482768272931e+001
 1.875630678842905e+000	 2.684703811726376e+000	 1.024271083079466e+001
 1.847957660732985e+000	 2.703826452319315e+000	 1.031174709567975e+001
 1.820116439914906e+000	 2.722645982363904e+000	 1.038364752794385e+001
 1.792111942338345e+000	 2.741160299264779e+000	 1.045311294508565e+001
 2.079983817110463e+000	 2.561965519009508e+000	 1.075528999237326e+001
 2.053421641328147e+000	 2.583304001269784e+000	 1.073290776591875e+001
 2.026656372403879e+000	 2.604354804603557e+000	 1.069509676765380e+001
 1.999692670083905e+000	 2.625115088009400e+000	 1.064124982168968e+001
 1.972535245687052e+000	 2.645582110730754e+000	 1.057076116430695e+001
 1.945188859422041e+000	 2.665753233382703e+000	 1.048302801788008e+001
 1.917658317676890e+000	 2.685625918993101e+000	 1.037745218554936e+001
 1.889948470283585e+000	 2.705197733957309e+000	 1.025344166198159e+001
 1.862064207761189e+000	 2.724466348905958e+000	 1.021883298482264e+001
 1.834010458540604e+000	 2.743429539485245e+000	 1.030505692382174e+001
 1.805792186174171e+000	 2.762085187049463e+000	 1.039163374220819e+001
 2.095741270268495e+000	 2.581374348701332e+000	 1.071087801078348e+001
 2.068977865881588e+000	 2.602874486130406e+000	 1.068796160546522e+001
 2.042009829768418e+000	 2.624084765247146e+000	 1.065278279346618e+001
 2.014841856976339e+000	 2.645002323527392e+000	 1.060467852915326e+001
 1.987478694515987e+000	 2.665624399451277e+000	 1.054298374151295e+001
 1.959925138658268e+000	 2.685948333638542e+000	 1.046703300799096e+001
 1.932186032203233e+000	 2.705971569897558e+000	 1.037616225383651e+001
 1.904266261724018e+000	 2.725691656187287e+000	 1.026971047204464e+001
 1.876170754789071e+000	 2.745106245491619e+000	 1.014702145892510e+001
 1.847904477165894e+000	 2.764213096605592e+000	 1.023716260281291e+001
 1.819472430009494e+000	 2.783010074833148e+000	 1.033993479471811e+001
 2.111498723426525e+000	 2.600783178392654e+000	 1.067455628907818e+001
 2.084534090435024e+000	 2.622444970990429e+000	 1.065080173328767e+001
 2.057363287132937e+000	 2.643814725890054e+000	 1.061791502432193e+001
 2.029991043868728e+000	 2.664889559044629e+000	 1.057517710389342e+001
 2.002422143344841e+000	 2.685666688170979e+000	 1.052186346176864e+001
 1.974661417894370e+000	 2.706143433893506e+000	 1.045724591001151e+001
 1.946713746729394e+000	 2.726317220801094e+000	 1.038059438748577e+001
 1.918584053164202e+000	 2.746185578416308e+000	 1.029117878946284e+001
 1.890277301816631e+000	 2.765746142076301e+000	 1.018827081710465e+001
 1.861798495790775e+000	 2.784996653724944e+000	 1.017986713878035e+001
 1.833152673844316e+000	 2.803934962615831e+000	 1.029794542613241e+001
 2.127256176584556e+000	 2.620192008083476e+000	 1.064583780206443e+001
 2.100090314988453e+000	 2.642015455849857e+000	 1.062095813670840e+001
 2.072716744497436e+000	 2.663544686532280e+000	 1.059004173758999e+001
 2.045140230761071e+000	 2.684776794561109e+000	 1.055231337693959e+001
 2.017365592173614e+000	 2.705708976889859e+000	 1.050698895859929e+001
 1.989397697130344e+000	 2.726338534147595e+000	 1.045327739317732e+001
 1.961241461255374e+000	 2.746662871703711e+000	 1.039038250821615e+001
 1.932901844604141e+000	 2.766679500644375e+000	 1.031750498797002e+001
 1.904383848843869e+000	 2.786386038660004e+000	 1.023384433730342e+001
 1.875692514415250e+000	 2.805780210843299e+000	 1.013860086415644e+001
 1.846832917678635e+000	 2.824859850397516e+000	 1.026558989626217e+001
 2.143013629742586e+000	 2.639600837773797e+000	 1.062423574609780e+001
 2.115646539541880e+000	 2.661585940708688e+000	 1.059796064989312e+001
 2.088070201861914e+000	 2.683274647173827e+000	 1.056871065197676e+001
 2.060289417653368e+000	 2.704664030076832e+000	 1.053565418460336e+001
 2.032309041002306e+000	 2.725751265607919e+000	 1.049794740447725e+001
 2.004133976366193e+000	 2.746533634400806e+000	 1.045473616934503e+001
 1.975769175781172e+000	 2.767008522605407e+000	 1.040515805435644e+001
 1.947219636043832e+000	 2.787173422871487e+000	 1.034834440253804e+001
 1.918490395870784e+000	 2.807025935242725e+000	 1.028342240363014e+001
 1.889586533039317e+000	 2.826563767960661e+000	 1.020951719546441e+001
 1.860513161512450e+000	 2.845784738178200e+000	 1.024278758737825e+001
 2.158771082900617e+000	 2.659009667463616e+000	 1.060926353099669e+001
 2.131202764095300e+000	 2.681156425566923e+000	 1.058133895944029e+001
 2.103423659226372e+000	 2.703004607814691e+000	 1.055346894791516e+001
 2.075438604545621e+000	 2.724551265591801e+000	 1.052476540478207e+001
 2.047252489830917e+000	 2.745793554325157e+000	 1.049432456414532e+001
 2.018870255601916e+000	 2.766728734653142e+000	 1.046122906442941e+001
 1.990296890306789e+000	 2.787354173506182e+000	 1.042455007147999e+001
 1.961537427483277e+000	 2.807667345097643e+000	 1.038334944028050e+001
 1.932596942897377e+000	 2.827665831824467e+000	 1.033668190927265e+001
 1.903480551662976e+000	 2.847347325077028e+000	 1.028359732118764e+001
 1.874193405345763e+000	 2.866709625957885e+000	 1.022945318222358e+001
 2.174528536058648e+000	 2.678418497152933e+000	 1.060043477230818e+001
 2.146758988648715e+000	 2.700726910424563e+000	 1.057062260972796e+001
 2.118777116590811e+000	 2.722734568454874e+000	 1.054386328706740e+001
 2.090587791437828e+000	 2.744438501106012e+000	 1.051921199168392e+001
 2.062195938659447e+000	 2.765835843041575e+000	 1.049570484562126e+001
 2.033606534837512e+000	 2.786923834904603e+000	 1.047236108673465e+001
 2.004824604832224e+000	 2.807699824406037e+000	 1.044818529909867e+001
 1.975855218922475e+000	 2.828161267322845e+000	 1.042216968653455e+001
 1.946703489923648e+000	 2.848305728405229e+000	 1.039329638298045e+001
 1.917374570286228e+000	 2.868130882192399e+000	 1.036053979333999e+001
 1.887873649178574e+000	 2.887634513736569e+000	 1.032286895837786e+001
 2.190285989216679e+000	 2.697827326841749e+000	 1.059726328390769e+001
 2.162315213202126e+000	 2.720297395281605e+000	 1.056534100802962e+001
 2.134130573955228e+000	 2.742464529094375e+000	 1.053943983098568e+001
 2.105736978329988e+000	 2.764325736619468e+000	 1.051855800905419e+001
 2.077139387487896e+000	 2.785878131757171e+000	 1.050167134900093e+001
 2.048342814072981e+000	 2.807118935155188e+000	 1.048773549233598e+001
 2.019352319357477e+000	 2.828045475304971e+000	 1.047568825361481e+001
 1.990173010361424e+000	 2.848655189547089e+000	 1.046445200636374e+001
 1.960810036949596e+000	 2.868945624985010e+000	 1.045293611008774e+001
 1.931268588909073e+000	 2.888914439306776e+000	 1.044003937172191e+001
 1.901553893010882e+000	 2.908559401514253e+000	 1.042465253481363e+001
 2.206043442374710e+000	 2.717236156530064e+000	 1.059926307091585e+001
 2.177871437755532e+000	 2.739867880138052e+000	 1.056502342941064e+001
 2.149484031319626e+000	 2.762194489733196e+000	 1.053974425897339e+001
 2.120886165222105e+000	 2.784212972132167e+000	 1.052236666197755e+001
 2.092082836316265e+000	 2.805920420471948e+000	 1.051180591316977e+001
 2.063079093308326e+000	 2.827314035404899e+000	 1.050695384765934e+001
 2.033880033882549e+000	 2.848391126202985e+000	 1.050668130771786e+001
 2.004490801800128e+000	 2.869149111770380e+000	 1.050984064171045e+001
 1.974916583975222e+000	 2.889585521563812e+000	 1.051526824834962e+001
 1.945162607531510e+000	 2.909697996420158e+000	 1.052178715935641e+001
 1.915234136842688e+000	 2.929484289290938e+000	 1.052820965353379e+001
 1.778431698502015e+000	 2.720235411479095e+000	 1.052443782136959e+001
 1.750483865520404e+000	 2.738303532601247e+000	 1.033823305473646e+001
 1.722383871581194e+000	 2.756064911975476e+000	 1.018506829362311e+001
 1.694136692208681e+000	 2.773517778601558e+000	 1.006447360274488e+001
 1.665747326437761e+000	 2.790660467447267e+000	 9.975963552934751e+000
 1.637220794038315e+000	 2.807491419697759e+000	 9.919038610503787e+000
 1.608562132743385e+000	 2.824009182919216e+000	 9.893186531048910e+000
 1.579776395484174e+000	 2.840212411137346e+000	 9.897883754020240e+000
 1.550868647634842e+000	 2.856099864831403e+000	 9.932596794418457e+000
 1.521843964270076e+000	 2.871670410844536e+000	 9.996783628060641e+000
 1.492707427438275e+000	 2.886923022211355e+000	 1.008989506693402e+001
 1.792111942338345e+000	 2.741160299264779e+000	 1.045311294508565e+001
 1.763949126026976e+000	 2.759367405933930e+000	 1.027668847667755e+001
 1.735632978288948e+000	 2.777265411303141e+000	 1.013008742337162e+001
 1.707168512921817e+000	 2.794852530749106e+000	 1.001288314278325e+001
 1.678560767414598e+000	 2.812127086431664e+000	 9.924635913828581e+000
 1.649814800150785e+000	 2.829087507545086e+000	 9.864894278157850e+000
 1.620935687615213e+000	 2.845732330482984e+000	 9.833196383460789e+000
 1.591928521607786e+000	 2.862060198917422e+000	 9.829071325033587e+000
 1.562798406467085e+000	 2.878069863792879e+000	 9.852040482059167e+000
 1.533550456306831e+000	 2.893760183235912e+000	 9.901618845125533e+000
 1.504189792268103e+000	 2.909130122381397e+000	 9.977316331591497e+000
 1.805792186174171e+000	 2.762085187049463e+000	 1.039163374220819e+001
 1.777414386532957e+000	 2.780431279265624e+000	 1.022622667844538e+001
 1.748882084996038e+000	 2.798465910629846e+000	 1.008747077745639e+001
 1.720200333634242e+000	 2.816187282895746e+000	 9.974981574574359e+000
 1.691374208390694e+000	 2.833593705415225e+000	 9.888363917449428e+000
 1.662408806262505e+000	 2.850683595391665e+000	 9.827213261084461e+000
 1.633309242486302e+000	 2.867455478046118e+000	 9.791116962182020e+000
 1.604080647730692e+000	 2.883907986696995e+000	 9.779655569266803e+000
 1.574728165298671e+000	 2.900039862754002e+000	 9.792404105113576e+000
 1.545256948342999e+000	 2.915849955627104e+000	 9.828933338088191e+000
 1.515672157097435e+000	 2.931337222551448e+000	 9.888811039098034e+000
 1.819472430009494e+000	 2.783010074833148e+000	 1.033993479471811e+001
 1.790879647038344e+000	 2.801495152596328e+000	 1.018676060413450e+001
 1.762131191702469e+000	 2.819666409955593e+000	 1.005710875484174e+001
 1.733232154345957e+000	 2.837522035041479e+000	 9.950635855698090e+000
 1.704187649366050e+000	 2.855060324397946e+000	 9.866990195213447e+000
 1.675002812373476e+000	 2.872279683237500e+000	 9.805812991705674e+000
 1.645682797356653e+000	 2.889178625608616e+000	 9.766739640222241e+000
 1.616232773852889e+000	 2.905755774476063e+000	 9.749400952762446e+000
 1.586657924129601e+000	 2.922009861714771e+000	 9.753424388405394e+000
 1.556963440378580e+000	 2.937939728018115e+000	 9.778435270031741e+000
 1.527154521926272e+000	 2.953544322721507e+000	 9.824057984419001e+000
 1.833152673844316e+000	 2.803934962615831e+000	 1.029794542613241e+001
 1.804344907543139e+000	 2.822559025926043e+000	 1.015819871549066e+001
 1.775380298408235e+000	 2.840866909280380e+000	 1.003888807768320e+001
 1.746263975056959e+000	 2.858856787186302e+000	 9.939710101410357e+000
 1.717001090340666e+000	 2.876526943379830e+000	 9.860355399146215e+000
 1.687596818483697e+000	 2.893875771082586e+000	 9.800509813923673e+000
 1.658056352226265e+000	 2.910901773170480e+000	 9.759855620353418e+000
 1.628384899974379e+000	 2.927603562254628e+000	 9.738072716478897e+000
 1.598587682959873e+000	 2.943979860675189e+000	 9.734839803145853e+000
 1.568669932413576e+000	 2.960029500408943e+000	 9.749835547650585e+000
 1.538636886754612e+000	 2.975751422891574e+000	 9.782739728528116e+000
 1.846832917678635e+000	 2.824859850397516e+000	 1.026558989626217e+001
 1.817810168047342e+000	 2.843622899254767e+000	 1.014044515792354e+001
 1.788629405113341e+000	 2.862067408604207e+000	 1.003269192750549e+001
 1.759295795767251e+000	 2.880191539330218e+000	 9.942065689914319e+000
 1.729814531314541e+000	 2.897993562360879e+000	 9.868298275193501e+000
 1.700190824593168e+000	 2.915471858926928e+000	 9.811119023436426e+000
 1.670429907095138e+000	 2.932624920731707e+000	 9.770255941414881e+000
 1.640537026095161e+000	 2.949451350032688e+000	 9.745436847589842e+000
 1.610517441789488e+000	 2.965949859635252e+000	 9.736390502252760e+000
 1.580376424447985e+000	 2.982119272799589e+000	 9.742847719635057e+000
 1.550119251582456e+000	 2.997958523061648e+000	 9.764542458925510e+000
 1.860513161512450e+000	 2.845784738178200e+000	 1.024278758737825e+001
 1.831275428550952e+000	 2.864686772582501e+000	 1.013339991919558e+001
 1.801878511817784e+000	 2.883267907927075e+000	 1.003840007537288e+001
 1.772327616476830e+000	 2.901526291473225e+000	 9.957561362987430e+000
 1.742627972287677e+000	 2.919460181341089e+000	 9.890655733297823e+000
 1.712784830701890e+000	 2.937067946770522e+000	 9.837454906274557e+000
 1.682803461963273e+000	 2.954348068292302e+000	 9.797731484340330e+000
 1.652689152215236e+000	 2.971299137810246e+000	 9.771260052049920e+000
 1.622447200618447e+000	 2.987919858594962e+000	 9.757818258522992e+000
 1.592082916481809e+000	 3.004209045190053e+000	 9.757187879539227e+000
 1.561601616409804e+000	 3.020165623231730e+000	 9.769155856309675e+000
 1.874193405345763e+000	 2.866709625957885e+000	 1.022945318222358e+001
 1.844740689053969e+000	 2.885750645909246e+000	 1.013695898116102e+001
 1.815127618521566e+000	 2.904468407248984e+000	 1.005588900635857e+001
 1.785359437185700e+000	 2.922861043615323e+000	 9.986053322201176e+000
 1.755441413260070e+000	 2.940926800320462e+000	 9.927262914405816e+000
 1.725378836809863e+000	 2.958664034613372e+000	 9.879330775650477e+000
 1.695177016830669e+000	 2.976071215852260e+000	 9.842072977920722e+000
 1.664841278334603e+000	 2.993146925587298e+000	 9.815309728361701e+000
 1.634376959446749e+000	 3.009889857554320e+000	 9.798866405512937e+000
 1.603789408515046e+000	 3.026298817580334e+000	 9.792574572902703e+000
 1.573083981236656e+000	 3.042372723401821e+000	 9.796272967088310e+000
 1.887873649178574e+000	 2.887634513736569e+000	 1.032286895837786e+001
 1.858205949556393e+000	 2.906814519235001e+000	 1.015101446490739e+001
 1.828376725224685e+000	 2.925668906569934e+000	 1.008503203860220e+001
 1.798391257893857e+000	 2.944195795756514e+000	 1.002739532095769e+001
 1.768254854231724e+000	 2.962393419298998e+000	 9.977953254562200e+000
 1.737972842917086e+000	 2.980260122455474e+000	 9.936559007205492e+000
 1.707550571697327e+000	 2.997794363411583e+000	 9.903071004316798e+000
 1.676993404453263e+000	 3.014994713363847e+000	 9.877353942483541e+000
 1.646306718274395e+000	 3.031859856513325e+000	 9.859279780989088e+000
 1.615495900547696e+000	 3.048388589970433e+000	 9.848728708410505e+000
 1.584566346063012e+000	 3.064579823571918e+000	 9.845590081432571e+000
 1.901553893010882e+000	 2.908559401514253e+000	 1.042465253481363e+001
 1.871671210058226e+000	 2.927878392559766e+000	 1.017545476963213e+001
 1.841625831927143e+000	 2.946869405889925e+000	 1.012569943722841e+001
 1.811423078601303e+000	 2.965530547896796e+000	 1.008143875255331e+001
 1.781068295202638e+000	 2.983860038276696e+000	 1.004255854623730e+001
 1.750566849023559e+000	 3.001856210296830e+000	 1.000895107273540e+001
 1.719924126563246e+000	 3.019517510970271e+000	 9.980516004333467e+000
 1.689145530571215e+000	 3.036842501139892e+000	 9.957161403820278e+000
 1.658236477101383e+000	 3.053829855471976e+000	 9.938804672819831e+000
 1.627202392579761e+000	 3.070478362360350e+000	 9.925373472887927e+000
 1.596048710888871e+000	 3.086786923742023e+000	 9.916806616594711e+000
 1.915234136842688e+000	 2.929484289290938e+000	 1.052820965353379e+001
 1.885136470559467e+000	 2.948942265883543e+000	 1.028496870079775e+001
 1.854874938628939e+000	 2.968069905208957e+000	 1.017775852338317e+001
 1.824454899308039e+000	 2.986865300036170e+000	 1.014803273446814e+001
 1.793881736172811e+000	 3.005326657253558e+000	 1.012090899702617e+001
 1.763160855129284e+000	 3.023452298137441e+000	 1.009631757247058e+001
 1.732297681428427e+000	 3.041240658528325e+000	 1.007419828246830e+001
 1.701297656688460e+000	 3.058690288915435e+000	 1.005450144224303e+001
 1.670166235927715e+000	 3.075799854430275e+000	 1.003718876718617e+001
 1.638908884611239e+000	 3.092568134750085e+000	 1.002223424993835e+001
 1.607531075714235e+000	 3.108994023912138e+000	 1.000962500522673e+001
 1.492707427438275e+000	 2.886923022211355e+000	 1.008989506693402e+001
 1.463464123453077e+000	 2.901856777903874e+000	 1.007204972028811e+001
 1.434119140206303e+000	 2.916470862496686e+000	 1.002921004159509e+001
 1.404677564505076e+000	 2.930764565752652e+000	 9.961134034710570e+000
 1.375144479435225e+000	 2.944737282130762e+000	 9.867625443996110e+000
 1.345524961753961e+000	 2.958388510217295e+000	 9.748534125309623e+000
 1.315824079314218e+000	 2.971717852081893e+000	 9.603756339106653e+000
 1.286046888523080e+000	 2.984725012560140e+000	 9.433234965266276e+000
 1.256198431836616e+000	 2.997409798464362e+000	 9.236959639459425e+000
 1.226283735293377e+000	 3.009772117724387e+000	 9.282909487550242e+000
 1.196307806088698e+000	 3.021811978460158e+000	 9.398261014117598e+000
 1.504189792268103e+000	 2.909130122381397e+000	 9.977316331591497e+000
 1.474721539790167e+000	 2.924178753116689e+000	 9.941761240873406e+000
 1.445150825902609e+000	 2.938905253744039e+000	 9.884692920799978e+000
 1.415482776541836e+000	 2.953308908562949e+000	 9.805885871384987e+000
 1.385722513894337e+000	 2.967389107374398e+000	 9.705157151606429e+000
 1.355875153769301e+000	 2.981145344907635e+000	 9.582366790072779e+000
 1.325945803003146e+000	 2.994577220171297e+000	 9.437418121083457e+000
 1.295939556898393e+000	 3.007684435730475e+000	 9.270258045552334e+000
 1.265861496699236e+000	 3.020466796911431e+000	 9.080877216467441e+000
 1.235716687106058e+000	 3.032924210935764e+000	 9.023440052981890e+000
 1.205510173831083e+000	 3.045056685985870e+000	 9.135033281599077e+000
 1.515672157097435e+000	 2.931337222551448e+000	 9.888811039098034e+000
 1.485978956126852e+000	 2.946500728329692e+000	 9.836844149812817e+000
 1.456182511598578e+000	 2.961339644991719e+000	 9.766784449269128e+000
 1.426287988578309e+000	 2.975853251373672e+000	 9.678422299195118e+000
 1.396300548353190e+000	 2.990040932618514e+000	 9.571587482428887e+000
 1.366225345784390e+000	 3.003902179598473e+000	 9.446149653681793e+000
 1.336067526691811e+000	 3.017436588261179e+000	 9.302018718917172e+000
 1.305832225273413e+000	 3.030643858901224e+000	 9.139145142671245e+000
 1.275524561561511e+000	 3.043523795358812e+000	 8.957520182841741e+000
 1.245149638918324e+000	 3.056076304147308e+000	 8.807000542803014e+000
 1.214712541572961e+000	 3.068301393511570e+000	 8.915313533048217e+000
 1.527154521926272e+000	 2.953544322721507e+000	 9.824057984419001e+000
 1.497236372463129e+000	 2.968822703542879e+000	 9.756954520831258e+000
 1.467214197294211e+000	 2.983774036239725e+000	 9.675119299638149e+000
 1.437093200614493e+000	 2.998397594184815e+000	 9.578357910428139e+000
 1.406878582811784e+000	 3.012692757863114e+000	 9.466512268913888e+000
 1.376575537799229e+000	 3.026659014289810e+000	 9.339461108223881e+000
 1.346189250380215e+000	 3.040295956351537e+000	 9.197120401971194e+000
 1.315724893648140e+000	 3.053603282072387e+000	 9.039443718282785e+000
 1.285187626423442e+000	 3.066580793806505e+000	 8.866422504168321e+000
 1.254582590730176e+000	 3.079228397359024e+000	 8.678086299806969e+000
 1.223914909314336e+000	 3.091546101037260e+000	 8.738943491148316e+000
 1.538636886754612e+000	 2.975751422891574e+000	 9.782739728528116e+000
 1.508493788799001e+000	 2.991144678756257e+000	 9.701753018591367e+000
 1.478245882989506e+000	 3.006208427488057e+000	 9.609337521793513e+000
 1.447898412650389e+000	 3.020941936996385e+000	 9.505313422146916e+000
 1.417456617270119e+000	 3.035344583108194e+000	 9.389534176877007e+000
 1.386925729813818e+000	 3.049415848981647e+000	 9.261887048684455e+000
 1.356310974068357e+000	 3.063155324442370e+000	 9.122293572886933e+000
 1.325617562022574e+000	 3.076562705243963e+000	 8.970709958480146e+000
 1.294850691285029e+000	 3.089637792254509e+000	 8.807127422351137e+000
 1.264015542541612e+000	 3.102380490570909e+000	 8.631572456073354e+000
 1.233117277055205e+000	 3.114790808562941e+000	 8.605775140792263e+000
 1.550119251582456e+000	 2.997958523061648e+000	 9.764542458925510e+000
 1.519751205134466e+000	 3.013466653969821e+000	 9.670904728658762e+000
 1.489277568684464e+000	 3.028642818736715e+000	 9.569084343715225e+000
 1.458703624685997e+000	 3.043486279808378e+000	 9.458915449346508e+000
 1.428034651728194e+000	 3.057996408353757e+000	 9.340262452411560e+000
 1.397275921828156e+000	 3.072172683673982e+000	 9.213020595062012e+000
 1.366432697756238e+000	 3.086014692533680e+000	 9.077116466351241e+000
 1.335510230396715e+000	 3.099522128415953e+000	 8.932508450662773e+000
 1.304513756146272e+000	 3.112694790702826e+000	 8.779187112044733e+000
 1.273448494352634e+000	 3.125532583782965e+000	 8.621029470467432e+000
 1.242319644795568e+000	 3.138035516088611e+000	 8.603642915377922e+000
 1.561601616409804e+000	 3.020165623231730e+000	 9.769155856309675e+000
 1.531008621469525e+000	 3.035788629183572e+000	 9.664078994968889e+000
 1.500309254379085e+000	 3.051077209985700e+000	 9.554009981105624e+000
 1.469508836721317e+000	 3.066030622620796e+000	 9.438796288118319e+000
 1.438612686186011e+000	 3.080648233599800e+000	 9.318312679966496e+000
 1.407626113842244e+000	 3.094929518366817e+000	 9.192461826742564e+000
 1.376554421443856e+000	 3.108874060625466e+000	 9.061174861153720e+000
 1.345402898770562e+000	 3.122481551588357e+000	 8.924411874665038e+000
 1.314176821007171e+000	 3.135751789151453e+000	 8.864423679137472e+000
 1.282881446163241e+000	 3.148684676995192e+000	 8.805604204104418e+000
 1.251522012535427e+000	 3.161280223614271e+000	 8.726065697726023e+000
 1.573083981236656e+000	 3.042372723401821e+000	 9.796272967088310e+000
 1.542266037804178e+000	 3.058110604397511e+000	 9.680949264411922e+000
 1.511340940073370e+000	 3.073511601235009e+000	 9.563769455355812e+000
 1.480314048756350e+000	 3.088574965433638e+000	 9.444593708310926e+000
 1.449190720643568e+000	 3.103300058846326e+000	 9.323306551019623e+000
 1.417976305856081e+000	 3.117686353060151e+000	 9.199817528507436e+000
 1.386676145131213e+000	 3.131733428717729e+000	 9.129756346071204e+000
 1.355295567144116e+000	 3.145440974761174e+000	 9.109000641113003e+000
 1.323839885867726e+000	 3.158808787600393e+000	 9.073277902274032e+000
 1.292314397973433e+000	 3.171836770207588e+000	 9.020698113199304e+000
 1.260724380274781e+000	 3.184524931139920e+000	 8.949497422159254e+000
 1.584566346063012e+000	 3.064579823571918e+000	 9.845590081432571e+000
 1.553523454138424e+000	 3.080432579611637e+000	 9.721192938175145e+000
 1.522372625767317e+000	 3.095945992484646e+000	 9.598022419426412e+000
 1.491119260791094e+000	 3.111119308246904e+000	 9.475950755205462e+000
 1.459768755100866e+000	 3.125951884093334e+000	 9.363053655256078e+000
 1.428326497869668e+000	 3.140443187753983e+000	 9.364846896717923e+000
 1.396797868818307e+000	 3.154592796810467e+000	 9.358134473719124e+000
 1.365188235517378e+000	 3.168400397934406e+000	 9.340710958637395e+000
 1.333502950727936e+000	 3.181865786049645e+000	 9.310488704004282e+000
 1.301747349783210e+000	 3.194988863420154e+000	 9.265502288252989e+000
 1.269926748013629e+000	 3.207769638665559e+000	 9.203912625597871e+000
 1.596048710888871e+000	 3.086786923742023e+000	 9.916806616594711e+000
 1.564780870472264e+000	 3.102754554825951e+000	 9.784491229501946e+000
 1.533404311460927e+000	 3.118380383734608e+000	 9.656432991244428e+000
 1.501924472825551e+000	 3.133663651060594e+000	 9.606838477669740e+000
 1.470346789557904e+000	 3.148603709340823e+000	 9.612922844718179e+000
 1.438676689883004e+000	 3.163200022448315e+000	 9.615144750716862e+000
 1.406919592505140e+000	 3.177452164903683e+000	 9.611108564358851e+000
 1.375080903890346e+000	 3.191359821108051e+000	 9.598531418473010e+000
 1.343166015587802e+000	 3.204922784499208e+000	 9.575248156944916e+000
 1.311180301592572e+000	 3.218140956632892e+000	 9.539215947925401e+000
 1.279129115751972e+000	 3.231014346191188e+000	 9.488518556281388e+000
 1.607531075714235e+000	 3.108994023912138e+000	 1.000962500522673e+001
 1.576038286805698e+000	 3.125076530040452e+000	 9.871173514734409e+000
 1.544435997154201e+000	 3.140814774984898e+000	 9.872456621080639e+000
 1.512729684859720e+000	 3.156207993874709e+000	 9.877399766008471e+000
 1.480924824014684e+000	 3.171255534588795e+000	 9.883319302735073e+000
 1.449026881896091e+000	 3.185956857143146e+000	 9.887632966545997e+000
 1.417041316191712e+000	 3.200311532997376e+000	 9.887865646643899e+000
 1.384973572263022e+000	 3.214319244282112e+000	 9.881654837653649e+000
 1.352829080447325e+000	 3.227979782949083e+000	 9.866755761154320e+000
 1.320613253401520e+000	 3.241293049845799e+000	 9.841046148744178e+000
 1.288331483489811e+000	 3.254259053716808e+000	 9.802530679283207e+000
 1.196307806088698e+000	 3.021811978460158e+000	 9.398261014117598e+000
 1.166275630192232e+000	 3.033529487987621e+000	 9.362604289620613e+000
 1.136192170009821e+000	 3.044924851761178e+000	 9.328241747337017e+000
 1.106062362091802e+000	 3.055998372254013e+000	 9.294823073823663e+000
 1.075891114890497e+000	 3.066750447777396e+000	 9.262126718655289e+000
 1.045683306567630e+000	 3.077181571242415e+000	 9.230058818725437e+000
 1.015443782853513e+000	 3.087292328865914e+000	 9.198651852761710e+000
 9.851773549594470e-001	 3.097083398822883e+000	 9.168063034419141e+000
 9.548887975447467e-001	 3.106555549847562e+000	 9.138572452871502e+000
 9.245828467396433e-001	 3.115709639785576e+000	 9.110580970334906e+000
 8.942641982252435e-001	 3.124546614099404e+000	 9.084607886427024e+000
 1.205510173831083e+000	 3.045056685985870e+000	 9.135033281599077e+000
 1.175246981197481e+000	 3.056864330203026e+000	 9.106558137082377e+000
 1.144932109783359e+000	 3.068347350621874e+000	 9.077280678284884e+000
 1.114570534112516e+000	 3.079506052042313e+000	 9.046773553551642e+000
 1.084167200394600e+000	 3.090340835839549e+000	 9.014743517868379e+000
 1.053727024315657e+000	 3.100852198716294e+000	 8.981030369587826e+000
 1.023254888880848e+000	 3.111040731398753e+000	 8.945605607564421e+000
 9.927556423107914e-001	 3.120907117278648e+000	 8.908570817264659e+000
 9.622340959929515e-001	 3.130452131003560e+000	 8.899661446396474e+000
 9.316950224893310e-001	 3.139676637017924e+000	 8.912713956936523e+000
 9.011431536016610e-001	 3.148581588057016e+000	 8.928313449177180e+000
 1.214712541572961e+000	 3.068301393511570e+000	 8.915313533048217e+000
 1.184218332202131e+000	 3.080199172418236e+000	 8.892273841794365e+000
 1.153672049556212e+000	 3.091769849482220e+000	 8.866307709439715e+000
 1.123078706132471e+000	 3.103013731830141e+000	 8.836910776742712e+000
 1.092443285897879e+000	 3.113931223901138e+000	 8.803718191902419e+000
 1.061770742062806e+000	 3.124522826189546e+000	 8.766503559223830e+000
 1.031065994907260e+000	 3.134789133930934e+000	 8.777141057263304e+000
 1.000333929661179e+000	 3.144730835733749e+000	 8.785181227390531e+000
 9.695793944401758e-001	 3.154348712158921e+000	 8.790455558524338e+000
 9.388071982380237e-001	 3.163643634249695e+000	 8.795306155593019e+000
 9.080221089770787e-001	 3.172616562014134e+000	 8.802031462378645e+000
 1.223914909314336e+000	 3.091546101037260e+000	 8.738943491148316e+000
 1.193189683206180e+000	 3.103534014633252e+000	 8.719632206208706e+000
 1.162411989328381e+000	 3.115192348342218e+000	 8.695241794803495e+000
 1.131586878151666e+000	 3.126521411617498e+000	 8.673828979906903e+000
 1.100719371400335e+000	 3.137521611962162e+000	 8.697704508907254e+000
 1.069814459809078e+000	 3.148193453662171e+000	 8.710992188731616e+000
 1.038877100932751e+000	 3.158537536462453e+000	 8.716139220949321e+000
 1.007912217010611e+000	 3.168554554188189e+000	 8.715553152786509e+000
 9.769246928864194e-001	 3.178245293313647e+000	 8.711600539142898e+000
 9.459193739857209e-001	 3.187610631480885e+000	 8.706605709593964e+000
 9.149010643514963e-001	 3.196651535970757e+000	 8.702849638654874e+000
 1.233117277055205e+000	 3.114790808562941e+000	 8.605775140792263e+000
 1.202161034209630e+000	 3.126868856848071e+000	 8.600317006977674e+000
 1.171151929099864e+000	 3.138614847201867e+000	 8.645113932251398e+000
 1.140095050170102e+000	 3.150029091404384e+000	 8.673840155531451e+000
 1.108995456901967e+000	 3.161112000022622e+000	 8.688999448264141e+000
 1.077858177554471e+000	 3.171864081134169e+000	 8.693059046606622e+000
 1.046688206957320e+000	 3.182285938993312e+000	 8.688448127777216e+000
 1.015490504359086e+000	 3.192378272641967e+000	 8.677556394347766e+000
 9.842699913316823e-001	 3.202141874467737e+000	 8.662732765086840e+000
 9.530315497324234e-001	 3.211577628711497e+000	 8.646284170748176e+000
 9.217800197249140e-001	 3.220686509926887e+000	 8.630474452996809e+000
 1.242319644795568e+000	 3.138035516088611e+000	 8.603642915377922e+000
 1.211132385212480e+000	 3.150203699062697e+000	 8.657913360335078e+000
 1.179891868870664e+000	 3.162037346061168e+000	 8.693149553627054e+000
 1.148603222187779e+000	 3.173536771190796e+000	 8.711872390053523e+000
 1.117271542402776e+000	 3.184702388082517e+000	 8.716567913111955e+000
 1.085901895298987e+000	 3.195534708605540e+000	 8.709685710984468e+000
 1.054499312980967e+000	 3.206034341523514e+000	 8.693637421903372e+000
 1.023068791706606e+000	 3.216201991095081e+000	 8.670795347645042e+000
 9.916152897759646e-001	 3.226038455621191e+000	 8.643491173673535e+000
 9.601437254781305e-001	 3.235544625941529e+000	 8.614014794240902e+000
 9.286589750973320e-001	 3.244721483882524e+000	 8.584613240550958e+000
 1.251522012535427e+000	 3.161280223614271e+000	 8.726065697726023e+000
 1.220103736214729e+000	 3.173538541277126e+000	 8.756526978561933e+000
 1.188631808640779e+000	 3.185459844920121e+000	 8.780423571542446e+000
 1.157111394204698e+000	 3.197044450976737e+000	 8.787396745360415e+000
 1.125547627902762e+000	 3.208292776141848e+000	 8.779915370523648e+000
 1.093945613042626e+000	 3.219205336076284e+000	 8.760411900022302e+000
 1.062310419003692e+000	 3.229782744053054e+000	 8.731280904084505e+000
 1.030647079053169e+000	 3.240025709547535e+000	 8.694877713303567e+000
 9.989605882192663e-001	 3.249935036774010e+000	 8.653517168567664e+000
 9.672559012228426e-001	 3.259511623170983e+000	 8.609472476009570e+000
 9.355379304687495e-001	 3.268756457837667e+000	 8.564974164996061e+000
 1.260724380274781e+000	 3.184524931139920e+000	 8.949497422159254e+000
 1.229075087216379e+000	 3.196873383491363e+000	 8.895567991845438e+000
 1.197371748410209e+000	 3.208882343778725e+000	 8.906379907939730e+000
 1.165619566220857e+000	 3.220552130762207e+000	 8.899890821070111e+000
 1.133823713401924e+000	 3.231883164200613e+000	 8.878552969410647e+000
 1.101989330785387e+000	 3.242875963546400e+000	 8.844782169340459e+000
 1.070121525025495e+000	 3.253531146581935e+000	 8.800956379977107e+000
 1.038225366398776e+000	 3.263849427999325e+000	 8.749414376380862e+000
 1.006305886661588e+000	 3.273831617926194e+000	 8.692454529768474e+000
 9.743680769665595e-001	 3.283478620399857e+000	 8.632333692862515e+000
 9.424168858391672e-001	 3.292791431792316e+000	 8.571266188304518e+000
 1.269926748013629e+000	 3.207769638665559e+000	 9.203912625597871e+000
 1.238046438217428e+000	 3.220208225705404e+000	 9.074454513107247e+000
 1.206111688178954e+000	 3.232304842636979e+000	 9.070469621305060e+000
 1.174127738236257e+000	 3.244059810547205e+000	 9.048838517656849e+000
 1.142099798900264e+000	 3.255473552258815e+000	 9.011997334658947e+000
 1.110033048527270e+000	 3.266546591015890e+000	 8.962345736752088e+000
 1.077932631046376e+000	 3.277279549110157e+000	 8.902245515032281e+000
 1.045803653743427e+000	 3.287673146450452e+000	 8.834019290988534e+000
 1.013651185102928e+000	 3.297728199077742e+000	 8.759949327510874e+000
 9.814802527092813e-001	 3.307445617628152e+000	 8.682276445200824e+000
 9.492958412085848e-001	 3.316826405746471e+000	 8.603199041818979e+000
 1.279129115751972e+000	 3.231014346191188e+000	 9.488518556281388e+000
 1.247017789217878e+000	 3.243543067919251e+000	 9.292612350854643e+000
 1.214851627947015e+000	 3.255727341494886e+000	 9.272150649958281e+000
 1.182635910250898e+000	 3.267567490331730e+000	 9.233729809801652e+000
 1.150375884397780e+000	 3.279063940316452e+000	 9.179770370151818e+000
 1.118076766268276e+000	 3.290217218484751e+000	 9.112656314558436e+000
 1.085743737066336e+000	 3.301027951637718e+000	 9.034733695654200e+000
 1.053381941087122e+000	 3.311496864900918e+000	 8.948309369894684e+000
 1.020996483543289e+000	 3.321624780228656e+000	 8.855649839882670e+000
 9.885924284510078e-001	 3.331412614855867e+000	 8.758980202213136e+000
 9.561747965770026e-001	 3.340861379700133e+000	 8.660483198576884e+000
 1.288331483489811e+000	 3.254259053716808e+000	 9.802530679283207e+000
 1.255989140217728e+000	 3.266877910132902e+000	 9.589684393698359e+000
 1.223591567714392e+000	 3.279149840352444e+000	 9.510887566344666e+000
 1.191144082264780e+000	 3.291075170115785e+000	 9.454060529456330e+000
 1.158651969894472e+000	 3.302654328373524e+000	 9.381399070234162e+000
 1.126120484008404e+000	 3.313887845952988e+000	 9.295271949031353e+000
 1.093554843085374e+000	 3.324776354164621e+000	 9.198009896308994e+000
 1.060960228429861e+000	 3.335320583350721e+000	 9.091904378857723e+000
 1.028341781982669e+000	 3.345521361378934e+000	 8.979206473972887e+000
 9.957046041917395e-001	 3.355379612083005e+000	 8.862125849418579e+000
 9.630537519444204e-001	 3.364896353653301e+000	 8.742829846821641e+000
 8.942641982252435e-001	 3.124546614099404e+000	 9.084607886427024e+000
 8.639375053716756e-001	 3.133067504330197e+000	 9.020100270745880e+000
 8.336073774350107e-001	 3.141273426516435e+000	 8.942165269164841e+000
 8.032783778144554e-001	 3.149165579572984e+000	 8.850282010427485e+000
 7.729550223703781e-001	 3.156745243634213e+000	 8.746525431723784e+000
 7.426417778035712e-001	 3.164013778361765e+000	 8.632947287371207e+000
 7.123430600964783e-001	 3.170972621219919e+000	 8.511575093473656e+000
 6.820632330168482e-001	 3.177623285720976e+000	 8.384411138083161e+000
 6.518066066841973e-001	 3.183967359642995e+000	 8.253431555431160e+000
 6.215774361993552e-001	 3.190006503222291e+000	 8.212397361849398e+000
 5.913799203372813e-001	 3.195742447322996e+000	 9.146421085751706e+000
 9.011431536016610e-001	 3.148581588057016e+000	 8.928313449177180e+000
 8.705831784952053e-001	 3.157168023597005e+000	 8.854973034765486e+000
 8.400197418818312e-001	 3.165437068261379e+000	 8.773792068343125e+000
 8.094574422638172e-001	 3.173389930187423e+000	 8.686841856453867e+000
 7.789008302389195e-001	 3.181027899356694e+000	 8.596164398567977e+000
 7.483544068671691e-001	 3.188352345889771e+000	 8.503771437894896e+000
 7.178226221001058e-001	 3.195364718308350e+000	 8.411643584811312e+000
 6.873098732729234e-001	 3.202066541767132e+000	 8.321729511116036e+000
 6.568205036599052e-001	 3.208459416257858e+000	 8.235945213238793e+000
 6.263588010934262e-001	 3.214545014787885e+000	 8.156173342453169e+000
 5.959289966467158e-001	 3.220325081535687e+000	 9.043637397475282e+000
 9.080221089770787e-001	 3.172616562014134e+000	 8.802031462378645e+000
 8.772288516177454e-001	 3.181268542863414e+000	 8.717482352773239e+000
 8.464321063276931e-001	 3.189600710006008e+000	 8.633194738635575e+000
 8.156365067122720e-001	 3.197614280801620e+000	 8.551214827360168e+000
 7.848466381066261e-001	 3.205310555079000e+000	 8.473552313034036e+000
 7.540670359300243e-001	 3.212690913417655e+000	 8.402179599478584e+000
 7.233021841031027e-001	 3.219756815396704e+000	 8.339031101650564e+000
 6.925565135285002e-001	 3.226509797813246e+000	 8.286002623174628e+000
 6.618344006352661e-001	 3.232951472872700e+000	 8.244950807692927e+000
 6.311401659873216e-001	 3.239083526353474e+000	 8.217692661645407e+000
 6.004780729561651e-001	 3.244907715748377e+000	 8.981799755647300e+000
 9.149010643514963e-001	 3.196651535970757e+000	 8.702849638654874e+000
 8.838745247392960e-001	 3.205369062129424e+000	 8.607327639410471e+000
 8.528444707725966e-001	 3.213764351750323e+000	 8.520069387461749e+000
 8.218155711598199e-001	 3.221838631415581e+000	 8.443096561561513e+000
 7.907924459734982e-001	 3.229593210801129e+000	 8.378387159568346e+000
 7.597796649921370e-001	 3.237029480945417e+000	 8.327874892987769e+000
 7.287817461054693e-001	 3.244148912484980e+000	 8.293448665596896e+000
 6.978031537835786e-001	 3.250953053859316e+000	 8.276952133484071e+000
 6.668482976102803e-001	 3.257443529487524e+000	 8.280183343750428e+000
 6.359215308810411e-001	 3.263622037919058e+000	 8.304894449049938e+000
 6.050271492656288e-001	 3.269490349961068e+000	 8.959354882204083e+000
 9.217800197249140e-001	 3.220686509926887e+000	 8.630474452996809e+000
 8.905201978598567e-001	 3.229469581395036e+000	 8.524209585934861e+000
 8.592568352165415e-001	 3.237927993494322e+000	 8.434113703018648e+000
 8.279946356064608e-001	 3.246062982029299e+000	 8.362184503674932e+000
 7.967382538395349e-001	 3.253875866523083e+000	 8.310368876026589e+000
 7.654922940535067e-001	 3.261368048473058e+000	 8.280562462248289e+000
 7.342613081072050e-001	 3.268541009573177e+000	 8.274609313708856e+000
 7.030497940381583e-001	 3.275396309905343e+000	 8.294301632793371e+000
 6.718621945849477e-001	 3.281935586102328e+000	 8.341379598213194e+000
 6.407028957745850e-001	 3.288160549484636e+000	 8.417531270544560e+000
 6.095762255751076e-001	 3.294072984173759e+000	 8.974750727182416e+000
 9.286589750973320e-001	 3.244721483882524e+000	 8.584613240550958e+000
 8.971658709794282e-001	 3.253570100660248e+000	 8.467830112938220e+000
 8.656691996595282e-001	 3.262091635238010e+000	 8.375026895733473e+000
 8.341737000521949e-001	 3.270287332642776e+000	 8.308177837622608e+000
 8.026840617047367e-001	 3.278158522244860e+000	 8.269199281325157e+000
 7.712049231141337e-001	 3.285706616000578e+000	 8.259949399121741e+000
 7.397408701083105e-001	 3.292933106661296e+000	 8.282228023851980e+000
 7.082964342922399e-001	 3.299839565951326e+000	 8.337776571837781e+000
 6.768760915592682e-001	 3.306427642717112e+000	 8.428278054104114e+000
 6.454842606679531e-001	 3.312699061050211e+000	 8.555357172199990e+000
 6.141253018846009e-001	 3.318655618386451e+000	 9.026436423234653e+000
 9.355379304687495e-001	 3.268756457837667e+000	 8.564974164996061e+000
 9.038115440980098e-001	 3.277670619925062e+000	 8.437892325150690e+000
 8.720815641015560e-001	 3.286255276981380e+000	 8.342509642299323e+000
 8.403527644970221e-001	 3.294511683256015e+000	 8.280777422686899e+000
 8.086298695691041e-001	 3.302441177966462e+000	 8.254582006284529e+000
 7.769175521740184e-001	 3.310045183527975e+000	 8.265744671886742e+000
 7.452204321087853e-001	 3.317325203749339e+000	 8.316021643345311e+000
 7.135430745458224e-001	 3.324282821997265e+000	 8.407104192956775e+000
 6.818899885332419e-001	 3.330919699331877e+000	 8.540618837938476e+000
 6.502656255611453e-001	 3.337237572615781e+000	 8.718127625860847e+000
 6.186743781941089e-001	 3.343238252599141e+000	 9.112862242150085e+000
 9.424168858391672e-001	 3.292791431792316e+000	 8.571266188304518e+000
 9.104572172156019e-001	 3.301771139189477e+000	 8.434100468223715e+000
 8.784939285426255e-001	 3.310418918724437e+000	 8.336264032161699e+000
 8.465318289409427e-001	 3.318736033869013e+000	 8.279685732366092e+000
 8.145756774326362e-001	 3.326723833687888e+000	 8.266222427501624e+000
 7.826301812331601e-001	 3.334383751055250e+000	 8.297659056756380e+000
 7.506999941086296e-001	 3.341717300837304e+000	 8.375708820733390e+000
 7.187897147989066e-001	 3.348726078043160e+000	 8.502013464707193e+000
 6.869038855068688e-001	 3.355411755946624e+000	 8.678143659742357e+000
 6.550469904541620e-001	 3.361776084181345e+000	 8.905599477110275e+000
 6.232234545036314e-001	 3.367820886811832e+000	 9.232479553280404e+000
 9.492958412085848e-001	 3.316826405746471e+000	 8.603199041818979e+000
 9.171028903322046e-001	 3.325871658453493e+000	 8.456159887392378e+000
 8.849062929827364e-001	 3.334582560467181e+000	 8.355993516331818e+000
 8.527108933839563e-001	 3.342960384481772e+000	 8.304606795887935e+000
 8.205214852953338e-001	 3.351006489409138e+000	 8.303827604096654e+000
 7.883428102915590e-001	 3.358722318582403e+000	 8.355405072373292e+000
 7.561795561078435e-001	 3.366109397925190e+000	 8.461009940524505e+000
 7.240363550514924e-001	 3.373169334089013e+000	 8.622235019318852e+000
 6.919177824801487e-001	 3.379903812561350e+000	 8.840595755679278e+000
 6.598283553470030e-001	 3.386314595746905e+000	 9.117530895496646e+000
 6.277725308131688e-001	 3.392403521024523e+000	 9.454403239021465e+000
 9.561747965770026e-001	 3.340861379700133e+000	 8.660483198576884e+000
 9.237485634478174e-001	 3.349972177717110e+000	 8.503776987922318e+000
 8.913186574218889e-001	 3.358746202209609e+000	 8.401402858409657e+000
 8.588899578260627e-001	 3.367184735094290e+000	 8.355246142248493e+000
 8.264672931571961e-001	 3.375289145130212e+000	 8.367106217190965e+000
 7.940554393492153e-001	 3.383060886109435e+000	 8.438696917132583e+000
 7.616591181064267e-001	 3.390501495012999e+000	 8.571647060745587e+000
 7.292829953035798e-001	 3.397612590134821e+000	 8.767501092850619e+000
 6.969316794530819e-001	 3.404395869176058e+000	 9.027719833152817e+000
 6.646097202396681e-001	 3.410853107312460e+000	 9.353681326908959e+000
 6.323216071227208e-001	 3.416986155237214e+000	 9.746681792051371e+000
 9.630537519444204e-001	 3.364896353653301e+000	 8.742829846821641e+000
 9.303942365624410e-001	 3.374072696980329e+000	 8.576659197251006e+000
 8.977310218600831e-001	 3.382909843951724e+000	 8.472198087705525e+000
 8.650690222672628e-001	 3.391409085706569e+000	 8.431310746648666e+000
 8.324131010182240e-001	 3.399571800851111e+000	 8.455768511978430e+000
 7.997680684061290e-001	 3.407399453636346e+000	 8.547250409190434e+000
 7.671386801043798e-001	 3.414893592100731e+000	 8.707343853174143e+000
 7.345296355551686e-001	 3.422055846180586e+000	 8.937545467910441e+000
 7.019455764256682e-001	 3.428887925790746e+000	 9.239262018262689e+000
 6.693910851321578e-001	 3.435391618878011e+000	 9.613811447993340e+000
 6.368706834322875e-001	 3.441568789449906e+000	 1.006242401810219e+001
 5.913799203372813e-001	 3.195742447322996e+000	 9.146421085751706e+000
 5.612182003031748e-001	 3.201176991585784e+000	 8.836656105485425e+000
 5.310963585522425e-001	 3.206312002558782e+000	 8.554076951794867e+000
 5.010184176725820e-001	 3.211149411812480e+000	 8.281232224847686e+000
 4.709883393310333e-001	 3.215691214040371e+000	 8.003419095142485e+000
 4.410100232820745e-001	 3.219939465148238e+000	 7.708640707469546e+000
 4.110873064392894e-001	 3.223896280334043e+000	 7.387559088449796e+000
 3.812239620090096e-001	 3.227563832160543e+000	 7.033443796737881e+000
 3.514236986856603e-001	 3.230944348622705e+000	 6.642116558595396e+000
 3.216901599082681e-001	 3.234040111211980e+000	 6.211892134275566e+000
 2.920269231775196e-001	 3.236853452979430e+000	 5.743515662576112e+000
 5.959289966467158e-001	 3.220325081535687e+000	 9.043637397475282e+000
 5.655352633805315e-001	 3.225801429985276e+000	 8.656050202168931e+000
 5.351817151537136e-001	 3.230975941042790e+000	 8.314958652987009e+000
 5.048724054973434e-001	 3.235850561136954e+000	 8.002327885836804e+000
 4.746113265526199e-001	 3.240427300305057e+000	 7.702913317311721e+000
 4.444024080721314e-001	 3.244708230267543e+000	 7.404217791045650e+000
 4.142495164841800e-001	 3.248695482493130e+000	 7.096444133133198e+000
 3.841564540197597e-001	 3.252391246256593e+000	 6.772443359827405e+000
 3.541269579017129e-001	 3.255797766691324e+000	 6.427658784445042e+000
 3.241646995955189e-001	 3.258917342838710e+000	 6.060066273253156e+000
 2.942732841210988e-001	 3.261752325696358e+000	 5.670110902083303e+000
 6.004780729561651e-001	 3.244907715748377e+000	 8.981799755647300e+000
 5.698523264580873e-001	 3.250425868384768e+000	 8.531091583943672e+000
 5.392670717555369e-001	 3.255639879526798e+000	 8.144470109677375e+000
 5.087263933225795e-001	 3.260551710461429e+000	 7.803313083924055e+000
 4.782343137747732e-001	 3.265163386569743e+000	 7.491832145947106e+000
 4.477947928628168e-001	 3.269476995386850e+000	 7.197029679936327e+000
 4.174117265297304e-001	 3.273494684652216e+000	 6.908650984063665e+000
 3.870889460311714e-001	 3.277218660352643e+000	 6.619131999308971e+000
 3.568302171183997e-001	 3.280651184759944e+000	 6.323542849350605e+000
 3.266392392833471e-001	 3.283794574465440e+000	 6.019527445737499e+000
 2.965196450651695e-001	 3.286651198413287e+000	 5.707239414617328e+000
 6.050271492656288e-001	 3.269490349961068e+000	 8.959354882204083e+000
 5.741693895358421e-001	 3.275050306784259e+000	 8.460224411652488e+000
 5.433524283577125e-001	 3.280303818010806e+000	 8.041057278316984e+000
 5.125803811482904e-001	 3.285252859785902e+000	 7.682639781520945e+000
 4.818573009974933e-001	 3.289899472834431e+000	 7.368637619636479e+000
 4.511871776541301e-001	 3.294245760506156e+000	 7.085552425198325e+000
 4.205739365759406e-001	 3.298293886811303e+000	 6.822673513331033e+000
 3.900214380432449e-001	 3.302046074448694e+000	 6.572025095316425e+000
 3.595334763357207e-001	 3.305504602828564e+000	 6.328309213076277e+000
 3.291137789717527e-001	 3.308671806092170e+000	 6.088844653366405e+000
 2.987660060097320e-001	 3.311550071130214e+000	 5.853502102607203e+000
 6.095762255751076e-001	 3.294072984173759e+000	 8.974750727182416e+000
 5.784864526137959e-001	 3.299674745183752e+000	 8.441899841270713e+000
 5.474377849602403e-001	 3.304967756494813e+000	 8.003178388574188e+000
 5.164343689744760e-001	 3.309954009110376e+000	 7.638777005605616e+000
 4.854802882207799e-001	 3.314635559099118e+000	 7.331813148605618e+000
 4.545795624460718e-001	 3.319014525625462e+000	 7.068287275015299e+000
 4.237361466228107e-001	 3.323093088970390e+000	 6.837034136992837e+000
 3.929539300559801e-001	 3.326873488544743e+000	 6.629669443300255e+000
 3.622367355536756e-001	 3.330358020897183e+000	 6.440532149940585e+000
 3.315883186607355e-001	 3.333549037718900e+000	 6.266622643051189e+000
 3.010123669547862e-001	 3.336448943847143e+000	 6.107537079756459e+000
 6.141253018846009e-001	 3.318655618386451e+000	 9.026436423234653e+000
 5.828035156919487e-001	 3.324299183583244e+000	 8.474575764827051e+000
 5.515231415631204e-001	 3.329631694978822e+000	 8.029303488771364e+000
 5.202883568011361e-001	 3.334655158434850e+000	 7.670210215702276e+000
 4.891032754446331e-001	 3.339371645363804e+000	 7.379862723175720e+000
 4.579719472386417e-001	 3.343783290744768e+000	 7.143759741471405e+000
 4.268983566703405e-001	 3.347892291129476e+000	 6.950282757890579e+000
 3.958864220693771e-001	 3.351700902640793e+000	 6.790642090497538e+000
 3.649399947722648e-001	 3.355211438965803e+000	 6.658818496425263e+000
 3.340628583502958e-001	 3.358426269345630e+000	 6.551500583077853e+000
 3.032587279003322e-001	 3.361347816564072e+000	 6.468018292849047e+000
 6.186743781941089e-001	 3.343238252599141e+000	 9.112862242150085e+000
 5.871205787703006e-001	 3.348923621982736e+000	 8.556716562754362e+000
 5.556084981663528e-001	 3.354295633462829e+000	 8.117914011375154e+000
 5.241423446282711e-001	 3.359356307759325e+000	 7.775440699742798e+000
 4.927262626690530e-001	 3.364107731628490e+000	 7.511310157142167e+000
 4.613643320318399e-001	 3.368552055864073e+000	 7.310518708496450e+000
 4.300605667185303e-001	 3.372691493288563e+000	 7.160995755105452e+000
 3.988189140834356e-001	 3.376528316736844e+000	 7.053549223734287e+000
 3.676432539914879e-001	 3.380064857034423e+000	 6.981806454037656e+000
 3.365373980404333e-001	 3.383303500972360e+000	 6.942150797615532e+000
 3.055050888463698e-001	 3.386246689281000e+000	 6.933654204355522e+000
 6.232234545036314e-001	 3.367820886811832e+000	 9.232479553280404e+000
 5.914376418488513e-001	 3.373548060382227e+000	 8.686792867086952e+000
 5.596938547699376e-001	 3.378959571946838e+000	 8.267502357516978e+000
 5.279963324558809e-001	 3.384057457083798e+000	 7.952984996388306e+000
 4.963492498940393e-001	 3.388843817893177e+000	 7.724698364290147e+000
 4.647567168256663e-001	 3.393320820983380e+000	 7.567135578878149e+000
 4.332227767673799e-001	 3.397490695447649e+000	 7.467775017672891e+000
 4.017514060981558e-001	 3.401355730832893e+000	 7.417025105936017e+000
 3.703465132113452e-001	 3.404918275103042e+000	 7.408164444601053e+000
 3.390119377311482e-001	 3.408180732599090e+000	 7.437277556647032e+000
 3.077514497928993e-001	 3.411145561997928e+000	 7.503186532737265e+000
 6.277725308131688e-001	 3.392403521024523e+000	 9.454403239021465e+000
 5.957547049276010e-001	 3.398172498781718e+000	 8.863281334952758e+000
 5.637792113738745e-001	 3.403623510430845e+000	 8.476571499577659e+000
 5.318503202839654e-001	 3.408758606408272e+000	 8.201374342465796e+000
 4.999722371195925e-001	 3.413579904157864e+000	 8.018588666365970e+000
 4.681491016201209e-001	 3.418089586102686e+000	 7.912203458361883e+000
 4.363849868168893e-001	 3.422289897606736e+000	 7.869247020308576e+000
 4.046838981135377e-001	 3.426183144928944e+000	 7.879731058878344e+000
 3.730497724318366e-001	 3.429771693171661e+000	 7.936590015316122e+000
 3.414864774224405e-001	 3.433057964225819e+000	 8.035615918512715e+000
 3.099978107399203e-001	 3.436044434714856e+000	 8.175389047518976e+000
 6.323216071227208e-001	 3.416986155237214e+000	 9.746681792051371e+000
 6.000717680065499e-001	 3.422796937181211e+000	 9.084664431843615e+000
 5.678645679781637e-001	 3.428287448914853e+000	 8.743634600926216e+000
 5.357043081125246e-001	 3.433459755732747e+000	 8.519154144257509e+000
 5.035952243457120e-001	 3.438315990422550e+000	 8.391560130920260e+000
 4.715414864152037e-001	 3.442858351221992e+000	 8.344336374968760e+000
 4.395471968670585e-001	 3.447089099765823e+000	 8.364061939031435e+000
 4.076163901295813e-001	 3.451010559024994e+000	 8.440354489846730e+000
 3.757530316529621e-001	 3.454625111240281e+000	 8.565808791084860e+000
 3.439610171143100e-001	 3.457935195852549e+000	 8.735930622415241e+000
 3.122441716874331e-001	 3.460943307431786e+000	 8.949066416372302e+000
 6.368706834322875e-001	 3.441568789449906e+000	 1.006242401810219e+001
 6.043888310856980e-001	 3.447421375580705e+000	 9.349430224173776e+000
 5.719499245828054e-001	 3.452951387398861e+000	 9.067214651956517e+000
 5.395582959415586e-001	 3.458160905057220e+000	 8.904883471448885e+000
 5.072182115723986e-001	 3.463052076687237e+000	 8.842208937528881e+000
 4.749338712109150e-001	 3.467627116341299e+000	 8.862168531770985e+000
 4.427094069178876e-001	 3.471888301924910e+000	 8.950892804688373e+000
 4.105488821462868e-001	 3.475837973121044e+000	 9.097607960011432e+000
 3.784562908747218e-001	 3.479478529308901e+000	 9.294573471736614e+000
 3.464355568067571e-001	 3.482812427479281e+000	 9.537015028388735e+000
 3.144905326354376e-001	 3.485842180148714e+000	 9.823053101612096e+000
 2.920269231775196e-001	 3.236853452979430e+000	 5.743515662576112e+000
 2.624374994324514e-001	 3.239386756599464e+000	 5.181463935858985e+000
 2.329253324867810e-001	 3.241642452436632e+000	 4.530044758123991e+000
 2.034937985235931e-001	 3.243623016616949e+000	 3.798141711618099e+000
 1.741462056470118e-001	 3.245330969105183e+000	 2.996811008295521e+000
 1.448857934907254e-001	 3.246768871790384e+000	 2.139203257501384e+000
 1.157157328821547e-001	 3.247939326581152e+000	 1.240483210030177e+000
 8.663912556126928e-002	 3.248844973512246e+000	 3.177477199647708e-001
 5.765900395300648e-002	 3.249488488864120e+000	-6.100578381659261e-001
 2.877833099221489e-002	 3.249872583296864e+000	-1.522224463767343e+000
 0.000000000000000e+000	 3.250000000000000e+000	-2.396365507881706e+000
 2.942732841210988e-001	 3.261752325696358e+000	 5.670110902083303e+000
 2.644562494246240e-001	 3.264305116266987e+000	 5.216087695239285e+000
 2.347170658106003e-001	 3.266578163610304e+000	 4.684445863054365e+000
 2.050591354327515e-001	 3.268573962899444e+000	 4.083745735596957e+000
 1.754857918421566e-001	 3.270295053483519e+000	 3.424761619499453e+000
 1.460002995927630e-001	 3.271744016958421e+000	 2.720402542071442e+000
 1.166058539029721e-001	 3.272923475247427e+000	 1.985630914919911e+000
 8.730558037229162e-002	 3.273836088693260e+000	 1.237379363177122e+000
 5.810253475200487e-002	 3.274484554163141e+000	 4.944659625298409e-001
 2.899970276876704e-002	 3.274871603168394e+000	-2.224918782086832e-001
 0.000000000000000e+000	 3.275000000000000e+000	-8.911646562249361e-001
 2.965196450651695e-001	 3.286651198413287e+000	 5.707239414617328e+000
 2.664749994171937e-001	 3.289223475934511e+000	 5.353426766924418e+000
 2.365087991347322e-001	 3.291513874783975e+000	 4.932137715344194e+000
 2.066244723421483e-001	 3.293524909181938e+000	 4.451624058731293e+000
 1.768253780374759e-001	 3.295259137861856e+000	 3.922394350423448e+000
 1.471148056949214e-001	 3.296719162126458e+000	 3.357133570244302e+000
 1.174959749238665e-001	 3.297907623913702e+000	 2.770620658231716e+000
 8.797203518335717e-002	 3.298827203874272e+000	 2.179644160986938e+000
 5.854606555102237e-002	 3.299480619462162e+000	 1.602916237629452e+000
 2.922107454532396e-002	 3.299870623039924e+000	 1.060985267801313e+000
 0.000000000000000e+000	 3.300000000000000e+000	 5.761472991344210e-001
 2.987660060097320e-001	 3.311550071130214e+000	 5.853502102607203e+000
 2.684937494101602e-001	 3.314141835602035e+000	 5.592238467303424e+000
 2.383005324591768e-001	 3.316449585957646e+000	 5.272035630145171e+000
 2.081898092517838e-001	 3.318475855464432e+000	 4.900851463472664e+000
 1.781649642329699e-001	 3.320223222240192e+000	 4.488944810109731e+000
 1.482293117972007e-001	 3.321694307294493e+000	 4.048794034613576e+000
 1.183860959448380e-001	 3.322891772579979e+000	 3.595013377517740e+000
 8.863848999446590e-002	 3.323818319055284e+000	 3.144267368419526e+000
 5.898959635005902e-002	 3.324476684761183e+000	 2.715183549760300e+000
 2.944244632188565e-002	 3.324869642911456e+000	 2.328263758597525e+000
 0.000000000000000e+000	 3.324999999999999e+000	 2.005794208527301e+000
 3.010123669547862e-001	 3.336448943847143e+000	 6.107537079756459e+000
 2.705124994035238e-001	 3.339060195269558e+000	 5.931314709873427e+000
 2.400922657839339e-001	 3.341385297131319e+000	 5.703086496348553e+000
 2.097551461616577e-001	 3.343426801746927e+000	 5.430530878730068e+000
 1.795045504286384e-001	 3.345187306618529e+000	 5.123672928298388e+000
 1.493438178996009e-001	 3.346669452462530e+000	 4.794801729787316e+000
 1.192762169658866e-001	 3.347875921246255e+000	 4.458385506436605e+000
 8.930494480561785e-002	 3.348809434236297e+000	 4.130984749271180e+000
 5.943312714911481e-002	 3.349472750060204e+000	 3.831163607477110e+000
 2.966381809845210e-002	 3.349868662782986e+000	 3.579399792111295e+000
 0.000000000000000e+000	 3.350000000000000e+000	 3.397993240183813e+000
 3.032587279003322e-001	 3.361347816564072e+000	 6.468018292849047e+000
 2.725312493972843e-001	 3.363978554937082e+000	 6.369480723864544e+000
 2.418839991090036e-001	 3.366321008304990e+000	 6.224267607186984e+000
 2.113204830717700e-001	 3.368377748029420e+000	 6.039792337410729e+000
 1.808441366244817e-001	 3.370151390996865e+000	 5.825862054658537e+000
 1.504583240021218e-001	 3.371644597630567e+000	 5.594593807873659e+000
 1.201663379870122e-001	 3.372860069912530e+000	 5.360328400823591e+000
 8.997139961681300e-002	 3.373800549417310e+000	 5.139542186895230e+000
 5.987665794818972e-002	 3.374468815359224e+000	 4.950757074670550e+000
 2.988518987502332e-002	 3.374867682654516e+000	 4.814449001588784e+000
 0.000000000000000e+000	 3.375000000000000e+000	 4.752955127720651e+000
 3.055050888463698e-001	 3.386246689281000e+000	 6.933654204355522e+000
 2.745499993914417e-001	 3.388896914604605e+000	 6.905593829399676e+000
 2.436757324343858e-001	 3.391256719478660e+000	 6.834585542427456e+000
 2.128858199821210e-001	 3.393328694311915e+000	 6.727791979946829e+000
 1.821837228204996e-001	 3.395115475375202e+000	 6.594818097763529e+000
 1.515728301047637e-001	 3.396619742798604e+000	 6.447626066804321e+000
 1.210564590082149e-001	 3.397844218578805e+000	 6.300447790080513e+000
 9.063785442805133e-002	 3.398791664598324e+000	 6.169695312158782e+000
 6.032018874728375e-002	 3.399464880658245e+000	 6.073869388387523e+000
 3.010656165159930e-002	 3.399866702526048e+000	 6.033466476351721e+000
 0.000000000000000e+000	 3.400000000000000e+000	 6.070884406706844e+000
 3.077514497928993e-001	 3.411145561997928e+000	 7.503186532737265e+000
 2.765687493859962e-001	 3.413815274272130e+000	 7.538542266290648e+000
 2.454674657600808e-001	 3.416192430652333e+000	 7.533075099519244e+000
 2.144511568927105e-001	 3.418279640594409e+000	 7.493711101468443e+000
 1.835233090166920e-001	 3.420079559753539e+000	 7.429868701772147e+000
 1.526873362075264e-001	 3.421594887966640e+000	 7.353372269832994e+000
 1.219465800294947e-001	 3.422828367245081e+000	 7.278363252593725e+000
 9.130430923933289e-002	 3.423782779779336e+000	 7.221209147695553e+000
 6.076371954639694e-002	 3.424460945957267e+000	 7.200410584626273e+000
 3.032793342818005e-002	 3.424865722397579e+000	 7.236506781650552e+000
 0.000000000000000e+000	 3.425000000000000e+000	 7.351979640869306e+000
 3.099978107399203e-001	 3.436044434714856e+000	 8.175389047518976e+000
 2.785874993809475e-001	 3.438733633939654e+000	 8.267244073762248e+000
 2.472591990860882e-001	 3.441128141826003e+000	 8.318798271216229e+000
 2.160164938035385e-001	 3.443230586876904e+000	 8.336755240400022e+000
 1.848628952130592e-001	 3.445043644131875e+000	 8.330362458907683e+000
 1.538018423104099e-001	 3.446570033134677e+000	 8.311323494615111e+000
 1.228367010508516e-001	 3.447812515911356e+000	 8.293707713959631e+000
 9.197076405065760e-002	 3.448773894960349e+000	 8.293857767622084e+000
 6.120725034552924e-002	 3.449457011256287e+000	 8.330295131711226e+000
 3.054930520476556e-002	 3.449864742269109e+000	 8.423623977650719e+000
 0.000000000000000e+000	 3.449999999999999e+000	 8.596433638465820e+000
 3.122441716874331e-001	 3.460943307431786e+000	 8.949066416372302e+000
 2.806062493762958e-001	 3.463651993607177e+000	 9.090646018529798e+000
 2.490509324124082e-001	 3.466063852999674e+000	 9.190843267326139e+000
 2.175818307146049e-001	 3.468181533159398e+000	 9.256153306400625e+000
 1.862024814096009e-001	 3.470007728510212e+000	 9.295668155930777e+000
 1.549163484134143e-001	 3.471545178302714e+000	 9.320987510390012e+000
 1.237268220722855e-001	 3.472796664577632e+000	 9.346126966867860e+000
 9.263721886202557e-002	 3.473765010141362e+000	 9.387423971947410e+000
 6.165078114468067e-002	 3.474453076555308e+000	 9.463441770852183e+000
 3.077067698135585e-002	 3.474863762140640e+000	 9.594871637600058e+000
 0.000000000000000e+000	 3.474999999999999e+000	 9.804433659313974e+000
 3.144905326354376e-001	 3.485842180148714e+000	 9.823053101612096e+000
 2.826249993720412e-001	 3.488570353274702e+000	 1.000772256881668e+001
 2.508426657390410e-001	 3.490999564173347e+000	 1.014832357838813e+001
 2.191471676259100e-001	 3.493132479441893e+000	 1.025115674567584e+001
 1.875420676063174e-001	 3.494971812888549e+000	 1.032517405290539e+001
 1.560308545165396e-001	 3.496520323470751e+000	 1.038188818185170e+001
 1.246169430937966e-001	 3.497780813243908e+000	 1.043527921156356e+001
 9.330367367343673e-002	 3.498756125322376e+000	 1.050169897493218e+001
 6.209431194385126e-002	 3.499449141854330e+000	 1.059977336354500e+001
 3.099204875795090e-002	 3.499862782012171e+000	 1.075030286522174e+001
 0.000000000000000e+000	 3.500000000000000e+000	 1.097616161295174e+001
 3.500000000000000e+000	 0.000000000000000e+000	 1.013144643463067e+001
 3.499862782012172e+000	 3.099204875794991e-002	 1.022624229621188e+001
 3.499449141854330e+000	 6.209431194385037e-002	 1.030028551639486e+001
 3.498756125322376e+000	 9.330367367343595e-002	 1.035693589472175e+001
 3.497780813243908e+000	 1.246169430937959e-001	 1.039929183202644e+001
 3.496520323470751e+000	 1.560308545165391e-001	 1.043017479248572e+001
 3.494971812888549e+000	 1.875420676063169e-001	 1.045211384057812e+001
 3.493132479441893e+000	 2.191471676259096e-001	 1.046733029136502e+001
 3.490999564173347e+000	 2.508426657390407e-001	 1.047772251368442e+001
 3.488570353274701e+000	 2.826249993720411e-001	 1.048485092695419e+001
 3.485842180148715e+000	 3.144905326354376e-001	 1.048992323330544e+001
 3.525000000000000e+000	 0.000000000000000e+000	 1.024674835727280e+001
 3.524861801883700e+000	 3.121342053454733e-002	 1.033782553833386e+001
 3.524445207153342e+000	 6.253784274303052e-002	 1.040611606547986e+001
 3.523747240503367e+000	 9.397012848486869e-002	 1.045516492723228e+001
 3.522764961910145e+000	 1.255070641153454e-001	 1.048825488573594e+001
 3.521495468638727e+000	 1.571453606197247e-001	 1.050839062405112e+001
 3.519935897266799e+000	 1.888816538031206e-001	 1.051828296482421e+001
 3.518083425724269e+000	 2.207125045373338e-001	 1.052033319939447e+001
 3.515935275346863e+000	 2.526343990658297e-001	 1.051661756759823e+001
 3.513488712942027e+000	 2.846437493679848e-001	 1.050887192966739e+001
 3.510741052865397e+000	 3.167368935836880e-001	 1.049847667266923e+001
 3.549999999999999e+000	 0.000000000000000e+000	 1.034470828558316e+001
 3.549860821755223e+000	 3.143479231114475e-002	 1.043233072216188e+001
 3.549441272452333e+000	 6.298137354221063e-002	 1.049536601339402e+001
 3.548738355684315e+000	 9.463658329630142e-002	 1.053754753999094e+001
 3.547749110576306e+000	 1.263971851368950e-001	 1.056234545219325e+001
 3.546470613806582e+000	 1.582598667229104e-001	 1.057295049394113e+001
 3.544899981644873e+000	 1.902212399999243e-001	 1.057225789493455e+001
 3.543034372006405e+000	 2.222778414487581e-001	 1.056285137029828e+001
 3.540870986520065e+000	 2.544261323926186e-001	 1.054698726880518e+001
 3.538407072608955e+000	 2.866624993639286e-001	 1.052657891177086e+001
 3.535639925581588e+000	 3.189832545319382e-001	 1.050318116581122e+001
 3.574999999999999e+000	 0.000000000000000e+000	 1.042607978967111e+001
 3.574859841626743e+000	 3.165616408774217e-002	 1.051041372431785e+001
 3.574437337751306e+000	 6.342490434139073e-002	 1.056859284142814e+001
 3.573729470865220e+000	 9.530303810773416e-002	 1.060454215256800e+001
 3.572733259242388e+000	 1.272873061584445e-001	 1.062192225854929e+001
 3.571445758974317e+000	 1.593743728260961e-001	 1.062411284207815e+001
 3.569864066022773e+000	 1.915608261967280e-001	 1.061419622484025e+001
 3.567985318288304e+000	 2.238431783601823e-001	 1.059494102941883e+001
 3.565806697692955e+000	 2.562178657194075e-001	 1.056878598770329e+001
 3.563325432275486e+000	 2.886812493598723e-001	 1.053782393863848e+001
 3.560538798297286e+000	 3.212296154801885e-001	 1.050378605927032e+001
 3.600000000000000e+000	 0.000000000000000e+000	 1.049159550714295e+001
 3.599858861498257e+000	 3.187753586433959e-002	 1.057271139832455e+001
 3.599433403050260e+000	 6.386843514057089e-002	 1.062633697665105e+001
 3.598720586046081e+000	 9.596949291916691e-002	 1.065659215856683e+001
 3.597717407908394e+000	 1.281774271799941e-001	 1.066733109349408e+001
 3.596420904141930e+000	 1.604888789292817e-001	 1.066212531651635e+001
 3.594828150400499e+000	 1.929004123935317e-001	 1.064424696208747e+001
 3.592936264569962e+000	 2.254085152716066e-001	 1.061665207985337e+001
 3.590742408865533e+000	 2.580095990461965e-001	 1.058196409497186e+001
 3.588243791941621e+000	 2.906999993558161e-001	 1.054245745653311e+001
 3.585437671012494e+000	 3.234759764284390e-001	 1.050004151881973e+001
 3.625000000000000e+000	 0.000000000000000e+000	 1.054196786491232e+001
 3.624857881369765e+000	 3.209890764093702e-002	 1.061984223057480e+001
 3.624429468349195e+000	 6.431196593975101e-002	 1.066912237998585e+001
 3.623711701226900e+000	 9.663594773059965e-002	 1.069412644376099e+001
 3.622701556574322e+000	 1.290675482015436e-001	 1.069890525341002e+001
 3.621396049309423e+000	 1.616033850324674e-001	 1.068722514557542e+001
 3.619792234778049e+000	 1.942399985903353e-001	 1.066255082391971e+001
 3.617887210851384e+000	 2.269738521830308e-001	 1.062802832046246e+001
 3.615678120037797e+000	 2.598013323729854e-001	 1.058646809949333e+001
 3.613162151607358e+000	 2.927187493517598e-001	 1.054032834843827e+001
 3.610336543727210e+000	 3.257223373766893e-001	 1.049169850121740e+001
 3.650000000000000e+000	 0.000000000000000e+000	 1.057788977134748e+001
 3.649856901241271e+000	 3.232027941753444e-002	 1.065240696934276e+001
 3.649425533648110e+000	 6.475549673893113e-002	 1.069745711011932e+001
 3.648702816407675e+000	 9.730240254203239e-002	 1.071755988293729e+001
 3.647685705240175e+000	 1.299576692230932e-001	 1.071696597019108e+001
 3.646371194476795e+000	 1.627178911356531e-001	 1.069963949468068e+001
 3.644756319155425e+000	 1.955795847871390e-001	 1.066924052119251e+001
 3.642838157132565e+000	 2.285391890944550e-001	 1.062910765491900e+001
 3.640613831209749e+000	 2.615930656997744e-001	 1.058224078060613e+001
 3.638080511272699e+000	 2.947374993477036e-001	 1.053128398759503e+001
 3.635235416441434e+000	 3.279686983249396e-001	 1.047850872711768e+001
 3.675000000000000e+000	 0.000000000000000e+000	 1.060003528016716e+001
 3.674855921112770e+000	 3.254165119413186e-002	 1.067098922812096e+001
 3.674421598947007e+000	 6.519902753811127e-002	 1.071183386439432e+001
 3.673693931588407e+000	 9.796885735346513e-002	 1.072729381646037e+001
 3.672669853905949e+000	 1.308477902446427e-001	 1.072182282159916e+001
 3.671346339644046e+000	 1.638323972388387e-001	 1.069958580863835e+001
 3.669720403532627e+000	 1.969191709839428e-001	 1.066444103069915e+001
 3.667789103413511e+000	 2.301045260058793e-001	 1.061992229222515e+001
 3.665549542381389e+000	 2.633847990265633e-001	 1.056922131496033e+001
 3.662998870937642e+000	 2.967562493436473e-001	 1.051517028885374e+001
 3.660134289155166e+000	 3.302150592731899e-001	 1.046022465508819e+001
 3.699999999999999e+000	 0.000000000000000e+000	 1.060906022742193e+001
 3.699854940984265e+000	 3.276302297072929e-002	 1.067615606449859e+001
 3.699417664245885e+000	 6.564255833729141e-002	 1.071273049777396e+001
 3.698685046769097e+000	 9.863531216489786e-002	 1.072371650751644e+001
 3.697654002571646e+000	 1.317379112661922e-001	 1.071377412498524e+001
 3.696321484811177e+000	 1.649469033420245e-001	 1.068727214003492e+001
 3.694684487909653e+000	 1.982587571807465e-001	 1.064826985645686e+001
 3.692740049694216e+000	 2.316698629173035e-001	 1.060049893909937e+001
 3.690485253552716e+000	 2.651765323533522e-001	 1.054734539822975e+001
 3.687917230602189e+000	 2.987749993395911e-001	 1.049183175794405e+001
 3.685033161868407e+000	 3.324614202214402e-001	 1.043659945668057e+001
 3.724999999999999e+000	 0.000000000000000e+000	 1.060560284282561e+001
 3.724853960855755e+000	 3.298439474732670e-002	 1.066845853572822e+001
 3.724413729544743e+000	 6.608608913647153e-002	 1.070061052090791e+001
 3.723676161949742e+000	 9.930176697633060e-002	 1.070720358094475e+001
 3.722638151237267e+000	 1.326280322877418e-001	 1.069310731515500e+001
 3.721296629978185e+000	 1.660614094452101e-001	 1.066289746441217e+001
 3.719648572286506e+000	 1.995983433775501e-001	 1.062083728047105e+001
 3.717690995974683e+000	 2.332351998287278e-001	 1.057085898461741e+001
 3.715420964723730e+000	 2.669682656801412e-001	 1.051654536192339e+001
 3.712835590266339e+000	 3.007937493355348e-001	 1.046111153876085e+001
 3.709932034581156e+000	 3.347077811696906e-001	 1.040738699250476e+001
 3.750000000000000e+000	 0.000000000000000e+000	 1.059028433663300e+001
 3.749852980727241e+000	 3.320576652392414e-002	 1.064843223207083e+001
 3.749409794843583e+000	 6.652961993565168e-002	 1.067592357827671e+001
 3.748667277130346e+000	 9.996822178776336e-002	 1.067811844451614e+001
 3.747622299902811e+000	 1.335181533092913e-001	 1.066009930712070e+001
 3.746271775145075e+000	 1.671759155483958e-001	 1.062665198283559e+001
 3.744612656663185e+000	 2.009379295743539e-001	 1.058224660346900e+001
 3.742641942254912e+000	 2.348005367401521e-001	 1.053101867746647e+001
 3.740356675894433e+000	 2.687599990069302e-001	 1.047675028552436e+001
 3.737753949930092e+000	 3.028124993314787e-001	 1.042285145875869e+001
 3.734830907293414e+000	 3.369541421179410e-001	 1.037234178926028e+001
 3.485842180148715e+000	 3.144905326354376e-001	 1.048992323330544e+001
 3.482812427479281e+000	 3.464355568067562e-001	 1.056025739625222e+001
 3.479478529308901e+000	 3.784562908747209e-001	 1.062340095468687e+001
 3.475837973121045e+000	 4.105488821462861e-001	 1.067995605245315e+001
 3.471888301924911e+000	 4.427094069178871e-001	 1.073013246267699e+001
 3.467627116341299e+000	 4.749338712109144e-001	 1.077373447057814e+001
 3.463052076687237e+000	 5.072182115723982e-001	 1.081014823417347e+001
 3.458160905057221e+000	 5.395582959415585e-001	 1.083832966858974e+001
 3.452951387398862e+000	 5.719499245828053e-001	 1.085679289987180e+001
 3.447421375580705e+000	 6.043888310856981e-001	 1.086359933419997e+001
 3.441568789449906e+000	 6.368706834322875e-001	 1.064950222357125e+001
 3.510741052865397e+000	 3.167368935836880e-001	 1.049847667266923e+001
 3.507689659105719e+000	 3.489100964994941e-001	 1.056864822803233e+001
 3.504331947377194e+000	 3.811595500968072e-001	 1.063213497484940e+001
 3.500665387216742e+000	 4.134813741633440e-001	 1.068959998144306e+001
 3.496687504083629e+000	 4.458716169690847e-001	 1.074130735730049e+001
 3.492395881460230e+000	 4.783262560070002e-001	 1.078710886242658e+001
 3.487788162951553e+000	 5.108411987994556e-001	 1.082643100271410e+001
 3.482862054381338e+000	 5.434122837709493e-001	 1.085826265795415e+001
 3.477615325882537e+000	 5.760352811877796e-001	 1.088114328928280e+001
 3.472045813979897e+000	 6.087058941651443e-001	 1.089315177289035e+001
 3.466151423662342e+000	 6.414197597421076e-001	 1.061065234399644e+001
 3.535639925581588e+000	 3.189832545319382e-001	 1.050318116581122e+001
 3.532566890731576e+000	 3.513846361922370e-001	 1.057287592731868e+001
 3.529185365444834e+000	 3.838628093189127e-001	 1.063662782470037e+001
 3.525492801311734e+000	 4.164138661804452e-001	 1.069516293831901e+001
 3.521486706241609e+000	 4.490338270203598e-001	 1.074880157188422e+001
 3.517164646578412e+000	 4.817186408032076e-001	 1.079744458087461e+001
 3.512524249215126e+000	 5.144641860266879e-001	 1.084056019529691e+001
 3.507563203704740e+000	 5.472662716005795e-001	 1.087717138433012e+001
 3.502279264365547e+000	 5.801206377930676e-001	 1.090584381058050e+001
 3.496670252378494e+000	 6.130229572449886e-001	 1.092467442170806e+001
 3.490734057874272e+000	 6.459688360524207e-001	 1.057897085217752e+001
 3.560538798297286e+000	 3.212296154801885e-001	 1.050378605927032e+001
 3.557444122356851e+000	 3.538591758849846e-001	 1.057265040640710e+001
 3.554038783511820e+000	 3.865660685410374e-001	 1.063655007036726e+001
 3.550320215406022e+000	 4.193463581975899e-001	 1.069627624577965e+001
 3.546285908398852e+000	 4.521960370717122e-001	 1.075220730236777e+001
 3.541933411695845e+000	 4.851110255995360e-001	 1.080429482493216e+001
 3.537260335477958e+000	 5.180871732540957e-001	 1.085205015618450e+001
 3.532264353027429e+000	 5.511202594304488e-001	 1.089453149092599e+001
 3.526943202847890e+000	 5.842059943986688e-001	 1.093033157024748e+001
 3.521294690776494e+000	 6.173400203252305e-001	 1.095756602446450e+001
 3.515316692085695e+000	 6.505179123632263e-001	 1.055423117418765e+001
 3.585437671012494e+000	 3.234759764284390e-001	 1.050004151881973e+001
 3.582321353981543e+000	 3.563337155777368e-001	 1.056768312413528e+001
 3.578892201578152e+000	 3.892693277631811e-001	 1.063157459683270e+001
 3.575147629499604e+000	 4.222788502147780e-001	 1.069257436283227e+001
 3.571085110555359e+000	 4.553582471231421e-001	 1.075112074370457e+001
 3.566702176812526e+000	 4.885034103959858e-001	 1.080721770066718e+001
 3.561996421740048e+000	 5.217101604816787e-001	 1.086042109014313e+001
 3.556965502349406e+000	 5.549742472605577e-001	 1.090982548033908e+001
 3.551607141329567e+000	 5.882913510045834e-001	 1.095405157849178e+001
 3.545919129173897e+000	 6.216570834058705e-001	 1.099123431847080e+001
 3.539899326296611e+000	 6.550669886745246e-001	 1.053621686477161e+001
 3.610336543727210e+000	 3.257223373766893e-001	 1.049169850121740e+001
 3.607198585605653e+000	 3.588082552704940e-001	 1.055768703255379e+001
 3.603745619643832e+000	 3.919725869853445e-001	 1.062137652797385e+001
 3.599975043592481e+000	 4.252113422320095e-001	 1.068369477664420e+001
 3.595884312711128e+000	 4.585204571746494e-001	 1.074514195196488e+001
 3.591470941928460e+000	 4.918957951925569e-001	 1.080577605199667e+001
 3.586732508001397e+000	 5.253331477094370e-001	 1.086519886035650e+001
 3.581666651670666e+000	 5.588282350909055e-001	 1.092254247802467e+001
 3.576271079810580e+000	 5.923767076108115e-001	 1.097645647670463e+001
 3.570543567570703e+000	 6.259741464869082e-001	 1.101019263522715e+001
 3.564481960507018e+000	 6.596160649863155e-001	 1.052472125808119e+001
 3.635235416441434e+000	 3.279686983249396e-001	 1.047850872711768e+001
 3.632075817229181e+000	 3.612827949632560e-001	 1.054237652578849e+001
 3.628599037708858e+000	 3.946758462075269e-001	 1.060563314988785e+001
 3.624802457684653e+000	 4.281438342492844e-001	 1.066927789883870e+001
 3.620683514866161e+000	 4.616826672262341e-001	 1.073387471210575e+001
 3.616239707043643e+000	 4.952881799892493e-001	 1.079953729843162e+001
 3.611468594262003e+000	 5.289561349373704e-001	 1.086591479464425e+001
 3.606367800991213e+000	 5.626822229214925e-001	 1.093217800548620e+001
 3.600935018290926e+000	 5.964620642173530e-001	 1.099700627611852e+001
 3.595168005966912e+000	 6.302912095683440e-001	 1.098053535265082e+001
 3.589064594716919e+000	 6.641651412985992e-001	 1.051954713276396e+001
 3.660134289155166e+000	 3.302150592731899e-001	 1.046022465508819e+001
 3.656953048852127e+000	 3.637573346560227e-001	 1.052146739099046e+001
 3.653452455773231e+000	 3.973791054297284e-001	 1.058402383734705e+001
 3.649629871776119e+000	 4.310763262666026e-001	 1.064896696602369e+001
 3.645482717020455e+000	 4.648448772778961e-001	 1.071692641113814e+001
 3.641008472158078e+000	 4.986805647860632e-001	 1.078807327944455e+001
 3.636204680521867e+000	 5.325791221654790e-001	 1.086210549959009e+001
 3.631068950311046e+000	 5.665362107523190e-001	 1.093823376272234e+001
 3.625598956770607e+000	 6.005474208242080e-001	 1.101516810713240e+001
 3.619792444362524e+000	 6.346082726501775e-001	 1.095497866953087e+001
 3.613647228926312e+000	 6.687142176113755e-001	 1.052050639072200e+001
 3.685033161868407e+000	 3.324614202214402e-001	 1.043659945668057e+001
 3.681830280474491e+000	 3.662318743487942e-001	 1.049467676127433e+001
 3.678305873836951e+000	 4.000823646519494e-001	 1.055622998323562e+001
 3.674457285866882e+000	 4.340088182839643e-001	 1.062240794435309e+001
 3.670281919174012e+000	 4.680070873296355e-001	 1.069390791643599e+001
 3.665777237271762e+000	 5.020729495829982e-001	 1.077096010514648e+001
 3.660940766780990e+000	 5.362021093937629e-001	 1.085331268220507e+001
 3.655770099630165e+000	 5.703901985833845e-001	 1.094021741949412e+001
 3.650262895249622e+000	 6.046327774313763e-001	 1.103041597879921e+001
 3.644416882757539e+000	 6.389253357324090e-001	 1.093337278712646e+001
 3.638229863135198e+000	 6.732632939246445e-001	 1.052741974889382e+001
 3.709932034581156e+000	 3.347077811696906e-001	 1.040738699250476e+001
 3.706707512096273e+000	 3.687064140415705e-001	 1.046172307055169e+001
 3.703159291900017e+000	 4.027856238741893e-001	 1.052193493082755e+001
 3.699284699956939e+000	 4.369413103013693e-001	 1.058924943793130e+001
 3.695081121326832e+000	 4.711692973814524e-001	 1.066443345894533e+001
 3.690546002384697e+000	 5.054653343800545e-001	 1.074777801297695e+001
 3.685676853039371e+000	 5.398250966222220e-001	 1.083908297877242e+001
 3.680471248948570e+000	 5.742441864146893e-001	 1.093764241499741e+001
 3.674926833727972e+000	 6.087181340388582e-001	 1.104223054799872e+001
 3.669041321151957e+000	 6.432423988150382e-001	 1.091557547113306e+001
 3.662812497343578e+000	 6.778123702384060e-001	 1.054011644344774e+001
 3.734830907293414e+000	 3.369541421179410e-001	 1.037234178926028e+001
 3.731584743717474e+000	 3.711809537343518e-001	 1.042232601017122e+001
 3.728012709962430e+000	 4.054888830964488e-001	 1.048082390877388e+001
 3.724112114046291e+000	 4.398738023188178e-001	 1.054914260088150e+001
 3.719880323478916e+000	 4.743315074333467e-001	 1.062812052106539e+001
 3.715314767496882e+000	 5.088577191772322e-001	 1.071811123012639e+001
 3.710412939297010e+000	 5.434480838508565e-001	 1.081896779053838e+001
 3.705172398266262e+000	 5.780981742462337e-001	 1.093002776554834e+001
 3.699590772205657e+000	 6.128034906466537e-001	 1.105009889784317e+001
 3.693665759545780e+000	 6.475594618980656e-001	 1.090145179953465e+001
 3.687395131551449e+000	 6.823614465526605e-001	 1.055843394580765e+001
 3.441568789449906e+000	 6.368706834322875e-001	 1.064950222357125e+001
 3.435391618878011e+000	 6.693910851321568e-001	 1.071610114509528e+001
 3.428887925790747e+000	 7.019455764256674e-001	 1.077351862514133e+001
 3.422055846180586e+000	 7.345296355551680e-001	 1.082222094367621e+001
 3.414893592100732e+000	 7.671386801043791e-001	 1.086270928407087e+001
 3.407399453636346e+000	 7.997680684061287e-001	 1.089552062284381e+001
 3.399571800851111e+000	 8.324131010182234e-001	 1.092122857905715e+001
 3.391409085706569e+000	 8.650690222672626e-001	 1.094044421953314e+001
 3.382909843951724e+000	 8.977310218600830e-001	 1.095381681603823e+001
 3.374072696980329e+000	 9.303942365624413e-001	 1.096203455057206e+001
 3.364896353653301e+000	 9.630537519444204e-001	 1.096582516490243e+001
 3.466151423662342e+000	 6.414197597421076e-001	 1.061065234399644e+001
 3.459930130443355e+000	 6.741724500248499e-001	 1.067238967709176e+001
 3.453379982405272e+000	 7.069594733984075e-001	 1.072633480209707e+001
 3.446499102226226e+000	 7.397762758068602e-001	 1.077293919108507e+001
 3.439285689188370e+000	 7.726182421023856e-001	 1.081268836678254e+001
 3.431738021163191e+000	 8.054806974630455e-001	 1.084610280952463e+001
 3.423854456571968e+000	 8.383589088792044e-001	 1.087373882492570e+001
 3.415633436318824e+000	 8.712480867083657e-001	 1.089618936839715e+001
 3.407073485693827e+000	 9.041433862981304e-001	 1.091408482261718e+001
 3.398173216243544e+000	 9.370399096768675e-001	 1.092809372404572e+001
 3.388931327606469e+000	 9.699327073115912e-001	 1.093892343457790e+001
 3.490734057874272e+000	 6.459688360524207e-001	 1.057897085217752e+001
 3.484468642008293e+000	 6.789538149181262e-001	 1.063546453496672e+001
 3.477872039019489e+000	 7.119733703718012e-001	 1.068552283327892e+001
 3.470942358271658e+000	 7.450229160592580e-001	 1.072958214747437e+001
 3.463677786275902e+000	 7.780978041011291e-001	 1.076811210055475e+001
 3.456076588690030e+000	 8.111933265207119e-001	 1.080161646323895e+001
 3.448137112292919e+000	 8.443047167409269e-001	 1.083063404080402e+001
 3.439857786931272e+000	 8.774271511501820e-001	 1.085573951778090e+001
 3.431237127436225e+000	 9.105557507368421e-001	 1.087754425656655e+001
 3.422273735507152e+000	 9.436855827918900e-001	 1.089669704599874e+001
 3.412966301560131e+000	 9.768116626792683e-001	 1.091388479593689e+001
 3.515316692085695e+000	 6.505179123632263e-001	 1.055423117418765e+001
 3.509007153572822e+000	 6.837351798119854e-001	 1.060511812567364e+001
 3.502364095633400e+000	 7.169872673458494e-001	 1.065089446009839e+001
 3.495385614316883e+000	 7.502695563123618e-001	 1.069198123613719e+001
 3.488069883363327e+000	 7.835773661006106e-001	 1.072883193161075e+001
 3.480415156216862e+000	 8.169059555791280e-001	 1.076193338759706e+001
 3.472419768013961e+000	 8.502505246033909e-001	 1.079180671534133e+001
 3.464082137543914e+000	 8.836062155927119e-001	 1.081900816201090e+001
 3.455400769178916e+000	 9.169681151762193e-001	 1.084412993131085e+001
 3.446374254771157e+000	 9.503312559075083e-001	 1.086780095495720e+001
 3.437001275514286e+000	 9.836906180474516e-001	 1.089068761099922e+001
 3.539899326296611e+000	 6.550669886745246e-001	 1.053621686477161e+001
 3.533545665136944e+000	 6.885165447064279e-001	 1.058115262316686e+001
 3.526856152247003e+000	 7.220011643205517e-001	 1.062227081598304e+001
 3.519828870361901e+000	 7.555161965661711e-001	 1.065997688412577e+001
 3.512461980450646e+000	 7.890569281008294e-001	 1.069470790845429e+001
 3.504753723743688e+000	 8.226185846382939e-001	 1.072693357384771e+001
 3.496702423735099e+000	 8.561963324665964e-001	 1.075715709708719e+001
 3.488306488156749e+000	 8.897852800359549e-001	 1.078591611455559e+001
 3.479564410921900e+000	 9.233804796162610e-001	 1.081378352572208e+001
 3.470474774035553e+000	 9.569769290237226e-001	 1.084136828835744e+001
 3.461036249468935e+000	 9.905695734161415e-001	 1.086931616141701e+001
 3.564481960507018e+000	 6.596160649863155e-001	 1.052472125808119e+001
 3.558084176700659e+000	 6.932979096014533e-001	 1.056337963160833e+001
 3.551348208860298e+000	 7.270150612959079e-001	 1.059948210251383e+001
 3.544272126406712e+000	 7.607628368206859e-001	 1.063341821177714e+001
 3.536854077537856e+000	 7.945364901017858e-001	 1.066560838523916e+001
 3.529092291270505e+000	 8.283312136982085e-001	 1.069650491854568e+001
 3.520985079456328e+000	 8.621421403305433e-001	 1.072659292690875e+001
 3.512530838769779e+000	 8.959643444799116e-001	 1.075639125564107e+001
 3.503728052665179e+000	 9.297928440569677e-001	 1.078645334738008e+001
 3.494575293300342e+000	 9.636226021405324e-001	 1.081736806189389e+001
 3.485071223424078e+000	 9.974485287853374e-001	 1.084976044434926e+001
 3.589064594716919e+000	 6.641651412985992e-001	 1.051954713276396e+001
 3.582622688263967e+000	 6.980792744970616e-001	 1.055161986241540e+001
 3.575840265473288e+000	 7.320289582719184e-001	 1.058236727887207e+001
 3.568715382451315e+000	 7.660094770759065e-001	 1.061216273499783e+001
 3.561246174624960e+000	 8.000160521034795e-001	 1.064140973732927e+001
 3.553430858797317e+000	 8.340438427588733e-001	 1.067054295282232e+001
 3.545267735177652e+000	 8.680879481952321e-001	 1.070002918140457e+001
 3.536755189383001e+000	 9.021434089245816e-001	 1.073036829023886e+001
 3.527891694408750e+000	 9.362052084983391e-001	 1.076209410556207e+001
 3.518675812565526e+000	 9.702682752579384e-001	 1.079577525793508e+001
 3.509106197379714e+000	 1.004327484155040e+000	 1.083201597672539e+001
 3.613647228926312e+000	 6.687142176113755e-001	 1.052050639072200e+001
 3.607161199826867e+000	 7.028606393932529e-001	 1.054570282449016e+001
 3.600332322085968e+000	 7.370428552485825e-001	 1.057077376396162e+001
 3.593158638495713e+000	 7.712561173318326e-001	 1.059607607970031e+001
 3.585638271711956e+000	 8.054956141059108e-001	 1.062199608846822e+001
 3.577769426324120e+000	 8.397564718202875e-001	 1.064895058270582e+001
 3.569550390899070e+000	 8.740337560606624e-001	 1.067738782679116e+001
 3.560979539996417e+000	 9.083224733699647e-001	 1.070778851593172e+001
 3.552055336152616e+000	 9.426175729403755e-001	 1.074066669349779e+001
 3.542776331831104e+000	 9.769139483759403e-001	 1.077657062257536e+001
 3.533141171335844e+000	 1.011206439525248e+000	 1.081608360749793e+001
 3.638229863135198e+000	 6.732632939246445e-001	 1.052741974889382e+001
 3.631699711389360e+000	 7.076420042900274e-001	 1.054546652700717e+001
 3.624824378698343e+000	 7.420567522259013e-001	 1.056455715060769e+001
 3.617601894539901e+000	 7.765027575884642e-001	 1.058503170781628e+001
 3.610030368798847e+000	 8.109751761090794e-001	 1.060725904900981e+001
 3.602107993850920e+000	 8.454691008824511e-001	 1.063163783996951e+001
 3.593833046620580e+000	 8.799795639268340e-001	 1.065859758276742e+001
 3.585203890610026e+000	 9.145015378160616e-001	 1.068859960019024e+001
 3.576218977896775e+000	 9.490299373830771e-001	 1.072213797945222e+001
 3.566876851097076e+000	 9.835596214945384e-001	 1.075974047091450e+001
 3.557176145292468e+000	 1.018085394895963e+000	 1.080196933750661e+001
 3.662812497343578e+000	 6.778123702384060e-001	 1.054011644344774e+001
 3.656238222951446e+000	 7.124233691873849e-001	 1.055075719416942e+001
 3.649316435310409e+000	 7.470706492038739e-001	 1.056358093126400e+001
 3.642045150583884e+000	 7.817493978458017e-001	 1.057891065434313e+001
 3.634422465885629e+000	 8.164547381129859e-001	 1.059709746468951e+001
 3.626446561377710e+000	 8.511817299453643e-001	 1.061852164301275e+001
 3.618115702342184e+000	 8.859253717937472e-001	 1.064359369588757e+001
 3.609428241223830e+000	 9.206806022628715e-001	 1.067275536661829e+001
 3.600382619641227e+000	 9.554423018264432e-001	 1.070648060622098e+001
 3.590977370363441e+000	 9.902052946137319e-001	 1.074527650017827e+001
 3.581211119249587e+000	 1.024964350267184e+000	 1.078968414659618e+001
 3.687395131551449e+000	 6.823614465526605e-001	 1.055843394580765e+001
 3.680776734513125e+000	 7.172047340853256e-001	 1.056142899137401e+001
 3.673808491922170e+000	 7.520845461825008e-001	 1.056771623469197e+001
 3.666488406627661e+000	 7.869960381038451e-001	 1.057760127490818e+001
 3.658814562972306e+000	 8.219343001176299e-001	 1.059141717544500e+001
 3.650785128904496e+000	 8.568943590090274e-001	 1.060952556730677e+001
 3.642398358063881e+000	 8.918711796614022e-001	 1.063231772199940e+001
 3.633652591837826e+000	 9.268596667103952e-001	 1.066021558974852e+001
 3.624546261385974e+000	 9.618546662704745e-001	 1.069367279864603e+001
 3.615077889630201e+000	 9.968509677335217e-001	 1.073317561031434e+001
 3.605246093207198e+000	 1.031843305638912e+000	 1.077924382764960e+001
 3.364896353653301e+000	 9.630537519444204e-001	 1.096582516490243e+001
 3.355379612083005e+000	 9.957046041917383e-001	 1.094282371683909e+001
 3.345521361378934e+000	 1.028341781982668e+000	 1.092868559643026e+001
 3.335320583350722e+000	 1.060960228429861e+000	 1.092427417090306e+001
 3.324776354164621e+000	 1.093554843085373e+000	 1.093048414839031e+001
 3.313887845952988e+000	 1.126120484008404e+000	 1.094824172687704e+001
 3.302654328373524e+000	 1.158651969894472e+000	 1.097850467525792e+001
 3.291075170115785e+000	 1.191144082264780e+000	 1.102226234351581e+001
 3.279149840352444e+000	 1.223591567714392e+000	 1.108053559914045e+001
 3.266877910132902e+000	 1.255989140217728e+000	 1.111835691546199e+001
 3.254259053716807e+000	 1.288331483489811e+000	 1.101315342248969e+001
 3.388931327606469e+000	 9.699327073115912e-001	 1.093892343457790e+001
 3.379346609310144e+000	 1.002816779932178e+000	 1.092197863533650e+001
 3.369417942529220e+000	 1.035687080421720e+000	 1.091329204439523e+001
 3.359144301800547e+000	 1.068538515772246e+000	 1.091371821277884e+001
 3.348524756691562e+000	 1.101365949104042e+000	 1.092414419624710e+001
 3.337558473421284e+000	 1.134164201748157e+000	 1.094548974348105e+001
 3.326244716430685e+000	 1.166928055390793e+000	 1.097870741486973e+001
 3.314582849899959e+000	 1.199652254278306e+000	 1.102478262878308e+001
 3.302572339210159e+000	 1.232331507481436e+000	 1.108473363232729e+001
 3.290212752346753e+000	 1.264960491217280e+000	 1.107377774031196e+001
 3.277503761242674e+000	 1.297533851227396e+000	 1.097662146316058e+001
 3.412966301560131e+000	 9.768116626792683e-001	 1.091388479593689e+001
 3.403313606537867e+000	 1.009928955673029e+000	 1.090291484204589e+001
 3.393314523680163e+000	 1.043032378861098e+000	 1.089959124893083e+001
 3.382968020251078e+000	 1.076116803114882e+000	 1.090475968431733e+001
 3.372273159219242e+000	 1.109177055122895e+000	 1.091929950004995e+001
 3.361229100890329e+000	 1.142207919488038e+000	 1.094412396001454e+001
 3.349835104488587e+000	 1.175204140887197e+000	 1.098018039712914e+001
 3.338090529684847e+000	 1.208160426291878e+000	 1.102845029616344e+001
 3.325994838068540e+000	 1.241071447248501e+000	 1.108994929925878e+001
 3.313547594561199e+000	 1.273931842216838e+000	 1.103489349192192e+001
 3.300748468769045e+000	 1.306736218964982e+000	 1.094568363150911e+001
 3.437001275514286e+000	 9.836906180474516e-001	 1.089068761099922e+001
 3.427280603766174e+000	 1.017041131414290e+000	 1.088561963182799e+001
 3.417211104831760e+000	 1.050377677300802e+000	 1.088757915179025e+001
 3.406791738702315e+000	 1.083695090457767e+000	 1.089740288192727e+001
 3.396021561747658e+000	 1.116988161141932e+000	 1.091596241252949e+001
 3.384899728360124e+000	 1.150251637228048e+000	 1.094416448130052e+001
 3.373425492547230e+000	 1.183480226383683e+000	 1.098295116903663e+001
 3.361598209470448e+000	 1.216668598305496e+000	 1.103330001945434e+001
 3.349417336927583e+000	 1.249811387015586e+000	 1.109622407991184e+001
 3.336882436776241e+000	 1.282903193216401e+000	 1.100157995255657e+001
 3.323993176295922e+000	 1.315938586702568e+000	 1.092022004832022e+001
 3.461036249468935e+000	 9.905695734161415e-001	 1.086931616141701e+001
 3.451247600995065e+000	 1.024153307155963e+000	 1.087008609619106e+001
 3.441107685984012e+000	 1.057722975740830e+000	 1.087725737167232e+001
 3.430615457154258e+000	 1.091273377800902e+000	 1.089165766262068e+001
 3.419769964276813e+000	 1.124799267161153e+000	 1.091415073411195e+001
 3.408570355830670e+000	 1.158295354968185e+000	 1.094563675045883e+001
 3.397015880606614e+000	 1.191756311880252e+000	 1.098705251007260e+001
 3.385105889256760e+000	 1.225176770319161e+000	 1.103937160276954e+001
 3.372839835787290e+000	 1.258551326782692e+000	 1.106127535531019e+001
 3.360217278991877e+000	 1.291874544215968e+000	 1.097371784170748e+001
 3.347237883823303e+000	 1.325140954440153e+000	 1.090011568081529e+001
 3.485071223424078e+000	 9.974485287853374e-001	 1.084976044434926e+001
 3.475214598224541e+000	 1.031265482898046e+000	 1.085631292340639e+001
 3.465004267136918e+000	 1.065068274181185e+000	 1.086863300846481e+001
 3.454439175606908e+000	 1.098851665144287e+000	 1.088753925226780e+001
 3.443518366806705e+000	 1.132610373180557e+000	 1.091388752506748e+001
 3.432240983301964e+000	 1.166339072708451e+000	 1.094857136482693e+001
 3.420606268666739e+000	 1.200032397376902e+000	 1.099252225176712e+001
 3.408613569043785e+000	 1.233684942332872e+000	 1.104670980363160e+001
 3.396262334647662e+000	 1.267291266549819e+000	 1.103077570182338e+001
 3.383552121208107e+000	 1.300845895215541e+000	 1.095119264584391e+001
 3.370482591351189e+000	 1.334343322177739e+000	 1.088526017553345e+001
 3.509106197379714e+000	 1.004327484155040e+000	 1.083201597672539e+001
 3.499181595454600e+000	 1.038377658640541e+000	 1.084430420683846e+001
 3.488900848290481e+000	 1.072413572621866e+000	 1.086171845553239e+001
 3.478262894060265e+000	 1.106429952487923e+000	 1.088506806173219e+001
 3.467266769337335e+000	 1.140421479200146e+000	 1.091520092537866e+001
 3.455911610774007e+000	 1.174382790448845e+000	 1.095300389944570e+001
 3.444196656727606e+000	 1.208308482873634e+000	 1.099940310468445e+001
 3.432121248831524e+000	 1.242193114346629e+000	 1.105536416333464e+001
 3.419684833508697e+000	 1.276031206316967e+000	 1.100559193255637e+001
 3.406886963424932e+000	 1.309817246215119e+000	 1.093389445516013e+001
 3.393727298879581e+000	 1.343545689915324e+000	 1.087554769808117e+001
 3.533141171335844e+000	 1.011206439525248e+000	 1.081608360749793e+001
 3.523148592685243e+000	 1.045489834383448e+000	 1.083406926109817e+001
 3.512797429444697e+000	 1.079758871062871e+000	 1.085653121966653e+001
 3.502086612514328e+000	 1.114008239831808e+000	 1.088426951051030e+001
 3.491015171868703e+000	 1.148232585219919e+000	 1.091812398196101e+001
 3.479582238246800e+000	 1.182426508189367e+000	 1.095897473774971e+001
 3.467787044789213e+000	 1.216584568370449e+000	 1.100774249246951e+001
 3.455628928619975e+000	 1.250701286360433e+000	 1.106239387600295e+001
 3.443107332370397e+000	 1.284771146084135e+000	 1.098561443895601e+001
 3.430221805642353e+000	 1.318788597214702e+000	 1.092171780698610e+001
 3.416972006408479e+000	 1.352748057652910e+000	 1.087087677942229e+001
 3.557176145292468e+000	 1.018085394895963e+000	 1.080196933750661e+001
 3.547115589916470e+000	 1.052602010126765e+000	 1.082562244564934e+001
 3.536694010599569e+000	 1.087104169504203e+000	 1.085309374833442e+001
 3.525910330969096e+000	 1.121586527175943e+000	 1.088517385752095e+001
 3.514763574400809e+000	 1.156043691239876e+000	 1.092269448288832e+001
 3.503252865720343e+000	 1.190470225930017e+000	 1.096652890912154e+001
 3.491377432851563e+000	 1.224860653867346e+000	 1.101759239262220e+001
 3.479136608409138e+000	 1.259209458374282e+000	 1.103951754252663e+001
 3.466529831232760e+000	 1.293511085851323e+000	 1.097073799173720e+001
 3.453556647860368e+000	 1.327759948214291e+000	 1.091456153554644e+001
 3.440216713937880e+000	 1.361950425390495e+000	 1.087115016839993e+001
 3.581211119249587e+000	 1.024964350267184e+000	 1.078968414659618e+001
 3.571082587148281e+000	 1.059714185870493e+000	 1.081898299551837e+001
 3.560590591755095e+000	 1.094449467945860e+000	 1.085143326388460e+001
 3.549734049424571e+000	 1.129164814520328e+000	 1.088781603870867e+001
 3.538511976933653e+000	 1.163854797260017e+000	 1.092895479829338e+001
 3.526923493194636e+000	 1.198513943670795e+000	 1.097571593298743e+001
 3.514967820914652e+000	 1.233136739364325e+000	 1.102900918368346e+001
 3.502644288199015e+000	 1.267717630388179e+000	 1.102172237656471e+001
 3.489952330095787e+000	 1.302251025618533e+000	 1.096086159392763e+001
 3.476891490078979e+000	 1.336731299213884e+000	 1.091232862776937e+001
 3.463461421467788e+000	 1.371152793128081e+000	 1.087627469019677e+001
 3.605246093207198e+000	 1.031843305638912e+000	 1.077924382764960e+001
 3.595049584380677e+000	 1.066826361614633e+000	 1.081417485877551e+001
 3.584487172911277e+000	 1.101794766387843e+000	 1.085158160438424e+001
 3.573557767880753e+000	 1.136743101864963e+000	 1.089223551114264e+001
 3.562260379467235e+000	 1.171665903280343e+000	 1.093695172763262e+001
 3.550594120669678e+000	 1.206557661411702e+000	 1.098658966914921e+001
 3.538558208978485e+000	 1.241412824861387e+000	 1.104205349853394e+001
 3.526151967989605e+000	 1.276225802402121e+000	 1.100890742584667e+001
 3.513374828959480e+000	 1.310990965385763e+000	 1.095588833979066e+001
 3.500226332298184e+000	 1.345702650213484e+000	 1.091492608486314e+001
 3.486706128998200e+000	 1.380355160865667e+000	 1.088616111045711e+001
 3.254259053716807e+000	 1.288331483489811e+000	 1.101315342248969e+001
 3.241293049845800e+000	 1.320613253401518e+000	 1.099984782530945e+001
 3.227979782949083e+000	 1.352829080447324e+000	 1.099017102175106e+001
 3.214319244282112e+000	 1.384973572263021e+000	 1.098442210037888e+001
 3.200311532997376e+000	 1.417041316191710e+000	 1.098290365350402e+001
 3.185956857143147e+000	 1.449026881896089e+000	 1.098592165064847e+001
 3.171255534588795e+000	 1.480924824014684e+000	 1.099378530096359e+001
 3.156207993874709e+000	 1.512729684859718e+000	 1.100680690433377e+001
 3.140814774984898e+000	 1.544435997154200e+000	 1.102530169091842e+001
 3.125076530040452e+000	 1.576038286805697e+000	 1.104958764891199e+001
 3.108994023912139e+000	 1.607531075714235e+000	 1.110898474855914e+001
 3.277503761242674e+000	 1.297533851227396e+000	 1.097662146316058e+001
 3.264445143058997e+000	 1.330046205210258e+000	 1.097363456755476e+001
 3.251036781399277e+000	 1.362492145306674e+000	 1.097374359736181e+001
 3.237278667456502e+000	 1.394866240635549e+000	 1.097717130635496e+001
 3.223170901091398e+000	 1.427163039878150e+000	 1.098414379689233e+001
 3.208713691838290e+000	 1.459377073909050e+000	 1.099489047382595e+001
 3.193907359837048e+000	 1.491502858471334e+000	 1.100964398849864e+001
 3.178752336689059e+000	 1.523534896893743e+000	 1.102864017243479e+001
 3.163249166235359e+000	 1.555467682847304e+000	 1.105211796035269e+001
 3.147398505255051e+000	 1.587295703138928e+000	 1.108031930214662e+001
 3.131201124082256e+000	 1.619013440539351e+000	 1.111348906351133e+001
 3.300748468769045e+000	 1.306736218964982e+000	 1.094568363150911e+001
 3.287597236272605e+000	 1.339479157018998e+000	 1.095137147469550e+001
 3.274093779849794e+000	 1.372155210166024e+000	 1.095962728372605e+001
 3.260238090631141e+000	 1.404758909008078e+000	 1.097059821712961e+001
 3.246030269185602e+000	 1.437284763564591e+000	 1.098443463211187e+001
 3.231470526533562e+000	 1.469727265922010e+000	 1.100129011838434e+001
 3.216559185085382e+000	 1.502080892927983e+000	 1.102132152319881e+001
 3.201296679503453e+000	 1.534340108927767e+000	 1.104468896707230e+001
 3.185683557485842e+000	 1.566499368540410e+000	 1.107155584970233e+001
 3.169720480469652e+000	 1.598553119472158e+000	 1.110208884559137e+001
 3.153408224252373e+000	 1.630495805364467e+000	 1.113645788891889e+001
 3.323993176295922e+000	 1.315938586702568e+000	 1.092022004832022e+001
 3.310749329486621e+000	 1.348912108827738e+000	 1.093297532720895e+001
 3.297150778300636e+000	 1.381818275025375e+000	 1.094777536285561e+001
 3.283197513806030e+000	 1.414651577380607e+000	 1.096469244035397e+001
 3.268889637279991e+000	 1.447406487251031e+000	 1.098380189878074e+001
 3.254227361228962e+000	 1.480077457934971e+000	 1.100518224443364e+001
 3.239211010333798e+000	 1.512658927384633e+000	 1.102891525637969e+001
 3.223841022317895e+000	 1.545145320961793e+000	 1.105508608367581e+001
 3.208117948736344e+000	 1.577531054233515e+000	 1.108378333363624e+001
 3.192042455684260e+000	 1.609810535805389e+000	 1.111509915053555e+001
 3.175615324422491e+000	 1.641978170189583e+000	 1.114912928415274e+001
 3.347237883823303e+000	 1.325140954440153e+000	 1.090011568081529e+001
 3.333901422701049e+000	 1.358345060636478e+000	 1.091836676260456e+001
 3.320207776751802e+000	 1.391481339884724e+000	 1.093814398795513e+001
 3.306156936981168e+000	 1.424544245753135e+000	 1.095944547306632e+001
 3.291749005374562e+000	 1.457528210937471e+000	 1.098227224860185e+001
 3.276984195924488e+000	 1.490427649947931e+000	 1.100662845184212e+001
 3.261862835582295e+000	 1.523236961841283e+000	 1.103252151223652e+001
 3.246385365132382e+000	 1.555950532995816e+000	 1.105996232959733e+001
 3.230552339986867e+000	 1.588562739926619e+000	 1.108896544418371e+001
 3.214364430898873e+000	 1.621067952138620e+000	 1.111954919793517e+001
 3.197822424592608e+000	 1.653460535014698e+000	 1.115173588612786e+001
 3.370482591351189e+000	 1.334343322177739e+000	 1.088526017553345e+001
 3.357053515915887e+000	 1.367778012445218e+000	 1.090747014242275e+001
 3.343264775203294e+000	 1.401144404744074e+000	 1.093069208441552e+001
 3.329116360156555e+000	 1.434436914125664e+000	 1.095485063654065e+001
 3.314608373469317e+000	 1.467649934623911e+000	 1.097987321391197e+001
 3.299741030620142e+000	 1.500777841960892e+000	 1.100569028231358e+001
 3.284514660830875e+000	 1.533814996297934e+000	 1.103223562326209e+001
 3.268929707946915e+000	 1.566755745029841e+000	 1.105944659266583e+001
 3.252986731237411e+000	 1.599594425619724e+000	 1.108726437220485e+001
 3.236686406113491e+000	 1.632325368471850e+000	 1.111563421256246e+001
 3.220029524762726e+000	 1.664942899839814e+000	 1.114450566764892e+001
 3.393727298879581e+000	 1.343545689915324e+000	 1.087554769808117e+001
 3.380205609131133e+000	 1.377210964253957e+000	 1.090021342469965e+001
 3.366321773655109e+000	 1.410807469603424e+000	 1.092538125487596e+001
 3.352075783332191e+000	 1.444329582498193e+000	 1.095090301381290e+001
 3.337467741564255e+000	 1.477771658310352e+000	 1.097663317752278e+001
 3.322497865315923e+000	 1.511128033973852e+000	 1.100242922137925e+001
 3.307166486079537e+000	 1.544393030754584e+000	 1.102815196420918e+001
 3.291474050761495e+000	 1.577560957063865e+000	 1.105366590692417e+001
 3.275421122487976e+000	 1.610626111312829e+000	 1.107883956469082e+001
 3.259008381328113e+000	 1.643582784805081e+000	 1.110354579164224e+001
 3.242236624932843e+000	 1.676425264664929e+000	 1.112766209714007e+001
 3.416972006408479e+000	 1.352748057652910e+000	 1.087087677942229e+001
 3.403357702346791e+000	 1.386643916062697e+000	 1.089652804163731e+001
 3.389378772107250e+000	 1.420470534462774e+000	 1.092217568816114e+001
 3.375035206508074e+000	 1.454222250870722e+000	 1.094759938975709e+001
 3.360327109659376e+000	 1.487893381996792e+000	 1.097258134379339e+001
 3.345254700011833e+000	 1.521478225986812e+000	 1.099690670030853e+001
 3.329818311328280e+000	 1.554971065211234e+000	 1.102036398466682e+001
 3.314018393576121e+000	 1.588366169097890e+000	 1.104274551568327e+001
 3.297855513738560e+000	 1.621657797005934e+000	 1.106384781809272e+001
 3.281330356542741e+000	 1.654840201138311e+000	 1.108347202823796e+001
 3.264443725102960e+000	 1.687907629490045e+000	 1.110142429185513e+001
 3.440216713937880e+000	 1.361950425390495e+000	 1.087115016839993e+001
 3.426509795562858e+000	 1.396076867871437e+000	 1.089634878223324e+001
 3.412435770559716e+000	 1.430133599322125e+000	 1.092104207191002e+001
 3.397994629684209e+000	 1.464114919243250e+000	 1.094493819359076e+001
 3.383186477754681e+000	 1.498015105683232e+000	 1.096774771087518e+001
 3.368011534707869e+000	 1.531828417999773e+000	 1.098918409794199e+001
 3.352470136577104e+000	 1.565549099667884e+000	 1.100896424031568e+001
 3.336562736390792e+000	 1.599171381131915e+000	 1.102680893201966e+001
 3.320289904989165e+000	 1.632689482699039e+000	 1.104244336786687e+001
 3.303652331757374e+000	 1.666097617471542e+000	 1.105559762963543e+001
 3.286650825273078e+000	 1.699389994315161e+000	 1.106600716487670e+001
 3.463461421467788e+000	 1.371152793128081e+000	 1.087627469019677e+001
 3.449661888779335e+000	 1.405509819680177e+000	 1.089961367963621e+001
 3.435492769012504e+000	 1.439796664181474e+000	 1.092194950872310e+001
 3.420954052860590e+000	 1.474007587615779e+000	 1.094291944369567e+001
 3.406045845850169e+000	 1.508136829369672e+000	 1.096216304407458e+001
 3.390768369404033e+000	 1.542178610012734e+000	 1.097932274245091e+001
 3.375121961826010e+000	 1.576127134124534e+000	 1.099404442292514e+001
 3.359107079205509e+000	 1.609976593165939e+000	 1.100597799683707e+001
 3.342724296239791e+000	 1.643721168392144e+000	 1.101477797441425e+001
 3.325974306972012e+000	 1.677355033804772e+000	 1.102010403095962e+001
 3.308857925443196e+000	 1.710872359140276e+000	 1.102162156619560e+001
 3.486706128998200e+000	 1.380355160865667e+000	 1.088616111045711e+001
 3.472813981996224e+000	 1.414942771488917e+000	 1.090626390300798e+001
 3.458549767465620e+000	 1.449459729040825e+000	 1.092486943566368e+001
 3.443913476037222e+000	 1.483900255988308e+000	 1.094154469464570e+001
 3.428905213945840e+000	 1.518258553056112e+000	 1.095585885028122e+001
 3.413525204100325e+000	 1.552528802025694e+000	 1.096738391302611e+001
 3.397773787075000e+000	 1.586705168581185e+000	 1.097569538915022e+001
 3.381651422020274e+000	 1.620781805199964e+000	 1.098037293460556e+001
 3.365158687490438e+000	 1.654752854085249e+000	 1.098100100558235e+001
 3.348296282186656e+000	 1.688612450138003e+000	 1.097716950424662e+001
 3.331065025613314e+000	 1.722354723965393e+000	 1.096847441814728e+001
 3.108994023912139e+000	 1.607531075714235e+000	 1.110898474855914e+001
 3.092568134750085e+000	 1.638908884611238e+000	 1.109722683103634e+001
 3.075799854430276e+000	 1.670166235927714e+000	 1.109477327572868e+001
 3.058690288915436e+000	 1.701297656688459e+000	 1.110143028611596e+001
 3.041240658528325e+000	 1.732297681428426e+000	 1.111697616770354e+001
 3.023452298137442e+000	 1.763160855129283e+000	 1.114116150328316e+001
 3.005326657253558e+000	 1.793881736172810e+000	 1.117370938990404e+001
 2.986865300036171e+000	 1.824454899308037e+000	 1.121431573775881e+001
 2.968069905208957e+000	 1.854874938628937e+000	 1.126264963101407e+001
 2.948942265883543e+000	 1.885136470559466e+000	 1.124566516081631e+001
 2.929484289290938e+000	 1.915234136842687e+000	 1.109241579386317e+001
 3.131201124082256e+000	 1.619013440539351e+000	 1.111348906351133e+001
 3.114657907139728e+000	 1.650615376642425e+000	 1.109894074033512e+001
 3.097769853388398e+000	 1.682095994753727e+000	 1.110555532530603e+001
 3.080538076690725e+000	 1.713449782805372e+000	 1.112166834434350e+001
 3.062963806086062e+000	 1.744671236293278e+000	 1.114706727710407e+001
 3.045048385977679e+000	 1.775754861234694e+000	 1.118151115917700e+001
 3.026793276230001e+000	 1.806695177142702e+000	 1.122473080738329e+001
 3.008200052175089e+000	 1.837486720014538e+000	 1.127642910834336e+001
 2.989270404527510e+000	 1.868124045330561e+000	 1.133628137037248e+001
 2.970006139206824e+000	 1.898601731060611e+000	 1.123662841962185e+001
 2.950409177067122e+000	 1.928914380674490e+000	 1.109635502057969e+001
 3.153408224252373e+000	 1.630495805364467e+000	 1.113645788891889e+001
 3.136747679529372e+000	 1.662321868673618e+000	 1.110976603650053e+001
 3.119739852346521e+000	 1.694025753579759e+000	 1.110500582917287e+001
 3.102385864466013e+000	 1.725601908922329e+000	 1.113109371229957e+001
 3.084686953643797e+000	 1.757044791158208e+000	 1.116686884035951e+001
 3.066644473817916e+000	 1.788348867340229e+000	 1.121209831259451e+001
 3.048259895206443e+000	 1.819508618112772e+000	 1.126652026530668e+001
 3.029534804314008e+000	 1.850518540721281e+000	 1.132984415047039e+001
 3.010470903846061e+000	 1.881373152032501e+000	 1.135725722513537e+001
 2.991070012530105e+000	 1.912066991562159e+000	 1.122226559431271e+001
 2.971334064843307e+000	 1.942594624506790e+000	 1.109544206041371e+001
 3.175615324422491e+000	 1.641978170189583e+000	 1.114912928415274e+001
 3.158837451919014e+000	 1.674028360704815e+000	 1.112878135196959e+001
 3.141709851304644e+000	 1.705955512405812e+000	 1.112175405275556e+001
 3.124233652241303e+000	 1.737754035039330e+000	 1.112977185154590e+001
 3.106410101201533e+000	 1.769418346023217e+000	 1.117643774966557e+001
 3.088240561658154e+000	 1.800942873445887e+000	 1.123297143303554e+001
 3.069726514182885e+000	 1.832322059083020e+000	 1.129911796050273e+001
 3.050869556452928e+000	 1.863550361428267e+000	 1.137459294155847e+001
 3.031671403164613e+000	 1.894622258734760e+000	 1.132391531829728e+001
 3.012133885853384e+000	 1.925532252064108e+000	 1.120268357102786e+001
 2.992258952619491e+000	 1.956274868339587e+000	 1.108977411585943e+001
 3.197822424592608e+000	 1.653460535014698e+000	 1.115173588612786e+001
 3.180927224308658e+000	 1.685734852736017e+000	 1.113819797731452e+001
 3.163679850262765e+000	 1.717885271231884e+000	 1.113811918647168e+001
 3.146081440016592e+000	 1.749906161156377e+000	 1.115203483880520e+001
 3.128133248759268e+000	 1.781791900888304e+000	 1.118047796769193e+001
 3.109836649498390e+000	 1.813536879551669e+000	 1.124417543682313e+001
 3.091193133159327e+000	 1.845135500053447e+000	 1.132256078672329e+001
 3.072204308591847e+000	 1.876582182135497e+000	 1.140002500996636e+001
 3.052871902483165e+000	 1.907871365437335e+000	 1.128499687557516e+001
 3.033197759176665e+000	 1.938997512566460e+000	 1.117798667006758e+001
 3.013183840395675e+000	 1.969955112172882e+000	 1.107944606455052e+001
 3.220029524762726e+000	 1.664942899839814e+000	 1.114450566764892e+001
 3.203016996698300e+000	 1.697441344767224e+000	 1.113823578819945e+001
 3.185649849220887e+000	 1.729815030057976e+000	 1.114555930267552e+001
 3.167929227791881e+000	 1.762058287273467e+000	 1.116703187922439e+001
 3.149856396317004e+000	 1.794165455753471e+000	 1.120320699586020e+001
 3.131432737338627e+000	 1.826130885657574e+000	 1.125463543269698e+001
 3.112659752135769e+000	 1.857948941024050e+000	 1.133688244854286e+001
 3.093539060730765e+000	 1.889614002842968e+000	 1.134108444166855e+001
 3.074072401801716e+000	 1.921120472140229e+000	 1.124061300372297e+001
 3.054261632499945e+000	 1.952462773069215e+000	 1.114827673437053e+001
 3.034108728171860e+000	 1.983635356006674e+000	 1.106455053942754e+001
 3.242236624932843e+000	 1.676425264664929e+000	 1.112766209714007e+001
 3.225106769087943e+000	 1.709147836798436e+000	 1.112911039711631e+001
 3.207619848179009e+000	 1.741744788884087e+000	 1.114428216911191e+001
 3.189777015567171e+000	 1.774210413390602e+000	 1.117375318516982e+001
 3.171579543874739e+000	 1.806539010618717e+000	 1.121809713260802e+001
 3.153028825178865e+000	 1.838724891763603e+000	 1.127788508704817e+001
 3.134126371112212e+000	 1.870762381994834e+000	 1.135368497430043e+001
 3.114873812869685e+000	 1.902645823550684e+000	 1.127633687771114e+001
 3.095272901120267e+000	 1.934369578843439e+000	 1.119087218997422e+001
 3.075325505823225e+000	 1.965928033572372e+000	 1.111365321435503e+001
 3.055033615948044e+000	 1.997315599840964e+000	 1.104517800561128e+001
 3.264443725102960e+000	 1.687907629490045e+000	 1.110142429185513e+001
 3.247196541477585e+000	 1.720854328829652e+000	 1.111103329839067e+001
 3.229589847137131e+000	 1.753674547710218e+000	 1.113449166704500e+001
 3.211624803342459e+000	 1.786362539507780e+000	 1.117239503822386e+001
 3.193302691432475e+000	 1.818912565484043e+000	 1.122533707676184e+001
 3.174624913019101e+000	 1.851318897869756e+000	 1.129390892601876e+001
 3.155592990088654e+000	 1.883575822965795e+000	 1.132412233051753e+001
 3.136208565008604e+000	 1.915677644258641e+000	 1.121871477151279e+001
 3.116473400438819e+000	 1.947618685546969e+000	 1.113588039114120e+001
 3.096389379146506e+000	 1.979393294075932e+000	 1.107421324929722e+001
 3.075958503724228e+000	 2.010995843675750e+000	 1.102141683413774e+001
 3.286650825273078e+000	 1.699389994315161e+000	 1.106600716487670e+001
 3.269286313867229e+000	 1.732560820860875e+000	 1.108421200730903e+001
 3.251559846095253e+000	 1.765604306536369e+000	 1.111638792255829e+001
 3.233472591117748e+000	 1.798514665625004e+000	 1.116315018726287e+001
 3.215025838990211e+000	 1.831286120349446e+000	 1.122511221542266e+001
 3.196221000859339e+000	 1.863912903976033e+000	 1.130288499383354e+001
 3.177059609065096e+000	 1.896389263936934e+000	 1.126330165923485e+001
 3.157543317147523e+000	 1.928709464966842e+000	 1.116869465722374e+001
 3.137673899757372e+000	 1.960867792250815e+000	 1.108855344595349e+001
 3.117453252469786e+000	 1.992858554579893e+000	 1.103005174541015e+001
 3.096883391500412e+000	 2.024676087511034e+000	 1.099335337270461e+001
 3.308857925443196e+000	 1.710872359140276e+000	 1.102162156619560e+001
 3.291376086256872e+000	 1.744267312892101e+000	 1.104885019364358e+001
 3.273529845053376e+000	 1.777534065362540e+000	 1.109016743256745e+001
 3.255320378893038e+000	 1.810666791742272e+000	 1.114620796700421e+001
 3.236748986547947e+000	 1.843659675214930e+000	 1.121760473509780e+001
 3.217817088699576e+000	 1.876506910082433e+000	 1.129583675329314e+001
 3.198526228041538e+000	 1.909202704908251e+000	 1.119876064975208e+001
 3.178878069286443e+000	 1.941741285675286e+000	 1.111528648566619e+001
 3.158874399075923e+000	 1.974116898954978e+000	 1.104638254589616e+001
 3.138517125793067e+000	 2.006323815084258e+000	 1.099302317389608e+001
 3.117808279276597e+000	 2.038356331346816e+000	 1.096107201356824e+001
 3.331065025613314e+000	 1.722354723965393e+000	 1.096847441814728e+001
 3.313465858646516e+000	 1.755973804923333e+000	 1.100514780983596e+001
 3.295499844011498e+000	 1.789463824188730e+000	 1.105602318579252e+001
 3.277168166668328e+000	 1.822818917859585e+000	 1.112175441181180e+001
 3.258472134105683e+000	 1.856033230080492e+000	 1.120299372838738e+001
 3.239413176539814e+000	 1.889100916188957e+000	 1.121628030621284e+001
 3.219992847017981e+000	 1.922016145879748e+000	 1.113059362796792e+001
 3.200212821425363e+000	 1.954773106383972e+000	 1.105857564007522e+001
 3.180074898394475e+000	 1.987366005659460e+000	 1.100122580848237e+001
 3.159580999116348e+000	 2.019789075589025e+000	 1.095954989729592e+001
 3.138733167052782e+000	 2.052036575183095e+000	 1.093455842248429e+001
 2.929484289290938e+000	 1.915234136842687e+000	 1.109241579386317e+001
 2.909697996420158e+000	 1.945162607531509e+000	 1.112215863717593e+001
 2.889585521563813e+000	 1.974916583975221e+000	 1.114817128472181e+001
 2.869149111770381e+000	 2.004490801800127e+000	 1.116994662695673e+001
 2.848391126202986e+000	 2.033880033882548e+000	 1.118698401901727e+001
 2.827314035404899e+000	 2.063079093308325e+000	 1.119878952224774e+001
 2.805920420471948e+000	 2.092082836316264e+000	 1.120487612971322e+001
 2.784212972132169e+000	 2.120886165222104e+000	 1.120476397570830e+001
 2.762194489733197e+000	 2.149484031319626e+000	 1.119798052932701e+001
 2.739867880138053e+000	 2.177871437755531e+000	 1.118406077221260e+001
 2.717236156530065e+000	 2.206043442374710e+000	 1.116254736065899e+001
 2.950409177067122e+000	 1.928914380674490e+000	 1.109635502057969e+001
 2.930481553533042e+000	 1.959056626154036e+000	 1.112100968922561e+001
 2.910225418142123e+000	 1.989023131001015e+000	 1.114198543075404e+001
 2.889643033993194e+000	 2.018808593239061e+000	 1.115881701377925e+001
 2.868736777100538e+000	 2.048407748407898e+000	 1.117104591243706e+001
 2.847509135654170e+000	 2.077815372543980e+000	 1.117822049770191e+001
 2.825962709186314e+000	 2.107026285144963e+000	 1.117989621191062e+001
 2.804100207644490e+000	 2.136035352114551e+000	 1.117563572659462e+001
 2.781924450371678e+000	 2.164837488684344e+000	 1.116500908377846e+001
 2.759438364994202e+000	 2.193427662309229e+000	 1.114759382095968e+001
 2.736644986218128e+000	 2.221800895532991e+000	 1.112297508003961e+001
 2.971334064843307e+000	 1.942594624506790e+000	 1.109544206041371e+001
 2.951265110645926e+000	 1.972950644777149e+000	 1.111594928641618e+001
 2.930865314720434e+000	 2.003129678027466e+000	 1.113282423370726e+001
 2.910136956216006e+000	 2.033126384678703e+000	 1.114564324109147e+001
 2.889082427998092e+000	 2.062935462933987e+000	 1.115398959774628e+001
 2.867704235903441e+000	 2.092551651780385e+000	 1.115745368449462e+001
 2.846004997900679e+000	 2.121969733974401e+000	 1.115563309749847e+001
 2.823987443156811e+000	 2.151184539007710e+000	 1.114813275456557e+001
 2.801654411010158e+000	 2.180190946049722e+000	 1.113456498432049e+001
 2.779008849850350e+000	 2.208983886863518e+000	 1.111454959855080e+001
 2.756053815906193e+000	 2.237558348691773e+000	 1.108771394809564e+001
 2.992258952619491e+000	 1.956274868339587e+000	 1.108977411585943e+001
 2.972048667758809e+000	 1.986844663400851e+000	 1.110705506931092e+001
 2.951505211298745e+000	 2.017236225054575e+000	 1.112074578841795e+001
 2.930630878438819e+000	 2.047444176119055e+000	 1.113046388462971e+001
 2.909428078895645e+000	 2.077463177460814e+000	 1.113583416867548e+001
 2.887899336152712e+000	 2.107287931017539e+000	 1.113648874194858e+001
 2.866047286615045e+000	 2.136913182804579e+000	 1.113206706951852e+001
 2.843874678669132e+000	 2.166333725901580e+000	 1.112221603505314e+001
 2.821384371648636e+000	 2.195544403415762e+000	 1.110658997799589e+001
 2.798579334706497e+000	 2.224540111418399e+000	 1.108485071340410e+001
 2.775462645594258e+000	 2.253315801851058e+000	 1.105666753491364e+001
 3.013183840395675e+000	 1.969955112172882e+000	 1.107944606455052e+001
 2.992832224871694e+000	 2.000738682025141e+000	 1.109440286819009e+001
 2.972145107877056e+000	 2.031342772082342e+000	 1.110580689281019e+001
 2.951124800661631e+000	 2.061761967560113e+000	 1.111331673513358e+001
 2.929773729793200e+000	 2.091990891988381e+000	 1.111659844417125e+001
 2.908094436401984e+000	 2.122024210255443e+000	 1.111532556286435e+001
 2.886089575329410e+000	 2.151856631635498e+000	 1.110917915055336e+001
 2.863761914181453e+000	 2.181482912796159e+000	 1.109784778664716e+001
 2.841114332287117e+000	 2.210897860782463e+000	 1.108102755592963e+001
 2.818149819562645e+000	 2.240096335973871e+000	 1.105842201600605e+001
 2.794871475282322e+000	 2.269073255010843e+000	 1.102974214745170e+001
 3.034108728171860e+000	 1.983635356006674e+000	 1.106455053942754e+001
 3.013615781984577e+000	 2.014632700650016e+000	 1.107806676547449e+001
 2.992785004455367e+000	 2.045449319110766e+000	 1.108806309261679e+001
 2.971618722884442e+000	 2.076079759001880e+000	 1.109423882541482e+001
 2.950119380690752e+000	 2.106518606516687e+000	 1.109630097787156e+001
 2.928289536651255e+000	 2.136760489494097e+000	 1.109396426546932e+001
 2.906131864043775e+000	 2.166800080467156e+000	 1.108695107722509e+001
 2.883649149693777e+000	 2.196632099691450e+000	 1.107499142822779e+001
 2.860844292925597e+000	 2.226251318149825e+000	 1.105782289318815e+001
 2.837720304418794e+000	 2.255652560529935e+000	 1.103519052159870e+001
 2.814280304970386e+000	 2.284830708171129e+000	 1.100684673516462e+001
 3.055033615948044e+000	 1.997315599840964e+000	 1.104517800561128e+001
 3.034399339097461e+000	 2.028526719275481e+000	 1.105811915558365e+001
 3.013424901033678e+000	 2.059555866139849e+000	 1.106756872426253e+001
 2.992112645107256e+000	 2.090397550444355e+000	 1.107326645631380e+001
 2.970465031588305e+000	 2.121046321045732e+000	 1.107496006719171e+001
 2.948484636900527e+000	 2.151496768733499e+000	 1.107240518569773e+001
 2.926174152758140e+000	 2.181743529299554e+000	 1.106536527574182e+001
 2.903536385206097e+000	 2.211781286587451e+000	 1.105361153785975e+001
 2.880574253564077e+000	 2.241604775517847e+000	 1.103692279111012e+001
 2.857290789274942e+000	 2.271208785086589e+000	 1.101508533604429e+001
 2.833689134658449e+000	 2.300588161331918e+000	 1.098789279950751e+001
 3.075958503724228e+000	 2.010995843675750e+000	 1.102141683413774e+001
 3.055182896210345e+000	 2.042420737901532e+000	 1.103463080235093e+001
 3.034064797611989e+000	 2.073662413169589e+000	 1.104437695599711e+001
 3.012606567330068e+000	 2.104715341887539e+000	 1.105043522159647e+001
 2.990810682485859e+000	 2.135574035575516e+000	 1.105259376203934e+001
 2.968679737149798e+000	 2.166233047973652e+000	 1.105064886978560e+001
 2.946216441472506e+000	 2.196686978132693e+000	 1.104440483844248e+001
 2.923423620718418e+000	 2.226930473484162e+000	 1.103367381336422e+001
 2.900304214202557e+000	 2.256958232886531e+000	 1.101827562199108e+001
 2.876861274131090e+000	 2.286765009643835e+000	 1.099803758471565e+001
 2.853097964346514e+000	 2.316345614493208e+000	 1.097279430713296e+001
 3.096883391500412e+000	 2.024676087511034e+000	 1.099335337270461e+001
 3.075966453323229e+000	 2.056314756528171e+000	 1.100767089411071e+001
 3.054704694190301e+000	 2.087768960199988e+000	 1.101853982736046e+001
 3.033100489552881e+000	 2.119033133331432e+000	 1.102578003184199e+001
 3.011156333383412e+000	 2.150101750106038e+000	 1.102921987317617e+001
 2.988874837399069e+000	 2.180969327214554e+000	 1.102869606716602e+001
 2.966258730186871e+000	 2.211630426966572e+000	 1.102405350129230e+001
 2.943310856230740e+000	 2.242079660381585e+000	 1.101514503448924e+001
 2.920034174841037e+000	 2.272311690255877e+000	 1.100183127601056e+001
 2.896431758987238e+000	 2.302321234201672e+000	 1.098398034426950e+001
 2.872506794034578e+000	 2.332103067654998e+000	 1.096146760660737e+001
 3.117808279276597e+000	 2.038356331346816e+000	 1.096107201356824e+001
 3.096750010436112e+000	 2.070208775155397e+000	 1.097730709656764e+001
 3.075344590768612e+000	 2.101875507231044e+000	 1.099010828705900e+001
 3.053594411775694e+000	 2.133350924776032e+000	 1.099933513736852e+001
 3.031501984280965e+000	 2.164629464637299e+000	 1.100485598024307e+001
 3.009069937648340e+000	 2.195705606456205e+000	 1.100654772365030e+001
 2.986301018901237e+000	 2.226573875801190e+000	 1.100429562228464e+001
 2.963198091743061e+000	 2.257228847279717e+000	 1.099799302660346e+001
 2.939764135479517e+000	 2.287665147625882e+000	 1.098754111029634e+001
 2.916002243843386e+000	 2.317877458760100e+000	 1.097284857716714e+001
 2.891915623722642e+000	 2.347860520817291e+000	 1.095383134848098e+001
 3.138733167052782e+000	 2.052036575183095e+000	 1.093455842248429e+001
 3.117533567548996e+000	 2.084102793783212e+000	 1.094360560355093e+001
 3.095984487346924e+000	 2.115982054262759e+000	 1.095913222932669e+001
 3.074088333998506e+000	 2.147668716221341e+000	 1.097113415024184e+001
 3.051847635178520e+000	 2.179157179169300e+000	 1.097951943946403e+001
 3.029265037897612e+000	 2.210441885698606e+000	 1.098420497488217e+001
 3.006343307615602e+000	 2.241517324636550e+000	 1.098511616070676e+001
 2.983085327255384e+000	 2.272378034178561e+000	 1.098218662584208e+001
 2.959494096117997e+000	 2.303018604996550e+000	 1.097535790002620e+001
 2.935572728699535e+000	 2.333433683319120e+000	 1.096457906881428e+001
 2.911324453410707e+000	 2.363617973980084e+000	 1.094980640855501e+001
 2.717236156530065e+000	 2.206043442374710e+000	 1.116254736065899e+001
 2.694302437127753e+000	 2.233995160532463e+000	 1.113214359313107e+001
 2.671069943811037e+000	 2.261721767870785e+000	 1.110257807339292e+001
 2.647542000659859e+000	 2.289218503055032e+000	 1.107412669902862e+001
 2.623722032406191e+000	 2.316480670467651e+000	 1.104706615904418e+001
 2.599613562801293e+000	 2.343503642856166e+000	 1.102167324890606e+001
 2.575220212899677e+000	 2.370282863932164e+000	 1.099822418056173e+001
 2.550545699261520e+000	 2.396813850918234e+000	 1.097699388925090e+001
 2.525593832075398e+000	 2.423092197039894e+000	 1.095825533893421e+001
 2.500368513203295e+000	 2.449113573959596e+000	 1.094227882817984e+001
 2.474873734150000e+000	 2.474873734150000e+000	 1.099236248092121e+001
 2.736644986218128e+000	 2.221800895532991e+000	 1.112297508003961e+001
 2.713547454534904e+000	 2.249952268820610e+000	 1.110400871802073e+001
 2.690149014837810e+000	 2.277876923354377e+000	 1.108508777658891e+001
 2.666453014950212e+000	 2.305570063790118e+000	 1.106644132575864e+001
 2.642462904066459e+000	 2.333026960970151e+000	 1.104829995294027e+001
 2.618182231107459e+000	 2.360242954590200e+000	 1.103089512002355e+001
 2.593614642992401e+000	 2.387213455816933e+000	 1.101445851446801e+001
 2.568763882828319e+000	 2.413933949853100e+000	 1.099922139615018e+001
 2.543633788019421e+000	 2.440399998447260e+000	 1.098541394173977e+001
 2.518228288298136e+000	 2.466607242345167e+000	 1.097326458839164e+001
 2.492551403680000e+000	 2.492551403680000e+000	 1.098100329589931e+001
 2.756053815906193e+000	 2.237558348691773e+000	 1.108771394809564e+001
 2.732792471942056e+000	 2.265909377109163e+000	 1.107908050961096e+001
 2.709228085864582e+000	 2.294032078838291e+000	 1.106970877681387e+001
 2.685364029240567e+000	 2.321921624525449e+000	 1.105978170120814e+001
 2.661203775726728e+000	 2.349573251472833e+000	 1.104948447363985e+001
 2.636750899413627e+000	 2.376982266324359e+000	 1.103900392263689e+001
 2.612009073085126e+000	 2.404144047701782e+000	 1.102852790578145e+001
 2.586982066395117e+000	 2.431054048788012e+000	 1.101824469581046e+001
 2.561673743963445e+000	 2.457707799854646e+000	 1.100834236316139e+001
 2.536088063392977e+000	 2.484100910730743e+000	 1.099900815669917e+001
 2.510229073210000e+000	 2.510229073210000e+000	 1.098952440906700e+001
 2.775462645594258e+000	 2.253315801851058e+000	 1.105666753491364e+001
 2.752037489349208e+000	 2.281866485398122e+000	 1.105728526780622e+001
 2.728307156891355e+000	 2.310187234322526e+000	 1.105638987651789e+001
 2.704275043530920e+000	 2.338273185261025e+000	 1.105411889316171e+001
 2.679944647386995e+000	 2.366119541975694e+000	 1.105061280725131e+001
 2.655319567719793e+000	 2.393721578058644e+000	 1.104601450451407e+001
 2.630403503177849e+000	 2.421074639586712e+000	 1.104046869776701e+001
 2.605200249961917e+000	 2.448174147722969e+000	 1.103412135149452e+001
 2.579713699907469e+000	 2.475015601262053e+000	 1.102711910179395e+001
 2.553947838487818e+000	 2.501594579116324e+000	 1.101930429263880e+001
 2.527906742740000e+000	 2.527906742740000e+000	 1.100803199493864e+001
 2.794871475282322e+000	 2.269073255010843e+000	 1.102974214745170e+001
 2.771282506756359e+000	 2.297823593687487e+000	 1.103855136361115e+001
 2.747386227918127e+000	 2.326342389807081e+000	 1.104508128949377e+001
 2.723186057821275e+000	 2.354624745996849e+000	 1.104942472732913e+001
 2.698685519047264e+000	 2.382665832478737e+000	 1.105167815105240e+001
 2.673888236025960e+000	 2.410460889793055e+000	 1.105194118481753e+001
 2.648797933270572e+000	 2.438005231471722e+000	 1.105031607260428e+001
 2.623418433528715e+000	 2.465294246657971e+000	 1.104690714050560e+001
 2.597753655851493e+000	 2.492323402669479e+000	 1.104182025330981e+001
 2.571807613582660e+000	 2.519088247501910e+000	 1.103070188881890e+001
 2.545584412270000e+000	 2.545584412270000e+000	 1.101895929442389e+001
 2.814280304970386e+000	 2.284830708171129e+000	 1.100684673516462e+001
 2.790527524163510e+000	 2.313780701977259e+000	 1.102280916771333e+001
 2.766465298944899e+000	 2.342497545291958e+000	 1.103573459221009e+001
 2.742097072111628e+000	 2.370976306732918e+000	 1.104567176120985e+001
 2.717426390707531e+000	 2.399212122981960e+000	 1.105267380965702e+001
 2.692456904332127e+000	 2.427200201527592e+000	 1.105679777233200e+001
 2.667192363363297e+000	 2.454935823356812e+000	 1.105810409142509e+001
 2.641636617095514e+000	 2.482414345593019e+000	 1.105665611577226e+001
 2.615793611795517e+000	 2.509631204076925e+000	 1.104940088468599e+001
 2.589667388677501e+000	 2.536581915887501e+000	 1.103564525017917e+001
 2.563262081800000e+000	 2.563262081800000e+000	 1.102241196677503e+001
 2.833689134658449e+000	 2.300588161331918e+000	 1.098789279950751e+001
 2.809772541570663e+000	 2.329737810267437e+000	 1.100999098200097e+001
 2.785544369971670e+000	 2.358652700777156e+000	 1.102830267714423e+001
 2.761008086401983e+000	 2.387327867469234e+000	 1.104283325903180e+001
 2.736167262367800e+000	 2.415758413485364e+000	 1.105359319133912e+001
 2.711025572638294e+000	 2.443939513262253e+000	 1.106059758294312e+001
 2.685586793456021e+000	 2.471866415241983e+000	 1.106386573270537e+001
 2.659854800662312e+000	 2.499534444528111e+000	 1.106342066490228e+001
 2.633833567739540e+000	 2.526939005484392e+000	 1.104945914214825e+001
 2.607527163772342e+000	 2.554075584273096e+000	 1.103421971333519e+001
 2.580939751329999e+000	 2.580939751329999e+000	 1.101849230330696e+001
 2.853097964346514e+000	 2.316345614493208e+000	 1.097279430713296e+001
 2.829017558977814e+000	 2.345694918558022e+000	 1.100003097387581e+001
 2.804623440998443e+000	 2.374807856262675e+000	 1.102273970802017e+001
 2.779919100692337e+000	 2.403679428205794e+000	 1.104088316771295e+001
 2.754908134028069e+000	 2.432304703988949e+000	 1.105442980450691e+001
 2.729594240944461e+000	 2.460678824997041e+000	 1.106335345640270e+001
 2.703981223548746e+000	 2.488797007127234e+000	 1.106763292909031e+001
 2.678072984229112e+000	 2.516654543463249e+000	 1.105989075818155e+001
 2.651873523683564e+000	 2.544246806891879e+000	 1.104423199720663e+001
 2.625386938867184e+000	 2.571569252658698e+000	 1.102650790218135e+001
 2.598617420860000e+000	 2.598617420860000e+000	 1.100729934195296e+001
 2.872506794034578e+000	 2.332103067654998e+000	 1.096146760660737e+001
 2.848262576384966e+000	 2.361652026849011e+000	 1.099286511322909e+001
 2.823702512025216e+000	 2.390963011748516e+000	 1.101900107686091e+001
 2.798830114982691e+000	 2.420030988942601e+000	 1.103979609379743e+001
 2.773649005688337e+000	 2.448850994492715e+000	 1.105517725432004e+001
 2.748162909250628e+000	 2.477418136731953e+000	 1.106507777241441e+001
 2.722375653641469e+000	 2.505727599012566e+000	 1.106652958478543e+001
 2.696291167795911e+000	 2.533774642398432e+000	 1.105194915099236e+001
 2.669913479627587e+000	 2.561554608299386e+000	 1.103378329952057e+001
 2.643246713962024e+000	 2.589062921044303e+000	 1.101258981953663e+001
 2.616295090390000e+000	 2.616295090390000e+000	 1.098892897717619e+001
 2.891915623722642e+000	 2.347860520817291e+000	 1.095383134848098e+001
 2.867507593792117e+000	 2.377609135140408e+000	 1.098843111195516e+001
 2.842781583051988e+000	 2.407118167234676e+000	 1.101704336277048e+001
 2.817741129273045e+000	 2.436382549679654e+000	 1.103954728132055e+001
 2.792389877348605e+000	 2.465397284996661e+000	 1.105582923944272e+001
 2.766731577556794e+000	 2.494157448466992e+000	 1.106578246607156e+001
 2.740770083734194e+000	 2.522658190897978e+000	 1.105696913871752e+001
 2.714509351362710e+000	 2.550894741333660e+000	 1.103982934291452e+001
 2.687953435571612e+000	 2.578862409706913e+000	 1.101817487765049e+001
 2.661106489056866e+000	 2.606556589429915e+000	 1.099254293510029e+001
 2.633972759920000e+000	 2.633972759920000e+000	 1.096347406545533e+001
 2.911324453410707e+000	 2.363617973980084e+000	 1.094980640855501e+001
 2.886752611199269e+000	 2.393566243432211e+000	 1.098666836588489e+001
 2.861860654078760e+000	 2.423273322721160e+000	 1.101682429236450e+001
 2.836652143563400e+000	 2.452734110416954e+000	 1.104011259055897e+001
 2.811130749008875e+000	 2.481943575500790e+000	 1.105637954892708e+001
 2.785300245862961e+000	 2.510896760202157e+000	 1.105898484761954e+001
 2.759164513826918e+000	 2.539588782783471e+000	 1.104425242505163e+001
 2.732727534929510e+000	 2.568014840268934e+000	 1.102357581970658e+001
 2.705993391515635e+000	 2.596170211114460e+000	 1.099746660642771e+001
 2.678966264151708e+000	 2.624050257815532e+000	 1.096644226988916e+001
 2.651650429450000e+000	 2.651650429450000e+000	 1.093102452655064e+001
 2.474873734150000e+000	 2.474873734150000e+000	 1.099236248092121e+001
 2.449113573959596e+000	 2.500368513203294e+000	 1.095250981986843e+001
 2.423092197039895e+000	 2.525593832075397e+000	 1.091478796163717e+001
 2.396813850918235e+000	 2.550545699261519e+000	 1.087857841573618e+001
 2.370282863932165e+000	 2.575220212899675e+000	 1.084310999376420e+001
 2.343503642856167e+000	 2.599613562801293e+000	 1.080758276695012e+001
 2.316480670467652e+000	 2.623722032406190e+000	 1.077116965747022e+001
 2.289218503055033e+000	 2.647542000659857e+000	 1.073301811903639e+001
 2.261721767870786e+000	 2.671069943811037e+000	 1.069225190234822e+001
 2.233995160532465e+000	 2.694302437127753e+000	 1.064797290071829e+001
 2.206043442374710e+000	 2.717236156530064e+000	 1.059926307091585e+001
 2.492551403680000e+000	 2.492551403680000e+000	 1.098100329589931e+001
 2.466607242345168e+000	 2.518228288298135e+000	 1.093836908464704e+001
 2.440399998447261e+000	 2.543633788019420e+000	 1.089849819109534e+001
 2.413933949853101e+000	 2.568763882828318e+000	 1.086097725064234e+001
 2.387213455816933e+000	 2.593614642992400e+000	 1.082502960268918e+001
 2.360242954590201e+000	 2.618182231107459e+000	 1.078984809332380e+001
 2.333026960970152e+000	 2.642462904066458e+000	 1.075459669182907e+001
 2.305570063790118e+000	 2.666453014950211e+000	 1.071841220002018e+001
 2.277876923354379e+000	 2.690149014837809e+000	 1.068040604991822e+001
 2.249952268820611e+000	 2.713547454534904e+000	 1.063966618497413e+001
 2.221800895532991e+000	 2.736644986218128e+000	 1.059525901978259e+001
 2.510229073210000e+000	 2.510229073210000e+000	 1.098952440906700e+001
 2.484100910730744e+000	 2.536088063392976e+000	 1.092019982191394e+001
 2.457707799854647e+000	 2.561673743963444e+000	 1.087866113852579e+001
 2.431054048788013e+000	 2.586982066395117e+000	 1.084031818707828e+001
 2.404144047701783e+000	 2.612009073085124e+000	 1.080438833639014e+001
 2.376982266324360e+000	 2.636750899413626e+000	 1.077005668787035e+001
 2.349573251472833e+000	 2.661203775726726e+000	 1.073647771797485e+001
 2.321921624525449e+000	 2.685364029240565e+000	 1.070277701709584e+001
 2.294032078838292e+000	 2.709228085864582e+000	 1.066805312030241e+001
 2.265909377109164e+000	 2.732792471942056e+000	 1.063137942504939e+001
 2.237558348691774e+000	 2.756053815906193e+000	 1.059180619068670e+001
 2.527906742740000e+000	 2.527906742740000e+000	 1.100803199493864e+001
 2.501594579116325e+000	 2.553947838487817e+000	 1.090116319030906e+001
 2.475015601262053e+000	 2.579713699907468e+000	 1.085488860174343e+001
 2.448174147722970e+000	 2.605200249961916e+000	 1.081620885664897e+001
 2.421074639586713e+000	 2.630403503177848e+000	 1.078079011265873e+001
 2.393721578058645e+000	 2.655319567719792e+000	 1.074780920654575e+001
 2.366119541975695e+000	 2.679944647386995e+000	 1.071641058118082e+001
 2.338273185261026e+000	 2.704275043530919e+000	 1.068570805477951e+001
 2.310187234322526e+000	 2.728307156891354e+000	 1.065478668555962e+001
 2.281866485398123e+000	 2.752037489349207e+000	 1.062270472682556e+001
 2.253315801851058e+000	 2.775462645594258e+000	 1.058849566720390e+001
 2.545584412270000e+000	 2.545584412270000e+000	 1.101895929442389e+001
 2.519088247501911e+000	 2.571807613582659e+000	 1.091137667818341e+001
 2.492323402669479e+000	 2.597753655851491e+000	 1.082678913929970e+001
 2.465294246657972e+000	 2.623418433528714e+000	 1.078825383035927e+001
 2.438005231471723e+000	 2.648797933270572e+000	 1.075383596212753e+001
 2.410460889793056e+000	 2.673888236025959e+000	 1.072270358628520e+001
 2.382665832478737e+000	 2.698685519047263e+000	 1.069399057045767e+001
 2.354624745996849e+000	 2.723186057821274e+000	 1.066679839862944e+001
 2.326342389807082e+000	 2.747386227918125e+000	 1.064019807057167e+001
 2.297823593687488e+000	 2.771282506756358e+000	 1.061323209519804e+001
 2.269073255010843e+000	 2.794871475282322e+000	 1.058491657246199e+001
 2.563262081800000e+000	 2.563262081800000e+000	 1.102241196677503e+001
 2.536581915887501e+000	 2.589667388677499e+000	 1.091436747010117e+001
 2.509631204076926e+000	 2.615793611795515e+000	 1.081370888773902e+001
 2.482414345593019e+000	 2.641636617095514e+000	 1.075605472415174e+001
 2.454935823356813e+000	 2.667192363363296e+000	 1.072312412782723e+001
 2.427200201527592e+000	 2.692456904332126e+000	 1.069433513876240e+001
 2.399212122981961e+000	 2.717426390707532e+000	 1.066881050670058e+001
 2.370976306732919e+000	 2.742097072111628e+000	 1.064563881796863e+001
 2.342497545291959e+000	 2.766465298944898e+000	 1.062387643053226e+001
 2.313780701977260e+000	 2.790527524163510e+000	 1.060254950652400e+001
 2.284830708171130e+000	 2.814280304970386e+000	 1.058065613674260e+001
 2.580939751329999e+000	 2.580939751329999e+000	 1.101849230330696e+001
 2.554075584273098e+000	 2.607527163772341e+000	 1.091022870068714e+001
 2.526939005484393e+000	 2.633833567739539e+000	 1.080991873325032e+001
 2.499534444528112e+000	 2.659854800662313e+000	 1.071921030010751e+001
 2.471866415241984e+000	 2.685586793456020e+000	 1.068825016065247e+001
 2.443939513262254e+000	 2.711025572638293e+000	 1.066229664029582e+001
 2.415758413485365e+000	 2.736167262367800e+000	 1.064046082721366e+001
 2.387327867469234e+000	 2.761008086401982e+000	 1.062181784520792e+001
 2.358652700777157e+000	 2.785544369971670e+000	 1.060540882525142e+001
 2.329737810267438e+000	 2.809772541570661e+000	 1.059024297809276e+001
 2.300588161331918e+000	 2.833689134658449e+000	 1.057529976230470e+001
 2.598617420860000e+000	 2.598617420860000e+000	 1.100729934195296e+001
 2.571569252658698e+000	 2.625386938867181e+000	 1.089905042129001e+001
 2.544246806891880e+000	 2.651873523683562e+000	 1.079931662490763e+001
 2.516654543463250e+000	 2.678072984229111e+000	 1.070888098312442e+001
 2.488797007127235e+000	 2.703981223548744e+000	 1.064880701093112e+001
 2.460678824997042e+000	 2.729594240944459e+000	 1.062617841808523e+001
 2.432304703988950e+000	 2.754908134028068e+000	 1.060852966678450e+001
 2.403679428205795e+000	 2.779919100692336e+000	 1.059492185193157e+001
 2.374807856262676e+000	 2.804623440998443e+000	 1.058438029042693e+001
 2.345694918558022e+000	 2.829017558977812e+000	 1.057589663476082e+001
 2.316345614493208e+000	 2.853097964346514e+000	 1.056843108556214e+001
 2.616295090390000e+000	 2.616295090390000e+000	 1.098892897717619e+001
 2.589062921044304e+000	 2.643246713962023e+000	 1.088091970414724e+001
 2.561554608299387e+000	 2.669913479627586e+000	 1.078198098442866e+001
 2.533774642398432e+000	 2.696291167795909e+000	 1.069293236190633e+001
 2.505727599012567e+000	 2.722375653641469e+000	 1.061457908631822e+001
 2.477418136731955e+000	 2.748162909250626e+000	 1.058556843295228e+001
 2.448850994492716e+000	 2.773649005688336e+000	 1.057260293547188e+001
 2.420030988942602e+000	 2.798830114982690e+000	 1.056453512189800e+001
 2.390963011748517e+000	 2.823702512025214e+000	 1.056037390602659e+001
 2.361652026849012e+000	 2.848262576384964e+000	 1.055909277288542e+001
 2.332103067654998e+000	 2.872506794034578e+000	 1.055963203674070e+001
 2.633972759920000e+000	 2.633972759920000e+000	 1.096347406545533e+001
 2.606556589429916e+000	 2.661106489056865e+000	 1.085592074235507e+001
 2.578862409706913e+000	 2.687953435571610e+000	 1.075798750898537e+001
 2.550894741333661e+000	 2.714509351362708e+000	 1.067053073694018e+001
 2.522658190897979e+000	 2.740770083734192e+000	 1.059439176654595e+001
 2.494157448466993e+000	 2.766731577556793e+000	 1.054005235874901e+001
 2.465397284996662e+000	 2.792389877348605e+000	 1.053226439326111e+001
 2.436382549679655e+000	 2.817741129273044e+000	 1.053023992110114e+001
 2.407118167234678e+000	 2.842781583051987e+000	 1.053297086191672e+001
 2.377609135140409e+000	 2.867507593792116e+000	 1.053941192168352e+001
 2.347860520817291e+000	 2.891915623722642e+000	 1.054848289713268e+001
 2.651650429450000e+000	 2.651650429450000e+000	 1.093102452655064e+001
 2.624050257815533e+000	 2.678966264151706e+000	 1.082413494584007e+001
 2.596170211114461e+000	 2.705993391515634e+000	 1.072740926202210e+001
 2.568014840268936e+000	 2.732727534929508e+000	 1.064174099532542e+001
 2.539588782783471e+000	 2.759164513826918e+000	 1.056800789954288e+001
 2.510896760202158e+000	 2.785300245862960e+000	 1.050706992653723e+001
 2.481943575500790e+000	 2.811130749008873e+000	 1.048709572173312e+001
 2.452734110416956e+000	 2.836652143563399e+000	 1.049161656502932e+001
 2.423273322721161e+000	 2.861860654078759e+000	 1.050175052086552e+001
 2.393566243432213e+000	 2.886752611199269e+000	 1.051643290213651e+001
 2.363617973980084e+000	 2.911324453410707e+000	 1.053456235406125e+001
 2.206043442374710e+000	 2.717236156530064e+000	 1.059926307091585e+001
 2.177871437755532e+000	 2.739867880138052e+000	 1.056502342941064e+001
 2.149484031319626e+000	 2.762194489733196e+000	 1.053974425897339e+001
 2.120886165222105e+000	 2.784212972132167e+000	 1.052236666197755e+001
 2.092082836316265e+000	 2.805920420471948e+000	 1.051180591316977e+001
 2.063079093308326e+000	 2.827314035404899e+000	 1.050695384765934e+001
 2.033880033882549e+000	 2.848391126202985e+000	 1.050668130771786e+001
 2.004490801800128e+000	 2.869149111770380e+000	 1.050984064171045e+001
 1.974916583975222e+000	 2.889585521563812e+000	 1.051526824834962e+001
 1.945162607531510e+000	 2.909697996420158e+000	 1.052178715935641e+001
 1.915234136842688e+000	 2.929484289290938e+000	 1.052820965353379e+001
 2.221800895532991e+000	 2.736644986218128e+000	 1.059525901978259e+001
 2.193427662309230e+000	 2.759438364994201e+000	 1.056396549928613e+001
 2.164837488684345e+000	 2.781924450371677e+000	 1.054044808719124e+001
 2.136035352114552e+000	 2.804100207644488e+000	 1.052362049530626e+001
 2.107026285144964e+000	 2.825962709186313e+000	 1.051237100428200e+001
 2.077815372543982e+000	 2.847509135654170e+000	 1.050556490350919e+001
 2.048407748407899e+000	 2.868736777100538e+000	 1.050204698992492e+001
 2.018808593239062e+000	 2.889643033993194e+000	 1.050064411891286e+001
 1.989023131001015e+000	 2.910225418142123e+000	 1.050016780035054e+001
 1.959056626154036e+000	 2.930481553533042e+000	 1.049941683275180e+001
 1.928914380674490e+000	 2.950409177067122e+000	 1.049717996837208e+001
 2.237558348691774e+000	 2.756053815906193e+000	 1.059180619068670e+001
 2.208983886863519e+000	 2.779008849850348e+000	 1.056372307960599e+001
 2.180190946049723e+000	 2.801654411010157e+000	 1.054226172376772e+001
 2.151184539007711e+000	 2.823987443156809e+000	 1.052630785334323e+001
 2.121969733974402e+000	 2.846004997900678e+000	 1.051472213338308e+001
 2.092551651780386e+000	 2.867704235903441e+000	 1.050634265673121e+001
 2.062935462933988e+000	 2.889082427998092e+000	 1.049998749599171e+001
 2.033126384678704e+000	 2.910136956216005e+000	 1.049445730759365e+001
 2.003129678027467e+000	 2.930865314720434e+000	 1.048853798086706e+001
 1.972950644777151e+000	 2.951265110645926e+000	 1.048100332493796e+001
 1.942594624506790e+000	 2.971334064843307e+000	 1.047061778616984e+001
 2.253315801851058e+000	 2.775462645594258e+000	 1.058849566720390e+001
 2.224540111418400e+000	 2.798579334706496e+000	 1.056389234926512e+001
 2.195544403415763e+000	 2.821384371648636e+000	 1.054478631336006e+001
 2.166333725901581e+000	 2.843874678669132e+000	 1.053003471200999e+001
 2.136913182804580e+000	 2.866047286615044e+000	 1.051846996822579e+001
 2.107287931017541e+000	 2.887899336152712e+000	 1.050890232255440e+001
 2.077463177460816e+000	 2.909428078895645e+000	 1.050012243936733e+001
 2.047444176119055e+000	 2.930630878438818e+000	 1.049090406529326e+001
 2.017236225054575e+000	 2.951505211298744e+000	 1.048000673256556e+001
 1.986844663400852e+000	 2.972048667758810e+000	 1.046617849994857e+001
 1.956274868339587e+000	 2.992258952619491e+000	 1.044815872382739e+001
 2.269073255010843e+000	 2.794871475282322e+000	 1.058491657246199e+001
 2.240096335973872e+000	 2.818149819562644e+000	 1.056406750385545e+001
 2.210897860782464e+000	 2.841114332287116e+000	 1.054762100446376e+001
 2.181482912796160e+000	 2.863761914181453e+000	 1.053440504819191e+001
 2.151856631635498e+000	 2.886089575329410e+000	 1.052322318461771e+001
 2.122024210255444e+000	 2.908094436401983e+000	 1.051285714129428e+001
 2.091990891988382e+000	 2.929773729793198e+000	 1.050206948552862e+001
 2.061761967560114e+000	 2.951124800661630e+000	 1.048960633839331e+001
 2.031342772082343e+000	 2.972145107877056e+000	 1.047420013359558e+001
 2.000738682025141e+000	 2.992832224871692e+000	 1.045457241372155e+001
 1.969955112172882e+000	 3.013183840395675e+000	 1.042943665629402e+001
 2.284830708171130e+000	 2.814280304970386e+000	 1.058065613674260e+001
 2.255652560529935e+000	 2.837720304418793e+000	 1.056384082405573e+001
 2.226251318149826e+000	 2.860844292925596e+000	 1.055036301824585e+001
 2.196632099691451e+000	 2.883649149693775e+000	 1.053902090867039e+001
 2.166800080467157e+000	 2.906131864043774e+000	 1.052858853510907e+001
 2.136760489494098e+000	 2.928289536651255e+000	 1.051781844645340e+001
 2.106518606516688e+000	 2.950119380690751e+000	 1.050544441915173e+001
 2.076079759001881e+000	 2.971618722884442e+000	 1.049018422801863e+001
 2.045449319110767e+000	 2.992785004455367e+000	 1.047074246188357e+001
 2.014632700650018e+000	 3.013615781984576e+000	 1.044581337644732e+001
 1.983635356006674e+000	 3.034108728171860e+000	 1.041408377663522e+001
 2.300588161331918e+000	 2.833689134658449e+000	 1.057529976230470e+001
 2.271208785086590e+000	 2.857290789274941e+000	 1.056280274121071e+001
 2.241604775517849e+000	 2.880574253564076e+000	 1.055260771454929e+001
 2.211781286587452e+000	 2.903536385206096e+000	 1.054348247622242e+001
 2.181743529299556e+000	 2.926174152758140e+000	 1.053417091485763e+001
 2.151496768733501e+000	 2.948484636900526e+000	 1.052339573002307e+001
 2.121046321045733e+000	 2.970465031588304e+000	 1.050986120852294e+001
 2.090397550444356e+000	 2.992112645107255e+000	 1.049225605323089e+001
 2.059555866139851e+000	 3.013424901033678e+000	 1.046925625678428e+001
 2.028526719275482e+000	 3.034399339097460e+000	 1.043952801235461e+001
 1.997315599840964e+000	 3.055033615948044e+000	 1.040173065363150e+001
 2.316345614493208e+000	 2.853097964346514e+000	 1.056843108556214e+001
 2.286765009643835e+000	 2.876861274131089e+000	 1.056054190023367e+001
 2.256958232886533e+000	 2.900304214202556e+000	 1.055394865520320e+001
 2.226930473484163e+000	 2.923423620718418e+000	 1.054738813302199e+001
 2.196686978132694e+000	 2.946216441472505e+000	 1.053957342480540e+001
 2.166233047973653e+000	 2.968679737149796e+000	 1.052919670511992e+001
 2.135574035575516e+000	 2.990810682485858e+000	 1.051493206732072e+001
 2.104715341887540e+000	 3.012606567330067e+000	 1.049543841164314e+001
 2.073662413169591e+000	 3.034064797611989e+000	 1.046936237821594e+001
 2.042420737901533e+000	 3.055182896210344e+000	 1.043534131705608e+001
 2.010995843675750e+000	 3.075958503724228e+000	 1.039200628702614e+001
 2.332103067654998e+000	 2.872506794034578e+000	 1.055963203674070e+001
 2.302321234201673e+000	 2.896431758987238e+000	 1.055664521995885e+001
 2.272311690255878e+000	 2.920034174841036e+000	 1.055397766476675e+001
 2.242079660381585e+000	 2.943310856230739e+000	 1.055033452147132e+001
 2.211630426966573e+000	 2.966258730186871e+000	 1.054439743229391e+001
 2.180969327214555e+000	 2.988874837399069e+000	 1.053482736608297e+001
 2.150101750106039e+000	 3.011156333383411e+000	 1.052026751389308e+001
 2.119033133331433e+000	 3.033100489552880e+000	 1.049934623757671e+001
 2.087768960199989e+000	 3.054704694190300e+000	 1.047068006339794e+001
 2.056314756528172e+000	 3.075966453323228e+000	 1.043287671256919e+001
 2.024676087511034e+000	 3.096883391500412e+000	 1.038453816053327e+001
 2.347860520817291e+000	 2.891915623722642e+000	 1.054848289713268e+001
 2.317877458760101e+000	 2.916002243843385e+000	 1.055069795106356e+001
 2.287665147625883e+000	 2.939764135479516e+000	 1.055228488882665e+001
 2.257228847279718e+000	 2.963198091743061e+000	 1.055191660258247e+001
 2.226573875801192e+000	 2.986301018901236e+000	 1.054824262923883e+001
 2.195705606456206e+000	 3.009069937648340e+000	 1.053989204615063e+001
 2.164629464637301e+000	 3.031501984280965e+000	 1.052547642814769e+001
 2.133350924776033e+000	 3.053594411775692e+000	 1.050359285787645e+001
 2.101875507231045e+000	 3.075344590768611e+000	 1.047282698130375e+001
 2.070208775155399e+000	 3.096750010436112e+000	 1.043175610012134e+001
 2.038356331346816e+000	 3.117808279276597e+000	 1.037895229271127e+001
 2.363617973980084e+000	 2.911324453410707e+000	 1.053456235406125e+001
 2.333433683319122e+000	 2.935572728699535e+000	 1.054228373167338e+001
 2.303018604996550e+000	 2.959494096117997e+000	 1.054845884996293e+001
 2.272378034178562e+000	 2.983085327255382e+000	 1.055172771202364e+001
 2.241517324636551e+000	 3.006343307615601e+000	 1.055070708797743e+001
 2.210441885698608e+000	 3.029265037897612e+000	 1.054399347283087e+001
 2.179157179169301e+000	 3.051847635178518e+000	 1.053016610616666e+001
 2.147668716221342e+000	 3.074088333998505e+000	 1.050779004549328e+001
 2.115982054262759e+000	 3.095984487346923e+000	 1.047541928493594e+001
 2.084102793783214e+000	 3.117533567548997e+000	 1.043159991084288e+001
 2.052036575183095e+000	 3.138733167052782e+000	 1.038751704910218e+001
 1.915234136842688e+000	 2.929484289290938e+000	 1.052820965353379e+001
 1.885136470559467e+000	 2.948942265883543e+000	 1.028496870079775e+001
 1.854874938628939e+000	 2.968069905208957e+000	 1.017775852338317e+001
 1.824454899308039e+000	 2.986865300036170e+000	 1.014803273446814e+001
 1.793881736172811e+000	 3.005326657253558e+000	 1.012090899702617e+001
 1.763160855129284e+000	 3.023452298137441e+000	 1.009631757247058e+001
 1.732297681428427e+000	 3.041240658528325e+000	 1.007419828246830e+001
 1.701297656688460e+000	 3.058690288915435e+000	 1.005450144224303e+001
 1.670166235927715e+000	 3.075799854430275e+000	 1.003718876718617e+001
 1.638908884611239e+000	 3.092568134750085e+000	 1.002223424993835e+001
 1.607531075714235e+000	 3.108994023912138e+000	 1.000962500522673e+001
 1.928914380674490e+000	 2.950409177067122e+000	 1.049717996837208e+001
 1.898601731060612e+000	 2.970006139206823e+000	 1.025557424617230e+001
 1.868124045330562e+000	 2.989270404527509e+000	 1.004531485850186e+001
 1.837486720014539e+000	 3.008200052175089e+000	 1.000524613536444e+001
 1.806695177142703e+000	 3.026793276230000e+000	 9.967570210572411e+000
 1.775754861234695e+000	 3.045048385977678e+000	 9.932239966982914e+000
 1.744671236293279e+000	 3.062963806086061e+000	 9.899217757615499e+000
 1.713449782805373e+000	 3.080538076690723e+000	 9.868476338911004e+000
 1.682095994753728e+000	 3.097769853388398e+000	 9.839999777410238e+000
 1.650615376642427e+000	 3.114657907139728e+000	 9.813784326976544e+000
 1.619013440539351e+000	 3.131201124082256e+000	 9.840194226824401e+000
 1.942594624506790e+000	 2.971334064843307e+000	 1.047061778616984e+001
 1.912066991562159e+000	 2.991070012530103e+000	 1.023188512125272e+001
 1.881373152032502e+000	 3.010470903846060e+000	 9.972840248056727e+000
 1.850518540721283e+000	 3.029534804314008e+000	 9.877599834285414e+000
 1.819508618112773e+000	 3.048259895206442e+000	 9.830336708935340e+000
 1.788348867340230e+000	 3.066644473817916e+000	 9.785232068832084e+000
 1.757044791158208e+000	 3.084686953643796e+000	 9.742269955865194e+000
 1.725601908922330e+000	 3.102385864466013e+000	 9.701444729329662e+000
 1.694025753579761e+000	 3.119739852346521e+000	 9.662761973761628e+000
 1.662321868673619e+000	 3.136747679529370e+000	 9.716824760893744e+000
 1.630495805364467e+000	 3.153408224252373e+000	 9.816467924529102e+000
 1.956274868339587e+000	 2.992258952619491e+000	 1.044815872382739e+001
 1.925532252064109e+000	 3.012133885853384e+000	 1.021352576493263e+001
 1.894622258734761e+000	 3.031671403164613e+000	 9.958234228956195e+000
 1.863550361428269e+000	 3.050869556452927e+000	 9.764875794368258e+000
 1.832322059083021e+000	 3.069726514182884e+000	 9.708977540545618e+000
 1.800942873445888e+000	 3.088240561658152e+000	 9.655050087922808e+000
 1.769418346023217e+000	 3.106410101201532e+000	 9.603098327719401e+000
 1.737754035039332e+000	 3.124233652241302e+000	 9.553137386582657e+000
 1.705955512405813e+000	 3.141709851304642e+000	 9.625351888773157e+000
 1.674028360704816e+000	 3.158837451919013e+000	 9.711870564155632e+000
 1.641978170189583e+000	 3.175615324422491e+000	 9.804313558919542e+000
 1.969955112172882e+000	 3.013183840395675e+000	 1.042943665629402e+001
 1.938997512566461e+000	 3.033197759176664e+000	 1.020011935989712e+001
 1.907871365437337e+000	 3.052871902483164e+000	 9.949804391387904e+000
 1.876582182135498e+000	 3.072204308591846e+000	 9.677901050991693e+000
 1.845135500053448e+000	 3.091193133159327e+000	 9.603261955872878e+000
 1.813536879551670e+000	 3.109836649498390e+000	 9.541450921857143e+000
 1.781791900888306e+000	 3.128133248759268e+000	 9.500714477623179e+000
 1.749906161156378e+000	 3.146081440016591e+000	 9.561535758490946e+000
 1.717885271231885e+000	 3.163679850262765e+000	 9.634346312653269e+000
 1.685734852736018e+000	 3.180927224308657e+000	 9.715867934312213e+000
 1.653460535014698e+000	 3.197822424592608e+000	 9.802897304092992e+000
 1.983635356006674e+000	 3.034108728171860e+000	 1.041408377663522e+001
 1.952462773069216e+000	 3.054261632499945e+000	 1.019128787594030e+001
 1.921120472140230e+000	 3.074072401801716e+000	 9.947162638476083e+000
 1.889614002842970e+000	 3.093539060730765e+000	 9.681120329021457e+000
 1.857948941024053e+000	 3.112659752135769e+000	 9.512959400458783e+000
 1.826130885657575e+000	 3.131432737338627e+000	 9.478414087610263e+000
 1.794165455753473e+000	 3.149856396317004e+000	 9.521470124533103e+000
 1.762058287273468e+000	 3.167929227791880e+000	 9.579693957106292e+000
 1.729815030057977e+000	 3.185649849220886e+000	 9.649652259002794e+000
 1.697441344767225e+000	 3.203016996698299e+000	 9.727979937700633e+000
 1.664942899839814e+000	 3.220029524762726e+000	 9.811388329827528e+000
 1.997315599840964e+000	 3.055033615948044e+000	 1.040173065363150e+001
 1.965928033572373e+000	 3.075325505823225e+000	 1.018665211150257e+001
 1.934369578843441e+000	 3.095272901120267e+000	 9.949920155224330e+000
 1.902645823550685e+000	 3.114873812869685e+000	 9.690948906346987e+000
 1.870762381994835e+000	 3.134126371112211e+000	 9.477745776447113e+000
 1.838724891763604e+000	 3.153028825178864e+000	 9.501609102847761e+000
 1.806539010618719e+000	 3.171579543874739e+000	 9.544057542881708e+000
 1.774210413390603e+000	 3.189777015567169e+000	 9.601505600334376e+000
 1.741744788884088e+000	 3.207619848179009e+000	 9.670428751198118e+000
 1.709147836798437e+000	 3.225106769087942e+000	 9.747372085722606e+000
 1.676425264664929e+000	 3.242236624932843e+000	 9.828958698990233e+000
 2.010995843675750e+000	 3.075958503724228e+000	 1.039200628702614e+001
 1.979393294075933e+000	 3.096389379146505e+000	 1.018583173351271e+001
 1.947618685546970e+000	 3.116473400438819e+000	 9.957687432941427e+000
 1.915677644258642e+000	 3.136208565008603e+000	 9.744971929833962e+000
 1.883575822965796e+000	 3.155592990088652e+000	 9.554425537390173e+000
 1.851318897869758e+000	 3.174624913019101e+000	 9.523953341574309e+000
 1.818912565484044e+000	 3.193302691432475e+000	 9.567624097975232e+000
 1.786362539507782e+000	 3.211624803342458e+000	 9.626124797296280e+000
 1.753674547710219e+000	 3.229589847137130e+000	 9.695836740399308e+000
 1.720854328829654e+000	 3.247196541477586e+000	 9.773212251679000e+000
 1.687907629490045e+000	 3.264443725102961e+000	 9.854783269132780e+000
 2.024676087511034e+000	 3.096883391500412e+000	 1.038453816053327e+001
 1.992858554579895e+000	 3.117453252469786e+000	 1.018844531561453e+001
 1.960867792250816e+000	 3.137673899757371e+000	 1.000155978643845e+001
 1.928709464966843e+000	 3.157543317147523e+000	 9.826553278425651e+000
 1.896389263936935e+000	 3.177059609065096e+000	 9.649657920752363e+000
 1.863912903976033e+000	 3.196221000859338e+000	 9.544588140236479e+000
 1.831286120349448e+000	 3.215025838990211e+000	 9.591318175783590e+000
 1.798514665625005e+000	 3.233472591117747e+000	 9.652707099224470e+000
 1.765604306536370e+000	 3.251559846095253e+000	 9.725039040422297e+000
 1.732560820860876e+000	 3.269286313867228e+000	 9.804670590975848e+000
 1.699389994315161e+000	 3.286650825273078e+000	 9.888039598076460e+000
 2.038356331346816e+000	 3.117808279276597e+000	 1.037895229271127e+001
 2.006323815084259e+000	 3.138517125793066e+000	 1.021656410674436e+001
 1.974116898954979e+000	 3.158874399075922e+000	 1.005857844076420e+001
 1.941741285675287e+000	 3.178878069286442e+000	 9.897548880421862e+000
 1.909202704908253e+000	 3.198526228041537e+000	 9.734925241820809e+000
 1.876506910082434e+000	 3.217817088699575e+000	 9.572122962624382e+000
 1.843659675214930e+000	 3.236748986547946e+000	 9.614289148689881e+000
 1.810666791742273e+000	 3.255320378893037e+000	 9.680409451069716e+000
 1.777534065362541e+000	 3.273529845053375e+000	 9.757200265233527e+000
 1.744267312892102e+000	 3.291376086256872e+000	 9.840919464543745e+000
 1.710872359140276e+000	 3.308857925443196e+000	 9.927907853299123e+000
 2.052036575183095e+000	 3.138733167052782e+000	 1.038751704910218e+001
 2.019789075589026e+000	 3.159580999116348e+000	 1.024823348993179e+001
 1.987366005659461e+000	 3.180074898394475e+000	 1.010458855114525e+001
 1.954773106383974e+000	 3.200212821425363e+000	 9.958131766965387e+000
 1.922016145879749e+000	 3.219992847017980e+000	 9.810380364810655e+000
 1.889100916188958e+000	 3.239413176539813e+000	 9.662816241757113e+000
 1.856033230080493e+000	 3.258472134105683e+000	 9.635687342609993e+000
 1.822818917859586e+000	 3.277168166668327e+000	 9.708390145043898e+000
 1.789463824188732e+000	 3.295499844011497e+000	 9.791486768945095e+000
 1.755973804923334e+000	 3.313465858646516e+000	 9.881133365320295e+000
 1.722354723965393e+000	 3.331065025613313e+000	 9.973570724946489e+000
 1.607531075714235e+000	 3.108994023912138e+000	 1.000962500522673e+001
 1.576038286805698e+000	 3.125076530040452e+000	 9.871173514734409e+000
 1.544435997154201e+000	 3.140814774984898e+000	 9.872456621080639e+000
 1.512729684859720e+000	 3.156207993874709e+000	 9.877399766008471e+000
 1.480924824014684e+000	 3.171255534588795e+000	 9.883319302735073e+000
 1.449026881896091e+000	 3.185956857143146e+000	 9.887632966545997e+000
 1.417041316191712e+000	 3.200311532997376e+000	 9.887865646643899e+000
 1.384973572263022e+000	 3.214319244282112e+000	 9.881654837653649e+000
 1.352829080447325e+000	 3.227979782949083e+000	 9.866755761154320e+000
 1.320613253401520e+000	 3.241293049845799e+000	 9.841046148744178e+000
 1.288331483489811e+000	 3.254259053716808e+000	 9.802530679283207e+000
 1.619013440539351e+000	 3.131201124082256e+000	 9.840194226824401e+000
 1.587295703138929e+000	 3.147398505255050e+000	 9.821815120190315e+000
 1.555467682847306e+000	 3.163249166235358e+000	 9.812788635456878e+000
 1.523534896893744e+000	 3.178752336689058e+000	 9.810189704820143e+000
 1.491502858471335e+000	 3.193907359837046e+000	 9.811188205747829e+000
 1.459377073909051e+000	 3.208713691838290e+000	 9.813055297511388e+000
 1.427163039878152e+000	 3.223170901091397e+000	 9.813169442979373e+000
 1.394866240635551e+000	 3.237278667456501e+000	 9.809022104458824e+000
 1.362492145306675e+000	 3.251036781399276e+000	 9.798223103519165e+000
 1.330046205210259e+000	 3.264445143058997e+000	 9.778505635892667e+000
 1.297533851227396e+000	 3.277503761242674e+000	 9.747730933712019e+000
 1.630495805364467e+000	 3.153408224252373e+000	 9.816467924529102e+000
 1.598553119472159e+000	 3.169720480469653e+000	 9.785307420984115e+000
 1.566499368540411e+000	 3.185683557485841e+000	 9.766350401425328e+000
 1.534340108927769e+000	 3.201296679503454e+000	 9.756523830182047e+000
 1.502080892927985e+000	 3.216559185085382e+000	 9.752849331062166e+000
 1.469727265922012e+000	 3.231470526533562e+000	 9.752449781533018e+000
 1.437284763564592e+000	 3.246030269185602e+000	 9.752555586867876e+000
 1.404758909008079e+000	 3.260238090631141e+000	 9.750510622579375e+000
 1.372155210166025e+000	 3.274093779849793e+000	 9.743777834633566e+000
 1.339479157018999e+000	 3.287597236272605e+000	 9.729944488123950e+000
 1.306736218964982e+000	 3.300748468769045e+000	 9.706727056280345e+000
 1.641978170189583e+000	 3.175615324422491e+000	 9.804313558919542e+000
 1.609810535805390e+000	 3.192042455684259e+000	 9.760846400294890e+000
 1.577531054233516e+000	 3.208117948736343e+000	 9.732371824769420e+000
 1.545145320961793e+000	 3.223841022317894e+000	 9.715666946673244e+000
 1.512658927384635e+000	 3.239211010333797e+000	 9.707603323352533e+000
 1.480077457934971e+000	 3.254227361228960e+000	 9.705153809602763e+000
 1.447406487251032e+000	 3.268889637279991e+000	 9.705399086621570e+000
 1.414651577380608e+000	 3.283197513806030e+000	 9.705533853333007e+000
 1.381818275025375e+000	 3.297150778300635e+000	 9.702872669132249e+000
 1.348912108827739e+000	 3.310749329486621e+000	 9.694855438313763e+000
 1.315938586702568e+000	 3.323993176295921e+000	 9.679052527667945e+000
 1.653460535014698e+000	 3.197822424592608e+000	 9.802897304092992e+000
 1.621067952138621e+000	 3.214364430898872e+000	 9.747630853259166e+000
 1.588562739926621e+000	 3.230552339986867e+000	 9.710085303473891e+000
 1.555950532995818e+000	 3.246385365132382e+000	 9.686886002564492e+000
 1.523236961841285e+000	 3.261862835582296e+000	 9.674752594027609e+000
 1.490427649947932e+000	 3.276984195924487e+000	 9.670506134362610e+000
 1.457528210937472e+000	 3.291749005374561e+000	 9.671075879327914e+000
 1.424544245753136e+000	 3.306156936981167e+000	 9.673505726497186e+000
 1.391481339884725e+000	 3.320207776751802e+000	 9.674960302717727e+000
 1.358345060636479e+000	 3.333901422701048e+000	 9.672730686314203e+000
 1.325140954440153e+000	 3.347237883823303e+000	 9.664239755130827e+000
 1.664942899839814e+000	 3.220029524762726e+000	 9.811388329827528e+000
 1.632325368471851e+000	 3.236686406113489e+000	 9.744862290006592e+000
 1.599594425619725e+000	 3.252986731237410e+000	 9.698725641786673e+000
 1.566755745029842e+000	 3.268929707946914e+000	 9.669450015897676e+000
 1.533814996297935e+000	 3.284514660830875e+000	 9.653601260308237e+000
 1.500777841960892e+000	 3.299741030620141e+000	 9.647846823151232e+000
 1.467649934623913e+000	 3.314608373469316e+000	 9.648962798822991e+000
 1.434436914125665e+000	 3.329116360156554e+000	 9.653840624155434e+000
 1.401144404744075e+000	 3.343264775203294e+000	 9.659493412812987e+000
 1.367778012445219e+000	 3.357053515915887e+000	 9.663061917333971e+000
 1.334343322177739e+000	 3.370482591351189e+000	 9.661820109515835e+000
 1.676425264664929e+000	 3.242236624932843e+000	 9.828958698990233e+000
 1.643582784805082e+000	 3.259008381328112e+000	 9.751744842680941e+000
 1.610626111312830e+000	 3.275421122487975e+000	 9.697529967812791e+000
 1.577560957063867e+000	 3.291474050761495e+000	 9.662630003603299e+000
 1.544393030754585e+000	 3.307166486079536e+000	 9.643455086809411e+000
 1.511128033973854e+000	 3.322497865315922e+000	 9.636517212980069e+000
 1.477771658310353e+000	 3.337467741564254e+000	 9.638437544980695e+000
 1.444329582498194e+000	 3.352075783332189e+000	 9.645953365207333e+000
 1.410807469603425e+000	 3.366321773655108e+000	 9.655924659187665e+000
 1.377210964253959e+000	 3.380205609131134e+000	 9.665340319563088e+000
 1.343545689915324e+000	 3.393727298879581e+000	 9.671323960754187e+000
 1.687907629490045e+000	 3.264443725102961e+000	 9.854783269132780e+000
 1.654840201138312e+000	 3.281330356542740e+000	 9.767485176255812e+000
 1.621657797005935e+000	 3.297855513738559e+000	 9.705737654471445e+000
 1.588366169097892e+000	 3.314018393576120e+000	 9.665698913511010e+000
 1.554971065211235e+000	 3.329818311328279e+000	 9.643621429506357e+000
 1.521478225986814e+000	 3.345254700011832e+000	 9.635859867347261e+000
 1.487893381996793e+000	 3.360327109659374e+000	 9.638878654255979e+000
 1.454222250870723e+000	 3.375035206508074e+000	 9.649259190510904e+000
 1.420470534462776e+000	 3.389378772107250e+000	 9.663706684558356e+000
 1.386643916062698e+000	 3.403357702346790e+000	 9.679056601078257e+000
 1.352748057652909e+000	 3.416972006408478e+000	 9.692280711906289e+000
 1.699389994315161e+000	 3.286650825273078e+000	 9.888039598076460e+000
 1.666097617471543e+000	 3.303652331757373e+000	 9.791292402966109e+000
 1.632689482699040e+000	 3.320289904989165e+000	 9.722590243657802e+000
 1.599171381131916e+000	 3.336562736390792e+000	 9.677931559116624e+000
 1.565549099667885e+000	 3.352470136577103e+000	 9.653409181972357e+000
 1.531828417999774e+000	 3.368011534707868e+000	 9.645218534802199e+000
 1.498015105683233e+000	 3.383186477754680e+000	 9.649665471421791e+000
 1.464114919243252e+000	 3.397994629684208e+000	 9.663173748627186e+000
 1.430133599322126e+000	 3.412435770559714e+000	 9.682292115164797e+000
 1.396076867871438e+000	 3.426509795562858e+000	 9.703701006063003e+000
 1.361950425390495e+000	 3.440216713937880e+000	 9.724218831826052e+000
 1.710872359140276e+000	 3.308857925443196e+000	 9.927907853299123e+000
 1.677355033804773e+000	 3.325974306972011e+000	 9.822378000185243e+000
 1.643721168392145e+000	 3.342724296239791e+000	 9.747331373458479e+000
 1.609976593165940e+000	 3.359107079205509e+000	 9.698604556975704e+000
 1.576127134124536e+000	 3.375121961826011e+000	 9.672128723781560e+000
 1.542178610012735e+000	 3.390768369404032e+000	 9.663938109178750e+000
 1.508136829369673e+000	 3.406045845850167e+000	 9.670178122444272e+000
 1.474007587615780e+000	 3.420954052860589e+000	 9.687113082138948e+000
 1.439796664181476e+000	 3.435492769012504e+000	 9.711133561322814e+000
 1.405509819680178e+000	 3.449661888779335e+000	 9.738763330374523e+000
 1.371152793128081e+000	 3.463461421467788e+000	 9.766665886510328e+000
 1.722354723965393e+000	 3.331065025613313e+000	 9.973570724946489e+000
 1.688612450138004e+000	 3.348296282186655e+000	 9.859955731587034e+000
 1.654752854085250e+000	 3.365158687490438e+000	 9.779206708278567e+000
 1.620781805199965e+000	 3.381651422020274e+000	 9.726996266601804e+000
 1.586705168581186e+000	 3.397773787074999e+000	 9.699091870975519e+000
 1.552528802025695e+000	 3.413525204100325e+000	 9.691364591419124e+000
 1.518258553056114e+000	 3.428905213945839e+000	 9.699797488443160e+000
 1.483900255988309e+000	 3.443913476037222e+000	 9.720493614516657e+000
 1.449459729040826e+000	 3.458549767465619e+000	 9.749683617955064e+000
 1.414942771488918e+000	 3.472813981996223e+000	 9.783732936487793e+000
 1.380355160865667e+000	 3.486706128998200e+000	 9.819148569194066e+000
 1.288331483489811e+000	 3.254259053716808e+000	 9.802530679283207e+000
 1.255989140217728e+000	 3.266877910132902e+000	 9.589684393698359e+000
 1.223591567714392e+000	 3.279149840352444e+000	 9.510887566344666e+000
 1.191144082264780e+000	 3.291075170115785e+000	 9.454060529456330e+000
 1.158651969894472e+000	 3.302654328373524e+000	 9.381399070234162e+000
 1.126120484008404e+000	 3.313887845952988e+000	 9.295271949031353e+000
 1.093554843085374e+000	 3.324776354164621e+000	 9.198009896308994e+000
 1.060960228429861e+000	 3.335320583350721e+000	 9.091904378857723e+000
 1.028341781982669e+000	 3.345521361378934e+000	 8.979206473972887e+000
 9.957046041917395e-001	 3.355379612083005e+000	 8.862125849418579e+000
 9.630537519444204e-001	 3.364896353653301e+000	 8.742829846821641e+000
 1.297533851227396e+000	 3.277503761242674e+000	 9.747730933712019e+000
 1.264960491217280e+000	 3.290212752346754e+000	 9.537922933351753e+000
 1.232331507481436e+000	 3.302572339210159e+000	 9.392354996594156e+000
 1.199652254278306e+000	 3.314582849899960e+000	 9.326381172866933e+000
 1.166928055390794e+000	 3.326244716430685e+000	 9.250353569686117e+000
 1.134164201748158e+000	 3.337558473421284e+000	 9.166640295451266e+000
 1.101365949104043e+000	 3.348524756691562e+000	 9.077565483279708e+000
 1.068538515772247e+000	 3.359144301800547e+000	 8.985408166771157e+000
 1.035687080421721e+000	 3.369417942529220e+000	 8.892401270082948e+000
 1.002816779932179e+000	 3.379346609310144e+000	 8.800730709804332e+000
 9.699327073115912e-001	 3.388931327606469e+000	 8.712534605917210e+000
 1.306736218964982e+000	 3.300748468769045e+000	 9.706727056280345e+000
 1.273931842216838e+000	 3.313547594561200e+000	 9.501127257072820e+000
 1.241071447248501e+000	 3.325994838068540e+000	 9.298956946840132e+000
 1.208160426291878e+000	 3.338090529684847e+000	 9.223742972681842e+000
 1.175204140887197e+000	 3.349835104488587e+000	 9.144198397435327e+000
 1.142207919488039e+000	 3.361229100890329e+000	 9.062691098471076e+000
 1.109177055122895e+000	 3.372273159219241e+000	 8.981539045635760e+000
 1.076116803114882e+000	 3.382968020251077e+000	 8.903009286313989e+000
 1.043032378861099e+000	 3.393314523680163e+000	 8.829317051162482e+000
 1.009928955673030e+000	 3.403313606537866e+000	 8.762624977656682e+000
 9.768116626792683e-001	 3.412966301560131e+000	 8.705042448383633e+000
 1.315938586702568e+000	 3.323993176295921e+000	 9.679052527667945e+000
 1.282903193216400e+000	 3.336882436776241e+000	 9.478842285220678e+000
 1.249811387015587e+000	 3.349417336927583e+000	 9.230404550799671e+000
 1.216668598305496e+000	 3.361598209470448e+000	 9.145855464156590e+000
 1.183480226383683e+000	 3.373425492547230e+000	 9.062643309254746e+000
 1.150251637228049e+000	 3.384899728360124e+000	 8.983136140998106e+000
 1.116988161141932e+000	 3.396021561747658e+000	 8.909646186592212e+000
 1.083695090457768e+000	 3.406791738702315e+000	 8.844428939685381e+000
 1.050377677300802e+000	 3.417211104831759e+000	 8.789682381548783e+000
 1.017041131414291e+000	 3.427280603766173e+000	 8.747546326086544e+000
 9.836906180474517e-001	 3.437001275514286e+000	 8.720101885256540e+000
 1.325140954440153e+000	 3.347237883823303e+000	 9.664239755130827e+000
 1.291874544215968e+000	 3.360217278991877e+000	 9.470612131824268e+000
 1.258551326782692e+000	 3.372839835787290e+000	 9.230902352146769e+000
 1.225176770319161e+000	 3.385105889256760e+000	 9.092427778210785e+000
 1.191756311880252e+000	 3.397015880606614e+000	 9.005397791869331e+000
 1.158295354968186e+000	 3.408570355830669e+000	 8.927687028672189e+000
 1.124799267161153e+000	 3.419769964276812e+000	 8.861602380624186e+000
 1.091273377800903e+000	 3.430615457154258e+000	 8.809388205896568e+000
 1.057722975740832e+000	 3.441107685984012e+000	 8.773225665267798e+000
 1.024153307155963e+000	 3.451247600995064e+000	 8.755232188417487e+000
 9.905695734161415e-001	 3.461036249468935e+000	 8.757461066299593e+000
 1.334343322177739e+000	 3.370482591351189e+000	 9.661820109515835e+000
 1.300845895215541e+000	 3.383552121208107e+000	 9.475980132386892e+000
 1.267291266549819e+000	 3.396262334647662e+000	 9.247180920170214e+000
 1.233684942332872e+000	 3.408613569043785e+000	 9.063168655370822e+000
 1.200032397376902e+000	 3.420606268666739e+000	 8.972171072233399e+000
 1.166339072708452e+000	 3.432240983301964e+000	 8.896055195978269e+000
 1.132610373180558e+000	 3.443518366806705e+000	 8.837122977906052e+000
 1.098851665144288e+000	 3.454439175606908e+000	 8.797608045018476e+000
 1.065068274181186e+000	 3.465004267136918e+000	 8.779675151562064e+000
 1.031265482898047e+000	 3.475214598224539e+000	 8.785419766454231e+000
 9.974485287853375e-001	 3.485071223424078e+000	 8.816867792462157e+000
 1.343545689915324e+000	 3.393727298879581e+000	 9.671323960754187e+000
 1.309817246215119e+000	 3.406886963424932e+000	 9.494488870548016e+000
 1.276031206316967e+000	 3.419684833508697e+000	 9.277712709030741e+000
 1.242193114346629e+000	 3.432121248831523e+000	 9.057786459139372e+000
 1.208308482873635e+000	 3.444196656727605e+000	 8.962672126426995e+000
 1.174382790448846e+000	 3.455911610774007e+000	 8.887951912107965e+000
 1.140421479200147e+000	 3.467266769337335e+000	 8.835923208568415e+000
 1.106429952487923e+000	 3.478262894060265e+000	 8.808809302255186e+000
 1.072413572621866e+000	 3.488900848290479e+000	 8.808758940191718e+000
 1.038377658640542e+000	 3.499181595454600e+000	 8.837846038411442e+000
 1.004327484155040e+000	 3.509106197379714e+000	 8.898069527824907e+000
 1.352748057652909e+000	 3.416972006408478e+000	 9.692280711906289e+000
 1.318788597214702e+000	 3.430221805642352e+000	 9.525680203656803e+000
 1.284771146084135e+000	 3.443107332370397e+000	 9.322053192630166e+000
 1.250701286360433e+000	 3.455628928619975e+000	 9.079124615931006e+000
 1.216584568370449e+000	 3.467787044789213e+000	 8.976609688188962e+000
 1.182426508189368e+000	 3.479582238246801e+000	 8.903088286581742e+000
 1.148232585219920e+000	 3.491015171868703e+000	 8.857718186781110e+000
 1.114008239831808e+000	 3.502086612514328e+000	 8.842712711850989e+000
 1.079758871062872e+000	 3.512797429444696e+000	 8.860204986518580e+000
 1.045489834383448e+000	 3.523148592685243e+000	 8.912247766518714e+000
 1.011206439525248e+000	 3.533141171335845e+000	 9.000813411057965e+000
 1.361950425390495e+000	 3.440216713937880e+000	 9.724218831826052e+000
 1.327759948214291e+000	 3.453556647860368e+000	 9.569095287309098e+000
 1.293511085851323e+000	 3.466529831232760e+000	 9.379757337168032e+000
 1.259209458374282e+000	 3.479136608409138e+000	 9.153823797115880e+000
 1.224860653867346e+000	 3.491377432851562e+000	 9.013692257104195e+000
 1.190470225930017e+000	 3.503252865720344e+000	 8.941175274643049e+000
 1.156043691239877e+000	 3.514763574400809e+000	 8.902222914670928e+000
 1.121586527175943e+000	 3.525910330969096e+000	 8.899038900838912e+000
 1.087104169504204e+000	 3.536694010599568e+000	 8.933741106384805e+000
 1.052602010126766e+000	 3.547115589916470e+000	 9.008361504317392e+000
 1.018085394895963e+000	 3.557176145292468e+000	 9.124846266414668e+000
 1.371152793128081e+000	 3.463461421467788e+000	 9.766665886510328e+000
 1.336731299213884e+000	 3.476891490078979e+000	 9.624274598896079e+000
 1.302251025618533e+000	 3.489952330095787e+000	 9.450379618178356e+000
 1.267717630388179e+000	 3.502644288199014e+000	 9.242491982820235e+000
 1.233136739364326e+000	 3.514967820914653e+000	 9.073628106461076e+000
 1.198513943670795e+000	 3.526923493194636e+000	 9.001923682435791e+000
 1.163854797260018e+000	 3.538511976933653e+000	 8.969152286081309e+000
 1.129164814520328e+000	 3.549734049424571e+000	 8.977508392638429e+000
 1.094449467945861e+000	 3.560590591755095e+000	 9.029094980794561e+000
 1.059714185870494e+000	 3.571082587148281e+000	 9.125923603663708e+000
 1.024964350267184e+000	 3.581211119249587e+000	 9.269914614282071e+000
 1.380355160865667e+000	 3.486706128998200e+000	 9.819148569194066e+000
 1.345702650213483e+000	 3.500226332298184e+000	 9.690757960211140e+000
 1.310990965385763e+000	 3.513374828959480e+000	 9.533474036885389e+000
 1.276225802402122e+000	 3.526151967989605e+000	 9.344698379495357e+000
 1.241412824861387e+000	 3.538558208978485e+000	 9.156125290794822e+000
 1.206557661411702e+000	 3.550594120669679e+000	 9.085044171973870e+000
 1.171665903280343e+000	 3.562260379467234e+000	 9.058221090181901e+000
 1.136743101864963e+000	 3.573557767880752e+000	 9.077841610509323e+000
 1.101794766387844e+000	 3.584487172911276e+000	 9.145994160408735e+000
 1.066826361614634e+000	 3.595049584380677e+000	 9.264670221451318e+000
 1.031843305638912e+000	 3.605246093207198e+000	 9.435764681310319e+000
 9.630537519444204e-001	 3.364896353653301e+000	 8.742829846821641e+000
 9.303942365624410e-001	 3.374072696980329e+000	 8.576659197251006e+000
 8.977310218600831e-001	 3.382909843951724e+000	 8.472198087705525e+000
 8.650690222672628e-001	 3.391409085706569e+000	 8.431310746648666e+000
 8.324131010182240e-001	 3.399571800851111e+000	 8.455768511978430e+000
 7.997680684061290e-001	 3.407399453636346e+000	 8.547250409190434e+000
 7.671386801043798e-001	 3.414893592100731e+000	 8.707343853174143e+000
 7.345296355551686e-001	 3.422055846180586e+000	 8.937545467910441e+000
 7.019455764256682e-001	 3.428887925790746e+000	 9.239262018262689e+000
 6.693910851321578e-001	 3.435391618878011e+000	 9.613811447993340e+000
 6.368706834322875e-001	 3.441568789449906e+000	 1.006242401810219e+001
 9.699327073115912e-001	 3.388931327606469e+000	 8.712534605917210e+000
 9.370399096768675e-001	 3.398173216243544e+000	 8.583252627094812e+000
 9.041433862981303e-001	 3.407073485693827e+000	 8.507105611690657e+000
 8.712480867083660e-001	 3.415633436318824e+000	 8.485928870895281e+000
 8.383589088792047e-001	 3.423854456571968e+000	 8.521472145945442e+000
 8.054806974630461e-001	 3.431738021163191e+000	 8.615400100603042e+000
 7.726182421023863e-001	 3.439285689188370e+000	 8.769292930582685e+000
 7.397762758068609e-001	 3.446499102226225e+000	 8.984647084442436e+000
 7.069594733984083e-001	 3.453379982405272e+000	 9.262876090380550e+000
 6.741724500248509e-001	 3.459930130443355e+000	 9.605311483331057e+000
 6.414197597421077e-001	 3.466151423662343e+000	 1.001320382671449e+001
 9.768116626792683e-001	 3.412966301560131e+000	 8.705042448383633e+000
 9.436855827918899e-001	 3.422273735507152e+000	 8.609450707340043e+000
 9.105557507368421e-001	 3.431237127436225e+000	 8.558571785939733e+000
 8.774271511501822e-001	 3.439857786931272e+000	 8.554212060797930e+000
 8.443047167409272e-001	 3.448137112292919e+000	 8.598099555749876e+000
 8.111933265207124e-001	 3.456076588690030e+000	 8.691884350692666e+000
 7.780978041011298e-001	 3.463677786275902e+000	 8.837139100774749e+000
 7.450229160592590e-001	 3.470942358271658e+000	 9.035359660688680e+000
 7.119733703718022e-001	 3.477872039019490e+000	 9.287965808756916e+000
 6.789538149181272e-001	 3.484468642008293e+000	 9.596302065454221e+000
 6.459688360524208e-001	 3.490734057874272e+000	 9.961638600983344e+000
 9.836906180474517e-001	 3.437001275514286e+000	 8.720101885256540e+000
 9.503312559075080e-001	 3.446374254771155e+000	 8.655070256946354e+000
 9.169681151762193e-001	 3.455400769178916e+000	 8.626479103386899e+000
 8.836062155927121e-001	 3.464082137543915e+000	 8.636105840379429e+000
 8.502505246033911e-001	 3.472419768013961e+000	 8.685656646247685e+000
 8.169059555791284e-001	 3.480415156216863e+000	 8.776766789073752e+000
 7.835773661006110e-001	 3.488069883363327e+000	 8.911001057765024e+000
 7.502695563123625e-001	 3.495385614316883e+000	 9.089854291940151e+000
 7.169872673458503e-001	 3.502364095633400e+000	 9.314752005566552e+000
 6.837351798119865e-001	 3.509007153572822e+000	 9.587051099239780e+000
 6.505179123632263e-001	 3.515316692085695e+000	 9.908040655972567e+000
 9.905695734161415e-001	 3.461036249468935e+000	 8.757461066299593e+000
 9.569769290237222e-001	 3.470474774035552e+000	 8.719926021604659e+000
 9.233804796162610e-001	 3.479564410921900e+000	 8.710706350592139e+000
 8.897852800359551e-001	 3.488306488156749e+000	 8.731550473166903e+000
 8.561963324665967e-001	 3.496702423735099e+000	 8.784142586705764e+000
 8.226185846382941e-001	 3.504753723743687e+000	 8.870102913705690e+000
 7.890569281008298e-001	 3.512461980450645e+000	 8.990988046826050e+000
 7.555161965661715e-001	 3.519828870361901e+000	 9.148291386543146e+000
 7.220011643205525e-001	 3.526856152247003e+000	 9.343443666584209e+000
 6.885165447064289e-001	 3.533545665136944e+000	 9.577813562273253e+000
 6.550669886745246e-001	 3.539899326296611e+000	 9.852708376903202e+000
 9.974485287853375e-001	 3.485071223424078e+000	 8.816867792462157e+000
 9.636226021405323e-001	 3.494575293300343e+000	 8.803830745229332e+000
 9.297928440569677e-001	 3.503728052665179e+000	 8.811128735547273e+000
 8.959643444799118e-001	 3.512530838769779e+000	 8.840481143587764e+000
 8.621421403305437e-001	 3.520985079456329e+000	 8.893550043063931e+000
 8.283312136982091e-001	 3.529092291270506e+000	 8.971940371294735e+000
 7.945364901017862e-001	 3.536854077537855e+000	 9.077200190306600e+000
 7.607628368206867e-001	 3.544272126406713e+000	 9.210821034414549e+000
 7.270150612959087e-001	 3.551348208860298e+000	 9.374238339680801e+000
 6.932979096014542e-001	 3.558084176700659e+000	 9.568831950617781e+000
 6.596160649863155e-001	 3.564481960507018e+000	 9.795926699492807e+000
 1.004327484155040e+000	 3.509106197379714e+000	 8.898069527824907e+000
 9.702682752579384e-001	 3.518675812565526e+000	 8.906595238512232e+000
 9.362052084983391e-001	 3.527891694408750e+000	 8.927618010229798e+000
 9.021434089245815e-001	 3.536755189383000e+000	 8.962828130911772e+000
 8.680879481952324e-001	 3.545267735177653e+000	 9.013865400651447e+000
 8.340438427588738e-001	 3.553430858797317e+000	 9.082319226172714e+000
 8.000160521034800e-001	 3.561246174624960e+000	 9.169728800060668e+000
 7.660094770759071e-001	 3.568715382451315e+000	 9.277583360412880e+000
 7.320289582719192e-001	 3.575840265473287e+000	 9.407322526532632e+000
 6.980792744970626e-001	 3.582622688263966e+000	 9.560336706263215e+000
 6.641651412985992e-001	 3.589064594716919e+000	 9.737967570555073e+000
 1.011206439525248e+000	 3.533141171335845e+000	 9.000813411057965e+000
 9.769139483759403e-001	 3.542776331831105e+000	 9.028028444678428e+000
 9.426175729403755e-001	 3.552055336152616e+000	 9.060042588154142e+000
 9.083224733699647e-001	 3.560979539996417e+000	 9.098516976093034e+000
 8.740337560606624e-001	 3.569550390899068e+000	 9.145068977813317e+000
 8.397564718202881e-001	 3.577769426324122e+000	 9.201272218200689e+000
 8.054956141059113e-001	 3.585638271711957e+000	 9.268656677124245e+000
 7.712561173318331e-001	 3.593158638495711e+000	 9.348708863285770e+000
 7.370428552485837e-001	 3.600332322085969e+000	 9.442872058342342e+000
 7.028606393932541e-001	 3.607161199826867e+000	 9.552546627128736e+000
 6.687142176113755e-001	 3.613647228926312e+000	 9.679090389799075e+000
 1.018085394895963e+000	 3.557176145292468e+000	 9.124846266414668e+000
 9.835596214945382e-001	 3.566876851097076e+000	 9.167937502576327e+000
 9.490299373830770e-001	 3.576218977896776e+000	 9.208267657157849e+000
 9.145015378160616e-001	 3.585203890610027e+000	 9.247468641848228e+000
 8.799795639268342e-001	 3.593833046620580e+000	 9.287135230875840e+000
 8.454691008824514e-001	 3.602107993850920e+000	 9.328825010217425e+000
 8.109751761090801e-001	 3.610030368798847e+000	 9.374058399242934e+000
 7.765027575884650e-001	 3.617601894539902e+000	 9.424318740876160e+000
 7.420567522259022e-001	 3.624824378698342e+000	 9.481052456327790e+000
 7.076420042900284e-001	 3.631699711389360e+000	 9.545669260443715e+000
 6.732632939246444e-001	 3.638229863135198e+000	 9.619542433717943e+000
 1.024964350267184e+000	 3.581211119249587e+000	 9.269914614282071e+000
 9.902052946137315e-001	 3.590977370363441e+000	 9.326127807227403e+000
 9.554423018264432e-001	 3.600382619641227e+000	 9.372155287645551e+000
 9.206806022628717e-001	 3.609428241223828e+000	 9.409599666288878e+000
 8.859253717937474e-001	 3.618115702342184e+000	 9.440032950858740e+000
 8.511817299453649e-001	 3.626446561377710e+000	 9.464996425523372e+000
 8.164547381129864e-001	 3.634422465885629e+000	 9.486000596821066e+000
 7.817493978458024e-001	 3.642045150583884e+000	 9.504525202233822e+000
 7.470706492038749e-001	 3.649316435310410e+000	 9.522019277694524e+000
 7.124233691873859e-001	 3.656238222951445e+000	 9.539901280287435e+000
 6.778123702384060e-001	 3.662812497343578e+000	 9.559559262408373e+000
 1.031843305638912e+000	 3.605246093207198e+000	 9.435764681310319e+000
 9.968509677335214e-001	 3.615077889630200e+000	 9.502403067953409e+000
 9.618546662704745e-001	 3.624546261385974e+000	 9.551564536503578e+000
 9.268596667103954e-001	 3.633652591837827e+000	 9.584822310407823e+000
 8.918711796614026e-001	 3.642398358063882e+000	 9.603725452318759e+000
 8.568943590090278e-001	 3.650785128904495e+000	 9.609798675865207e+000
 8.219343001176305e-001	 3.658814562972306e+000	 9.604542217833425e+000
 7.869960381038458e-001	 3.666488406627660e+000	 9.589431767241019e+000
 7.520845461825019e-001	 3.673808491922170e+000	 9.565918447769899e+000
 7.172047340853268e-001	 3.680776734513124e+000	 9.535428850027376e+000
 6.823614465526605e-001	 3.687395131551449e+000	 9.499365110116896e+000
 6.368706834322875e-001	 3.441568789449906e+000	 1.006242401810219e+001
 6.043888310856980e-001	 3.447421375580705e+000	 9.349430224173776e+000
 5.719499245828054e-001	 3.452951387398861e+000	 9.067214651956517e+000
 5.395582959415586e-001	 3.458160905057220e+000	 8.904883471448885e+000
 5.072182115723986e-001	 3.463052076687237e+000	 8.842208937528881e+000
 4.749338712109150e-001	 3.467627116341299e+000	 8.862168531770985e+000
 4.427094069178876e-001	 3.471888301924910e+000	 8.950892804688373e+000
 4.105488821462868e-001	 3.475837973121044e+000	 9.097607960011432e+000
 3.784562908747218e-001	 3.479478529308901e+000	 9.294573471736614e+000
 3.464355568067571e-001	 3.482812427479281e+000	 9.537015028388735e+000
 3.144905326354376e-001	 3.485842180148714e+000	 9.823053101612096e+000
 6.414197597421077e-001	 3.466151423662343e+000	 1.001320382671449e+001
 6.087058941651441e-001	 3.472045813979897e+000	 9.165839251332574e+000
 5.760352811877797e-001	 3.477615325882537e+000	 8.855101209360011e+000
 5.434122837709494e-001	 3.482862054381338e+000	 8.667412272077375e+000
 5.108411987994559e-001	 3.487788162951552e+000	 8.581987332649353e+000
 4.783262560070006e-001	 3.492395881460230e+000	 8.581305507133104e+000
 4.458716169690854e-001	 3.496687504083628e+000	 8.651057306209193e+000
 4.134813741633447e-001	 3.500665387216742e+000	 8.780086437785984e+000
 3.811595500968081e-001	 3.504331947377194e+000	 8.960326536660936e+000
 3.489100964994951e-001	 3.507689659105719e+000	 9.186733121228492e+000
 3.167368935836879e-001	 3.510741052865397e+000	 9.457211079981777e+000
 6.459688360524208e-001	 3.490734057874272e+000	 9.961638600983344e+000
 6.130229572449885e-001	 3.496670252378494e+000	 8.997572665404784e+000
 5.801206377930676e-001	 3.502279264365547e+000	 8.671822287234335e+000
 5.472662716005796e-001	 3.507563203704741e+000	 8.470563389721676e+000
 5.144641860266883e-001	 3.512524249215126e+000	 8.372450267112320e+000
 4.817186408032080e-001	 3.517164646578413e+000	 8.359462380942928e+000
 4.490338270203604e-001	 3.521486706241609e+000	 8.416850826337631e+000
 4.164138661804459e-001	 3.525492801311734e+000	 8.533079315758659e+000
 3.838628093189135e-001	 3.529185365444833e+000	 8.699759981977982e+000
 3.513846361922379e-001	 3.532566890731576e+000	 8.911584305938023e+000
 3.189832545319382e-001	 3.535639925581587e+000	 9.166249478015780e+000
 6.505179123632263e-001	 3.515316692085695e+000	 9.908040655972567e+000
 6.173400203252304e-001	 3.521294690776494e+000	 8.843659711121244e+000
 5.842059943986689e-001	 3.526943202847890e+000	 8.516447691739296e+000
 5.511202594304491e-001	 3.532264353027429e+000	 8.313447717211494e+000
 5.180871732540961e-001	 3.537260335477959e+000	 8.212750124613253e+000
 4.851110255995365e-001	 3.541933411695844e+000	 8.195833318937194e+000
 4.521960370717128e-001	 3.546285908398853e+000	 8.247509498966384e+000
 4.193463581975906e-001	 3.550320215406021e+000	 8.355864784917905e+000
 3.865660685410383e-001	 3.554038783511820e+000	 8.512194055330632e+000
 3.538591758849856e-001	 3.557444122356851e+000	 8.710930804685669e+000
 3.212296154801886e-001	 3.560538798297287e+000	 8.949572336167103e+000
 6.550669886745246e-001	 3.539899326296611e+000	 9.852708376903202e+000
 6.216570834058705e-001	 3.545919129173898e+000	 8.703119890241343e+000
 5.882913510045833e-001	 3.551607141329567e+000	 8.388041320786387e+000
 5.549742472605577e-001	 3.556965502349405e+000	 8.195173723280570e+000
 5.217101604816790e-001	 3.561996421740048e+000	 8.102040000090506e+000
 4.885034103959862e-001	 3.566702176812527e+000	 8.089615986548807e+000
 4.553582471231428e-001	 3.571085110555360e+000	 8.142275401352086e+000
 4.222788502147787e-001	 3.575147629499603e+000	 8.247729080759175e+000
 3.892693277631822e-001	 3.578892201578152e+000	 8.396958809909334e+000
 3.563337155777379e-001	 3.582321353981542e+000	 8.584146068699260e+000
 3.234759764284389e-001	 3.585437671012494e+000	 8.806596012658927e+000
 6.596160649863155e-001	 3.564481960507018e+000	 9.795926699492807e+000
 6.259741464869081e-001	 3.570543567570702e+000	 8.595720333735121e+000
 5.923767076108115e-001	 3.576271079810580e+000	 8.285661367771365e+000
 5.588282350909055e-001	 3.581666651670665e+000	 8.114847536156640e+000
 5.253331477094372e-001	 3.586732508001397e+000	 8.039473675199341e+000
 4.918957951925573e-001	 3.591470941928460e+000	 8.040011428228414e+000
 4.585204571746501e-001	 3.595884312711128e+000	 8.100396349171943e+000
 4.252113422320101e-001	 3.599975043592480e+000	 8.207966205888308e+000
 3.919725869853454e-001	 3.603745619643832e+000	 8.353393766328727e+000
 3.588082552704951e-001	 3.607198585605654e+000	 8.530614391056862e+000
 3.257223373766892e-001	 3.610336543727210e+000	 8.736748758733041e+000
 6.641651412985992e-001	 3.589064594716919e+000	 9.737967570555073e+000
 6.302912095683438e-001	 3.595168005966912e+000	 8.567425676579164e+000
 5.964620642173529e-001	 3.600935018290926e+000	 8.208360516934514e+000
 5.626822229214927e-001	 3.606367800991213e+000	 8.071573023715216e+000
 5.289561349373706e-001	 3.611468594262003e+000	 8.024205594794506e+000
 4.952881799892498e-001	 3.616239707043643e+000	 8.046223951724072e+000
 4.616826672262346e-001	 3.620683514866160e+000	 8.121125700002216e+000
 4.281438342492851e-001	 3.624802457684653e+000	 8.235877664024510e+000
 3.946758462075277e-001	 3.628599037708858e+000	 8.380847588401986e+000
 3.612827949632569e-001	 3.632075817229181e+000	 8.549730535391968e+000
 3.279686983249396e-001	 3.635235416441434e+000	 8.739470311355632e+000
 6.687142176113755e-001	 3.613647228926312e+000	 9.679090389799075e+000
 6.346082726501774e-001	 3.619792444362524e+000	 8.544626366119568e+000
 6.005474208242082e-001	 3.625598956770607e+000	 8.155186130746619e+000
 5.665362107523191e-001	 3.631068950311045e+000	 8.064451870362868e+000
 5.325791221654793e-001	 3.636204680521867e+000	 8.055390844372266e+000
 4.986805647860634e-001	 3.641008472158077e+000	 8.107461017085006e+000
 4.648448772778966e-001	 3.645482717020455e+000	 8.203722164818400e+000
 4.310763262666033e-001	 3.649629871776119e+000	 8.330772204860550e+000
 3.973791054297293e-001	 3.653452455773231e+000	 8.478677772146540e+000
 3.637573346560238e-001	 3.656953048852127e+000	 8.640899379750133e+000
 3.302150592731899e-001	 3.660134289155166e+000	 8.814211502545795e+000
 6.732632939246444e-001	 3.638229863135198e+000	 9.619542433717943e+000
 6.389253357324087e-001	 3.644416882757539e+000	 8.527446969509825e+000
 6.046327774313762e-001	 3.650262895249622e+000	 8.125180429698714e+000
 5.703901985833847e-001	 3.655770099630165e+000	 8.092583650802428e+000
 5.362021093937632e-001	 3.660940766780990e+000	 8.132185128427095e+000
 5.020729495829986e-001	 3.665777237271762e+000	 8.222933130164799e+000
 4.680070873296361e-001	 3.670281919174012e+000	 8.347449627137122e+000
 4.340088182839650e-001	 3.674457285866882e+000	 8.491965579266072e+000
 4.000823646519501e-001	 3.678305873836950e+000	 8.646250347399768e+000
 3.662318743487953e-001	 3.681830280474491e+000	 8.803535574887704e+000
 3.324614202214402e-001	 3.685033161868407e+000	 8.960433884542765e+000
 6.778123702384060e-001	 3.662812497343578e+000	 9.559559262408373e+000
 6.432423988150381e-001	 3.669041321151957e+000	 8.516003859086569e+000
 6.087181340388583e-001	 3.674926833727972e+000	 8.117380664851453e+000
 5.742441864146897e-001	 3.680471248948570e+000	 8.155065900829031e+000
 5.398250966222223e-001	 3.685676853039370e+000	 8.253744749680164e+000
 5.054653343800549e-001	 3.690546002384696e+000	 8.391853740413378e+000
 4.711692973814530e-001	 3.695081121326833e+000	 8.551576969440887e+000
 4.369413103013700e-001	 3.699284699956938e+000	 8.718780304349149e+000
 4.027856238741904e-001	 3.703159291900017e+000	 8.882939591448199e+000
 3.687064140415716e-001	 3.706707512096273e+000	 9.037063216327109e+000
 3.347077811696906e-001	 3.709932034581156e+000	 9.177609370067197e+000
 6.823614465526605e-001	 3.687395131551449e+000	 9.499365110116896e+000
 6.475594618980655e-001	 3.693665759545780e+000	 8.510405485530235e+000
 6.128034906466536e-001	 3.699590772205656e+000	 8.130819283483140e+000
 5.780981742462338e-001	 3.705172398266261e+000	 8.250994185293155e+000
 5.434480838508567e-001	 3.710412939297010e+000	 8.419226589137965e+000
 5.088577191772328e-001	 3.715314767496883e+000	 8.613439142756889e+000
 4.743315074333473e-001	 3.719880323478916e+000	 8.815377906545944e+000
 4.398738023188186e-001	 3.724112114046291e+000	 9.010545437914651e+000
 4.054888830964497e-001	 3.728012709962431e+000	 9.188127754113847e+000
 3.711809537343529e-001	 3.731584743717474e+000	 9.340915529532463e+000
 3.369541421179410e-001	 3.734830907293413e+000	 9.465219886971481e+000
 3.144905326354376e-001	 3.485842180148714e+000	 9.823053101612096e+000
 2.826249993720412e-001	 3.488570353274702e+000	 1.000772256881668e+001
 2.508426657390410e-001	 3.490999564173347e+000	 1.014832357838813e+001
 2.191471676259100e-001	 3.493132479441893e+000	 1.025115674567584e+001
 1.875420676063174e-001	 3.494971812888549e+000	 1.032517405290539e+001
 1.560308545165396e-001	 3.496520323470751e+000	 1.038188818185170e+001
 1.246169430937966e-001	 3.497780813243908e+000	 1.043527921156356e+001
 9.330367367343673e-002	 3.498756125322376e+000	 1.050169897493218e+001
 6.209431194385126e-002	 3.499449141854330e+000	 1.059977336354500e+001
 3.099204875795090e-002	 3.499862782012171e+000	 1.075030286522174e+001
 0.000000000000000e+000	 3.500000000000000e+000	 1.097616161295174e+001
 3.167368935836879e-001	 3.510741052865397e+000	 9.457211079981777e+000
 2.846437493679849e-001	 3.513488712942027e+000	 9.602492504991094e+000
 2.526343990658300e-001	 3.515935275346863e+000	 9.712445190474671e+000
 2.207125045373342e-001	 3.518083425724269e+000	 9.793395577034236e+000
 1.888816538031211e-001	 3.519935897266798e+000	 9.854362361001021e+000
 1.571453606197253e-001	 3.521495468638728e+000	 9.906964474793776e+000
 1.255070641153461e-001	 3.522764961910145e+000	 9.965326378935602e+000
 9.397012848486949e-002	 3.523747240503367e+000	 1.004598096480282e+001
 6.253784274303140e-002	 3.524445207153342e+000	 1.016777036278023e+001
 3.121342053454833e-002	 3.524861801883700e+000	 1.035174494536292e+001
 0.000000000000000e+000	 3.525000000000000e+000	 1.062106080897906e+001
 3.189832545319382e-001	 3.535639925581587e+000	 9.166249478015780e+000
 2.866624993639287e-001	 3.538407072608955e+000	 9.275314260923551e+000
 2.544261323926189e-001	 3.540870986520065e+000	 9.355970021251359e+000
 2.222778414487585e-001	 3.543034372006405e+000	 9.414581319234719e+000
 1.902212399999247e-001	 3.544899981644873e+000	 9.460247507030777e+000
 1.582598667229110e-001	 3.546470613806583e+000	 9.504709305070968e+000
 1.263971851368957e-001	 3.547749110576306e+000	 9.562252635551998e+000
 9.463658329630222e-002	 3.548738355684315e+000	 9.649610017572092e+000
 6.298137354221153e-002	 3.549441272452333e+000	 9.785859823927412e+000
 3.143479231114575e-002	 3.549860821755224e+000	 9.992323694391196e+000
 0.000000000000000e+000	 3.549999999999999e+000	 1.029246239443073e+001
 3.212296154801886e-001	 3.560538798297287e+000	 8.949572336167103e+000
 2.886812493598724e-001	 3.563325432275487e+000	 9.025526062729979e+000
 2.562178657194078e-001	 3.565806697692955e+000	 9.078173042148050e+000
 2.238431783601827e-001	 3.567985318288303e+000	 9.113928208504699e+000
 1.915608261967285e-001	 3.569864066022773e+000	 9.141985476600375e+000
 1.593743728260967e-001	 3.571445758974316e+000	 9.174222862464562e+000
 1.272873061584453e-001	 3.572733259242388e+000	 9.225104805368993e+000
 9.530303810773495e-002	 3.573729470865220e+000	 9.311582001398483e+000
 6.342490434139166e-002	 3.574437337751306e+000	 9.452989054075891e+000
 3.165616408774319e-002	 3.574859841626742e+000	 9.670940242268587e+000
 0.000000000000000e+000	 3.574999999999999e+000	 9.989223699634735e+000
 3.234759764284389e-001	 3.585437671012494e+000	 8.806596012658927e+000
 2.906999993558162e-001	 3.588243791941620e+000	 8.852482194677075e+000
 2.580095990461968e-001	 3.590742408865532e+000	 8.878348615261112e+000
 2.254085152716069e-001	 3.592936264569963e+000	 8.890672799199809e+000
 1.929004123935321e-001	 3.594828150400498e+000	 8.898757098836395e+000
 1.604888789292823e-001	 3.596420904141930e+000	 8.914632306765606e+000
 1.281774271799948e-001	 3.597717407908394e+000	 8.952958413262939e+000
 9.596949291916773e-002	 3.598720586046082e+000	 9.030922824181342e+000
 6.386843514057181e-002	 3.599433403050262e+000	 9.168136350428231e+000
 3.187753586434061e-002	 3.599858861498256e+000	 9.386527274784895e+000
 0.000000000000000e+000	 3.600000000000000e+000	 9.710233795743804e+000
 3.257223373766892e-001	 3.610336543727210e+000	 8.736748758733041e+000
 2.927187493517600e-001	 3.613162151607358e+000	 8.755552445452530e+000
 2.598013323729857e-001	 3.615678120037797e+000	 8.755809824709738e+000
 2.269738521830311e-001	 3.617887210851384e+000	 8.744073194212179e+000
 1.942399985903358e-001	 3.619792234778049e+000	 8.729767189714082e+000
 1.616033850324680e-001	 3.621396049309423e+000	 8.725090837776781e+000
 1.290675482015443e-001	 3.622701556574323e+000	 8.744916695346078e+000
 9.663594773060046e-002	 3.623711701226900e+000	 8.806687397708291e+000
 6.431196593975193e-002	 3.624429468349195e+000	 8.930309931677293e+000
 3.209890764093804e-002	 3.624857881369765e+000	 9.138047945428417e+000
 0.000000000000000e+000	 3.625000000000000e+000	 9.454412400224221e+000
 3.279686983249396e-001	 3.635235416441434e+000	 8.739470311355632e+000
 2.947374993477037e-001	 3.638080511272698e+000	 8.734121577192230e+000
 2.615930656997746e-001	 3.640613831209749e+000	 8.709887835470440e+000
 2.285391890944554e-001	 3.642838157132565e+000	 8.673408307006648e+000
 1.955795847871396e-001	 3.644756319155425e+000	 8.634243730590551e+000
 1.627178911356537e-001	 3.646371194476796e+000	 8.604776803528580e+000
 1.299576692230939e-001	 3.647685705240174e+000	 8.600109649948241e+000
 9.730240254203321e-002	 3.648702816407676e+000	 8.637958644370864e+000
 6.475549673893206e-002	 3.649425533648111e+000	 8.738546913294631e+000
 3.232027941753547e-002	 3.649856901241270e+000	 8.924494831970499e+000
 0.000000000000000e+000	 3.650000000000000e+000	 9.220708827322756e+000
 3.302150592731899e-001	 3.660134289155166e+000	 8.814211502545795e+000
 2.967562493436475e-001	 3.662998870937642e+000	 8.787588816178658e+000
 2.633847990265636e-001	 3.665549542381390e+000	 8.739931278382196e+000
 2.301045260058796e-001	 3.667789103413511e+000	 8.677977153778475e+000
 1.969191709839432e-001	 3.669720403532626e+000	 8.611437080265326e+000
 1.638323972388393e-001	 3.671346339644046e+000	 8.552892844900212e+000
 1.308477902446434e-001	 3.672669853905949e+000	 8.517693127339799e+000
 9.796885735346593e-002	 3.673693931588407e+000	 8.523846544424023e+000
 6.519902753811220e-002	 3.674421598947008e+000	 8.591912324648522e+000
 3.254165119413290e-002	 3.674855921112771e+000	 8.744888935640026e+000
 0.000000000000000e+000	 3.675000000000000e+000	 9.008100981375334e+000
 3.324614202214402e-001	 3.685033161868407e+000	 8.960433884542765e+000
 2.987749993395912e-001	 3.687917230602189e+000	 8.915367364188429e+000
 2.651765323533525e-001	 3.690485253552716e+000	 8.845305660083691e+000
 2.316698629173039e-001	 3.692740049694216e+000	 8.757098174308114e+000
 1.982587571807470e-001	 3.694684487909653e+000	 8.660619218986675e+000
 1.649469033420251e-001	 3.696321484811176e+000	 8.568665074911676e+000
 1.317379112661929e-001	 3.697654002571646e+000	 8.496847956354266e+000
 9.863531216489868e-002	 3.698685046769096e+000	 8.463487221866657e+000
 6.564255833729234e-002	 3.699417664245885e+000	 8.489498165968451e+000
 3.276302297073033e-002	 3.699854940984265e+000	 8.598278720871225e+000
 0.000000000000000e+000	 3.699999999999999e+000	 8.815594390925380e+000
 3.347077811696906e-001	 3.709932034581156e+000	 9.177609370067197e+000
 3.007937493355350e-001	 3.712835590266338e+000	 9.116883929514604e+000
 2.669682656801414e-001	 3.715420964723729e+000	 9.025392796710971e+000
 2.332351998287282e-001	 3.717690995974683e+000	 8.910108580161081e+000
 1.995983433775506e-001	 3.719648572286506e+000	 8.781083022899020e+000
 1.660614094452107e-001	 3.721296629978186e+000	 8.651342291072018e+000
 1.326280322877425e-001	 3.722638151237267e+000	 8.536779106181934e+000
 9.930176697633145e-002	 3.723676161949743e+000	 8.456042067136860e+000
 6.608608913647246e-002	 3.724413729544744e+000	 8.430422503278923e+000
 3.298439474732776e-002	 3.724853960855755e+000	 8.483739193719144e+000
 0.000000000000000e+000	 3.724999999999999e+000	 8.642221281735917e+000
 3.369541421179410e-001	 3.734830907293413e+000	 9.465219886971481e+000
 3.028124993314788e-001	 3.737753949930092e+000	 9.391578276750268e+000
 2.687599990069305e-001	 3.740356675894433e+000	 9.279590270246683e+000
 2.348005367401525e-001	 3.742641942254912e+000	 9.136363728963321e+000
 2.009379295743544e-001	 3.744612656663185e+000	 8.972141567513685e+000
 1.671759155483964e-001	 3.746271775145075e+000	 8.800195219226547e+000
 1.335181533092921e-001	 3.747622299902811e+000	 8.636714881691018e+000
 9.996822178776421e-002	 3.748667277130346e+000	 8.500696894898258e+000
 6.652961993565264e-002	 3.749409794843583e+000	 8.413828599543383e+000
 3.320576652392519e-002	 3.749852980727242e+000	 8.400371017139330e+000
 0.000000000000000e+000	 3.750000000000000e+000	 8.487039686882861e+000
 3.750000000000000e+000	 0.000000000000000e+000	 1.059028433663300e+001
 3.749852980727241e+000	 3.320576652392414e-002	 1.064843223207083e+001
 3.749409794843583e+000	 6.652961993565168e-002	 1.067592357827671e+001
 3.748667277130346e+000	 9.996822178776336e-002	 1.067811844451614e+001
 3.747622299902811e+000	 1.335181533092913e-001	 1.066009930712070e+001
 3.746271775145075e+000	 1.671759155483958e-001	 1.062665198283559e+001
 3.744612656663185e+000	 2.009379295743539e-001	 1.058224660346900e+001
 3.742641942254912e+000	 2.348005367401521e-001	 1.053101867746647e+001
 3.740356675894433e+000	 2.687599990069302e-001	 1.047675028552436e+001
 3.737753949930092e+000	 3.028124993314787e-001	 1.042285145875869e+001
 3.734830907293414e+000	 3.369541421179410e-001	 1.037234178926028e+001
 3.775000000000000e+000	 0.000000000000000e+000	 1.054381166774149e+001
 3.774852000598727e+000	 3.342713830051917e-002	 1.061084651385626e+001
 3.774405860142423e+000	 6.697315073482224e-002	 1.065483285825323e+001
 3.773658392310948e+000	 1.006346765991745e-001	 1.067749209863736e+001
 3.772606448568354e+000	 1.344082743308024e-001	 1.068071509544433e+001
 3.771246920311963e+000	 1.682904216515211e-001	 1.066656903361373e+001
 3.769576741039862e+000	 2.022775157710703e-001	 1.063730426410874e+001
 3.767592888535142e+000	 2.363658736514571e-001	 1.059536110794149e+001
 3.765292387065135e+000	 2.705517323335628e-001	 1.054337660474937e+001
 3.762672309593844e+000	 3.048312493272240e-001	 1.048419118727385e+001
 3.759729780005671e+000	 3.392005030659454e-001	 1.042085526242641e+001
 3.800000000000000e+000	 0.000000000000000e+000	 1.050543536850046e+001
 3.799851020470218e+000	 3.364851007710944e-002	 1.057591040084120e+001
 3.799401925441280e+000	 6.741668153397368e-002	 1.062444961081282e+001
 3.798649507491594e+000	 1.013011314105425e-001	 1.065266997712565e+001
 3.797590597233975e+000	 1.352983953522363e-001	 1.066235731120665e+001
 3.796222065478973e+000	 1.694049277545255e-001	 1.065547329477217e+001
 3.794540825416714e+000	 2.036171019676120e-001	 1.063416250243627e+001
 3.792543834815608e+000	 2.379312105625235e-001	 1.060075939187567e+001
 3.790228098236149e+000	 2.723434656598829e-001	 1.055779524333516e+001
 3.787590669257994e+000	 3.068499993225723e-001	 1.050800502954282e+001
 3.784628652718419e+000	 3.414468640134583e-001	 1.045433419641554e+001
 3.824999999999999e+000	 0.000000000000000e+000	 1.047447926251146e+001
 3.824850040341712e+000	 3.386988185369495e-002	 1.054752381829639e+001
 3.824397990740157e+000	 6.786021233310595e-002	 1.059968521318920e+001
 3.823640622672282e+000	 1.019675862218672e-001	 1.063247466092840e+001
 3.822574745899673e+000	 1.361885163735931e-001	 1.064757161644550e+001
 3.821197210646104e+000	 1.705194338574090e-001	 1.064683099248643e+001
 3.819504909793741e+000	 2.049566881639791e-001	 1.063229036659923e+001
 3.817494781096314e+000	 2.394965474733515e-001	 1.060617716076489e+001
 3.815163809407477e+000	 2.741351989858903e-001	 1.057091577518798e+001
 3.812509028922541e+000	 3.088687493175237e-001	 1.052913465702878e+001
 3.809527525431660e+000	 3.436932249604792e-001	 1.048367328414677e+001
 3.850000000000000e+000	 0.000000000000000e+000	 1.045028473639952e+001
 3.849849060213212e+000	 3.409125363027569e-002	 1.052510027212463e+001
 3.849394056039055e+000	 6.830374313221913e-002	 1.058002551854811e+001
 3.848631737853014e+000	 1.026340410331487e-001	 1.061646454680624e+001
 3.847558894565447e+000	 1.370786373948729e-001	 1.063598911573934e+001
 3.846172355813354e+000	 1.716339399601717e-001	 1.064034607083564e+001
 3.844468994170942e+000	 2.062962743601716e-001	 1.063146473891487e+001
 3.842445727377257e+000	 2.410618843839409e-001	 1.061146430057765e+001
 3.840099520579115e+000	 2.759269323115852e-001	 1.058266112166561e+001
 3.837427388587484e+000	 3.108874993120781e-001	 1.054757602421949e+001
 3.834426398145392e+000	 3.459395859070087e-001	 1.050894147668884e+001
 3.875000000000000e+000	 0.000000000000000e+000	 1.043221017326364e+001
 3.874848080084717e+000	 3.431262540685167e-002	 1.050806917215842e+001
 3.874390121337971e+000	 6.874727393131318e-002	 1.056497117702078e+001
 3.873622853033790e+000	 1.033004958443871e-001	 1.060421170736184e+001
 3.872543043231299e+000	 1.379687584160757e-001	 1.062725345449811e+001
 3.871147500980726e+000	 1.727484460628135e-001	 1.063573386611720e+001
 3.869433078548318e+000	 2.076358605561895e-001	 1.063147273199931e+001
 3.867396673658440e+000	 2.426272212942919e-001	 1.061647975266454e+001
 3.865035231751068e+000	 2.777186656369675e-001	 1.059296207191458e+001
 3.862345748252824e+000	 3.129062493062355e-001	 1.056333175345445e+001
 3.859325270859617e+000	 3.481859468530463e-001	 1.053021318102701e+001
 3.900000000000000e+000	 0.000000000000000e+000	 1.041963040791834e+001
 3.899847099956226e+000	 3.453399718342289e-002	 1.049587532241848e+001
 3.899386186636904e+000	 6.919080473038806e-002	 1.055403716144237e+001
 3.898613968214608e+000	 1.039669506555822e-001	 1.059530145271163e+001
 3.897527191897228e+000	 1.388588794372013e-001	 1.062102041701336e+001
 3.896122646148219e+000	 1.738629521653345e-001	 1.063272074171143e+001
 3.894397162925869e+000	 2.089754467520327e-001	 1.063211136087315e+001
 3.892347619939861e+000	 2.441925582044043e-001	 1.062109122352143e+001
 3.889970942923332e+000	 2.795103989620373e-001	 1.060175703069708e+001
 3.887264107918562e+000	 3.149249992999960e-001	 1.057641092121170e+001
 3.884224143574332e+000	 3.504323077985923e-001	 1.054756808519393e+001
 3.924999999999999e+000	 0.000000000000000e+000	 1.041193620295350e+001
 3.924846119827740e+000	 3.475536895998933e-002	 1.048797843085316e+001
 3.924382251935859e+000	 6.963433552944384e-002	 1.054675231121485e+001
 3.923605083395470e+000	 1.046334054667341e-001	 1.058933190890895e+001
 3.922511340563234e+000	 1.397490004582499e-001	 1.061695753986982e+001
 3.921097791315832e+000	 1.749774582677347e-001	 1.063104373690057e+001
 3.919361247303594e+000	 2.103150329477013e-001	 1.063318722759841e+001
 3.917298566221521e+000	 2.457578951142783e-001	 1.062517490564476e+001
 3.914906654095911e+000	 2.813021322867944e-001	 1.060899177585583e+001
 3.912182467584696e+000	 3.169437492933596e-001	 1.058682885256193e+001
 3.909123016289540e+000	 3.526786687436464e-001	 1.056109099008356e+001
 3.949999999999999e+000	 0.000000000000000e+000	 1.040853374469091e+001
 3.949845139699260e+000	 3.497674073655101e-002	 1.048385263769517e+001
 3.949378317234833e+000	 7.007786632848050e-002	 1.054265889349146e+001
 3.948596198576375e+000	 1.052998602778429e-001	 1.058591361237635e+001
 3.947495489229316e+000	 1.406391214792214e-001	 1.061474374003736e+001
 3.946072936483568e+000	 1.760919643700140e-001	 1.063045022902396e+001
 3.944325331681494e+000	 2.116546191431953e-001	 1.063451621789105e+001
 3.942249512503419e+000	 2.473232320239136e-001	 1.062861520898717e+001
 3.939842365268800e+000	 2.830938656112389e-001	 1.061461922498832e+001
 3.937100827251227e+000	 3.189624992863261e-001	 1.059460692342827e+001
 3.934021889005238e+000	 3.549250296882090e-001	 1.057087164765150e+001
 3.974999999999999e+000	 0.000000000000000e+000	 1.040884415816123e+001
 3.974844159570782e+000	 3.519811251310792e-002	 1.048298606161589e+001
 3.974374382533824e+000	 7.052139712749800e-002	 1.054131218092043e+001
 3.973587313757323e+000	 1.059663150889084e-001	 1.058466911964256e+001
 3.972479637895476e+000	 1.415292425001158e-001	 1.061406895699714e+001
 3.971048081651422e+000	 1.772064704721724e-001	 1.063069760838160e+001
 3.969289416059570e+000	 2.129942053385146e-001	 1.063592320918218e+001
 3.967200458785555e+000	 2.488885689333105e-001	 1.063130450254702e+001
 3.964778076442002e+000	 2.848855989353708e-001	 1.061859921092658e+001
 3.962019186918156e+000	 3.209812492788958e-001	 1.059977237030786e+001
 3.958920761721430e+000	 3.571713906322798e-001	 1.057700460522150e+001
 4.000000000000000e+000	 0.000000000000000e+000	 1.041230304026931e+001
 3.999843179442312e+000	 3.541948428966008e-002	 1.048488036289959e+001
 3.999370447832837e+000	 7.096492792649639e-002	 1.054228004522344e+001
 3.998578428938315e+000	 1.066327698999308e-001	 1.058523263171400e+001
 3.997463786561714e+000	 1.424193635209331e-001	 1.061463380828827e+001
 3.996023226819399e+000	 1.783209765742101e-001	 1.063155296532941e+001
 3.994253500437819e+000	 2.143337915336594e-001	 1.063724178962695e+001
 3.992151405067931e+000	 2.504539058424689e-001	 1.063314286564814e+001
 3.989713787615519e+000	 2.866773322591902e-001	 1.062089826563586e+001
 3.986937546585482e+000	 3.229999992710685e-001	 1.060235810712890e+001
 3.983819634438112e+000	 3.594177515758590e-001	 1.057958905562988e+001
 3.734830907293414e+000	 3.369541421179410e-001	 1.037234178926028e+001
 3.731584743717474e+000	 3.711809537343518e-001	 1.042232601017122e+001
 3.728012709962430e+000	 4.054888830964488e-001	 1.048082390877388e+001
 3.724112114046291e+000	 4.398738023188178e-001	 1.054914260088150e+001
 3.719880323478916e+000	 4.743315074333467e-001	 1.062812052106539e+001
 3.715314767496882e+000	 5.088577191772322e-001	 1.071811123012639e+001
 3.710412939297010e+000	 5.434480838508565e-001	 1.081896779053838e+001
 3.705172398266262e+000	 5.780981742462337e-001	 1.093002776554834e+001
 3.699590772205657e+000	 6.128034906466537e-001	 1.105009889784317e+001
 3.693665759545780e+000	 6.475594618980656e-001	 1.090145179953465e+001
 3.687395131551449e+000	 6.823614465526605e-001	 1.055843394580765e+001
 3.759729780005671e+000	 3.392005030659454e-001	 1.042085526242641e+001
 3.756461975338673e+000	 3.736554934268418e-001	 1.044071442552804e+001
 3.752866128024844e+000	 4.081921423183815e-001	 1.046400021161849e+001
 3.748939528135643e+000	 4.428062943359137e-001	 1.049800901006997e+001
 3.744679525630999e+000	 4.774937174848724e-001	 1.055900211394694e+001
 3.740083532609068e+000	 5.122501039740350e-001	 1.064006557138872e+001
 3.735149025554649e+000	 5.470710710791201e-001	 1.074104214815251e+001
 3.729873547583952e+000	 5.819521620774207e-001	 1.086124270595911e+001
 3.724254710683340e+000	 6.168888472541161e-001	 1.099943149893364e+001
 3.718290197939601e+000	 6.518765249807944e-001	 1.084402542804239e+001
 3.711977765759320e+000	 6.869105228666610e-001	 1.054817431383411e+001
 3.784628652718419e+000	 3.414468640134583e-001	 1.045433419641554e+001
 3.781339206960455e+000	 3.761300331187450e-001	 1.047434269534292e+001
 3.777719546087910e+000	 4.108954015396415e-001	 1.049832760084207e+001
 3.773766942225699e+000	 4.457387863522611e-001	 1.052953460997982e+001
 3.769478727783819e+000	 4.806559275355834e-001	 1.057143797166678e+001
 3.764852297722003e+000	 5.156424887699673e-001	 1.062774670071446e+001
 3.759885111813029e+000	 5.506940583064662e-001	 1.070241058621152e+001
 3.754574696902358e+000	 5.858061499076546e-001	 1.079962597087635e+001
 3.748918649161690e+000	 6.209742038605993e-001	 1.092910772343029e+001
 3.742914636334019e+000	 6.561935880625284e-001	 1.077184476657003e+001
 3.736560399967698e+000	 6.914595991796617e-001	 1.052149210309341e+001
 3.809527525431660e+000	 3.436932249604792e-001	 1.048367328414677e+001
 3.806216438582819e+000	 3.786045728100612e-001	 1.050302418951022e+001
 3.802572964151630e+000	 4.135986607602289e-001	 1.052682561067512e+001
 3.798594356316461e+000	 4.486712783678601e-001	 1.055825134290196e+001
 3.794277929937377e+000	 4.838181375854797e-001	 1.060070528844151e+001
 3.789621062835688e+000	 5.190348735650284e-001	 1.065782786279380e+001
 3.784621198072153e+000	 5.543170455328956e-001	 1.073350219641341e+001
 3.779275846221477e+000	 5.896601377369354e-001	 1.083186010808377e+001
 3.773582587640705e+000	 6.250595604661036e-001	 1.095676198592263e+001
 3.767539074729035e+000	 6.605106511432676e-001	 1.076115402386895e+001
 3.761143034176585e+000	 6.960086754916621e-001	 1.051973479937403e+001
 3.834426398145392e+000	 3.459395859070087e-001	 1.050894147668884e+001
 3.831093670205765e+000	 3.810791125007904e-001	 1.052688677476222e+001
 3.827426382216002e+000	 4.163019199801439e-001	 1.054968100190334e+001
 3.823421770407928e+000	 4.516037703827104e-001	 1.058042488435823e+001
 3.819077132091672e+000	 4.869803476345614e-001	 1.062245088018847e+001
 3.814389827950121e+000	 5.224272583592187e-001	 1.067932978136768e+001
 3.809357284332017e+000	 5.579400327584078e-001	 1.075487711243466e+001
 3.803976995541311e+000	 5.935141255652630e-001	 1.085315930148321e+001
 3.798246526120385e+000	 6.291449170706286e-001	 1.094524152038222e+001
 3.792163513124647e+000	 6.648277142230122e-001	 1.077280307547863e+001
 3.785725668385978e+000	 7.005577518026629e-001	 1.055646681480327e+001
 3.859325270859617e+000	 3.481859468530463e-001	 1.053021318102701e+001
 3.855970901829293e+000	 3.835536521909328e-001	 1.054606291171520e+001
 3.852279800281029e+000	 4.190051791993864e-001	 1.056708425371765e+001
 3.848249184500100e+000	 4.545362623968124e-001	 1.059630366867597e+001
 3.843876334246704e+000	 4.901425576828286e-001	 1.063698104444424e+001
 3.839158593065305e+000	 5.258196431525382e-001	 1.069261649668831e+001
 3.834093370592623e+000	 5.615630199830028e-001	 1.076695696813645e+001
 3.828678144861858e+000	 5.973681133926372e-001	 1.086400260081013e+001
 3.822910464600731e+000	 6.332302736741744e-001	 1.092832509936208e+001
 3.816787951520856e+000	 6.691447773017618e-001	 1.077725849996519e+001
 3.810308302595879e+000	 7.051068281126635e-001	 1.058420218617268e+001
 3.884224143574332e+000	 3.504323077985923e-001	 1.054756808519393e+001
 3.880848133453403e+000	 3.860281918804883e-001	 1.056068950762964e+001
 3.877133218346708e+000	 4.217084384179562e-001	 1.057922944453443e+001
 3.873076598592977e+000	 4.574687544101659e-001	 1.060613886918384e+001
 3.868675536402473e+000	 4.933047677302811e-001	 1.064460394493714e+001
 3.863927358181238e+000	 5.292120279449869e-001	 1.069805303003537e+001
 3.858829456853970e+000	 5.651860072066808e-001	 1.077016348112971e+001
 3.853379294183119e+000	 6.012221012190582e-001	 1.086486823040993e+001
 3.847574403081743e+000	 6.373156302767411e-001	 1.090613974223371e+001
 3.841412389917662e+000	 6.734618403795167e-001	 1.077468776980375e+001
 3.834890936806286e+000	 7.096559044216639e-001	 1.060314942142302e+001
 3.909123016289540e+000	 3.526786687436464e-001	 1.056109099008356e+001
 3.905725365078095e+000	 3.885027315694568e-001	 1.057090777479726e+001
 3.901986636413041e+000	 4.244116976358535e-001	 1.058631413737059e+001
 3.897904012686559e+000	 4.604012464227709e-001	 1.061018431098245e+001
 3.893474738558979e+000	 4.964669777769189e-001	 1.064562955215435e+001
 3.888696123297921e+000	 5.326044127365646e-001	 1.069600535247314e+001
 3.883565543116061e+000	 5.688089944294418e-001	 1.076491845010795e+001
 3.878080443505093e+000	 6.050760890445261e-001	 1.085623361552433e+001
 3.872238341563422e+000	 6.414009868783286e-001	 1.087881077784811e+001
 3.866036828315065e+000	 6.777789034562769e-001	 1.076525576456520e+001
 3.859473571017202e+000	 7.142049807296647e-001	 1.061351352251431e+001
 3.934021889005238e+000	 3.549250296882090e-001	 1.057087164765150e+001
 3.930602596703371e+000	 3.909772712578384e-001	 1.057686309430591e+001
 3.926840054480028e+000	 4.271149568530782e-001	 1.058853926957134e+001
 3.922731426780848e+000	 4.633337384346274e-001	 1.060869638702753e+001
 3.918273940716222e+000	 4.996291878227421e-001	 1.064036958616609e+001
 3.913464888415353e+000	 5.359967975272714e-001	 1.068684035479404e+001
 3.908301629378892e+000	 5.724319816512854e-001	 1.075164375228120e+001
 3.902781592827782e+000	 6.089300768690406e-001	 1.083857540757932e+001
 3.896902280045765e+000	 6.454863434789371e-001	 1.084646189803329e+001
 3.890661266713064e+000	 6.820959665320422e-001	 1.074912485297030e+001
 3.884056205228624e+000	 7.187540570366653e-001	 1.061549609637449e+001
 3.958920761721430e+000	 3.571713906322798e-001	 1.057700460522150e+001
 3.955479828329226e+000	 3.934518109456330e-001	 1.057870488494524e+001
 3.951693472547667e+000	 4.298182160696304e-001	 1.058610904669924e+001
 3.947558840875840e+000	 4.662662304457354e-001	 1.060193397737973e+001
 3.943073142874203e+000	 5.027913978677507e-001	 1.062913746160714e+001
 3.938233653533534e+000	 5.393891823171073e-001	 1.067092581859634e+001
 3.933037715642466e+000	 5.760549688722120e-001	 1.073076134090713e+001
 3.927482742151185e+000	 6.127840646926019e-001	 1.081236950851909e+001
 3.921566218528774e+000	 6.495717000785662e-001	 1.080921520907294e+001
 3.915285705111661e+000	 6.864130296068129e-001	 1.072645497184717e+001
 3.908638839440555e+000	 7.233031333426659e-001	 1.060929546166156e+001
 3.983819634438112e+000	 3.594177515758590e-001	 1.057958905562988e+001
 3.980357059955668e+000	 3.959263506328409e-001	 1.057658647702876e+001
 3.976546890615960e+000	 4.325214752855102e-001	 1.057923084040245e+001
 3.972386254971538e+000	 4.691987224560951e-001	 1.059015837148267e+001
 3.967872345032923e+000	 5.059536079119449e-001	 1.061224823472184e+001
 3.963002418652466e+000	 5.427815671060726e-001	 1.064863038844645e+001
 3.957773801906782e+000	 5.796779560922218e-001	 1.070269324291444e+001
 3.952183891475304e+000	 6.166380525152102e-001	 1.077809109422729e+001
 3.946230157012451e+000	 6.536570566772164e-001	 1.076719128125469e+001
 3.939910143510855e+000	 6.907300926805887e-001	 1.069740370212785e+001
 3.933221473652993e+000	 7.278522096476667e-001	 1.059510675152190e+001
 3.687395131551449e+000	 6.823614465526605e-001	 1.055843394580765e+001
 3.680776734513125e+000	 7.172047340853256e-001	 1.056142899137401e+001
 3.673808491922170e+000	 7.520845461825008e-001	 1.056771623469197e+001
 3.666488406627661e+000	 7.869960381038451e-001	 1.057760127490818e+001
 3.658814562972306e+000	 8.219343001176299e-001	 1.059141717544500e+001
 3.650785128904496e+000	 8.568943590090274e-001	 1.060952556730677e+001
 3.642398358063881e+000	 8.918711796614022e-001	 1.063231772199940e+001
 3.633652591837826e+000	 9.268596667103952e-001	 1.066021558974852e+001
 3.624546261385974e+000	 9.618546662704745e-001	 1.069367279864603e+001
 3.615077889630201e+000	 9.968509677335217e-001	 1.073317561031434e+001
 3.605246093207198e+000	 1.031843305638912e+000	 1.077924382764960e+001
 3.711977765759320e+000	 6.869105228666610e-001	 1.054817431383411e+001
 3.705315246074803e+000	 7.219860989830625e-001	 1.055997773645178e+001
 3.698300548533930e+000	 7.570984431609740e-001	 1.057398163979320e+001
 3.690931662671435e+000	 7.922426783617845e-001	 1.059048576343838e+001
 3.683206660058982e+000	 8.274138621222202e-001	 1.060981871273227e+001
 3.675123696431280e+000	 8.626069880726868e-001	 1.063233911119262e+001
 3.666681013785579e+000	 8.978169875291037e-001	 1.065843672139518e+001
 3.657876942451823e+000	 9.330387311580154e-001	 1.068853352988070e+001
 3.648709903130722e+000	 9.682670307146525e-001	 1.072308479157151e+001
 3.639178408896960e+000	 1.003496640853508e+000	 1.076258002914378e+001
 3.629281067164810e+000	 1.038722261010886e+000	 1.080754398277355e+001
 3.736560399967698e+000	 6.914595991796617e-001	 1.052149210309341e+001
 3.729853757636888e+000	 7.267674638798090e-001	 1.054266255874880e+001
 3.722792605145995e+000	 7.621123401384855e-001	 1.056493999488433e+001
 3.715374918715417e+000	 7.974893186188111e-001	 1.058861787464675e+001
 3.707598757145765e+000	 8.328934241259660e-001	 1.061401993394176e+001
 3.699462263958071e+000	 8.683196171355897e-001	 1.064150138369795e+001
 3.690963669507181e+000	 9.037627953961570e-001	 1.067145007947445e+001
 3.682101293065625e+000	 9.392177956051157e-001	 1.070428765381422e+001
 3.672873544875174e+000	 9.746793951584591e-001	 1.074047060668727e+001
 3.663278928163324e+000	 1.010142313973292e+000	 1.078049134932478e+001
 3.653316041121927e+000	 1.045601216382847e+000	 1.082487919671700e+001
 3.761143034176585e+000	 6.960086754916621e-001	 1.051973479937403e+001
 3.754392269199381e+000	 7.315488287755653e-001	 1.052327432641588e+001
 3.747284661758370e+000	 7.671262371150364e-001	 1.054087959992712e+001
 3.739818174759607e+000	 8.027359588749252e-001	 1.057228615189808e+001
 3.731990854232656e+000	 8.383729861288675e-001	 1.060430931517912e+001
 3.723800831484868e+000	 8.740322461977365e-001	 1.063730047943282e+001
 3.715246325228692e+000	 9.097086032625619e-001	 1.067164519174915e+001
 3.706325643679236e+000	 9.453968600516962e-001	 1.070776433721086e+001
 3.697037186619333e+000	 9.810917596018945e-001	 1.074611527612796e+001
 3.687379447429297e+000	 1.016787987092875e+000	 1.078719293309546e+001
 3.677351015078551e+000	 1.052480171754797e+000	 1.083153083300014e+001
 3.785725668385978e+000	 7.005577518026629e-001	 1.055646681480327e+001
 3.778930780762281e+000	 7.363301936703310e-001	 1.055429431323582e+001
 3.771776718371052e+000	 7.721401340906254e-001	 1.055931351407513e+001
 3.764261430804003e+000	 8.079825991301265e-001	 1.057159332092888e+001
 3.756382951319652e+000	 8.438525481309244e-001	 1.059114220589379e+001
 3.748139399011674e+000	 8.797448752591269e-001	 1.062002133622770e+001
 3.739528980950109e+000	 9.156544111283189e-001	 1.065930645242082e+001
 3.730549994292651e+000	 9.515759244977564e-001	 1.069924711437581e+001
 3.721200828363198e+000	 9.875041240449586e-001	 1.074030115507752e+001
 3.711479966694875e+000	 1.023433660212255e+000	 1.078296563456557e+001
 3.701385989034681e+000	 1.059359127126733e+000	 1.082777792021484e+001
 3.810308302595879e+000	 7.051068281126635e-001	 1.058420218617268e+001
 3.803469292325589e+000	 7.411115585641065e-001	 1.057664002568598e+001
 3.796268774984041e+000	 7.771540310652531e-001	 1.057621389641207e+001
 3.788704686848607e+000	 8.132292393844148e-001	 1.058298739760840e+001
 3.780775048406757e+000	 8.493321101321369e-001	 1.059696273983267e+001
 3.772477966538484e+000	 8.854575043197605e-001	 1.061808022442738e+001
 3.763811636671432e+000	 9.216002189934276e-001	 1.064621785428963e+001
 3.754774344905874e+000	 9.577549889432976e-001	 1.068119107986387e+001
 3.745364470106771e+000	 9.939164884876515e-001	 1.072330800812237e+001
 3.735580485960057e+000	 1.030079333331432e+000	 1.076808788062375e+001
 3.725420962990317e+000	 1.066238082498657e+000	 1.081389722734480e+001
 3.834890936806286e+000	 7.096559044216639e-001	 1.060314942142302e+001
 3.828007803889303e+000	 7.458929234568915e-001	 1.059052060633848e+001
 3.820760831597337e+000	 7.821679280389193e-001	 1.058499664216706e+001
 3.813147942893418e+000	 8.184758796377906e-001	 1.058663549787631e+001
 3.805167145493967e+000	 8.548116721325046e-001	 1.059543276400479e+001
 3.796816534065303e+000	 8.911701333796384e-001	 1.061132113452417e+001
 3.788094292392663e+000	 9.275460268578879e-001	 1.063417002252186e+001
 3.778998695518902e+000	 9.639340533883181e-001	 1.066378531369726e+001
 3.769528111850048e+000	 1.000328852929973e+000	 1.069990926137444e+001
 3.759681005224847e+000	 1.036725006450407e+000	 1.074222052642355e+001
 3.749455936945461e+000	 1.073117037870568e+000	 1.079016333618891e+001
 3.859473571017202e+000	 7.142049807296647e-001	 1.061351352251431e+001
 3.852546315453426e+000	 7.506742883486862e-001	 1.059614181209564e+001
 3.845252888210939e+000	 7.871818250116243e-001	 1.058586825989652e+001
 3.837591198938437e+000	 8.237225198902534e-001	 1.058274487578060e+001
 3.829559242581285e+000	 8.602912341320280e-001	 1.058676026878722e+001
 3.821155101592128e+000	 8.968827624387594e-001	 1.059783913132659e+001
 3.812376948113800e+000	 9.334918347217005e-001	 1.061584185978554e+001
 3.803223046131738e+000	 9.701131178328190e-001	 1.064056431559309e+001
 3.793691753593033e+000	 1.006741217371923e+000	 1.067173773049965e+001
 3.783781524489245e+000	 1.043370679569180e+000	 1.070902875950555e+001
 3.773490910900110e+000	 1.079995993242467e+000	 1.075203968453719e+001
 3.884056205228624e+000	 7.187540570366653e-001	 1.061549609637449e+001
 3.877084827017956e+000	 7.554556532394905e-001	 1.059370612133136e+001
 3.869744944824850e+000	 7.921957219833682e-001	 1.057903210017407e+001
 3.862034454983660e+000	 8.289691601418033e-001	 1.057151975195825e+001
 3.853951339668710e+000	 8.657707961307070e-001	 1.057115033972614e+001
 3.845493669118960e+000	 9.025953914971244e-001	 1.057784015699171e+001
 3.836659603834844e+000	 9.394376425848643e-001	 1.059144015328156e+001
 3.827447396744379e+000	 9.762921822767999e-001	 1.061173570283855e+001
 3.817855395335725e+000	 1.013153581813503e+000	 1.063844652029309e+001
 3.807882043753248e+000	 1.050016352687752e+000	 1.067122672678342e+001
 3.797525884854265e+000	 1.086874948614353e+000	 1.070966506966070e+001
 3.908638839440555e+000	 7.233031333426659e-001	 1.060929546166156e+001
 3.901623338582893e+000	 7.602370181293046e-001	 1.058341283698954e+001
 3.894237001439066e+000	 7.972096189541506e-001	 1.056468845489794e+001
 3.886477711029094e+000	 8.342158003924408e-001	 1.055316140902549e+001
 3.878343436756242e+000	 8.712503581285414e-001	 1.054880524888376e+001
 3.869832236645798e+000	 9.083080205547328e-001	 1.055152746859148e+001
 3.860942259555794e+000	 9.453834504473802e-001	 1.056116913736439e+001
 3.851671747356829e+000	 9.824712467202612e-001	 1.057750467592744e+001
 3.842019037078121e+000	 1.019565946254710e+000	 1.060024178270687e+001
 3.831982563016857e+000	 1.056662025806120e+000	 1.062902151332938e+001
 3.821560858807927e+000	 1.093753903986227e+000	 1.066341851660328e+001
 3.933221473652993e+000	 7.278522096476667e-001	 1.059510675152190e+001
 3.926161850148238e+000	 7.650183830181283e-001	 1.056545818581619e+001
 3.918729058053593e+000	 8.022235159239719e-001	 1.054303465287483e+001
 3.910920967074734e+000	 8.394624406421655e-001	 1.052786828339091e+001
 3.902735533843881e+000	 8.767299201255315e-001	 1.051992454275963e+001
 3.894170804172645e+000	 9.140206496115851e-001	 1.051910172202172e+001
 3.885224915276651e+000	 9.513292583092480e-001	 1.052523057331838e+001
 3.875896097969084e+000	 9.886503111632026e-001	 1.053807409408491e+001
 3.866182678820226e+000	 1.025978310695547e+000	 1.055732746389440e+001
 3.856083082280073e+000	 1.063307698924287e+000	 1.058261813752590e+001
 3.845595832761096e+000	 1.100632859358089e+000	 1.061350609747205e+001
 3.605246093207198e+000	 1.031843305638912e+000	 1.077924382764960e+001
 3.595049584380677e+000	 1.066826361614633e+000	 1.081417485877551e+001
 3.584487172911277e+000	 1.101794766387843e+000	 1.085158160438424e+001
 3.573557767880753e+000	 1.136743101864963e+000	 1.089223551114264e+001
 3.562260379467235e+000	 1.171665903280343e+000	 1.093695172763262e+001
 3.550594120669678e+000	 1.206557661411702e+000	 1.098658966914921e+001
 3.538558208978485e+000	 1.241412824861387e+000	 1.104205349853394e+001
 3.526151967989605e+000	 1.276225802402121e+000	 1.100890742584667e+001
 3.513374828959480e+000	 1.310990965385763e+000	 1.095588833979066e+001
 3.500226332298184e+000	 1.345702650213484e+000	 1.091492608486314e+001
 3.486706128998200e+000	 1.380355160865667e+000	 1.088616111045711e+001
 3.629281067164810e+000	 1.038722261010886e+000	 1.080754398277355e+001
 3.619016581613070e+000	 1.073938537359064e+000	 1.084441966633828e+001
 3.608383754067449e+000	 1.109140064830154e+000	 1.088276192064194e+001
 3.597381486336912e+000	 1.144321389209950e+000	 1.092335412984671e+001
 3.586008782000778e+000	 1.179477009301037e+000	 1.096702519359852e+001
 3.574264748144659e+000	 1.214601379152982e+000	 1.101465012114685e+001
 3.562148597042228e+000	 1.249688910358819e+000	 1.106715053891657e+001
 3.549659647780074e+000	 1.284733974416420e+000	 1.100604368336192e+001
 3.536797327823013e+000	 1.319730905153325e+000	 1.095531356259492e+001
 3.523561174517189e+000	 1.354674001213380e+000	 1.091621072497384e+001
 3.509950836528365e+000	 1.389557528603505e+000	 1.088888962203410e+001
 3.653316041121927e+000	 1.045601216382847e+000	 1.082487919671700e+001
 3.642983578844875e+000	 1.081050713103668e+000	 1.086423780866298e+001
 3.632280335222947e+000	 1.116485363272793e+000	 1.090404746621729e+001
 3.621205204792321e+000	 1.151899676555394e+000	 1.094510315104028e+001
 3.609757184533503e+000	 1.187288115322284e+000	 1.098824718712630e+001
 3.597935375618768e+000	 1.222645096894885e+000	 1.103436986495842e+001
 3.585738985105053e+000	 1.257964995856909e+000	 1.105791200783879e+001
 3.573167327569589e+000	 1.293242146431386e+000	 1.099892258076241e+001
 3.560219826685568e+000	 1.328470844921530e+000	 1.095096490967524e+001
 3.546896016735199e+000	 1.363645352213865e+000	 1.091421049287680e+001
 3.533195544057530e+000	 1.398759896341848e+000	 1.088882755869223e+001
 3.677351015078551e+000	 1.052480171754797e+000	 1.083153083300014e+001
 3.666950576076089e+000	 1.088162888848445e+000	 1.087390801772535e+001
 3.656176916377769e+000	 1.123830661715762e+000	 1.091571402362247e+001
 3.645028923246981e+000	 1.159477963901295e+000	 1.095775508840299e+001
 3.633505587065414e+000	 1.195099221344086e+000	 1.100088663250687e+001
 3.621606003092005e+000	 1.230688814637408e+000	 1.104601391401188e+001
 3.609329373166962e+000	 1.266241081355659e+000	 1.104294121894005e+001
 3.596675007358151e+000	 1.301750318447018e+000	 1.098763227708861e+001
 3.583642325547142e+000	 1.337210784690379e+000	 1.094292352487064e+001
 3.570230858952214e+000	 1.372616703214941e+000	 1.090899935692584e+001
 3.556440251585695e+000	 1.407962264080697e+000	 1.088604155494048e+001
 3.701385989034681e+000	 1.059359127126733e+000	 1.082777792021484e+001
 3.690917573306717e+000	 1.095275064593396e+000	 1.087370687594763e+001
 3.680073497531918e+000	 1.131175960159060e+000	 1.091803541509128e+001
 3.668852641700889e+000	 1.167056251247652e+000	 1.096158068845714e+001
 3.657253989596509e+000	 1.202910327366441e+000	 1.100521088378378e+001
 3.645276630564370e+000	 1.238732532380554e+000	 1.104984591212689e+001
 3.632919761227951e+000	 1.274517166855068e+000	 1.102342418524081e+001
 3.620182687145758e+000	 1.310258490463316e+000	 1.097225997398331e+001
 3.607064824407738e+000	 1.345950724459871e+000	 1.093126980605988e+001
 3.593565701168234e+000	 1.381588054216606e+000	 1.090065075441181e+001
 3.579684959112860e+000	 1.417164631820050e+000	 1.088059793250826e+001
 3.725420962990317e+000	 1.066238082498657e+000	 1.081389722734480e+001
 3.714884570536753e+000	 1.102387240338519e+000	 1.086390888553906e+001
 3.703970078685392e+000	 1.138521258602688e+000	 1.091128356581386e+001
 3.692676360154048e+000	 1.174634538594465e+000	 1.095684898757273e+001
 3.681002392126788e+000	 1.210721433389351e+000	 1.100148577540641e+001
 3.668947258035863e+000	 1.246776250124321e+000	 1.104612817769569e+001
 3.656510149288022e+000	 1.282793252355136e+000	 1.099945362588694e+001
 3.643690366932412e+000	 1.318766662480280e+000	 1.095289194657558e+001
 3.630487323267354e+000	 1.354690664230006e+000	 1.091608342922456e+001
 3.616900543383259e+000	 1.390559405218860e+000	 1.088923760869382e+001
 3.602929666639025e+000	 1.426366999559909e+000	 1.087256271043505e+001
 3.749455936945461e+000	 1.073117037870568e+000	 1.079016333618891e+001
 3.738851567766202e+000	 1.109499416083815e+000	 1.084478653516938e+001
 3.727866659838193e+000	 1.145866557046645e+000	 1.089572856473949e+001
 3.716500078606457e+000	 1.182212825941735e+000	 1.094382736678010e+001
 3.704750794656250e+000	 1.218532539412814e+000	 1.098997567093485e+001
 3.692617885506485e+000	 1.254819967868709e+000	 1.102174372071316e+001
 3.680100537347176e+000	 1.291069337855863e+000	 1.097112116845626e+001
 3.667198046718112e+000	 1.327274834497911e+000	 1.092961357317656e+001
 3.653909822125991e+000	 1.363430604000785e+000	 1.089744337158690e+001
 3.640235385597290e+000	 1.399530756221705e+000	 1.087483234567125e+001
 3.626174374164190e+000	 1.435569367300273e+000	 1.086200161477200e+001
 3.773490910900110e+000	 1.079995993242467e+000	 1.075203968453719e+001
 3.762818564995062e+000	 1.116611591829284e+000	 1.081133757994493e+001
 3.751763240990317e+000	 1.153211855490931e+000	 1.087062689229144e+001
 3.740323797058116e+000	 1.189791113289461e+000	 1.092278160448767e+001
 3.728499197184897e+000	 1.226343645436830e+000	 1.097094350988356e+001
 3.716288512976234e+000	 1.262863685613718e+000	 1.098321816544330e+001
 3.703690925405412e+000	 1.299345423357249e+000	 1.093851738372185e+001
 3.690705726502859e+000	 1.335783006516208e+000	 1.090250936384062e+001
 3.677332320983648e+000	 1.372170543772207e+000	 1.087542793386325e+001
 3.663570227810326e+000	 1.408502107225140e+000	 1.085750690962656e+001
 3.649419081688355e+000	 1.444771735041142e+000	 1.084898008791276e+001
 3.797525884854265e+000	 1.086874948614353e+000	 1.070966506966070e+001
 3.786785562223331e+000	 1.123723767574926e+000	 1.076855472987237e+001
 3.775659822141769e+000	 1.160557153935546e+000	 1.082741146671447e+001
 3.764147515509024e+000	 1.197369400637643e+000	 1.088579050408484e+001
 3.752247599712728e+000	 1.234154751461400e+000	 1.094319117707689e+001
 3.739959140445111e+000	 1.270907403359349e+000	 1.094007624455233e+001
 3.727281313462731e+000	 1.307621508859294e+000	 1.090173181909514e+001
 3.714213406286651e+000	 1.344291178535172e+000	 1.087166298784192e+001
 3.700754819840327e+000	 1.380910483544273e+000	 1.085011476167247e+001
 3.686905070022366e+000	 1.417473458229163e+000	 1.083733277846621e+001
 3.672663789211519e+000	 1.453974102782516e+000	 1.083356329757006e+001
 3.821560858807927e+000	 1.093753903986227e+000	 1.066341851660328e+001
 3.810752559451014e+000	 1.130835943320741e+000	 1.072246491944418e+001
 3.799556403292546e+000	 1.167902452380491e+000	 1.078147306068949e+001
 3.787971233959182e+000	 1.204947687986281e+000	 1.083998274224572e+001
 3.775996002239742e+000	 1.241965857486525e+000	 1.089747693052247e+001
 3.763629767913117e+000	 1.278951121105601e+000	 1.088465172431391e+001
 3.750871701519130e+000	 1.315897594361998e+000	 1.086031929543515e+001
 3.737721086069491e+000	 1.352799350554803e+000	 1.083715730011386e+001
 3.724177318696025e+000	 1.389650423316981e+000	 1.082158086613649e+001
 3.710239912233413e+000	 1.426444809233777e+000	 1.081438097838668e+001
 3.695908496733685e+000	 1.463176470524395e+000	 1.081581614541335e+001
 3.845595832761096e+000	 1.100632859358089e+000	 1.061350609747205e+001
 3.834719556678107e+000	 1.137948119066728e+000	 1.067327500015429e+001
 3.823452984442649e+000	 1.175247750825766e+000	 1.073301929120694e+001
 3.811794952408592e+000	 1.212525975335377e+000	 1.079226267725239e+001
 3.799744404765942e+000	 1.249776963512203e+000	 1.085047105218956e+001
 3.787300395380251e+000	 1.286994838852475e+000	 1.082333446414036e+001
 3.774462089574614e+000	 1.324173679865362e+000	 1.080370243388103e+001
 3.761228765851377e+000	 1.361307522575099e+000	 1.079281443965977e+001
 3.747599817550745e+000	 1.398390363090334e+000	 1.078990264370832e+001
 3.733574754443465e+000	 1.435416160238980e+000	 1.078872209799028e+001
 3.719153204254849e+000	 1.472378838266780e+000	 1.079580327538274e+001
 3.486706128998200e+000	 1.380355160865667e+000	 1.088616111045711e+001
 3.472813981996224e+000	 1.414942771488917e+000	 1.090626390300798e+001
 3.458549767465620e+000	 1.449459729040825e+000	 1.092486943566368e+001
 3.443913476037222e+000	 1.483900255988308e+000	 1.094154469464570e+001
 3.428905213945840e+000	 1.518258553056112e+000	 1.095585885028122e+001
 3.413525204100325e+000	 1.552528802025694e+000	 1.096738391302611e+001
 3.397773787075000e+000	 1.586705168581185e+000	 1.097569538915022e+001
 3.381651422020274e+000	 1.620781805199964e+000	 1.098037293460556e+001
 3.365158687490438e+000	 1.654752854085249e+000	 1.098100100558235e+001
 3.348296282186656e+000	 1.688612450138003e+000	 1.097716950424662e+001
 3.331065025613314e+000	 1.722354723965393e+000	 1.096847441814728e+001
 3.509950836528365e+000	 1.389557528603505e+000	 1.088888962203410e+001
 3.495966075212821e+000	 1.424375723297864e+000	 1.090013857229528e+001
 3.481606765918416e+000	 1.459122793900348e+000	 1.091067560170443e+001
 3.466872899213523e+000	 1.493792924360983e+000	 1.092011787781609e+001
 3.451764582041180e+000	 1.528380276742684e+000	 1.092808473430729e+001
 3.436282038796304e+000	 1.562878994038780e+000	 1.093419827924788e+001
 3.420425612323706e+000	 1.597283203037964e+000	 1.093808400229601e+001
 3.404195764834802e+000	 1.631587017234133e+000	 1.093937137939808e+001
 3.387593078740911e+000	 1.665784539778523e+000	 1.093769447356045e+001
 3.370618257401204e+000	 1.699869866471437e+000	 1.093269253025037e+001
 3.353272125783427e+000	 1.733837088790756e+000	 1.092401056598100e+001
 3.533195544057530e+000	 1.398759896341848e+000	 1.088882755869223e+001
 3.519118168428428e+000	 1.433808675107226e+000	 1.089237346221574e+001
 3.504663764370250e+000	 1.468785858760214e+000	 1.089598335929976e+001
 3.489832322388911e+000	 1.503685592733951e+000	 1.089932398922341e+001
 3.474623950135680e+000	 1.538502000429517e+000	 1.090206424211098e+001
 3.459038873491527e+000	 1.573229186052116e+000	 1.090387572006680e+001
 3.443077437571767e+000	 1.607861237495003e+000	 1.090443329650005e+001
 3.426740107648814e+000	 1.642392229268589e+000	 1.090341567227751e+001
 3.410027469991017e+000	 1.676816225472133e+000	 1.090050592733169e+001
 3.392940232615552e+000	 1.711127282805277e+000	 1.089539206634566e+001
 3.375479225953534e+000	 1.745319453616616e+000	 1.088776755713429e+001
 3.556440251585695e+000	 1.407962264080697e+000	 1.088604155494048e+001
 3.542270261643044e+000	 1.443241626917004e+000	 1.088301494392233e+001
 3.527720762821125e+000	 1.478448923620424e+000	 1.088081894167474e+001
 3.512791745563388e+000	 1.513578261107213e+000	 1.087916925924082e+001
 3.497483318229335e+000	 1.548623724116611e+000	 1.087778374595646e+001
 3.481795708185998e+000	 1.583579378065703e+000	 1.087638290405890e+001
 3.465729262819184e+000	 1.618439271952301e+000	 1.087469040075256e+001
 3.449284450462312e+000	 1.653197441303334e+000	 1.087243357642724e+001
 3.432461861240756e+000	 1.687847911166080e+000	 1.086934394771586e+001
 3.415262207829705e+000	 1.722384699139524e+000	 1.086515770407500e+001
 3.397686326123631e+000	 1.756801818442972e+000	 1.085961619657290e+001
 3.579684959112860e+000	 1.417164631820050e+000	 1.088059793250826e+001
 3.565422354856672e+000	 1.452674578727196e+000	 1.087210962915195e+001
 3.550777761271038e+000	 1.488111988480978e+000	 1.086520937196951e+001
 3.535751168736951e+000	 1.523470929480767e+000	 1.085966125318211e+001
 3.520342686322148e+000	 1.558745447803968e+000	 1.085523149349525e+001
 3.504552542879714e+000	 1.593929570079540e+000	 1.085168891078287e+001
 3.488381088065954e+000	 1.629017306409858e+000	 1.084880538549811e+001
 3.471828793275290e+000	 1.664002653338366e+000	 1.084635632156210e+001
 3.454896252490128e+000	 1.698879596860365e+000	 1.084412110147626e+001
 3.437584183043659e+000	 1.733642115474176e+000	 1.084188353440303e+001
 3.419893426293720e+000	 1.768284183269824e+000	 1.083943229596241e+001
 3.602929666639025e+000	 1.426366999559909e+000	 1.087256271043505e+001
 3.588574448069307e+000	 1.462107530537802e+000	 1.085970436246463e+001
 3.573834759719990e+000	 1.497775053341877e+000	 1.084918243775819e+001
 3.558710591909605e+000	 1.533363597854615e+000	 1.084080882823906e+001
 3.543202054414116e+000	 1.568867171491586e+000	 1.083439754726984e+001
 3.527309377572677e+000	 1.604279762093628e+000	 1.082976515300639e+001
 3.511032913312081e+000	 1.639595340867674e+000	 1.082673116775008e+001
 3.494373136087754e+000	 1.674807865373686e+000	 1.082511849210465e+001
 3.477330643739132e+000	 1.709911282554986e+000	 1.082475381274090e+001
 3.459906158257415e+000	 1.744899531809235e+000	 1.082546800257379e+001
 3.442100526463804e+000	 1.779766548097172e+000	 1.082709651216212e+001
 3.626174374164190e+000	 1.435569367300273e+000	 1.086200161477200e+001
 3.611726541280953e+000	 1.471540482348824e+000	 1.084584621378142e+001
 3.596891758167982e+000	 1.507438118203120e+000	 1.083276666654774e+001
 3.581670015081346e+000	 1.543256266228756e+000	 1.082262209207508e+001
 3.566061422505244e+000	 1.578988895179467e+000	 1.081527372654413e+001
 3.550066212264884e+000	 1.614629954107966e+000	 1.081058530192380e+001
 3.533684738557561e+000	 1.650173375325750e+000	 1.080842341985433e+001
 3.516917478899702e+000	 1.685613077409294e+000	 1.080865791966255e+001
 3.499765034987770e+000	 1.720942968249944e+000	 1.081116223936900e+001
 3.482228133470974e+000	 1.756156948144700e+000	 1.081581376855059e+001
 3.464307626633878e+000	 1.791248912925016e+000	 1.082249419193013e+001
 3.649419081688355e+000	 1.444771735041142e+000	 1.084898008791276e+001
 3.634878634491609e+000	 1.480973434160260e+000	 1.083058247120704e+001
 3.619948756615012e+000	 1.517101183064707e+000	 1.081599130221331e+001
 3.604629438252175e+000	 1.553148934603190e+000	 1.080511236300132e+001
 3.588920790595527e+000	 1.589110618867609e+000	 1.079785355135689e+001
 3.572823046956339e+000	 1.624980146122554e+000	 1.079412521523170e+001
 3.556336563802397e+000	 1.660751409784085e+000	 1.079384048173991e+001
 3.539461821711133e+000	 1.696418289445191e+000	 1.079691557961500e+001
 3.522199426236039e+000	 1.731974653945239e+000	 1.080327015404234e+001
 3.504550108684335e+000	 1.767414364480572e+000	 1.081282757278918e+001
 3.486514726803943e+000	 1.802731277753356e+000	 1.082551522256367e+001
 3.672663789211519e+000	 1.453974102782516e+000	 1.083356329757006e+001
 3.658030727701275e+000	 1.490406385972112e+000	 1.081396063412551e+001
 3.643005755061082e+000	 1.526764247926639e+000	 1.079888628232827e+001
 3.627588861422094e+000	 1.563041602977917e+000	 1.078829213166499e+001
 3.611780158684969e+000	 1.599232342556013e+000	 1.078213218869970e+001
 3.595579881647038e+000	 1.635330338137393e+000	 1.078036286793579e+001
 3.578988389046587e+000	 1.671329444242678e+000	 1.078294327650180e+001
 3.562006164522048e+000	 1.707223501481375e+000	 1.078983549162631e+001
 3.544633817483944e+000	 1.743006339640872e+000	 1.080100482987211e+001
 3.526872083897500e+000	 1.778671780816850e+000	 1.081642010710830e+001
 3.508721826974002e+000	 1.814213642582192e+000	 1.083605388821104e+001
 3.695908496733685e+000	 1.463176470524395e+000	 1.081581614541335e+001
 3.681182820909950e+000	 1.499839337784378e+000	 1.079602840655608e+001
 3.666062753506192e+000	 1.536427312788914e+000	 1.078148221634982e+001
 3.650548284591099e+000	 1.572934271352936e+000	 1.077217502418349e+001
 3.634639526773567e+000	 1.609354066244679e+000	 1.076810640072611e+001
 3.618336716336984e+000	 1.645680530152483e+000	 1.076927828576890e+001
 3.601640214290131e+000	 1.681907478701531e+000	 1.077569522916926e+001
 3.584550507332447e+000	 1.718028713517847e+000	 1.078736462391363e+001
 3.567068208731480e+000	 1.754038025336840e+000	 1.080429693032259e+001
 3.549194059110465e+000	 1.789929197153534e+000	 1.082650589043297e+001
 3.530928927144053e+000	 1.825696007411524e+000	 1.085400873160592e+001
 3.719153204254849e+000	 1.472378838266780e+000	 1.079580327538274e+001
 3.704334914117635e+000	 1.509272289597060e+000	 1.077683369075841e+001
 3.689119751950341e+000	 1.546090377651534e+000	 1.076381036462268e+001
 3.673507707759193e+000	 1.582826939728250e+000	 1.075677576666089e+001
 3.657498894861323e+000	 1.619475789933606e+000	 1.075577449490270e+001
 3.641093551026176e+000	 1.656030722167824e+000	 1.076085348110566e+001
 3.624292039533033e+000	 1.692485513160644e+000	 1.077206218852041e+001
 3.607094850142330e+000	 1.728833925554607e+000	 1.078945280110475e+001
 3.589502599978650e+000	 1.765069711033147e+000	 1.081308040326259e+001
 3.571516034323234e+000	 1.801186613490625e+000	 1.084300314919743e+001
 3.553136027314097e+000	 1.837178372241353e+000	 1.087928242098654e+001
 3.331065025613314e+000	 1.722354723965393e+000	 1.096847441814728e+001
 3.313465858646516e+000	 1.755973804923333e+000	 1.100514780983596e+001
 3.295499844011498e+000	 1.789463824188730e+000	 1.105602318579252e+001
 3.277168166668328e+000	 1.822818917859585e+000	 1.112175441181180e+001
 3.258472134105683e+000	 1.856033230080492e+000	 1.120299372838738e+001
 3.239413176539814e+000	 1.889100916188957e+000	 1.121628030621284e+001
 3.219992847017981e+000	 1.922016145879748e+000	 1.113059362796792e+001
 3.200212821425363e+000	 1.954773106383972e+000	 1.105857564007522e+001
 3.180074898394475e+000	 1.987366005659460e+000	 1.100122580848237e+001
 3.159580999116348e+000	 2.019789075589025e+000	 1.095954989729592e+001
 3.138733167052782e+000	 2.052036575183095e+000	 1.093455842248429e+001
 3.353272125783427e+000	 1.733837088790756e+000	 1.092401056598100e+001
 3.335555631036250e+000	 1.767680296954858e+000	 1.098045418051457e+001
 3.317469842969797e+000	 1.801393583015249e+000	 1.105004066544638e+001
 3.299015954443868e+000	 1.834971043977250e+000	 1.113333995821217e+001
 3.280195281663736e+000	 1.868406784946423e+000	 1.123092092460019e+001
 3.261009264380424e+000	 1.901694922295855e+000	 1.118695654525556e+001
 3.241459465994842e+000	 1.934829586851614e+000	 1.111602599248238e+001
 3.221547573564735e+000	 1.967804927093014e+000	 1.105714701965640e+001
 3.201275397713507e+000	 2.000615112364273e+000	 1.101125070452558e+001
 3.180644872440124e+000	 2.033254336094088e+000	 1.097927566360158e+001
 3.159658054829465e+000	 2.065716819019625e+000	 1.096216657479470e+001
 3.375479225953534e+000	 1.745319453616616e+000	 1.088776755713429e+001
 3.357645403426167e+000	 1.779386788986964e+000	 1.096232968831173e+001
 3.339439841928449e+000	 1.813323341842404e+000	 1.104898683039320e+001
 3.320863742219913e+000	 1.847123170095580e+000	 1.114822579581805e+001
 3.301918429222425e+000	 1.880780339813014e+000	 1.122775147436129e+001
 3.282605352221780e+000	 1.914288928403379e+000	 1.116032259383850e+001
 3.262926084972540e+000	 1.947643027824042e+000	 1.110248858616155e+001
 3.242882325705017e+000	 1.980836747802524e+000	 1.105510304210270e+001
 3.222475897033498e+000	 2.013864219069430e+000	 1.101902969947552e+001
 3.201708745764889e+000	 2.046719596599341e+000	 1.099514107511701e+001
 3.180582942607150e+000	 2.079397062856160e+000	 1.098431705534507e+001
 3.397686326123631e+000	 1.756801818442972e+000	 1.085961619657290e+001
 3.379735175816265e+000	 1.791093281019651e+000	 1.095067913796732e+001
 3.361409840887453e+000	 1.825253100670198e+000	 1.105280018579727e+001
 3.342711529996462e+000	 1.859275296214572e+000	 1.116638381371561e+001
 3.323641576781748e+000	 1.893153894680264e+000	 1.119078684697720e+001
 3.304201440063883e+000	 1.926882934511529e+000	 1.113634722169434e+001
 3.284392703951076e+000	 1.960456468797033e+000	 1.108998044688407e+001
 3.264217077846207e+000	 1.993868568512504e+000	 1.105247263555888e+001
 3.243676396354447e+000	 2.027113325774931e+000	 1.102462121980901e+001
 3.222772619090644e+000	 2.060184857104784e+000	 1.100723365085296e+001
 3.201507830385834e+000	 2.093077306692701e+000	 1.100112605622054e+001
 3.419893426293720e+000	 1.768284183269824e+000	 1.083943229596241e+001
 3.401824948206546e+000	 1.802799773052920e+000	 1.094541147617287e+001
 3.383379839846811e+000	 1.837182859498628e+000	 1.106142252083371e+001
 3.364559317773516e+000	 1.871427422334228e+000	 1.118778833429937e+001
 3.345364724341706e+000	 1.905527449548174e+000	 1.115806242222124e+001
 3.325797527906732e+000	 1.939476940620305e+000	 1.111499995388951e+001
 3.305859322930449e+000	 1.973269909770585e+000	 1.107850054144250e+001
 3.285551829988307e+000	 2.006900389222952e+000	 1.104928383960591e+001
 3.264876895676357e+000	 2.040362432480777e+000	 1.102808199532231e+001
 3.243836492417388e+000	 2.073650117610417e+000	 1.101563841479927e+001
 3.222432718165519e+000	 2.106757550529247e+000	 1.101270648633316e+001
 3.442100526463804e+000	 1.779766548097172e+000	 1.082709651216212e+001
 3.423914720597010e+000	 1.814506265086770e+000	 1.094643965796031e+001
 3.405349838806522e+000	 1.849112618327695e+000	 1.107479880275266e+001
 3.386407105551072e+000	 1.883579548454547e+000	 1.116721361360086e+001
 3.367087871902300e+000	 1.917901004416743e+000	 1.112951946728038e+001
 3.347393615750327e+000	 1.952070946729706e+000	 1.109625104645877e+001
 3.327325941910658e+000	 1.986083350744700e+000	 1.106804776783649e+001
 3.306886582131313e+000	 2.019932209933867e+000	 1.104556383392423e+001
 3.286077394999225e+000	 2.053611539186967e+000	 1.102946711386271e+001
 3.264900365745123e+000	 2.087115378116240e+000	 1.102043797640963e+001
 3.243357605946203e+000	 2.120437794365798e+000	 1.101916807733059e+001
 3.464307626633878e+000	 1.791248912925016e+000	 1.082249419193013e+001
 3.446004492987656e+000	 1.826212757121202e+000	 1.095368051822937e+001
 3.427319837766585e+000	 1.861042377157399e+000	 1.109287707501788e+001
 3.408254893329133e+000	 1.895731674575529e+000	 1.113313493765094e+001
 3.388811019463528e+000	 1.930274559285972e+000	 1.110510073898997e+001
 3.368989703594668e+000	 1.964664952839734e+000	 1.108007146297657e+001
 3.348792560891707e+000	 1.998896791719378e+000	 1.105862095747765e+001
 3.328221334275229e+000	 2.032964030645251e+000	 1.104133896585473e+001
 3.307277894323052e+000	 2.066860645893501e+000	 1.102883007395515e+001
 3.285964239073847e+000	 2.100580638622254e+000	 1.102171260799031e+001
 3.264282493727888e+000	 2.134118038202354e+000	 1.102061748543165e+001
 3.486514726803943e+000	 1.802731277753356e+000	 1.082551522256367e+001
 3.468094265378485e+000	 1.837919249156214e+000	 1.096705464818507e+001
 3.449289836727001e+000	 1.872972135987740e+000	 1.111560835933821e+001
 3.430102681107698e+000	 1.907883800697174e+000	 1.110466237356858e+001
 3.410534167025391e+000	 1.942648114155861e+000	 1.108475043639272e+001
 3.390585791439756e+000	 1.977258958950388e+000	 1.106643285202401e+001
 3.370259179873592e+000	 2.011710232694617e+000	 1.105021887731022e+001
 3.349556086420052e+000	 2.045995851357104e+000	 1.103663477690637e+001
 3.328478393647839e+000	 2.080109752600380e+000	 1.102622283541753e+001
 3.307028112403561e+000	 2.114045899128457e+000	 1.101954031913175e+001
 3.285207381510571e+000	 2.147798282038917e+000	 1.101715838936976e+001
 3.508721826974002e+000	 1.814213642582192e+000	 1.083605388821104e+001
 3.490184037769495e+000	 1.849625741191809e+000	 1.098648627646722e+001
 3.471259835687771e+000	 1.884901894818718e+000	 1.109478189024981e+001
 3.451950468886766e+000	 1.920035926819482e+000	 1.108171448937580e+001
 3.432257314587890e+000	 1.955021669026408e+000	 1.106841415509918e+001
 3.412181879285590e+000	 1.989852965061668e+000	 1.105530752551143e+001
 3.391725798856314e+000	 2.024523673670418e+000	 1.104284023185112e+001
 3.370890838565784e+000	 2.059027672069425e+000	 1.103147602825720e+001
 3.349678892973585e+000	 2.093358859307604e+000	 1.102169586805407e+001
 3.328091985734265e+000	 2.127511159634850e+000	 1.101399692831351e+001
 3.306132269294255e+000	 2.161478525875483e+000	 1.100889158461736e+001
 3.530928927144053e+000	 1.825696007411524e+000	 1.085400873160592e+001
 3.512273810160687e+000	 1.861332233227984e+000	 1.101190315476569e+001
 3.493229834648894e+000	 1.896831653650335e+000	 1.107082476394568e+001
 3.473798256666339e+000	 1.932188052942454e+000	 1.106421192281142e+001
 3.453980462151024e+000	 1.967395223897616e+000	 1.105603884337051e+001
 3.433777967132170e+000	 2.002446971173574e+000	 1.104666843781898e+001
 3.413192417839874e+000	 2.037337114646782e+000	 1.103648366515314e+001
 3.392225590712426e+000	 2.072059492782215e+000	 1.102588672529302e+001
 3.370879392300290e+000	 2.106607966015172e+000	 1.101529819851094e+001
 3.349155859065959e+000	 2.140976420141434e+000	 1.100515613180701e+001
 3.327057157078940e+000	 2.175158769712056e+000	 1.099591507405427e+001
 3.553136027314097e+000	 1.837178372241353e+000	 1.087928242098654e+001
 3.534363582552064e+000	 1.873038725264742e+000	 1.104323644772505e+001
 3.515199833610371e+000	 1.908761412482587e+000	 1.105370271220540e+001
 3.495646044446416e+000	 1.944340179066090e+000	 1.105207731665253e+001
 3.475703609714792e+000	 1.979768778769483e+000	 1.104757275984819e+001
 3.455374054979497e+000	 2.015040977286106e+000	 1.104048916571941e+001
 3.434659036824272e+000	 2.050150555623709e+000	 1.103114776269441e+001
 3.413560342859975e+000	 2.085091313495474e+000	 1.101989014122595e+001
 3.392079891627955e+000	 2.119857072723085e+000	 1.100707745537509e+001
 3.370219732398644e+000	 2.154441680648208e+000	 1.099308956999470e+001
 3.347982044864625e+000	 2.188839013548634e+000	 1.097832415523641e+001
 3.138733167052782e+000	 2.052036575183095e+000	 1.093455842248429e+001
 3.117533567548996e+000	 2.084102793783212e+000	 1.094360560355093e+001
 3.095984487346924e+000	 2.115982054262759e+000	 1.095913222932669e+001
 3.074088333998506e+000	 2.147668716221341e+000	 1.097113415024184e+001
 3.051847635178520e+000	 2.179157179169300e+000	 1.097951943946403e+001
 3.029265037897612e+000	 2.210441885698606e+000	 1.098420497488217e+001
 3.006343307615602e+000	 2.241517324636550e+000	 1.098511616070676e+001
 2.983085327255384e+000	 2.272378034178561e+000	 1.098218662584208e+001
 2.959494096117997e+000	 2.303018604996550e+000	 1.097535790002620e+001
 2.935572728699535e+000	 2.333433683319120e+000	 1.096457906881428e+001
 2.911324453410707e+000	 2.363617973980084e+000	 1.094980640855501e+001
 3.159658054829465e+000	 2.065716819019625e+000	 1.096216657479470e+001
 3.138317124662376e+000	 2.097996812411230e+000	 1.096125402633323e+001
 3.116624383925715e+000	 2.130088601294633e+000	 1.096832753234984e+001
 3.094582256221774e+000	 2.161986507666773e+000	 1.097940824991087e+001
 3.072193286076492e+000	 2.193684893701391e+000	 1.098692626445917e+001
 3.049460138147259e+000	 2.225178164941070e+000	 1.099082853452125e+001
 3.026385596330288e+000	 2.256460773471950e+000	 1.099107067030722e+001
 3.002972562767960e+000	 2.287527221077427e+000	 1.098761659181291e+001
 2.979224056756659e+000	 2.318372062367227e+000	 1.098043816415741e+001
 2.955143213555780e+000	 2.348989907878142e+000	 1.096951481131016e+001
 2.930733283098773e+000	 2.379375427142877e+000	 1.095483310943845e+001
 3.180582942607150e+000	 2.079397062856160e+000	 1.098431705534507e+001
 3.159100681776744e+000	 2.111890831039068e+000	 1.097781730326125e+001
 3.137264280505467e+000	 2.144195148326173e+000	 1.097633646289783e+001
 3.115076178445952e+000	 2.176304299111745e+000	 1.098215880063724e+001
 3.092538936975307e+000	 2.208212608232925e+000	 1.098934860085999e+001
 3.069655238397657e+000	 2.239914444182911e+000	 1.099300091435752e+001
 3.046427885045616e+000	 2.271404222306690e+000	 1.099310145759297e+001
 3.022859798281050e+000	 2.302676407975628e+000	 1.098964434727182e+001
 2.998954017395683e+000	 2.333725519737262e+000	 1.098263169483997e+001
 2.974713698412216e+000	 2.364546132436578e+000	 1.097207317890830e+001
 2.950142112786840e+000	 2.395132880305170e+000	 1.095798559691563e+001
 3.201507830385834e+000	 2.093077306692701e+000	 1.100112605622054e+001
 3.179884238892103e+000	 2.125784849666726e+000	 1.098948335188836e+001
 3.157904177086179e+000	 2.158301695357378e+000	 1.098291593952607e+001
 3.135570100671042e+000	 2.190622090556255e+000	 1.098185921956705e+001
 3.112884587874964e+000	 2.222740322763901e+000	 1.098688250948555e+001
 3.089850338648807e+000	 2.254650723424128e+000	 1.099080730417909e+001
 3.066470173761587e+000	 2.286347671140770e+000	 1.099128289062024e+001
 3.042747033794652e+000	 2.317825594873164e+000	 1.098833349427200e+001
 3.018683978035068e+000	 2.349078977106657e+000	 1.098199139028174e+001
 2.994284183268846e+000	 2.380102356994427e+000	 1.097229643455018e+001
 2.969550942474911e+000	 2.410890333466961e+000	 1.095929557364737e+001
 3.222432718165519e+000	 2.106757550529247e+000	 1.101270648633316e+001
 3.200667796008453e+000	 2.139678868294204e+000	 1.099635367722619e+001
 3.178544073667851e+000	 2.172408242388246e+000	 1.098512762424552e+001
 3.156064022897041e+000	 2.204939882000303e+000	 1.097950243589228e+001
 3.133230238775461e+000	 2.237268037294320e+000	 1.097996075871992e+001
 3.110045438900708e+000	 2.269387002664722e+000	 1.098433089052059e+001
 3.086512462478199e+000	 2.301291119974192e+000	 1.098568758519738e+001
 3.062634269308766e+000	 2.332974781770035e+000	 1.098374613167338e+001
 3.038413938674817e+000	 2.364432434475412e+000	 1.097856889247746e+001
 3.013854668125669e+000	 2.395658581551691e+000	 1.097022582974709e+001
 2.988959772162985e+000	 2.426647786628250e+000	 1.095879397332833e+001
 3.243357605946203e+000	 2.120437794365798e+000	 1.101916807733059e+001
 3.221451353125792e+000	 2.153572886921502e+000	 1.099852685755423e+001
 3.199183970250482e+000	 2.186514789418779e+000	 1.098305896759134e+001
 3.176557945123952e+000	 2.219257673443890e+000	 1.097327725208008e+001
 3.153575889676799e+000	 2.251795751824183e+000	 1.096970331890144e+001
 3.130240539153362e+000	 2.284123281904694e+000	 1.097286637310488e+001
 3.106554751195452e+000	 2.316234568806954e+000	 1.097638646140907e+001
 3.082521504823394e+000	 2.348123968666242e+000	 1.097594290363291e+001
 3.058143899314928e+000	 2.379785891843527e+000	 1.097241462773180e+001
 3.033425152982684e+000	 2.411214806108368e+000	 1.096590163720684e+001
 3.008368601851061e+000	 2.442405239789038e+000	 1.095651098549232e+001
 3.264282493727888e+000	 2.134118038202354e+000	 1.102061748543165e+001
 3.242234910244121e+000	 2.167466905548621e+000	 1.099609863822530e+001
 3.219823866834076e+000	 2.200621336448977e+000	 1.097679482843474e+001
 3.197051867351773e+000	 2.233575464887016e+000	 1.096325767172149e+001
 3.173921540578978e+000	 2.266323466353487e+000	 1.095604777778508e+001
 3.150435639406766e+000	 2.298859561144041e+000	 1.095573353107820e+001
 3.126597039913348e+000	 2.331178017639057e+000	 1.096288983948981e+001
 3.102408740338531e+000	 2.363273155561782e+000	 1.096498304622947e+001
 3.077873859955401e+000	 2.395139349210999e+000	 1.096357784562378e+001
 3.052995637839892e+000	 2.426771030664460e+000	 1.095936318220571e+001
 3.027777431539140e+000	 2.458162692949324e+000	 1.095247607936372e+001
 3.285207381510571e+000	 2.147798282038917e+000	 1.101715838936976e+001
 3.263018467363441e+000	 2.181360924175559e+000	 1.098916202188619e+001
 3.240463763418629e+000	 2.214727883478839e+000	 1.096641755651996e+001
 3.217545789580504e+000	 2.247893256329680e+000	 1.094951542154496e+001
 3.194267191481999e+000	 2.280851180882235e+000	 1.093905527569879e+001
 3.170630739660923e+000	 2.313595840382766e+000	 1.093564473546546e+001
 3.146639328631885e+000	 2.346121466470502e+000	 1.093989806949333e+001
 3.122295975854182e+000	 2.378422342456657e+000	 1.095092443230736e+001
 3.097603820596237e+000	 2.410492806577833e+000	 1.095210665648207e+001
 3.072566122697292e+000	 2.442327255219965e+000	 1.095064887276145e+001
 3.047186261227222e+000	 2.473920146109110e+000	 1.094671802679720e+001
 3.306132269294255e+000	 2.161478525875483e+000	 1.100889158461736e+001
 3.283802024483750e+000	 2.195254942802317e+000	 1.097780735527216e+001
 3.261103660004143e+000	 2.228834430508366e+000	 1.095200707186705e+001
 3.238039711810148e+000	 2.262211047771884e+000	 1.093212002346880e+001
 3.214612842385860e+000	 2.295378895410425e+000	 1.091878497169056e+001
 3.190825839915831e+000	 2.328332119620868e+000	 1.091264882431298e+001
 3.166681617351065e+000	 2.361064915301285e+000	 1.091436527519608e+001
 3.142183211370345e+000	 2.393571529350869e+000	 1.092459341364722e+001
 3.117333781237436e+000	 2.425846263944024e+000	 1.093804806743727e+001
 3.092136607554884e+000	 2.457883479774884e+000	 1.093979622866033e+001
 3.066595090915306e+000	 2.489677599268394e+000	 1.093926492434635e+001
 3.327057157078940e+000	 2.175158769712056e+000	 1.099591507405427e+001
 3.304585581605049e+000	 2.209148961428895e+000	 1.096212241272611e+001
 3.281743556590617e+000	 2.242940977537558e+000	 1.093364094117840e+001
 3.258533634040701e+000	 2.276528839213626e+000	 1.091113886393504e+001
 3.234958493290563e+000	 2.309906609938058e+000	 1.089529410583289e+001
 3.211020940171490e+000	 2.343068398858345e+000	 1.088679293174510e+001
 3.186723906070887e+000	 2.376008364131412e+000	 1.088632853173865e+001
 3.162070446887020e+000	 2.408720716244414e+000	 1.089459957493969e+001
 3.137063741878997e+000	 2.441199721309575e+000	 1.091230873550590e+001
 3.111707092412670e+000	 2.473439704329216e+000	 1.092684190938916e+001
 3.086003920603393e+000	 2.505435052427177e+000	 1.092609033689693e+001
 3.347982044864625e+000	 2.188839013548634e+000	 1.097832415523641e+001
 3.325369138727341e+000	 2.223042980055294e+000	 1.094219247658590e+001
 3.302383453178052e+000	 2.257047524566414e+000	 1.091139445137978e+001
 3.279027556272166e+000	 2.290846630654906e+000	 1.088663726064288e+001
 3.255304144196107e+000	 2.324434324465134e+000	 1.086863805919075e+001
 3.231216040427901e+000	 2.357804678095200e+000	 1.085812254121167e+001
 3.206766194791350e+000	 2.390951812960878e+000	 1.085582347041515e+001
 3.181957682404209e+000	 2.423869903137295e+000	 1.086247917812803e+001
 3.156793702520921e+000	 2.456553178674486e+000	 1.087883203284908e+001
 3.131277577270649e+000	 2.488995928882964e+000	 1.090562688489156e+001
 3.105412750291483e+000	 2.521192505585459e+000	 1.090315968030543e+001
 2.911324453410707e+000	 2.363617973980084e+000	 1.094980640855501e+001
 2.886752611199269e+000	 2.393566243432211e+000	 1.098666836588489e+001
 2.861860654078760e+000	 2.423273322721160e+000	 1.101682429236450e+001
 2.836652143563400e+000	 2.452734110416954e+000	 1.104011259055897e+001
 2.811130749008875e+000	 2.481943575500790e+000	 1.105637954892708e+001
 2.785300245862961e+000	 2.510896760202157e+000	 1.105898484761954e+001
 2.759164513826918e+000	 2.539588782783471e+000	 1.104425242505163e+001
 2.732727534929510e+000	 2.568014840268934e+000	 1.102357581970658e+001
 2.705993391515635e+000	 2.596170211114460e+000	 1.099746660642771e+001
 2.678966264151708e+000	 2.624050257815532e+000	 1.096644226988916e+001
 2.651650429450000e+000	 2.651650429450000e+000	 1.093102452655064e+001
 2.930733283098773e+000	 2.379375427142877e+000	 1.095483310943845e+001
 2.905997628606329e+000	 2.409523351724013e+000	 1.098939431873895e+001
 2.880939725105363e+000	 2.439428478207633e+000	 1.101774568543958e+001
 2.855563157853522e+000	 2.469085671154231e+000	 1.103974435428013e+001
 2.829871620668863e+000	 2.498489866004877e+000	 1.105525494246084e+001
 2.803868914168816e+000	 2.527636071937259e+000	 1.104672238464495e+001
 2.777558943919313e+000	 2.556519374668873e+000	 1.103135185237955e+001
 2.750945718495975e+000	 2.585134939204085e+000	 1.101064016669201e+001
 2.724033347459339e+000	 2.613478012521847e+000	 1.098513194264119e+001
 2.696826039246256e+000	 2.641543926200946e+000	 1.095537715891648e+001
 2.669328098979750e+000	 2.669328098979750e+000	 1.092192942165793e+001
 2.950142112786840e+000	 2.395132880305170e+000	 1.095798559691563e+001
 2.925242646013206e+000	 2.425480460015402e+000	 1.099052030675703e+001
 2.900018796131629e+000	 2.455583633693764e+000	 1.101733220723891e+001
 2.874474172143182e+000	 2.485437231891217e+000	 1.103829722664686e+001
 2.848612492328294e+000	 2.515036156508704e+000	 1.104326430372451e+001
 2.822437582474046e+000	 2.544375383672110e+000	 1.103270854885609e+001
 2.795953374011048e+000	 2.573449966554016e+000	 1.101683418392050e+001
 2.769163902061777e+000	 2.602255038138946e+000	 1.099621261496524e+001
 2.742073303402402e+000	 2.630785813928893e+000	 1.097142185560998e+001
 2.714685814340219e+000	 2.659037594585949e+000	 1.094304474329289e+001
 2.687005768509000e+000	 2.687005768509000e+000	 1.091166714425624e+001
 2.969550942474911e+000	 2.410890333466961e+000	 1.095929557364737e+001
 2.944487663419903e+000	 2.441437568306380e+000	 1.099007191922907e+001
 2.919097867157557e+000	 2.471738789179555e+000	 1.101560347663089e+001
 2.893385186432378e+000	 2.501788792627911e+000	 1.103454812748097e+001
 2.867353363987166e+000	 2.531582447012270e+000	 1.102843053390132e+001
 2.841006250778654e+000	 2.561114695406711e+000	 1.101694744049082e+001
 2.814347804102124e+000	 2.590380558438898e+000	 1.100069652751454e+001
 2.787382085626915e+000	 2.619375137073517e+000	 1.098028343751373e+001
 2.760113259344827e+000	 2.648093615335601e+000	 1.095631994720664e+001
 2.732545589433598e+000	 2.676531262970542e+000	 1.092942212360905e+001
 2.704683438037750e+000	 2.704683438037750e+000	 1.090020846947727e+001
 2.988959772162985e+000	 2.426647786628250e+000	 1.095879397332833e+001
 2.963732680826416e+000	 2.457394676596947e+000	 1.098807410311315e+001
 2.938176938183148e+000	 2.487893944665004e+000	 1.101257859279358e+001
 2.912296200721111e+000	 2.518140353364315e+000	 1.101914593716261e+001
 2.886094235645480e+000	 2.548128737515575e+000	 1.101172388417527e+001
 2.859574919082637e+000	 2.577854007141061e+000	 1.099944298343302e+001
 2.832742234192540e+000	 2.607311150323519e+000	 1.098293592069896e+001
 2.805600269191387e+000	 2.636495236007797e+000	 1.096284293878368e+001
 2.778153215286611e+000	 2.665401416741968e+000	 1.093980994818283e+001
 2.750405364526393e+000	 2.694024931354726e+000	 1.091448662236516e+001
 2.722361107566000e+000	 2.722361107566000e+000	 1.088752448295686e+001
 3.008368601851061e+000	 2.442405239789038e+000	 1.095651098549232e+001
 2.982977698232747e+000	 2.473351784887102e+000	 1.098455118375571e+001
 2.957256009208400e+000	 2.504049100150112e+000	 1.100532363383526e+001
 2.931207215009382e+000	 2.534491914100428e+000	 1.100174958981512e+001
 2.904835107303235e+000	 2.564675028018619e+000	 1.099315503441047e+001
 2.878143587385996e+000	 2.594593318875161e+000	 1.098019893090136e+001
 2.851136664282298e+000	 2.624241742207880e+000	 1.096354933297608e+001
 2.823818452755197e+000	 2.653615334941788e+000	 1.094388145366520e+001
 2.796193171227756e+000	 2.682709218147994e+000	 1.092187571401191e+001
 2.768265139618602e+000	 2.711518599738500e+000	 1.089821577681264e+001
 2.740038777093750e+000	 2.740038777093750e+000	 1.087358657081866e+001
 3.027777431539140e+000	 2.458162692949324e+000	 1.095247607936372e+001
 3.002222715638894e+000	 2.489308893176847e+000	 1.097952688481520e+001
 2.976335080233315e+000	 2.520204255634879e+000	 1.098745001457394e+001
 2.950118229297190e+000	 2.550843474836250e+000	 1.098237645290040e+001
 2.923575978960432e+000	 2.581221318521403e+000	 1.097273439596766e+001
 2.896712255688731e+000	 2.611332630609009e+000	 1.095921887091940e+001
 2.869531094371396e+000	 2.641172334091980e+000	 1.094253366799385e+001
 2.842036636318340e+000	 2.670735433875488e+000	 1.092338934651659e+001
 2.814233127168260e+000	 2.700017019553681e+000	 1.090250122089146e+001
 2.786124914710225e+000	 2.729012268121863e+000	 1.088058733207098e+001
 2.757716446621000e+000	 2.757716446620999e+000	 1.085836641004322e+001
 3.047186261227222e+000	 2.473920146109110e+000	 1.094671802679720e+001
 3.021467733044860e+000	 2.505266001466179e+000	 1.096908755886422e+001
 2.995414151257892e+000	 2.536359411119304e+000	 1.096748900348078e+001
 2.969029243584533e+000	 2.567195035571781e+000	 1.096104353012042e+001
 2.942316850617070e+000	 2.597767609023926e+000	 1.095047212025533e+001
 2.915280923990843e+000	 2.628071942342609e+000	 1.093650623157654e+001
 2.887925524459835e+000	 2.658102925975821e+000	 1.091988576564316e+001
 2.860254819880819e+000	 2.687855532808898e+000	 1.090135701022586e+001
 2.832273083108126e+000	 2.717324820959028e+000	 1.088167056189861e+001
 2.803984689801264e+000	 2.746505936504817e+000	 1.086157923450784e+001
 2.775394116147749e+000	 2.775394116147750e+000	 1.084183595920494e+001
 3.066595090915306e+000	 2.489677599268394e+000	 1.093926492434635e+001
 3.040712750450644e+000	 2.521223109755101e+000	 1.094871002534690e+001
 3.014493222282131e+000	 2.552514566603390e+000	 1.094546412292809e+001
 2.987940257871414e+000	 2.583546596307021e+000	 1.093776747292846e+001
 2.961057722273150e+000	 2.614313899526189e+000	 1.092637810695596e+001
 2.933849592292330e+000	 2.644811254075957e+000	 1.091206428608933e+001
 2.906319954547613e+000	 2.675033517859401e+000	 1.089560240407542e+001
 2.878473003442633e+000	 2.704975631742018e+000	 1.087777486530787e+001
 2.850313039047351e+000	 2.734632622364035e+000	 1.085936794329121e+001
 2.821844464891718e+000	 2.763999604887360e+000	 1.084116962537035e+001
 2.793071785673999e+000	 2.793071785673999e+000	 1.082396744956091e+001
 3.086003920603393e+000	 2.505435052427177e+000	 1.092609033689693e+001
 3.059957767856244e+000	 2.537180218043611e+000	 1.092616814486526e+001
 3.033572293306033e+000	 2.568669722087133e+000	 1.092139845325139e+001
 3.006851272157832e+000	 2.599898157041970e+000	 1.091256459160623e+001
 2.979798593928670e+000	 2.630860190028190e+000	 1.090046201194197e+001
 2.952418260593193e+000	 2.661550565809054e+000	 1.088589615767152e+001
 2.924714384634735e+000	 2.691964109742722e+000	 1.086968030164411e+001
 2.896691187003782e+000	 2.722095730674847e+000	 1.085263335903554e+001
 2.868352994985936e+000	 2.751940423768701e+000	 1.083557768094879e+001
 2.839704239981587e+000	 2.781493273269494e+000	 1.081933683465688e+001
 2.810749455199750e+000	 2.810749455199749e+000	 1.080473337647600e+001
 3.105412750291483e+000	 2.521192505585459e+000	 1.090315968030543e+001
 3.079202785261663e+000	 2.553137326331711e+000	 1.090149134801750e+001
 3.052651364329598e+000	 2.584824877570536e+000	 1.089531464656302e+001
 3.025762286443788e+000	 2.616249717776629e+000	 1.088545086592546e+001
 2.998539465583634e+000	 2.647406480529932e+000	 1.087273325489487e+001
 2.970986928893433e+000	 2.678289877541902e+000	 1.085800482422177e+001
 2.943108814721196e+000	 2.708894701625782e+000	 1.084211611877341e+001
 2.914909370564268e+000	 2.739215829607388e+000	 1.082592296460376e+001
 2.886392950923881e+000	 2.769248225173028e+000	 1.081028419694683e+001
 2.857564015070873e+000	 2.798986941651219e+000	 1.079605937521858e+001
 2.828427124725000e+000	 2.828427124725000e+000	 1.078410649116942e+001
 2.651650429450000e+000	 2.651650429450000e+000	 1.093102452655064e+001
 2.624050257815533e+000	 2.678966264151706e+000	 1.082413494584007e+001
 2.596170211114461e+000	 2.705993391515634e+000	 1.072740926202210e+001
 2.568014840268936e+000	 2.732727534929508e+000	 1.064174099532542e+001
 2.539588782783471e+000	 2.759164513826918e+000	 1.056800789954288e+001
 2.510896760202158e+000	 2.785300245862960e+000	 1.050706992653723e+001
 2.481943575500790e+000	 2.811130749008873e+000	 1.048709572173312e+001
 2.452734110416956e+000	 2.836652143563399e+000	 1.049161656502932e+001
 2.423273322721161e+000	 2.861860654078759e+000	 1.050175052086552e+001
 2.393566243432213e+000	 2.886752611199269e+000	 1.051643290213651e+001
 2.363617973980084e+000	 2.911324453410707e+000	 1.053456235406125e+001
 2.669328098979750e+000	 2.669328098979750e+000	 1.092192942165793e+001
 2.641543926200946e+000	 2.696826039246255e+000	 1.082428557762152e+001
 2.613478012521847e+000	 2.724033347459337e+000	 1.073570931667503e+001
 2.585134939204087e+000	 2.750945718495975e+000	 1.065709497865310e+001
 2.556519374668874e+000	 2.777558943919311e+000	 1.058932208321660e+001
 2.527636071937260e+000	 2.803868914168815e+000	 1.053325326854388e+001
 2.498489866004878e+000	 2.829871620668862e+000	 1.049200795794289e+001
 2.469085671154232e+000	 2.855563157853521e+000	 1.050163436552156e+001
 2.439428478207634e+000	 2.880939725105363e+000	 1.051591225625607e+001
 2.409523351724014e+000	 2.905997628606328e+000	 1.053373083944619e+001
 2.379375427142877e+000	 2.930733283098773e+000	 1.055394273450488e+001
 2.687005768509000e+000	 2.687005768509000e+000	 1.091166714425624e+001
 2.659037594585950e+000	 2.714685814340219e+000	 1.082270436698948e+001
 2.630785813928895e+000	 2.742073303402402e+000	 1.074172999393987e+001
 2.602255038138947e+000	 2.769163902061777e+000	 1.066963986716177e+001
 2.573449966554017e+000	 2.795953374011047e+000	 1.060731594161435e+001
 2.544375383672111e+000	 2.822437582474045e+000	 1.055562419707609e+001
 2.515036156508705e+000	 2.848612492328293e+000	 1.051541258250151e+001
 2.485437231891217e+000	 2.874474172143180e+000	 1.050732910216066e+001
 2.455583633693765e+000	 2.900018796131628e+000	 1.052566898001649e+001
 2.425480460015403e+000	 2.925242646013206e+000	 1.054657556171487e+001
 2.395132880305170e+000	 2.950142112786840e+000	 1.056885503981562e+001
 2.704683438037750e+000	 2.704683438037750e+000	 1.090020846947727e+001
 2.676531262970543e+000	 2.732545589433597e+000	 1.081936883141450e+001
 2.648093615335602e+000	 2.760113259344826e+000	 1.074545526331031e+001
 2.619375137073518e+000	 2.787382085626914e+000	 1.067936579180901e+001
 2.590380558438899e+000	 2.814347804102123e+000	 1.062198547653238e+001
 2.561114695406712e+000	 2.841006250778652e+000	 1.057418429425317e+001
 2.531582447012271e+000	 2.867353363987166e+000	 1.053681505452213e+001
 2.501788792627913e+000	 2.893385186432377e+000	 1.051071135218095e+001
 2.471738789179556e+000	 2.919097867157556e+000	 1.053058985263880e+001
 2.441437568306381e+000	 2.944487663419902e+000	 1.055454713083149e+001
 2.410890333466960e+000	 2.969550942474911e+000	 1.057889014019651e+001
 2.722361107566000e+000	 2.722361107566000e+000	 1.088752448295686e+001
 2.694024931354727e+000	 2.750405364526391e+000	 1.081425654828295e+001
 2.665401416741969e+000	 2.778153215286610e+000	 1.074686891149811e+001
 2.636495236007798e+000	 2.805600269191386e+000	 1.068626246607812e+001
 2.607311150323519e+000	 2.832742234192541e+000	 1.063332604571613e+001
 2.577854007141062e+000	 2.859574919082636e+000	 1.058893427978725e+001
 2.548128737515576e+000	 2.886094235645479e+000	 1.055394547929910e+001
 2.518140353364316e+000	 2.912296200721111e+000	 1.052919955885073e+001
 2.487893944665005e+000	 2.938176938183147e+000	 1.053024256742546e+001
 2.457394676596948e+000	 2.963732680826415e+000	 1.055722395695777e+001
 2.426647786628250e+000	 2.988959772162985e+000	 1.058363707824696e+001
 2.740038777093750e+000	 2.740038777093750e+000	 1.087358657081866e+001
 2.711518599738501e+000	 2.768265139618600e+000	 1.080734515296431e+001
 2.682709218147995e+000	 2.796193171227754e+000	 1.074595454832913e+001
 2.653615334941789e+000	 2.823818452755194e+000	 1.069031919944522e+001
 2.624241742207881e+000	 2.851136664282297e+000	 1.064133238363604e+001
 2.594593318875162e+000	 2.878143587385995e+000	 1.059987403880271e+001
 2.564675028018621e+000	 2.904835107303234e+000	 1.056680861874776e+001
 2.534491914100428e+000	 2.931207215009381e+000	 1.054298298365230e+001
 2.504049100150114e+000	 2.957256009208400e+000	 1.052922433121079e+001
 2.473351784887103e+000	 2.982977698232745e+000	 1.055418285180974e+001
 2.442405239789038e+000	 3.008368601851061e+000	 1.058268312791770e+001
 2.757716446621000e+000	 2.757716446620999e+000	 1.085836641004322e+001
 2.729012268121864e+000	 2.786124914710225e+000	 1.079861233695271e+001
 2.700017019553682e+000	 2.814233127168259e+000	 1.074269561241300e+001
 2.670735433875489e+000	 2.842036636318339e+000	 1.069152491032799e+001
 2.641172334091982e+000	 2.869531094371395e+000	 1.064599862146430e+001
 2.611332630609011e+000	 2.896712255688730e+000	 1.060700264858600e+001
 2.581221318521404e+000	 2.923575978960431e+000	 1.057540823019870e+001
 2.550843474836251e+000	 2.950118229297189e+000	 1.055206979861436e+001
 2.520204255634880e+000	 2.976335080233314e+000	 1.053782287793584e+001
 2.489308893176847e+000	 3.002222715638894e+000	 1.054499907988998e+001
 2.458162692949325e+000	 3.027777431539140e+000	 1.057561385119821e+001
 2.775394116147749e+000	 2.775394116147750e+000	 1.084183595920494e+001
 2.746505936504817e+000	 2.803984689801263e+000	 1.078803584607957e+001
 2.717324820959029e+000	 2.832273083108124e+000	 1.073707537659565e+001
 2.687855532808900e+000	 2.860254819880818e+000	 1.068986813853990e+001
 2.658102925975823e+000	 2.887925524459833e+000	 1.064731830628817e+001
 2.628071942342610e+000	 2.915280923990842e+000	 1.061031840431267e+001
 2.597767609023927e+000	 2.942316850617069e+000	 1.057974709839087e+001
 2.567195035571781e+000	 2.969029243584532e+000	 1.055646702032316e+001
 2.536359411119306e+000	 2.995414151257891e+000	 1.054132263185745e+001
 2.505266001466179e+000	 3.021467733044859e+000	 1.053513813338842e+001
 2.473920146109110e+000	 3.047186261227222e+000	 1.056201315263781e+001
 2.793071785673999e+000	 2.793071785673999e+000	 1.082396744956091e+001
 2.763999604887362e+000	 2.821844464891717e+000	 1.077559347879394e+001
 2.734632622364035e+000	 2.850313039047350e+000	 1.072907695320509e+001
 2.704975631742019e+000	 2.878473003442632e+000	 1.068533705727134e+001
 2.675033517859403e+000	 2.906319954547613e+000	 1.064528441959364e+001
 2.644811254075958e+000	 2.933849592292328e+000	 1.060981884379807e+001
 2.614313899526190e+000	 2.961057722273149e+000	 1.057982706624985e+001
 2.583546596307022e+000	 2.987940257871413e+000	 1.055618054648701e+001
 2.552514566603391e+000	 3.014493222282131e+000	 1.053973329617107e+001
 2.521223109755101e+000	 3.040712750450642e+000	 1.053131975222326e+001
 2.489677599268394e+000	 3.066595090915306e+000	 1.054146333179629e+001
 2.810749455199750e+000	 2.810749455199749e+000	 1.080473337647600e+001
 2.781493273269495e+000	 2.839704239981586e+000	 1.076126308450799e+001
 2.751940423768702e+000	 2.868352994985934e+000	 1.071868329909916e+001
 2.722095730674849e+000	 2.896691187003782e+000	 1.067791948461859e+001
 2.691964109742723e+000	 2.924714384634733e+000	 1.063988939505174e+001
 2.661550565809056e+000	 2.952418260593193e+000	 1.060550077131339e+001
 2.630860190028192e+000	 2.979798593928670e+000	 1.057564906450456e+001
 2.599898157041972e+000	 3.006851272157831e+000	 1.055121519112124e+001
 2.568669722087134e+000	 3.033572293306032e+000	 1.053306332611400e+001
 2.537180218043612e+000	 3.059957767856243e+000	 1.052203873956967e+001
 2.505435052427177e+000	 3.086003920603393e+000	 1.051896568263736e+001
 2.828427124725000e+000	 2.828427124725000e+000	 1.078410649116942e+001
 2.798986941651219e+000	 2.857564015070872e+000	 1.074502256200437e+001
 2.769248225173028e+000	 2.886392950923880e+000	 1.070587722052394e+001
 2.739215829607389e+000	 2.914909370564268e+000	 1.066760289468060e+001
 2.708894701625782e+000	 2.943108814721194e+000	 1.063112513563768e+001
 2.678289877541904e+000	 2.970986928893432e+000	 1.059736028050912e+001
 2.647406480529933e+000	 2.998539465583634e+000	 1.056721314019349e+001
 2.616249717776630e+000	 3.025762286443787e+000	 1.054157471841353e+001
 2.584824877570537e+000	 3.052651364329597e+000	 1.052131996796405e+001
 2.553137326331712e+000	 3.079202785261663e+000	 1.050730559004366e+001
 2.521192505585459e+000	 3.105412750291483e+000	 1.050036788239735e+001
 2.363617973980084e+000	 2.911324453410707e+000	 1.053456235406125e+001
 2.333433683319122e+000	 2.935572728699535e+000	 1.054228373167338e+001
 2.303018604996550e+000	 2.959494096117997e+000	 1.054845884996293e+001
 2.272378034178562e+000	 2.983085327255382e+000	 1.055172771202364e+001
 2.241517324636551e+000	 3.006343307615601e+000	 1.055070708797743e+001
 2.210441885698608e+000	 3.029265037897612e+000	 1.054399347283087e+001
 2.179157179169301e+000	 3.051847635178518e+000	 1.053016610616666e+001
 2.147668716221342e+000	 3.074088333998505e+000	 1.050779004549328e+001
 2.115982054262759e+000	 3.095984487346923e+000	 1.047541928493594e+001
 2.084102793783214e+000	 3.117533567548997e+000	 1.043159991084288e+001
 2.052036575183095e+000	 3.138733167052782e+000	 1.038751704910218e+001
 2.379375427142877e+000	 2.930733283098773e+000	 1.055394273450488e+001
 2.348989907878144e+000	 2.955143213555779e+000	 1.056002105032977e+001
 2.318372062367228e+000	 2.979224056756658e+000	 1.056431317425295e+001
 2.287527221077428e+000	 3.002972562767960e+000	 1.056546436093522e+001
 2.256460773471950e+000	 3.026385596330287e+000	 1.056209592396534e+001
 2.225178164941071e+000	 3.049460138147259e+000	 1.055280822063851e+001
 2.193684893701392e+000	 3.072193286076491e+000	 1.053618370041818e+001
 2.161986507666775e+000	 3.094582256221773e+000	 1.051079000878915e+001
 2.130088601294635e+000	 3.116624383925714e+000	 1.047518313806535e+001
 2.097996812411231e+000	 3.138317124662375e+000	 1.043142821492131e+001
 2.065716819019625e+000	 3.159658054829465e+000	 1.038864447859670e+001
 2.395132880305170e+000	 2.950142112786840e+000	 1.056885503981562e+001
 2.364546132436579e+000	 2.974713698412216e+000	 1.057441255512103e+001
 2.333725519737264e+000	 2.998954017395681e+000	 1.057796406420133e+001
 2.302676407975629e+000	 3.022859798281050e+000	 1.057815906600412e+001
 2.271404222306690e+000	 3.046427885045616e+000	 1.057362238675712e+001
 2.239914444182912e+000	 3.069655238397657e+000	 1.056295719314453e+001
 2.208212608232926e+000	 3.092538936975307e+000	 1.054474807105125e+001
 2.176304299111746e+000	 3.115076178445951e+000	 1.051756416146369e+001
 2.144195148326174e+000	 3.137264280505466e+000	 1.047619360087940e+001
 2.111890831039069e+000	 3.159100681776744e+000	 1.042980874937943e+001
 2.079397062856160e+000	 3.180582942607150e+000	 1.038482979739674e+001
 2.410890333466960e+000	 2.969550942474911e+000	 1.057889014019651e+001
 2.380102356994429e+000	 2.994284183268845e+000	 1.058503817254772e+001
 2.349078977106659e+000	 3.018683978035067e+000	 1.058898063567574e+001
 2.317825594873165e+000	 3.042747033794651e+000	 1.058937026767076e+001
 2.286347671140772e+000	 3.066470173761586e+000	 1.058483437851947e+001
 2.254650723424130e+000	 3.089850338648807e+000	 1.057397789315795e+001
 2.222740322763903e+000	 3.112884587874963e+000	 1.055538646201244e+001
 2.190622090556256e+000	 3.135570100671041e+000	 1.051925250483647e+001
 2.158301695357378e+000	 3.157904177086176e+000	 1.047071720099548e+001
 2.125784849666727e+000	 3.179884238892103e+000	 1.042269164197419e+001
 2.093077306692701e+000	 3.201507830385834e+000	 1.037616957567984e+001
 2.426647786628250e+000	 2.988959772162985e+000	 1.058363707824696e+001
 2.395658581551693e+000	 3.013854668125669e+000	 1.059147639673368e+001
 2.364432434475413e+000	 3.038413938674816e+000	 1.059693096991998e+001
 2.332974781770037e+000	 3.062634269308765e+000	 1.059865577183486e+001
 2.301291119974193e+000	 3.086512462478198e+000	 1.059527956909610e+001
 2.269387002664724e+000	 3.110045438900708e+000	 1.058540799531996e+001
 2.237268037294321e+000	 3.133230238775460e+000	 1.055782830215770e+001
 2.204939882000303e+000	 3.156064022897041e+000	 1.050881118307408e+001
 2.172408242388248e+000	 3.178544073667850e+000	 1.045923591507527e+001
 2.139678868294205e+000	 3.200667796008452e+000	 1.041019680831124e+001
 2.106757550529247e+000	 3.222432718165518e+000	 1.036276259837382e+001
 2.442405239789038e+000	 3.008368601851061e+000	 1.058268312791770e+001
 2.411214806108369e+000	 3.033425152982682e+000	 1.059330433563169e+001
 2.379785891843528e+000	 3.058143899314927e+000	 1.060138214692872e+001
 2.348123968666243e+000	 3.082521504823393e+000	 1.060557277032453e+001
 2.316234568806955e+000	 3.106554751195451e+000	 1.060450540350201e+001
 2.284123281904695e+000	 3.130240539153362e+000	 1.058892269147625e+001
 2.251795751824184e+000	 3.153575889676798e+000	 1.054131211794604e+001
 2.219257673443891e+000	 3.176557945123951e+000	 1.049190420075428e+001
 2.186514789418780e+000	 3.199183970250482e+000	 1.044189207987737e+001
 2.153572886921503e+000	 3.221451353125791e+000	 1.039244590968098e+001
 2.120437794365798e+000	 3.243357605946203e+000	 1.034470979371324e+001
 2.458162692949325e+000	 3.027777431539140e+000	 1.057561385119821e+001
 2.426771030664461e+000	 3.052995637839891e+000	 1.059009775545207e+001
 2.395139349211001e+000	 3.077873859955400e+000	 1.060190027753898e+001
 2.363273155561783e+000	 3.102408740338530e+000	 1.060967786057799e+001
 2.331178017639059e+000	 3.126597039913347e+000	 1.060931045726760e+001
 2.298859561144043e+000	 3.150435639406766e+000	 1.056521577616268e+001
 2.266323466353488e+000	 3.173921540578978e+000	 1.051791414880384e+001
 2.233575464887017e+000	 3.197051867351772e+000	 1.046869542091882e+001
 2.200621336448978e+000	 3.219823866834076e+000	 1.041882933790435e+001
 2.167466905548621e+000	 3.242234910244120e+000	 1.036956229710721e+001
 2.134118038202355e+000	 3.264282493727888e+000	 1.032211416454366e+001
 2.473920146109110e+000	 3.047186261227222e+000	 1.056201315263781e+001
 2.442327255219966e+000	 3.072566122697290e+000	 1.058143112339332e+001
 2.410492806577833e+000	 3.097603820596236e+000	 1.059805053429493e+001
 2.378422342456659e+000	 3.122295975854181e+000	 1.061052706457325e+001
 2.346121466470502e+000	 3.146639328631884e+000	 1.057728707594368e+001
 2.313595840382767e+000	 3.170630739660921e+000	 1.053425377985901e+001
 2.280851180882236e+000	 3.194267191481997e+000	 1.048781891704826e+001
 2.247893256329681e+000	 3.217545789580504e+000	 1.043934960004818e+001
 2.214727883478840e+000	 3.240463763418628e+000	 1.039019259581841e+001
 2.181360924175559e+000	 3.263018467363440e+000	 1.034167095753389e+001
 2.147798282038917e+000	 3.285207381510571e+000	 1.029508072225124e+001
 2.489677599268394e+000	 3.066595090915306e+000	 1.054146333179629e+001
 2.457883479774885e+000	 3.092136607554884e+000	 1.056687764875012e+001
 2.425846263944025e+000	 3.117333781237435e+000	 1.058939718114078e+001
 2.393571529350870e+000	 3.142183211370344e+000	 1.057405543007150e+001
 2.361064915301287e+000	 3.166681617351065e+000	 1.053767632169847e+001
 2.328332119620868e+000	 3.190825839915830e+000	 1.049624104355379e+001
 2.295378895410426e+000	 3.214612842385860e+000	 1.045121145235283e+001
 2.262211047771885e+000	 3.238039711810147e+000	 1.040403235978806e+001
 2.228834430508368e+000	 3.261103660004142e+000	 1.035612798443649e+001
 2.195254942802318e+000	 3.283802024483749e+000	 1.030889846205546e+001
 2.161478525875483e+000	 3.306132269294256e+000	 1.026371642320130e+001
 2.505435052427177e+000	 3.086003920603393e+000	 1.051896568263736e+001
 2.473439704329218e+000	 3.111707092412669e+000	 1.054600932246996e+001
 2.441199721309576e+000	 3.137063741878996e+000	 1.055181066256328e+001
 2.408720716244416e+000	 3.162070446887020e+000	 1.052469560040977e+001
 2.376008364131413e+000	 3.186723906070886e+000	 1.049070153861442e+001
 2.343068398858346e+000	 3.211020940171488e+000	 1.045138205439212e+001
 2.309906609938059e+000	 3.234958493290562e+000	 1.040827727579291e+001
 2.276528839213626e+000	 3.258533634040700e+000	 1.036291015974308e+001
 2.242940977537559e+000	 3.281743556590616e+000	 1.031678282023472e+001
 2.209148961428896e+000	 3.304585581605049e+000	 1.027137291610092e+001
 2.175158769712056e+000	 3.327057157078940e+000	 1.022813010757554e+001
 2.521192505585459e+000	 3.105412750291483e+000	 1.050036788239735e+001
 2.488995928882964e+000	 3.131277577270647e+000	 1.050659951615437e+001
 2.456553178674486e+000	 3.156793702520920e+000	 1.049158200886981e+001
 2.423869903137296e+000	 3.181957682404208e+000	 1.046769683893753e+001
 2.390951812960879e+000	 3.206766194791349e+000	 1.043658587934065e+001
 2.357804678095202e+000	 3.231216040427900e+000	 1.039988144110822e+001
 2.324434324465136e+000	 3.255304144196106e+000	 1.035920238448935e+001
 2.290846630654908e+000	 3.279027556272165e+000	 1.031615027129050e+001
 2.257047524566415e+000	 3.302383453178051e+000	 1.027230556829662e+001
 2.223042980055296e+000	 3.325369138727340e+000	 1.022922391148576e+001
 2.188839013548634e+000	 3.347982044864625e+000	 1.018843244050260e+001
 2.052036575183095e+000	 3.138733167052782e+000	 1.038751704910218e+001
 2.019789075589026e+000	 3.159580999116348e+000	 1.024823348993179e+001
 1.987366005659461e+000	 3.180074898394475e+000	 1.010458855114525e+001
 1.954773106383974e+000	 3.200212821425363e+000	 9.958131766965387e+000
 1.922016145879749e+000	 3.219992847017980e+000	 9.810380364810655e+000
 1.889100916188958e+000	 3.239413176539813e+000	 9.662816241757113e+000
 1.856033230080493e+000	 3.258472134105683e+000	 9.635687342609993e+000
 1.822818917859586e+000	 3.277168166668327e+000	 9.708390145043898e+000
 1.789463824188732e+000	 3.295499844011497e+000	 9.791486768945095e+000
 1.755973804923334e+000	 3.313465858646516e+000	 9.881133365320295e+000
 1.722354723965393e+000	 3.331065025613313e+000	 9.973570724946489e+000
 2.065716819019625e+000	 3.159658054829465e+000	 1.038864447859670e+001
 2.033254336094089e+000	 3.180644872440123e+000	 1.026300471806658e+001
 2.000615112364274e+000	 3.201275397713506e+000	 1.013387606307363e+001
 1.967804927093015e+000	 3.221547573564735e+000	 1.000274927943499e+001
 1.934829586851615e+000	 3.241459465994842e+000	 9.871082320986972e+000
 1.901694922295856e+000	 3.261009264380423e+000	 9.740297335802998e+000
 1.868406784946424e+000	 3.280195281663736e+000	 9.651678185468262e+000
 1.834971043977252e+000	 3.299015954443867e+000	 9.734048499698154e+000
 1.801393583015250e+000	 3.317469842969796e+000	 9.826480085358533e+000
 1.767680296954860e+000	 3.335555631036249e+000	 9.924900996973888e+000
 1.733837088790757e+000	 3.353272125783427e+000	 1.002532678011675e+001
 2.079397062856160e+000	 3.180582942607150e+000	 1.038482979739674e+001
 2.046719596599342e+000	 3.201708745764888e+000	 1.027077026459718e+001
 2.013864219069431e+000	 3.222475897033497e+000	 1.015409281068063e+001
 1.980836747802526e+000	 3.242882325705017e+000	 1.003623106913099e+001
 1.947643027824043e+000	 3.262926084972540e+000	 9.918585344577046e+000
 1.914288928403381e+000	 3.282605352221780e+000	 9.802519646840734e+000
 1.880780339813015e+000	 3.301918429222424e+000	 9.689358827218797e+000
 1.847123170095581e+000	 3.320863742219913e+000	 9.746733789025221e+000
 1.813323341842406e+000	 3.339439841928448e+000	 9.847740537964359e+000
 1.779386788986965e+000	 3.357645403426165e+000	 9.954172119235235e+000
 1.745319453616616e+000	 3.375479225953533e+000	 1.006181702798946e+001
 2.093077306692701e+000	 3.201507830385834e+000	 1.037616957567984e+001
 2.060184857104785e+000	 3.222772619090644e+000	 1.027165886786370e+001
 2.027113325774932e+000	 3.243676396354447e+000	 1.016539979007204e+001
 1.993868568512505e+000	 3.264217077846207e+000	 1.005877046834653e+001
 1.960456468797033e+000	 3.284392703951076e+000	 9.953115171294947e+000
 1.926882934511530e+000	 3.304201440063883e+000	 9.849741370049005e+000
 1.893153894680265e+000	 3.323641576781748e+000	 9.749916901357484e+000
 1.859275296214573e+000	 3.342711529996461e+000	 9.745834985473056e+000
 1.825253100670199e+000	 3.361409840887453e+000	 9.854717714448016e+000
 1.791093281019653e+000	 3.379735175816265e+000	 9.968456946523272e+000
 1.756801818442972e+000	 3.397686326123631e+000	 1.008261227858410e+001
 2.106757550529247e+000	 3.222432718165518e+000	 1.036276259837382e+001
 2.073650117610419e+000	 3.243836492417388e+000	 1.026580049636519e+001
 2.040362432480778e+000	 3.264876895676356e+000	 1.016795824036927e+001
 2.006900389222952e+000	 3.285551829988305e+000	 1.007056006316999e+001
 1.973269909770587e+000	 3.305859322930448e+000	 9.974895799825477e+000
 1.939476940620306e+000	 3.325797527906732e+000	 9.882217971620403e+000
 1.905527449548175e+000	 3.345364724341706e+000	 9.793738974096005e+000
 1.871427422334229e+000	 3.364559317773515e+000	 9.730736347068483e+000
 1.837182859498629e+000	 3.383379839846811e+000	 9.846855495526832e+000
 1.802799773052922e+000	 3.401824948206546e+000	 9.967258994471608e+000
 1.768284183269824e+000	 3.419893426293720e+000	 1.008727565250476e+001
 2.120437794365798e+000	 3.243357605946203e+000	 1.034470979371324e+001
 2.087115378116242e+000	 3.264900365745122e+000	 1.025332630907703e+001
 2.053611539186969e+000	 3.286077394999225e+000	 1.016192963587016e+001
 2.019932209933868e+000	 3.306886582131313e+000	 1.007179171755612e+001
 1.986083350744702e+000	 3.327325941910658e+000	 9.984149547857440e+000
 1.952070946729708e+000	 3.347393615750326e+000	 9.900202276793328e+000
 1.917901004416745e+000	 3.367087871902299e+000	 9.821108421776954e+000
 1.883579548454547e+000	 3.386407105551071e+000	 9.747983190163801e+000
 1.849112618327696e+000	 3.405349838806521e+000	 9.823592239045858e+000
 1.814506265086771e+000	 3.423914720597009e+000	 9.950075296018479e+000
 1.779766548097172e+000	 3.442100526463804e+000	 1.007536282898559e+001
 2.134118038202355e+000	 3.264282493727888e+000	 1.032211416454366e+001
 2.100580638622255e+000	 3.285964239073846e+000	 1.023436861729465e+001
 2.066860645893503e+000	 3.307277894323052e+000	 1.014747567851144e+001
 2.032964030645252e+000	 3.328221334275228e+000	 1.006265659647128e+001
 1.998896791719379e+000	 3.348792560891706e+000	 9.981097105961608e+000
 1.964664952839736e+000	 3.368989703594667e+000	 9.903944554497922e+000
 1.930274559285973e+000	 3.388811019463527e+000	 9.832305134623457e+000
 1.895731674575530e+000	 3.408254893329132e+000	 9.767241228693973e+000
 1.861042377157401e+000	 3.427319837766585e+000	 9.784360956993018e+000
 1.826212757121203e+000	 3.446004492987655e+000	 9.916396609185393e+000
 1.791248912925016e+000	 3.464307626633877e+000	 1.004642228439631e+001
 2.147798282038917e+000	 3.285207381510571e+000	 1.029508072225124e+001
 2.114045899128458e+000	 3.307028112403561e+000	 1.020906084793548e+001
 2.080109752600382e+000	 3.328478393647839e+000	 1.012475829061884e+001
 2.045995851357105e+000	 3.349556086420052e+000	 1.004334518815427e+001
 2.011710232694617e+000	 3.370259179873590e+000	 9.965957589409902e+000
 1.977258958950390e+000	 3.390585791439755e+000	 9.893692598767126e+000
 1.942648114155862e+000	 3.410534167025391e+000	 9.827605627762173e+000
 1.907883800697175e+000	 3.430102681107696e+000	 9.768707760290624e+000
 1.872972135987741e+000	 3.449289836727000e+000	 9.728589485749263e+000
 1.837919249156216e+000	 3.468094265378483e+000	 9.865707616915222e+000
 1.802731277753356e+000	 3.486514726803944e+000	 9.999995521632799e+000
 2.161478525875483e+000	 3.306132269294256e+000	 1.026371642320130e+001
 2.127511159634852e+000	 3.328091985734265e+000	 1.017753750823432e+001
 2.093358859307605e+000	 3.349678892973584e+000	 1.009393960793292e+001
 2.059027672069427e+000	 3.370890838565784e+000	 1.001404732553172e+001
 2.024523673670420e+000	 3.391725798856314e+000	 9.938948588026603e+000
 1.989852965061669e+000	 3.412181879285588e+000	 9.869691807056203e+000
 1.955021669026410e+000	 3.432257314587889e+000	 9.807283148029997e+000
 1.920035926819483e+000	 3.451950468886766e+000	 9.752683913939208e+000
 1.884901894818720e+000	 3.471259835687771e+000	 9.706808049878410e+000
 1.849625741191810e+000	 3.490184037769494e+000	 9.797487119321565e+000
 1.814213642582192e+000	 3.508721826974003e+000	 9.935617290796627e+000
 2.175158769712056e+000	 3.327057157078940e+000	 1.022813010757554e+001
 2.140976420141436e+000	 3.349155859065959e+000	 1.013993415177132e+001
 2.106607966015173e+000	 3.370879392300290e+000	 1.005518197289785e+001
 2.072059492782216e+000	 3.392225590712424e+000	 9.974952206825471e+000
 2.037337114646784e+000	 3.413192417839873e+000	 9.900286214158260e+000
 2.002446971173575e+000	 3.433777967132169e+000	 9.832185255606957e+000
 1.967395223897617e+000	 3.453980462151023e+000	 9.771607776750621e+000
 1.932188052942455e+000	 3.473798256666338e+000	 9.719466808645704e+000
 1.896831653650335e+000	 3.493229834648894e+000	 9.676627490326762e+000
 1.861332233227986e+000	 3.512273810160688e+000	 9.711208218683378e+000
 1.825696007411525e+000	 3.530928927144053e+000	 9.852815801547147e+000
 2.188839013548634e+000	 3.347982044864625e+000	 1.018843244050260e+001
 2.154441680648210e+000	 3.370219732398643e+000	 1.009638734577347e+001
 2.119857072723086e+000	 3.392079891627955e+000	 1.000864792820197e+001
 2.085091313495476e+000	 3.413560342859975e+000	 9.926248415387034e+000
 2.050150555623710e+000	 3.434659036824271e+000	 9.850185148845108e+000
 2.015040977286107e+000	 3.455374054979496e+000	 9.781413771985465e+000
 1.979768778769484e+000	 3.475703609714792e+000	 9.720846528656745e+000
 1.944340179066091e+000	 3.495646044446416e+000	 9.669349678748507e+000
 1.908761412482589e+000	 3.515199833610370e+000	 9.627741036912729e+000
 1.873038725264743e+000	 3.534363582552064e+000	 9.606338497502232e+000
 1.837178372241353e+000	 3.553136027314097e+000	 9.751112927490146e+000
 1.722354723965393e+000	 3.331065025613313e+000	 9.973570724946489e+000
 1.688612450138004e+000	 3.348296282186655e+000	 9.859955731587034e+000
 1.654752854085250e+000	 3.365158687490438e+000	 9.779206708278567e+000
 1.620781805199965e+000	 3.381651422020274e+000	 9.726996266601804e+000
 1.586705168581186e+000	 3.397773787074999e+000	 9.699091870975519e+000
 1.552528802025695e+000	 3.413525204100325e+000	 9.691364591419124e+000
 1.518258553056114e+000	 3.428905213945839e+000	 9.699797488443160e+000
 1.483900255988309e+000	 3.443913476037222e+000	 9.720493614516657e+000
 1.449459729040826e+000	 3.458549767465619e+000	 9.749683617955064e+000
 1.414942771488918e+000	 3.472813981996223e+000	 9.783732936487793e+000
 1.380355160865667e+000	 3.486706128998200e+000	 9.819148569194066e+000
 1.733837088790757e+000	 3.353272125783427e+000	 1.002532678011675e+001
 1.699869866471438e+000	 3.370618257401203e+000	 9.905579858671988e+000
 1.665784539778524e+000	 3.387593078740911e+000	 9.817796483057066e+000
 1.631587017234134e+000	 3.404195764834802e+000	 9.757597273728885e+000
 1.597283203037966e+000	 3.420425612323706e+000	 9.720699677292972e+000
 1.562878994038781e+000	 3.436282038796303e+000	 9.702926864533691e+000
 1.528380276742685e+000	 3.451764582041180e+000	 9.700216253731478e+000
 1.493792924360984e+000	 3.466872899213522e+000	 9.708627643437593e+000
 1.459122793900349e+000	 3.481606765918415e+000	 9.724350940299788e+000
 1.424375723297866e+000	 3.495966075212821e+000	 9.743713468972858e+000
 1.389557528603505e+000	 3.509950836528365e+000	 9.763186852604662e+000
 1.745319453616616e+000	 3.375479225953533e+000	 1.006181702798946e+001
 1.711127282805278e+000	 3.392940232615552e+000	 9.938770376539525e+000
 1.676816225472134e+000	 3.410027469991017e+000	 9.846766537471055e+000
 1.642392229268591e+000	 3.426740107648816e+000	 9.781370811356227e+000
 1.607861237495004e+000	 3.443077437571767e+000	 9.738247353654401e+000
 1.573229186052117e+000	 3.459038873491527e+000	 9.713168222120451e+000
 1.538502000429518e+000	 3.474623950135679e+000	 9.702022042501625e+000
 1.503685592733952e+000	 3.489832322388909e+000	 9.700822276411348e+000
 1.468785858760215e+000	 3.504663764370250e+000	 9.705715076715414e+000
 1.433808675107228e+000	 3.519118168428427e+000	 9.712986717235264e+000
 1.398759896341848e+000	 3.533195544057530e+000	 9.719070585056727e+000
 1.756801818442972e+000	 3.397686326123631e+000	 1.008261227858410e+001
 1.722384699139524e+000	 3.415262207829704e+000	 9.959087854169937e+000
 1.687847911166081e+000	 3.432461861240755e+000	 9.865667263311606e+000
 1.653197441303335e+000	 3.449284450462311e+000	 9.797857148254716e+000
 1.618439271952302e+000	 3.465729262819183e+000	 9.751265090447593e+000
 1.583579378065704e+000	 3.481795708185997e+000	 9.721608811456187e+000
 1.548623724116613e+000	 3.497483318229334e+000	 9.704724985012820e+000
 1.513578261107214e+000	 3.512791745563387e+000	 9.696577643797234e+000
 1.478448923620425e+000	 3.527720762821125e+000	 9.693266166023163e+000
 1.443241626917004e+000	 3.542270261643044e+000	 9.691032828400450e+000
 1.407962264080697e+000	 3.556440251585694e+000	 9.686269913553508e+000
 1.768284183269824e+000	 3.419893426293720e+000	 1.008727565250476e+001
 1.733642115474177e+000	 3.437584183043659e+000	 9.966086020145047e+000
 1.698879596860366e+000	 3.454896252490127e+000	 9.874043058427775e+000
 1.664002653338367e+000	 3.471828793275291e+000	 9.806591402771961e+000
 1.629017306409860e+000	 3.488381088065955e+000	 9.759278767845032e+000
 1.593929570079541e+000	 3.504552542879713e+000	 9.727765306132454e+000
 1.558745447803969e+000	 3.520342686322146e+000	 9.707832570328471e+000
 1.523470929480769e+000	 3.535751168736951e+000	 9.695392062850836e+000
 1.488111988480980e+000	 3.550777761271038e+000	 9.686493357284546e+000
 1.452674578727196e+000	 3.565422354856671e+000	 9.677331778084676e+000
 1.417164631820050e+000	 3.579684959112860e+000	 9.664255626407872e+000
 1.779766548097172e+000	 3.442100526463804e+000	 1.007536282898559e+001
 1.744899531809236e+000	 3.459906158257415e+000	 9.959311983306154e+000
 1.709911282554987e+000	 3.477330643739131e+000	 9.871432520079628e+000
 1.674807865373688e+000	 3.494373136087754e+000	 9.807103708974896e+000
 1.639595340867676e+000	 3.511032913312080e+000	 9.761810094843225e+000
 1.604279762093629e+000	 3.527309377572675e+000	 9.731151018109907e+000
 1.568867171491588e+000	 3.543202054414117e+000	 9.710849731516090e+000
 1.533363597854616e+000	 3.558710591909605e+000	 9.696762096211375e+000
 1.497775053341879e+000	 3.573834759719990e+000	 9.684884841728957e+000
 1.462107530537803e+000	 3.588574448069307e+000	 9.671363375927699e+000
 1.426366999559909e+000	 3.602929666639025e+000	 9.652499132554933e+000
 1.791248912925016e+000	 3.464307626633877e+000	 1.004642228439631e+001
 1.756156948144701e+000	 3.482228133470974e+000	 9.938306444925281e+000
 1.720942968249945e+000	 3.499765034987769e+000	 9.857368630854573e+000
 1.685613077409296e+000	 3.516917478899702e+000	 9.798919376402431e+000
 1.650173375325751e+000	 3.533684738557561e+000	 9.758376742954189e+000
 1.614629954107967e+000	 3.550066212264884e+000	 9.731276005462876e+000
 1.578988895179468e+000	 3.566061422505243e+000	 9.713278927570105e+000
 1.543256266228757e+000	 3.581670015081346e+000	 9.700182608139340e+000
 1.507438118203121e+000	 3.596891758167981e+000	 9.687927883453643e+000
 1.471540482348825e+000	 3.611726541280953e+000	 9.672607270912469e+000
 1.435569367300273e+000	 3.626174374164190e+000	 9.650472441660197e+000
 1.802731277753356e+000	 3.486514726803944e+000	 9.999995521632799e+000
 1.767414364480573e+000	 3.504550108684335e+000	 9.902603902767801e+000
 1.731974653945240e+000	 3.522199426236039e+000	 9.831378937478487e+000
 1.696418289445192e+000	 3.539461821711133e+000	 9.781559043712814e+000
 1.660751409784086e+000	 3.556336563802396e+000	 9.748492474787785e+000
 1.624980146122556e+000	 3.572823046956338e+000	 9.727647176006284e+000
 1.589110618867610e+000	 3.588920790595527e+000	 9.714620222204109e+000
 1.553148934603191e+000	 3.604629438252175e+000	 9.705146818604925e+000
 1.517101183064709e+000	 3.619948756615013e+000	 9.695108848949984e+000
 1.480973434160261e+000	 3.634878634491608e+000	 9.680542956481643e+000
 1.444771735041142e+000	 3.649419081688354e+000	 9.657648144988226e+000
 1.814213642582192e+000	 3.508721826974003e+000	 9.935617290796627e+000
 1.778671780816851e+000	 3.526872083897497e+000	 9.851732847406012e+000
 1.743006339640873e+000	 3.544633817483943e+000	 9.792985722836804e+000
 1.707223501481376e+000	 3.562006164522049e+000	 9.754538826496294e+000
 1.671329444242679e+000	 3.578988389046587e+000	 9.731667267751138e+000
 1.635330338137395e+000	 3.595579881647038e+000	 9.719768386987498e+000
 1.599232342556014e+000	 3.611780158684969e+000	 9.714371359650896e+000
 1.563041602977918e+000	 3.627588861422093e+000	 9.711146355322722e+000
 1.526764247926640e+000	 3.643005755061083e+000	 9.705913235508900e+000
 1.490406385972113e+000	 3.658030727701274e+000	 9.694649775459709e+000
 1.453974102782516e+000	 3.672663789211519e+000	 9.673499396997373e+000
 1.825696007411525e+000	 3.530928927144053e+000	 9.852815801547147e+000
 1.789929197153535e+000	 3.549194059110465e+000	 9.785215951124529e+000
 1.754038025336842e+000	 3.567068208731479e+000	 9.741706171503941e+000
 1.718028713517848e+000	 3.584550507332446e+000	 9.717370459509986e+000
 1.681907478701533e+000	 3.601640214290131e+000	 9.707407433080173e+000
 1.645680530152485e+000	 3.618336716336984e+000	 9.707140541015994e+000
 1.609354066244680e+000	 3.634639526773566e+000	 9.712027837601998e+000
 1.572934271352938e+000	 3.650548284591098e+000	 9.717671303822369e+000
 1.536427312788915e+000	 3.666062753506191e+000	 9.719825698554118e+000
 1.499839337784379e+000	 3.681182820909949e+000	 9.714406924789397e+000
 1.463176470524395e+000	 3.695908496733685e+000	 9.697499897629422e+000
 1.837178372241353e+000	 3.553136027314097e+000	 9.751112927490146e+000
 1.801186613490626e+000	 3.571516034323234e+000	 9.702570249741790e+000
 1.765069711033149e+000	 3.589502599978649e+000	 9.677052529065614e+000
 1.728833925554609e+000	 3.607094850142330e+000	 9.669561433578913e+000
 1.692485513160645e+000	 3.624292039533032e+000	 9.675215730407478e+000
 1.656030722167825e+000	 3.641093551026176e+000	 9.689261678395946e+000
 1.619475789933608e+000	 3.657498894861322e+000	 9.707082977412231e+000
 1.582826939728251e+000	 3.673507707759193e+000	 9.724210255642159e+000
 1.546090377651535e+000	 3.689119751950340e+000	 9.736330077950566e+000
 1.509272289597061e+000	 3.704334914117635e+000	 9.739293460090533e+000
 1.472378838266780e+000	 3.719153204254850e+000	 9.729123875263229e+000
 1.380355160865667e+000	 3.486706128998200e+000	 9.819148569194066e+000
 1.345702650213483e+000	 3.500226332298184e+000	 9.690757960211140e+000
 1.310990965385763e+000	 3.513374828959480e+000	 9.533474036885389e+000
 1.276225802402122e+000	 3.526151967989605e+000	 9.344698379495357e+000
 1.241412824861387e+000	 3.538558208978485e+000	 9.156125290794822e+000
 1.206557661411702e+000	 3.550594120669679e+000	 9.085044171973870e+000
 1.171665903280343e+000	 3.562260379467234e+000	 9.058221090181901e+000
 1.136743101864963e+000	 3.573557767880752e+000	 9.077841610509323e+000
 1.101794766387844e+000	 3.584487172911276e+000	 9.145994160408735e+000
 1.066826361614634e+000	 3.595049584380677e+000	 9.264670221451318e+000
 1.031843305638912e+000	 3.605246093207198e+000	 9.435764681310319e+000
 1.389557528603505e+000	 3.509950836528365e+000	 9.763186852604662e+000
 1.354674001213380e+000	 3.523561174517189e+000	 9.623786203609487e+000
 1.319730905153325e+000	 3.536797327823012e+000	 9.456304898851473e+000
 1.284733974416421e+000	 3.549659647780073e+000	 9.258093413565620e+000
 1.249688910358819e+000	 3.562148597042228e+000	 9.027766521211905e+000
 1.214601379152983e+000	 3.574264748144659e+000	 8.924399686019799e+000
 1.179477009301037e+000	 3.586008782000778e+000	 8.869120570486846e+000
 1.144321389209951e+000	 3.597381486336912e+000	 8.864169140134726e+000
 1.109140064830154e+000	 3.608383754067449e+000	 8.911683137543481e+000
 1.073938537359065e+000	 3.619016581613070e+000	 9.013698323766750e+000
 1.038722261010886e+000	 3.629281067164810e+000	 9.172148886289406e+000
 1.398759896341848e+000	 3.533195544057530e+000	 9.719070585056727e+000
 1.363645352213865e+000	 3.546896016735199e+000	 9.570939735464380e+000
 1.328470844921530e+000	 3.560219826685568e+000	 9.395464487639703e+000
 1.293242146431386e+000	 3.573167327569589e+000	 9.189941892509307e+000
 1.257964995856910e+000	 3.585738985105053e+000	 8.951854601560804e+000
 1.222645096894885e+000	 3.597935375618769e+000	 8.793443236603961e+000
 1.187288115322285e+000	 3.609757184533503e+000	 8.710572058914350e+000
 1.151899676555395e+000	 3.621205204792321e+000	 8.681891431506131e+000
 1.116485363272794e+000	 3.632280335222947e+000	 8.709588110744475e+000
 1.081050713103669e+000	 3.642983578844874e+000	 8.795741835054850e+000
 1.045601216382847e+000	 3.653316041121927e+000	 8.942325789471498e+000
 1.407962264080697e+000	 3.556440251585694e+000	 9.686269913553508e+000
 1.372616703214941e+000	 3.570230858952214e+000	 9.531683136149065e+000
 1.337210784690379e+000	 3.583642325547142e+000	 9.350412337103393e+000
 1.301750318447018e+000	 3.596675007358150e+000	 9.139698810648069e+000
 1.266241081355660e+000	 3.609329373166960e+000	 8.896971213834613e+000
 1.230688814637409e+000	 3.621606003092004e+000	 8.691730276452466e+000
 1.195099221344087e+000	 3.633505587065414e+000	 8.582113907781551e+000
 1.159477963901296e+000	 3.645028923246980e+000	 8.530530774304122e+000
 1.123830661715763e+000	 3.656176916377770e+000	 8.539216344009939e+000
 1.088162888848447e+000	 3.666950576076089e+000	 8.610294029043093e+000
 1.052480171754797e+000	 3.677351015078551e+000	 8.745775707473284e+000
 1.417164631820050e+000	 3.579684959112860e+000	 9.664255626407872e+000
 1.381588054216606e+000	 3.593565701168235e+000	 9.505482318818713e+000
 1.345950724459871e+000	 3.607064824407739e+000	 9.320609985123403e+000
 1.310258490463316e+000	 3.620182687145758e+000	 9.106821817179339e+000
 1.274517166855068e+000	 3.632919761227949e+000	 8.861490234640286e+000
 1.238732532380554e+000	 3.645276630564370e+000	 8.618820153059076e+000
 1.202910327366442e+000	 3.657253989596509e+000	 8.483288952944726e+000
 1.167056251247653e+000	 3.668852641700889e+000	 8.409614509579384e+000
 1.131175960159061e+000	 3.680073497531919e+000	 8.400080699496940e+000
 1.095275064593397e+000	 3.690917573306715e+000	 8.456854303277840e+000
 1.059359127126733e+000	 3.701385989034681e+000	 8.581985585187123e+000
 1.426366999559909e+000	 3.602929666639025e+000	 9.652499132554933e+000
 1.390559405218861e+000	 3.616900543383259e+000	 9.491804486417202e+000
 1.354690664230007e+000	 3.630487323267354e+000	 9.305520908962008e+000
 1.318766662480280e+000	 3.643690366932412e+000	 9.090771130535345e+000
 1.282793252355136e+000	 3.656510149288021e+000	 8.844869077035037e+000
 1.246776250124321e+000	 3.668947258035863e+000	 8.574275983047306e+000
 1.210721433389352e+000	 3.681002392126787e+000	 8.413644369168861e+000
 1.174634538594466e+000	 3.692676360154047e+000	 8.318674866804978e+000
 1.138521258602689e+000	 3.703970078685392e+000	 8.291699456935834e+000
 1.102387240338520e+000	 3.714884570536752e+000	 8.334927981581641e+000
 1.066238082498657e+000	 3.725420962990318e+000	 8.450448781965598e+000
 1.435569367300273e+000	 3.626174374164190e+000	 9.650472441660197e+000
 1.399530756221705e+000	 3.640235385597289e+000	 9.490118090337850e+000
 1.363430604000785e+000	 3.653909822125991e+000	 9.304610463103231e+000
 1.327274834497912e+000	 3.667198046718112e+000	 9.091009456035707e+000
 1.291069337855864e+000	 3.680100537347176e+000	 8.846568231375546e+000
 1.254819967868709e+000	 3.692617885506485e+000	 8.568737758497019e+000
 1.218532539412814e+000	 3.704750794656250e+000	 8.372731531060053e+000
 1.182212825941736e+000	 3.716500078606457e+000	 8.257248807196350e+000
 1.145866557046645e+000	 3.727866659838191e+000	 8.213596139990052e+000
 1.109499416083816e+000	 3.738851567766201e+000	 8.244026124108634e+000
 1.073117037870568e+000	 3.749455936945461e+000	 8.350664866029808e+000
 1.444771735041142e+000	 3.649419081688354e+000	 9.657648144988226e+000
 1.408502107225139e+000	 3.663570227810325e+000	 9.499892790663937e+000
 1.372170543772207e+000	 3.677332320983648e+000	 9.317345819468743e+000
 1.335783006516209e+000	 3.690705726502859e+000	 9.107001906687231e+000
 1.299345423357249e+000	 3.703690925405411e+000	 8.866051167314909e+000
 1.262863685613718e+000	 3.716288512976234e+000	 8.591883823444084e+000
 1.226343645436831e+000	 3.728499197184896e+000	 8.360105879312819e+000
 1.189791113289461e+000	 3.740323797058115e+000	 8.224877873018771e+000
 1.153211855490932e+000	 3.751763240990317e+000	 8.190038601909022e+000
 1.116611591829285e+000	 3.762818564995060e+000	 8.377134553931439e+000
 1.079995993242467e+000	 3.773490910900110e+000	 8.653579888699516e+000
 1.453974102782516e+000	 3.672663789211519e+000	 9.673499396997373e+000
 1.417473458229163e+000	 3.686905070022366e+000	 9.520599417918792e+000
 1.380910483544273e+000	 3.700754819840327e+000	 9.343195909903983e+000
 1.344291178535173e+000	 3.714213406286652e+000	 9.138215926991315e+000
 1.307621508859294e+000	 3.727281313462730e+000	 8.902784239521033e+000
 1.270907403359350e+000	 3.739959140445111e+000	 8.634228129954716e+000
 1.234154751461401e+000	 3.752247599712727e+000	 8.398406529352592e+000
 1.197369400637643e+000	 3.764147515509024e+000	 8.392160276463811e+000
 1.160557153935547e+000	 3.775659822141768e+000	 8.494439324213133e+000
 1.123723767574927e+000	 3.786785562223331e+000	 8.693885703018308e+000
 1.086874948614353e+000	 3.797525884854265e+000	 8.979805916342389e+000
 1.463176470524395e+000	 3.695908496733685e+000	 9.697499897629422e+000
 1.426444809233777e+000	 3.710239912233413e+000	 9.551709936259810e+000
 1.389650423316982e+000	 3.724177318696026e+000	 9.381631370834651e+000
 1.352799350554802e+000	 3.737721086069490e+000	 9.184121219626436e+000
 1.315897594361999e+000	 3.750871701519130e+000	 8.961123477865719e+000
 1.278951121105602e+000	 3.763629767913117e+000	 8.798184860230135e+000
 1.241965857486526e+000	 3.775996002239742e+000	 8.668766740164195e+000
 1.204947687986282e+000	 3.787971233959182e+000	 8.683874479878851e+000
 1.167902452380492e+000	 3.799556403292546e+000	 8.805015005454667e+000
 1.130835943320742e+000	 3.810752559451013e+000	 9.020536442411236e+000
 1.093753903986227e+000	 3.821560858807927e+000	 9.319466731317695e+000
 1.472378838266780e+000	 3.719153204254850e+000	 9.729123875263229e+000
 1.435416160238980e+000	 3.733574754443465e+000	 9.592697408052075e+000
 1.398390363090334e+000	 3.747599817550745e+000	 9.432124489998584e+000
 1.361307522575100e+000	 3.761228765851377e+000	 9.280744171415417e+000
 1.324173679865362e+000	 3.774462089574614e+000	 9.148496561122160e+000
 1.286994838852476e+000	 3.787300395380251e+000	 9.032977071831313e+000
 1.249776963512204e+000	 3.799744404765942e+000	 8.936053438350875e+000
 1.212525975335377e+000	 3.811794952408591e+000	 8.976644014410798e+000
 1.175247750825766e+000	 3.823452984442648e+000	 9.120596088351823e+000
 1.137948119066730e+000	 3.834719556678107e+000	 9.355958011352845e+000
 1.100632859358089e+000	 3.845595832761096e+000	 9.671473610573477e+000
 1.031843305638912e+000	 3.605246093207198e+000	 9.435764681310319e+000
 9.968509677335214e-001	 3.615077889630200e+000	 9.502403067953409e+000
 9.618546662704745e-001	 3.624546261385974e+000	 9.551564536503578e+000
 9.268596667103954e-001	 3.633652591837827e+000	 9.584822310407823e+000
 8.918711796614026e-001	 3.642398358063882e+000	 9.603725452318759e+000
 8.568943590090278e-001	 3.650785128904495e+000	 9.609798675865207e+000
 8.219343001176305e-001	 3.658814562972306e+000	 9.604542217833425e+000
 7.869960381038458e-001	 3.666488406627660e+000	 9.589431767241019e+000
 7.520845461825019e-001	 3.673808491922170e+000	 9.565918447769899e+000
 7.172047340853268e-001	 3.680776734513124e+000	 9.535428850027376e+000
 6.823614465526605e-001	 3.687395131551449e+000	 9.499365110116896e+000
 1.038722261010886e+000	 3.629281067164810e+000	 9.172148886289406e+000
 1.003496640853508e+000	 3.639178408896960e+000	 9.213919761509764e+000
 9.682670307146524e-001	 3.648709903130721e+000	 9.243302881743544e+000
 9.330387311580157e-001	 3.657876942451824e+000	 9.261888625494377e+000
 8.978169875291040e-001	 3.666681013785579e+000	 9.271238058531843e+000
 8.626069880726872e-001	 3.675123696431279e+000	 9.272882843226105e+000
 8.274138621222209e-001	 3.683206660058982e+000	 9.268325213150209e+000
 7.922426783617852e-001	 3.690931662671434e+000	 9.259038009115512e+000
 7.570984431609750e-001	 3.698300548533929e+000	 9.246464772791708e+000
 7.219860989830635e-001	 3.705315246074803e+000	 9.232019894065717e+000
 6.869105228666611e-001	 3.711977765759321e+000	 9.217088808305583e+000
 1.045601216382847e+000	 3.653316041121927e+000	 8.942325789471498e+000
 1.010142313973292e+000	 3.663278928163324e+000	 8.960046693566120e+000
 9.746793951584590e-001	 3.672873544875174e+000	 8.970433371409952e+000
 9.392177956051158e-001	 3.682101293065625e+000	 8.975093135665018e+000
 9.037627953961572e-001	 3.690963669507182e+000	 8.975598843273566e+000
 8.683196171355901e-001	 3.699462263958070e+000	 8.973488902804059e+000
 8.328934241259666e-001	 3.707598757145765e+000	 8.970267351911199e+000
 7.974893186188121e-001	 3.715374918715417e+000	 8.967404000759450e+000
 7.621123401384867e-001	 3.722792605145996e+000	 8.966334637245879e+000
 7.267674638798101e-001	 3.729853757636888e+000	 8.968461289858205e+000
 6.914595991796617e-001	 3.736560399967698e+000	 8.975152544020048e+000
 1.052480171754797e+000	 3.677351015078551e+000	 8.745775707473284e+000
 1.016787987092874e+000	 3.687379447429296e+000	 8.740251024889725e+000
 9.810917596018945e-001	 3.697037186619333e+000	 8.732411290107125e+000
 9.453968600516964e-001	 3.706325643679236e+000	 8.723880523223341e+000
 9.097086032625622e-001	 3.715246325228692e+000	 8.716243153806438e+000
 8.740322461977368e-001	 3.723800831484868e+000	 8.711044126718090e+000
 8.383729861288681e-001	 3.731990854232655e+000	 8.709789082889202e+000
 8.027359588749260e-001	 3.739818174759606e+000	 8.713944610579679e+000
 7.671262371150371e-001	 3.747284661758370e+000	 8.724938562639709e+000
 7.315488287755665e-001	 3.754392269199381e+000	 8.774098145587152e+000
 6.960086754916622e-001	 3.761143034176585e+000	 8.818322460610771e+000
 1.059359127126733e+000	 3.701385989034681e+000	 8.581985585187123e+000
 1.023433660212254e+000	 3.711479966694873e+000	 8.554007059637566e+000
 9.875041240449586e-001	 3.721200828363198e+000	 8.528699553058660e+000
 9.515759244977566e-001	 3.730549994292651e+000	 8.507703560443298e+000
 9.156544111283191e-001	 3.739528980950110e+000	 8.492614858857413e+000
 8.797448752591270e-001	 3.748139399011673e+000	 8.484984712227433e+000
 8.438525481309249e-001	 3.756382951319653e+000	 8.569912188876820e+000
 8.079825991301270e-001	 3.764261430804003e+000	 8.659752287842988e+000
 7.721401340906262e-001	 3.771776718371052e+000	 8.723155444025176e+000
 7.363301936703323e-001	 3.778930780762281e+000	 8.756503361972021e+000
 7.005577518026629e-001	 3.785725668385978e+000	 8.756868646045126e+000
 1.066238082498657e+000	 3.725420962990318e+000	 8.450448781965598e+000
 1.030079333331432e+000	 3.735580485960057e+000	 8.400796014924518e+000
 9.939164884876516e-001	 3.745364470106771e+000	 8.358768459958586e+000
 9.577549889432974e-001	 3.754774344905874e+000	 8.403624636411731e+000
 9.216002189934277e-001	 3.763811636671432e+000	 8.518481946088434e+000
 8.854575043197611e-001	 3.772477966538485e+000	 8.619509112041820e+000
 8.493321101321374e-001	 3.780775048406756e+000	 8.700810238912389e+000
 8.132292393844156e-001	 3.788704686848607e+000	 8.757207467908996e+000
 7.771540310652541e-001	 3.796268774984041e+000	 8.784238278753385e+000
 7.411115585641076e-001	 3.803469292325590e+000	 8.778151296855198e+000
 7.051068281126635e-001	 3.810308302595879e+000	 8.735900653252381e+000
 1.073117037870568e+000	 3.749455936945461e+000	 8.350664866029808e+000
 1.036725006450407e+000	 3.759681005224847e+000	 8.439469905266385e+000
 1.000328852929973e+000	 3.769528111850049e+000	 8.543193446391591e+000
 9.639340533883182e-001	 3.778998695518902e+000	 8.644777953538236e+000
 9.275460268578883e-001	 3.788094292392663e+000	 8.736679385434622e+000
 8.911701333796387e-001	 3.796816534065303e+000	 8.812087319068837e+000
 8.548116721325053e-001	 3.805167145493967e+000	 8.864925453189292e+000
 8.184758796377912e-001	 3.813147942893418e+000	 8.889850497672509e+000
 7.821679280389206e-001	 3.820760831597337e+000	 8.882249491091901e+000
 7.458929234568927e-001	 3.828007803889304e+000	 8.838235591971790e+000
 7.096559044216639e-001	 3.834890936806286e+000	 8.754642392128936e+000
 1.079995993242467e+000	 3.773490910900110e+000	 8.653579888699516e+000
 1.043370679569180e+000	 3.783781524489244e+000	 8.738290040412101e+000
 1.006741217371923e+000	 3.793691753593033e+000	 8.826894174332638e+000
 9.701131178328190e-001	 3.803223046131738e+000	 8.910887492479349e+000
 9.334918347217005e-001	 3.812376948113800e+000	 8.982511717717401e+000
 8.968827624387600e-001	 3.821155101592128e+000	 9.034757365752016e+000
 8.602912341320287e-001	 3.829559242581285e+000	 9.061364329719394e+000
 8.237225198902540e-001	 3.837591198938435e+000	 9.056820816996734e+000
 7.871818250116256e-001	 3.845252888210939e+000	 9.016360681313836e+000
 7.506742883486873e-001	 3.852546315453426e+000	 8.935959196471730e+000
 7.142049807296647e-001	 3.859473571017202e+000	 8.812327320949100e+000
 1.086874948614353e+000	 3.797525884854265e+000	 8.979805916342389e+000
 1.050016352687752e+000	 3.807882043753248e+000	 9.054996650336410e+000
 1.013153581813503e+000	 3.817855395335725e+000	 9.131628741885020e+000
 9.762921822768005e-001	 3.827447396744380e+000	 9.200963670543601e+000
 9.394376425848647e-001	 3.836659603834844e+000	 9.255024826130777e+000
 9.025953914971249e-001	 3.845493669118961e+000	 9.286599896772922e+000
 8.657707961307076e-001	 3.853951339668709e+000	 9.289241534637943e+000
 8.289691601418042e-001	 3.862034454983661e+000	 9.257266339669792e+000
 7.921957219833692e-001	 3.869744944824849e+000	 9.185752205172651e+000
 7.554556532394918e-001	 3.877084827017955e+000	 9.070534072381767e+000
 7.187540570366653e-001	 3.884056205228624e+000	 8.908198144201036e+000
 1.093753903986227e+000	 3.821560858807927e+000	 9.319466731317695e+000
 1.056662025806120e+000	 3.831982563016857e+000	 9.388533335211319e+000
 1.019565946254710e+000	 3.842019037078121e+000	 9.456377924000721e+000
 9.824712467202612e-001	 3.851671747356829e+000	 9.514023786184911e+000
 9.453834504473807e-001	 3.860942259555793e+000	 9.553271842033244e+000
 9.083080205547334e-001	 3.869832236645799e+000	 9.566703148335433e+000
 8.712503581285419e-001	 3.878343436756241e+000	 9.547679645344100e+000
 8.342158003924415e-001	 3.886477711029093e+000	 9.490343186929716e+000
 7.972096189541517e-001	 3.894237001439068e+000	 9.389612898572816e+000
 7.602370181293057e-001	 3.901623338582893e+000	 9.241180911181360e+000
 7.233031333426661e-001	 3.908638839440555e+000	 9.041506521825516e+000
 1.100632859358089e+000	 3.845595832761096e+000	 9.671473610573477e+000
 1.063307698924287e+000	 3.856083082280073e+000	 9.737849581338857e+000
 1.025978310695547e+000	 3.866182678820226e+000	 9.800128783237557e+000
 9.886503111632028e-001	 3.875896097969085e+000	 9.849091803966436e+000
 9.513292583092484e-001	 3.885224915276652e+000	 9.876312918442718e+000
 9.140206496115856e-001	 3.894170804172645e+000	 9.874162710930213e+000
 8.767299201255320e-001	 3.902735533843881e+000	 9.835808903274135e+000
 8.394624406421662e-001	 3.910920967074734e+000	 9.755215430981204e+000
 8.022235159239728e-001	 3.918729058053592e+000	 9.627139812564982e+000
 7.650183830181295e-001	 3.926161850148238e+000	 9.447128861007355e+000
 7.278522096476668e-001	 3.933221473652993e+000	 9.211512789357936e+000
 6.823614465526605e-001	 3.687395131551449e+000	 9.499365110116896e+000
 6.475594618980655e-001	 3.693665759545780e+000	 8.510405485530235e+000
 6.128034906466536e-001	 3.699590772205656e+000	 8.130819283483140e+000
 5.780981742462338e-001	 3.705172398266261e+000	 8.250994185293155e+000
 5.434480838508567e-001	 3.710412939297010e+000	 8.419226589137965e+000
 5.088577191772328e-001	 3.715314767496883e+000	 8.613439142756889e+000
 4.743315074333473e-001	 3.719880323478916e+000	 8.815377906545944e+000
 4.398738023188186e-001	 3.724112114046291e+000	 9.010545437914651e+000
 4.054888830964497e-001	 3.728012709962431e+000	 9.188127754113847e+000
 3.711809537343529e-001	 3.731584743717474e+000	 9.340915529532463e+000
 3.369541421179410e-001	 3.734830907293413e+000	 9.465219886971481e+000
 6.869105228666611e-001	 3.711977765759321e+000	 9.217088808305583e+000
 6.518765249807942e-001	 3.718290197939601e+000	 8.346091730414347e+000
 6.168888472541161e-001	 3.724254710683340e+000	 8.015175822016456e+000
 5.819521620774210e-001	 3.729873547583953e+000	 8.203323168751989e+000
 5.470710710791203e-001	 3.735149025554648e+000	 8.382799132115187e+000
 5.122501039740356e-001	 3.740083532609068e+000	 8.531090214620305e+000
 4.774937174848729e-001	 3.744679525630999e+000	 8.629619203393638e+000
 4.428062943359145e-001	 3.748939528135642e+000	 8.663676271985967e+000
 4.081921423183823e-001	 3.752866128024843e+000	 8.677608629515685e+000
 3.736554934268430e-001	 3.756461975338674e+000	 8.695886942539138e+000
 3.392005030659454e-001	 3.759729780005672e+000	 8.716158240779372e+000
 6.914595991796617e-001	 3.736560399967698e+000	 8.975152544020048e+000
 6.561935880625281e-001	 3.742914636334019e+000	 8.218256633936873e+000
 6.209742038605993e-001	 3.748918649161690e+000	 7.940152594585564e+000
 5.858061499076548e-001	 3.754574696902359e+000	 8.179435500459151e+000
 5.506940583064666e-001	 3.759885111813029e+000	 8.350503520028960e+000
 5.156424887699677e-001	 3.764852297722003e+000	 8.468808120953227e+000
 4.806559275355840e-001	 3.769478727783819e+000	 8.546276958561103e+000
 4.457387863522619e-001	 3.773766942225699e+000	 8.593935316564629e+000
 4.108954015396423e-001	 3.777719546087910e+000	 8.621922183427564e+000
 3.761300331187461e-001	 3.781339206960455e+000	 8.639507482074611e+000
 3.414468640134582e-001	 3.784628652718419e+000	 8.655110374212313e+000
 6.960086754916622e-001	 3.761143034176585e+000	 8.818322460610771e+000
 6.605106511432675e-001	 3.767539074729034e+000	 8.144102880229241e+000
 6.250595604661036e-001	 3.773582587640705e+000	 7.849257847930511e+000
 5.896601377369356e-001	 3.779275846221478e+000	 8.104170401937733e+000
 5.543170455328959e-001	 3.784621198072152e+000	 8.290330835169408e+000
 5.190348735650290e-001	 3.789621062835688e+000	 8.419958174895513e+000
 4.838181375854804e-001	 3.794277929937376e+000	 8.505015529109018e+000
 4.486712783678608e-001	 3.798594356316461e+000	 8.556552657013695e+000
 4.135986607602300e-001	 3.802572964151630e+000	 8.584722398069063e+000
 3.786045728100624e-001	 3.806216438582819e+000	 8.598798268170700e+000
 3.436932249604792e-001	 3.809527525431660e+000	 8.607193142887102e+000
 7.005577518026629e-001	 3.785725668385978e+000	 8.756868646045126e+000
 6.648277142230121e-001	 3.792163513124647e+000	 8.114813772103892e+000
 6.291449170706286e-001	 3.798246526120384e+000	 7.838876694410101e+000
 5.935141255652632e-001	 3.803976995541311e+000	 8.064974164280262e+000
 5.579400327584080e-001	 3.809357284332017e+000	 8.262089688191177e+000
 5.224272583592192e-001	 3.814389827950121e+000	 8.399184772660032e+000
 4.869803476345622e-001	 3.819077132091672e+000	 8.488257570141125e+000
 4.516037703827113e-001	 3.823421770407927e+000	 8.540381575549041e+000
 4.163019199801448e-001	 3.827426382216002e+000	 8.565722416927681e+000
 3.810791125007916e-001	 3.831093670205765e+000	 8.573555827340195e+000
 3.459395859070087e-001	 3.834426398145392e+000	 8.572286716515777e+000
 7.051068281126635e-001	 3.810308302595879e+000	 8.735900653252381e+000
 6.691447773017617e-001	 3.816787951520856e+000	 8.122951504656761e+000
 6.332302736741743e-001	 3.822910464600731e+000	 7.862765565224042e+000
 5.973681133926373e-001	 3.828678144861857e+000	 8.061152796907566e+000
 5.615630199830032e-001	 3.834093370592623e+000	 8.265165890130394e+000
 5.258196431525387e-001	 3.839158593065305e+000	 8.405954006884432e+000
 4.901425576828293e-001	 3.843876334246703e+000	 8.495549903371742e+000
 4.545362623968133e-001	 3.848249184500100e+000	 8.545050036974013e+000
 4.190051791993872e-001	 3.852279800281029e+000	 8.564631727555209e+000
 3.835536521909340e-001	 3.855970901829294e+000	 8.563571514355875e+000
 3.481859468530463e-001	 3.859325270859617e+000	 8.550264625606308e+000
 7.096559044216639e-001	 3.834890936806286e+000	 8.754642392128936e+000
 6.734618403795165e-001	 3.841412389917662e+000	 8.167847617801336e+000
 6.373156302767410e-001	 3.847574403081744e+000	 7.920360089561505e+000
 6.012221012190584e-001	 3.853379294183118e+000	 8.092016803082158e+000
 5.651860072066810e-001	 3.858829456853971e+000	 8.298948047132914e+000
 5.292120279449872e-001	 3.863927358181238e+000	 8.439733112464834e+000
 4.933047677302817e-001	 3.868675536402473e+000	 8.526438886042580e+000
 4.574687544101668e-001	 3.873076598592977e+000	 8.570183981220485e+000
 4.217084384179571e-001	 3.877133218346708e+000	 8.581156278745590e+000
 3.860281918804893e-001	 3.880848133453402e+000	 8.568631678012503e+000
 3.504323077985923e-001	 3.884224143574332e+000	 8.540993974258692e+000
 7.142049807296647e-001	 3.859473571017202e+000	 8.812327320949100e+000
 6.777789034562769e-001	 3.866036828315065e+000	 8.248841423624233e+000
 6.414009868783286e-001	 3.872238341563422e+000	 8.011101936127798e+000
 6.050760890445261e-001	 3.878080443505093e+000	 8.156881036792486e+000
 5.688089944294419e-001	 3.883565543116061e+000	 8.362827471438619e+000
 5.326044127365650e-001	 3.888696123297920e+000	 8.499990430178443e+000
 4.964669777769196e-001	 3.893474738558979e+000	 8.580470425715722e+000
 4.604012464227718e-001	 3.897904012686560e+000	 8.615407387835047e+000
 4.244116976358545e-001	 3.901986636413041e+000	 8.614998593233795e+000
 3.885027315694579e-001	 3.905725365078095e+000	 8.588517820551655e+000
 3.526786687436464e-001	 3.909123016289539e+000	 8.544335644826804e+000
 7.187540570366653e-001	 3.884056205228624e+000	 8.908198144201036e+000
 6.820959665320421e-001	 3.890661266713064e+000	 8.365279760430518e+000
 6.454863434789370e-001	 3.896902280045765e+000	 8.134438622020044e+000
 6.089300768690408e-001	 3.902781592827782e+000	 8.255064565071415e+000
 5.724319816512857e-001	 3.908301629378893e+000	 8.456198095745144e+000
 5.359967975272718e-001	 3.913464888415352e+000	 8.586195371687021e+000
 4.996291878227429e-001	 3.918273940716222e+000	 8.657189994503305e+000
 4.633337384346282e-001	 3.922731426780846e+000	 8.680342338016777e+000
 4.271149568530792e-001	 3.926840054480027e+000	 8.665857876115677e+000
 3.909772712578394e-001	 3.930602596703371e+000	 8.623006751034612e+000
 3.549250296882090e-001	 3.934021889005239e+000	 8.560144494809469e+000
 7.233031333426661e-001	 3.908638839440555e+000	 9.041506521825516e+000
 6.864130296068128e-001	 3.915285705111661e+000	 8.516516756069914e+000
 6.495717000785661e-001	 3.921566218528774e+000	 8.289823328815849e+000
 6.127840646926022e-001	 3.927482742151186e+000	 8.385890535510898e+000
 5.760549688722124e-001	 3.933037715642466e+000	 8.578456390803964e+000
 5.393891823171079e-001	 3.938233653533534e+000	 8.697818385861799e+000
 5.027913978677514e-001	 3.943073142874203e+000	 8.756142642761091e+000
 4.662662304457361e-001	 3.947558840875839e+000	 8.764609074312945e+000
 4.298182160696315e-001	 3.951693472547667e+000	 8.733430119175802e+000
 3.934518109456341e-001	 3.955479828329227e+000	 8.671870732926157e+000
 3.571713906322799e-001	 3.958920761721430e+000	 8.588269546311555e+000
 7.278522096476668e-001	 3.933221473652993e+000	 9.211512789357936e+000
 6.907300926805886e-001	 3.939910143510855e+000	 8.701913600138971e+000
 6.536570566772164e-001	 3.946230157012450e+000	 8.476714725558137e+000
 6.166380525152104e-001	 3.952183891475303e+000	 8.548686048744390e+000
 5.796779560922222e-001	 3.957773801906782e+000	 8.729001286105511e+000
 5.427815671060731e-001	 3.963002418652466e+000	 8.834330926370035e+000
 5.059536079119456e-001	 3.967872345032922e+000	 8.876873012268703e+000
 4.691987224560958e-001	 3.972386254971537e+000	 8.867826058077839e+000
 4.325214752855112e-001	 3.976546890615961e+000	 8.817408201304120e+000
 3.959263506328420e-001	 3.980357059955668e+000	 8.734877626144693e+000
 3.594177515758589e-001	 3.983819634438112e+000	 8.628554168399580e+000
 3.369541421179410e-001	 3.734830907293413e+000	 9.465219886971481e+000
 3.028124993314788e-001	 3.737753949930092e+000	 9.391578276750268e+000
 2.687599990069305e-001	 3.740356675894433e+000	 9.279590270246683e+000
 2.348005367401525e-001	 3.742641942254912e+000	 9.136363728963321e+000
 2.009379295743544e-001	 3.744612656663185e+000	 8.972141567513685e+000
 1.671759155483964e-001	 3.746271775145075e+000	 8.800195219226547e+000
 1.335181533092921e-001	 3.747622299902811e+000	 8.636714881691018e+000
 9.996822178776421e-002	 3.748667277130346e+000	 8.500696894898258e+000
 6.652961993565264e-002	 3.749409794843583e+000	 8.413828599543383e+000
 3.320576652392519e-002	 3.749852980727242e+000	 8.400371017139330e+000
 0.000000000000000e+000	 3.750000000000000e+000	 8.487039686882861e+000
 3.392005030659454e-001	 3.759729780005672e+000	 8.716158240779372e+000
 3.048312493272241e-001	 3.762672309593844e+000	 8.594537228324921e+000
 2.705517323335631e-001	 3.765292387065135e+000	 8.479848796217487e+000
 2.363658736514575e-001	 3.767592888535142e+000	 8.378812350286685e+000
 2.022775157710708e-001	 3.769576741039862e+000	 8.297384301089009e+000
 1.682904216515218e-001	 3.771246920311963e+000	 8.240779535677930e+000
 1.344082743308031e-001	 3.772606448568354e+000	 8.213493517264775e+000
 1.006346765991754e-001	 3.773658392310948e+000	 8.219324941089667e+000
 6.697315073482320e-002	 3.774405860142423e+000	 8.261398876264908e+000
 3.342713830052024e-002	 3.774852000598727e+000	 8.342190324920152e+000
 0.000000000000000e+000	 3.775000000000000e+000	 8.463548131698380e+000
 3.414468640134582e-001	 3.784628652718419e+000	 8.655110374212313e+000
 3.068499993225725e-001	 3.787590669257995e+000	 8.541103754907709e+000
 2.723434656598832e-001	 3.790228098236149e+000	 8.433203106896224e+000
 2.379312105625239e-001	 3.792543834815608e+000	 8.338010555849570e+000
 2.036171019676125e-001	 3.794540825416714e+000	 8.261356345662989e+000
 1.694049277545261e-001	 3.796222065478974e+000	 8.208320820935706e+000
 1.352983953522370e-001	 3.797590597233975e+000	 8.183257040356827e+000
 1.013011314105433e-001	 3.798649507491593e+000	 8.189813948059324e+000
 6.741668153397462e-002	 3.799401925441280e+000	 8.230960031470326e+000
 3.364851007711052e-002	 3.799851020470217e+000	 8.309007395814025e+000
 0.000000000000000e+000	 3.800000000000000e+000	 8.425636187173367e+000
 3.436932249604792e-001	 3.809527525431660e+000	 8.607193142887102e+000
 3.088687493175238e-001	 3.812509028922540e+000	 8.497118520259226e+000
 2.741351989858907e-001	 3.815163809407477e+000	 8.392558095684397e+000
 2.394965474733519e-001	 3.817494781096314e+000	 8.299995166027150e+000
 2.049566881639796e-001	 3.819504909793741e+000	 8.225132001995517e+000
 1.705194338574096e-001	 3.821197210646103e+000	 8.172912350841145e+000
 1.361885163735939e-001	 3.822574745899673e+000	 8.147544573105105e+000
 1.019675862218680e-001	 3.823640622672282e+000	 8.152525339181834e+000
 6.786021233310693e-002	 3.824397990740158e+000	 8.190663812989513e+000
 3.386988185369604e-002	 3.824850040341712e+000	 8.264106251693418e+000
 0.000000000000000e+000	 3.824999999999999e+000	 8.374360952232303e+000
 3.459395859070087e-001	 3.834426398145392e+000	 8.572286716515777e+000
 3.108874993120783e-001	 3.837427388587484e+000	 8.462573177267025e+000
 2.759269323115856e-001	 3.840099520579116e+000	 8.358017821198652e+000
 2.410618843839413e-001	 3.842445727377257e+000	 8.264983511338393e+000
 2.062962743601721e-001	 3.844468994170942e+000	 8.189042681693215e+000
 1.716339399601724e-001	 3.846172355813354e+000	 8.135000369752540e+000
 1.370786373948737e-001	 3.847558894565447e+000	 8.106917886300350e+000
 1.026340410331496e-001	 3.848631737853014e+000	 8.108137046998275e+000
 6.830374313222011e-002	 3.849394056039055e+000	 8.141304891753864e+000
 3.409125363027678e-002	 3.849849060213212e+000	 8.208398819606066e+000
 0.000000000000000e+000	 3.850000000000000e+000	 8.310752068684657e+000
 3.481859468530463e-001	 3.859325270859617e+000	 8.550264625606308e+000
 3.129062493062357e-001	 3.862345748252824e+000	 8.437450607906595e+000
 2.777186656369678e-001	 3.865035231751069e+000	 8.329675468937323e+000
 2.426272212942922e-001	 3.867396673658439e+000	 8.233179977002825e+000
 2.076358605561900e-001	 3.869433078548318e+000	 8.153404809400566e+000
 1.727484460628142e-001	 3.871147500980726e+000	 8.095014124391698e+000
 1.379687584160764e-001	 3.872543043231299e+000	 8.061919773859600e+000
 1.033004958443879e-001	 3.873622853033790e+000	 8.057306079792904e+000
 6.874727393131415e-002	 3.874390121337970e+000	 8.083655099311351e+000
 3.431262540685277e-002	 3.874848080084716e+000	 8.142772304717814e+000
 0.000000000000000e+000	 3.875000000000000e+000	 8.235812606939026e+000
 3.504323077985923e-001	 3.884224143574332e+000	 8.540993974258692e+000
 3.149249992999961e-001	 3.887264107918561e+000	 8.421725204358452e+000
 2.795103989620376e-001	 3.889970942923332e+000	 8.307613699778102e+000
 2.441925582044047e-001	 3.892347619939861e+000	 8.204776417853667e+000
 2.089754467520333e-001	 3.894397162925869e+000	 8.118520303151762e+000
 1.738629521653352e-001	 3.896122646148219e+000	 8.053366408640663e+000
 1.388588794372020e-001	 3.897527191897227e+000	 8.013074661057448e+000
 1.039669506555831e-001	 3.898613968214609e+000	 8.000669192242999e+000
 6.919080473038904e-002	 3.899386186636905e+000	 8.018464159856780e+000
 3.453399718342399e-002	 3.899847099956226e+000	 8.068089982679869e+000
 0.000000000000000e+000	 3.900000000000000e+000	 8.150519917649408e+000
 3.526786687436464e-001	 3.909123016289539e+000	 8.544335644826804e+000
 3.169437492933597e-001	 3.912182467584696e+000	 8.415363139385336e+000
 2.813021322867946e-001	 3.914906654095911e+000	 8.291904985156350e+000
 2.457578951142786e-001	 3.917298566221521e+000	 8.179952557395142e+000
 2.103150329477018e-001	 3.919361247303594e+000	 8.084677036363464e+000
 1.749774582677353e-001	 3.921097791315832e+000	 8.010454087517362e+000
 1.397490004582506e-001	 3.922511340563233e+000	 7.960889189515386e+000
 1.046334054667350e-001	 3.923605083395469e+000	 7.938843530437014e+000
 6.963433552944484e-002	 3.924382251935859e+000	 7.946460394288866e+000
 3.475536895999044e-002	 3.924846119827740e+000	 7.985191961715750e+000
 0.000000000000000e+000	 3.924999999999999e+000	 8.055826450816433e+000
 3.549250296882090e-001	 3.934021889005239e+000	 8.560144494809469e+000
 3.189624992863263e-001	 3.937100827251227e+000	 8.418322626439618e+000
 2.830938656112391e-001	 3.939842365268800e+000	 8.282611929517469e+000
 2.473232320239140e-001	 3.942249512503420e+000	 8.158876371705251e+000
 2.116546191431958e-001	 3.944325331681494e+000	 8.052149282285239e+000
 1.760919643700147e-001	 3.946072936483567e+000	 7.966658601253212e+000
 1.406391214792221e-001	 3.947495489229317e+000	 7.905852779976041e+000
 1.052998602778437e-001	 3.948596198576375e+000	 7.872427252400403e+000
 7.007786632848148e-002	 3.949378317234833e+000	 7.868351397528904e+000
 3.497674073655212e-002	 3.949845139699259e+000	 7.894895915767940e+000
 0.000000000000000e+000	 3.949999999999999e+000	 7.952660543782528e+000
 3.571713906322799e-001	 3.958920761721430e+000	 8.588269546311555e+000
 3.209812492788959e-001	 3.962019186918155e+000	 8.430554169956180e+000
 2.848855989353711e-001	 3.964778076442002e+000	 8.279787580597578e+000
 2.488885689333109e-001	 3.967200458785556e+000	 8.141704458851370e+000
 2.129942053385151e-001	 3.969289416059569e+000	 8.021198141678358e+000
 1.772064704721731e-001	 3.971048081651422e+000	 7.922346450349739e+000
 1.415292425001165e-001	 3.972479637895476e+000	 7.848438173840017e+000
 1.059663150889093e-001	 3.973587313757323e+000	 7.802000125205023e+000
 7.052139712749901e-002	 3.974374382533824e+000	 7.784824690282099e+000
 3.519811251310904e-002	 3.974844159570782e+000	 7.797997789977422e+000
 0.000000000000000e+000	 3.974999999999999e+000	 7.841927179491466e+000
 3.594177515758589e-001	 3.983819634438112e+000	 8.628554168399580e+000
 3.229999992710687e-001	 3.986937546585482e+000	 8.452000806259601e+000
 2.866773322591905e-001	 3.989713787615519e+000	 8.283475728071979e+000
 2.504539058424694e-001	 3.992151405067931e+000	 8.128582394453662e+000
 2.143337915336599e-001	 3.994253500437820e+000	 7.992071954455345e+000
 1.783209765742107e-001	 3.996023226819399e+000	 7.877869662444739e+000
 1.424193635209339e-001	 3.997463786561715e+000	 7.789101954394446e+000
 1.066327698999317e-001	 3.998578428938315e+000	 7.728124099684729e+000
 7.096492792649740e-002	 3.999370447832836e+000	 7.696548346355433e+000
 3.541948428966121e-002	 3.999843179442312e+000	 7.695272479709459e+000
 0.000000000000000e+000	 4.000000000000000e+000	 7.724508716313454e+000
 4.000000000000000e+000	 0.000000000000000e+000	 1.041230304026931e+001
 3.999843179442312e+000	 3.541948428966008e-002	 1.048488036289959e+001
 3.999370447832837e+000	 7.096492792649639e-002	 1.054228004522344e+001
 3.998578428938315e+000	 1.066327698999308e-001	 1.058523263171400e+001
 3.997463786561714e+000	 1.424193635209331e-001	 1.061463380828827e+001
 3.996023226819399e+000	 1.783209765742101e-001	 1.063155296532941e+001
 3.994253500437819e+000	 2.143337915336594e-001	 1.063724178962695e+001
 3.992151405067931e+000	 2.504539058424689e-001	 1.063314286564814e+001
 3.989713787615519e+000	 2.866773322591902e-001	 1.062089826563586e+001
 3.986937546585482e+000	 3.229999992710685e-001	 1.060235810712890e+001
 3.983819634438112e+000	 3.594177515758590e-001	 1.057958905562988e+001
 4.025000000000000e+000	 0.000000000000000e+000	 1.039079849970994e+001
 4.024842199313842e+000	 3.564085606630336e-002	 1.045808296143508e+001
 4.024366513131858e+000	 7.140845872566287e-002	 1.051157614829320e+001
 4.023569544119328e+000	 1.072992247111839e-001	 1.055191222630417e+001
 4.022447935227989e+000	 1.433094845420293e-001	 1.057988997555863e+001
 4.020998371987436e+000	 1.794354826765600e-001	 1.059648153416233e+001
 4.019217584816155e+000	 2.156733777291350e-001	 1.060284117641467e+001
 4.017102351350426e+000	 2.520192427519619e-001	 1.060031410537519e+001
 4.014649498789190e+000	 2.884690655833327e-001	 1.059044523902695e+001
 4.011855906253005e+000	 3.250187492635375e-001	 1.057498796832751e+001
 4.008718507155041e+000	 3.616641125196922e-001	 1.055591286454218e+001
 4.050000000000000e+000	 0.000000000000000e+000	 1.037203527307748e+001
 4.049841219185373e+000	 3.586222784313369e-002	 1.043409064529399e+001
 4.049362578430878e+000	 7.185198952518471e-002	 1.048367390605733e+001
 4.048560659300342e+000	 1.079656795229416e-001	 1.052132100735496e+001
 4.047432083894266e+000	 1.441996055637604e-001	 1.054773202395270e+001
 4.045973517155472e+000	 1.805499887796554e-001	 1.056378008192329e+001
 4.044181669194492e+000	 2.170129639254472e-001	 1.057052032678028e+001
 4.042053297632920e+000	 2.535845796623626e-001	 1.056919891110248e+001
 4.039585209962861e+000	 2.902607989084340e-001	 1.056126198056943e+001
 4.036774265920530e+000	 3.270374992569962e-001	 1.054836463638425e+001
 4.033617379871969e+000	 3.639104734645255e-001	 1.053237985114256e+001
 4.074999999999999e+000	 0.000000000000000e+000	 1.035547722650123e+001
 4.074840239056903e+000	 3.608359962015106e-002	 1.041242479754201e+001
 4.074358643729899e+000	 7.229552032506183e-002	 1.045815249308393e+001
 4.073551774481353e+000	 1.086321343352040e-001	 1.049309618984472e+001
 4.072416232560541e+000	 1.450897265861261e-001	 1.051785543172506e+001
 4.070948662323509e+000	 1.816644948834962e-001	 1.053320254660557e+001
 4.069145753572830e+000	 2.183525501225959e-001	 1.054009180817408e+001
 4.067004243915415e+000	 2.551499165736712e-001	 1.053966862239567e+001
 4.064520921136532e+000	 2.920525322344942e-001	 1.053327871725007e+001
 4.061692625588053e+000	 3.290562492514447e-001	 1.052247731339278e+001
 4.058516252588897e+000	 3.661568344103587e-001	 1.050903825245626e+001
 4.100000000000000e+000	 0.000000000000000e+000	 1.034060130254541e+001
 4.099839258928435e+000	 3.630497139735547e-002	 1.039261920124678e+001
 4.099354709028920e+000	 7.273905112529436e-002	 1.043460279274568e+001
 4.098542889662367e+000	 1.092985891479710e-001	 1.046688599169428e+001
 4.097400381226816e+000	 1.459798476091267e-001	 1.048996595965546e+001
 4.095923807491546e+000	 1.827790009880826e-001	 1.050451241387379e+001
 4.094109837951166e+000	 2.196921363205812e-001	 1.051137698655695e+001
 4.091955190197909e+000	 2.567152534858873e-001	 1.051160261400209e+001
 4.089456632310204e+000	 2.938442655615133e-001	 1.050643293388917e+001
 4.086610985255576e+000	 3.310749992468828e-001	 1.049732166807237e+001
 4.083415125305826e+000	 3.684031953571920e-001	 1.048594196723568e+001
 4.125000000000000e+000	 0.000000000000000e+000	 1.032689712395364e+001
 4.124838278799966e+000	 3.652634317474693e-002	 1.037421966372035e+001
 4.124350774327941e+000	 7.318258192588219e-002	 1.041262704240748e+001
 4.123534004843379e+000	 1.099650439612427e-001	 1.044234930034431e+001
 4.122384529893092e+000	 1.468699686327621e-001	 1.046377933945695e+001
 4.120898952659582e+000	 1.838935070934145e-001	 1.047748242774062e+001
 4.119073922329502e+000	 2.210317225194031e-001	 1.048420575977893e+001
 4.116906136480403e+000	 2.582805903990113e-001	 1.048488805236032e+001
 4.114392343483876e+000	 2.956359988894912e-001	 1.048066915320626e+001
 4.111529344923100e+000	 3.330937492433104e-001	 1.047289963980950e+001
 4.108313998022755e+000	 3.706495563050253e-001	 1.046315038439276e+001
 4.150000000000000e+000	 0.000000000000000e+000	 1.031386661171580e+001
 4.149837298671496e+000	 3.674771495232542e-002	 1.035678365434301e+001
 4.149346839626961e+000	 7.362611272682534e-002	 1.039183849143889e+001
 4.148525120024392e+000	 1.106314987750191e-001	 1.041915535138443e+001
 4.147368678559367e+000	 1.477600896570321e-001	 1.043902097344655e+001
 4.145874097827618e+000	 1.850080131994918e-001	 1.045189431170086e+001
 4.144038006707839e+000	 2.223713087190614e-001	 1.045841630059449e+001
 4.141857082762897e+000	 2.598459273130429e-001	 1.045941966091080e+001
 4.139328054657548e+000	 2.974277322184279e-001	 1.045593872383518e+001
 4.136447704590624e+000	 3.351124992407278e-001	 1.044921924978236e+001
 4.133212870739683e+000	 3.728959172538585e-001	 1.044072821763293e+001
 4.175000000000000e+000	 0.000000000000000e+000	 1.030102361685715e+001
 4.174836318543028e+000	 3.696908673009096e-002	 1.033987995539975e+001
 4.174342904925982e+000	 7.406964352812387e-002	 1.037186107151339e+001
 4.173516235205405e+000	 1.112979535893001e-001	 1.039698341872834e+001
 4.172352827225644e+000	 1.486502106819371e-001	 1.041542564500644e+001
 4.170849242995654e+000	 1.861225193063146e-001	 1.042753849988463e+001
 4.169002091086175e+000	 2.237108949195564e-001	 1.043385480891098e+001
 4.166808029045392e+000	 2.614112642279824e-001	 1.043509949383826e+001
 4.164263765831218e+000	 2.992194655483235e-001	 1.043219961595533e+001
 4.161366064258147e+000	 3.371312492391350e-001	 1.042629441887129e+001
 4.158111743456611e+000	 3.751422782036917e-001	 1.041874534603003e+001
 4.199999999999999e+000	 0.000000000000000e+000	 1.028789356537771e+001
 4.199835338414558e+000	 3.719045850804355e-002	 1.032308832538665e+001
 4.199338970225004e+000	 7.451317432977773e-002	 1.035232907868259e+001
 4.198507350386417e+000	 1.119644084040858e-001	 1.037552251585418e+001
 4.197336975891918e+000	 1.495403317074767e-001	 1.039273723938529e+001
 4.195824388163692e+000	 1.872370254138830e-001	 1.040421387781244e+001
 4.193966175464511e+000	 2.250504811208879e-001	 1.041037527288527e+001
 4.191758975327885e+000	 2.629766011438295e-001	 1.041183671789476e+001
 4.189199477004890e+000	 3.010111988791779e-001	 1.040941622422206e+001
 4.186284423925671e+000	 3.391499992385317e-001	 1.040414479207241e+001
 4.183010616173539e+000	 3.773886391545250e-001	 1.039727666029522e+001
 4.224999999999999e+000	 0.000000000000000e+000	 1.027401311579746e+001
 4.224834358286089e+000	 3.741183028618317e-002	 1.030599917427088e+001
 4.224335035524025e+000	 7.495670513178691e-002	 1.033288686673796e+001
 4.223498465567432e+000	 1.126308632193762e-001	 1.035447110765185e+001
 4.222321124558194e+000	 1.504304527336512e-001	 1.037070847441266e+001
 4.220799533331728e+000	 1.883515315221968e-001	 1.038172753235384e+001
 4.218930259842849e+000	 2.263900673230559e-001	 1.038783923850217e+001
 4.216709921610381e+000	 2.645419380605845e-001	 1.038954740196882e+001
 4.214135188178561e+000	 3.028029322109913e-001	 1.038755917769318e+001
 4.211202783593195e+000	 3.411687492389182e-001	 1.038279556914507e+001
 4.207909488890469e+000	 3.796350001063583e-001	 1.037640191450359e+001
 4.250000000000000e+000	 0.000000000000000e+000	 1.025892982878812e+001
 4.249833378157620e+000	 3.763320206450985e-002	 1.028821325021215e+001
 4.249331100823047e+000	 7.540023593415146e-002	 1.031318855139489e+001
 4.248489580748444e+000	 1.132973180351712e-001	 1.033353683244012e+001
 4.247305273224471e+000	 1.513205737604605e-001	 1.034910064071685e+001
 4.245774678499766e+000	 1.894660376312561e-001	 1.035989451051156e+001
 4.243894344221186e+000	 2.277296535260605e-001	 1.036611558728536e+001
 4.241660867892875e+000	 2.661072749782472e-001	 1.036815431408127e+001
 4.239070899352234e+000	 3.045946655437635e-001	 1.036660515646438e+001
 4.236121143260720e+000	 3.431874992402945e-001	 1.036227734123658e+001
 4.232808361607396e+000	 3.818813610591916e-001	 1.035620558305409e+001
 3.983819634438112e+000	 3.594177515758590e-001	 1.057958905562988e+001
 3.980357059955668e+000	 3.959263506328409e-001	 1.057658647702876e+001
 3.976546890615960e+000	 4.325214752855102e-001	 1.057923084040245e+001
 3.972386254971538e+000	 4.691987224560951e-001	 1.059015837148267e+001
 3.967872345032923e+000	 5.059536079119449e-001	 1.061224823472184e+001
 3.963002418652466e+000	 5.427815671060726e-001	 1.064863038844645e+001
 3.957773801906782e+000	 5.796779560922218e-001	 1.070269324291444e+001
 3.952183891475304e+000	 6.166380525152102e-001	 1.077809109422729e+001
 3.946230157012451e+000	 6.536570566772164e-001	 1.076719128125469e+001
 3.939910143510855e+000	 6.907300926805887e-001	 1.069740370212785e+001
 3.933221473652993e+000	 7.278522096476667e-001	 1.059510675152190e+001
 4.008718507155041e+000	 3.616641125196922e-001	 1.055591286454218e+001
 4.005234291582396e+000	 3.984008903202551e-001	 1.055287985501007e+001
 4.001400308684580e+000	 4.352247345015536e-001	 1.055537916369457e+001
 3.997213669067587e+000	 4.721312144665803e-001	 1.056596856837597e+001
 3.992671547192009e+000	 5.091158179562315e-001	 1.058745098685046e+001
 3.987771183771772e+000	 5.461739518951023e-001	 1.062288255273808e+001
 3.982509888171469e+000	 5.833009433122729e-001	 1.067558049505266e+001
 3.976885040799776e+000	 6.204920403378416e-001	 1.074913079398173e+001
 3.970894095496459e+000	 6.577424132758770e-001	 1.073866387407375e+001
 3.964534581910347e+000	 6.950471557543673e-001	 1.068556493892477e+001
 3.957804107865683e+000	 7.324012859526673e-001	 1.060189410431821e+001
 4.033617379871969e+000	 3.639104734645255e-001	 1.053237985114256e+001
 4.030111523209127e+000	 4.008754300086695e-001	 1.052910930211764e+001
 4.026253726753200e+000	 4.379279937185970e-001	 1.053118105652396e+001
 4.022041083163638e+000	 4.750637064780655e-001	 1.054107302496707e+001
 4.017470749351095e+000	 5.122780280015182e-001	 1.056151052748780e+001
 4.012539948891079e+000	 5.495663366851322e-001	 1.059547459390867e+001
 4.007245974436155e+000	 5.869239305333238e-001	 1.064621006878911e+001
 4.001586190124251e+000	 6.243460281614733e-001	 1.071723349292714e+001
 3.995558033980466e+000	 6.618277698755377e-001	 1.070988744060618e+001
 3.989159020309839e+000	 6.993642188291458e-001	 1.067204959589913e+001
 3.982386742078373e+000	 7.369503622586678e-001	 1.060557649900813e+001
 4.058516252588897e+000	 3.661568344103587e-001	 1.050903825245626e+001
 4.054988754835856e+000	 4.033499696980837e-001	 1.050537331291078e+001
 4.051107144821819e+000	 4.406312529366405e-001	 1.050678512550213e+001
 4.046868497259688e+000	 4.779961984905508e-001	 1.051567028812175e+001
 4.042269951510182e+000	 5.154402380478049e-001	 1.053467514562536e+001
 4.037308714010385e+000	 5.529587214761618e-001	 1.056670431863138e+001
 4.031982060700843e+000	 5.905469177553750e-001	 1.061492903776528e+001
 4.026287339448724e+000	 6.282000159861046e-001	 1.067771498651934e+001
 4.020221972464474e+000	 6.659131264761982e-001	 1.068089923787052e+001
 4.013783458709331e+000	 7.036812819049241e-001	 1.065692769876295e+001
 4.006969376291065e+000	 7.414994385656684e-001	 1.060625723209170e+001
 4.083415125305826e+000	 3.684031953571920e-001	 1.048594196723568e+001
 4.079865986462586e+000	 4.058245093884980e-001	 1.048177544012407e+001
 4.075960562890437e+000	 4.433345121556837e-001	 1.048234442217668e+001
 4.071695911355738e+000	 4.809286905040361e-001	 1.048996272686483e+001
 4.067069153669269e+000	 5.186024480950916e-001	 1.050719632025537e+001
 4.062077479129690e+000	 5.563511062681914e-001	 1.053687208220528e+001
 4.056718146965530e+000	 5.941699049784260e-001	 1.058208637382910e+001
 4.050988488773199e+000	 6.320540038117364e-001	 1.063804400052614e+001
 4.044885910948482e+000	 6.699984830778586e-001	 1.065173709384691e+001
 4.038407897108823e+000	 7.079983449817027e-001	 1.064026916774723e+001
 4.031552010503756e+000	 7.460485148736690e-001	 1.060403880986638e+001
 4.108313998022755e+000	 3.706495563050253e-001	 1.046315038439276e+001
 4.104743218089316e+000	 4.082990490799123e-001	 1.045842414138922e+001
 4.100813980959057e+000	 4.460377713757271e-001	 1.045801630833634e+001
 4.096523325451788e+000	 4.838611825185214e-001	 1.046415641655711e+001
 4.091868355828355e+000	 5.217646581433784e-001	 1.047932862370416e+001
 4.086846244248997e+000	 5.597434910612212e-001	 1.050628071132420e+001
 4.081454233230216e+000	 5.977928922024770e-001	 1.054803288951368e+001
 4.075689638097672e+000	 6.359079916383679e-001	 1.059956917830059e+001
 4.069549849432490e+000	 6.740838396805190e-001	 1.062243939017516e+001
 4.063032335508314e+000	 7.123154080594810e-001	 1.062214382079826e+001
 4.056134644716447e+000	 7.505975911826697e-001	 1.059902297237264e+001
 4.133212870739683e+000	 3.728959172538585e-001	 1.044072821763293e+001
 4.129620449716046e+000	 4.107735887723266e-001	 1.043543263149730e+001
 4.125667399027678e+000	 4.487410305967705e-001	 1.043396232618434e+001
 4.121350739547838e+000	 4.867936745340066e-001	 1.043846102725884e+001
 4.116667557987442e+000	 5.249268681926650e-001	 1.045132962845945e+001
 4.111615009368303e+000	 5.631358758552508e-001	 1.047523542963717e+001
 4.106190319494901e+000	 6.014158794275281e-001	 1.051312118259491e+001
 4.100390787422147e+000	 6.397619794659994e-001	 1.056229912688398e+001
 4.094213787916498e+000	 6.781691962841796e-001	 1.059304504547832e+001
 4.087656773907807e+000	 7.166324711382596e-001	 1.060262137665861e+001
 4.080717278929137e+000	 7.551466674926702e-001	 1.059131071647396e+001
 4.158111743456611e+000	 3.751422782036917e-001	 1.041874534603003e+001
 4.154497681342774e+000	 4.132481284657408e-001	 1.041291873996876e+001
 4.150520817096297e+000	 4.514442898188139e-001	 1.041034807317635e+001
 4.146178153643888e+000	 4.897261665504919e-001	 1.041308971610390e+001
 4.141466760146528e+000	 5.280890782429516e-001	 1.042345981734510e+001
 4.136383774487609e+000	 5.665282606502806e-001	 1.044404378598326e+001
 4.130926405759588e+000	 6.050388666535790e-001	 1.047770558264112e+001
 4.125091936746620e+000	 6.436159672946309e-001	 1.052624358362482e+001
 4.118877726400505e+000	 6.822545528888402e-001	 1.056359349928531e+001
 4.112281212307298e+000	 7.209495342180379e-001	 1.058177145783716e+001
 4.105299913141828e+000	 7.596957438036709e-001	 1.058100231810766e+001
 4.183010616173539e+000	 3.773886391545250e-001	 1.039727666029522e+001
 4.179374912969506e+000	 4.157226681601551e-001	 1.039100477371039e+001
 4.175374235164916e+000	 4.541475490418573e-001	 1.038734308132848e+001
 4.171005567739938e+000	 4.926586585679772e-001	 1.038825902351793e+001
 4.166265962305615e+000	 5.312512882942383e-001	 1.039598249690406e+001
 4.161152539606915e+000	 5.699206454463103e-001	 1.041301558518958e+001
 4.155662492024275e+000	 6.086618538806301e-001	 1.044214209947158e+001
 4.149793086071094e+000	 6.474699551242624e-001	 1.049141338253873e+001
 4.143541664884513e+000	 6.863399094945006e-001	 1.053412469652776e+001
 4.136905650706790e+000	 7.252665972988163e-001	 1.055966359347329e+001
 4.129882547354518e+000	 7.642448201156715e-001	 1.056819735374103e+001
 4.207909488890469e+000	 3.796350001063583e-001	 1.037640191450359e+001
 4.204252144596236e+000	 4.181972078555695e-001	 1.036981738454811e+001
 4.200227653233536e+000	 4.568508082659007e-001	 1.036512070081017e+001
 4.195832981835988e+000	 4.955911505864625e-001	 1.036418877312091e+001
 4.191065164464702e+000	 5.344134983465250e-001	 1.036916371385633e+001
 4.185921304726221e+000	 5.733130302433401e-001	 1.038246282132600e+001
 4.180398578288961e+000	 6.122848411086812e-001	 1.040678837344506e+001
 4.174494235395568e+000	 6.513239429548940e-001	 1.045782042186269e+001
 4.168205603368522e+000	 6.904252661011612e-001	 1.050467907258732e+001
 4.161530089106282e+000	 7.295836603805948e-001	 1.053636722209925e+001
 4.154465181567210e+000	 7.687938964286721e-001	 1.055299472106569e+001
 4.232808361607396e+000	 3.818813610591916e-001	 1.035620558305409e+001
 4.229129376222968e+000	 4.206717475519838e-001	 1.034948744143542e+001
 4.225081071302157e+000	 4.595540674909442e-001	 1.034385798764551e+001
 4.220660395932038e+000	 4.985236426059478e-001	 1.034110197516262e+001
 4.215864366623790e+000	 5.375757083998118e-001	 1.034327217450558e+001
 4.210690069845527e+000	 5.767054150413700e-001	 1.035269961331570e+001
 4.205134664553647e+000	 6.159078283377324e-001	 1.037200362750268e+001
 4.199195384720043e+000	 6.551779307865258e-001	 1.042547763275436e+001
 4.192869541852530e+000	 6.945106227088218e-001	 1.047529753887054e+001
 4.186154527505775e+000	 7.339007234633734e-001	 1.051195169430515e+001
 4.179047815779902e+000	 7.733429727426728e-001	 1.053549265896163e+001
 3.933221473652993e+000	 7.278522096476667e-001	 1.059510675152190e+001
 3.926161850148238e+000	 7.650183830181283e-001	 1.056545818581619e+001
 3.918729058053593e+000	 8.022235159239719e-001	 1.054303465287483e+001
 3.910920967074734e+000	 8.394624406421655e-001	 1.052786828339091e+001
 3.902735533843881e+000	 8.767299201255315e-001	 1.051992454275963e+001
 3.894170804172645e+000	 9.140206496115851e-001	 1.051910172202172e+001
 3.885224915276651e+000	 9.513292583092480e-001	 1.052523057331838e+001
 3.875896097969084e+000	 9.886503111632026e-001	 1.053807409408491e+001
 3.866182678820226e+000	 1.025978310695547e+000	 1.055732746389440e+001
 3.856083082280073e+000	 1.063307698924287e+000	 1.058261813752590e+001
 3.845595832761096e+000	 1.100632859358089e+000	 1.061350609747205e+001
 3.957804107865683e+000	 7.324012859526673e-001	 1.060189410431821e+001
 3.950700361713788e+000	 7.697997479069519e-001	 1.057377044706406e+001
 3.943221114668281e+000	 8.072374128937929e-001	 1.055252058131643e+001
 3.935364223120499e+000	 8.447090808918899e-001	 1.053815415999129e+001
 3.927127630931612e+000	 8.822094821225213e-001	 1.053061320471417e+001
 3.918509371699555e+000	 9.197332786684372e-001	 1.052977161750436e+001
 3.909507570997549e+000	 9.572750661711157e-001	 1.053543483991171e+001
 3.900120448581363e+000	 9.948293756061439e-001	 1.054733966386829e+001
 3.890346320562341e+000	 1.032390675136384e+000	 1.056515419819424e+001
 3.880183601543291e+000	 1.069953372042454e+000	 1.058847799435201e+001
 3.869630806714263e+000	 1.107511814729950e+000	 1.061684233467570e+001
 3.982386742078373e+000	 7.369503622586678e-001	 1.060557649900813e+001
 3.975238873279343e+000	 7.745811127967659e-001	 1.057905893995001e+001
 3.967713171282988e+000	 8.122513098645752e-001	 1.055909411704782e+001
 3.959807479166306e+000	 8.499557211425273e-001	 1.054566901254289e+001
 3.951519728019421e+000	 8.876890441203555e-001	 1.053870197667301e+001
 3.942847939226587e+000	 9.254459077260459e-001	 1.053804225991480e+001
 3.933790226718624e+000	 9.632208740336316e-001	 1.054346969567508e+001
 3.924344799193880e+000	 1.001008440049605e+000	 1.055469453772989e+001
 3.914509962304768e+000	 1.038803039577591e+000	 1.057135745637977e+001
 3.904284120806907e+000	 1.076599045160822e+000	 1.059302969693655e+001
 3.893665780667924e+000	 1.114390770101823e+000	 1.061921340378144e+001
 4.006969376291065e+000	 7.414994385656684e-001	 1.060625723209170e+001
 3.999777384844903e+000	 7.793624776875702e-001	 1.058143292743868e+001
 3.992205227897715e+000	 8.172652068363189e-001	 1.056287040453822e+001
 3.984250735212159e+000	 8.552023613940774e-001	 1.055053377632880e+001
 3.975911825107309e+000	 8.931686061190346e-001	 1.054431748819751e+001
 3.967186506753740e+000	 9.311585367844107e-001	 1.054404587060243e+001
 3.958072882439873e+000	 9.691666818967957e-001	 1.054947284519578e+001
 3.948569149806638e+000	 1.007187504493586e+000	 1.056028178878446e+001
 3.938673604047511e+000	 1.045215404019170e+000	 1.057608555912723e+001
 3.928384640070924e+000	 1.083244718279394e+000	 1.059642668620603e+001
 3.917700754622081e+000	 1.121269725473710e+000	 1.062077773222567e+001
 4.031552010503756e+000	 7.460485148736690e-001	 1.060403880986638e+001
 4.024315896410468e+000	 7.841438425793651e-001	 1.058100086742310e+001
 4.016697284512461e+000	 8.222791038090240e-001	 1.056396377420227e+001
 4.008693991258054e+000	 8.604490016465402e-001	 1.055286856953522e+001
 4.000303922195272e+000	 8.986481681185581e-001	 1.054758555470253e+001
 3.991525074281016e+000	 9.368711658435323e-001	 1.054791386576232e+001
 3.982355538161300e+000	 9.751124897606082e-001	 1.055358120298699e+001
 3.972793500419636e+000	 1.013366568938087e+000	 1.056424372128409e+001
 3.962837245790567e+000	 1.051627768461121e+000	 1.057948608563292e+001
 3.952485159335339e+000	 1.089890391398167e+000	 1.059882169519800e+001
 3.941735728576730e+000	 1.128148680845609e+000	 1.062169307938880e+001
 4.056134644716447e+000	 7.505975911826697e-001	 1.059902297237264e+001
 4.048854407976037e+000	 7.889252074721501e-001	 1.057787043712080e+001
 4.041189341127226e+000	 8.272930007826903e-001	 1.056248776706834e+001
 4.033137247303993e+000	 8.656956418999160e-001	 1.055279271801202e+001
 4.024696019283316e+000	 9.041277301189261e-001	 1.054863120212750e+001
 4.015863641808412e+000	 9.425837949034094e-001	 1.054977688083385e+001
 4.006638193882901e+000	 9.810582976250682e-001	 1.055593091742941e+001
 3.997017851032876e+000	 1.019545633383108e+000	 1.056672189391699e+001
 3.987000887533941e+000	 1.058040132903442e+000	 1.058170589608223e+001
 3.976585678600152e+000	 1.096536064517142e+000	 1.060036677051216e+001
 3.965770702531872e+000	 1.135027636217520e+000	 1.062211655683917e+001
 4.080717278929137e+000	 7.551466674926702e-001	 1.059131071647396e+001
 4.073392919541611e+000	 7.937065723659253e-001	 1.057214855658822e+001
 4.065681397742011e+000	 8.323068977573183e-001	 1.055855515855525e+001
 4.057580503349976e+000	 8.709422821542042e-001	 1.055042477913816e+001
 4.049088116371435e+000	 9.096072921201384e-001	 1.054757869071587e+001
 4.040202209335932e+000	 9.482964239640435e-001	 1.054976479401743e+001
 4.030920849604679e+000	 9.870041054901770e-001	 1.055665739384761e+001
 4.021242201646354e+000	 1.025724697828648e+000	 1.056785714226435e+001
 4.011164529277626e+000	 1.064452497346135e+000	 1.058289115330669e+001
 4.000686197865364e+000	 1.103181737636320e+000	 1.060121329298626e+001
 3.989805676487509e+000	 1.141906591589444e+000	 1.062220464784561e+001
 4.105299913141828e+000	 7.596957438036709e-001	 1.058100231810766e+001
 4.097931431107191e+000	 7.984879372606913e-001	 1.056394141139013e+001
 4.090173454356815e+000	 8.373207947329071e-001	 1.055227798139464e+001
 4.082023759396003e+000	 8.761889224094055e-001	 1.054588256482994e+001
 4.073480213459632e+000	 9.150868541221949e-001	 1.054455153794008e+001
 4.064540776863572e+000	 9.540090530254336e-001	 1.054800674894633e+001
 4.055203505326633e+000	 9.929499133559340e-001	 1.055589531675709e+001
 4.045466552260073e+000	 1.031903762274709e+000	 1.056778960045016e+001
 4.035328171021625e+000	 1.070864861789199e+000	 1.058318734366270e+001
 4.024786717130976e+000	 1.109827410755700e+000	 1.060151199762909e+001
 4.013840650443639e+000	 1.148785546961380e+000	 1.062211322618871e+001
 4.129882547354518e+000	 7.642448201156715e-001	 1.056819735374103e+001
 4.122469942672774e+000	 8.032693021564474e-001	 1.055335447445955e+001
 4.114665510971639e+000	 8.423346917094579e-001	 1.054376754773487e+001
 4.106467015442072e+000	 8.814355626655194e-001	 1.053928316372734e+001
 4.097872310547908e+000	 9.205664161250965e-001	 1.053967254060786e+001
 4.088879344391335e+000	 9.597216820875805e-001	 1.054463117654886e+001
 4.079486161048762e+000	 9.988957212223391e-001	 1.055377867131705e+001
 4.069690902874032e+000	 1.038082826721289e+000	 1.056665872201796e+001
 4.059491812765941e+000	 1.077277226232635e+000	 1.058273929716489e+001
 4.048887236396987e+000	 1.116473083875282e+000	 1.060141299284155e+001
 4.037875624400262e+000	 1.155664502333329e+000	 1.062199757430043e+001
 4.154465181567210e+000	 7.687938964286721e-001	 1.055299472106569e+001
 4.147008454238363e+000	 8.080506670531940e-001	 1.054049252718148e+001
 4.139157567586481e+000	 8.473485886869693e-001	 1.053313447045992e+001
 4.130910271488186e+000	 8.866822029225462e-001	 1.053074296259272e+001
 4.122264407636262e+000	 9.260459781288424e-001	 1.053306379618370e+001
 4.113217911919219e+000	 9.654343111504833e-001	 1.053976581613421e+001
 4.103768816771066e+000	 1.004841529089392e+000	 1.055044076402138e+001
 4.093915253488230e+000	 1.044261891168389e+000	 1.056460330006638e+001
 4.083655454510569e+000	 1.083689590676441e+000	 1.058169120690434e+001
 4.072987755663395e+000	 1.123118756995066e+000	 1.060106577895538e+001
 4.061910598357380e+000	 1.162543457705291e+000	 1.062201240075959e+001
 4.179047815779902e+000	 7.733429727426728e-001	 1.053549265896163e+001
 4.171546965803959e+000	 8.128320319509310e-001	 1.052545967973261e+001
 4.163649624201344e+000	 8.523624856654427e-001	 1.052048868375611e+001
 4.155353527534344e+000	 8.919288431804858e-001	 1.052037766695427e+001
 4.146656504724693e+000	 9.315255401334329e-001	 1.052484672335771e+001
 4.137556479447226e+000	 9.711469402141431e-001	 1.053353773573428e+001
 4.128051472493548e+000	 1.010787336957094e+000	 1.054601424265937e+001
 4.118139604102669e+000	 1.050440955616010e+000	 1.056176148667391e+001
 4.107819096255514e+000	 1.090101955120620e+000	 1.058018664778176e+001
 4.097088274930204e+000	 1.129764430115053e+000	 1.060061926611752e+001
 4.085945572314992e+000	 1.169422413077266e+000	 1.062231185716987e+001
 3.845595832761096e+000	 1.100632859358089e+000	 1.061350609747205e+001
 3.834719556678107e+000	 1.137948119066728e+000	 1.067327500015429e+001
 3.823452984442649e+000	 1.175247750825766e+000	 1.073301929120694e+001
 3.811794952408592e+000	 1.212525975335377e+000	 1.079226267725239e+001
 3.799744404765942e+000	 1.249776963512203e+000	 1.085047105218956e+001
 3.787300395380251e+000	 1.286994838852475e+000	 1.082333446414036e+001
 3.774462089574614e+000	 1.324173679865362e+000	 1.080370243388103e+001
 3.761228765851377e+000	 1.361307522575099e+000	 1.079281443965977e+001
 3.747599817550745e+000	 1.398390363090334e+000	 1.078990264370832e+001
 3.733574754443465e+000	 1.435416160238980e+000	 1.078872209799028e+001
 3.719153204254849e+000	 1.472378838266780e+000	 1.079580327538274e+001
 3.869630806714263e+000	 1.107511814729950e+000	 1.061684233467570e+001
 3.858686553905200e+000	 1.145060294812716e+000	 1.067774773881778e+001
 3.847349565592751e+000	 1.182593049271040e+000	 1.073845816086072e+001
 3.835618670858000e+000	 1.220104262684471e+000	 1.079844931023373e+001
 3.823492807292140e+000	 1.257588069537881e+000	 1.083987761772036e+001
 3.810971022847385e+000	 1.295038556599349e+000	 1.081662902557053e+001
 3.798052477630096e+000	 1.332449765368725e+000	 1.080047486537494e+001
 3.784736445633262e+000	 1.369815694595396e+000	 1.079211232621638e+001
 3.771022316405465e+000	 1.407130302863686e+000	 1.079226124641213e+001
 3.756909596653516e+000	 1.444387511244183e+000	 1.080166344461156e+001
 3.742397911776015e+000	 1.481581206009164e+000	 1.081584810797941e+001
 3.893665780667924e+000	 1.114390770101823e+000	 1.061921340378144e+001
 3.882653551132883e+000	 1.152172470558531e+000	 1.068118036874782e+001
 3.871246146743528e+000	 1.189938347715985e+000	 1.074280211370176e+001
 3.859442389308159e+000	 1.227682550033110e+000	 1.080350595883622e+001
 3.847241209819154e+000	 1.265399175563005e+000	 1.082926968240760e+001
 3.834641650315390e+000	 1.303082274345601e+000	 1.081005640506671e+001
 3.821642865686497e+000	 1.340725850871429e+000	 1.079699834050350e+001
 3.808244125416102e+000	 1.378323866615026e+000	 1.079078339954837e+001
 3.794444815261164e+000	 1.415870242636395e+000	 1.079212311929922e+001
 3.780244438864562e+000	 1.453358862248797e+000	 1.080175201095868e+001
 3.765642619298180e+000	 1.490783573751044e+000	 1.082042684525242e+001
 3.917700754622081e+000	 1.121269725473710e+000	 1.062077773222567e+001
 3.906620548361152e+000	 1.159284646304173e+000	 1.068374435600830e+001
 3.895142727894979e+000	 1.197283646160600e+000	 1.074623562818472e+001
 3.883266107759068e+000	 1.235260837381292e+000	 1.080763007827703e+001
 3.870989612346985e+000	 1.273210281587576e+000	 1.081922034146414e+001
 3.858312277784268e+000	 1.311125992091232e+000	 1.080366159893135e+001
 3.845233253743815e+000	 1.349001936373475e+000	 1.079332224502331e+001
 3.831751805199895e+000	 1.386832038633990e+000	 1.078888124017991e+001
 3.817867314117841e+000	 1.424610182408460e+000	 1.079104215335032e+001
 3.803579281076603e+000	 1.462330213252820e+000	 1.080053252626844e+001
 3.788887326821345e+000	 1.499985941492418e+000	 1.081810317391490e+001
 3.941735728576730e+000	 1.128148680845609e+000	 1.062169307938880e+001
 3.930587545590011e+000	 1.166396822049642e+000	 1.068561034489838e+001
 3.919039309047104e+000	 1.204628944604886e+000	 1.074894221064896e+001
 3.907089826210725e+000	 1.242839124729018e+000	 1.081101800475593e+001
 3.894738014875633e+000	 1.281021387611593e+000	 1.080976874708589e+001
 3.881982905254016e+000	 1.319169709836241e+000	 1.079748820134785e+001
 3.868823641802051e+000	 1.357278021874860e+000	 1.078949442654750e+001
 3.855259484984642e+000	 1.395340210652288e+000	 1.078645775826650e+001
 3.841289812975499e+000	 1.433350122179882e+000	 1.078907412816309e+001
 3.826914123289639e+000	 1.471301564256254e+000	 1.079806444438716e+001
 3.812132034345510e+000	 1.509188309233287e+000	 1.081417390677153e+001
 3.965770702531872e+000	 1.135027636217520e+000	 1.062211655683917e+001
 3.954554542819460e+000	 1.173508997794938e+000	 1.068694818285449e+001
 3.942935890199904e+000	 1.211974243048843e+000	 1.075110442477656e+001
 3.930913544663135e+000	 1.250417412076288e+000	 1.081304947489087e+001
 3.918486417405096e+000	 1.288832493635056e+000	 1.080095282734138e+001
 3.905653532724638e+000	 1.327213427580630e+000	 1.079157844686895e+001
 3.892414029861205e+000	 1.365554107375588e+000	 1.078556124115625e+001
 3.878767164770342e+000	 1.403848382669918e+000	 1.078356324421240e+001
 3.864712311834137e+000	 1.442090061950661e+000	 1.078627307913135e+001
 3.850248965503669e+000	 1.480272915259099e+000	 1.079440535435098e+001
 3.835376741870674e+000	 1.518390676973651e+000	 1.080869999326152e+001
 3.989805676487509e+000	 1.141906591589444e+000	 1.062220464784561e+001
 3.978521540049498e+000	 1.180621173540061e+000	 1.068792694445217e+001
 3.966832471353379e+000	 1.219319541492470e+000	 1.075290391998562e+001
 3.954737263116293e+000	 1.257995699423101e+000	 1.080144986773045e+001
 3.942234819935373e+000	 1.296643599657964e+000	 1.079280932304303e+001
 3.929324160196131e+000	 1.335257145324396e+000	 1.078597325136951e+001
 3.916004417921275e+000	 1.373830192875655e+000	 1.078156759832241e+001
 3.902274844556996e+000	 1.412356554686883e+000	 1.078024641745818e+001
 3.888134810693752e+000	 1.450830001720796e+000	 1.078269134998133e+001
 3.873583807718695e+000	 1.489244266261354e+000	 1.078961103655479e+001
 3.858621449396840e+000	 1.527593044713509e+000	 1.080174046101591e+001
 4.013840650443639e+000	 1.148785546961380e+000	 1.062211322618871e+001
 4.002488537280124e+000	 1.187733349285011e+000	 1.068871495454568e+001
 3.990729052507526e+000	 1.226664839935768e+000	 1.075452145880347e+001
 3.978560981570202e+000	 1.265573986769458e+000	 1.079092442288818e+001
 3.965983222466468e+000	 1.304454705680320e+000	 1.078537382329382e+001
 3.952994787668497e+000	 1.343300863067542e+000	 1.078071225152784e+001
 3.939594805982265e+000	 1.382106278375064e+000	 1.077755700422316e+001
 3.925782524344604e+000	 1.420864726703181e+000	 1.077655447351560e+001
 3.911557309554348e+000	 1.459569941490288e+000	 1.077837964342042e+001
 3.896918649934715e+000	 1.498215617263019e+000	 1.078373551690321e+001
 3.881866156924004e+000	 1.536795412452863e+000	 1.079335247339673e+001
 4.037875624400262e+000	 1.155664502333329e+000	 1.062199757430043e+001
 4.026455534511339e+000	 1.194845525029789e+000	 1.068947981058106e+001
 4.014625633662350e+000	 1.234010138378737e+000	 1.075613694326215e+001
 4.002384700024861e+000	 1.273152274115358e+000	 1.078150351548309e+001
 3.989731624998379e+000	 1.312265811702122e+000	 1.077868079976426e+001
 3.976665415141733e+000	 1.351344580810066e+000	 1.077583384289705e+001
 3.963185194044174e+000	 1.390382363873814e+000	 1.077357160350466e+001
 3.949290204133165e+000	 1.429372898718813e+000	 1.077253312932267e+001
 3.934979808415922e+000	 1.468309881259137e+000	 1.077338706997701e+001
 3.920253492151730e+000	 1.507186968264094e+000	 1.077683111902751e+001
 3.905110864452169e+000	 1.545997780191711e+000	 1.078359138498128e+001
 4.061910598357380e+000	 1.162543457705291e+000	 1.062201240075959e+001
 4.050422531743143e+000	 1.201957700774393e+000	 1.069038840411715e+001
 4.038522214817848e+000	 1.241355436821377e+000	 1.075792944035695e+001
 4.026208418480270e+000	 1.280730561460802e+000	 1.077321655941018e+001
 4.013480027531105e+000	 1.320076917723369e+000	 1.077276363975256e+001
 4.000336042615841e+000	 1.359388298551968e+000	 1.077137521662477e+001
 3.986775582106998e+000	 1.398658449371905e+000	 1.076965221956415e+001
 3.972797883922680e+000	 1.437881070733778e+000	 1.076822666698842e+001
 3.958402307278477e+000	 1.477049821027342e+000	 1.076776119510636e+001
 3.943588334369740e+000	 1.516158319264580e+000	 1.076894851464882e+001
 3.928355571981333e+000	 1.555200147930054e+000	 1.077251079507631e+001
 4.085945572314992e+000	 1.169422413077266e+000	 1.062231185716987e+001
 4.074389528975536e+000	 1.209069876518825e+000	 1.069160694158695e+001
 4.062418795974019e+000	 1.248700735263687e+000	 1.076007720660623e+001
 4.050032136936431e+000	 1.288308848805791e+000	 1.076609203561159e+001
 4.037228430064649e+000	 1.327888023744064e+000	 1.076765467807799e+001
 4.024006670090824e+000	 1.367432016293249e+000	 1.076737239487674e+001
 4.010365970170742e+000	 1.406934534869337e+000	 1.076583839341012e+001
 3.996305563713150e+000	 1.446389242748077e+000	 1.076367797599372e+001
 3.981824806142011e+000	 1.485789760794904e+000	 1.076154808463394e+001
 3.966923176588746e+000	 1.525129670264477e+000	 1.076013677216358e+001
 3.951600279511499e+000	 1.564402515667893e+000	 1.076016259934377e+001
 3.719153204254849e+000	 1.472378838266780e+000	 1.079580327538274e+001
 3.704334914117635e+000	 1.509272289597060e+000	 1.077683369075841e+001
 3.689119751950341e+000	 1.546090377651534e+000	 1.076381036462268e+001
 3.673507707759193e+000	 1.582826939728250e+000	 1.075677576666089e+001
 3.657498894861323e+000	 1.619475789933606e+000	 1.075577449490270e+001
 3.641093551026176e+000	 1.656030722167824e+000	 1.076085348110566e+001
 3.624292039533033e+000	 1.692485513160644e+000	 1.077206218852041e+001
 3.607094850142330e+000	 1.728833925554607e+000	 1.078945280110475e+001
 3.589502599978650e+000	 1.765069711033147e+000	 1.081308040326259e+001
 3.571516034323234e+000	 1.801186613490625e+000	 1.084300314919743e+001
 3.553136027314097e+000	 1.837178372241353e+000	 1.087928242098654e+001
 3.742397911776015e+000	 1.481581206009164e+000	 1.081584810797941e+001
 3.727487007325320e+000	 1.518705241409741e+000	 1.079528571017701e+001
 3.712176750394490e+000	 1.555753442514154e+000	 1.078100198522019e+001
 3.696467130927288e+000	 1.592719608103563e+000	 1.077306562946061e+001
 3.680358262949078e+000	 1.629597513622534e+000	 1.077154756370244e+001
 3.663850385715369e+000	 1.666380914183164e+000	 1.077652111667002e+001
 3.646943864775933e+000	 1.703063547619756e+000	 1.078806220030421e+001
 3.629639192952213e+000	 1.739639137591368e+000	 1.080624947597298e+001
 3.611936991225819e+000	 1.776101396729453e+000	 1.083116451069354e+001
 3.593838009536003e+000	 1.812444029827716e+000	 1.086289192247688e+001
 3.575343127484140e+000	 1.848660737071182e+000	 1.090151951392529e+001
 3.765642619298180e+000	 1.490783573751044e+000	 1.082042684525242e+001
 3.750639100533996e+000	 1.528138193222007e+000	 1.080773489004483e+001
 3.735233748839598e+000	 1.565416507376429e+000	 1.079325451777524e+001
 3.719426554096293e+000	 1.602612276478584e+000	 1.078502945525486e+001
 3.703217631037676e+000	 1.639719237311200e+000	 1.078360139302319e+001
 3.686607220405314e+000	 1.676731106198253e+000	 1.078906971061156e+001
 3.669595690019477e+000	 1.713641582078609e+000	 1.080153642594375e+001
 3.652183535762611e+000	 1.750444349627840e+000	 1.082110633894033e+001
 3.634371382473355e+000	 1.787133082425422e+000	 1.084788716461810e+001
 3.616159984748968e+000	 1.823701446164399e+000	 1.088198965481838e+001
 3.597550227654190e+000	 1.860143101900514e+000	 1.092352770771640e+001
 3.788887326821345e+000	 1.499985941492418e+000	 1.081810317391490e+001
 3.773791193743661e+000	 1.537571145033858e+000	 1.080123154612747e+001
 3.758290747285668e+000	 1.575079572238360e+000	 1.079470302240985e+001
 3.742385977266211e+000	 1.612504944853310e+000	 1.079277850273219e+001
 3.726076999127117e+000	 1.649840960999604e+000	 1.079203829288561e+001
 3.709364055096014e+000	 1.687081298213092e+000	 1.079859267579718e+001
 3.692247515263667e+000	 1.724219616537203e+000	 1.081256943683055e+001
 3.674727878573528e+000	 1.761249561664024e+000	 1.083409917978080e+001
 3.656805773721259e+000	 1.798164768121054e+000	 1.086331543724354e+001
 3.638481959962133e+000	 1.834958862500678e+000	 1.090035476911547e+001
 3.619757327824249e+000	 1.871625466729350e+000	 1.094535684840163e+001
 3.812132034345510e+000	 1.509188309233287e+000	 1.081417390677153e+001
 3.796943286954317e+000	 1.547004096845295e+000	 1.079354977386309e+001
 3.781347745732699e+000	 1.584742637099947e+000	 1.078345946424196e+001
 3.765345400437040e+000	 1.622397613227744e+000	 1.078465899422943e+001
 3.748936367217401e+000	 1.659962684687746e+000	 1.079695950659461e+001
 3.732120889787468e+000	 1.697431490227681e+000	 1.080518259774121e+001
 3.714899340508502e+000	 1.734797650995537e+000	 1.082124521419977e+001
 3.697272221384957e+000	 1.772054773699920e+000	 1.084530343302125e+001
 3.679240164969529e+000	 1.809196453816350e+000	 1.087751627803165e+001
 3.660803935175493e+000	 1.846216278836549e+000	 1.091804579549095e+001
 3.641964427994314e+000	 1.883107831557690e+000	 1.093426237459772e+001
 3.835376741870674e+000	 1.518390676973651e+000	 1.080869999326152e+001
 3.820095380165963e+000	 1.556437048656317e+000	 1.078473951932767e+001
 3.804404744180690e+000	 1.594405701961191e+000	 1.077149621687018e+001
 3.788304823608782e+000	 1.632290281601885e+000	 1.076976700030755e+001
 3.771795735308528e+000	 1.670084408375626e+000	 1.078036806879331e+001
 3.754877724479677e+000	 1.707781682242019e+000	 1.080413389439011e+001
 3.737551165753982e+000	 1.745375685453612e+000	 1.082764716701379e+001
 3.719816564196905e+000	 1.782859985735528e+000	 1.085479418870641e+001
 3.701674556218167e+000	 1.820228139511308e+000	 1.089055651741833e+001
 3.683125910389052e+000	 1.857473695172015e+000	 1.093512136804746e+001
 3.664171528164389e+000	 1.894590196385535e+000	 1.091129421046426e+001
 3.858621449396840e+000	 1.527593044713509e+000	 1.080174046101591e+001
 3.843247473378598e+000	 1.565870000466923e+000	 1.077484903891940e+001
 3.827461742629643e+000	 1.604068766822089e+000	 1.075885079699991e+001
 3.811264246781434e+000	 1.642182949975732e+000	 1.075458348947861e+001
 3.794655103400498e+000	 1.680206132063244e+000	 1.076290463501509e+001
 3.777634559172638e+000	 1.718131874256107e+000	 1.078469045964602e+001
 3.760202991000108e+000	 1.755953719911429e+000	 1.082083477778966e+001
 3.742360907009369e+000	 1.793665197770848e+000	 1.086264620277490e+001
 3.724108947467171e+000	 1.831259825205929e+000	 1.090250287039878e+001
 3.705447885602808e+000	 1.868731111507073e+000	 1.095164022173562e+001
 3.686378628334472e+000	 1.906072561212882e+000	 1.089041913351922e+001
 3.881866156924004e+000	 1.536795412452863e+000	 1.079335247339673e+001
 3.866399566592226e+000	 1.575302952277115e+000	 1.076392494994791e+001
 3.850518741079555e+000	 1.613731831682643e+000	 1.074555930589375e+001
 3.834223669954999e+000	 1.652075618349287e+000	 1.073913408291951e+001
 3.817514471493310e+000	 1.690327855750601e+000	 1.074554807450240e+001
 3.800391393866355e+000	 1.728482066269944e+000	 1.076571922361762e+001
 3.782854816246880e+000	 1.766531754368986e+000	 1.080058345691219e+001
 3.764905249822349e+000	 1.804470409805881e+000	 1.085109345671198e+001
 3.746543338716543e+000	 1.842291510900213e+000	 1.091342193998367e+001
 3.727769860816763e+000	 1.879988527841726e+000	 1.094956564548207e+001
 3.708585728504561e+000	 1.917554926039734e+000	 1.087162972812730e+001
 3.905110864452169e+000	 1.545997780191711e+000	 1.078359138498128e+001
 3.889551659806843e+000	 1.584735904086892e+000	 1.075201227941664e+001
 3.873575739530430e+000	 1.623394896542854e+000	 1.073165647149775e+001
 3.857183093129476e+000	 1.661968286722549e+000	 1.072344324388385e+001
 3.840373839586965e+000	 1.700449579437696e+000	 1.072831262608407e+001
 3.823148228560824e+000	 1.738832258283531e+000	 1.074722424692791e+001
 3.805506641494296e+000	 1.777109788826284e+000	 1.078115612189147e+001
 3.787449592635845e+000	 1.815275621840625e+000	 1.083110337670478e+001
 3.768977729966283e+000	 1.853323196594161e+000	 1.089807690887433e+001
 3.750091836030915e+000	 1.891245944175972e+000	 1.092567582379498e+001
 3.730792828674659e+000	 1.929037290866090e+000	 1.085491887479653e+001
 3.928355571981333e+000	 1.555200147930054e+000	 1.077251079507631e+001
 3.912703753022449e+000	 1.594168855896254e+000	 1.073915451107331e+001
 3.896632737982265e+000	 1.633057961402721e+000	 1.071717568907203e+001
 3.880142516304863e+000	 1.671860955095517e+000	 1.070753431196020e+001
 3.863233207681464e+000	 1.710571303124529e+000	 1.071121161229144e+001
 3.845905063256049e+000	 1.749182450296867e+000	 1.072920887951273e+001
 3.828158466742357e+000	 1.787687823283322e+000	 1.076254620042037e+001
 3.809993935449857e+000	 1.826080833875081e+000	 1.081226113433053e+001
 3.791412121216387e+000	 1.864354882287771e+000	 1.087940732466399e+001
 3.772413811245264e+000	 1.902503360509812e+000	 1.087042641519300e+001
 3.752999928844765e+000	 1.940519655691950e+000	 1.083523769687150e+001
 3.951600279511499e+000	 1.564402515667893e+000	 1.076016259934377e+001
 3.935855846239047e+000	 1.603601807705202e+000	 1.072539363079981e+001
 3.919689736435062e+000	 1.642721026262243e+000	 1.070214906038751e+001
 3.903101939481164e+000	 1.681753623468193e+000	 1.069142953612094e+001
 3.886092575776805e+000	 1.720693026811100e+000	 1.069425746630819e+001
 3.868661897952027e+000	 1.759532642309953e+000	 1.071167578152317e+001
 3.850810291991065e+000	 1.798265857740103e+000	 1.074474662816359e+001
 3.832538278264387e+000	 1.836886045909251e+000	 1.079454999514224e+001
 3.813846512466861e+000	 1.875386567981045e+000	 1.086094201114402e+001
 3.794735786459812e+000	 1.913760776843247e+000	 1.081905991031685e+001
 3.775207029014879e+000	 1.952002020517314e+000	 1.078659376197195e+001
 3.553136027314097e+000	 1.837178372241353e+000	 1.087928242098654e+001
 3.534363582552064e+000	 1.873038725264742e+000	 1.104323644772505e+001
 3.515199833610371e+000	 1.908761412482587e+000	 1.105370271220540e+001
 3.495646044446416e+000	 1.944340179066090e+000	 1.105207731665253e+001
 3.475703609714792e+000	 1.979768778769483e+000	 1.104757275984819e+001
 3.455374054979497e+000	 2.015040977286106e+000	 1.104048916571941e+001
 3.434659036824272e+000	 2.050150555623709e+000	 1.103114776269441e+001
 3.413560342859975e+000	 2.085091313495474e+000	 1.101989014122595e+001
 3.392079891627955e+000	 2.119857072723085e+000	 1.100707745537509e+001
 3.370219732398644e+000	 2.154441680648208e+000	 1.099308956999470e+001
 3.347982044864625e+000	 2.188839013548634e+000	 1.097832415523641e+001
 3.575343127484140e+000	 1.848660737071182e+000	 1.090151951392529e+001
 3.556453354943440e+000	 1.884745217301496e+000	 1.102069886840051e+001
 3.537169832571847e+000	 1.920691171314830e+000	 1.102241134204686e+001
 3.517493832226492e+000	 1.956492305189702e+000	 1.102120995908105e+001
 3.497426757278562e+000	 1.992142333641310e+000	 1.101738563047609e+001
 3.476970142826823e+000	 2.027634983398575e+000	 1.101125117242172e+001
 3.456125655808670e+000	 2.062963996600546e+000	 1.100314059766749e+001
 3.434895095007523e+000	 2.098123134208610e+000	 1.099340834880139e+001
 3.413280390955621e+000	 2.133106179430838e+000	 1.098242847486417e+001
 3.391283605731327e+000	 2.167906941154781e+000	 1.097059375288911e+001
 3.368906932650309e+000	 2.202519257384963e+000	 1.095831475614247e+001
 3.597550227654190e+000	 1.860143101900514e+000	 1.092352770771640e+001
 3.578543127334634e+000	 1.896451709337664e+000	 1.099131728346388e+001
 3.559139831532969e+000	 1.932620930146416e+000	 1.099316372524420e+001
 3.539341620006065e+000	 1.968644431312607e+000	 1.099232946850893e+001
 3.519149904841695e+000	 2.004515888512400e+000	 1.098911819887063e+001
 3.498566230673402e+000	 2.040228989510295e+000	 1.098385563463946e+001
 3.477592274792230e+000	 2.075777437576643e+000	 1.097688879443649e+001
 3.456229847154165e+000	 2.111154954921036e+000	 1.096858520594939e+001
 3.434480890282327e+000	 2.146355286137930e+000	 1.095933205727732e+001
 3.412347479063021e+000	 2.181372201660761e+000	 1.094953529250483e+001
 3.389831820434993e+000	 2.216199501220790e+000	 1.093961865333330e+001
 3.619757327824249e+000	 1.871625466729350e+000	 1.094535684840163e+001
 3.600632899725644e+000	 1.908158201373246e+000	 1.096401592638606e+001
 3.581109830493738e+000	 1.944550688977346e+000	 1.096594875510801e+001
 3.561189407785133e+000	 1.980796557434805e+000	 1.096542362572151e+001
 3.540873052404194e+000	 2.016889443382750e+000	 1.096275719852971e+001
 3.520162318519236e+000	 2.052822995621266e+000	 1.095828830596097e+001
 3.499058893774951e+000	 2.088590878551999e+000	 1.095237719619394e+001
 3.477564599299897e+000	 2.124186775632750e+000	 1.094540471710919e+001
 3.455681389608072e+000	 2.159604392844360e+000	 1.093777144206150e+001
 3.433411352393724e+000	 2.194837462166148e+000	 1.092989673916295e+001
 3.410756708218677e+000	 2.229879745056114e+000	 1.092221778595907e+001
 3.641964427994314e+000	 1.883107831557690e+000	 1.093426237459772e+001
 3.622722672116472e+000	 1.919864693408242e+000	 1.093878519784574e+001
 3.603079829454155e+000	 1.956480447807618e+000	 1.094075565134534e+001
 3.583037195563700e+000	 1.992948683556295e+000	 1.094048053000365e+001
 3.562596199966057e+000	 2.029262998252362e+000	 1.093828967099938e+001
 3.541758406364323e+000	 2.065417001731487e+000	 1.093453523501109e+001
 3.520525512756837e+000	 2.101404319526615e+000	 1.092959092559271e+001
 3.498899351444721e+000	 2.137218596343753e+000	 1.092385114803709e+001
 3.476881888932859e+000	 2.172853499550127e+000	 1.091773010926931e+001
 3.454475225723439e+000	 2.208302722670943e+000	 1.091166086051111e+001
 3.431681596001361e+000	 2.243559988890935e+000	 1.090609428465232e+001
 3.664171528164389e+000	 1.894590196385535e+000	 1.091129421046426e+001
 3.644812444507119e+000	 1.931571185442651e+000	 1.091561582021500e+001
 3.625049828414220e+000	 1.968410206637234e+000	 1.091757395016879e+001
 3.604884983341759e+000	 2.005100809677077e+000	 1.091748858948820e+001
 3.584319347527285e+000	 2.041636553121235e+000	 1.091570295653903e+001
 3.563354494208664e+000	 2.078011007840958e+000	 1.091258275651065e+001
 3.541992131737884e+000	 2.114217760500490e+000	 1.090851537627753e+001
 3.520234103588635e+000	 2.150250417054044e+000	 1.090390901788770e+001
 3.498082388256687e+000	 2.186102606255232e+000	 1.089919177226789e+001
 3.475539099052163e+000	 2.221767983175145e+000	 1.089481063493794e+001
 3.452606483783046e+000	 2.257240232725254e+000	 1.089123046572542e+001
 3.686378628334472e+000	 1.906072561212882e+000	 1.089041913351922e+001
 3.666902216897582e+000	 1.943277677476475e+000	 1.089449882786966e+001
 3.647019827373930e+000	 1.980339965466193e+000	 1.089639349476339e+001
 3.626732771119316e+000	 2.017252935797153e+000	 1.089643651185340e+001
 3.606042495087878e+000	 2.054010107989370e+000	 1.089498468512401e+001
 3.584950582052259e+000	 2.090605013949680e+000	 1.089241748265909e+001
 3.563458750718096e+000	 2.127031201473625e+000	 1.088913620472252e+001
 3.541568855731643e+000	 2.163282237763625e+000	 1.088556309158154e+001
 3.519282887579554e+000	 2.199351712959675e+000	 1.088214037071134e+001
 3.496602972379898e+000	 2.235233243678755e+000	 1.087932924522545e+001
 3.473531371563731e+000	 2.270920476559069e+000	 1.087760882557781e+001
 3.708585728504561e+000	 1.917554926039734e+000	 1.087162972812730e+001
 3.688991989287863e+000	 1.954984169509711e+000	 1.087542555784789e+001
 3.668989826333287e+000	 1.992269724294494e+000	 1.087720442609565e+001
 3.648580558896369e+000	 2.029405061916519e+000	 1.087731329535441e+001
 3.627765642647837e+000	 2.066383662856766e+000	 1.087612276777150e+001
 3.606546669895108e+000	 2.103199020057653e+000	 1.087402629482678e+001
 3.584925369697467e+000	 2.139844642446019e+000	 1.087143932236214e+001
 3.562903607873741e+000	 2.176314058472493e+000	 1.086879837244671e+001
 3.540483386901463e+000	 2.212600819663457e+000	 1.086656006376570e+001
 3.517666845706642e+000	 2.248698504181773e+000	 1.086520007242939e+001
 3.494456259343415e+000	 2.284600720392382e+000	 1.086521203530413e+001
 3.730792828674659e+000	 1.929037290866090e+000	 1.085491887479653e+001
 3.711081761677962e+000	 1.966690661542362e+000	 1.085838764084246e+001
 3.690959825292292e+000	 2.004199483122139e+000	 1.085999717405109e+001
 3.670428346672918e+000	 2.041557188035179e+000	 1.086010822017523e+001
 3.649488790207159e+000	 2.078757217723425e+000	 1.085910538817612e+001
 3.628142757737212e+000	 2.115793026164876e+000	 1.085739633554390e+001
 3.606391988676003e+000	 2.152658083417673e+000	 1.085541088800300e+001
 3.584238360014931e+000	 2.189345879180650e+000	 1.085360009512347e+001
 3.561683886222414e+000	 2.225849926366577e+000	 1.085243522357584e+001
 3.538730719032397e+000	 2.262163764684197e+000	 1.085240668997832e+001
 3.515381147122099e+000	 2.298280964225193e+000	 1.085402293549503e+001
 3.752999928844765e+000	 1.940519655691950e+000	 1.083523769687150e+001
 3.733171534067878e+000	 1.978397153574426e+000	 1.084337699251263e+001
 3.712929824250944e+000	 2.016129241949128e+000	 1.084476244888632e+001
 3.692276134448963e+000	 2.053709314153131e+000	 1.084481084008757e+001
 3.671211937765849e+000	 2.091130772589344e+000	 1.084392099464264e+001
 3.649738845578568e+000	 2.128387032271350e+000	 1.084251500077392e+001
 3.627858607653701e+000	 2.165471524388586e+000	 1.084103730050519e+001
 3.605573112155213e+000	 2.202377699888097e+000	 1.083995371872068e+001
 3.582884385542403e+000	 2.239099033069033e+000	 1.083975042896431e+001
 3.559794592357163e+000	 2.275629025186031e+000	 1.084093285798204e+001
 3.536306034899783e+000	 2.311961208057501e+000	 1.084402453122245e+001
 3.775207029014879e+000	 1.952002020517314e+000	 1.078659376197195e+001
 3.755261306457614e+000	 1.990103645605905e+000	 1.082083959048160e+001
 3.734899823209243e+000	 2.028059000775460e+000	 1.083149123298285e+001
 3.714123922224505e+000	 2.065861440270376e+000	 1.083141097440416e+001
 3.692935085323902e+000	 2.103504327454524e+000	 1.083055829230331e+001
 3.671334933419179e+000	 2.140981038377074e+000	 1.082936993245957e+001
 3.649325226630563e+000	 2.178284965358760e+000	 1.082830519172191e+001
 3.626907864294588e+000	 2.215409520594832e+000	 1.082784492021375e+001
 3.604084884861436e+000	 2.252348139770829e+000	 1.082849045935260e+001
 3.580858465680939e+000	 2.289094285687271e+000	 1.083076251774107e+001
 3.557230922676468e+000	 2.325641451889307e+000	 1.083519998720193e+001
 3.347982044864625e+000	 2.188839013548634e+000	 1.097832415523641e+001
 3.325369138727341e+000	 2.223042980055294e+000	 1.094219247658590e+001
 3.302383453178052e+000	 2.257047524566414e+000	 1.091139445137978e+001
 3.279027556272166e+000	 2.290846630654906e+000	 1.088663726064288e+001
 3.255304144196107e+000	 2.324434324465134e+000	 1.086863805919075e+001
 3.231216040427901e+000	 2.357804678095200e+000	 1.085812254121167e+001
 3.206766194791350e+000	 2.390951812960878e+000	 1.085582347041515e+001
 3.181957682404209e+000	 2.423869903137295e+000	 1.086247917812803e+001
 3.156793702520921e+000	 2.456553178674486e+000	 1.087883203284908e+001
 3.131277577270649e+000	 2.488995928882964e+000	 1.090562688489156e+001
 3.105412750291483e+000	 2.521192505585459e+000	 1.090315968030543e+001
 3.368906932650309e+000	 2.202519257384963e+000	 1.095831475614247e+001
 3.346152695849630e+000	 2.236936998681402e+000	 1.092918753704025e+001
 3.323023349765487e+000	 2.271154071594951e+000	 1.090440548553740e+001
 3.299521478503630e+000	 2.305164422095855e+000	 1.088467995577007e+001
 3.275649795101650e+000	 2.338962038991881e+000	 1.087073339031507e+001
 3.251411140684311e+000	 2.372540957331742e+000	 1.086329787256262e+001
 3.226808483511813e+000	 2.405895261790064e+000	 1.086311364184445e+001
 3.201844917921395e+000	 2.439019090029942e+000	 1.087092757473301e+001
 3.176523663162845e+000	 2.471906636039225e+000	 1.088749163606140e+001
 3.150848062128627e+000	 2.504552153436616e+000	 1.091026775572756e+001
 3.124821579979573e+000	 2.536949958743739e+000	 1.092067199388342e+001
 3.389831820434993e+000	 2.216199501220790e+000	 1.093961865333330e+001
 3.366936252970930e+000	 2.250831017307106e+000	 1.091723707258165e+001
 3.343663246351960e+000	 2.285260618623185e+000	 1.089822042640887e+001
 3.320015400734184e+000	 2.319482213536602e+000	 1.088328463750540e+001
 3.295995446006354e+000	 2.353489753518525e+000	 1.087315783035754e+001
 3.271606240939970e+000	 2.387277236568283e+000	 1.086857886983600e+001
 3.246850772231635e+000	 2.420838710619349e+000	 1.087029586072376e+001
 3.221732153438071e+000	 2.454168276922787e+000	 1.087906461163438e+001
 3.196253623804405e+000	 2.487260093404262e+000	 1.089564706691064e+001
 3.170418546986412e+000	 2.520108377990667e+000	 1.090598184405209e+001
 3.144230409667659e+000	 2.552707411902517e+000	 1.091316480241871e+001
 3.410756708218677e+000	 2.229879745056114e+000	 1.092221778595907e+001
 3.387719810091239e+000	 2.264725035932409e+000	 1.090632481358079e+001
 3.364303142937475e+000	 2.299367165651117e+000	 1.089282457311824e+001
 3.340509322963827e+000	 2.333800004977146e+000	 1.088243795141998e+001
 3.316341096910214e+000	 2.368017468045066e+000	 1.087589914934844e+001
 3.291801341194877e+000	 2.402013515804820e+000	 1.087395420600898e+001
 3.266893060950814e+000	 2.435782159448730e+000	 1.087735948209656e+001
 3.241619388954234e+000	 2.469317463815831e+000	 1.088688010584792e+001
 3.215983584445603e+000	 2.502613550769599e+000	 1.090149056346098e+001
 3.189989031844004e+000	 2.535664602545117e+000	 1.090064579452498e+001
 3.163639239355744e+000	 2.568464865061795e+000	 1.090425387068766e+001
 3.431681596001361e+000	 2.243559988890935e+000	 1.090609428465232e+001
 3.408503367210559e+000	 2.278619054557308e+000	 1.089643459684181e+001
 3.384943039522027e+000	 2.313473712678746e+000	 1.088820325104613e+001
 3.361003245192558e+000	 2.348117796417488e+000	 1.088212649408887e+001
 3.336686747813235e+000	 2.382545182571506e+000	 1.087894499804343e+001
 3.311996441449034e+000	 2.416749795041357e+000	 1.087941236952623e+001
 3.286935349669351e+000	 2.450725608278211e+000	 1.088429361628026e+001
 3.261506624469885e+000	 2.484466650709074e+000	 1.089436357457475e+001
 3.235713545086439e+000	 2.517967008135233e+000	 1.089789164272067e+001
 3.209559516701405e+000	 2.551220827099966e+000	 1.089435101101140e+001
 3.183048069043826e+000	 2.584222318221571e+000	 1.089424873564187e+001
 3.452606483783046e+000	 2.257240232725254e+000	 1.089123046572542e+001
 3.429286924328888e+000	 2.292513073181805e+000	 1.088755036237713e+001
 3.405582936105621e+000	 2.327580259706072e+000	 1.088434181103404e+001
 3.381497167420379e+000	 2.362435587857627e+000	 1.088233681457583e+001
 3.357032398715415e+000	 2.397072897097843e+000	 1.088228291153795e+001
 3.332191541702438e+000	 2.431486074277890e+000	 1.088494166989187e+001
 3.306977638387247e+000	 2.465669057107789e+000	 1.089108713628230e+001
 3.281393859985024e+000	 2.499615837602514e+000	 1.090150424428674e+001
 3.255443505726912e+000	 2.533320465501167e+000	 1.089356660986540e+001
 3.229130001558612e+000	 2.566777051655213e+000	 1.088718851480145e+001
 3.202456898731904e+000	 2.599979771381846e+000	 1.088324111459559e+001
 3.473531371563731e+000	 2.270920476559069e+000	 1.087760882557781e+001
 3.450070481446228e+000	 2.306407091805899e+000	 1.087965615029872e+001
 3.426222832688254e+000	 2.341686806733097e+000	 1.088122562861743e+001
 3.401991089647289e+000	 2.376753379297564e+000	 1.088305541586430e+001
 3.377378049616753e+000	 2.411600611624078e+000	 1.088590031275094e+001
 3.352386641955090e+000	 2.446222353514423e+000	 1.089053024305920e+001
 3.327019927104501e+000	 2.480612505937466e+000	 1.089772868494788e+001
 3.301281095499650e+000	 2.514765024496154e+000	 1.089875977019404e+001
 3.275173466367023e+000	 2.548673922867398e+000	 1.088860520587731e+001
 3.248700486415628e+000	 2.582333276210859e+000	 1.087924895613341e+001
 3.221865728419981e+000	 2.615737224542619e+000	 1.087132231660366e+001
 3.494456259343415e+000	 2.284600720392382e+000	 1.086521203530413e+001
 3.470854038562576e+000	 2.320301110429591e+000	 1.087273609782110e+001
 3.446862729269924e+000	 2.355793353759818e+000	 1.087884010328638e+001
 3.422485011873289e+000	 2.391071170737298e+000	 1.088426875623716e+001
 3.397723700517250e+000	 2.426128326150211e+000	 1.088978451578348e+001
 3.372581742206993e+000	 2.460958632750953e+000	 1.089616605662683e+001
 3.347062215821113e+000	 2.495555954767241e+000	 1.090420668185122e+001
 3.321168331013764e+000	 2.529914211389991e+000	 1.089536755268184e+001
 3.294903427006772e+000	 2.564027380233929e+000	 1.088309685264080e+001
 3.268270971272450e+000	 2.597889500766903e+000	 1.087062262530317e+001
 3.241274558108055e+000	 2.631494677703892e+000	 1.085858325468481e+001
 3.515381147122099e+000	 2.298280964225193e+000	 1.085402293549503e+001
 3.491637595677935e+000	 2.334195129052880e+000	 1.086677443637144e+001
 3.467502625850637e+000	 2.369899900786238e+000	 1.087717065777273e+001
 3.442978934098379e+000	 2.405388962176831e+000	 1.088596325060701e+001
 3.418069351416905e+000	 2.440656040676242e+000	 1.089392272915726e+001
 3.392776842458142e+000	 2.475694911987481e+000	 1.090183691484931e+001
 3.367104504537082e+000	 2.510499403597114e+000	 1.090436802941570e+001
 3.341055566527367e+000	 2.545063398284027e+000	 1.089166233677994e+001
 3.314633387646158e+000	 2.579380837600758e+000	 1.087713066243963e+001
 3.287841456129080e+000	 2.613445725323346e+000	 1.086139946337676e+001
 3.260683387796125e+000	 2.647252130865662e+000	 1.084511445760845e+001
 3.536306034899783e+000	 2.311961208057501e+000	 1.084402453122245e+001
 3.512421152792304e+000	 2.348089147675766e+000	 1.086175548880211e+001
 3.488142522430388e+000	 2.384006447812355e+000	 1.087620273736235e+001
 3.463472856322557e+000	 2.419706753616161e+000	 1.088812527179941e+001
 3.438415002315721e+000	 2.455183755202171e+000	 1.089830205893846e+001
 3.412971942708542e+000	 2.490431191224007e+000	 1.090753046346972e+001
 3.387146793252411e+000	 2.525442852427086e+000	 1.090184569421119e+001
 3.360942802040456e+000	 2.560212585178260e+000	 1.088773190720956e+001
 3.334363348285182e+000	 2.594734294967884e+000	 1.087079544711658e+001
 3.307411940985517e+000	 2.629001949880188e+000	 1.085166907252258e+001
 3.280092217484194e+000	 2.663009584027932e+000	 1.083100608126301e+001
 3.557230922676468e+000	 2.325641451889307e+000	 1.083519998720193e+001
 3.533204709905683e+000	 2.361983166298250e+000	 1.085766366670182e+001
 3.508782419009181e+000	 2.398112994838169e+000	 1.087592180923185e+001
 3.483966778545826e+000	 2.434024545055288e+000	 1.089074115179061e+001
 3.458760653213695e+000	 2.469711469727997e+000	 1.090290951175096e+001
 3.433167042958189e+000	 2.505167470460531e+000	 1.091057283020607e+001
 3.407189081967097e+000	 2.540386301257156e+000	 1.089933363702598e+001
 3.380830037553035e+000	 2.575361772072694e+000	 1.088366379872894e+001
 3.354093308923844e+000	 2.610087752335311e+000	 1.086417972691003e+001
 3.326982425841762e+000	 2.644558174437429e+000	 1.084152072597897e+001
 3.299501047172259e+000	 2.678767037190700e+000	 1.081634791962301e+001
 3.105412750291483e+000	 2.521192505585459e+000	 1.090315968030543e+001
 3.079202785261663e+000	 2.553137326331711e+000	 1.090149134801750e+001
 3.052651364329598e+000	 2.584824877570536e+000	 1.089531464656302e+001
 3.025762286443788e+000	 2.616249717776629e+000	 1.088545086592546e+001
 2.998539465583634e+000	 2.647406480529932e+000	 1.087273325489487e+001
 2.970986928893433e+000	 2.678289877541902e+000	 1.085800482422177e+001
 2.943108814721196e+000	 2.708894701625782e+000	 1.084211611877341e+001
 2.914909370564268e+000	 2.739215829607388e+000	 1.082592296460376e+001
 2.886392950923881e+000	 2.769248225173028e+000	 1.081028419694683e+001
 2.857564015070873e+000	 2.798986941651219e+000	 1.079605937521858e+001
 2.828427124725000e+000	 2.828427124725000e+000	 1.078410649116942e+001
 3.124821579979573e+000	 2.536949958743739e+000	 1.092067199388342e+001
 3.098447802667084e+000	 2.569094434619900e+000	 1.091564353873222e+001
 3.071730435353172e+000	 2.600980033054107e+000	 1.090638149514994e+001
 3.044673300729766e+000	 2.632601278511519e+000	 1.089373964948584e+001
 3.017280337238637e+000	 2.663952771031953e+000	 1.087858363299913e+001
 2.989555597193736e+000	 2.695029189275061e+000	 1.086178866499380e+001
 2.961503244807747e+000	 2.725825293509171e+000	 1.084423726480330e+001
 2.933127554124877e+000	 2.756335928540260e+000	 1.082681693867990e+001
 2.904432906861987e+000	 2.786556026577674e+000	 1.081041784774198e+001
 2.875423790160359e+000	 2.816480610033235e+000	 1.079593046321008e+001
 2.846104794250500e+000	 2.846104794250500e+000	 1.078424321521797e+001
 3.144230409667659e+000	 2.552707411902517e+000	 1.091316480241871e+001
 3.117692820072692e+000	 2.585051542908685e+000	 1.092788007107895e+001
 3.090809506377103e+000	 2.617135188538357e+000	 1.091552009019489e+001
 3.063584315016251e+000	 2.648952839247163e+000	 1.090007894541060e+001
 3.036021208894279e+000	 2.680499061534792e+000	 1.088245509527416e+001
 3.008124265494787e+000	 2.711768501009095e+000	 1.086355642064992e+001
 2.979897674895137e+000	 2.742755885393480e+000	 1.084429787574747e+001
 2.951345737686393e+000	 2.773456027474086e+000	 1.082559911403233e+001
 2.922472862801052e+000	 2.803863827983300e+000	 1.080838209531797e+001
 2.893283565250835e+000	 2.833974278416245e+000	 1.079356868041647e+001
 2.863782463777000e+000	 2.863782463776999e+000	 1.078207821978092e+001
 3.163639239355744e+000	 2.568464865061795e+000	 1.090425387068766e+001
 3.136937837478489e+000	 2.601008651198063e+000	 1.092130929140456e+001
 3.109888577401393e+000	 2.633290344023287e+000	 1.092275103383049e+001
 3.082495329303244e+000	 2.665304399983560e+000	 1.090448508395801e+001
 3.054762080550557e+000	 2.697045352038451e+000	 1.088435978987793e+001
 3.026692933796586e+000	 2.728507812744002e+000	 1.086331615190965e+001
 2.998292104983366e+000	 2.759686477278708e+000	 1.084230202439376e+001
 2.969563921248821e+000	 2.790576126408868e+000	 1.082226967981953e+001
 2.940512818741077e+000	 2.821171629389906e+000	 1.080417335424516e+001
 2.911143340342302e+000	 2.851467946800251e+000	 1.078896678053713e+001
 2.881460133304500e+000	 2.881460133304500e+000	 1.077760071600960e+001
 3.183048069043826e+000	 2.584222318221571e+000	 1.089424873564187e+001
 3.156182854884472e+000	 2.616965759488034e+000	 1.090317465885937e+001
 3.128967648426041e+000	 2.649445499508894e+000	 1.092167381080125e+001
 3.101406343590746e+000	 2.681655960720713e+000	 1.090697407245028e+001
 3.073502952207476e+000	 2.713591642542929e+000	 1.088430957375075e+001
 3.045261602099134e+000	 2.745247124479786e+000	 1.086107565729468e+001
 3.016686535072434e+000	 2.776617069164856e+000	 1.083825354763723e+001
 2.987782104812156e+000	 2.807696225344604e+000	 1.081682861288263e+001
 2.958552774682061e+000	 2.838479430797493e+000	 1.079778784760974e+001
 2.929003115434758e+000	 2.868961615185252e+000	 1.078211734386674e+001
 2.899137802833000e+000	 2.899137802833000e+000	 1.077079975696718e+001
 3.202456898731904e+000	 2.599979771381846e+000	 1.088324111459559e+001
 3.175427872290643e+000	 2.632922867778599e+000	 1.088406585817029e+001
 3.148046719451045e+000	 2.665600654995181e+000	 1.089483629687459e+001
 3.120317357878755e+000	 2.698007521458618e+000	 1.090756160505960e+001
 3.092243823865032e+000	 2.730137933048225e+000	 1.088231602144004e+001
 3.063830270402431e+000	 2.761986436216442e+000	 1.085684248107426e+001
 3.035080965162342e+000	 2.793547661051924e+000	 1.083215605362833e+001
 3.006000288376403e+000	 2.824816324281295e+000	 1.080927568417934e+001
 2.976592730624006e+000	 2.855787232206058e+000	 1.078922161281620e+001
 2.946862890528205e+000	 2.886455283571248e+000	 1.077301278255000e+001
 2.916815472362500e+000	 2.916815472362500e+000	 1.076166424241932e+001
 3.221865728419981e+000	 2.615737224542619e+000	 1.087132231660366e+001
 3.194672889697001e+000	 2.648879976069759e+000	 1.086407178746034e+001
 3.167125790476407e+000	 2.681755810482146e+000	 1.086713014169881e+001
 3.139228372167273e+000	 2.714359082197278e+000	 1.088097733744082e+001
 3.110984695523227e+000	 2.746684223554341e+000	 1.087839043360605e+001
 3.082398938706478e+000	 2.778725747953974e+000	 1.085062392092338e+001
 3.053475395253089e+000	 2.810478252939911e+000	 1.082401292866285e+001
 3.024218471941558e+000	 2.841936423218940e+000	 1.079961046498520e+001
 2.994632686566910e+000	 2.873095033615604e+000	 1.077847050718014e+001
 2.964722665622641e+000	 2.903948951958238e+000	 1.076164534564638e+001
 2.934493141892999e+000	 2.934493141893000e+000	 1.075018292345148e+001
 3.241274558108055e+000	 2.631494677703892e+000	 1.085858325468481e+001
 3.213917907103547e+000	 2.664837084361511e+000	 1.084328098503466e+001
 3.186204861502127e+000	 2.697910965969791e+000	 1.083864155767006e+001
 3.158139386456297e+000	 2.730710642936692e+000	 1.084516375031521e+001
 3.129725567182059e+000	 2.763230514061277e+000	 1.086335065882791e+001
 3.100967607011273e+000	 2.795465059692379e+000	 1.084242703530584e+001
 3.071869825344675e+000	 2.827408844828818e+000	 1.081382734382432e+001
 3.042436655507623e+000	 2.859056522157541e+000	 1.078783233287207e+001
 3.012672642510775e+000	 2.890402835026130e+000	 1.076553021332029e+001
 2.982582440718067e+000	 2.921442620346225e+000	 1.074800712401288e+001
 2.952170811424500e+000	 2.952170811424500e+000	 1.073634440692053e+001
 3.260683387796125e+000	 2.647252130865662e+000	 1.084511445760845e+001
 3.233162924510279e+000	 2.680794192653857e+000	 1.082178164008932e+001
 3.205283932528204e+000	 2.714066121458114e+000	 1.080945644087957e+001
 3.177050400745831e+000	 2.747062203676860e+000	 1.080865662017915e+001
 3.148466438841531e+000	 2.779776804569032e+000	 1.081990418472113e+001
 3.119536275316817e+000	 2.812204371431659e+000	 1.083225865059366e+001
 3.090264255437100e+000	 2.844339436718644e+000	 1.080160226138905e+001
 3.060654839074597e+000	 2.876176621097097e+000	 1.077394047747324e+001
 3.030712598455599e+000	 2.907710636437635e+000	 1.075039624435764e+001
 3.000442215814484e+000	 2.938936288735205e+000	 1.073209005501248e+001
 2.969848480956999e+000	 2.969848480956999e+000	 1.072013715974712e+001
 3.280092217484194e+000	 2.663009584027932e+000	 1.083100608126301e+001
 3.252407941917199e+000	 2.696751300946797e+000	 1.079966160304007e+001
 3.224363003554640e+000	 2.730221276947116e+000	 1.077966038047184e+001
 3.195961415035872e+000	 2.763413764417781e+000	 1.077153932134093e+001
 3.167207310501641e+000	 2.796323095077605e+000	 1.077583951841715e+001
 3.138104943623109e+000	 2.828943683171814e+000	 1.079310508547224e+001
 3.108658685530366e+000	 2.861270028609391e+000	 1.078734044100391e+001
 3.078873022642481e+000	 2.893296720037606e+000	 1.075793390604358e+001
 3.048752554401382e+000	 2.925018437850121e+000	 1.073306394893032e+001
 3.018301990911890e+000	 2.956429957125181e+000	 1.071388592705535e+001
 2.987526150490500e+000	 2.987526150490500e+000	 1.070154951305597e+001
 3.299501047172259e+000	 2.678767037190700e+000	 1.081634791962301e+001
 3.271652959324307e+000	 2.712708409240331e+000	 1.077700839548635e+001
 3.243442074581433e+000	 2.746376432436797e+000	 1.074933866767237e+001
 3.214872429326423e+000	 2.779765325159458e+000	 1.073389495886901e+001
 3.185948182162390e+000	 2.812869385586999e+000	 1.073123762525961e+001
 3.156673611930152e+000	 2.845682994912843e+000	 1.074192996171231e+001
 3.127053115624469e+000	 2.878200620501056e+000	 1.076653697804024e+001
 3.097091206211275e+000	 2.910416818979071e+000	 1.073981144882372e+001
 3.066792510348126e+000	 2.942326239263587e+000	 1.071352851603123e+001
 3.036161766010287e+000	 2.973923625516153e+000	 1.069338638397982e+001
 3.005203820025000e+000	 3.005203820025000e+000	 1.068056966616974e+001
 2.828427124725000e+000	 2.828427124725000e+000	 1.078410649116942e+001
 2.798986941651219e+000	 2.857564015070872e+000	 1.074502256200437e+001
 2.769248225173028e+000	 2.886392950923880e+000	 1.070587722052394e+001
 2.739215829607389e+000	 2.914909370564268e+000	 1.066760289468060e+001
 2.708894701625782e+000	 2.943108814721194e+000	 1.063112513563768e+001
 2.678289877541904e+000	 2.970986928893432e+000	 1.059736028050912e+001
 2.647406480529933e+000	 2.998539465583634e+000	 1.056721314019349e+001
 2.616249717776630e+000	 3.025762286443787e+000	 1.054157471841353e+001
 2.584824877570537e+000	 3.052651364329597e+000	 1.052131996796405e+001
 2.553137326331712e+000	 3.079202785261663e+000	 1.050730559004366e+001
 2.521192505585459e+000	 3.105412750291483e+000	 1.050036788239735e+001
 2.846104794250500e+000	 2.846104794250500e+000	 1.078424321521797e+001
 2.816480610033235e+000	 2.875423790160357e+000	 1.074743227799036e+001
 2.786556026577674e+000	 2.904432906861986e+000	 1.071045605578464e+001
 2.756335928540261e+000	 2.933127554124876e+000	 1.067429756952552e+001
 2.725825293509172e+000	 2.961503244807746e+000	 1.063993291839790e+001
 2.695029189275062e+000	 2.989555597193734e+000	 1.060832886270068e+001
 2.663952771031953e+000	 3.017280337238636e+000	 1.058044043223403e+001
 2.632601278511520e+000	 3.044673300729764e+000	 1.055720856650682e+001
 2.600980033054109e+000	 3.071730435353171e+000	 1.053955779294113e+001
 2.569094434619902e+000	 3.098447802667084e+000	 1.052839394912030e+001
 2.536949958743739e+000	 3.124821579979572e+000	 1.052460195497499e+001
 2.863782463777000e+000	 2.863782463776999e+000	 1.078207821978092e+001
 2.833974278416246e+000	 2.893283565250835e+000	 1.074786626606645e+001
 2.803863827983302e+000	 2.922472862801051e+000	 1.071338934997550e+001
 2.773456027474088e+000	 2.951345737686393e+000	 1.067968137571672e+001
 2.742755885393481e+000	 2.979897674895137e+000	 1.064776927630246e+001
 2.711768501009096e+000	 3.008124265494785e+000	 1.061867051586572e+001
 2.680499061534793e+000	 3.036021208894278e+000	 1.059339061795900e+001
 2.648952839247163e+000	 3.063584315016249e+000	 1.057292072629962e+001
 2.617135188538358e+000	 3.090809506377103e+000	 1.055823520431364e+001
 2.585051542908686e+000	 3.117692820072692e+000	 1.055028927969735e+001
 2.552707411902518e+000	 3.144230409667660e+000	 1.051641865521745e+001
 2.881460133304500e+000	 2.881460133304500e+000	 1.077760071600960e+001
 2.851467946800252e+000	 2.911143340342301e+000	 1.074630296058072e+001
 2.821171629389907e+000	 2.940512818741075e+000	 1.071464472959441e+001
 2.790576126408868e+000	 2.969563921248819e+000	 1.068371110887478e+001
 2.759686477278710e+000	 2.998292104983365e+000	 1.065458015908927e+001
 2.728507812744004e+000	 3.026692933796586e+000	 1.062832033686752e+001
 2.697045352038451e+000	 3.054762080550557e+000	 1.060598794236116e+001
 2.665304399983561e+000	 3.082495329303243e+000	 1.058862459988704e+001
 2.633290344023287e+000	 3.109888577401392e+000	 1.057725477818399e+001
 2.601008651198064e+000	 3.136937837478488e+000	 1.055398405885968e+001
 2.568464865061795e+000	 3.163639239355744e+000	 1.050834105146700e+001
 2.899137802833000e+000	 2.899137802833000e+000	 1.077079975696718e+001
 2.868961615185253e+000	 2.929003115434757e+000	 1.074272082978082e+001
 2.838479430797494e+000	 2.958552774682060e+000	 1.071419004811214e+001
 2.807696225344604e+000	 2.987782104812156e+000	 1.068634398565888e+001
 2.776617069164857e+000	 3.016686535072434e+000	 1.066031213249861e+001
 2.745247124479786e+000	 3.045261602099133e+000	 1.063721423433953e+001
 2.713591642542930e+000	 3.073502952207474e+000	 1.061815765868001e+001
 2.681655960720714e+000	 3.101406343590744e+000	 1.060423479470110e+001
 2.649445499508895e+000	 3.128967648426038e+000	 1.059090941132690e+001
 2.616965759488035e+000	 3.156182854884471e+000	 1.054634542820845e+001
 2.584222318221571e+000	 3.183048069043826e+000	 1.050070073904838e+001
 2.916815472362500e+000	 2.916815472362500e+000	 1.076166424241932e+001
 2.886455283571249e+000	 2.946862890528204e+000	 1.073709837478670e+001
 2.855787232206061e+000	 2.976592730624005e+000	 1.071199337909439e+001
 2.824816324281296e+000	 3.006000288376402e+000	 1.068753763100792e+001
 2.793547661051925e+000	 3.035080965162341e+000	 1.066491235960658e+001
 2.761986436216443e+000	 3.063830270402431e+000	 1.064528890408624e+001
 2.730137933048226e+000	 3.092243823865031e+000	 1.062982599784883e+001
 2.698007521458619e+000	 3.120317357878753e+000	 1.061966708698537e+001
 2.665600654995183e+000	 3.148046719451044e+000	 1.058320016144768e+001
 2.632922867778601e+000	 3.175427872290642e+000	 1.053887561519154e+001
 2.599979771381846e+000	 3.202456898731905e+000	 1.049352274012162e+001
 2.934493141892999e+000	 2.934493141893000e+000	 1.075018292345148e+001
 2.903948951958240e+000	 2.964722665622640e+000	 1.072941412860049e+001
 2.873095033615605e+000	 2.994632686566909e+000	 1.070802300957247e+001
 2.841936423218942e+000	 3.024218471941557e+000	 1.068725006584301e+001
 2.810478252939912e+000	 3.053475395253088e+000	 1.066832858283284e+001
 2.778725747953975e+000	 3.082398938706477e+000	 1.065248180537322e+001
 2.746684223554343e+000	 3.110984695523225e+000	 1.064092013904608e+001
 2.714359082197279e+000	 3.139228372167270e+000	 1.061716993753493e+001
 2.681755810482148e+000	 3.167125790476406e+000	 1.057541287929728e+001
 2.648879976069759e+000	 3.194672889697000e+000	 1.053161153552070e+001
 2.615737224542619e+000	 3.221865728419981e+000	 1.048683376910041e+001
 2.952170811424500e+000	 2.952170811424500e+000	 1.073634440692053e+001
 2.921442620346225e+000	 2.982582440718066e+000	 1.071964665515193e+001
 2.890402835026131e+000	 3.012672642510772e+000	 1.070224743365202e+001
 2.859056522157542e+000	 3.042436655507621e+000	 1.068543969521171e+001
 2.827408844828819e+000	 3.071869825344675e+000	 1.067050910659511e+001
 2.795465059692381e+000	 3.100967607011273e+000	 1.065873113806896e+001
 2.763230514061279e+000	 3.129725567182059e+000	 1.064636483023411e+001
 2.730710642936693e+000	 3.158139386456297e+000	 1.060855910664661e+001
 2.697910965969792e+000	 3.186204861502125e+000	 1.056759591591258e+001
 2.664837084361511e+000	 3.213917907103544e+000	 1.052459156552747e+001
 2.631494677703891e+000	 3.241274558108055e+000	 1.048066218198583e+001
 2.969848480956999e+000	 2.969848480956999e+000	 1.072013715974712e+001
 2.938936288735207e+000	 3.000442215814482e+000	 1.070777454837789e+001
 2.907710636437637e+000	 3.030712598455597e+000	 1.069463534635017e+001
 2.876176621097097e+000	 3.060654839074596e+000	 1.068206529685571e+001
 2.844339436718646e+000	 3.090264255437099e+000	 1.067140278058301e+001
 2.812204371431661e+000	 3.119536275316816e+000	 1.066397582060327e+001
 2.779776804569033e+000	 3.148466438841529e+000	 1.063640428211473e+001
 2.747062203676862e+000	 3.177050400745830e+000	 1.059970337957729e+001
 2.714066121458115e+000	 3.205283932528205e+000	 1.055979886418698e+001
 2.680794192653858e+000	 3.233162924510277e+000	 1.051785549869236e+001
 2.647252130865662e+000	 3.260683387796125e+000	 1.047503792750958e+001
 2.987526150490500e+000	 2.987526150490500e+000	 1.070154951305597e+001
 2.956429957125182e+000	 3.018301990911889e+000	 1.069377643133462e+001
 2.925018437850121e+000	 3.048752554401380e+000	 1.068515563765136e+001
 2.893296720037607e+000	 3.078873022642480e+000	 1.067708601018428e+001
 2.861270028609392e+000	 3.108658685530364e+000	 1.067095898362582e+001
 2.828943683171815e+000	 3.138104943623108e+000	 1.065688079240568e+001
 2.796323095077607e+000	 3.167207310501640e+000	 1.062600285506236e+001
 2.763413764417782e+000	 3.195961415035871e+000	 1.059066313161176e+001
 2.730221276947117e+000	 3.224363003554639e+000	 1.055207252212907e+001
 2.696751300946798e+000	 3.252407941917198e+000	 1.051144450371738e+001
 2.663009584027932e+000	 3.280092217484194e+000	 1.046999250001173e+001
 3.005203820025000e+000	 3.005203820025000e+000	 1.068056966616974e+001
 2.973923625516154e+000	 3.036161766010285e+000	 1.067763095534128e+001
 2.942326239263588e+000	 3.066792510348125e+000	 1.067377738677302e+001
 2.910416818979072e+000	 3.097091206211275e+000	 1.067046132563715e+001
 2.878200620501058e+000	 3.127053115624468e+000	 1.066776280498241e+001
 2.845682994912844e+000	 3.156673611930151e+000	 1.064440374190245e+001
 2.812869385587000e+000	 3.185948182162389e+000	 1.061523128326561e+001
 2.779765325159459e+000	 3.214872429326422e+000	 1.058149974295449e+001
 2.746376432436799e+000	 3.243442074581432e+000	 1.054446885741803e+001
 2.712708409240333e+000	 3.271652959324308e+000	 1.050540108407835e+001
 2.678767037190700e+000	 3.299501047172260e+000	 1.046555889398170e+001
 2.521192505585459e+000	 3.105412750291483e+000	 1.050036788239735e+001
 2.488995928882964e+000	 3.131277577270647e+000	 1.050659951615437e+001
 2.456553178674486e+000	 3.156793702520920e+000	 1.049158200886981e+001
 2.423869903137296e+000	 3.181957682404208e+000	 1.046769683893753e+001
 2.390951812960879e+000	 3.206766194791349e+000	 1.043658587934065e+001
 2.357804678095202e+000	 3.231216040427900e+000	 1.039988144110822e+001
 2.324434324465136e+000	 3.255304144196106e+000	 1.035920238448935e+001
 2.290846630654908e+000	 3.279027556272165e+000	 1.031615027129050e+001
 2.257047524566415e+000	 3.302383453178051e+000	 1.027230556829662e+001
 2.223042980055296e+000	 3.325369138727340e+000	 1.022922391148576e+001
 2.188839013548634e+000	 3.347982044864625e+000	 1.018843244050260e+001
 2.536949958743739e+000	 3.124821579979572e+000	 1.052460195497499e+001
 2.504552153436617e+000	 3.150848062128625e+000	 1.049371558644173e+001
 2.471906636039226e+000	 3.176523663162843e+000	 1.048557892861433e+001
 2.439019090029944e+000	 3.201844917921395e+000	 1.047199862400351e+001
 2.405895261790065e+000	 3.226808483511812e+000	 1.045063646250974e+001
 2.372540957331743e+000	 3.251411140684310e+000	 1.042311750633088e+001
 2.338962038991882e+000	 3.275649795101649e+000	 1.039105402982852e+001
 2.305164422095857e+000	 3.299521478503630e+000	 1.035604163241818e+001
 2.271154071594952e+000	 3.323023349765486e+000	 1.031965540197415e+001
 2.236936998681403e+000	 3.346152695849630e+000	 1.028344613860026e+001
 2.202519257384963e+000	 3.368906932650309e+000	 1.024893664837370e+001
 2.552707411902518e+000	 3.144230409667660e+000	 1.051641865521745e+001
 2.520108377990668e+000	 3.170418546986411e+000	 1.048894013950755e+001
 2.487260093404263e+000	 3.196253623804405e+000	 1.047558668706122e+001
 2.454168276922789e+000	 3.221732153438070e+000	 1.047110797357914e+001
 2.420838710619349e+000	 3.246850772231634e+000	 1.045829582794779e+001
 2.387277236568284e+000	 3.271606240939969e+000	 1.043876933649823e+001
 2.353489753518526e+000	 3.295995446006352e+000	 1.041413545479798e+001
 2.319482213536603e+000	 3.320015400734182e+000	 1.038598507933896e+001
 2.285260618623186e+000	 3.343663246351960e+000	 1.035588916918986e+001
 2.250831017307108e+000	 3.366936252970929e+000	 1.032539492761009e+001
 2.216199501220790e+000	 3.389831820434993e+000	 1.029602205337741e+001
 2.568464865061795e+000	 3.163639239355744e+000	 1.050834105146700e+001
 2.535664602545119e+000	 3.189989031844004e+000	 1.048344732263879e+001
 2.502613550769600e+000	 3.215983584445602e+000	 1.046372933001719e+001
 2.469317463815833e+000	 3.241619388954234e+000	 1.046522880584226e+001
 2.435782159448731e+000	 3.266893060950813e+000	 1.045978099548144e+001
 2.402013515804822e+000	 3.291801341194877e+000	 1.044706684788555e+001
 2.368017468045068e+000	 3.316341096910215e+000	 1.042868926565458e+001
 2.333800004977147e+000	 3.340509322963826e+000	 1.040623570070325e+001
 2.299367165651118e+000	 3.364303142937473e+000	 1.038127423242111e+001
 2.264725035932410e+000	 3.387719810091239e+000	 1.035534970541290e+001
 2.229879745056114e+000	 3.410756708218677e+000	 1.032997993671912e+001
 2.584222318221571e+000	 3.183048069043826e+000	 1.050070073904838e+001
 2.551220827099967e+000	 3.209559516701404e+000	 1.047727624025204e+001
 2.517967008135234e+000	 3.235713545086438e+000	 1.045873192628196e+001
 2.484466650709075e+000	 3.261506624469885e+000	 1.045456545959574e+001
 2.450725608278212e+000	 3.286935349669351e+000	 1.045530895242318e+001
 2.416749795041358e+000	 3.311996441449033e+000	 1.044823947468129e+001
 2.382545182571507e+000	 3.336686747813233e+000	 1.043495714076838e+001
 2.348117796417489e+000	 3.361003245192557e+000	 1.041704721545067e+001
 2.313473712678747e+000	 3.384943039522026e+000	 1.039607614678652e+001
 2.278619054557309e+000	 3.408503367210558e+000	 1.037358765827189e+001
 2.243559988890935e+000	 3.431681596001361e+000	 1.035109891025919e+001
 2.599979771381846e+000	 3.202456898731905e+000	 1.049352274012162e+001
 2.566777051655214e+000	 3.229130001558612e+000	 1.047046729301825e+001
 2.533320465501168e+000	 3.255443505726912e+000	 1.045200241414236e+001
 2.499615837602516e+000	 3.281393859985023e+000	 1.043932268152124e+001
 2.465669057107791e+000	 3.306977638387247e+000	 1.044509665455658e+001
 2.431486074277892e+000	 3.332191541702438e+000	 1.044251618359561e+001
 2.397072897097844e+000	 3.357032398715413e+000	 1.043317985874032e+001
 2.362435587857628e+000	 3.381497167420378e+000	 1.041867201431658e+001
 2.327580259706074e+000	 3.405582936105620e+000	 1.040055871481455e+001
 2.292513073181806e+000	 3.429286924328887e+000	 1.038038379971401e+001
 2.257240232725254e+000	 3.452606483783046e+000	 1.035966499740231e+001
 2.615737224542619e+000	 3.221865728419981e+000	 1.048683376910041e+001
 2.582333276210860e+000	 3.248700486415626e+000	 1.046306213881901e+001
 2.548673922867399e+000	 3.275173466367023e+000	 1.044359725709795e+001
 2.514765024496154e+000	 3.301281095499649e+000	 1.042937916737755e+001
 2.480612505937468e+000	 3.327019927104501e+000	 1.042936102708595e+001
 2.446222353514424e+000	 3.352386641955090e+000	 1.043012548794109e+001
 2.411600611624079e+000	 3.377378049616751e+000	 1.042359732550374e+001
 2.376753379297566e+000	 3.401991089647289e+000	 1.041136119983806e+001
 2.341686806733098e+000	 3.426222832688252e+000	 1.039498403923217e+001
 2.306407091805900e+000	 3.450070481446226e+000	 1.037601103597368e+001
 2.270920476559069e+000	 3.473531371563730e+000	 1.035596171106296e+001
 2.631494677703891e+000	 3.241274558108055e+000	 1.048066218198583e+001
 2.597889500766904e+000	 3.268270971272449e+000	 1.045510365510542e+001
 2.564027380233929e+000	 3.294903427006771e+000	 1.043357371887311e+001
 2.529914211389992e+000	 3.321168331013763e+000	 1.041699041918966e+001
 2.495555954767242e+000	 3.347062215821113e+000	 1.040831896555199e+001
 2.460958632750954e+000	 3.372581742206991e+000	 1.041129546120755e+001
 2.426128326150212e+000	 3.397723700517248e+000	 1.040644860045217e+001
 2.391071170737300e+000	 3.422485011873289e+000	 1.039536462492284e+001
 2.355793353759820e+000	 3.446862729269923e+000	 1.037961257385731e+001
 2.320301110429591e+000	 3.470854038562576e+000	 1.036074022908551e+001
 2.284600720392382e+000	 3.494456259343415e+000	 1.034027012882979e+001
 2.647252130865662e+000	 3.260683387796125e+000	 1.047503792750958e+001
 2.613445725323347e+000	 3.287841456129079e+000	 1.044663590260143e+001
 2.579380837600759e+000	 3.314633387646157e+000	 1.042198983960087e+001
 2.545063398284028e+000	 3.341055566527365e+000	 1.040199666369211e+001
 2.510499403597116e+000	 3.367104504537082e+000	 1.038754145030158e+001
 2.475694911987482e+000	 3.392776842458141e+000	 1.038625375015193e+001
 2.440656040676243e+000	 3.418069351416905e+000	 1.038197192163390e+001
 2.405388962176832e+000	 3.442978934098378e+000	 1.037093093004056e+001
 2.369899900786240e+000	 3.467502625850636e+000	 1.035470317267337e+001
 2.334195129052881e+000	 3.491637595677934e+000	 1.033484025772343e+001
 2.298280964225193e+000	 3.515381147122099e+000	 1.031286896544562e+001
 2.663009584027932e+000	 3.280092217484194e+000	 1.046999250001173e+001
 2.629001949880189e+000	 3.307411940985516e+000	 1.043770409029580e+001
 2.594734294967886e+000	 3.334363348285180e+000	 1.040890441285213e+001
 2.560212585178262e+000	 3.360942802040455e+000	 1.038447014499620e+001
 2.525442852427087e+000	 3.387146793252410e+000	 1.036526656616582e+001
 2.490431191224008e+000	 3.412971942708540e+000	 1.035522758742357e+001
 2.455183755202171e+000	 3.438415002315720e+000	 1.035040473005222e+001
 2.419706753616162e+000	 3.463472856322556e+000	 1.033830757909382e+001
 2.384006447812356e+000	 3.488142522430388e+000	 1.032051313716169e+001
 2.348089147675767e+000	 3.512421152792304e+000	 1.029857807588010e+001
 2.311961208057501e+000	 3.536306034899784e+000	 1.027403464271400e+001
 2.678767037190700e+000	 3.299501047172260e+000	 1.046555889398170e+001
 2.644558174437429e+000	 3.326982425841761e+000	 1.042835454166950e+001
 2.610087752335312e+000	 3.354093308923843e+000	 1.039437696347582e+001
 2.575361772072695e+000	 3.380830037553033e+000	 1.036448345789890e+001
 2.540386301257157e+000	 3.407189081967097e+000	 1.033952037166437e+001
 2.505167470460533e+000	 3.433167042958188e+000	 1.032032088307599e+001
 2.469711469727998e+000	 3.458760653213694e+000	 1.031198369310787e+001
 2.434024545055290e+000	 3.483966778545825e+000	 1.029774089402299e+001
 2.398112994838170e+000	 3.508782419009180e+000	 1.027729826196340e+001
 2.361983166298252e+000	 3.533204709905684e+000	 1.025221876947517e+001
 2.325641451889307e+000	 3.557230922676468e+000	 1.022404135693870e+001
 2.188839013548634e+000	 3.347982044864625e+000	 1.018843244050260e+001
 2.154441680648210e+000	 3.370219732398643e+000	 1.009638734577347e+001
 2.119857072723086e+000	 3.392079891627955e+000	 1.000864792820197e+001
 2.085091313495476e+000	 3.413560342859975e+000	 9.926248415387034e+000
 2.050150555623710e+000	 3.434659036824271e+000	 9.850185148845108e+000
 2.015040977286107e+000	 3.455374054979496e+000	 9.781413771985465e+000
 1.979768778769484e+000	 3.475703609714792e+000	 9.720846528656745e+000
 1.944340179066091e+000	 3.495646044446416e+000	 9.669349678748507e+000
 1.908761412482589e+000	 3.515199833610370e+000	 9.627741036912729e+000
 1.873038725264743e+000	 3.534363582552064e+000	 9.606338497502232e+000
 1.837178372241353e+000	 3.553136027314097e+000	 9.751112927490146e+000
 2.202519257384963e+000	 3.368906932650309e+000	 1.024893664837370e+001
 2.167906941154782e+000	 3.391283605731326e+000	 1.015588464286170e+001
 2.133106179430840e+000	 3.413280390955621e+000	 1.006752736110615e+001
 2.098123134208612e+000	 3.434895095007523e+000	 9.984973396875505e+000
 2.062963996600548e+000	 3.456125655808669e+000	 9.909292291721858e+000
 2.027634983398576e+000	 3.476970142826822e+000	 9.841511614925503e+000
 1.992142333641312e+000	 3.497426757278561e+000	 9.782614157193740e+000
 1.956492305189703e+000	 3.517493832226492e+000	 9.733535244798995e+000
 1.920691171314832e+000	 3.537169832571846e+000	 9.695160180411444e+000
 1.884745217301498e+000	 3.556453354943440e+000	 9.668321816433716e+000
 1.848660737071182e+000	 3.575343127484140e+000	 9.773397612898100e+000
 2.216199501220790e+000	 3.389831820434993e+000	 1.029602205337741e+001
 2.181372201660762e+000	 3.412347479063020e+000	 1.020246273663379e+001
 2.146355286137931e+000	 3.434480890282324e+000	 1.011398802157471e+001
 2.111154954921037e+000	 3.456229847154163e+000	 1.003178132901457e+001
 2.075777437576644e+000	 3.477592274792228e+000	 9.956985855163316e+000
 2.040228989510297e+000	 3.498566230673402e+000	 9.890701542564159e+000
 2.004515888512401e+000	 3.519149904841694e+000	 9.833982167993757e+000
 1.968644431312609e+000	 3.539341620006065e+000	 9.787832554212917e+000
 1.932620930146417e+000	 3.559139831532968e+000	 9.753205912015391e+000
 1.896451709337666e+000	 3.578543127334633e+000	 9.731001318563065e+000
 1.860143101900514e+000	 3.597550227654190e+000	 9.789035978679852e+000
 2.229879745056114e+000	 3.410756708218677e+000	 1.032997993671912e+001
 2.194837462166150e+000	 3.433411352393724e+000	 1.023639451978749e+001
 2.159604392844361e+000	 3.455681389608071e+000	 1.014828445265775e+001
 2.124186775632751e+000	 3.477564599299896e+000	 1.006690845694038e+001
 2.088590878552000e+000	 3.499058893774950e+000	 9.993483850878391e+000
 2.052822995621267e+000	 3.520162318519235e+000	 9.929183410288140e+000
 2.016889443382751e+000	 3.540873052404193e+000	 9.875132349695598e+000
 1.980796557434806e+000	 3.561189407785133e+000	 9.832405430762561e+000
 1.944550688977347e+000	 3.581109830493738e+000	 9.802024204643608e+000
 1.908158201373247e+000	 3.600632899725643e+000	 9.784954394444968e+000
 1.871625466729350e+000	 3.619757327824249e+000	 9.797288553489649e+000
 2.243559988890935e+000	 3.431681596001361e+000	 1.035109891025919e+001
 2.208302722670944e+000	 3.454475225723438e+000	 1.025795052420983e+001
 2.172853499550128e+000	 3.476881888932858e+000	 1.017066914397030e+001
 2.137218596343754e+000	 3.498899351444720e+000	 1.009058927842990e+001
 2.101404319526616e+000	 3.520525512756836e+000	 1.001900284785367e+001
 2.065417001731488e+000	 3.541758406364323e+000	 9.957155933821444e+000
 2.029262998252363e+000	 3.562596199966056e+000	 9.906245652622102e+000
 1.992948683556296e+000	 3.583037195563698e+000	 9.867417159403946e+000
 1.956480447807619e+000	 3.603079829454155e+000	 9.841760789919157e+000
 1.919864693408243e+000	 3.622722672116472e+000	 9.830309346217016e+000
 1.883107831557690e+000	 3.641964427994314e+000	 9.834035532142725e+000
 2.257240232725254e+000	 3.452606483783046e+000	 1.035966499740231e+001
 2.221767983175147e+000	 3.475539099052162e+000	 1.026739899251679e+001
 2.186102606255234e+000	 3.498082388256686e+000	 1.018139259391749e+001
 2.150250417054046e+000	 3.520234103588635e+000	 1.010305659685127e+001
 2.114217760500491e+000	 3.541992131737883e+000	 1.003375801607213e+001
 2.078011007840960e+000	 3.563354494208663e+000	 9.974816723760714e+000
 2.041636553121236e+000	 3.584319347527284e+000	 9.927502214183756e+000
 2.005100809677078e+000	 3.604884983341758e+000	 9.893030502604606e+000
 1.968410206637235e+000	 3.625049828414218e+000	 9.872561165481269e+000
 1.931571185442653e+000	 3.644812444507118e+000	 9.867194528492210e+000
 1.894590196385535e+000	 3.664171528164389e+000	 9.877969008420932e+000
 2.270920476559069e+000	 3.473531371563730e+000	 1.035596171106296e+001
 2.235233243678757e+000	 3.496602972379897e+000	 1.026500594700726e+001
 2.199351712959677e+000	 3.519282887579554e+000	 1.018070336967093e+001
 2.163282237763625e+000	 3.541568855731641e+000	 1.010454157220008e+001
 2.127031201473626e+000	 3.563458750718093e+000	 1.003796316865191e+001
 2.090605013949682e+000	 3.584950582052258e+000	 9.982362318862155e+000
 2.054010107989372e+000	 3.606042495087878e+000	 9.939081383363913e+000
 2.017252935797153e+000	 3.626732771119315e+000	 9.909407716081111e+000
 1.980339965466194e+000	 3.647019827373929e+000	 9.894570602032928e+000
 1.943277677476476e+000	 3.666902216897582e+000	 9.895738346778419e+000
 1.906072561212882e+000	 3.686378628334472e+000	 9.914015523806731e+000
 2.284600720392382e+000	 3.494456259343415e+000	 1.034027012882979e+001
 2.248698504181774e+000	 3.517666845706641e+000	 1.025103525613961e+001
 2.212600819663458e+000	 3.540483386901463e+000	 1.016884816498990e+001
 2.176314058472495e+000	 3.562903607873740e+000	 1.009527377030224e+001
 2.139844642446020e+000	 3.584925369697466e+000	 1.003183080247095e+001
 2.103199020057654e+000	 3.606546669895108e+000	 9.979988218132540e+000
 2.066383662856768e+000	 3.627765642647836e+000	 9.941161744324525e+000
 2.029405061916521e+000	 3.648580558896367e+000	 9.916710563971275e+000
 1.992269724294495e+000	 3.668989826333287e+000	 9.907934150135491e+000
 1.954984169509713e+000	 3.688991989287863e+000	 9.916069255954586e+000
 1.917554926039734e+000	 3.708585728504561e+000	 9.942287066645340e+000
 2.298280964225193e+000	 3.515381147122099e+000	 1.031286896544562e+001
 2.262163764684199e+000	 3.538730719032396e+000	 1.022574869863402e+001
 2.225849926366577e+000	 3.561683886222412e+000	 1.014607185597774e+001
 2.189345879180652e+000	 3.584238360014931e+000	 1.007548121025948e+001
 2.152658083417674e+000	 3.606391988676002e+000	 1.001557213734081e+001
 2.115793026164877e+000	 3.628142757737210e+000	 9.967888911774111e+000
 2.078757217723426e+000	 3.649488790207160e+000	 9.933921139168509e+000
 2.041557188035180e+000	 3.670428346672916e+000	 9.915100333464514e+000
 2.004199483122141e+000	 3.690959825292291e+000	 9.912796646760315e+000
 1.966690661542363e+000	 3.711081761677962e+000	 9.928315758801316e+000
 1.929037290866090e+000	 3.730792828674659e+000	 9.962895932695162e+000
 2.311961208057501e+000	 3.536306034899784e+000	 1.027403464271400e+001
 2.275629025186031e+000	 3.559794592357162e+000	 1.018940602529916e+001
 2.239099033069035e+000	 3.582884385542403e+000	 1.011261755485871e+001
 2.202377699888098e+000	 3.605573112155212e+000	 1.004539041021039e+001
 2.165471524388587e+000	 3.627858607653700e+000	 9.989397153789726e+000
 2.128387032271351e+000	 3.649738845578567e+000	 9.946257911030985e+000
 2.091130772589345e+000	 3.671211937765847e+000	 9.917536689894329e+000
 2.053709314153132e+000	 3.692276134448962e+000	 9.904737848912692e+000
 2.016129241949130e+000	 3.712929824250943e+000	 9.909302721608235e+000
 1.978397153574427e+000	 3.733171534067878e+000	 9.932606404583709e+000
 1.940519655691950e+000	 3.752999928844765e+000	 9.961509814156560e+000
 2.325641451889307e+000	 3.557230922676468e+000	 1.022404135693870e+001
 2.289094285687273e+000	 3.580858465680938e+000	 1.014226501867654e+001
 2.252348139770831e+000	 3.604084884861436e+000	 1.006872666185664e+001
 2.215409520594834e+000	 3.626907864294587e+000	 1.000522643147641e+001
 2.178284965358761e+000	 3.649325226630562e+000	 9.953514629512075e+000
 2.140981038377075e+000	 3.671334933419178e+000	 9.915287776981900e+000
 2.103504327454526e+000	 3.692935085323902e+000	 9.892184819575387e+000
 2.065861440270377e+000	 3.714123922224504e+000	 9.885783485443049e+000
 2.028059000775461e+000	 3.734899823209242e+000	 9.897596803205618e+000
 1.990103645605906e+000	 3.755261306457614e+000	 9.906805832366846e+000
 1.952002020517314e+000	 3.775207029014879e+000	 9.861394821315519e+000
 1.837178372241353e+000	 3.553136027314097e+000	 9.751112927490146e+000
 1.801186613490626e+000	 3.571516034323234e+000	 9.702570249741790e+000
 1.765069711033149e+000	 3.589502599978649e+000	 9.677052529065614e+000
 1.728833925554609e+000	 3.607094850142330e+000	 9.669561433578913e+000
 1.692485513160645e+000	 3.624292039533032e+000	 9.675215730407478e+000
 1.656030722167825e+000	 3.641093551026176e+000	 9.689261678395946e+000
 1.619475789933608e+000	 3.657498894861322e+000	 9.707082977412231e+000
 1.582826939728251e+000	 3.673507707759193e+000	 9.724210255642159e+000
 1.546090377651535e+000	 3.689119751950340e+000	 9.736330077950566e+000
 1.509272289597061e+000	 3.704334914117635e+000	 9.739293460090533e+000
 1.472378838266780e+000	 3.719153204254850e+000	 9.729123875263229e+000
 1.848660737071182e+000	 3.575343127484140e+000	 9.773397612898100e+000
 1.812444029827717e+000	 3.593838009536003e+000	 9.748005304211917e+000
 1.776101396729454e+000	 3.611936991225818e+000	 9.741355431632735e+000
 1.739639137591369e+000	 3.629639192952212e+000	 9.748307669583921e+000
 1.703063547619757e+000	 3.646943864775933e+000	 9.763845035859465e+000
 1.666380914183165e+000	 3.663850385715368e+000	 9.783084484216456e+000
 1.629597513622535e+000	 3.680358262949078e+000	 9.801287040122757e+000
 1.592719608103564e+000	 3.696467130927287e+000	 9.813867460776265e+000
 1.555753442514155e+000	 3.712176750394490e+000	 9.816403402233693e+000
 1.518705241409742e+000	 3.727487007325320e+000	 9.804644078231105e+000
 1.481581206009164e+000	 3.742397911776015e+000	 9.774518397042327e+000
 1.860143101900514e+000	 3.597550227654190e+000	 9.789035978679852e+000
 1.823701446164401e+000	 3.616159984748968e+000	 9.788053942221129e+000
 1.787133082425423e+000	 3.634371382473355e+000	 9.801558184997912e+000
 1.750444349627841e+000	 3.652183535762613e+000	 9.824263402353616e+000
 1.713641582078610e+000	 3.669595690019477e+000	 9.851013903254101e+000
 1.676731106198255e+000	 3.686607220405313e+000	 9.876794407012808e+000
 1.639719237311201e+000	 3.703217631037676e+000	 9.896740369605704e+000
 1.602612276478584e+000	 3.719426554096292e+000	 9.906147820406375e+000
 1.565416507376430e+000	 3.735233748839598e+000	 9.900482691933302e+000
 1.528138193222008e+000	 3.750639100533996e+000	 9.873485267993619e+000
 1.490783573751044e+000	 3.765642619298180e+000	 9.796312191533538e+000
 1.871625466729350e+000	 3.619757327824249e+000	 9.797288553489649e+000
 1.834958862500679e+000	 3.638481959962132e+000	 9.822001525862181e+000
 1.798164768121055e+000	 3.656805773721259e+000	 9.856970213894318e+000
 1.761249561664025e+000	 3.674727878573525e+000	 9.896761327115696e+000
 1.724219616537204e+000	 3.692247515263667e+000	 9.936077485584301e+000
 1.687081298213094e+000	 3.709364055096013e+000	 9.969768225017090e+000
 1.649840960999605e+000	 3.726076999127117e+000	 9.992840517817632e+000
 1.612504944853312e+000	 3.742385977266210e+000	 1.000046879053726e+001
 1.575079572238362e+000	 3.758290747285667e+000	 9.953119582548608e+000
 1.537571145033860e+000	 3.773791193743660e+000	 9.870724316556823e+000
 1.499985941492418e+000	 3.788887326821345e+000	 9.792807756175623e+000
 1.883107831557690e+000	 3.641964427994314e+000	 9.834035532142725e+000
 1.846216278836551e+000	 3.660803935175493e+000	 9.849133706290088e+000
 1.809196453816351e+000	 3.679240164969528e+000	 9.906901191842945e+000
 1.772054773699922e+000	 3.697272221384957e+000	 9.965134365494329e+000
 1.734797650995538e+000	 3.714899340508502e+000	 1.001839115765062e+001
 1.697431490227682e+000	 3.732120889787467e+000	 1.006138295139224e+001
 1.659962684687748e+000	 3.748936367217400e+000	 1.008898530238009e+001
 1.622397613227745e+000	 3.765345400437039e+000	 1.001680997422639e+001
 1.584742637099949e+000	 3.781347745732698e+000	 9.935813869142319e+000
 1.547004096845296e+000	 3.796943286954316e+000	 9.854614878928317e+000
 1.509188309233287e+000	 3.812132034345510e+000	 9.775698389368225e+000
 1.894590196385535e+000	 3.664171528164389e+000	 9.877969008420932e+000
 1.857473695172016e+000	 3.683125910389052e+000	 9.868736414962617e+000
 1.820228139511309e+000	 3.701674556218166e+000	 9.950661033613496e+000
 1.782859985735530e+000	 3.719816564196905e+000	 1.002871565864940e+001
 1.745375685453614e+000	 3.737551165753983e+000	 1.009731050933976e+001
 1.707781682242020e+000	 3.754877724479675e+000	 1.012109444803246e+001
 1.670084408375628e+000	 3.771795735308527e+000	 1.005639958797881e+001
 1.632290281601886e+000	 3.788304823608781e+000	 9.983685340986625e+000
 1.594405701961192e+000	 3.804404744180690e+000	 9.905802219063068e+000
 1.556437048656318e+000	 3.820095380165963e+000	 9.825471802171704e+000
 1.518390676973651e+000	 3.835376741870674e+000	 9.745281814142640e+000
 1.906072561212882e+000	 3.686378628334472e+000	 9.914015523806731e+000
 1.868731111507075e+000	 3.705447885602808e+000	 9.880095855197544e+000
 1.831259825205930e+000	 3.724108947467171e+000	 9.987559887957877e+000
 1.793665197770850e+000	 3.742360907009369e+000	 1.008683856066420e+001
 1.755953719911430e+000	 3.760202991000108e+000	 1.010735362920504e+001
 1.718131874256108e+000	 3.777634559172638e+000	 1.006356825350085e+001
 1.680206132063246e+000	 3.794655103400496e+000	 1.000628537278653e+001
 1.642182949975734e+000	 3.811264246781434e+000	 9.938583234950254e+000
 1.604068766822090e+000	 3.827461742629642e+000	 9.863416419549120e+000
 1.565870000466925e+000	 3.843247473378598e+000	 9.783610368208906e+000
 1.527593044713509e+000	 3.858621449396840e+000	 9.701856282410159e+000
 1.917554926039734e+000	 3.708585728504561e+000	 9.942287066645340e+000
 1.879988527841727e+000	 3.727769860816763e+000	 9.903315014771810e+000
 1.842291510900214e+000	 3.746543338716541e+000	 1.001690813060473e+001
 1.804470409805882e+000	 3.764905249822349e+000	 1.004499451429011e+001
 1.766531754368987e+000	 3.782854816246878e+000	 1.002981897081942e+001
 1.728482066269945e+000	 3.800391393866354e+000	 9.995388673014054e+000
 1.690327855750603e+000	 3.817514471493309e+000	 9.945005022727855e+000
 1.652075618349288e+000	 3.834223669954998e+000	 9.881851691835493e+000
 1.613731831682645e+000	 3.850518741079556e+000	 9.808988604079689e+000
 1.575302952277116e+000	 3.866399566592224e+000	 9.729346280800449e+000
 1.536795412452863e+000	 3.881866156924004e+000	 9.645720559127254e+000
 1.929037290866090e+000	 3.730792828674659e+000	 9.962895932695162e+000
 1.891245944175973e+000	 3.750091836030914e+000	 9.943890437153556e+000
 1.853323196594162e+000	 3.768977729966281e+000	 9.925056379448927e+000
 1.815275621840627e+000	 3.787449592635845e+000	 9.946464883060697e+000
 1.777109788826285e+000	 3.805506641494295e+000	 9.942584379343785e+000
 1.738832258283532e+000	 3.823148228560824e+000	 9.916934098994890e+000
 1.700449579437698e+000	 3.840373839586965e+000	 9.872922165099654e+000
 1.661968286722550e+000	 3.857183093129475e+000	 9.813839025217195e+000
 1.623394896542856e+000	 3.873575739530430e+000	 9.742851242070101e+000
 1.584735904086894e+000	 3.889551659806841e+000	 9.662995652990666e+000
 1.545997780191711e+000	 3.905110864452169e+000	 9.577173907026474e+000
 1.940519655691950e+000	 3.752999928844765e+000	 9.961509814156560e+000
 1.902503360509814e+000	 3.772413811245263e+000	 9.857334437623374e+000
 1.864354882287772e+000	 3.791412121216387e+000	 9.804616791123550e+000
 1.826080833875083e+000	 3.809993935449857e+000	 9.839262917919863e+000
 1.787687823283324e+000	 3.828158466742356e+000	 9.846042636193728e+000
 1.749182450296869e+000	 3.845905063256049e+000	 9.828583125669388e+000
 1.710571303124530e+000	 3.863233207681463e+000	 9.790400655402291e+000
 1.671860955095518e+000	 3.880142516304862e+000	 9.734893818306345e+000
 1.633057961402722e+000	 3.896632737982265e+000	 9.665337128932956e+000
 1.594168855896256e+000	 3.912703753022449e+000	 9.584874994998797e+000
 1.555200147930054e+000	 3.928355571981333e+000	 9.496516071889294e+000
 1.952002020517314e+000	 3.775207029014879e+000	 9.861394821315519e+000
 1.913760776843248e+000	 3.794735786459811e+000	 9.765129407991731e+000
 1.875386567981046e+000	 3.813846512466861e+000	 9.678065867128733e+000
 1.836886045909252e+000	 3.832538278264387e+000	 9.723795206822494e+000
 1.798265857740104e+000	 3.850810291991064e+000	 9.740586707711332e+000
 1.759532642309955e+000	 3.868661897952027e+000	 9.730714543131205e+000
 1.720693026811102e+000	 3.886092575776805e+000	 9.697804570627678e+000
 1.681753623468194e+000	 3.903101939481164e+000	 9.645364916019535e+000
 1.642721026262245e+000	 3.919689736435061e+000	 9.576779376489945e+000
 1.603601807705203e+000	 3.935855846239046e+000	 9.495301202537283e+000
 1.564402515667893e+000	 3.951600279511499e+000	 9.404047268338825e+000
 1.472378838266780e+000	 3.719153204254850e+000	 9.729123875263229e+000
 1.435416160238980e+000	 3.733574754443465e+000	 9.592697408052075e+000
 1.398390363090334e+000	 3.747599817550745e+000	 9.432124489998584e+000
 1.361307522575100e+000	 3.761228765851377e+000	 9.280744171415417e+000
 1.324173679865362e+000	 3.774462089574614e+000	 9.148496561122160e+000
 1.286994838852476e+000	 3.787300395380251e+000	 9.032977071831313e+000
 1.249776963512204e+000	 3.799744404765942e+000	 8.936053438350875e+000
 1.212525975335377e+000	 3.811794952408591e+000	 8.976644014410798e+000
 1.175247750825766e+000	 3.823452984442648e+000	 9.120596088351823e+000
 1.137948119066730e+000	 3.834719556678107e+000	 9.355958011352845e+000
 1.100632859358089e+000	 3.845595832761096e+000	 9.671473610573477e+000
 1.481581206009164e+000	 3.742397911776015e+000	 9.774518397042327e+000
 1.444387511244183e+000	 3.756909596653516e+000	 9.616325059222971e+000
 1.407130302863686e+000	 3.771022316405464e+000	 9.460488168522385e+000
 1.369815694595396e+000	 3.784736445633262e+000	 9.320322225067290e+000
 1.332449765368725e+000	 3.798052477630096e+000	 9.197599335954127e+000
 1.295038556599349e+000	 3.810971022847385e+000	 9.093942721688782e+000
 1.257588069537882e+000	 3.823492807292140e+000	 9.010824465263024e+000
 1.220104262684472e+000	 3.835618670858001e+000	 9.030306678728492e+000
 1.182593049271041e+000	 3.847349565592751e+000	 9.160906533802653e+000
 1.145060294812717e+000	 3.858686553905199e+000	 9.378383482434431e+000
 1.107511814729950e+000	 3.869630806714263e+000	 9.671159407459491e+000
 1.490783573751044e+000	 3.765642619298180e+000	 9.796312191533538e+000
 1.453358862248797e+000	 3.780244438864562e+000	 9.628994665504303e+000
 1.415870242636395e+000	 3.794444815261164e+000	 9.477635115332665e+000
 1.378323866615027e+000	 3.808244125416102e+000	 9.344203100937866e+000
 1.340725850871430e+000	 3.821642865686497e+000	 9.230517792629875e+000
 1.303082274345602e+000	 3.834641650315390e+000	 9.138245308405789e+000
 1.265399175563006e+000	 3.847241209819156e+000	 9.068896422995350e+000
 1.227682550033111e+000	 3.859442389308157e+000	 9.074803354078663e+000
 1.189938347715986e+000	 3.871246146743528e+000	 9.195012352339475e+000
 1.152172470558532e+000	 3.882653551132882e+000	 9.397398983014256e+000
 1.114390770101823e+000	 3.893665780667925e+000	 9.670057858387651e+000
 1.499985941492418e+000	 3.788887326821345e+000	 9.792807756175623e+000
 1.462330213252820e+000	 3.803579281076603e+000	 9.627246245116551e+000
 1.424610182408461e+000	 3.817867314117842e+000	 9.479852900179166e+000
 1.386832038633990e+000	 3.831751805199894e+000	 9.352649862780528e+000
 1.349001936373475e+000	 3.845233253743814e+000	 9.247504729311196e+000
 1.311125992091233e+000	 3.858312277784267e+000	 9.166127838407917e+000
 1.273210281587577e+000	 3.870989612346985e+000	 9.110069938518443e+000
 1.235260837381293e+000	 3.883266107759067e+000	 9.109078467448622e+000
 1.197283646160601e+000	 3.895142727894979e+000	 9.221920499340257e+000
 1.159284646304174e+000	 3.906620548361151e+000	 9.412072877290871e+000
 1.121269725473710e+000	 3.917700754622081e+000	 9.667297565207141e+000
 1.509188309233287e+000	 3.812132034345510e+000	 9.775698389368225e+000
 1.471301564256254e+000	 3.826914123289639e+000	 9.611365306767755e+000
 1.433350122179882e+000	 3.841289812975499e+000	 9.467415802194688e+000
 1.395340210652287e+000	 3.855259484984642e+000	 9.345926009240158e+000
 1.357278021874861e+000	 3.868823641802051e+000	 9.248813322392122e+000
 1.319169709836242e+000	 3.881982905254017e+000	 9.177833632723397e+000
 1.281021387611593e+000	 3.894738014875632e+000	 9.134578952520002e+000
 1.242839124729019e+000	 3.907089826210726e+000	 9.132076612562353e+000
 1.204628944604887e+000	 3.919039309047104e+000	 9.240638012843412e+000
 1.166396822049644e+000	 3.930587545590012e+000	 9.421473521397736e+000
 1.128148680845609e+000	 3.941735728576730e+000	 9.662007024414509e+000
 1.518390676973651e+000	 3.835376741870674e+000	 9.745281814142640e+000
 1.480272915259099e+000	 3.850248965503670e+000	 9.581637870210386e+000
 1.442090061950661e+000	 3.864712311834137e+000	 9.440598570338226e+000
 1.403848382669918e+000	 3.878767164770342e+000	 9.324295460674577e+000
 1.365554107375588e+000	 3.892414029861205e+000	 9.234697115037490e+000
 1.327213427580630e+000	 3.905653532724637e+000	 9.173606317449783e+000
 1.288832493635056e+000	 3.918486417405095e+000	 9.142657642369279e+000
 1.250417412076288e+000	 3.930913544663134e+000	 9.143315431848151e+000
 1.211974243048844e+000	 3.942935890199903e+000	 9.250172011043134e+000
 1.173508997794939e+000	 3.954554542819459e+000	 9.424669263647232e+000
 1.135027636217520e+000	 3.965770702531872e+000	 9.653314630346079e+000
 1.527593044713509e+000	 3.858621449396840e+000	 9.701856282410159e+000
 1.489244266261353e+000	 3.873583807718694e+000	 9.538350450848359e+000
 1.450830001720796e+000	 3.888134810693752e+000	 9.399676409243526e+000
 1.412356554686883e+000	 3.902274844556996e+000	 9.288022546452371e+000
 1.373830192875656e+000	 3.916004417921276e+000	 9.205410006135544e+000
 1.335257145324397e+000	 3.929324160196131e+000	 9.153689814565118e+000
 1.296643599657965e+000	 3.942234819935373e+000	 9.134540414988143e+000
 1.257995699423102e+000	 3.954737263116293e+000	 9.149465607743874e+000
 1.219319541492471e+000	 3.966832471353377e+000	 9.249529689874933e+000
 1.180621173540062e+000	 3.978521540049497e+000	 9.420728444766676e+000
 1.141906591589444e+000	 3.989805676487508e+000	 9.640348678254963e+000
 1.536795412452863e+000	 3.881866156924004e+000	 9.645720559127254e+000
 1.498215617263019e+000	 3.896918649934715e+000	 9.481790044897295e+000
 1.459569941490289e+000	 3.911557309554347e+000	 9.344924965576348e+000
 1.420864726703181e+000	 3.925782524344604e+000	 9.237371992707029e+000
 1.382106278375064e+000	 3.939594805982265e+000	 9.161206239647527e+000
 1.343300863067542e+000	 3.952994787668496e+000	 9.118328333069075e+000
 1.304454705680321e+000	 3.965983222466468e+000	 9.110461899978164e+000
 1.265573986769459e+000	 3.978560981570201e+000	 9.139151469425922e+000
 1.226664839935769e+000	 3.990729052507526e+000	 9.237718320688124e+000
 1.187733349285012e+000	 4.002488537280124e+000	 9.408719398125035e+000
 1.148785546961380e+000	 4.013840650443639e+000	 9.622237367277799e+000
 1.545997780191711e+000	 3.905110864452169e+000	 9.577173907026474e+000
 1.507186968264094e+000	 3.920253492151730e+000	 9.412244115074504e+000
 1.468309881259137e+000	 3.934979808415923e+000	 9.276620314878491e+000
 1.429372898718813e+000	 3.949290204133165e+000	 9.172608910528455e+000
 1.390382363873814e+000	 3.963185194044173e+000	 9.102340394337723e+000
 1.351344580810066e+000	 3.976665415141733e+000	 9.067766360440814e+000
 1.312265811702122e+000	 3.989731624998377e+000	 9.070656942993386e+000
 1.273152274115359e+000	 4.002384700024860e+000	 9.112598678102028e+000
 1.234010138378738e+000	 4.014625633662349e+000	 9.213745248001303e+000
 1.194845525029790e+000	 4.026455534511339e+000	 9.387710449952103e+000
 1.155664502333329e+000	 4.037875624400262e+000	 9.598108803295231e+000
 1.555200147930054e+000	 3.928355571981333e+000	 9.496516071889294e+000
 1.516158319264580e+000	 3.943588334369741e+000	 9.330000576797259e+000
 1.477049821027342e+000	 3.958402307278478e+000	 9.195038948879352e+000
 1.437881070733778e+000	 3.972797883922680e+000	 9.093998784573756e+000
 1.398658449371906e+000	 3.986775582106999e+000	 9.029067373867983e+000
 1.359388298551968e+000	 4.000336042615841e+000	 9.002248654399930e+000
 1.320076917723370e+000	 4.013480027531105e+000	 9.015360599348133e+000
 1.280730561460803e+000	 4.026208418480270e+000	 9.070033038204747e+000
 1.241355436821378e+000	 4.038522214817848e+000	 9.176617887337711e+000
 1.201957700774394e+000	 4.050422531743143e+000	 9.356769919549773e+000
 1.162543457705291e+000	 4.061910598357380e+000	 9.567091001690963e+000
 1.564402515667893e+000	 3.951600279511499e+000	 9.404047268338825e+000
 1.525129670264477e+000	 3.966923176588746e+000	 9.235347784868068e+000
 1.485789760794904e+000	 3.981824806142011e+000	 9.100457763254999e+000
 1.446389242748077e+000	 3.996305563713150e+000	 9.001807462079951e+000
 1.406934534869337e+000	 4.010365970170742e+000	 8.941642397241880e+000
 1.367432016293249e+000	 4.024006670090824e+000	 8.922020234958103e+000
 1.327888023744064e+000	 4.037228430064648e+000	 8.944808127850488e+000
 1.288308848805791e+000	 4.050032136936429e+000	 9.011680493179004e+000
 1.248700735263688e+000	 4.062418795974019e+000	 9.125343723136638e+000
 1.209069876518826e+000	 4.074389528975536e+000	 9.314966119495626e+000
 1.169422413077266e+000	 4.085945572314992e+000	 9.528311890013507e+000
 1.100632859358089e+000	 3.845595832761096e+000	 9.671473610573477e+000
 1.063307698924287e+000	 3.856083082280073e+000	 9.737849581338857e+000
 1.025978310695547e+000	 3.866182678820226e+000	 9.800128783237557e+000
 9.886503111632028e-001	 3.875896097969085e+000	 9.849091803966436e+000
 9.513292583092484e-001	 3.885224915276652e+000	 9.876312918442718e+000
 9.140206496115856e-001	 3.894170804172645e+000	 9.874162710930213e+000
 8.767299201255320e-001	 3.902735533843881e+000	 9.835808903274135e+000
 8.394624406421662e-001	 3.910920967074734e+000	 9.755215430981204e+000
 8.022235159239728e-001	 3.918729058053592e+000	 9.627139812564982e+000
 7.650183830181295e-001	 3.926161850148238e+000	 9.447128861007355e+000
 7.278522096476668e-001	 3.933221473652993e+000	 9.211512789357936e+000
 1.107511814729950e+000	 3.869630806714263e+000	 9.671159407459491e+000
 1.069953372042454e+000	 3.880183601543291e+000	 9.700164162483528e+000
 1.032390675136383e+000	 3.890346320562340e+000	 9.730572213554849e+000
 9.948293756061443e-001	 3.900120448581363e+000	 9.752909599182967e+000
 9.572750661711160e-001	 3.909507570997548e+000	 9.758504881477421e+000
 9.197332786684378e-001	 3.918509371699555e+000	 9.739492033549920e+000
 8.822094821225219e-001	 3.927127630931612e+000	 9.688811502587619e+000
 8.447090808918907e-001	 3.935364223120498e+000	 9.600209490689638e+000
 8.072374128937938e-001	 3.943221114668281e+000	 9.468235499315105e+000
 7.697997479069533e-001	 3.950700361713788e+000	 9.288238186694521e+000
 7.324012859526674e-001	 3.957804107865683e+000	 9.056359590793292e+000
 1.114390770101823e+000	 3.893665780667925e+000	 9.670057858387651e+000
 1.076599045160822e+000	 3.904284120806908e+000	 9.666511122463303e+000
 1.038803039577591e+000	 3.914509962304769e+000	 9.669545521096026e+000
 1.001008440049605e+000	 3.924344799193880e+000	 9.669428280917263e+000
 9.632208740336319e-001	 3.933790226718624e+000	 9.657238386594534e+000
 9.254459077260465e-001	 3.942847939226587e+000	 9.624869732982742e+000
 8.876890441203563e-001	 3.951519728019421e+000	 9.565032421870459e+000
 8.499557211425282e-001	 3.959807479166306e+000	 9.471252245781658e+000
 8.122513098645763e-001	 3.967713171282988e+000	 9.337868405129981e+000
 7.745811127967671e-001	 3.975238873279343e+000	 9.160029508594469e+000
 7.369503622586678e-001	 3.982386742078373e+000	 8.933687909891875e+000
 1.121269725473710e+000	 3.917700754622081e+000	 9.667297565207141e+000
 1.083244718279394e+000	 3.928384640070924e+000	 9.636034384239345e+000
 1.045215404019170e+000	 3.938673604047511e+000	 9.616209267659349e+000
 1.007187504493586e+000	 3.948569149806639e+000	 9.597826320330151e+000
 9.691666818967961e-001	 3.958072882439873e+000	 9.571711038420615e+000
 9.311585367844111e-001	 3.967186506753740e+000	 9.529513725821555e+000
 8.931686061190352e-001	 3.975911825107309e+000	 9.463711023435598e+000
 8.552023613940782e-001	 3.984250735212158e+000	 9.367605594189566e+000
 8.172652068363199e-001	 3.992205227897715e+000	 9.235324010529544e+000
 7.793624776875714e-001	 3.999777384844903e+000	 9.061812894804604e+000
 7.414994385656684e-001	 4.006969376291065e+000	 8.842833366319436e+000
 1.128148680845609e+000	 3.941735728576730e+000	 9.662007024414509e+000
 1.089890391398167e+000	 3.952485159335339e+000	 9.607878727417118e+000
 1.051627768461121e+000	 3.962837245790567e+000	 9.569725764247609e+000
 1.013366568938087e+000	 3.972793500419638e+000	 9.537284761062059e+000
 9.751124897606083e-001	 3.982355538161299e+000	 9.501123768243410e+000
 9.368711658435324e-001	 3.991525074281014e+000	 9.452645940636927e+000
 8.986481681185585e-001	 4.000303922195273e+000	 9.384091298292724e+000
 8.604490016465412e-001	 4.008693991258054e+000	 9.288536610966974e+000
 8.222791038090250e-001	 4.016697284512461e+000	 9.159893453624465e+000
 7.841438425793662e-001	 4.024315896410467e+000	 8.992904483901958e+000
 7.460485148736690e-001	 4.031552010503755e+000	 8.783137995937947e+000
 1.135027636217520e+000	 3.965770702531872e+000	 9.653314630346079e+000
 1.096536064517142e+000	 3.976585678600152e+000	 9.581189762287860e+000
 1.058040132903442e+000	 3.987000887533941e+000	 9.529259018062223e+000
 1.019545633383108e+000	 3.997017851032876e+000	 9.486987141279398e+000
 9.810582976250686e-001	 4.006638193882901e+000	 9.444680733203686e+000
 9.425837949034102e-001	 4.015863641808413e+000	 9.393492196402171e+000
 9.041277301189266e-001	 4.024696019283315e+000	 9.325421725884601e+000
 8.656956418999169e-001	 4.033137247303993e+000	 9.233317391406349e+000
 8.272930007826913e-001	 4.041189341127226e+000	 9.110873358674278e+000
 7.889252074721512e-001	 4.048854407976037e+000	 8.952626300989499e+000
 7.505975911826697e-001	 4.056134644716447e+000	 8.753950056375670e+000
 1.141906591589444e+000	 3.989805676487508e+000	 9.640348678254963e+000
 1.103181737636320e+000	 4.000686197865364e+000	 9.555113904807566e+000
 1.064452497346135e+000	 4.011164529277626e+000	 9.493974681412562e+000
 1.025724697828648e+000	 4.021242201646355e+000	 9.446119418538160e+000
 9.870041054901774e-001	 4.030920849604679e+000	 9.401589219131321e+000
 9.482964239640440e-001	 4.040202209335932e+000	 9.351282085312398e+000
 9.096072921201390e-001	 4.049088116371435e+000	 9.286955138893438e+000
 8.709422821542051e-001	 4.057580503349975e+000	 9.201224899826883e+000
 8.323068977573193e-001	 4.065681397742011e+000	 9.087565670841704e+000
 7.937065723659268e-001	 4.073392919541611e+000	 8.940306080391018e+000
 7.551466674926702e-001	 4.080717278929137e+000	 8.754623839624394e+000
 1.148785546961380e+000	 4.013840650443639e+000	 9.622237367277799e+000
 1.109827410755699e+000	 4.024786717130976e+000	 9.528798352475590e+000
 1.070864861789199e+000	 4.035328171021625e+000	 9.463040002461515e+000
 1.031903762274709e+000	 4.045466552260072e+000	 9.413869897347071e+000
 9.929499133559342e-001	 4.055203505326632e+000	 9.371059546871605e+000
 9.540090530254344e-001	 4.064540776863573e+000	 9.325248859813952e+000
 9.150868541221959e-001	 4.073480213459632e+000	 9.267948592904174e+000
 8.761889224094063e-001	 4.082023759396003e+000	 9.191540823795430e+000
 8.373207947329083e-001	 4.090173454356815e+000	 9.089277496884261e+000
 7.984879372606925e-001	 4.097931431107190e+000	 8.955277094716223e+000
 7.596957438036709e-001	 4.105299913141828e+000	 8.784519491369903e+000
 1.155664502333329e+000	 4.037875624400262e+000	 9.598108803295231e+000
 1.116473083875282e+000	 4.048887236396987e+000	 9.501391061074129e+000
 1.077277226232635e+000	 4.059491812765941e+000	 9.435623777729697e+000
 1.038082826721289e+000	 4.069690902874031e+000	 9.389429159317720e+000
 9.988957212223394e-001	 4.079486161048761e+000	 9.352304981957596e+000
 9.597216820875809e-001	 4.088879344391335e+000	 9.314629323668129e+000
 9.205664161250972e-001	 4.097872310547907e+000	 9.267663240723095e+000
 8.814355626655205e-001	 4.106467015442072e+000	 9.203551433553264e+000
 8.423346917094587e-001	 4.114665510971639e+000	 9.115320951535370e+000
 8.032693021564485e-001	 4.122469942672775e+000	 8.996877990031290e+000
 7.642448201156715e-001	 4.129882547354518e+000	 8.843002836774845e+000
 1.162543457705291e+000	 4.061910598357380e+000	 9.567091001690963e+000
 1.123118756995066e+000	 4.072987755663395e+000	 9.472040722234041e+000
 1.083689590676441e+000	 4.083655454510569e+000	 9.410896306285956e+000
 1.044261891168390e+000	 4.093915253488230e+000	 9.371989995794834e+000
 1.004841529089393e+000	 4.103768816771067e+000	 9.344541647489145e+000
 9.654343111504837e-001	 4.113217911919220e+000	 9.318663726882887e+000
 9.260459781288432e-001	 4.122264407636261e+000	 9.285364211157866e+000
 8.866822029225470e-001	 4.130910271488185e+000	 9.236547446434543e+000
 8.473485886869706e-001	 4.139157567586482e+000	 9.165013009339345e+000
 8.080506670531952e-001	 4.147008454238363e+000	 9.064452626880211e+000
 7.687938964286722e-001	 4.154465181567210e+000	 8.929445212447000e+000
 1.169422413077266e+000	 4.085945572314992e+000	 9.528311890013507e+000
 1.129764430115052e+000	 4.097088274930204e+000	 9.439896741792097e+000
 1.090101955120620e+000	 4.107819096255514e+000	 9.388029345554987e+000
 1.050440955616010e+000	 4.118139604102669e+000	 9.360747342863881e+000
 1.010787336957094e+000	 4.128051472493549e+000	 9.346988440086703e+000
 9.711469402141435e-001	 4.137556479447227e+000	 9.336595664352563e+000
 9.315255401334336e-001	 4.146656504724692e+000	 9.320320492076792e+000
 8.919288431804867e-001	 4.155353527534343e+000	 9.289823896068871e+000
 8.523624856654437e-001	 4.163649624201344e+000	 9.237675361715747e+000
 8.128320319509323e-001	 4.171546965803957e+000	 9.157349926918107e+000
 7.733429727426728e-001	 4.179047815779902e+000	 9.043223304337664e+000
 7.278522096476668e-001	 3.933221473652993e+000	 9.211512789357936e+000
 6.907300926805886e-001	 3.939910143510855e+000	 8.701913600138971e+000
 6.536570566772164e-001	 3.946230157012450e+000	 8.476714725558137e+000
 6.166380525152104e-001	 3.952183891475303e+000	 8.548686048744390e+000
 5.796779560922222e-001	 3.957773801906782e+000	 8.729001286105511e+000
 5.427815671060731e-001	 3.963002418652466e+000	 8.834330926370035e+000
 5.059536079119456e-001	 3.967872345032922e+000	 8.876873012268703e+000
 4.691987224560958e-001	 3.972386254971537e+000	 8.867826058077839e+000
 4.325214752855112e-001	 3.976546890615961e+000	 8.817408201304120e+000
 3.959263506328420e-001	 3.980357059955668e+000	 8.734877626144693e+000
 3.594177515758589e-001	 3.983819634438112e+000	 8.628554168399580e+000
 7.324012859526674e-001	 3.957804107865683e+000	 9.056359590793292e+000
 6.950471557543670e-001	 3.964534581910347e+000	 8.602910613305346e+000
 6.577424132758770e-001	 3.970894095496459e+000	 8.421784078118812e+000
 6.204920403378419e-001	 3.976885040799777e+000	 8.517033142977939e+000
 5.833009433122732e-001	 3.982509888171469e+000	 8.730408813177279e+000
 5.461739518951028e-001	 3.987771183771772e+000	 8.869153254310652e+000
 5.091158179562323e-001	 3.992671547192009e+000	 8.945464336266285e+000
 4.721312144665811e-001	 3.997213669067587e+000	 8.970525615236193e+000
 4.352247345015545e-001	 4.001400308684580e+000	 8.954525963797616e+000
 3.984008903202563e-001	 4.005234291582396e+000	 8.906680488984698e+000
 3.616641125196922e-001	 4.008718507155041e+000	 8.835252646376622e+000
 7.369503622586678e-001	 3.982386742078373e+000	 8.933687909891875e+000
 6.993642188291456e-001	 3.989159020309839e+000	 8.533982869862928e+000
 6.618277698755376e-001	 3.995558033980466e+000	 8.394375190610024e+000
 6.243460281614734e-001	 4.001586190124250e+000	 8.512981351925738e+000
 5.869239305333242e-001	 4.007245974436155e+000	 8.755733007706112e+000
 5.495663366851327e-001	 4.012539948891079e+000	 8.924470546895877e+000
 5.122780280015188e-001	 4.017470749351095e+000	 9.031391300096972e+000
 4.750637064780663e-001	 4.022041083163637e+000	 9.087663168457578e+000
 4.379279937185980e-001	 4.026253726753200e+000	 9.103444741168408e+000
 4.008754300086707e-001	 4.030111523209127e+000	 9.087906717457845e+000
 3.639104734645255e-001	 4.033617379871969e+000	 9.049254539428679e+000
 7.414994385656684e-001	 4.006969376291065e+000	 8.842833366319436e+000
 7.036812819049239e-001	 4.013783458709330e+000	 8.494563497170113e+000
 6.659131264761982e-001	 4.020221972464474e+000	 8.394015903505668e+000
 6.282000159861050e-001	 4.026287339448724e+000	 8.538418966220604e+000
 5.905469177553754e-001	 4.031982060700842e+000	 8.804438161575176e+000
 5.529587214761623e-001	 4.037308714010385e+000	 8.999818568566145e+000
 5.154402380478056e-001	 4.042269951510182e+000	 9.134262366920517e+000
 4.779961984905516e-001	 4.046868497259686e+000	 9.218921068219336e+000
 4.406312529366414e-001	 4.051107144821819e+000	 9.263921920980437e+000
 4.033499696980849e-001	 4.054988754835856e+000	 9.278389845956296e+000
 3.661568344103588e-001	 4.058516252588897e+000	 9.270470597364430e+000
 7.460485148736690e-001	 4.031552010503755e+000	 8.783137995937947e+000
 7.079983449817026e-001	 4.038407897108823e+000	 8.484090585276423e+000
 6.699984830778585e-001	 4.044885910948482e+000	 8.420237589955267e+000
 6.320540038117365e-001	 4.050988488773199e+000	 8.588637605132133e+000
 5.941699049784264e-001	 4.056718146965530e+000	 8.875989311263908e+000
 5.563511062681921e-001	 4.062077479129690e+000	 9.094732470988062e+000
 5.186024480950923e-001	 4.067069153669269e+000	 9.253684054631586e+000
 4.809286905040369e-001	 4.071695911355737e+000	 9.363978412421963e+000
 4.433345121556847e-001	 4.075960562890438e+000	 9.435710356369182e+000
 4.058245093884992e-001	 4.079865986462586e+000	 9.477957618316472e+000
 3.684031953571920e-001	 4.083415125305826e+000	 9.498804549279861e+000
 7.505975911826697e-001	 4.056134644716447e+000	 8.753950056375670e+000
 7.123154080594807e-001	 4.063032335508314e+000	 8.502007036538263e+000
 6.740838396805190e-001	 4.069549849432490e+000	 8.472575048733798e+000
 6.359079916383679e-001	 4.075689638097672e+000	 8.662542137339312e+000
 5.977928922024773e-001	 4.081454233230216e+000	 8.969852215284764e+000
 5.597434910612218e-001	 4.086846244248997e+000	 9.208746811624019e+000
 5.217646581433789e-001	 4.091868355828354e+000	 9.389260994807650e+000
 4.838611825185223e-001	 4.096523325451788e+000	 9.522511144951404e+000
 4.460377713757281e-001	 4.100813980959058e+000	 9.618558503447870e+000
 4.082990490799135e-001	 4.104743218089316e+000	 9.686432163290151e+000
 3.706495563050253e-001	 4.108313998022754e+000	 9.734153316306534e+000
 7.551466674926702e-001	 4.080717278929137e+000	 8.754623839624394e+000
 7.166324711382593e-001	 4.087656773907806e+000	 8.547760420669780e+000
 6.781691962841796e-001	 4.094213787916498e+000	 8.550566401059438e+000
 6.397619794659996e-001	 4.100390787422146e+000	 8.759758477833337e+000
 6.014158794275284e-001	 4.106190319494901e+000	 9.085493332434778e+000
 5.631358758552515e-001	 4.111615009368302e+000	 9.341395571629453e+000
 5.249268681926655e-001	 4.116667557987442e+000	 9.540595989525352e+000
 4.867936745340075e-001	 4.121350739547839e+000	 9.694192150679946e+000
 4.487410305967716e-001	 4.125667399027677e+000	 9.812210553748825e+000
 4.107735887723278e-001	 4.129620449716045e+000	 9.903630163674286e+000
 3.728959172538585e-001	 4.133212870739683e+000	 9.976407216671554e+000
 7.596957438036709e-001	 4.105299913141828e+000	 8.784519491369903e+000
 7.209495342180375e-001	 4.112281212307298e+000	 8.620802835001546e+000
 6.822545528888403e-001	 4.118877726400506e+000	 8.653752991119800e+000
 6.436159672946310e-001	 4.125091936746620e+000	 8.879914481699956e+000
 6.050388666535795e-001	 4.130926405759588e+000	 9.222379800829291e+000
 5.665282606502812e-001	 4.136383774487609e+000	 9.492212173107587e+000
 5.280890782429523e-001	 4.141466760146528e+000	 9.707290066136654e+000
 4.897261665504928e-001	 4.146178153643888e+000	 9.878691347053252e+000
 4.514442898188151e-001	 4.150520817096297e+000	 1.001640656190475e+001
 4.132481284657421e-001	 4.154497681342776e+000	 1.012936301936268e+001
 3.751422782036917e-001	 4.158111743456611e+000	 1.022545016338869e+001
 7.642448201156715e-001	 4.129882547354518e+000	 8.843002836774845e+000
 7.252665972988160e-001	 4.136905650706790e+000	 8.720590769730190e+000
 6.863399094945006e-001	 4.143541664884513e+000	 8.781679290149773e+000
 6.474699551242626e-001	 4.149793086071094e+000	 9.022639886378636e+000
 6.086618538806304e-001	 4.155662492024275e+000	 9.379979417684011e+000
 5.699206454463109e-001	 4.161152539606915e+000	 9.660729495747905e+000
 5.312512882942390e-001	 4.166265962305615e+000	 9.888942530087094e+000
 4.926586585679781e-001	 4.171005567739937e+000	 1.007567577240648e+001
 4.541475490418583e-001	 4.175374235164916e+000	 1.023088256877126e+001
 4.157226681601563e-001	 4.179374912969506e+000	 1.036343700457593e+001
 3.773886391545250e-001	 4.183010616173539e+000	 1.048115985488988e+001
 7.687938964286722e-001	 4.154465181567210e+000	 8.929445212447000e+000
 7.295836603805946e-001	 4.161530089106282e+000	 8.846584977951705e+000
 6.904252661011612e-001	 4.168205603368522e+000	 8.933892803915681e+000
 6.513239429548943e-001	 4.174494235395568e+000	 9.187566255971696e+000
 6.122848411086815e-001	 4.180398578288960e+000	 9.557760619815308e+000
 5.733130302433406e-001	 4.185921304726221e+000	 9.846479892874255e+000
 5.344134983465257e-001	 4.191065164464702e+000	 1.008515101586042e+001
 4.955911505864634e-001	 4.195832981835987e+000	 1.028480967114524e+001
 4.568508082659017e-001	 4.200227653233537e+000	 1.045537072017700e+001
 4.181972078555706e-001	 4.204252144596235e+000	 1.060565341950803e+001
 3.796350001063584e-001	 4.207909488890468e+000	 1.074340795888897e+001
 7.733429727426728e-001	 4.179047815779902e+000	 9.043223304337664e+000
 7.339007234633732e-001	 4.186154527505775e+000	 8.998250350282444e+000
 6.945106227088217e-001	 4.192869541852530e+000	 9.109943983464302e+000
 6.551779307865256e-001	 4.199195384720042e+000	 9.374326927518785e+000
 6.159078283377327e-001	 4.205134664553649e+000	 9.755192464827678e+000
 5.767054150413704e-001	 4.210690069845527e+000	 1.004899520692550e+001
 5.375757083998125e-001	 4.215864366623789e+000	 1.029551153612410e+001
 4.985236426059487e-001	 4.220660395932038e+000	 1.050575457592020e+001
 4.595540674909452e-001	 4.225081071302156e+000	 1.068959938148442e+001
 4.206717475519851e-001	 4.229129376222967e+000	 1.085580873662166e+001
 3.818813610591916e-001	 4.232808361607396e+000	 1.101206028975516e+001
 3.594177515758589e-001	 3.983819634438112e+000	 8.628554168399580e+000
 3.229999992710687e-001	 3.986937546585482e+000	 8.452000806259601e+000
 2.866773322591905e-001	 3.989713787615519e+000	 8.283475728071979e+000
 2.504539058424694e-001	 3.992151405067931e+000	 8.128582394453662e+000
 2.143337915336599e-001	 3.994253500437820e+000	 7.992071954455345e+000
 1.783209765742107e-001	 3.996023226819399e+000	 7.877869662444739e+000
 1.424193635209339e-001	 3.997463786561715e+000	 7.789101954394446e+000
 1.066327698999317e-001	 3.998578428938315e+000	 7.728124099684729e+000
 7.096492792649740e-002	 3.999370447832836e+000	 7.696548346355433e+000
 3.541948428966121e-002	 3.999843179442312e+000	 7.695272479709459e+000
 0.000000000000000e+000	 4.000000000000000e+000	 7.724508716313454e+000
 3.616641125196922e-001	 4.008718507155041e+000	 8.835252646376622e+000
 3.250187492635377e-001	 4.011855906253005e+000	 8.696807766141403e+000
 2.884690655833330e-001	 4.014649498789190e+000	 8.565268845762775e+000
 2.520192427519624e-001	 4.017102351350427e+000	 8.446166218998229e+000
 2.156733777291356e-001	 4.019217584816156e+000	 8.344167297257387e+000
 1.794354826765607e-001	 4.020998371987436e+000	 8.263103513454503e+000
 1.433094845420301e-001	 4.022447935227989e+000	 8.205997930623301e+000
 1.072992247111848e-001	 4.023569544119328e+000	 8.175093429990209e+000
 7.140845872566388e-002	 4.024366513131858e+000	 8.171881395078364e+000
 3.564085606630450e-002	 4.024842199313842e+000	 8.197130810418527e+000
 0.000000000000000e+000	 4.025000000000000e+000	 8.250917695637991e+000
 3.639104734645255e-001	 4.033617379871969e+000	 9.049254539428679e+000
 3.270374992569964e-001	 4.036774265920530e+000	 8.947226974768457e+000
 2.902607989084344e-001	 4.039585209962862e+000	 8.851250536296980e+000
 2.535845796623630e-001	 4.042053297632920e+000	 8.766779736770744e+000
 2.170129639254478e-001	 4.044181669194492e+000	 8.698395289404635e+000
 1.805499887796560e-001	 4.045973517155472e+000	 8.649831589441153e+000
 1.441996055637612e-001	 4.047432083894266e+000	 8.624004865939558e+000
 1.079656795229425e-001	 4.048560659300342e+000	 8.623041917056865e+000
 7.185198952518571e-002	 4.049362578430878e+000	 8.648309343991338e+000
 3.586222784313484e-002	 4.049841219185374e+000	 8.700443200829836e+000
 0.000000000000000e+000	 4.050000000000000e+000	 8.779378979764406e+000
 3.661568344103588e-001	 4.058516252588897e+000	 9.270470597364430e+000
 3.290562492514448e-001	 4.061692625588052e+000	 9.203244239483418e+000
 2.920525322344945e-001	 4.064520921136532e+000	 9.141482391420096e+000
 2.551499165736715e-001	 4.067004243915415e+000	 9.090561010599503e+000
 2.183525501225966e-001	 4.069145753572830e+000	 9.054971110535146e+000
 1.816644948834969e-001	 4.070948662323509e+000	 9.038346790927152e+000
 1.450897265861269e-001	 4.072416232560541e+000	 9.043493943544915e+000
 1.086321343352048e-001	 4.073551774481353e+000	 9.072419545711220e+000
 7.229552032506288e-002	 4.074358643729899e+000	 9.126361455145512e+000
 3.608359962015221e-002	 4.074840239056904e+000	 9.205818622038336e+000
 0.000000000000000e+000	 4.074999999999999e+000	 9.310581636496561e+000
 3.684031953571920e-001	 4.083415125305826e+000	 9.498804549279861e+000
 3.310749992468829e-001	 4.086610985255576e+000	 9.464837220620279e+000
 2.938442655615136e-001	 4.089456632310205e+000	 9.436016762232553e+000
 2.567152534858878e-001	 4.091955190197909e+000	 9.417637801784855e+000
 2.196921363205818e-001	 4.094109837951165e+000	 9.414098610706223e+000
 1.827790009880833e-001	 4.095923807491546e+000	 9.428929693690728e+000
 1.459798476091275e-001	 4.097400381226817e+000	 9.464823059657535e+000
 1.092985891479719e-001	 4.098542889662367e+000	 9.523662084505569e+000
 7.273905112529538e-002	 4.099354709028920e+000	 9.606551877976436e+000
 3.630497139735663e-002	 4.099839258928434e+000	 9.713850069114461e+000
 0.000000000000000e+000	 4.100000000000000e+000	 9.845197927107575e+000
 3.706495563050253e-001	 4.108313998022754e+000	 9.734153316306534e+000
 3.330937492433106e-001	 4.111529344923100e+000	 9.731975678385073e+000
 2.956359988894915e-001	 4.114392343483876e+000	 9.734897039209521e+000
 2.582805903990116e-001	 4.116906136480402e+000	 9.748127882266429e+000
 2.210317225194036e-001	 4.119073922329503e+000	 9.775970653714778e+000
 1.838935070934152e-001	 4.120898952659582e+000	 9.821848922241495e+000
 1.468699686327628e-001	 4.122384529893092e+000	 9.888337226149778e+000
 1.099650439612437e-001	 4.123534004843380e+000	 9.977191516515800e+000
 7.318258192588324e-002	 4.124350774327941e+000	 1.008938010726398e+001
 3.652634317474809e-002	 4.124838278799965e+000	 1.022511504522844e+001
 0.000000000000000e+000	 4.125000000000000e+000	 1.038388381562864e+001
 3.728959172538585e-001	 4.133212870739683e+000	 9.976407216671554e+000
 3.351124992407280e-001	 4.136447704590624e+000	 1.000462171080940e+001
 2.974277322184281e-001	 4.139328054657547e+000	 1.003815792209821e+001
 2.598459273130434e-001	 4.141857082762898e+000	 1.008213933550785e+001
 2.223713087190620e-001	 4.144038006707840e+000	 1.014076944801027e+001
 1.850080131994925e-001	 4.145874097827619e+000	 1.021736150979964e+001
 1.477600896570330e-001	 4.147368678559366e+000	 1.031436895862915e+001
 1.106314987750200e-001	 4.148525120024392e+000	 1.043341645456590e+001
 7.362611272682640e-002	 4.149346839626961e+000	 1.057533142453546e+001
 3.674771495232660e-002	 4.149837298671496e+000	 1.074017602827275e+001
 0.000000000000000e+000	 4.150000000000000e+000	 1.092727945972986e+001
 3.751422782036917e-001	 4.158111743456611e+000	 1.022545016338869e+001
 3.371312492391351e-001	 4.161366064258147e+000	 1.028272998315865e+001
 2.992194655483239e-001	 4.164263765831219e+000	 1.034582568012055e+001
 2.614112642279828e-001	 4.166808029045392e+000	 1.041977084657027e+001
 2.237108949195569e-001	 4.169002091086175e+000	 1.050866686571529e+001
 1.861225193063153e-001	 4.170849242995655e+000	 1.061571324534025e+001
 1.486502106819379e-001	 4.172352827225643e+000	 1.074323865057867e+001
 1.112979535893010e-001	 4.173516235205405e+000	 1.089273254153449e+001
 7.406964352812494e-002	 4.174342904925983e+000	 1.106487732361291e+001
 3.696908673009215e-002	 4.174836318543028e+000	 1.125958092072049e+001
 0.000000000000000e+000	 4.175000000000000e+000	 1.147600968396467e+001
 3.773886391545250e-001	 4.183010616173539e+000	 1.048115985488988e+001
 3.391499992385319e-001	 4.186284423925672e+000	 1.056624794914433e+001
 3.010111988791782e-001	 4.189199477004890e+000	 1.065791840288145e+001
 2.629766011438300e-001	 4.191758975327886e+000	 1.076111198182738e+001
 2.250504811208884e-001	 4.193966175464512e+000	 1.087982475025457e+001
 1.872370254138836e-001	 4.195824388163691e+000	 1.101713900824228e+001
 1.495403317074776e-001	 4.197336975891918e+000	 1.117525493413504e+001
 1.119644084040868e-001	 4.198507350386418e+000	 1.135552283636535e+001
 7.451317432977879e-002	 4.199338970225004e+000	 1.155847592096209e+001
 3.719045850804473e-002	 4.199835338414558e+000	 1.178386348341797e+001
 0.000000000000000e+000	 4.199999999999999e+000	 1.203068443611221e+001
 3.796350001063584e-001	 4.207909488890468e+000	 1.074340795888897e+001
 3.411687492389183e-001	 4.211202783593194e+000	 1.085511606428414e+001
 3.028029322109916e-001	 4.214135188178561e+000	 1.097444624236841e+001
 2.645419380605849e-001	 4.216709921610381e+000	 1.110624345874793e+001
 2.263900673230564e-001	 4.218930259842848e+000	 1.125439521306351e+001
 1.883515315221974e-001	 4.220799533331728e+000	 1.142186309105975e+001
 1.504304527336521e-001	 4.222321124558195e+000	 1.161071502805647e+001
 1.126308632193772e-001	 4.223498465567431e+000	 1.182215818637333e+001
 7.495670513178798e-002	 4.224335035524025e+000	 1.205657235147148e+001
 3.741183028618436e-002	 4.224834358286088e+000	 1.231354375397658e+001
 0.000000000000000e+000	 4.224999999999999e+000	 1.259189922731899e+001
 3.818813610591916e-001	 4.232808361607396e+000	 1.101206028975516e+001
 3.431874992402947e-001	 4.236121143260720e+000	 1.114926799173077e+001
 3.045946655437639e-001	 4.239070899352234e+000	 1.129541164641150e+001
 2.661072749782476e-001	 4.241660867892877e+000	 1.145523740615958e+001
 2.277296535260610e-001	 4.243894344221187e+000	 1.163252091982130e+001
 1.894660376312568e-001	 4.245774678499766e+000	 1.183009951089646e+001
 1.513205737604614e-001	 4.247305273224471e+000	 1.204990507341051e+001
 1.132973180351722e-001	 4.248489580748445e+000	 1.229299758640972e+001
 7.540023593415254e-002	 4.249331100823046e+000	 1.255959915026319e+001
 3.763320206451105e-002	 4.249833378157620e+000	 1.284912845039526e+001
 0.000000000000000e+000	 4.250000000000000e+000	 1.316023555670563e+001
 4.250000000000000e+000	 0.000000000000000e+000	 1.025892982878812e+001
 4.249833378157620e+000	 3.763320206450985e-002	 1.028821325021215e+001
 4.249331100823047e+000	 7.540023593415146e-002	 1.031318855139489e+001
 4.248489580748444e+000	 1.132973180351712e-001	 1.033353683244012e+001
 4.247305273224471e+000	 1.513205737604605e-001	 1.034910064071685e+001
 4.245774678499766e+000	 1.894660376312561e-001	 1.035989451051156e+001
 4.243894344221186e+000	 2.277296535260605e-001	 1.036611558728536e+001
 4.241660867892875e+000	 2.661072749782472e-001	 1.036815431408127e+001
 4.239070899352234e+000	 3.045946655437635e-001	 1.036660515646438e+001
 4.236121143260720e+000	 3.431874992402945e-001	 1.036227734123658e+001
 4.232808361607396e+000	 3.818813610591916e-001	 1.035620558305409e+001
 4.275000000000000e+000	 0.000000000000000e+000	 1.037140027580925e+001
 4.274832398029148e+000	 3.785457384283890e-002	 1.039821823925057e+001
 4.274327166122059e+000	 7.584376673652557e-002	 1.042064069668319e+001
 4.273480695929435e+000	 1.139637728509879e-001	 1.043825605473321e+001
 4.272289421890707e+000	 1.522106947873083e-001	 1.045081509759311e+001
 4.270749823667742e+000	 1.905805437403758e-001	 1.045824174885329e+001
 4.268858428599435e+000	 2.290692397291523e-001	 1.046064392262678e+001
 4.266611814175251e+000	 2.676726118960291e-001	 1.045832444115361e+001
 4.264006610525748e+000	 3.063863988766920e-001	 1.045179199488455e+001
 4.261039502928045e+000	 3.452062492418691e-001	 1.044177211987750e+001
 4.257707234324079e+000	 3.841277220122707e-001	 1.042921816620117e+001
 4.300000000000000e+000	 0.000000000000000e+000	 1.047324403560079e+001
 4.299831417900671e+000	 3.807594562098566e-002	 1.049897221061066e+001
 4.299323231421049e+000	 7.628729753856345e-002	 1.052016328060997e+001
 4.298471811110385e+000	 1.146302276663430e-001	 1.053631069656804e+001
 4.297273570556867e+000	 1.531008158135985e-001	 1.054707124123763e+001
 4.295724968835597e+000	 1.916950498488709e-001	 1.055227601700534e+001
 4.293822512977509e+000	 2.304088259315823e-001	 1.055194152779319e+001
 4.291562760457388e+000	 2.692379488131417e-001	 1.054628083183502e+001
 4.288942321698952e+000	 3.081781322089742e-001	 1.053571474093796e+001
 4.285957862594973e+000	 3.472249992428509e-001	 1.052088304064734e+001
 4.282606107040270e+000	 3.863740829648416e-001	 1.050265570457040e+001
 4.324999999999999e+000	 0.000000000000000e+000	 1.056418777972891e+001
 4.324830437772191e+000	 3.829731739895016e-002	 1.059024016472208e+001
 4.324319296720021e+000	 7.673082834026511e-002	 1.061155958944486e+001
 4.323462926291289e+000	 1.152966824812367e-001	 1.062754226526611e+001
 4.322257719222950e+000	 1.539909368393308e-001	 1.063774871332370e+001
 4.320700114003333e+000	 1.928095559567414e-001	 1.064191498225586e+001
 4.318786597355409e+000	 2.317484121333504e-001	 1.063996396481331e+001
 4.316513706739286e+000	 2.708032857295852e-001	 1.063201678980728e+001
 4.313878032871841e+000	 3.099698655406102e-001	 1.061840426460780e+001
 4.310876222261504e+000	 3.492437492432402e-001	 1.059967834219059e+001
 4.307504979755969e+000	 3.886204439169040e-001	 1.057662358554058e+001
 4.350000000000000e+000	 0.000000000000000e+000	 1.064396446317256e+001
 4.349829457643704e+000	 3.851868917673237e-002	 1.067179318897450e+001
 4.349315362018976e+000	 7.717435914163061e-002	 1.069463879334988e+001
 4.348454041472150e+000	 1.159631372956689e-001	 1.071179794236324e+001
 4.347241867888955e+000	 1.548810578645055e-001	 1.072273261345843e+001
 4.345675259170945e+000	 1.939240620639871e-001	 1.072708154695589e+001
 4.343750681733135e+000	 2.330879983344565e-001	 1.072467180133322e+001
 4.341464653020945e+000	 2.723686226453594e-001	 1.071553038836871e+001
 4.338813744044418e+000	 3.117615988715999e-001	 1.069989596296155e+001
 4.335794581927638e+000	 3.512624992430367e-001	 1.067823054119959e+001
 4.332403852471177e+000	 3.908668048684583e-001	 1.065123121902940e+001
 4.374999999999999e+000	 0.000000000000000e+000	 1.071231314479740e+001
 4.374828477515215e+000	 3.874006095433233e-002	 1.074340828380458e+001
 4.374311427317912e+000	 7.761788994265988e-002	 1.076921577826812e+001
 4.373445156652968e+000	 1.166295921096397e-001	 1.078893042148906e+001
 4.372226016554886e+000	 1.557711788891225e-001	 1.080191334324178e+001
 4.370650404338438e+000	 1.950385681706083e-001	 1.080770369894622e+001
 4.368714766110685e+000	 2.344275845349007e-001	 1.080603046759869e+001
 4.366415599302367e+000	 2.739339595604644e-001	 1.079682433415957e+001
 4.363749455216683e+000	 3.135533322019432e-001	 1.078022963080577e+001
 4.360712941593377e+000	 3.532812492422403e-001	 1.075661631018453e+001
 4.357302725185893e+000	 3.931131658195044e-001	 1.072659192256365e+001
 4.400000000000000e+000	 0.000000000000000e+000	 1.057847291364216e+001
 4.399827497386720e+000	 3.896143273174999e-002	 1.060699121548955e+001
 4.399307492616827e+000	 7.806142074335290e-002	 1.063430952016542e+001
 4.398436271833743e+000	 1.172960469231490e-001	 1.065981142889263e+001
 4.397210165220736e+000	 1.566612999131817e-001	 1.068291667798648e+001
 4.395625549505810e+000	 1.961530742766048e-001	 1.070308302538543e+001
 4.393678850488062e+000	 2.357671707346830e-001	 1.071980811086451e+001
 4.391366545583549e+000	 2.754992964749001e-001	 1.073263128489881e+001
 4.388685166388635e+000	 3.153450655316404e-001	 1.074113540104720e+001
 4.385631301258717e+000	 3.552999992408514e-001	 1.074494856664284e+001
 4.382201597900116e+000	 3.953595267700419e-001	 1.074374584650441e+001
 4.425000000000000e+000	 0.000000000000000e+000	 1.045790745246792e+001
 4.424826517258218e+000	 3.918280450898538e-002	 1.048209487636694e+001
 4.424303557915724e+000	 7.850495154370979e-002	 1.050605356201485e+001
 4.423427387014476e+000	 1.179625017361969e-001	 1.052915321817380e+001
 4.422194313886512e+000	 1.575514209366833e-001	 1.055079938244380e+001
 4.420600694673061e+000	 1.972675803819767e-001	 1.057043532165354e+001
 4.418642934865264e+000	 2.371067569338034e-001	 1.058754390609239e+001
 4.416317491864494e+000	 2.770646333886667e-001	 1.060164945250974e+001
 4.413620877560276e+000	 3.171367988606912e-001	 1.061231953070923e+001
 4.410549660923660e+000	 3.573187492388696e-001	 1.061916672848053e+001
 4.407100470613848e+000	 3.976058877200713e-001	 1.062185036953787e+001
 4.449999999999999e+000	 0.000000000000000e+000	 1.035037311464656e+001
 4.449825537129715e+000	 3.940417628603850e-002	 1.036993015425123e+001
 4.449299623214602e+000	 7.894848234373043e-002	 1.039020391612502e+001
 4.448418502195165e+000	 1.186289565487833e-001	 1.041055007971036e+001
 4.447178462552209e+000	 1.584415419596270e-001	 1.043035986780751e+001
 4.445575839840191e+000	 1.983820864867240e-001	 1.044906196146187e+001
 4.443607019242291e+000	 2.384463431322619e-001	 1.046612438883766e+001
 4.441268438145198e+000	 2.786299703017640e-001	 1.048105638296098e+001
 4.438556588731602e+000	 3.189285321890958e-001	 1.049341020311561e+001
 4.435468020588207e+000	 3.593374992362952e-001	 1.050278291458895e+001
 4.431999343327089e+000	 3.998522486695924e-001	 1.050881812139047e+001
 4.474999999999999e+000	 0.000000000000000e+000	 1.025563169816781e+001
 4.474824557001205e+000	 3.962554806290932e-002	 1.027026604425117e+001
 4.474295688513459e+000	 7.939201314341488e-002	 1.028653692069229e+001
 4.473409617375811e+000	 1.192954113609082e-001	 1.030378583969856e+001
 4.472162611217829e+000	 1.593316629820132e-001	 1.032138959208387e+001
 4.470550985007201e+000	 1.994965925908466e-001	 1.033876217728951e+001
 4.468571103619143e+000	 2.397859293300585e-001	 1.035535670752314e+001
 4.466219384425665e+000	 2.801953072141921e-001	 1.037066728085377e+001
 4.463492299902616e+000	 3.207202655168541e-001	 1.038423081800103e+001
 4.460386380252357e+000	 3.613562492331280e-001	 1.039562885746848e+001
 4.456898216039838e+000	 4.020986096186052e-001	 1.040448930359542e+001
 4.500000000000000e+000	 0.000000000000000e+000	 1.017345029439979e+001
 4.499823576872690e+000	 3.984691983959790e-002	 1.018287666935499e+001
 4.499291753812299e+000	 7.983554394276311e-002	 1.019483387072085e+001
 4.498400732556415e+000	 1.199618661725717e-001	 1.020864910450188e+001
 4.497146759883374e+000	 1.602217840038416e-001	 1.022368461124375e+001
 4.495526130174089e+000	 2.006110986943446e-001	 1.023933961182562e+001
 4.493535187995821e+000	 2.411255155271932e-001	 1.025505222748831e+001
 4.491170330705895e+000	 2.817606441259510e-001	 1.027030136889036e+001
 4.488428011073320e+000	 3.225119988439663e-001	 1.028460858888300e+001
 4.485304739916110e+000	 3.633749992293682e-001	 1.029753989360482e+001
 4.481797088752097e+000	 4.043449705671097e-001	 1.030870750642106e+001
 4.232808361607396e+000	 3.818813610591916e-001	 1.035620558305409e+001
 4.229129376222968e+000	 4.206717475519838e-001	 1.034948744143542e+001
 4.225081071302157e+000	 4.595540674909442e-001	 1.034385798764551e+001
 4.220660395932038e+000	 4.985236426059478e-001	 1.034110197516262e+001
 4.215864366623790e+000	 5.375757083998118e-001	 1.034327217450558e+001
 4.210690069845527e+000	 5.767054150413700e-001	 1.035269961331570e+001
 4.205134664553647e+000	 6.159078283377324e-001	 1.037200362750268e+001
 4.199195384720043e+000	 6.551779307865258e-001	 1.042547763275436e+001
 4.192869541852530e+000	 6.945106227088218e-001	 1.047529753887054e+001
 4.186154527505775e+000	 7.339007234633734e-001	 1.051195169430515e+001
 4.179047815779902e+000	 7.733429727426728e-001	 1.053549265896163e+001
 4.257707234324079e+000	 3.841277220122707e-001	 1.042921816620117e+001
 4.254006607849405e+000	 4.231462872486892e-001	 1.041540955106874e+001
 4.249934489370448e+000	 4.622573267163143e-001	 1.040200193679024e+001
 4.245487810027735e+000	 5.014561346257856e-001	 1.039070263144284e+001
 4.240663568782507e+000	 5.407379184534670e-001	 1.038348996646157e+001
 4.235458834964457e+000	 5.800977998397745e-001	 1.038262378460217e+001
 4.229870750817963e+000	 6.195308155671544e-001	 1.039065573930051e+001
 4.223896534044159e+000	 6.590319186185141e-001	 1.044110295514359e+001
 4.217533480336205e+000	 6.985959793168153e-001	 1.048721061945552e+001
 4.210778965904968e+000	 7.382177865464503e-001	 1.052246572748792e+001
 4.203630449992338e+000	 7.778920490569271e-001	 1.054688061722118e+001
 4.282606107040270e+000	 3.863740829648416e-001	 1.050265570457040e+001
 4.278883839475262e+000	 4.256208269449768e-001	 1.048233547522590e+001
 4.274787907438089e+000	 4.649605859413376e-001	 1.046164975312160e+001
 4.270315224122728e+000	 5.043886266453286e-001	 1.044222658708322e+001
 4.265462770940488e+000	 5.439001285068598e-001	 1.042596812277705e+001
 4.260227600082641e+000	 5.834901846379286e-001	 1.041506134282838e+001
 4.254606837081536e+000	 6.231538027963179e-001	 1.041198861866716e+001
 4.248597683367563e+000	 6.628859064502166e-001	 1.045969312334883e+001
 4.242197418819215e+000	 7.026813359244744e-001	 1.050125147537057e+001
 4.235403404303565e+000	 7.425348496291240e-001	 1.053427165553558e+001
 4.228213084204269e+000	 7.824411253706887e-001	 1.055872575607425e+001
 4.307504979755969e+000	 3.886204439169040e-001	 1.057662358554058e+001
 4.303761071100537e+000	 4.280953666408464e-001	 1.055041022296597e+001
 4.299641325505075e+000	 4.676638451660143e-001	 1.052298586406675e+001
 4.295142638217016e+000	 5.073211186645766e-001	 1.049589746194515e+001
 4.290261973097732e+000	 5.470623385599893e-001	 1.047096920726353e+001
 4.284996365200073e+000	 5.868825694358322e-001	 1.045031352482247e+001
 4.279342923344370e+000	 6.267767900252239e-001	 1.043881797943361e+001
 4.273298832690251e+000	 6.667398942816331e-001	 1.048123475615140e+001
 4.266861357301558e+000	 7.067666925317994e-001	 1.051742802076027e+001
 4.260027842701565e+000	 7.468519127113946e-001	 1.054739917097180e+001
 4.252795718415691e+000	 7.869902016839576e-001	 1.057108002257996e+001
 4.332403852471177e+000	 3.908668048684583e-001	 1.065123121902940e+001
 4.328638302725228e+000	 4.305699063362981e-001	 1.061978250152427e+001
 4.324494743571406e+000	 4.703671043903443e-001	 1.058619806306557e+001
 4.319970052310598e+000	 5.102536106835297e-001	 1.055194190199374e+001
 4.315061175254239e+000	 5.502245486128563e-001	 1.051875846224289e+001
 4.309765130316755e+000	 5.902749542334852e-001	 1.048868389071134e+001
 4.304079009606459e+000	 6.303997772538716e-001	 1.047181406558408e+001
 4.297999982012227e+000	 6.705938821127638e-001	 1.050571606264499e+001
 4.291525295783235e+000	 7.108520491387895e-001	 1.053574938246572e+001
 4.284652281098968e+000	 7.511689757932623e-001	 1.056187879410109e+001
 4.277378352626607e+000	 7.915392779967340e-001	 1.058399579945578e+001
 4.357302725185893e+000	 3.931131658195044e-001	 1.072659192256365e+001
 4.353515534349339e+000	 4.330444460313320e-001	 1.069060461065025e+001
 4.349348161637088e+000	 4.730703636143276e-001	 1.065147741339886e+001
 4.344797466403475e+000	 5.131861027021879e-001	 1.061058949283768e+001
 4.339860377410007e+000	 5.533867586654605e-001	 1.056960373201851e+001
 4.334533895432688e+000	 5.936673390308880e-001	 1.053047825754070e+001
 4.328815095867808e+000	 6.340227644822610e-001	 1.050851652924159e+001
 4.322701131333488e+000	 6.744478699436080e-001	 1.053312679679809e+001
 4.316189234264249e+000	 7.149374057454460e-001	 1.055622586537608e+001
 4.309276719495773e+000	 7.554860388747267e-001	 1.057774184935785e+001
 4.301960986837014e+000	 7.960883543090176e-001	 1.059752589263008e+001
 4.382201597900116e+000	 3.953595267700419e-001	 1.074374584650441e+001
 4.378392765972867e+000	 4.355189857259480e-001	 1.073634628218401e+001
 4.374201579702113e+000	 4.757736228379644e-001	 1.071901815529497e+001
 4.369624880495647e+000	 5.161185947205511e-001	 1.067207267621672e+001
 4.364659579565039e+000	 5.565489687178021e-001	 1.062377538895532e+001
 4.359302660547873e+000	 5.970597238280402e-001	 1.057600463515806e+001
 4.353551182128413e+000	 6.376457517103922e-001	 1.054889689872212e+001
 4.347402280654035e+000	 6.783018577741664e-001	 1.056345821356554e+001
 4.340853172744594e+000	 7.190227623517679e-001	 1.057886891896125e+001
 4.333901157891983e+000	 7.598031019557879e-001	 1.059502044246185e+001
 4.326543621046915e+000	 8.006374306208084e-001	 1.061172351921912e+001
 4.407100470613848e+000	 3.976058877200713e-001	 1.062185036953787e+001
 4.403269997595813e+000	 4.379935254201460e-001	 1.061853426814407e+001
 4.399054997766487e+000	 4.784768820612544e-001	 1.061229279061746e+001
 4.394452294587114e+000	 5.190510867386196e-001	 1.060291382934747e+001
 4.389458781719333e+000	 5.597111787698808e-001	 1.059023649395690e+001
 4.384071425662307e+000	 6.004521086249419e-001	 1.057415249701933e+001
 4.378287268388279e+000	 6.412687389382653e-001	 1.057668976684319e+001
 4.372103429973867e+000	 6.821558456044388e-001	 1.059670302648776e+001
 4.365517111224275e+000	 7.231081189577554e-001	 1.060369110493915e+001
 4.358525596287595e+000	 7.641201650364463e-001	 1.061374743834791e+001
 4.351126255256309e+000	 8.051865069321068e-001	 1.062664229591154e+001
 4.431999343327089e+000	 3.998522486695924e-001	 1.050881812139047e+001
 4.428147229218177e+000	 4.404680651139264e-001	 1.050888327350211e+001
 4.423908415830206e+000	 4.811801412841977e-001	 1.050705093022225e+001
 4.419279708677876e+000	 5.219835787563930e-001	 1.050308842025270e+001
 4.414257983872892e+000	 5.628733888216966e-001	 1.049681385769497e+001
 4.408840190775990e+000	 6.038444934215933e-001	 1.048809753969725e+001
 4.403023354647401e+000	 6.448917261658803e-001	 1.050215229685326e+001
 4.396804579292986e+000	 6.860098334344250e-001	 1.054045895830442e+001
 4.390181049703291e+000	 7.271934755634089e-001	 1.057616638862056e+001
 4.383150034682609e+000	 7.684372281167013e-001	 1.060945963707845e+001
 4.375708889465193e+000	 8.097355832429123e-001	 1.064058020258460e+001
 4.456898216039838e+000	 4.020986096186052e-001	 1.040448930359542e+001
 4.453024460839959e+000	 4.429426048072887e-001	 1.040724446988416e+001
 4.448761833893272e+000	 4.838834005067944e-001	 1.040910087342410e+001
 4.444107122767933e+000	 5.249160707738715e-001	 1.040980540118104e+001
 4.439057186025711e+000	 5.660355988732497e-001	 1.040915532212659e+001
 4.433608955888925e+000	 6.072368782179941e-001	 1.040699969726186e+001
 4.427759440905781e+000	 6.485147133932371e-001	 1.043119211317636e+001
 4.421505728611392e+000	 6.898638212641255e-001	 1.047476099860353e+001
 4.414844988181640e+000	 7.312788321687279e-001	 1.051663187852202e+001
 4.407774473077029e+000	 7.727542911965535e-001	 1.055696190742458e+001
 4.400291523673573e+000	 8.142846595532255e-001	 1.059596422120516e+001
 4.481797088752097e+000	 4.043449705671097e-001	 1.030870750642106e+001
 4.477901692461161e+000	 4.454171445002335e-001	 1.031347214439636e+001
 4.473615251955686e+000	 4.865866597290444e-001	 1.031830778423173e+001
 4.468934536857286e+000	 5.278485627910552e-001	 1.032294099122582e+001
 4.463856388177796e+000	 5.691978089245402e-001	 1.032714833765703e+001
 4.458377721001111e+000	 6.106292630141446e-001	 1.033075782563119e+001
 4.452495527163420e+000	 6.521377006203358e-001	 1.036375611089651e+001
 4.446206877929084e+000	 6.937178090935400e-001	 1.041184057212884e+001
 4.439508926659324e+000	 7.353641887737129e-001	 1.045910102843234e+001
 4.432398911470851e+000	 7.770713542760025e-001	 1.050566687307199e+001
 4.424874157881446e+000	 8.188337358630459e-001	 1.055172303992417e+001
 4.179047815779902e+000	 7.733429727426728e-001	 1.053549265896163e+001
 4.171546965803959e+000	 8.128320319509310e-001	 1.052545967973261e+001
 4.163649624201344e+000	 8.523624856654427e-001	 1.052048868375611e+001
 4.155353527534344e+000	 8.919288431804858e-001	 1.052037766695427e+001
 4.146656504724693e+000	 9.315255401334329e-001	 1.052484672335771e+001
 4.137556479447226e+000	 9.711469402141431e-001	 1.053353773573428e+001
 4.128051472493548e+000	 1.010787336957094e+000	 1.054601424265937e+001
 4.118139604102669e+000	 1.050440955616010e+000	 1.056176148667391e+001
 4.107819096255514e+000	 1.090101955120620e+000	 1.058018664778176e+001
 4.097088274930204e+000	 1.129764430115053e+000	 1.060061926611752e+001
 4.085945572314992e+000	 1.169422413077266e+000	 1.062231185716987e+001
 4.203630449992338e+000	 7.778920490569271e-001	 1.054688061722118e+001
 4.196085477369345e+000	 8.176133968488740e-001	 1.053458378408619e+001
 4.188141680816043e+000	 8.573763826440791e-001	 1.052735705583044e+001
 4.179796783580376e+000	 8.971754834385507e-001	 1.052497202888811e+001
 4.171048601813030e+000	 9.370051021381156e-001	 1.052712100471579e+001
 4.161895046975169e+000	 9.768595692778667e-001	 1.053341670033027e+001
 4.152334128215988e+000	 1.016733144824837e+000	 1.054339213890721e+001
 4.142363954717085e+000	 1.056620020063654e+000	 1.055650072513831e+001
 4.131982738000448e+000	 1.096514319564808e+000	 1.057211650964061e+001
 4.121188794197010e+000	 1.136410103235041e+000	 1.058953464628291e+001
 4.109980546272603e+000	 1.176301368449240e+000	 1.060797204583791e+001
 4.228213084204269e+000	 7.824411253706887e-001	 1.055872575607425e+001
 4.220623988934317e+000	 8.223947617462386e-001	 1.054424225565020e+001
 4.212633737430396e+000	 8.623902796220805e-001	 1.053486593635667e+001
 4.204240039626113e+000	 9.024221236959534e-001	 1.053034176846802e+001
 4.195440698901107e+000	 9.424846641421386e-001	 1.053033399885778e+001
 4.186233614502861e+000	 9.825721983409625e-001	 1.053442588129411e+001
 4.176616783938171e+000	 1.022678952692014e+000	 1.054211959047307e+001
 4.166588305331214e+000	 1.062799084510823e+000	 1.055283632453976e+001
 4.156146379745045e+000	 1.102926684008645e+000	 1.056591660043561e+001
 4.145289313463411e+000	 1.143055776354834e+000	 1.058062074597059e+001
 4.134015520229721e+000	 1.183180323821201e+000	 1.059612959205464e+001
 4.252795718415691e+000	 7.869902016839576e-001	 1.057108002257996e+001
 4.245162500498869e+000	 8.271761266430252e-001	 1.055449397105944e+001
 4.237125794044403e+000	 8.674041765994475e-001	 1.054308110900201e+001
 4.228683295671557e+000	 9.076687639526944e-001	 1.053655954823004e+001
 4.219832795988922e+000	 9.479642261455018e-001	 1.053456521325565e+001
 4.210572182030301e+000	 9.882848274034308e-001	 1.053665159118588e+001
 4.200899439660093e+000	 1.028624760558625e+000	 1.054228966910049e+001
 4.190812655945057e+000	 1.068978148957521e+000	 1.055086806370680e+001
 4.180310021489308e+000	 1.109339048452133e+000	 1.056169334765492e+001
 4.169389832729410e+000	 1.149701449474429e+000	 1.057399057644848e+001
 4.158050494186345e+000	 1.190059279193150e+000	 1.058690401941079e+001
 4.277378352626607e+000	 7.915392779967340e-001	 1.058399579945578e+001
 4.269701012063006e+000	 8.319574915392335e-001	 1.056539820645204e+001
 4.261617850658065e+000	 8.724180735761798e-001	 1.055206872489490e+001
 4.253126551716705e+000	 9.129154042087733e-001	 1.054369837029125e+001
 4.244224893076473e+000	 9.534437881482052e-001	 1.053989447129133e+001
 4.234910749557492e+000	 9.939974564652716e-001	 1.054018043905897e+001
 4.225182095381759e+000	 1.034570568424671e+000	 1.054399572790786e+001
 4.215037006558610e+000	 1.075157213403744e+000	 1.055069599206371e+001
 4.204473663233235e+000	 1.115751412895269e+000	 1.055955344298237e+001
 4.193490351995004e+000	 1.156347122593827e+000	 1.056975741119625e+001
 4.182085468142476e+000	 1.196938234565087e+000	 1.058041511617635e+001
 4.301960986837014e+000	 7.960883543090176e-001	 1.059752589263008e+001
 4.294239523626727e+000	 8.367388564348637e-001	 1.057701462605507e+001
 4.286109907271380e+000	 8.774319705522771e-001	 1.056189529212599e+001
 4.277569807761560e+000	 9.181620444641899e-001	 1.055183156664737e+001
 4.268616990163762e+000	 9.589233501502491e-001	 1.054640190323065e+001
 4.259249317084431e+000	 9.997100855264839e-001	 1.054509932198890e+001
 4.249464751103163e+000	 1.040516376290151e+000	 1.054733139334907e+001
 4.239261357171881e+000	 1.081336277849494e+000	 1.055242042189922e+001
 4.228637304976828e+000	 1.122163777338056e+000	 1.055960383474889e+001
 4.217590871260191e+000	 1.162992795713027e+000	 1.056803477841347e+001
 4.206120442098111e+000	 1.203817189937011e+000	 1.057678292773824e+001
 4.326543621046915e+000	 8.006374306208084e-001	 1.061172351921912e+001
 4.318778035190028e+000	 8.415202213299152e-001	 1.058940327115923e+001
 4.310601963884349e+000	 8.824458675277399e-001	 1.057262766560740e+001
 4.302013063806120e+000	 9.234086847189447e-001	 1.056103278980126e+001
 4.293009087250787e+000	 9.644029121516328e-001	 1.055416793750505e+001
 4.283587884611121e+000	 1.005422714587069e+000	 1.055149541689088e+001
 4.273747406824312e+000	 1.046462184155066e+000	 1.055239055744834e+001
 4.263485707784863e+000	 1.087515342294771e+000	 1.055614192089875e+001
 4.252800946720086e+000	 1.128576141780491e+000	 1.056195172064148e+001
 4.241691390524975e+000	 1.169638468832031e+000	 1.056893645378334e+001
 4.230155416053255e+000	 1.210696145308922e+000	 1.057612774929588e+001
 4.351126255256309e+000	 8.051865069321068e-001	 1.062664229591154e+001
 4.343316546752915e+000	 8.463015862243891e-001	 1.060262454946748e+001
 4.335094020496972e+000	 8.874597645025674e-001	 1.058433303727530e+001
 4.326456319850387e+000	 9.286553249730376e-001	 1.057137600370902e+001
 4.317401184337551e+000	 9.698824741523568e-001	 1.056327329228886e+001
 4.307926452137560e+000	 1.011135343647027e+000	 1.055945617261469e+001
 4.298030062545201e+000	 1.052407992019415e+000	 1.055926737029822e+001
 4.287710058397559e+000	 1.093694406739574e+000	 1.056196130492981e+001
 4.276964588463008e+000	 1.134988506222576e+000	 1.056670454065923e+001
 4.265791909789357e+000	 1.176284141950839e+000	 1.057257645348156e+001
 4.254190390007903e+000	 1.217575100680821e+000	 1.057857011880434e+001
 4.375708889465193e+000	 8.097355832429123e-001	 1.064058020258460e+001
 4.367855058315383e+000	 8.510829511182845e-001	 1.061673922480238e+001
 4.359586077109249e+000	 8.924736614767607e-001	 1.059707892662303e+001
 4.350899575894356e+000	 9.339019652264681e-001	 1.058293547503133e+001
 4.341793281424052e+000	 9.753620361524213e-001	 1.057379896736037e+001
 4.332265019663749e+000	 1.016847972706357e+000	 1.056906930230613e+001
 4.322312718265832e+000	 1.058353799883198e+000	 1.056805623281043e+001
 4.311934409009967e+000	 1.099873471183905e+000	 1.056997963107063e+001
 4.301128230205595e+000	 1.141400870664311e+000	 1.057396997030684e+001
 4.289892429053334e+000	 1.182929815069449e+000	 1.057906902742097e+001
 4.278225363962058e+000	 1.224454056052707e+000	 1.058423081015535e+001
 4.400291523673573e+000	 8.142846595532255e-001	 1.059596422120516e+001
 4.392393569877434e+000	 8.558643160116016e-001	 1.059665901642373e+001
 4.384078133721181e+000	 8.974875584503188e-001	 1.059627757077648e+001
 4.375342831938034e+000	 9.391486054792367e-001	 1.059535114570563e+001
 4.366185378510290e+000	 9.808415981518261e-001	 1.058582623623592e+001
 4.356603587189687e+000	 1.022560601765058e+000	 1.058042277602437e+001
 4.346595373986204e+000	 1.064299607746416e+000	 1.057885178970986e+001
 4.336158759622090e+000	 1.106052535627762e+000	 1.058029819087238e+001
 4.325291871947846e+000	 1.147813235105695e+000	 1.058385591401613e+001
 4.313992948316907e+000	 1.189575488187862e+000	 1.058852865272259e+001
 4.302260337915721e+000	 1.231333011424581e+000	 1.059323082658690e+001
 4.424874157881446e+000	 8.188337358630459e-001	 1.055172303992417e+001
 4.416932081439071e+000	 8.606456809043407e-001	 1.056255186732522e+001
 4.408570190332767e+000	 9.025014554232427e-001	 1.057112589580560e+001
 4.399786087981418e+000	 9.443952457313437e-001	 1.057797054966162e+001
 4.390577475596269e+000	 9.863211601505713e-001	 1.058367605761558e+001
 4.380942154715376e+000	 1.028273230823133e+000	 1.058889830019911e+001
 4.370878029706319e+000	 1.070245415609068e+000	 1.059174892276183e+001
 4.360383110233927e+000	 1.112231600071145e+000	 1.059301850384609e+001
 4.349455513689764e+000	 1.154225599546729e+000	 1.059647049878714e+001
 4.338093467580077e+000	 1.196221161306078e+000	 1.060107002740420e+001
 4.326295311868889e+000	 1.238211966796443e+000	 1.060569139431248e+001
 4.085945572314992e+000	 1.169422413077266e+000	 1.062231185716987e+001
 4.074389528975536e+000	 1.209069876518825e+000	 1.069160694158695e+001
 4.062418795974019e+000	 1.248700735263687e+000	 1.076007720660623e+001
 4.050032136936431e+000	 1.288308848805791e+000	 1.076609203561159e+001
 4.037228430064649e+000	 1.327888023744064e+000	 1.076765467807799e+001
 4.024006670090824e+000	 1.367432016293249e+000	 1.076737239487674e+001
 4.010365970170742e+000	 1.406934534869337e+000	 1.076583839341012e+001
 3.996305563713150e+000	 1.446389242748077e+000	 1.076367797599372e+001
 3.981824806142011e+000	 1.485789760794904e+000	 1.076154808463394e+001
 3.966923176588746e+000	 1.525129670264477e+000	 1.076013677216358e+001
 3.951600279511499e+000	 1.564402515667893e+000	 1.076016259934377e+001
 4.109980546272603e+000	 1.176301368449240e+000	 1.060797204583791e+001
 4.098356526207931e+000	 1.216182052263254e+000	 1.067447111047808e+001
 4.086315377130201e+000	 1.256046033705988e+000	 1.073213763468806e+001
 4.073855855392610e+000	 1.295887136150756e+000	 1.073711932070312e+001
 4.060976832598230e+000	 1.335699129764719e+000	 1.073991281521508e+001
 4.047677297565866e+000	 1.375475734034469e+000	 1.074108005551283e+001
 4.033956358234573e+000	 1.415210620366681e+000	 1.074121557125116e+001
 4.019813243503739e+000	 1.454897414762256e+000	 1.074094609682570e+001
 4.005247305005702e+000	 1.494529700562309e+000	 1.074093011001891e+001
 3.990258018807951e+000	 1.534101021264173e+000	 1.074185729633691e+001
 3.974844987041911e+000	 1.573604883405484e+000	 1.074444793864730e+001
 4.134015520229721e+000	 1.183180323821201e+000	 1.059612959205464e+001
 4.122323523439744e+000	 1.223294228007851e+000	 1.065995162130750e+001
 4.110211958285729e+000	 1.263391332148599e+000	 1.070574994790074e+001
 4.097679573848086e+000	 1.303465423496135e+000	 1.071144220720876e+001
 4.084725235131073e+000	 1.343510235785849e+000	 1.071515246436537e+001
 4.071347925040157e+000	 1.383519451776187e+000	 1.071744405702250e+001
 4.057546746297663e+000	 1.423486705864506e+000	 1.071891304372291e+001
 4.043320923293615e+000	 1.463405586776860e+000	 1.072018781073679e+001
 4.028669803868731e+000	 1.503269640330041e+000	 1.072192860448022e+001
 4.013592861026560e+000	 1.543072372264059e+000	 1.072482698893501e+001
 3.998089694571819e+000	 1.582807251143084e+000	 1.072960522768103e+001
 4.158050494186345e+000	 1.190059279193150e+000	 1.058690401941079e+001
 4.146290520670970e+000	 1.230406403752616e+000	 1.064817847734258e+001
 4.134108539440599e+000	 1.270736630591519e+000	 1.068294758176379e+001
 4.121503292302855e+000	 1.311043710841926e+000	 1.068905048686832e+001
 4.108473637663178e+000	 1.351321341807455e+000	 1.069336636458813e+001
 4.095018552513700e+000	 1.391563169518405e+000	 1.069646014625994e+001
 4.081137134360013e+000	 1.431762791362815e+000	 1.069892962585695e+001
 4.066828603082779e+000	 1.471913758791889e+000	 1.070140506121277e+001
 4.052092302731094e+000	 1.512009580098102e+000	 1.070454870011640e+001
 4.036927703244576e+000	 1.552043723264134e+000	 1.070905423069570e+001
 4.021334402101221e+000	 1.592009618880696e+000	 1.071564615570258e+001
 4.182085468142476e+000	 1.196938234565087e+000	 1.058041511617635e+001
 4.170257517901614e+000	 1.237518579497549e+000	 1.063928186048159e+001
 4.158005120594816e+000	 1.278081929034749e+000	 1.066371753143472e+001
 4.145327010756916e+000	 1.318621998188129e+000	 1.066993395077018e+001
 4.132222040194548e+000	 1.359132447829537e+000	 1.067454716110086e+001
 4.118689179986493e+000	 1.399606887261122e+000	 1.067812388071312e+001
 4.104727522421621e+000	 1.440038876861606e+000	 1.068126384548584e+001
 4.090336282871229e+000	 1.480421930807344e+000	 1.068459940442740e+001
 4.075514801592793e+000	 1.520749519866490e+000	 1.068879503934983e+001
 4.060262545461995e+000	 1.561015074264399e+000	 1.069454680809666e+001
 4.044579109630118e+000	 1.601211986618317e+000	 1.070258171093832e+001
 4.206120442098111e+000	 1.203817189937011e+000	 1.057678292773824e+001
 4.194224515131673e+000	 1.244630755242650e+000	 1.063339212614997e+001
 4.181901701748377e+000	 1.285427227478289e+000	 1.064804687967474e+001
 4.169150729210273e+000	 1.326200285534745e+000	 1.065408238936989e+001
 4.155970442725177e+000	 1.366943553852095e+000	 1.065868740796045e+001
 4.142359807458537e+000	 1.407650605004339e+000	 1.066243063391410e+001
 4.128317910482487e+000	 1.448314962360879e+000	 1.066591395144890e+001
 4.113843962658969e+000	 1.488930102823224e+000	 1.066977202030841e+001
 4.098937300453829e+000	 1.529489459635205e+000	 1.067467178891751e+001
 4.083597387678820e+000	 1.569986425264854e+000	 1.068131193033430e+001
 4.067823817158510e+000	 1.610414354355949e+000	 1.069042220061269e+001
 4.230155416053255e+000	 1.210696145308922e+000	 1.057612774929588e+001
 4.218191512361147e+000	 1.251742930987919e+000	 1.062855401088828e+001
 4.205798282901285e+000	 1.292772525922139e+000	 1.063592279436012e+001
 4.192974447662922e+000	 1.333778572881774e+000	 1.064148559250813e+001
 4.179718845255070e+000	 1.374754659875128e+000	 1.064577957065303e+001
 4.166030434929832e+000	 1.415694322748053e+000	 1.064937560066513e+001
 4.151908298542613e+000	 1.456591047860634e+000	 1.065287792151807e+001
 4.137351642445994e+000	 1.497438274839530e+000	 1.065692372322635e+001
 4.122359799314199e+000	 1.538229399404250e+000	 1.066218265338481e+001
 4.106932229895052e+000	 1.578957776265499e+000	 1.066935624572376e+001
 4.091068524686397e+000	 1.619616722093591e+000	 1.067917727029498e+001
 4.254190390007903e+000	 1.217575100680821e+000	 1.057857011880434e+001
 4.242158509590039e+000	 1.258855106733357e+000	 1.062087422624762e+001
 4.229694864053536e+000	 1.300117824366298e+000	 1.062733252607780e+001
 4.216798166114866e+000	 1.341356860229215e+000	 1.063213334942810e+001
 4.203467247784224e+000	 1.382565765898637e+000	 1.063581602859589e+001
 4.189701062400377e+000	 1.423738040492267e+000	 1.063895380208751e+001
 4.175498686601996e+000	 1.464867133360872e+000	 1.064215347005526e+001
 4.160859322232306e+000	 1.505946446856261e+000	 1.064605497232109e+001
 4.145782298173907e+000	 1.546969339173622e+000	 1.065133088820123e+001
 4.130267072110688e+000	 1.587929127266333e+000	 1.065868585754303e+001
 4.114313232213778e+000	 1.628819089831244e+000	 1.066885592259004e+001
 4.278225363962058e+000	 1.224454056052707e+000	 1.058423081015535e+001
 4.266125506818345e+000	 1.265967282478963e+000	 1.061699126928304e+001
 4.253591445205132e+000	 1.307463122810768e+000	 1.062226340580198e+001
 4.240621884566104e+000	 1.348935147577068e+000	 1.062601544879232e+001
 4.227215650312640e+000	 1.390376871922621e+000	 1.062878907755520e+001
 4.213371689870172e+000	 1.431781758236981e+000	 1.063116009050028e+001
 4.199089074660639e+000	 1.473143218861593e+000	 1.063373805541143e+001
 4.184367002017906e+000	 1.514454618873418e+000	 1.063716588148015e+001
 4.169204797032950e+000	 1.555709278943322e+000	 1.064211931231595e+001
 4.153601914325729e+000	 1.596900478267356e+000	 1.064930633934301e+001
 4.137557939740653e+000	 1.638021457568906e+000	 1.065946653519917e+001
 4.302260337915721e+000	 1.231333011424581e+000	 1.059323082658690e+001
 4.290092504046069e+000	 1.273079458224736e+000	 1.061689021744348e+001
 4.277488026356076e+000	 1.314808421255548e+000	 1.062070284264871e+001
 4.264445603016635e+000	 1.356513434925334e+000	 1.062312167869880e+001
 4.250964052840319e+000	 1.398187977947081e+000	 1.062469093198262e+001
 4.237042317339218e+000	 1.439825475982193e+000	 1.062598915413532e+001
 4.222679462718540e+000	 1.481419304362796e+000	 1.062762888707780e+001
 4.207874681802794e+000	 1.522962790891000e+000	 1.063025622898266e+001
 4.192627295891330e+000	 1.564449218713350e+000	 1.063455032037063e+001
 4.176936756540175e+000	 1.605871829268570e+000	 1.064122274974430e+001
 4.160802647267024e+000	 1.647223825306579e+000	 1.065101687837548e+001
 4.326295311868889e+000	 1.238211966796443e+000	 1.060569139431248e+001
 4.314059501273209e+000	 1.280191633970678e+000	 1.062055629866317e+001
 4.301384607506363e+000	 1.322153719700637e+000	 1.062263832170534e+001
 4.288269321466461e+000	 1.364091722274012e+000	 1.062344182669675e+001
 4.274712455367261e+000	 1.405999083972017e+000	 1.062351372727404e+001
 4.260712944807515e+000	 1.447869193727904e+000	 1.062343552169537e+001
 4.246269850775702e+000	 1.489695389864481e+000	 1.062382293259857e+001
 4.231382361586969e+000	 1.531470962909008e+000	 1.062532546682179e+001
 4.216049794749046e+000	 1.573189158483706e+000	 1.062862589448567e+001
 4.200271598754028e+000	 1.614843180269973e+000	 1.063443964674088e+001
 4.184047354792891e+000	 1.656426193044263e+000	 1.064351413179744e+001
 3.951600279511499e+000	 1.564402515667893e+000	 1.076016259934377e+001
 3.935855846239047e+000	 1.603601807705202e+000	 1.072539363079981e+001
 3.919689736435062e+000	 1.642721026262243e+000	 1.070214906038751e+001
 3.903101939481164e+000	 1.681753623468193e+000	 1.069142953612094e+001
 3.886092575776805e+000	 1.720693026811100e+000	 1.069425746630819e+001
 3.868661897952027e+000	 1.759532642309953e+000	 1.071167578152317e+001
 3.850810291991065e+000	 1.798265857740103e+000	 1.074474662816359e+001
 3.832538278264387e+000	 1.836886045909251e+000	 1.079454999514224e+001
 3.813846512466861e+000	 1.875386567981045e+000	 1.086094201114402e+001
 3.794735786459812e+000	 1.913760776843247e+000	 1.081905991031685e+001
 3.775207029014879e+000	 1.952002020517314e+000	 1.078659376197195e+001
 3.974844987041911e+000	 1.573604883405484e+000	 1.074444793864730e+001
 3.959007939455936e+000	 1.613034759513854e+000	 1.071512771528249e+001
 3.942746734888187e+000	 1.652384091121428e+000	 1.069685573790888e+001
 3.926061362657818e+000	 1.691646291840492e+000	 1.069064484106771e+001
 3.908951943872515e+000	 1.730814750497263e+000	 1.069753042544138e+001
 3.891418732648380e+000	 1.769882834322602e+000	 1.071856920726983e+001
 3.873462117240142e+000	 1.808843892196423e+000	 1.075483789774602e+001
 3.855082621079272e+000	 1.847691257942942e+000	 1.080743181394425e+001
 3.836280903717666e+000	 1.886418253673828e+000	 1.084188677691876e+001
 3.817057761674656e+000	 1.925018193176183e+000	 1.080343886317432e+001
 3.797414129185245e+000	 1.963484385342178e+000	 1.077405512279697e+001
 3.998089694571819e+000	 1.582807251143084e+000	 1.072960522768103e+001
 3.982160032672422e+000	 1.622467711322332e+000	 1.070560894947286e+001
 3.965803733341005e+000	 1.662047155980281e+000	 1.069218426154879e+001
 3.949020785834266e+000	 1.701538960212334e+000	 1.069035641094623e+001
 3.931811311968122e+000	 1.740936474182871e+000	 1.070117402262355e+001
 3.914175567344729e+000	 1.780233026334630e+000	 1.072570783606171e+001
 3.896113942489314e+000	 1.819421926652085e+000	 1.076504937022180e+001
 3.877626963894351e+000	 1.858496469975968e+000	 1.082030951842014e+001
 3.858715294968766e+000	 1.897449939365969e+000	 1.082475288621170e+001
 3.839379736889895e+000	 1.936275609508530e+000	 1.078971811723872e+001
 3.819621229356107e+000	 1.974966750166537e+000	 1.076339992126387e+001
 4.021334402101221e+000	 1.592009618880696e+000	 1.071564615570258e+001
 4.005312125888501e+000	 1.631900663130633e+000	 1.069684784638018e+001
 3.988860731793518e+000	 1.671710220838802e+000	 1.068814387397780e+001
 3.971980209010510e+000	 1.711431628583718e+000	 1.069057212501895e+001
 3.954670680063623e+000	 1.751058197867924e+000	 1.070519468174899e+001
 3.936932402041073e+000	 1.790583218346036e+000	 1.073309654566191e+001
 3.918765767738582e+000	 1.829999961107087e+000	 1.077538428774398e+001
 3.900171306709629e+000	 1.869301682008328e+000	 1.083318462700390e+001
 3.881149686220162e+000	 1.908481625057468e+000	 1.080954759326717e+001
 3.861701712105532e+000	 1.947533025840290e+000	 1.077790435380393e+001
 3.841828329527464e+000	 1.986449114990393e+000	 1.075463421590800e+001
 4.044579109630118e+000	 1.601211986618317e+000	 1.070258171093832e+001
 4.028464219104175e+000	 1.641333614938760e+000	 1.068885421352947e+001
 4.011917730245727e+000	 1.681373285696993e+000	 1.068474310934452e+001
 3.994939632186549e+000	 1.721324296954644e+000	 1.069129915241359e+001
 3.977530048159019e+000	 1.761179921552422e+000	 1.070959811639844e+001
 3.959689236737412e+000	 1.800933410356818e+000	 1.074073950478349e+001
 3.941417592987945e+000	 1.840577995561430e+000	 1.078584518612866e+001
 3.922715649525100e+000	 1.880106894040020e+000	 1.083219313443363e+001
 3.903584077471856e+000	 1.919513310748324e+000	 1.079627745579334e+001
 3.884023687321565e+000	 1.958790442171460e+000	 1.076800356472577e+001
 3.864035429699317e+000	 1.997931479813745e+000	 1.074776338439546e+001
 4.067823817158510e+000	 1.610414354355949e+000	 1.069042220061269e+001
 4.051616312319444e+000	 1.650766566746712e+000	 1.068163717311820e+001
 4.034974728697631e+000	 1.691036350554853e+000	 1.068198981351901e+001
 4.017899055362383e+000	 1.731216965325112e+000	 1.069254397241263e+001
 4.000389416254310e+000	 1.771301645236365e+000	 1.071438935013379e+001
 3.982446071433747e+000	 1.811283602366980e+000	 1.074864019334805e+001
 3.964069418237406e+000	 1.851156030015114e+000	 1.079643391503608e+001
 3.945259992340769e+000	 1.890912106071048e+000	 1.081718043135906e+001
 3.926018468723843e+000	 1.930544996438538e+000	 1.078494835486318e+001
 3.906345662537992e+000	 1.970047858502042e+000	 1.076002107212015e+001
 3.886242529871669e+000	 2.009413844636593e+000	 1.074279214297653e+001
 4.091068524686397e+000	 1.619616722093591e+000	 1.067917727029498e+001
 4.074768405534308e+000	 1.660199518554488e+000	 1.067520518148589e+001
 4.058031727149230e+000	 1.700699415412381e+000	 1.067989116364620e+001
 4.040858478538012e+000	 1.741109633695122e+000	 1.069431239405121e+001
 4.023248784349496e+000	 1.781423368919754e+000	 1.071957273610084e+001
 4.005202906130077e+000	 1.821633794376520e+000	 1.075680142205362e+001
 3.986721243486961e+000	 1.861734064468140e+000	 1.080715165746378e+001
 3.967804335156632e+000	 1.901717318101410e+000	 1.080414123401878e+001
 3.948452859976128e+000	 1.941576682128109e+000	 1.077556551413701e+001
 3.928667637754816e+000	 1.981305274832036e+000	 1.075396154738982e+001
 3.908449630044514e+000	 2.020896209458937e+000	 1.073972456527592e+001
 4.114313232213778e+000	 1.628819089831244e+000	 1.066885592259004e+001
 4.097920498748768e+000	 1.669632470362090e+000	 1.066956604792352e+001
 4.081088725600523e+000	 1.710362480269578e+000	 1.067845368703645e+001
 4.063817901713437e+000	 1.751002302064674e+000	 1.069660957505070e+001
 4.046108152444578e+000	 1.791545092602587e+000	 1.072515197596767e+001
 4.027959740826403e+000	 1.831983986385437e+000	 1.076522535127934e+001
 4.009373068736612e+000	 1.872312098920506e+000	 1.081799894857868e+001
 3.990348677972691e+000	 1.912522530131106e+000	 1.079308062874715e+001
 3.970887251228707e+000	 1.952608367817037e+000	 1.076813351843360e+001
 3.950989612972036e+000	 1.992562691161441e+000	 1.074982902960605e+001
 3.930656730217855e+000	 2.032378574280777e+000	 1.073856410044597e+001
 4.137557939740653e+000	 1.638021457568906e+000	 1.065946653519917e+001
 4.121072591962822e+000	 1.679065422169517e+000	 1.066472695284922e+001
 4.104145724051513e+000	 1.720025545126444e+000	 1.067768327941927e+001
 4.086777324888655e+000	 1.760894970433770e+000	 1.069944004011401e+001
 4.068967520539556e+000	 1.801666816284866e+000	 1.073113013822454e+001
 4.050716575522725e+000	 1.842334178393733e+000	 1.077391350935281e+001
 4.032024893986358e+000	 1.882890133372212e+000	 1.081126687695775e+001
 4.012893020788947e+000	 1.923327742160135e+000	 1.078400307596211e+001
 3.993321642481584e+000	 1.963640053505323e+000	 1.076265633167503e+001
 3.973311588189653e+000	 2.003820107490257e+000	 1.074762694327082e+001
 3.952863830391693e+000	 2.043860939102113e+000	 1.073931359070806e+001
 4.160802647267024e+000	 1.647223825306579e+000	 1.065101687837548e+001
 4.144224685176470e+000	 1.688498373976768e+000	 1.066069446537442e+001
 4.127202722502196e+000	 1.729688609982978e+000	 1.067758522258531e+001
 4.109736748063670e+000	 1.770787638802406e+000	 1.070280769860765e+001
 4.091826888634429e+000	 1.811788539966589e+000	 1.073750967587043e+001
 4.073473410219042e+000	 1.852684370401406e+000	 1.078286681020514e+001
 4.054676719236201e+000	 1.893468167823260e+000	 1.080028159474421e+001
 4.035437363605397e+000	 1.934132954188499e+000	 1.077691242764885e+001
 4.015756033734755e+000	 1.974671739192966e+000	 1.075913731423028e+001
 3.995633563407664e+000	 2.015077523818485e+000	 1.074735811548352e+001
 3.975070930566027e+000	 2.055343303922946e+000	 1.074197528830596e+001
 4.184047354792891e+000	 1.656426193044263e+000	 1.064351413179744e+001
 4.167376778389714e+000	 1.697931325783844e+000	 1.065747456028461e+001
 4.150259720952576e+000	 1.739351674839182e+000	 1.067816420144016e+001
 4.132696171238480e+000	 1.780680307170584e+000	 1.070671586165446e+001
 4.114686256729197e+000	 1.821910263647758e+000	 1.074429244351003e+001
 4.096230244915355e+000	 1.863034562408458e+000	 1.079208557043759e+001
 4.077328544486139e+000	 1.904046202273650e+000	 1.079131944498015e+001
 4.057981706422046e+000	 1.944938166216197e+000	 1.077181194426079e+001
 4.038190424988224e+000	 1.985703424879968e+000	 1.075757923968052e+001
 4.017955538626073e+000	 2.026334940146125e+000	 1.074902479253545e+001
 3.997278030740859e+000	 2.066825668743275e+000	 1.074655087189413e+001
 3.775207029014879e+000	 1.952002020517314e+000	 1.078659376197195e+001
 3.755261306457614e+000	 1.990103645605905e+000	 1.082083959048160e+001
 3.734899823209243e+000	 2.028059000775460e+000	 1.083149123298285e+001
 3.714123922224505e+000	 2.065861440270376e+000	 1.083141097440416e+001
 3.692935085323902e+000	 2.103504327454524e+000	 1.083055829230331e+001
 3.671334933419179e+000	 2.140981038377074e+000	 1.082936993245957e+001
 3.649325226630563e+000	 2.178284965358760e+000	 1.082830519172191e+001
 3.626907864294588e+000	 2.215409520594832e+000	 1.082784492021375e+001
 3.604084884861436e+000	 2.252348139770829e+000	 1.082849045935260e+001
 3.580858465680939e+000	 2.289094285687271e+000	 1.083076251774107e+001
 3.557230922676468e+000	 2.325641451889307e+000	 1.083519998720193e+001
 3.797414129185245e+000	 1.963484385342178e+000	 1.077405512279697e+001
 3.777351078847552e+000	 2.001810137636888e+000	 1.080254384926938e+001
 3.756869822167703e+000	 2.039988759601311e+000	 1.083717254473208e+001
 3.735971710000170e+000	 2.078013566387164e+000	 1.084844221433292e+001
 3.714658232882046e+000	 2.115877882319285e+000	 1.084515700275609e+001
 3.692931021259852e+000	 2.153575044482422e+000	 1.084108647613588e+001
 3.670791845607464e+000	 2.191098406328611e+000	 1.083672018704252e+001
 3.648242616433983e+000	 2.228441341301309e+000	 1.083257010676234e+001
 3.625285384180478e+000	 2.265597246472443e+000	 1.082916952458922e+001
 3.601922339004716e+000	 2.302559546188413e+000	 1.082707188310437e+001
 3.578155810453152e+000	 2.339321695721108e+000	 1.082684955178374e+001
 3.819621229356107e+000	 1.974966750166537e+000	 1.076339992126387e+001
 3.799440851238083e+000	 2.013516629667467e+000	 1.078637846765914e+001
 3.778839821126840e+000	 2.051918518426859e+000	 1.081524097487985e+001
 3.757819497776587e+000	 2.090165692503749e+000	 1.084991186076526e+001
 3.736381380441009e+000	 2.128251437183941e+000	 1.086043114318741e+001
 3.714527109101400e+000	 2.166169050587766e+000	 1.085371089250697e+001
 3.692258464585285e+000	 2.203911847298559e+000	 1.084627345405947e+001
 3.669577368574334e+000	 2.241473162007984e+000	 1.083866204843241e+001
 3.646485883500498e+000	 2.278846353174353e+000	 1.083144204677137e+001
 3.622986212329490e+000	 2.316024806689953e+000	 1.082519976517387e+001
 3.599080698230837e+000	 2.353001939553409e+000	 1.082054119557958e+001
 3.841828329527464e+000	 1.986449114990393e+000	 1.075463421590800e+001
 3.821530623629203e+000	 2.025223121697641e+000	 1.077234433038036e+001
 3.800809820086653e+000	 2.063848277252102e+000	 1.079568584644685e+001
 3.779667285553756e+000	 2.102317818620131e+000	 1.082459805021468e+001
 3.758104528000789e+000	 2.140624992048494e+000	 1.085901504981986e+001
 3.736123196943819e+000	 2.178763056693107e+000	 1.086724546819891e+001
 3.713725083564023e+000	 2.216725288268604e+000	 1.085696055781897e+001
 3.690912120715638e+000	 2.254504982714856e+000	 1.084610951484380e+001
 3.667686382821500e+000	 2.292095459876560e+000	 1.083528993063153e+001
 3.644050085655257e+000	 2.329490067191890e+000	 1.082512113880967e+001
 3.620005586009521e+000	 2.366682183386207e+000	 1.081624290315438e+001
 3.864035429699317e+000	 1.997931479813745e+000	 1.074776338439546e+001
 3.843620396020914e+000	 2.036929613727413e+000	 1.076044175481437e+001
 3.822779819047144e+000	 2.075778036077042e+000	 1.077850238110571e+001
 3.801515073331678e+000	 2.114469944736309e+000	 1.080189932203137e+001
 3.779827675561385e+000	 2.152998546912943e+000	 1.083058170704461e+001
 3.757719284787112e+000	 2.191357062798445e+000	 1.086449371431751e+001
 3.735191702543681e+000	 2.229538729238746e+000	 1.086877708028723e+001
 3.712246872857898e+000	 2.267536803421925e+000	 1.085490141237074e+001
 3.688886882143481e+000	 2.305344566579064e+000	 1.084069533836289e+001
 3.665113958982019e+000	 2.342955327694224e+000	 1.082681135785706e+001
 3.640930473789205e+000	 2.380362427219501e+000	 1.081392316034571e+001
 3.886242529871669e+000	 2.009413844636593e+000	 1.074279214297653e+001
 3.865710168413219e+000	 2.048636105756780e+000	 1.075067050720430e+001
 3.844749818008310e+000	 2.087707794901678e+000	 1.076368536081110e+001
 3.823362861110350e+000	 2.126622070852283e+000	 1.078180544177765e+001
 3.801550823122800e+000	 2.165372101777288e+000	 1.080499480350431e+001
 3.779315372631278e+000	 2.203951068903780e+000	 1.083321277889448e+001
 3.756658321524257e+000	 2.242352170208984e+000	 1.086641395535431e+001
 3.733581625001110e+000	 2.280568624129190e+000	 1.086502678023471e+001
 3.710087381466441e+000	 2.318593673281866e+000	 1.084764068226350e+001
 3.686177832309777e+000	 2.356420588196956e+000	 1.083024614431825e+001
 3.661855361569890e+000	 2.394042671053293e+000	 1.081355093994172e+001
 3.908449630044514e+000	 2.020896209458937e+000	 1.073972456527592e+001
 3.887799940806113e+000	 2.060342597785744e+000	 1.074302981831245e+001
 3.866719816970153e+000	 2.099637553726010e+000	 1.075122914029168e+001
 3.845210648889776e+000	 2.138774196968054e+000	 1.076430585710928e+001
 3.823273970685031e+000	 2.177745656641531e+000	 1.078223885090173e+001
 3.800911460476317e+000	 2.216545075009111e+000	 1.080500251022313e+001
 3.778124940505753e+000	 2.255165611179320e+000	 1.083256669080515e+001
 3.754916377145279e+000	 2.293600444836654e+000	 1.086489668722494e+001
 3.731287880790379e+000	 2.331842779984965e+000	 1.085610861763089e+001
 3.707241705638529e+000	 2.369885848700085e+000	 1.083540157789342e+001
 3.682780249351574e+000	 2.407722914887582e+000	 1.081509568784731e+001
 3.930656730217855e+000	 2.032378574280777e+000	 1.073856410044597e+001
 3.909889713199599e+000	 2.072049089814303e+000	 1.073751839854683e+001
 3.888689815932672e+000	 2.111567312550038e+000	 1.074112765911862e+001
 3.867058436669951e+000	 2.150926323083620e+000	 1.074938970675587e+001
 3.844997118248081e+000	 2.190119211505670e+000	 1.076229815923414e+001
 3.822507548322229e+000	 2.229139081114438e+000	 1.077984236381608e+001
 3.799591559488167e+000	 2.267979052149753e+000	 1.080200734381375e+001
 3.776251129290399e+000	 2.306632265544314e+000	 1.082877375575492e+001
 3.752488380115299e+000	 2.345091886688361e+000	 1.086011785747116e+001
 3.728305578968277e+000	 2.383351109203611e+000	 1.084225408587626e+001
 3.703705137134258e+000	 2.421403158722369e+000	 1.081852730971927e+001
 3.952863830391693e+000	 2.043860939102113e+000	 1.073931359070806e+001
 3.931979485593676e+000	 2.083755581842459e+000	 1.073413445257786e+001
 3.910659814895868e+000	 2.123497071373763e+000	 1.073337445336738e+001
 3.888906224450881e+000	 2.163078449198983e+000	 1.073704582919857e+001
 3.866720265811948e+000	 2.202492766369705e+000	 1.074515684245920e+001
 3.844103636169015e+000	 2.241733087219763e+000	 1.075771170427194e+001
 3.821058178471498e+000	 2.280792493120281e+000	 1.077471050689977e+001
 3.797585881436475e+000	 2.319664086252171e+000	 1.079614916645705e+001
 3.773688879441198e+000	 2.358340993392055e+000	 1.082201937626822e+001
 3.749369452299018e+000	 2.396816369707535e+000	 1.085078043339009e+001
 3.724630024917941e+000	 2.435083402557653e+000	 1.082381615805184e+001
 3.975070930566027e+000	 2.055343303922946e+000	 1.074197528830596e+001
 3.954069257988343e+000	 2.095462073870210e+000	 1.073287569346510e+001
 3.932629813859740e+000	 2.135426830197184e+000	 1.072796266688845e+001
 3.910754012232562e+000	 2.175230575314143e+000	 1.072726277105695e+001
 3.888443413376633e+000	 2.214866321233638e+000	 1.073079882397094e+001
 3.865699724016673e+000	 2.254327093325085e+000	 1.073858980781484e+001
 3.842524797455749e+000	 2.293605934090908e+000	 1.075065078724410e+001
 3.818920633583505e+000	 2.332695906960225e+000	 1.076699283768643e+001
 3.794889378768076e+000	 2.371590100096045e+000	 1.078762298402225e+001
 3.770433325630757e+000	 2.410281630211856e+000	 1.081254414997967e+001
 3.745554912702627e+000	 2.448763646393434e+000	 1.083093301969531e+001
 3.997278030740859e+000	 2.066825668743275e+000	 1.074655087189413e+001
 3.976159030383603e+000	 2.107168565897559e+000	 1.073373935631316e+001
 3.954599812824290e+000	 2.147356589020302e+000	 1.072488506220258e+001
 3.932601800014996e+000	 2.187382701429100e+000	 1.072002879519620e+001
 3.910166560942135e+000	 2.227239876097466e+000	 1.071920784189321e+001
 3.887295811865206e+000	 2.266921099430403e+000	 1.072245586474917e+001
 3.863991416440920e+000	 2.306419375061632e+000	 1.072980280628170e+001
 3.840255385731489e+000	 2.345727727668477e+000	 1.074127480300518e+001
 3.816089878095935e+000	 2.384839206800333e+000	 1.075689410948252e+001
 3.791497198963489e+000	 2.423746890716575e+000	 1.077667903285364e+001
 3.766479800488311e+000	 2.462443890229713e+000	 1.080064387816961e+001
 3.557230922676468e+000	 2.325641451889307e+000	 1.083519998720193e+001
 3.533204709905683e+000	 2.361983166298250e+000	 1.085766366670182e+001
 3.508782419009181e+000	 2.398112994838169e+000	 1.087592180923185e+001
 3.483966778545826e+000	 2.434024545055288e+000	 1.089074115179061e+001
 3.458760653213695e+000	 2.469711469727997e+000	 1.090290951175096e+001
 3.433167042958189e+000	 2.505167470460531e+000	 1.091057283020607e+001
 3.407189081967097e+000	 2.540386301257156e+000	 1.089933363702598e+001
 3.380830037553035e+000	 2.575361772072694e+000	 1.088366379872894e+001
 3.354093308923844e+000	 2.610087752335311e+000	 1.086417972691003e+001
 3.326982425841762e+000	 2.644558174437429e+000	 1.084152072597897e+001
 3.299501047172259e+000	 2.678767037190700e+000	 1.081634791962301e+001
 3.578155810453152e+000	 2.339321695721108e+000	 1.082684955178374e+001
 3.553988267019065e+000	 2.375877184920824e+000	 1.084823624745542e+001
 3.529422315587982e+000	 2.412219541864151e+000	 1.086607105982724e+001
 3.504460700769116e+000	 2.448342336494647e+000	 1.088112953683594e+001
 3.479106304111708e+000	 2.484239184254102e+000	 1.089420791666999e+001
 3.453362143207898e+000	 2.519903749697368e+000	 1.089605390655681e+001
 3.427231370681874e+000	 2.555329750087555e+000	 1.088637689903052e+001
 3.400717273065733e+000	 2.590510958967458e+000	 1.087283445034599e+001
 3.373823269562664e+000	 2.625441209703058e+000	 1.085604158482343e+001
 3.346552910698208e+000	 2.660114398994962e+000	 1.083663599166252e+001
 3.318909876860575e+000	 2.694524490353718e+000	 1.081527694318418e+001
 3.599080698230837e+000	 2.353001939553409e+000	 1.082054119557958e+001
 3.574771824133441e+000	 2.389771203543980e+000	 1.084054034783102e+001
 3.550062212167763e+000	 2.426326088890770e+000	 1.085762930869899e+001
 3.524954622993362e+000	 2.462660127934669e+000	 1.087259282269939e+001
 3.499451955010643e+000	 2.498766898780867e+000	 1.088623594619977e+001
 3.473557243458482e+000	 2.534640028934828e+000	 1.088225625164576e+001
 3.447273659397470e+000	 2.570273198918516e+000	 1.087383424343458e+001
 3.420604508579189e+000	 2.605660145862691e+000	 1.086209829014936e+001
 3.393553230202166e+000	 2.640794667071146e+000	 1.084766231542220e+001
 3.366123395555251e+000	 2.675670623552683e+000	 1.083116269407792e+001
 3.338318706549391e+000	 2.710281943516740e+000	 1.081325716181448e+001
 3.620005586009521e+000	 2.366682183386207e+000	 1.081624290315438e+001
 3.595555381248813e+000	 2.403665222167719e+000	 1.083454614518524e+001
 3.570702108748525e+000	 2.440432635918028e+000	 1.085056906167606e+001
 3.545448545218563e+000	 2.476977919375354e+000	 1.086510598021955e+001
 3.519797605910497e+000	 2.513294613308290e+000	 1.087336183300043e+001
 3.493752343709944e+000	 2.549376308172914e+000	 1.086925755350550e+001
 3.467315948113889e+000	 2.585216647750037e+000	 1.086178739092064e+001
 3.440491744093400e+000	 2.620809332758388e+000	 1.085154116576655e+001
 3.413283190842348e+000	 2.656148124439576e+000	 1.083913198675100e+001
 3.385693880412890e+000	 2.691226848110591e+000	 1.082519521430091e+001
 3.357727536238708e+000	 2.726039396679764e+000	 1.081038736134150e+001
 3.640930473789205e+000	 2.380362427219501e+000	 1.081392316034571e+001
 3.616338938365180e+000	 2.417559240792040e+000	 1.083022422875485e+001
 3.591342005330266e+000	 2.454539182945924e+000	 1.084486314343367e+001
 3.565942467444717e+000	 2.491295710816703e+000	 1.085864420243943e+001
 3.540143256811272e+000	 2.527822327836373e+000	 1.086111189393380e+001
 3.513947443962279e+000	 2.564112587411625e+000	 1.085713551841216e+001
 3.487358236831127e+000	 2.600160096582118e+000	 1.085031797317476e+001
 3.460378979608368e+000	 2.635958519654554e+000	 1.084124872513930e+001
 3.433013151483213e+000	 2.671501581808349e+000	 1.083054035307537e+001
 3.405264365271126e+000	 2.706783072668687e+000	 1.081882750217890e+001
 3.377136365928527e+000	 2.741796849842790e+000	 1.080676577560943e+001
 3.661855361569890e+000	 2.394042671053293e+000	 1.081355093994172e+001
 3.637122495482541e+000	 2.431453259416944e+000	 1.082754558788877e+001
 3.611981901912988e+000	 2.468645729974458e+000	 1.084048468838342e+001
 3.586436389671830e+000	 2.505613502258716e+000	 1.085133261230349e+001
 3.560488907712967e+000	 2.542350042365116e+000	 1.085009804393119e+001
 3.534142544215492e+000	 2.578848866650962e+000	 1.084596787036415e+001
 3.507400525549186e+000	 2.615103545414761e+000	 1.083950753542940e+001
 3.480266215124093e+000	 2.651107706551186e+000	 1.083130642222888e+001
 3.452743112124759e+000	 2.686855039177464e+000	 1.082197686384696e+001
 3.424834850129957e+000	 2.722339297226971e+000	 1.081215308865171e+001
 3.396545195618846e+000	 2.757554303005819e+000	 1.080249010224991e+001
 3.682780249351574e+000	 2.407722914887582e+000	 1.081509568784731e+001
 3.657906052600898e+000	 2.445347278042430e+000	 1.082648160068128e+001
 3.632621798496690e+000	 2.482752277003630e+000	 1.083740713187394e+001
 3.606930311899897e+000	 2.519931293701392e+000	 1.084255788712389e+001
 3.580834558615585e+000	 2.556877756894518e+000	 1.084039438909352e+001
 3.554337644469580e+000	 2.593585145890925e+000	 1.083583235057874e+001
 3.527442814268067e+000	 2.630046994247966e+000	 1.082943753891942e+001
 3.500153450640573e+000	 2.666256893448284e+000	 1.082179952252688e+001
 3.472473072766985e+000	 2.702208496546921e+000	 1.081353067236291e+001
 3.444405334989385e+000	 2.737895521785442e+000	 1.080526509765243e+001
 3.415954025309669e+000	 2.773311756168852e+000	 1.079765751791540e+001
 3.703705137134258e+000	 2.421403158722369e+000	 1.081852730971927e+001
 3.678689609720249e+000	 2.459241296668499e+000	 1.082700402299052e+001
 3.653261695081372e+000	 2.496858824033440e+000	 1.083560420168988e+001
 3.627424234128919e+000	 2.534249085144732e+000	 1.083542830980868e+001
 3.601180209519121e+000	 2.571405471424580e+000	 1.083207514740791e+001
 3.574532744724543e+000	 2.608321425131511e+000	 1.082680671700554e+001
 3.547485102987768e+000	 2.644990443081731e+000	 1.082018936325499e+001
 3.520040686157808e+000	 2.681406080345850e+000	 1.081281310837929e+001
 3.492203033409894e+000	 2.717561953916721e+000	 1.080529064413185e+001
 3.463975819849409e+000	 2.753451746344100e+000	 1.079825625760472e+001
 3.435362855000992e+000	 2.789069209331887e+000	 1.079236469299616e+001
 3.724630024917941e+000	 2.435083402557653e+000	 1.082381615805184e+001
 3.699473166840595e+000	 2.473135315295151e+000	 1.082908497782706e+001
 3.673901591667034e+000	 2.510965371063887e+000	 1.083282666620560e+001
 3.647918156358897e+000	 2.548566876588736e+000	 1.083001483875186e+001
 3.621525860423578e+000	 2.585933185955301e+000	 1.082521464560478e+001
 3.594727844980383e+000	 2.623057704372725e+000	 1.081896874385663e+001
 3.567527391708290e+000	 2.659933891916058e+000	 1.081184430871429e+001
 3.539927921675802e+000	 2.696555267243882e+000	 1.080443208413089e+001
 3.511932994053483e+000	 2.732915411286862e+000	 1.079734536495787e+001
 3.483546304710029e+000	 2.769007970902947e+000	 1.079121891253267e+001
 3.454771684692816e+000	 2.804826662494924e+000	 1.078670780584098e+001
 3.745554912702627e+000	 2.448763646393434e+000	 1.083093301969531e+001
 3.720256723961937e+000	 2.487029333922384e+000	 1.083269694509837e+001
 3.694541488253678e+000	 2.525071918094974e+000	 1.083135632256860e+001
 3.668412078589829e+000	 2.562884668033404e+000	 1.082638862488905e+001
 3.641871511328956e+000	 2.600460900486681e+000	 1.081988731612032e+001
 3.614922945237099e+000	 2.637793983614562e+000	 1.081239622115220e+001
 3.587569680429634e+000	 2.674877340750945e+000	 1.080448359845961e+001
 3.559815157194549e+000	 2.711704454142379e+000	 1.079674118109755e+001
 3.531662954697753e+000	 2.748268868657346e+000	 1.078978314875343e+001
 3.503116789571246e+000	 2.784564195461981e+000	 1.078424503279821e+001
 3.474180514385142e+000	 2.820584115657964e+000	 1.078078255650143e+001
 3.766479800488311e+000	 2.462443890229713e+000	 1.080064387816961e+001
 3.741040281084275e+000	 2.500923352550201e+000	 1.083772968932040e+001
 3.715181384841301e+000	 2.539178465126698e+000	 1.083198166083907e+001
 3.688906000821718e+000	 2.577202459478735e+000	 1.082462100634910e+001
 3.662217162235256e+000	 2.614988615018722e+000	 1.081616769416030e+001
 3.635118045494689e+000	 2.652530262857025e+000	 1.080716695428144e+001
 3.607611969151799e+000	 2.689820789586394e+000	 1.079818838067942e+001
 3.579702392714055e+000	 2.726853641041346e+000	 1.078982496237240e+001
 3.551392915342706e+000	 2.763622326028174e+000	 1.078269204509196e+001
 3.522687274433060e+000	 2.800120420021203e+000	 1.077742622548062e+001
 3.493589344077969e+000	 2.836341568821007e+000	 1.077468418001791e+001
 3.299501047172259e+000	 2.678767037190700e+000	 1.081634791962301e+001
 3.271652959324307e+000	 2.712708409240331e+000	 1.077700839548635e+001
 3.243442074581433e+000	 2.746376432436797e+000	 1.074933866767237e+001
 3.214872429326423e+000	 2.779765325159458e+000	 1.073389495886901e+001
 3.185948182162390e+000	 2.812869385586999e+000	 1.073123762525961e+001
 3.156673611930152e+000	 2.845682994912843e+000	 1.074192996171231e+001
 3.127053115624469e+000	 2.878200620501056e+000	 1.076653697804024e+001
 3.097091206211275e+000	 2.910416818979071e+000	 1.073981144882372e+001
 3.066792510348126e+000	 2.942326239263587e+000	 1.071352851603123e+001
 3.036161766010287e+000	 2.973923625516153e+000	 1.069338638397982e+001
 3.005203820025000e+000	 3.005203820025000e+000	 1.068056966616974e+001
 3.318909876860575e+000	 2.694524490353718e+000	 1.081527694318418e+001
 3.290897976731710e+000	 2.728665517534071e+000	 1.077661007570423e+001
 3.262521145608556e+000	 2.762531587926648e+000	 1.074827684910935e+001
 3.233783443617327e+000	 2.796116885901280e+000	 1.073086722698194e+001
 3.204689053823508e+000	 2.829415676096522e+000	 1.072497688698648e+001
 3.175242280237568e+000	 2.862422306653998e+000	 1.073120598181232e+001
 3.145447545718943e+000	 2.895131212392854e+000	 1.075015786862400e+001
 3.115309389780425e+000	 2.927536917920681e+000	 1.076002161926103e+001
 3.084832466295200e+000	 2.959634040677222e+000	 1.072966833891279e+001
 3.054021541108977e+000	 2.991417293907328e+000	 1.070437947531715e+001
 3.022881489559751e+000	 3.022881489559750e+000	 1.068540036480167e+001
 3.338318706549391e+000	 2.710281943516740e+000	 1.081325716181448e+001
 3.310142994139513e+000	 2.744622625827627e+000	 1.077557467254716e+001
 3.281600216635979e+000	 2.778686743416161e+000	 1.074689998323250e+001
 3.252694457908433e+000	 2.812468446642638e+000	 1.072785684297200e+001
 3.223429925484728e+000	 2.845961966605489e+000	 1.071907629299588e+001
 3.193810948544985e+000	 2.879161618394527e+000	 1.072119538315771e+001
 3.163841975813317e+000	 2.912061804283989e+000	 1.073485585437084e+001
 3.133527573349372e+000	 2.944657016861626e+000	 1.076070279014071e+001
 3.102872422241972e+000	 2.976941842090218e+000	 1.074594717287269e+001
 3.071881316207269e+000	 3.008910962297919e+000	 1.071586222140361e+001
 3.040559159093999e+000	 3.040559159093999e+000	 1.069108501963036e+001
 3.357727536238708e+000	 2.726039396679764e+000	 1.081038736134150e+001
 3.329388011547718e+000	 2.760579734121002e+000	 1.077399359847342e+001
 3.300679287663704e+000	 2.794841898905338e+000	 1.074529180964450e+001
 3.271605472199738e+000	 2.828820007383532e+000	 1.072493957846893e+001
 3.242170797146046e+000	 2.862508257113894e+000	 1.071360335641799e+001
 3.212379616852403e+000	 2.895900930134434e+000	 1.071195713466076e+001
 3.182236405907592e+000	 2.928992396174467e+000	 1.072068107927782e+001
 3.151745756918122e+000	 2.961777115801907e+000	 1.074046013309217e+001
 3.120912378188446e+000	 2.994249643502573e+000	 1.076231896520040e+001
 3.089741091305160e+000	 3.026404630687924e+000	 1.072777726409433e+001
 3.058236828627750e+000	 3.058236828627750e+000	 1.069755474957126e+001
 3.377136365928527e+000	 2.741796849842790e+000	 1.080676577560943e+001
 3.348633028956324e+000	 2.776536842414193e+000	 1.077195786279803e+001
 3.319758358691731e+000	 2.810997054394177e+000	 1.074353581939605e+001
 3.290516486491244e+000	 2.845171568123964e+000	 1.072219111682621e+001
 3.260911668807468e+000	 2.879054547621743e+000	 1.070862566799677e+001
 3.230948285159820e+000	 2.912640241873716e+000	 1.070355045427783e+001
 3.200630836001766e+000	 2.945922988064284e+000	 1.070768411327857e+001
 3.169963940486670e+000	 2.978897214741522e+000	 1.072175149076088e+001
 3.138952334134620e+000	 3.011557444914289e+000	 1.074648216016004e+001
 3.107600866402651e+000	 3.043898299077346e+000	 1.074006823380192e+001
 3.075914498161000e+000	 3.075914498161000e+000	 1.070474185999089e+001
 3.396545195618846e+000	 2.757554303005819e+000	 1.080249010224991e+001
 3.367878046365330e+000	 2.792493950707203e+000	 1.076955808321106e+001
 3.338837429720059e+000	 2.827152209882678e+000	 1.074171526208729e+001
 3.309427500782953e+000	 2.861523128863934e+000	 1.071968705564333e+001
 3.279652540468988e+000	 2.895600838129032e+000	 1.070421089387251e+001
 3.249516953467239e+000	 2.929379553612375e+000	 1.069603480189359e+001
 3.219025266095842e+000	 2.962853579953443e+000	 1.069591594007360e+001
 3.188182124055021e+000	 2.996017313680475e+000	 1.070461910580261e+001
 3.156992290080494e+000	 3.028865246325366e+000	 1.072291520048940e+001
 3.125460641499743e+000	 3.061391967466182e+000	 1.075157966547659e+001
 3.093592167693749e+000	 3.093592167693749e+000	 1.071257980880822e+001
 3.415954025309669e+000	 2.773311756168852e+000	 1.079765751791540e+001
 3.387123063774741e+000	 2.808451059000032e+000	 1.076688449690342e+001
 3.357916500748686e+000	 2.843307365370840e+000	 1.073991315272720e+001
 3.328338515074863e+000	 2.877874689603440e+000	 1.071750290920194e+001
 3.298393412130610e+000	 2.912147128635763e+000	 1.070042677343976e+001
 3.268085621774659e+000	 2.946118865350409e+000	 1.068946987244828e+001
 3.237419696189817e+000	 2.979784171841942e+000	 1.068542794537566e+001
 3.206400307623170e+000	 3.013137412618761e+000	 1.068910579492081e+001
 3.175032246026069e+000	 3.046173047735802e+000	 1.070131570157508e+001
 3.143320416596434e+000	 3.078885635854433e+000	 1.072287580449923e+001
 3.111269837226000e+000	 3.111269837226000e+000	 1.072100317375178e+001
 3.435362855000992e+000	 2.789069209331887e+000	 1.079236469299616e+001
 3.406368081184549e+000	 2.824408167292675e+000	 1.076402697131536e+001
 3.376995571777615e+000	 2.859462520858665e+000	 1.073821227836051e+001
 3.347249529366973e+000	 2.894226250342483e+000	 1.071571411081943e+001
 3.317134283792334e+000	 2.928693419141935e+000	 1.069734111727814e+001
 3.286654290082080e+000	 2.962858177087820e+000	 1.068391558929753e+001
 3.255814126283693e+000	 2.996714763729783e+000	 1.067627190555338e+001
 3.224618491191120e+000	 3.030257511556383e+000	 1.067525493265060e+001
 3.193072201971343e+000	 3.063480849145599e+000	 1.068171838637750e+001
 3.161180191692725e+000	 3.096379304242099e+000	 1.069652315730811e+001
 3.128947506757750e+000	 3.128947506757750e+000	 1.072159967490302e+001
 3.454771684692816e+000	 2.804826662494924e+000	 1.078670780584098e+001
 3.425613098594761e+000	 2.840365275585138e+000	 1.076107501452275e+001
 3.396074642806847e+000	 2.875617676346153e+000	 1.073669520447112e+001
 3.366160543659284e+000	 2.910577811081062e+000	 1.071439601512324e+001
 3.335875155454158e+000	 2.945239709647549e+000	 1.069502180515265e+001
 3.305222958389501e+000	 2.979597488824607e+000	 1.067943209779636e+001
 3.274208556377471e+000	 3.013645355616963e+000	 1.066849997665780e+001
 3.242836674758871e+000	 3.047377610493341e+000	 1.066311043568934e+001
 3.211112157916318e+000	 3.080788650554756e+000	 1.066415868722007e+001
 3.179039966788617e+000	 3.113872972629180e+000	 1.067254843204223e+001
 3.146625176289000e+000	 3.146625176289000e+000	 1.069595168808231e+001
 3.474180514385142e+000	 2.820584115657964e+000	 1.078078255650143e+001
 3.444858116005373e+000	 2.856322383877417e+000	 1.075811778527522e+001
 3.415153713836379e+000	 2.891772831833303e+000	 1.073544428117104e+001
 3.385071557951796e+000	 2.926929371819179e+000	 1.071362390024892e+001
 3.354616027116083e+000	 2.961786000152605e+000	 1.069353678408115e+001
 3.323791626696921e+000	 2.996336800560769e+000	 1.067607975909798e+001
 3.292602986471148e+000	 3.030575947503485e+000	 1.066216468381676e+001
 3.261054858326421e+000	 3.064497709429634e+000	 1.065271674775246e+001
 3.229152113860992e+000	 3.098096451963272e+000	 1.064867272597474e+001
 3.196899741884108e+000	 3.131366641015676e+000	 1.065424969446058e+001
 3.164302845819750e+000	 3.164302845819750e+000	 1.067450963086248e+001
 3.493589344077969e+000	 2.836341568821007e+000	 1.077468418001791e+001
 3.464103133416387e+000	 2.872279492169516e+000	 1.075524410269962e+001
 3.434232784866212e+000	 2.907927987320115e+000	 1.073454164918288e+001
 3.403982572244511e+000	 2.943280932556834e+000	 1.071347296996488e+001
 3.373356898778110e+000	 2.978332290657102e+000	 1.069295406646629e+001
 3.342360295004344e+000	 3.013076112296309e+000	 1.067391914415941e+001
 3.310997416564727e+000	 3.047506539389349e+000	 1.065731891098275e+001
 3.279273041893774e+000	 3.081617808365264e+000	 1.064411882493400e+001
 3.247192069805367e+000	 3.115404253371149e+000	 1.063529729490778e+001
 3.214759516979200e+000	 3.148860309401588e+000	 1.064494552347236e+001
 3.181980515350000e+000	 3.181980515350000e+000	 1.065720609597841e+001
 3.005203820025000e+000	 3.005203820025000e+000	 1.068056966616974e+001
 2.973923625516154e+000	 3.036161766010285e+000	 1.067763095534128e+001
 2.942326239263588e+000	 3.066792510348125e+000	 1.067377738677302e+001
 2.910416818979072e+000	 3.097091206211275e+000	 1.067046132563715e+001
 2.878200620501058e+000	 3.127053115624468e+000	 1.066776280498241e+001
 2.845682994912844e+000	 3.156673611930151e+000	 1.064440374190245e+001
 2.812869385587000e+000	 3.185948182162389e+000	 1.061523128326561e+001
 2.779765325159459e+000	 3.214872429326422e+000	 1.058149974295449e+001
 2.746376432436799e+000	 3.243442074581432e+000	 1.054446885741803e+001
 2.712708409240333e+000	 3.271652959324308e+000	 1.050540108407835e+001
 2.678767037190700e+000	 3.299501047172260e+000	 1.046555889398170e+001
 3.022881489559751e+000	 3.022881489559750e+000	 1.068540036480167e+001
 2.991417293907329e+000	 3.054021541108976e+000	 1.068129111659133e+001
 2.959634040677222e+000	 3.084832466295199e+000	 1.067748593230817e+001
 2.927536917920683e+000	 3.115309389780423e+000	 1.067545394515484e+001
 2.895131212392854e+000	 3.145447545718941e+000	 1.066345180956318e+001
 2.862422306653998e+000	 3.175242280237566e+000	 1.064084628871300e+001
 2.829415676096524e+000	 3.204689053823506e+000	 1.061340671119571e+001
 2.796116885901280e+000	 3.233783443617326e+000	 1.058239482639525e+001
 2.762531587926650e+000	 3.262521145608555e+000	 1.054907705091990e+001
 2.728665517534072e+000	 3.290897976731708e+000	 1.051472173734563e+001
 2.694524490353718e+000	 3.318909876860575e+000	 1.048059643812582e+001
 3.040559159093999e+000	 3.040559159093999e+000	 1.069108501963036e+001
 3.008910962297920e+000	 3.071881316207268e+000	 1.068536860409764e+001
 2.976941842090219e+000	 3.102872422241972e+000	 1.068116477147960e+001
 2.944657016861628e+000	 3.133527573349372e+000	 1.067619139109575e+001
 2.912061804283991e+000	 3.163841975813316e+000	 1.065898613809523e+001
 2.879161618394528e+000	 3.193810948544984e+000	 1.063664820781436e+001
 2.845961966605489e+000	 3.223429925484727e+000	 1.061044074795977e+001
 2.812468446642639e+000	 3.252694457908430e+000	 1.058163358004626e+001
 2.778686743416164e+000	 3.281600216635978e+000	 1.055150044852464e+001
 2.744622625827629e+000	 3.310142994139512e+000	 1.052131625890869e+001
 2.710281943516740e+000	 3.338318706549391e+000	 1.049235431197882e+001
 3.058236828627750e+000	 3.058236828627750e+000	 1.069755474957126e+001
 3.026404630687927e+000	 3.089741091305159e+000	 1.068979693581124e+001
 2.994249643502575e+000	 3.120912378188445e+000	 1.068475004827863e+001
 2.961777115801909e+000	 3.151745756918121e+000	 1.067280759534240e+001
 2.928992396174468e+000	 3.182236405907591e+000	 1.065444722030373e+001
 2.895900930134435e+000	 3.212379616852401e+000	 1.063189462761556e+001
 2.862508257113896e+000	 3.242170797146046e+000	 1.060642237493120e+001
 2.828820007383535e+000	 3.271605472199736e+000	 1.057930899277007e+001
 2.794841898905339e+000	 3.300679287663703e+000	 1.055183620126986e+001
 2.760579734121003e+000	 3.329388011547717e+000	 1.052528611674296e+001
 2.726039396679764e+000	 3.357727536238708e+000	 1.050093845520684e+001
 3.075914498161000e+000	 3.075914498161000e+000	 1.070474185999089e+001
 3.043898299077347e+000	 3.107600866402649e+000	 1.069451069419534e+001
 3.011557444914291e+000	 3.138952334134619e+000	 1.068533387351475e+001
 2.978897214741524e+000	 3.169963940486670e+000	 1.066989621473123e+001
 2.945922988064285e+000	 3.200630836001765e+000	 1.064991715540813e+001
 2.912640241873717e+000	 3.230948285159820e+000	 1.062667120483165e+001
 2.879054547621744e+000	 3.260911668807466e+000	 1.060144095596029e+001
 2.845171568123967e+000	 3.290516486491244e+000	 1.057551428550983e+001
 2.810997054394178e+000	 3.319758358691729e+000	 1.055018153738796e+001
 2.776536842414195e+000	 3.348633028956322e+000	 1.052673269672300e+001
 2.741796849842790e+000	 3.377136365928527e+000	 1.050645456175229e+001
 3.093592167693749e+000	 3.093592167693749e+000	 1.071257980880822e+001
 3.061391967466183e+000	 3.125460641499740e+000	 1.069945012479147e+001
 3.028865246325367e+000	 3.156992290080494e+000	 1.068595238709791e+001
 2.996017313680475e+000	 3.188182124055019e+000	 1.066753672317166e+001
 2.962853579953444e+000	 3.219025266095841e+000	 1.064547869299364e+001
 2.929379553612376e+000	 3.249516953467239e+000	 1.062106410938932e+001
 2.895600838129033e+000	 3.279652540468988e+000	 1.059558622644602e+001
 2.861523128863935e+000	 3.309427500782952e+000	 1.057034290465836e+001
 2.827152209882678e+000	 3.338837429720057e+000	 1.054663376010044e+001
 2.792493950707204e+000	 3.367878046365330e+000	 1.052575730496820e+001
 2.757554303005820e+000	 3.396545195618847e+000	 1.050900808685458e+001
 3.111269837226000e+000	 3.111269837226000e+000	 1.072100317375178e+001
 3.078885635854434e+000	 3.143320416596433e+000	 1.070543318396155e+001
 3.046173047735802e+000	 3.175032246026067e+000	 1.068764470195571e+001
 3.013137412618763e+000	 3.206400307623170e+000	 1.066580935527253e+001
 2.979784171841943e+000	 3.237419696189816e+000	 1.064121521453506e+001
 2.946118865350410e+000	 3.268085621774658e+000	 1.061516000984700e+001
 2.912147128635764e+000	 3.298393412130610e+000	 1.058894828278092e+001
 2.877874689603441e+000	 3.328338515074862e+000	 1.056388851565336e+001
 2.843307365370841e+000	 3.357916500748686e+000	 1.054129024548764e+001
 2.808451059000032e+000	 3.387123063774738e+000	 1.052246117010860e+001
 2.773311756168852e+000	 3.415954025309669e+000	 1.050870425383137e+001
 3.128947506757750e+000	 3.128947506757750e+000	 1.072159967490302e+001
 3.096379304242098e+000	 3.161180191692723e+000	 1.071299099511215e+001
 3.063480849145600e+000	 3.193072201971341e+000	 1.069048890544321e+001
 3.030257511556385e+000	 3.224618491191119e+000	 1.066479508485337e+001
 2.996714763729785e+000	 3.255814126283693e+000	 1.063721071554667e+001
 2.962858177087821e+000	 3.286654290082079e+000	 1.060904605930922e+001
 2.928693419141937e+000	 3.317134283792333e+000	 1.058161757215342e+001
 2.894226250342484e+000	 3.347249529366971e+000	 1.055624499678971e+001
 2.859462520858667e+000	 3.376995571777615e+000	 1.053424844043049e+001
 2.824408167292676e+000	 3.406368081184548e+000	 1.051694544547377e+001
 2.789069209331887e+000	 3.435362855000992e+000	 1.050564806063014e+001
 3.146625176289000e+000	 3.146625176289000e+000	 1.069595168808231e+001
 3.113872972629181e+000	 3.179039966788615e+000	 1.072219984254718e+001
 3.080788650554756e+000	 3.211112157916316e+000	 1.069456392075509e+001
 3.047377610493342e+000	 3.242836674758869e+000	 1.066457560418014e+001
 3.013645355616966e+000	 3.274208556377470e+000	 1.063354978833404e+001
 2.979597488824608e+000	 3.305222958389499e+000	 1.060280988181572e+001
 2.945239709647550e+000	 3.335875155454158e+000	 1.057368488269401e+001
 2.910577811081064e+000	 3.366160543659283e+000	 1.054750643324029e+001
 2.875617676346155e+000	 3.396074642806846e+000	 1.052560586062174e+001
 2.840365275585138e+000	 3.425613098594759e+000	 1.050931121120805e+001
 2.804826662494924e+000	 3.454771684692816e+000	 1.049994428615870e+001
 3.164302845819750e+000	 3.164302845819750e+000	 1.067450963086248e+001
 3.131366641015677e+000	 3.196899741884106e+000	 1.071810716036222e+001
 3.098096451963273e+000	 3.229152113860990e+000	 1.069994948357819e+001
 3.064497709429635e+000	 3.261054858326421e+000	 1.066523330389678e+001
 3.030575947503487e+000	 3.292602986471148e+000	 1.063031760532380e+001
 2.996336800560771e+000	 3.323791626696921e+000	 1.059653955918691e+001
 2.961786000152606e+000	 3.354616027116082e+000	 1.056524133395178e+001
 2.926929371819180e+000	 3.385071557951795e+000	 1.053776711127731e+001
 2.891772831833304e+000	 3.415153713836378e+000	 1.051546008864393e+001
 2.856322383877419e+000	 3.444858116005372e+000	 1.049965947631487e+001
 2.820584115657964e+000	 3.474180514385142e+000	 1.049169749640371e+001
 3.181980515350000e+000	 3.181980515350000e+000	 1.065720609597841e+001
 3.148860309401589e+000	 3.214759516979199e+000	 1.069095160109895e+001
 3.115404253371151e+000	 3.247192069805366e+000	 1.070672611952221e+001
 3.081617808365265e+000	 3.279273041893772e+000	 1.066685125362591e+001
 3.047506539389349e+000	 3.310997416564726e+000	 1.062759990294921e+001
 3.013076112296310e+000	 3.342360295004343e+000	 1.059032361830769e+001
 2.978332290657104e+000	 3.373356898778109e+000	 1.055637836768830e+001
 2.943280932556835e+000	 3.403982572244510e+000	 1.052712151268620e+001
 2.907927987320116e+000	 3.434232784866211e+000	 1.050390877211123e+001
 2.872279492169517e+000	 3.464103133416387e+000	 1.048809118063280e+001
 2.836341568821007e+000	 3.493589344077969e+000	 1.048101205034513e+001
 2.678767037190700e+000	 3.299501047172260e+000	 1.046555889398170e+001
 2.644558174437429e+000	 3.326982425841761e+000	 1.042835454166950e+001
 2.610087752335312e+000	 3.354093308923843e+000	 1.039437696347582e+001
 2.575361772072695e+000	 3.380830037553033e+000	 1.036448345789890e+001
 2.540386301257157e+000	 3.407189081967097e+000	 1.033952037166437e+001
 2.505167470460533e+000	 3.433167042958188e+000	 1.032032088307599e+001
 2.469711469727998e+000	 3.458760653213694e+000	 1.031198369310787e+001
 2.434024545055290e+000	 3.483966778545825e+000	 1.029774089402299e+001
 2.398112994838170e+000	 3.508782419009180e+000	 1.027729826196340e+001
 2.361983166298252e+000	 3.533204709905684e+000	 1.025221876947517e+001
 2.325641451889307e+000	 3.557230922676468e+000	 1.022404135693870e+001
 2.694524490353718e+000	 3.318909876860575e+000	 1.048059643812582e+001
 2.660114398994962e+000	 3.346552910698207e+000	 1.044270386376508e+001
 2.625441209703059e+000	 3.373823269562664e+000	 1.040763695473279e+001
 2.590510958967460e+000	 3.400717273065733e+000	 1.037629995408675e+001
 2.555329750087556e+000	 3.427231370681872e+000	 1.034958639457507e+001
 2.519903749697368e+000	 3.453362143207897e+000	 1.032837680618412e+001
 2.484239184254103e+000	 3.479106304111707e+000	 1.031637685556563e+001
 2.448342336494648e+000	 3.504460700769115e+000	 1.030426361803692e+001
 2.412219541864152e+000	 3.529422315587981e+000	 1.028569990755294e+001
 2.375877184920825e+000	 3.553988267019064e+000	 1.026231948043630e+001
 2.339321695721108e+000	 3.578155810453152e+000	 1.023573184099180e+001
 2.710281943516740e+000	 3.338318706549391e+000	 1.049235431197882e+001
 2.675670623552684e+000	 3.366123395555250e+000	 1.045396832690025e+001
 2.640794667071147e+000	 3.393553230202165e+000	 1.041801223555848e+001
 2.605660145862692e+000	 3.420604508579188e+000	 1.038543751231065e+001
 2.570273198918516e+000	 3.447273659397470e+000	 1.035718515896981e+001
 2.534640028934830e+000	 3.473557243458482e+000	 1.033418333595405e+001
 2.498766898780868e+000	 3.499451955010642e+000	 1.031761164479108e+001
 2.462660127934670e+000	 3.524954622993360e+000	 1.030774885031679e+001
 2.426326088890773e+000	 3.550062212167762e+000	 1.029118947318918e+001
 2.389771203543982e+000	 3.574771824133441e+000	 1.026963873578139e+001
 2.353001939553409e+000	 3.599080698230837e+000	 1.024477738182735e+001
 2.726039396679764e+000	 3.357727536238708e+000	 1.050093845520684e+001
 2.691226848110592e+000	 3.385693880412889e+000	 1.046224532001857e+001
 2.656148124439577e+000	 3.413283190842348e+000	 1.042559151801611e+001
 2.620809332758391e+000	 3.440491744093400e+000	 1.039197604828154e+001
 2.585216647750037e+000	 3.467315948113887e+000	 1.036238767148182e+001
 2.549376308172916e+000	 3.493752343709943e+000	 1.033780246401494e+001
 2.513294613308291e+000	 3.519797605910497e+000	 1.031918140540865e+001
 2.476977919375356e+000	 3.545448545218562e+000	 1.030836309607945e+001
 2.440432635918029e+000	 3.570702108748523e+000	 1.029392128577798e+001
 2.403665222167720e+000	 3.595555381248813e+000	 1.027431857638968e+001
 2.366682183386207e+000	 3.620005586009521e+000	 1.025130763713191e+001
 2.741796849842790e+000	 3.377136365928527e+000	 1.050645456175229e+001
 2.706783072668689e+000	 3.405264365271124e+000	 1.046763212139613e+001
 2.671501581808350e+000	 3.433013151483212e+000	 1.043046354085452e+001
 2.635958519654555e+000	 3.460378979608367e+000	 1.039599564397564e+001
 2.600160096582120e+000	 3.487358236831126e+000	 1.036526524674476e+001
 2.564112587411627e+000	 3.513947443962279e+000	 1.033929663381455e+001
 2.527822327836374e+000	 3.540143256811271e+000	 1.031909906851111e+001
 2.491295710816704e+000	 3.565942467444717e+000	 1.030627360595078e+001
 2.454539182945926e+000	 3.591342005330265e+000	 1.029405056725659e+001
 2.417559240792042e+000	 3.616338938365179e+000	 1.027650208957738e+001
 2.380362427219501e+000	 3.640930473789204e+000	 1.025545346414085e+001
 2.757554303005820e+000	 3.396545195618847e+000	 1.050900808685458e+001
 2.722339297226972e+000	 3.424834850129955e+000	 1.047022590180352e+001
 2.686855039177465e+000	 3.452743112124757e+000	 1.043271706874561e+001
 2.651107706551188e+000	 3.480266215124091e+000	 1.039757654288405e+001
 2.615103545414763e+000	 3.507400525549186e+000	 1.036588949859269e+001
 2.578848866650964e+000	 3.534142544215492e+000	 1.033872872771016e+001
 2.542350042365117e+000	 3.560488907712966e+000	 1.031715207154087e+001
 2.505613502258717e+000	 3.586436389671829e+000	 1.030219989315795e+001
 2.468645729974460e+000	 3.611981901912987e+000	 1.029173340902135e+001
 2.431453259416945e+000	 3.637122495482539e+000	 1.027633337919951e+001
 2.394042671053293e+000	 3.661855361569890e+000	 1.025734688536548e+001
 2.773311756168852e+000	 3.415954025309669e+000	 1.050870425383137e+001
 2.737895521785443e+000	 3.444405334989383e+000	 1.047012372755989e+001
 2.702208496546922e+000	 3.472473072766984e+000	 1.043244089154798e+001
 2.666256893448286e+000	 3.500153450640572e+000	 1.039679914542417e+001
 2.630046994247967e+000	 3.527442814268066e+000	 1.036433233156010e+001
 2.593585145890925e+000	 3.554337644469579e+000	 1.033616205449953e+001
 2.556877756894519e+000	 3.580834558615584e+000	 1.031339503433418e+001
 2.519931293701394e+000	 3.606930311899896e+000	 1.029712050079500e+001
 2.482752277003631e+000	 3.632621798496689e+000	 1.028712674722708e+001
 2.445347278042432e+000	 3.657906052600896e+000	 1.027395753677094e+001
 2.407722914887582e+000	 3.682780249351574e+000	 1.025712105548868e+001
 2.789069209331887e+000	 3.435362855000992e+000	 1.050564806063014e+001
 2.753451746344101e+000	 3.463975819849408e+000	 1.046742256348365e+001
 2.717561953916722e+000	 3.492203033409893e+000	 1.042972382359540e+001
 2.681406080345851e+000	 3.520040686157808e+000	 1.039374400450685e+001
 2.644990443081733e+000	 3.547485102987768e+000	 1.036066593266999e+001
 2.608321425131512e+000	 3.574532744724542e+000	 1.033166033737456e+001
 2.571405471424581e+000	 3.601180209519120e+000	 1.030788312487019e+001
 2.534249085144733e+000	 3.627424234128919e+000	 1.029047269362799e+001
 2.496858824033442e+000	 3.653261695081372e+000	 1.028038833892391e+001
 2.459241296668500e+000	 3.678689609720248e+000	 1.026952061356641e+001
 2.421403158722368e+000	 3.703705137134258e+000	 1.025491022938263e+001
 2.804826662494924e+000	 3.454771684692816e+000	 1.049994428615870e+001
 2.769007970902948e+000	 3.483546304710028e+000	 1.046221927574357e+001
 2.732915411286864e+000	 3.511932994053482e+000	 1.042465470300935e+001
 2.696555267243883e+000	 3.539927921675799e+000	 1.038849182125279e+001
 2.659933891916059e+000	 3.567527391708290e+000	 1.035496276349885e+001
 2.623057704372725e+000	 3.594727844980382e+000	 1.032528770228099e+001
 2.585933185955302e+000	 3.621525860423578e+000	 1.030067204387352e+001
 2.548566876588737e+000	 3.647918156358896e+000	 1.028230366409725e+001
 2.510965371063890e+000	 3.673901591667034e+000	 1.027135019265467e+001
 2.473135315295151e+000	 3.699473166840595e+000	 1.026316959366099e+001
 2.435083402557653e+000	 3.724630024917941e+000	 1.025084973120466e+001
 2.820584115657964e+000	 3.474180514385142e+000	 1.049169749640371e+001
 2.784564195461982e+000	 3.503116789571245e+000	 1.045461063461435e+001
 2.748268868657348e+000	 3.531662954697752e+000	 1.041732239103448e+001
 2.711704454142382e+000	 3.559815157194548e+000	 1.038112344085266e+001
 2.674877340750947e+000	 3.587569680429633e+000	 1.034729555250752e+001
 2.637793983614563e+000	 3.614922945237097e+000	 1.031710866666830e+001
 2.600460900486683e+000	 3.641871511328956e+000	 1.029181800993325e+001
 2.562884668033405e+000	 3.668412078589828e+000	 1.027266125054501e+001
 2.525071918094975e+000	 3.694541488253676e+000	 1.026085570325524e+001
 2.487029333922386e+000	 3.720256723961937e+000	 1.025505236787418e+001
 2.448763646393434e+000	 3.745554912702627e+000	 1.024507592452887e+001
 2.836341568821007e+000	 3.493589344077969e+000	 1.048101205034513e+001
 2.800120420021204e+000	 3.522687274433059e+000	 1.044469331714034e+001
 2.763622326028175e+000	 3.551392915342705e+000	 1.040781577139636e+001
 2.726853641041347e+000	 3.579702392714053e+000	 1.037171984856513e+001
 2.689820789586396e+000	 3.607611969151798e+000	 1.033773728762775e+001
 2.652530262857026e+000	 3.635118045494689e+000	 1.030718812861465e+001
 2.614988615018723e+000	 3.662217162235255e+000	 1.028137774511770e+001
 2.577202459478736e+000	 3.688906000821717e+000	 1.026159391927344e+001
 2.539178465126700e+000	 3.715181384841300e+000	 1.024910396652672e+001
 2.500923352550203e+000	 3.741040281084274e+000	 1.024515191729044e+001
 2.462443890229713e+000	 3.766479800488312e+000	 1.024225156071894e+001
 2.325641451889307e+000	 3.557230922676468e+000	 1.022404135693870e+001
 2.289094285687273e+000	 3.580858465680938e+000	 1.014226501867654e+001
 2.252348139770831e+000	 3.604084884861436e+000	 1.006872666185664e+001
 2.215409520594834e+000	 3.626907864294587e+000	 1.000522643147641e+001
 2.178284965358761e+000	 3.649325226630562e+000	 9.953514629512075e+000
 2.140981038377075e+000	 3.671334933419178e+000	 9.915287776981900e+000
 2.103504327454526e+000	 3.692935085323902e+000	 9.892184819575387e+000
 2.065861440270377e+000	 3.714123922224504e+000	 9.885783485443049e+000
 2.028059000775461e+000	 3.734899823209242e+000	 9.897596803205618e+000
 1.990103645605906e+000	 3.755261306457614e+000	 9.906805832366846e+000
 1.952002020517314e+000	 3.775207029014879e+000	 9.861394821315519e+000
 2.339321695721108e+000	 3.578155810453152e+000	 1.023573184099180e+001
 2.302559546188415e+000	 3.601922339004716e+000	 1.016269832505828e+001
 2.265597246472444e+000	 3.625285384180478e+000	 1.009815726806655e+001
 2.228441341301310e+000	 3.648242616433983e+000	 1.004395859785265e+001
 2.191098406328613e+000	 3.670791845607463e+000	 1.000190160505733e+001
 2.153575044482423e+000	 3.692931021259851e+000	 9.973730913492242e+000
 2.115877882319286e+000	 3.714658232882046e+000	 9.961132596651272e+000
 2.078013566387166e+000	 3.735971710000170e+000	 9.965730449152519e+000
 2.039988759601313e+000	 3.756869822167702e+000	 9.963912796069415e+000
 2.001810137636889e+000	 3.777351078847552e+000	 9.918259105746211e+000
 1.963484385342178e+000	 3.797414129185244e+000	 9.874123453690475e+000
 2.353001939553409e+000	 3.599080698230837e+000	 1.024477738182735e+001
 2.316024806689954e+000	 3.622986212329489e+000	 1.018026772983146e+001
 2.278846353174354e+000	 3.646485883500497e+000	 1.012450987660709e+001
 2.241473162007985e+000	 3.669577368574334e+000	 1.007940436061879e+001
 2.203911847298560e+000	 3.692258464585284e+000	 1.004680027775838e+001
 2.166169050587768e+000	 3.714527109101399e+000	 1.002849115871600e+001
 2.128251437183943e+000	 3.736381380441008e+000	 1.002621099511052e+001
 2.090165692503751e+000	 3.757819497776587e+000	 1.001729384398886e+001
 2.051918518426860e+000	 3.778839821126839e+000	 9.972105433363586e+000
 2.013516629667468e+000	 3.799440851238081e+000	 9.927483324322873e+000
 1.974966750166537e+000	 3.819621229356107e+000	 9.884456597089857e+000
 2.366682183386207e+000	 3.620005586009521e+000	 1.025130763713191e+001
 2.329490067191891e+000	 3.644050085655256e+000	 1.019509669879223e+001
 2.292095459876561e+000	 3.667686382821499e+000	 1.014790172609794e+001
 2.254504982714857e+000	 3.690912120715638e+000	 1.011167470333786e+001
 2.216725288268605e+000	 3.713725083564023e+000	 1.008831535560655e+001
 2.178763056693109e+000	 3.736123196943818e+000	 1.007966693187233e+001
 2.140624992048495e+000	 3.758104528000787e+000	 1.006661966924880e+001
 2.102317818620132e+000	 3.779667285553756e+000	 1.002270657411070e+001
 2.063848277252104e+000	 3.800809820086653e+000	 9.978326617568696e+000
 2.025223121697643e+000	 3.821530623629202e+000	 9.934563065714135e+000
 1.986449114990393e+000	 3.841828329527464e+000	 9.892474456650255e+000
 2.380362427219501e+000	 3.640930473789204e+000	 1.025545346414085e+001
 2.342955327694226e+000	 3.665113958982019e+000	 1.020730990770594e+001
 2.305344566579066e+000	 3.688886882143479e+000	 1.016845127616085e+001
 2.267536803421926e+000	 3.712246872857897e+000	 1.014088184221301e+001
 2.229538729238747e+000	 3.735191702543681e+000	 1.012655279146901e+001
 2.191357062798447e+000	 3.757719284787112e+000	 1.011144634361987e+001
 2.152998546912945e+000	 3.779827675561384e+000	 1.006972242305301e+001
 2.114469944736311e+000	 3.801515073331677e+000	 1.002641711586136e+001
 2.075778036077044e+000	 3.822779819047144e+000	 9.982666555283148e+000
 2.036929613727414e+000	 3.843620396020914e+000	 9.939584222265070e+000
 1.997931479813745e+000	 3.864035429699317e+000	 9.898258567878951e+000
 2.394042671053293e+000	 3.661855361569890e+000	 1.025734688536548e+001
 2.356420588196958e+000	 3.686177832309777e+000	 1.021703320773653e+001
 2.318593673281868e+000	 3.710087381466440e+000	 1.018627817253379e+001
 2.280568624129192e+000	 3.733581625001110e+000	 1.016713919086924e+001
 2.242352170208986e+000	 3.756658321524257e+000	 1.015121135466048e+001
 2.203951068903781e+000	 3.779315372631277e+000	 1.011269577350452e+001
 2.165372101777290e+000	 3.801550823122799e+000	 1.007140323149059e+001
 2.126622070852284e+000	 3.823362861110349e+000	 1.002852119146515e+001
 2.087707794901679e+000	 3.844749818008309e+000	 9.985216715603213e+000
 2.048636105756782e+000	 3.865710168413217e+000	 9.942633963484909e+000
 2.009413844636593e+000	 3.886242529871669e+000	 9.901891758643073e+000
 2.407722914887582e+000	 3.682780249351574e+000	 1.025712105548868e+001
 2.369885848700086e+000	 3.707241705638530e+000	 1.022439359205454e+001
 2.331842779984966e+000	 3.731287880790379e+000	 1.020150321337450e+001
 2.293600444836655e+000	 3.754916377145277e+000	 1.018522992328047e+001
 2.255165611179321e+000	 3.778124940505752e+000	 1.015104835880010e+001
 2.216545075009111e+000	 3.800911460476316e+000	 1.011281377955633e+001
 2.177745656641533e+000	 3.823273970685031e+000	 1.007176321876067e+001
 2.138774196968055e+000	 3.845210648889774e+000	 1.002911573605158e+001
 2.099637553726011e+000	 3.866719816970152e+000	 9.986069794256546e+000
 2.060342597785745e+000	 3.887799940806112e+000	 9.943800699763989e+000
 2.020896209458937e+000	 3.908449630044514e+000	 9.903458112455041e+000
 2.421403158722368e+000	 3.703705137134258e+000	 1.025491022938263e+001
 2.383351109203613e+000	 3.728305578968275e+000	 1.022951916357709e+001
 2.345091886688362e+000	 3.752488380115298e+000	 1.021269161828166e+001
 2.306632265544315e+000	 3.776251129290399e+000	 1.018407717993547e+001
 2.267979052149753e+000	 3.799591559488165e+000	 1.015005402497437e+001
 2.229139081114440e+000	 3.822507548322229e+000	 1.011190677384426e+001
 2.190119211505671e+000	 3.844997118248080e+000	 1.007090467488330e+001
 2.150926323083621e+000	 3.867058436669951e+000	 1.002829886339247e+001
 2.111567312550040e+000	 3.888689815932671e+000	 9.985319678951672e+000
 2.072049089814305e+000	 3.909889713199597e+000	 9.943174047320547e+000
 2.032378574280778e+000	 3.930656730217856e+000	 9.903042933002254e+000
 2.435083402557653e+000	 3.724630024917941e+000	 1.025084973120466e+001
 2.396816369707536e+000	 3.749369452299018e+000	 1.023253910379515e+001
 2.358340993392056e+000	 3.773688879441198e+000	 1.021095113570794e+001
 2.319664086252173e+000	 3.797585881436474e+000	 1.018240202084770e+001
 2.280792493120283e+000	 3.821058178471498e+000	 1.014833993841751e+001
 2.241733087219764e+000	 3.844103636169013e+000	 1.011008228955965e+001
 2.202492766369707e+000	 3.866720265811948e+000	 1.006893102295172e+001
 2.163078449198985e+000	 3.888906224450880e+000	 1.002616983279408e+001
 2.123497071373765e+000	 3.910659814895867e+000	 9.983061415895294e+000
 2.083755581842461e+000	 3.931979485593674e+000	 9.940844794329259e+000
 2.043860939102113e+000	 3.952863830391693e+000	 9.900732709872520e+000
 2.448763646393434e+000	 3.745554912702627e+000	 1.024507592452887e+001
 2.410281630211857e+000	 3.770433325630755e+000	 1.023070797132607e+001
 2.371590100096047e+000	 3.794889378768076e+000	 1.020900525491345e+001
 2.332695906960226e+000	 3.818920633583504e+000	 1.018032108897890e+001
 2.293605934090909e+000	 3.842524797455748e+000	 1.014601876305670e+001
 2.254327093325086e+000	 3.865699724016672e+000	 1.010744894970008e+001
 2.214866321233639e+000	 3.888443413376632e+000	 1.006594678748223e+001
 2.175230575314145e+000	 3.910754012232561e+000	 1.002282901709891e+001
 2.135426830197186e+000	 3.932629813859740e+000	 9.979391177432069e+000
 2.095462073870212e+000	 3.954069257988342e+000	 9.936904868184907e+000
 2.055343303922946e+000	 3.975070930566027e+000	 9.896615085428413e+000
 2.462443890229713e+000	 3.766479800488312e+000	 1.024225156071894e+001
 2.423746890716576e+000	 3.791497198963489e+000	 1.022887762009353e+001
 2.384839206800335e+000	 3.816089878095935e+000	 1.020697556029467e+001
 2.345727727668478e+000	 3.840255385731489e+000	 1.017795206571222e+001
 2.306419375061633e+000	 3.863991416440919e+000	 1.014320421154840e+001
 2.266921099430404e+000	 3.887295811865205e+000	 1.010411643679687e+001
 2.227239876097467e+000	 3.910166560942134e+000	 1.006205756381915e+001
 2.187382701429101e+000	 3.932601800014995e+000	 1.001837787175413e+001
 2.147356589020303e+000	 3.954599812824289e+000	 9.974406230762982e+000
 2.107168565897561e+000	 3.976159030383603e+000	 9.931447303857478e+000
 2.066825668743274e+000	 3.997278030740858e+000	 9.890778822785626e+000
 1.952002020517314e+000	 3.775207029014879e+000	 9.861394821315519e+000
 1.913760776843248e+000	 3.794735786459811e+000	 9.765129407991731e+000
 1.875386567981046e+000	 3.813846512466861e+000	 9.678065867128733e+000
 1.836886045909252e+000	 3.832538278264387e+000	 9.723795206822494e+000
 1.798265857740104e+000	 3.850810291991064e+000	 9.740586707711332e+000
 1.759532642309955e+000	 3.868661897952027e+000	 9.730714543131205e+000
 1.720693026811102e+000	 3.886092575776805e+000	 9.697804570627678e+000
 1.681753623468194e+000	 3.903101939481164e+000	 9.645364916019535e+000
 1.642721026262245e+000	 3.919689736435061e+000	 9.576779376489945e+000
 1.603601807705203e+000	 3.935855846239046e+000	 9.495301202537283e+000
 1.564402515667893e+000	 3.951600279511499e+000	 9.404047268338825e+000
 1.963484385342178e+000	 3.797414129185244e+000	 9.874123453690475e+000
 1.925018193176184e+000	 3.817057761674655e+000	 9.788876720816171e+000
 1.886418253673830e+000	 3.836280903717665e+000	 9.711181585329049e+000
 1.847691257942943e+000	 3.855082621079271e+000	 9.731741076613821e+000
 1.808843892196425e+000	 3.873462117240141e+000	 9.764168069921462e+000
 1.769882834322604e+000	 3.891418732648380e+000	 9.768415659774046e+000
 1.730814750497265e+000	 3.908951943872515e+000	 9.748174534968463e+000
 1.691646291840494e+000	 3.926061362657817e+000	 9.707017248722085e+000
 1.652384091121429e+000	 3.942746734888186e+000	 9.648391476397524e+000
 1.613034759513856e+000	 3.959007939455936e+000	 9.575613656932903e+000
 1.573604883405484e+000	 3.974844987041912e+000	 9.491863027783962e+000
 1.974966750166537e+000	 3.819621229356107e+000	 9.884456597089857e+000
 1.936275609508532e+000	 3.839379736889895e+000	 9.809175823146994e+000
 1.897449939365971e+000	 3.858715294968765e+000	 9.739821326130954e+000
 1.858496469975970e+000	 3.877626963894352e+000	 9.732675680024590e+000
 1.819421926652086e+000	 3.896113942489314e+000	 9.779292784237015e+000
 1.780233026334632e+000	 3.914175567344729e+000	 9.796249649025521e+000
 1.740936474182872e+000	 3.931811311968122e+000	 9.787303676459041e+000
 1.701538960212335e+000	 3.949020785834265e+000	 9.756093676299805e+000
 1.662047155980282e+000	 3.965803733341005e+000	 9.706132976169432e+000
 1.622467711322333e+000	 3.982160032672421e+000	 9.640802920389238e+000
 1.582807251143084e+000	 3.998089694571819e+000	 9.563346767555569e+000
 1.986449114990393e+000	 3.841828329527464e+000	 9.892474456650255e+000
 1.947533025840291e+000	 3.861701712105530e+000	 9.826117924923420e+000
 1.908481625057469e+000	 3.881149686220162e+000	 9.764086891632850e+000
 1.869301682008329e+000	 3.900171306709627e+000	 9.726998495693188e+000
 1.829999961107089e+000	 3.918765767738582e+000	 9.786360044050557e+000
 1.790583218346036e+000	 3.936932402041072e+000	 9.814615063047151e+000
 1.751058197867926e+000	 3.954670680063622e+000	 9.815589560579944e+000
 1.711431628583719e+000	 3.971980209010510e+000	 9.792990442677938e+000
 1.671710220838804e+000	 3.988860731793519e+000	 9.750398473901297e+000
 1.631900663130635e+000	 4.005312125888501e+000	 9.691261631505748e+000
 1.592009618880696e+000	 4.021334402101220e+000	 9.618888863690653e+000
 1.997931479813745e+000	 3.864035429699317e+000	 9.898258567878951e+000
 1.958790442171462e+000	 3.884023687321564e+000	 9.839795228242561e+000
 1.919513310748325e+000	 3.903584077471854e+000	 9.784080747100951e+000
 1.880106894040023e+000	 3.922715649525100e+000	 9.732517264657323e+000
 1.840577995561432e+000	 3.941417592987946e+000	 9.785769076028183e+000
 1.800933410356820e+000	 3.959689236737411e+000	 9.823910186562346e+000
 1.761179921552423e+000	 3.977530048159018e+000	 9.833429194269383e+000
 1.721324296954645e+000	 3.994939632186548e+000	 9.818102951822464e+000
 1.681373285696995e+000	 4.011917730245727e+000	 9.781581456072631e+000
 1.641333614938762e+000	 4.028464219104175e+000	 9.727381055435417e+000
 1.601211986618317e+000	 4.044579109630118e+000	 9.658878066835632e+000
 2.009413844636593e+000	 3.886242529871669e+000	 9.901891758643073e+000
 1.970047858502044e+000	 3.906345662537992e+000	 9.850300899012083e+000
 1.930544996438539e+000	 3.926018468723842e+000	 9.799906002021720e+000
 1.890912106071050e+000	 3.945259992340768e+000	 9.752104773541205e+000
 1.851156030015116e+000	 3.964069418237405e+000	 9.777919139158863e+000
 1.811283602366981e+000	 3.982446071433746e+000	 9.824533044497393e+000
 1.771301645236367e+000	 4.000389416254310e+000	 9.841219041881606e+000
 1.731216965325114e+000	 4.017899055362383e+000	 9.831825791738886e+000
 1.691036350554854e+000	 4.034974728697630e+000	 9.800074329307254e+000
 1.650766566746713e+000	 4.051616312319443e+000	 9.749551123126178e+000
 1.610414354355949e+000	 4.067823817158510e+000	 9.683701548686074e+000
 2.020896209458937e+000	 3.908449630044514e+000	 9.903458112455041e+000
 1.981305274832037e+000	 3.928667637754816e+000	 9.857729039569231e+000
 1.941576682128110e+000	 3.948452859976126e+000	 9.811666391800115e+000
 1.901717318101412e+000	 3.967804335156631e+000	 9.766664159959166e+000
 1.861734064468141e+000	 3.986721243486961e+000	 9.763209523836130e+000
 1.821633794376521e+000	 4.005202906130077e+000	 9.816881409362111e+000
 1.781423368919755e+000	 4.023248784349495e+000	 9.839355040601200e+000
 1.741109633695124e+000	 4.040858478538011e+000	 9.834552757652961e+000
 1.700699415412382e+000	 4.058031727149229e+000	 9.806268451051093e+000
 1.660199518554490e+000	 4.074768405534308e+000	 9.758160469224320e+000
 1.619616722093591e+000	 4.091068524686397e+000	 9.693744946843255e+000
 2.032378574280778e+000	 3.930656730217856e+000	 9.903042933002254e+000
 1.992562691161443e+000	 3.950989612972036e+000	 9.862174662227986e+000
 1.952608367817038e+000	 3.970887251228706e+000	 9.819466260078196e+000
 1.912522530131107e+000	 3.990348677972691e+000	 9.776308721308642e+000
 1.872312098920507e+000	 4.009373068736611e+000	 9.742039550970997e+000
 1.831983986385438e+000	 4.027959740826402e+000	 9.801352808380269e+000
 1.791545092602588e+000	 4.046108152444578e+000	 9.828232615334908e+000
 1.751002302064676e+000	 4.063817901713434e+000	 9.826676874405608e+000
 1.710362480269579e+000	 4.081088725600523e+000	 9.800554159209897e+000
 1.669632470362091e+000	 4.097920498748766e+000	 9.753596468693310e+000
 1.628819089831244e+000	 4.114313232213777e+000	 9.689392408150154e+000
 2.043860939102113e+000	 3.952863830391693e+000	 9.900732709872520e+000
 2.003820107490259e+000	 3.973311588189652e+000	 9.863733663717961e+000
 1.963640053505324e+000	 3.993321642481583e+000	 9.823410541649967e+000
 1.923327742160137e+000	 4.012893020788947e+000	 9.781152061190900e+000
 1.882890133372214e+000	 4.032024893986358e+000	 9.738315140687391e+000
 1.842334178393734e+000	 4.050716575522725e+000	 9.778344530379588e+000
 1.801666816284867e+000	 4.068967520539554e+000	 9.808246693101458e+000
 1.760894970433770e+000	 4.086777324888655e+000	 9.808590418092877e+000
 1.720025545126445e+000	 4.104145724051512e+000	 9.783320800788092e+000
 1.679065422169518e+000	 4.121072591962820e+000	 9.736245272198078e+000
 1.638021457568906e+000	 4.137557939740653e+000	 9.671026630566709e+000
 2.055343303922946e+000	 3.975070930566027e+000	 9.896615085428413e+000
 2.015077523818487e+000	 3.995633563407664e+000	 9.862502800479991e+000
 1.974671739192968e+000	 4.015756033734754e+000	 9.823604745948636e+000
 1.934132954188501e+000	 4.035437363605398e+000	 9.781308080857887e+000
 1.893468167823262e+000	 4.054676719236200e+000	 9.736969495664543e+000
 1.852684370401408e+000	 4.073473410219042e+000	 9.748253632450904e+000
 1.811788539966591e+000	 4.091826888634428e+000	 9.779791716939018e+000
 1.770787638802407e+000	 4.109736748063669e+000	 9.780684936980704e+000
 1.729688609982979e+000	 4.127202722502195e+000	 9.754956759567508e+000
 1.688498373976769e+000	 4.144224685176470e+000	 9.706491840303302e+000
 1.647223825306579e+000	 4.160802647267024e+000	 9.639028903641391e+000
 2.066825668743274e+000	 3.997278030740858e+000	 9.890778822785626e+000
 2.026334940146127e+000	 4.017955538626073e+000	 9.858579664785358e+000
 1.985703424879969e+000	 4.038190424988225e+000	 9.820154941084439e+000
 1.944938166216199e+000	 4.057981706422045e+000	 9.776890970944143e+000
 1.904046202273651e+000	 4.077328544486139e+000	 9.730144914521556e+000
 1.863034562408459e+000	 4.096230244915353e+000	 9.711476946385272e+000
 1.821910263647760e+000	 4.114686256729197e+000	 9.743261659349125e+000
 1.780680307170586e+000	 4.132696171238479e+000	 9.743351271722307e+000
 1.739351674839183e+000	 4.150259720952575e+000	 9.715849482863609e+000
 1.697931325783846e+000	 4.167376778389714e+000	 9.664719976531785e+000
 1.656426193044263e+000	 4.184047354792892e+000	 9.593779147633759e+000
 1.564402515667893e+000	 3.951600279511499e+000	 9.404047268338825e+000
 1.525129670264477e+000	 3.966923176588746e+000	 9.235347784868068e+000
 1.485789760794904e+000	 3.981824806142011e+000	 9.100457763254999e+000
 1.446389242748077e+000	 3.996305563713150e+000	 9.001807462079951e+000
 1.406934534869337e+000	 4.010365970170742e+000	 8.941642397241880e+000
 1.367432016293249e+000	 4.024006670090824e+000	 8.922020234958103e+000
 1.327888023744064e+000	 4.037228430064648e+000	 8.944808127850488e+000
 1.288308848805791e+000	 4.050032136936429e+000	 9.011680493179004e+000
 1.248700735263688e+000	 4.062418795974019e+000	 9.125343723136638e+000
 1.209069876518826e+000	 4.074389528975536e+000	 9.314966119495626e+000
 1.169422413077266e+000	 4.085945572314992e+000	 9.528311890013507e+000
 1.573604883405484e+000	 3.974844987041912e+000	 9.491863027783962e+000
 1.534101021264173e+000	 3.990258018807951e+000	 9.329817031530851e+000
 1.494529700562309e+000	 4.005247305005702e+000	 9.200007446106078e+000
 1.454897414762256e+000	 4.019813243503739e+000	 9.104943767286269e+000
 1.415210620366681e+000	 4.033956358234573e+000	 9.046949508211318e+000
 1.375475734034469e+000	 4.047677297565865e+000	 9.028158964803579e+000
 1.335699129764719e+000	 4.060976832598230e+000	 9.050514430733907e+000
 1.295887136150757e+000	 4.073855855392612e+000	 9.115763861126013e+000
 1.256046033705989e+000	 4.086315377130201e+000	 9.225458982951992e+000
 1.216182052263255e+000	 4.098356526207932e+000	 9.401735314903526e+000
 1.176301368449240e+000	 4.109980546272603e+000	 9.596990994318652e+000
 1.582807251143084e+000	 3.998089694571819e+000	 9.563346767555569e+000
 1.543072372264059e+000	 4.013592861026560e+000	 9.407121539395801e+000
 1.503269640330041e+000	 4.028669803868731e+000	 9.281611715829252e+000
 1.463405586776860e+000	 4.043320923293615e+000	 9.189407317411854e+000
 1.423486705864507e+000	 4.057546746297663e+000	 9.132911075342284e+000
 1.383519451776188e+000	 4.071347925040158e+000	 9.114335068177104e+000
 1.343510235785850e+000	 4.084725235131073e+000	 9.135697814685313e+000
 1.303465423496136e+000	 4.097679573848085e+000	 9.198821822163595e+000
 1.263391332148600e+000	 4.110211958285728e+000	 9.305331588273056e+000
 1.223294228007852e+000	 4.122323523439743e+000	 9.470306849132891e+000
 1.183180323821201e+000	 4.134015520229720e+000	 9.650865378061560e+000
 1.592009618880696e+000	 4.021334402101220e+000	 9.618888863690653e+000
 1.552043723264134e+000	 4.036927703244576e+000	 9.467643393889018e+000
 1.512009580098102e+000	 4.052092302731094e+000	 9.345643995959732e+000
 1.471913758791889e+000	 4.066828603082779e+000	 9.255562516475699e+000
 1.431762791362815e+000	 4.081137134360012e+000	 9.199882139121245e+000
 1.391563169518406e+000	 4.095018552513700e+000	 9.180893891563764e+000
 1.351321341807456e+000	 4.108473637663178e+000	 9.200693615189250e+000
 1.311043710841927e+000	 4.121503292302854e+000	 9.261179397153379e+000
 1.270736630591520e+000	 4.134108539440599e+000	 9.364049462915974e+000
 1.230406403752617e+000	 4.146290520670970e+000	 9.519843888519670e+000
 1.190059279193150e+000	 4.158050494186345e+000	 9.689154610719063e+000
 1.601211986618317e+000	 4.044579109630118e+000	 9.658878066835632e+000
 1.561015074264399e+000	 4.060262545461995e+000	 9.511762944893178e+000
 1.520749519866489e+000	 4.075514801592793e+000	 9.392475876375935e+000
 1.480421930807344e+000	 4.090336282871229e+000	 9.303771848733225e+000
 1.440038876861606e+000	 4.104727522421619e+000	 9.248215746131329e+000
 1.399606887261123e+000	 4.118689179986493e+000	 9.228178725325758e+000
 1.359132447829538e+000	 4.132222040194547e+000	 9.245835061254883e+000
 1.318621998188130e+000	 4.145327010756916e+000	 9.303159461936339e+000
 1.278081929034750e+000	 4.158005120594816e+000	 9.401924850941253e+000
 1.237518579497550e+000	 4.170257517901613e+000	 9.549507412438658e+000
 1.196938234565087e+000	 4.182085468142475e+000	 9.711076071260479e+000
 1.610414354355949e+000	 4.067823817158510e+000	 9.683701548686074e+000
 1.569986425264854e+000	 4.083597387678821e+000	 9.539858856334478e+000
 1.529489459635206e+000	 4.098937300453828e+000	 9.422477165689694e+000
 1.488930102823224e+000	 4.113843962658967e+000	 9.334395933526716e+000
 1.448314962360879e+000	 4.128317910482486e+000	 9.278263006020882e+000
 1.407650605004339e+000	 4.142359807458537e+000	 9.256530862448752e+000
 1.366943553852095e+000	 4.155970442725177e+000	 9.271453335601045e+000
 1.326200285534746e+000	 4.169150729210273e+000	 9.325082808619090e+000
 1.285427227478290e+000	 4.181901701748378e+000	 9.419267886636565e+000
 1.244630755242651e+000	 4.194224515131672e+000	 9.558456275788100e+000
 1.203817189937011e+000	 4.206120442098112e+000	 9.715845010733505e+000
 1.619616722093591e+000	 4.091068524686397e+000	 9.693744946843255e+000
 1.578957776265498e+000	 4.106932229895052e+000	 9.552308154079213e+000
 1.538229399404250e+000	 4.122359799314200e+000	 9.436015941850384e+000
 1.497438274839530e+000	 4.137351642445994e+000	 9.347793578265776e+000
 1.456591047860635e+000	 4.151908298542613e+000	 9.290373146530147e+000
 1.415694322748053e+000	 4.166030434929832e+000	 9.266289655285533e+000
 1.374754659875129e+000	 4.179718845255070e+000	 9.277877632789402e+000
 1.333778572881775e+000	 4.192974447662922e+000	 9.327268204770931e+000
 1.292772525922139e+000	 4.205798282901283e+000	 9.416386654453337e+000
 1.251742930987921e+000	 4.218191512361147e+000	 9.546950461911838e+000
 1.210696145308922e+000	 4.230155416053254e+000	 9.702674612716484e+000
 1.628819089831244e+000	 4.114313232213777e+000	 9.689392408150154e+000
 1.587929127266333e+000	 4.130267072110688e+000	 9.549486272206526e+000
 1.546969339173622e+000	 4.145782298173907e+000	 9.433458601033683e+000
 1.505946446856262e+000	 4.160859322232307e+000	 9.344321829611861e+000
 1.464867133360873e+000	 4.175498686601996e+000	 9.284893566652412e+000
 1.423738040492268e+000	 4.189701062400376e+000	 9.257792570376141e+000
 1.382565765898637e+000	 4.203467247784223e+000	 9.265435215387198e+000
 1.341356860229215e+000	 4.216798166114867e+000	 9.310032450614127e+000
 1.300117824366299e+000	 4.229694864053535e+000	 9.393587246911931e+000
 1.258855106733358e+000	 4.242158509590038e+000	 9.517892531576665e+000
 1.217575100680821e+000	 4.254190390007903e+000	 9.670776051721610e+000
 1.638021457568906e+000	 4.137557939740653e+000	 9.671026630566709e+000
 1.596900478267356e+000	 4.153601914325729e+000	 9.531767097721621e+000
 1.555709278943322e+000	 4.169204797032950e+000	 9.415169904882481e+000
 1.514454618873418e+000	 4.184367002017907e+000	 9.324336022937507e+000
 1.473143218861593e+000	 4.199089074660638e+000	 9.262169888003340e+000
 1.431781758236981e+000	 4.213371689870172e+000	 9.231375241420173e+000
 1.390376871922622e+000	 4.227215650312640e+000	 9.234451468236708e+000
 1.348935147577069e+000	 4.240621884566103e+000	 9.273690434286481e+000
 1.307463122810769e+000	 4.253591445205132e+000	 9.351173820554557e+000
 1.265967282478964e+000	 4.266125506818344e+000	 9.468770952167834e+000
 1.224454056052708e+000	 4.278225363962058e+000	 9.619358549629249e+000
 1.647223825306579e+000	 4.160802647267024e+000	 9.639028903641391e+000
 1.605871829268570e+000	 4.176936756540175e+000	 9.499523013770142e+000
 1.564449218713350e+000	 4.192627295891330e+000	 9.381513026164114e+000
 1.522962790891000e+000	 4.207874681802793e+000	 9.288189830127740e+000
 1.481419304362796e+000	 4.222679462718540e+000	 9.222546004468439e+000
 1.439825475982193e+000	 4.237042317339217e+000	 9.187371520473370e+000
 1.398187977947082e+000	 4.250964052840319e+000	 9.185249950905627e+000
 1.356513434925335e+000	 4.264445603016635e+000	 9.218555185251509e+000
 1.314808421255549e+000	 4.277488026356076e+000	 9.289448650023008e+000
 1.273079458224738e+000	 4.290092504046069e+000	 9.399877031529501e+000
 1.231333011424581e+000	 4.302260337915721e+000	 9.547629430230835e+000
 1.656426193044263e+000	 4.184047354792892e+000	 9.593779147633759e+000
 1.614843180269973e+000	 4.200271598754027e+000	 9.453124941411968e+000
 1.573189158483706e+000	 4.216049794749046e+000	 9.332849592905916e+000
 1.531470962909008e+000	 4.231382361586969e+000	 9.236235305788000e+000
 1.489695389864481e+000	 4.246269850775702e+000	 9.166364130195465e+000
 1.447869193727905e+000	 4.260712944807515e+000	 9.126113527437784e+000
 1.405999083972017e+000	 4.274712455367261e+000	 9.118152448389202e+000
 1.364091722274013e+000	 4.288269321466460e+000	 9.144937925928279e+000
 1.322153719700638e+000	 4.301384607506362e+000	 9.208712180333571e+000
 1.280191633970679e+000	 4.314059501273208e+000	 9.311500235129218e+000
 1.238211966796443e+000	 4.326295311868889e+000	 9.454794171953392e+000
 1.169422413077266e+000	 4.085945572314992e+000	 9.528311890013507e+000
 1.129764430115052e+000	 4.097088274930204e+000	 9.439896741792097e+000
 1.090101955120620e+000	 4.107819096255514e+000	 9.388029345554987e+000
 1.050440955616010e+000	 4.118139604102669e+000	 9.360747342863881e+000
 1.010787336957094e+000	 4.128051472493549e+000	 9.346988440086703e+000
 9.711469402141435e-001	 4.137556479447227e+000	 9.336595664352563e+000
 9.315255401334336e-001	 4.146656504724692e+000	 9.320320492076792e+000
 8.919288431804867e-001	 4.155353527534343e+000	 9.289823896068871e+000
 8.523624856654437e-001	 4.163649624201344e+000	 9.237675361715747e+000
 8.128320319509323e-001	 4.171546965803957e+000	 9.157349926918107e+000
 7.733429727426728e-001	 4.179047815779902e+000	 9.043223304337664e+000
 1.176301368449240e+000	 4.109980546272603e+000	 9.596990994318652e+000
 1.136410103235041e+000	 4.121188794197010e+000	 9.492313075091079e+000
 1.096514319564808e+000	 4.131982738000447e+000	 9.423590163482343e+000
 1.056620020063654e+000	 4.142363954717085e+000	 9.378566431298189e+000
 1.016733144824837e+000	 4.152334128215989e+000	 9.345901502471353e+000
 9.768595692778671e-001	 4.161895046975168e+000	 9.315175921009553e+000
 9.370051021381163e-001	 4.171048601813031e+000	 9.276894452420077e+000
 8.971754834385515e-001	 4.179796783580375e+000	 9.222487265266993e+000
 8.573763826440801e-001	 4.188141680816043e+000	 9.144309044083753e+000
 8.176133968488752e-001	 4.196085477369345e+000	 9.035636089130724e+000
 7.778920490569271e-001	 4.203630449992339e+000	 8.890661462444559e+000
 1.183180323821201e+000	 4.134015520229720e+000	 9.650865378061560e+000
 1.143055776354833e+000	 4.145289313463412e+000	 9.534460642862506e+000
 1.102926684008646e+000	 4.156146379745046e+000	 9.453141070098768e+000
 1.062799084510824e+000	 4.166588305331214e+000	 9.394352554735955e+000
 1.022678952692014e+000	 4.176616783938171e+000	 9.346472219112860e+000
 9.825721983409630e-001	 4.186233614502861e+000	 9.298814093109977e+000
 9.424846641421393e-001	 4.195440698901107e+000	 9.241632588044940e+000
 9.024221236959544e-001	 4.204240039626114e+000	 9.166123811609026e+000
 8.623902796220819e-001	 4.212633737430395e+000	 9.064424775815207e+000
 8.223947617462398e-001	 4.220623988934316e+000	 8.929610554276808e+000
 7.824411253706887e-001	 4.228213084204269e+000	 8.755689449170269e+000
 1.190059279193150e+000	 4.158050494186345e+000	 9.689154610719063e+000
 1.149701449474428e+000	 4.169389832729408e+000	 9.565591032910488e+000
 1.109339048452133e+000	 4.180310021489308e+000	 9.475965776995237e+000
 1.068978148957521e+000	 4.190812655945057e+000	 9.407421609511976e+000
 1.028624760558625e+000	 4.200899439660094e+000	 9.348048689002450e+000
 9.882848274034312e-001	 4.210572182030300e+000	 9.286890458655979e+000
 9.479642261455025e-001	 4.219832795988921e+000	 9.213947292270726e+000
 9.076687639526953e-001	 4.228683295671556e+000	 9.120177941521016e+000
 8.674041765994487e-001	 4.237125794044403e+000	 8.997498837264452e+000
 8.271761266430265e-001	 4.245162500498869e+000	 8.838781302055265e+000
 7.869902016839576e-001	 4.252795718415691e+000	 8.637846735143667e+000
 1.196938234565087e+000	 4.182085468142475e+000	 9.711076071260479e+000
 1.156347122593826e+000	 4.193490351995003e+000	 9.584954165397635e+000
 1.115751412895269e+000	 4.204473663233235e+000	 9.491346813408942e+000
 1.075157213403744e+000	 4.215037006558611e+000	 9.417088757398103e+000
 1.034570568424671e+000	 4.225182095381759e+000	 9.349978686964896e+000
 9.939974564652718e-001	 4.234910749557491e+000	 9.278785344608139e+000
 9.534437881482060e-001	 4.244224893076472e+000	 9.193251343372394e+000
 9.129154042087739e-001	 4.253126551716705e+000	 9.084094745417378e+000
 8.724180735761806e-001	 4.261617850658064e+000	 8.943008455025018e+000
 8.319574915392348e-001	 4.269701012063006e+000	 8.762657484074955e+000
 7.915392779967340e-001	 4.277378352626607e+000	 8.536674152214246e+000
 1.203817189937011e+000	 4.206120442098112e+000	 9.715845010733505e+000
 1.162992795713028e+000	 4.217590871260192e+000	 9.591798340491859e+000
 1.122163777338056e+000	 4.228637304976828e+000	 9.498565560004893e+000
 1.081336277849494e+000	 4.239261357171881e+000	 9.422668446590787e+000
 1.040516376290152e+000	 4.249464751103163e+000	 9.351609672920153e+000
 9.997100855264847e-001	 4.259249317084431e+000	 9.273879125486719e+000
 9.589233501502497e-001	 4.268616990163761e+000	 9.178957893581849e+000
 9.181620444641909e-001	 4.277569807761561e+000	 9.057319978158313e+000
 8.774319705522782e-001	 4.286109907271380e+000	 8.900431774894095e+000
 8.367388564348647e-001	 4.294239523626726e+000	 8.700749390371481e+000
 7.960883543090176e-001	 4.301960986837015e+000	 8.451713854560243e+000
 1.210696145308922e+000	 4.230155416053254e+000	 9.702674612716484e+000
 1.169638468832031e+000	 4.241691390524976e+000	 9.585370284389139e+000
 1.128576141780491e+000	 4.252800946720085e+000	 9.496902281505722e+000
 1.087515342294771e+000	 4.263485707784863e+000	 9.423474431983111e+000
 1.046462184155066e+000	 4.273747406824312e+000	 9.352288800829857e+000
 1.005422714587070e+000	 4.283587884611121e+000	 9.271552222020487e+000
 9.644029121516335e-001	 4.293009087250787e+000	 9.170480458464189e+000
 9.234086847189454e-001	 4.302013063806119e+000	 9.039300040173481e+000
 8.824458675277407e-001	 4.310601963884349e+000	 8.869247835759060e+000
 8.415202213299167e-001	 4.318778035190029e+000	 8.652568417065686e+000
 8.006374306208084e-001	 4.326543621046915e+000	 8.382509281122415e+000
 1.217575100680821e+000	 4.254190390007903e+000	 9.670776051721610e+000
 1.176284141950838e+000	 4.265791909789358e+000	 9.564915193775862e+000
 1.134988506222576e+000	 4.276964588463007e+000	 9.485636158215581e+000
 1.093694406739574e+000	 4.287710058397558e+000	 9.418819794749629e+000
 1.052407992019415e+000	 4.298030062545200e+000	 9.351362927339833e+000
 1.011135343647027e+000	 4.307926452137561e+000	 9.271185099841478e+000
 9.698824741523578e-001	 4.317401184337552e+000	 9.167232906653990e+000
 9.286553249730383e-001	 4.326456319850386e+000	 9.029481959225810e+000
 8.874597645025687e-001	 4.335094020496972e+000	 8.848936544368769e+000
 8.463015862243902e-001	 4.343316546752914e+000	 8.617627035118016e+000
 8.051865069321068e-001	 4.351126255256308e+000	 8.328605119311311e+000
 1.224454056052708e+000	 4.278225363962058e+000	 9.619358549629249e+000
 1.182929815069449e+000	 4.289892429053334e+000	 9.529676778792622e+000
 1.141400870664311e+000	 4.301128230205595e+000	 9.464045316481313e+000
 1.099873471183905e+000	 4.311934409009967e+000	 9.408016961271018e+000
 1.058353799883198e+000	 4.322312718265832e+000	 9.348178620132051e+000
 1.016847972706357e+000	 4.332265019663749e+000	 9.272158268223574e+000
 9.753620361524223e-001	 4.341793281424052e+000	 9.168629449937736e+000
 9.339019652264692e-001	 4.350899575894357e+000	 9.027313372789385e+000
 8.924736614767618e-001	 4.359586077109249e+000	 8.838978650955481e+000
 8.510829511182857e-001	 4.367855058315383e+000	 8.595438760136887e+000
 8.097355832429123e-001	 4.375708889465194e+000	 8.303317774058543e+000
 1.231333011424581e+000	 4.302260337915721e+000	 9.547629430230835e+000
 1.189575488187862e+000	 4.313992948316907e+000	 9.478897304557817e+000
 1.147813235105695e+000	 4.325291871947846e+000	 9.431406858132519e+000
 1.106052535627762e+000	 4.336158759622090e+000	 9.390377721424470e+000
 1.064299607746416e+000	 4.346595373986204e+000	 9.342082165995938e+000
 1.022560601765059e+000	 4.356603587189687e+000	 9.273852278863568e+000
 9.808415981518268e-001	 4.366185378510290e+000	 9.174084633668469e+000
 9.391486054792375e-001	 4.375342831938033e+000	 9.033462517000187e+000
 8.974875584503200e-001	 4.384078133721181e+000	 8.911327904062087e+000
 8.558643160116030e-001	 4.392393569877435e+000	 8.813269118385190e+000
 8.142846595532254e-001	 4.400291523673573e+000	 8.742596568398588e+000
 1.238211966796443e+000	 4.326295311868889e+000	 9.454794171953392e+000
 1.196221161306078e+000	 4.338093467580077e+000	 9.411817631307226e+000
 1.154225599546729e+000	 4.349455513689764e+000	 9.386996888940521e+000
 1.112231600071146e+000	 4.360383110233927e+000	 9.365213246264334e+000
 1.070245415609068e+000	 4.370878029706319e+000	 9.332419578631162e+000
 1.028273230823134e+000	 4.380942154715376e+000	 9.255140645063927e+000
 9.863211601505719e-001	 4.390577475596267e+000	 9.175510541015889e+000
 9.443952457313445e-001	 4.399786087981418e+000	 9.122694992532331e+000
 9.025014554232437e-001	 4.408570190332767e+000	 9.101531918451427e+000
 8.606456809043420e-001	 4.416932081439071e+000	 9.116116457391900e+000
 8.188337358630459e-001	 4.424874157881446e+000	 9.169807868711011e+000
 7.733429727426728e-001	 4.179047815779902e+000	 9.043223304337664e+000
 7.339007234633732e-001	 4.186154527505775e+000	 8.998250350282444e+000
 6.945106227088217e-001	 4.192869541852530e+000	 9.109943983464302e+000
 6.551779307865256e-001	 4.199195384720042e+000	 9.374326927518785e+000
 6.159078283377327e-001	 4.205134664553649e+000	 9.755192464827678e+000
 5.767054150413704e-001	 4.210690069845527e+000	 1.004899520692550e+001
 5.375757083998125e-001	 4.215864366623789e+000	 1.029551153612410e+001
 4.985236426059487e-001	 4.220660395932038e+000	 1.050575457592020e+001
 4.595540674909452e-001	 4.225081071302156e+000	 1.068959938148442e+001
 4.206717475519851e-001	 4.229129376222967e+000	 1.085580873662166e+001
 3.818813610591916e-001	 4.232808361607396e+000	 1.101206028975516e+001
 7.778920490569271e-001	 4.203630449992339e+000	 8.890661462444559e+000
 7.382177865464501e-001	 4.210778965904968e+000	 8.821446710770537e+000
 6.985959793168153e-001	 4.217533480336205e+000	 8.884398703736483e+000
 6.590319186185143e-001	 4.223896534044159e+000	 9.075479079692990e+000
 6.195308155671546e-001	 4.229870750817963e+000	 9.371986292710259e+000
 5.800977998397751e-001	 4.235458834964458e+000	 9.564907250521642e+000
 5.407379184534678e-001	 4.240663568782508e+000	 9.703253096930087e+000
 5.014561346257865e-001	 4.245487810027735e+000	 9.798156057833758e+000
 4.622573267163152e-001	 4.249934489370448e+000	 9.859599039968016e+000
 4.231462872486904e-001	 4.254006607849407e+000	 9.896441749351888e+000
 3.841277220122707e-001	 4.257707234324079e+000	 9.916448165074323e+000
 7.824411253706887e-001	 4.228213084204269e+000	 8.755689449170269e+000
 7.425348496291238e-001	 4.235403404303565e+000	 8.660780025008064e+000
 7.026813359244744e-001	 4.242197418819215e+000	 8.673490046139287e+000
 6.628859064502167e-001	 4.248597683367563e+000	 8.789717886139808e+000
 6.231538027963185e-001	 4.254606837081536e+000	 8.999766504395938e+000
 5.834901846379291e-001	 4.260227600082640e+000	 9.089580485062379e+000
 5.439001285068604e-001	 4.265462770940488e+000	 9.117927927640755e+000
 5.043886266453294e-001	 4.270315224122728e+000	 9.096057692232558e+000
 4.649605859413387e-001	 4.274787907438088e+000	 9.034057687120798e+000
 4.256208269449779e-001	 4.278883839475262e+000	 8.940881320724030e+000
 3.863740829648416e-001	 4.282606107040270e+000	 8.824375325472451e+000
 7.869902016839576e-001	 4.252795718415691e+000	 8.637846735143667e+000
 7.468519127113944e-001	 4.260027842701565e+000	 8.515873868335028e+000
 7.067666925317991e-001	 4.266861357301558e+000	 8.476920904401814e+000
 6.667398942816334e-001	 4.273298832690252e+000	 8.516820764159673e+000
 6.267767900252242e-001	 4.279342923344370e+000	 8.632215925499873e+000
 5.868825694358326e-001	 4.284996365200072e+000	 8.622667838587550e+000
 5.470623385599900e-001	 4.290261973097731e+000	 8.539238542092637e+000
 5.073211186645774e-001	 4.295142638217015e+000	 8.399210903670090e+000
 4.676638451660153e-001	 4.299641325505075e+000	 8.212774972005132e+000
 4.280953666408476e-001	 4.303761071100537e+000	 7.988974626390496e+000
 3.886204439169041e-001	 4.307504979755969e+000	 7.735735763023768e+000
 7.915392779967340e-001	 4.277378352626607e+000	 8.536674152214246e+000
 7.511689757932621e-001	 4.284652281098968e+000	 8.386352115456074e+000
 7.108520491387896e-001	 4.291525295783235e+000	 8.294393477689050e+000
 6.705938821127639e-001	 4.297999982012227e+000	 8.256563510285879e+000
 6.303997772538719e-001	 4.304079009606460e+000	 8.269470454412781e+000
 5.902749542334858e-001	 4.309765130316755e+000	 8.163818968164044e+000
 5.502245486128572e-001	 4.315061175254239e+000	 7.966883458569889e+000
 5.102536106835305e-001	 4.319970052310598e+000	 7.707362463143022e+000
 4.703671043903454e-001	 4.324494743571407e+000	 7.395545298325328e+000
 4.305699063362993e-001	 4.328638302725229e+000	 7.040563070647254e+000
 3.908668048684583e-001	 4.332403852471176e+000	 6.650417237814645e+000
 7.960883543090176e-001	 4.301960986837015e+000	 8.451713854560243e+000
 7.554860388747265e-001	 4.309276719495773e+000	 8.271838931887613e+000
 7.149374057454458e-001	 4.316189234264248e+000	 8.125609290446562e+000
 6.744478699436082e-001	 4.322701131333487e+000	 8.008720346592760e+000
 6.340227644822613e-001	 4.328815095867807e+000	 7.917744142298317e+000
 5.936673390308883e-001	 4.334533895432688e+000	 7.712680353342822e+000
 5.533867586654613e-001	 4.339860377410006e+000	 7.400557313962850e+000
 5.131861027021888e-001	 4.344797466403475e+000	 7.020254621049821e+000
 4.730703636143287e-001	 4.349348161637087e+000	 6.582157974295016e+000
 4.330444460313332e-001	 4.353515534349340e+000	 6.095482451328635e+000
 3.931131658195043e-001	 4.357302725185893e+000	 5.568301455999990e+000
 8.006374306208084e-001	 4.326543621046915e+000	 8.382509281122415e+000
 7.598031019557878e-001	 4.333901157891983e+000	 8.171958765695775e+000
 7.190227623517680e-001	 4.340853172744595e+000	 7.970269211568434e+000
 6.783018577741667e-001	 4.347402280654036e+000	 7.773063965424398e+000
 6.376457517103924e-001	 4.353551182128414e+000	 7.576876902248248e+000
 5.970597238280406e-001	 4.359302660547872e+000	 7.268895386428727e+000
 5.565489687178027e-001	 4.364659579565039e+000	 6.839950974034728e+000
 5.161185947205521e-001	 4.369624880495647e+000	 6.337625235616272e+000
 4.757736228379655e-001	 4.374201579702113e+000	 5.772397357395970e+000
 4.355189857259491e-001	 4.378392765972867e+000	 5.477690231544168e+000
 3.953595267700419e-001	 4.382201597900117e+000	 5.240590161343651e+000
 8.051865069321068e-001	 4.351126255256308e+000	 8.328605119311311e+000
 7.641201650364461e-001	 4.358525596287595e+000	 8.086336339515118e+000
 7.231081189577555e-001	 4.365517111224277e+000	 7.828073472916076e+000
 6.821558456044390e-001	 4.372103429973867e+000	 7.549365572607562e+000
 6.412687389382656e-001	 4.378287268388279e+000	 7.411421473464253e+000
 6.004521086249425e-001	 4.384071425662305e+000	 7.368564287778940e+000
 5.597111787698814e-001	 4.389458781719332e+000	 7.270187317566448e+000
 5.190510867386203e-001	 4.394452294587113e+000	 7.159186528566512e+000
 4.784768820612556e-001	 4.399054997766487e+000	 7.034935155057014e+000
 4.379935254201473e-001	 4.403269997595813e+000	 6.895903320331321e+000
 3.976058877200713e-001	 4.407100470613849e+000	 6.739680880299941e+000
 8.097355832429123e-001	 4.375708889465194e+000	 8.303317774058543e+000
 7.684372281167010e-001	 4.383150034682610e+000	 8.225976378427980e+000
 7.271934755634087e-001	 4.390181049703290e+000	 8.201454417097915e+000
 6.860098334344252e-001	 4.396804579292986e+000	 8.230530143633580e+000
 6.448917261658805e-001	 4.403023354647401e+000	 8.313304020377341e+000
 6.038444934215939e-001	 4.408840190775990e+000	 8.381387430572069e+000
 5.628733888216974e-001	 4.414257983872891e+000	 8.384653679514123e+000
 5.219835787563939e-001	 4.419279708677875e+000	 8.369865301951441e+000
 4.811801412841987e-001	 4.423908415830205e+000	 8.336472231895213e+000
 4.404680651139277e-001	 4.428147229218177e+000	 8.283010930095051e+000
 3.998522486695924e-001	 4.431999343327089e+000	 8.207127391511461e+000
 8.142846595532254e-001	 4.400291523673573e+000	 8.742596568398588e+000
 7.727542911965530e-001	 4.407774473077029e+000	 8.787623001443132e+000
 7.312788321687278e-001	 4.414844988181641e+000	 8.877453175761300e+000
 6.898638212641257e-001	 4.421505728611392e+000	 9.012917635218768e+000
 6.485147133932374e-001	 4.427759440905780e+000	 9.194165978969997e+000
 6.072368782179947e-001	 4.433608955888925e+000	 9.369196949943193e+000
 5.660355988732504e-001	 4.439057186025711e+000	 9.472144828751681e+000
 5.249160707738723e-001	 4.444107122767933e+000	 9.551962239642879e+000
 4.838834005067956e-001	 4.448761833893272e+000	 9.608175557729107e+000
 4.429426048072900e-001	 4.453024460839958e+000	 9.639386953456931e+000
 4.020986096186051e-001	 4.456898216039838e+000	 9.643297571761542e+000
 8.188337358630459e-001	 4.424874157881446e+000	 9.169807868711011e+000
 7.770713542760024e-001	 4.432398911470850e+000	 9.334594278888378e+000
 7.353641887737129e-001	 4.439508926659324e+000	 9.536449324103540e+000
 6.937178090935400e-001	 4.446206877929083e+000	 9.776256268776153e+000
 6.521377006203363e-001	 4.452495527163420e+000	 1.005421399733758e+001
 6.106292630141452e-001	 4.458377721001112e+000	 1.033238193604780e+001
 5.691978089245410e-001	 4.463856388177795e+000	 1.053304571499485e+001
 5.278485627910562e-001	 4.468934536857285e+000	 1.070585755378608e+001
 4.865866597290456e-001	 4.473615251955685e+000	 1.085042003149773e+001
 4.454171445002347e-001	 4.477901692461160e+000	 1.096540042103443e+001
 4.043449705671096e-001	 4.481797088752095e+000	 1.104855404777629e+001
 3.818813610591916e-001	 4.232808361607396e+000	 1.101206028975516e+001
 3.431874992402947e-001	 4.236121143260720e+000	 1.114926799173077e+001
 3.045946655437639e-001	 4.239070899352234e+000	 1.129541164641150e+001
 2.661072749782476e-001	 4.241660867892877e+000	 1.145523740615958e+001
 2.277296535260610e-001	 4.243894344221187e+000	 1.163252091982130e+001
 1.894660376312568e-001	 4.245774678499766e+000	 1.183009951089646e+001
 1.513205737604614e-001	 4.247305273224471e+000	 1.204990507341051e+001
 1.132973180351722e-001	 4.248489580748445e+000	 1.229299758640972e+001
 7.540023593415254e-002	 4.249331100823046e+000	 1.255959915026319e+001
 3.763320206451105e-002	 4.249833378157620e+000	 1.284912845039526e+001
 0.000000000000000e+000	 4.250000000000000e+000	 1.316023555670563e+001
 3.841277220122707e-001	 4.257707234324079e+000	 9.916448165074323e+000
 3.452062492418693e-001	 4.261039502928045e+000	 9.919113131416271e+000
 3.063863988766923e-001	 4.264006610525749e+000	 9.931421857950358e+000
 2.676726118960295e-001	 4.266611814175252e+000	 9.958063507432968e+000
 2.290692397291529e-001	 4.268858428599436e+000	 1.000274370115170e+001
 1.905805437403765e-001	 4.270749823667742e+000	 1.006821729151846e+001
 1.522106947873091e-001	 4.272289421890706e+000	 1.015632185940746e+001
 1.139637728509888e-001	 4.273480695929437e+000	 1.026801183554384e+001
 7.584376673652662e-002	 4.274327166122058e+000	 1.040339314756121e+001
 3.785457384284010e-002	 4.274832398029147e+000	 1.056175829683171e+001
 0.000000000000000e+000	 4.275000000000000e+000	 1.074162177185610e+001
 3.863740829648416e-001	 4.282606107040270e+000	 8.824375325472451e+000
 3.472249992428512e-001	 4.285957862594974e+000	 8.691809952018797e+000
 3.081781322089745e-001	 4.288942321698952e+000	 8.569888790999242e+000
 2.692379488131421e-001	 4.291562760457388e+000	 8.463240634375465e+000
 2.304088259315829e-001	 4.293822512977510e+000	 8.375497415436470e+000
 1.916950498488716e-001	 4.295724968835597e+000	 8.309327587553305e+000
 1.531008158135993e-001	 4.297273570556868e+000	 8.266470234817383e+000
 1.146302276663440e-001	 4.298471811110384e+000	 8.247769812238033e+000
 7.628729753856453e-002	 4.299323231421050e+000	 8.253211415514187e+000
 3.807594562098688e-002	 4.299831417900672e+000	 8.281956482951925e+000
 0.000000000000000e+000	 4.300000000000000e+000	 8.332378834815241e+000
 3.886204439169041e-001	 4.307504979755969e+000	 7.735735763023768e+000
 3.492437492432404e-001	 4.310876222261504e+000	 7.467312439076987e+000
 3.099698655406105e-001	 4.313878032871843e+000	 7.210827150865443e+000
 2.708032857295856e-001	 4.316513706739286e+000	 6.970844904032955e+000
 2.317484121333510e-001	 4.318786597355411e+000	 6.750920248238166e+000
 1.928095559567420e-001	 4.320700114003332e+000	 6.553631273869922e+000
 1.539909368393317e-001	 4.322257719222949e+000	 6.380614347890044e+000
 1.152966824812377e-001	 4.323462926291289e+000	 6.232599484810919e+000
 7.673082834026622e-002	 4.324319296720022e+000	 6.109446251212862e+000
 3.829731739895138e-002	 4.324830437772191e+000	 6.010180104794983e+000
 0.000000000000000e+000	 4.324999999999999e+000	 5.933029071739749e+000
 3.908668048684583e-001	 4.332403852471176e+000	 6.650417237814645e+000
 3.512624992430367e-001	 4.335794581927638e+000	 6.245567630875811e+000
 3.117615988716001e-001	 4.338813744044420e+000	 5.854244011132193e+000
 2.723686226453598e-001	 4.341464653020945e+000	 5.480944148006799e+000
 2.330879983344570e-001	 4.343750681733136e+000	 5.129141476642769e+000
 1.939240620639878e-001	 4.345675259170946e+000	 4.801319724443676e+000
 1.548810578645064e-001	 4.347241867888957e+000	 4.499008284084179e+000
 1.159631372956699e-001	 4.348454041472150e+000	 4.222818227311375e+000
 7.717435914163169e-002	 4.349315362018978e+000	 3.972478856292328e+000
 3.851868917673360e-002	 4.349829457643705e+000	 3.746874691916904e+000
 0.000000000000000e+000	 4.350000000000000e+000	 3.544082801287213e+000
 3.931131658195043e-001	 4.357302725185893e+000	 5.568301455999990e+000
 3.532812492422405e-001	 4.360712941593376e+000	 5.026515816941038e+000
 3.135533322019435e-001	 4.363749455216683e+000	 4.500139031707983e+000
 2.739339595604647e-001	 4.366415599302365e+000	 3.993598149179522e+000
 2.344275845349013e-001	 4.368714766110686e+000	 3.510281723787363e+000
 1.950385681706090e-001	 4.370650404338439e+000	 3.052575083809208e+000
 1.557711788891233e-001	 4.372226016554885e+000	 2.621896353578068e+000
 1.166295921096407e-001	 4.373445156652971e+000	 2.218733122212034e+000
 7.761788994266097e-002	 4.374311427317911e+000	 1.842679653946620e+000
 3.874006095433356e-002	 4.374828477515214e+000	 1.492474537864162e+000
 0.000000000000000e+000	 4.374999999999999e+000	 1.166038677688221e+000
 3.953595267700419e-001	 4.382201597900117e+000	 5.240590161343651e+000
 3.552999992408514e-001	 4.385631301258716e+000	 5.012142692438700e+000
 3.153450655316407e-001	 4.388685166388635e+000	 4.814747935245238e+000
 2.754992964749006e-001	 4.391366545583549e+000	 4.642960071782168e+000
 2.357671707346836e-001	 4.393678850488062e+000	 4.490536913300406e+000
 1.961530742766055e-001	 4.395625549505810e+000	 4.350469065501602e+000
 1.566612999131826e-001	 4.397210165220736e+000	 4.215009899838338e+000
 1.172960469231500e-001	 4.398436271833745e+000	 4.075706239984539e+000
 7.806142074335404e-002	 4.399307492616827e+000	 3.923429673807785e+000
 3.896143273175123e-002	 4.399827497386718e+000	 3.748408402620294e+000
 0.000000000000000e+000	 4.400000000000000e+000	 3.540259541137139e+000
 3.976058877200713e-001	 4.407100470613849e+000	 6.739680880299941e+000
 3.573187492388698e-001	 4.410549660923660e+000	 6.590470872668497e+000
 3.171367988606916e-001	 4.413620877560275e+000	 6.473773032118635e+000
 2.770646333886671e-001	 4.416317491864493e+000	 6.384063457359049e+000
 2.371067569338040e-001	 4.418642934865264e+000	 6.315009085164147e+000
 1.972675803819774e-001	 4.420600694673062e+000	 6.259497293639316e+000
 1.575514209366841e-001	 4.422194313886512e+000	 6.209666325995884e+000
 1.179625017361979e-001	 4.423427387014476e+000	 6.156936442467933e+000
 7.850495154371090e-002	 4.424303557915724e+000	 6.092041709233270e+000
 3.918280450898664e-002	 4.424826517258219e+000	 6.005062334684335e+000
 0.000000000000000e+000	 4.425000000000000e+000	 5.885457465073108e+000
 3.998522486695924e-001	 4.431999343327089e+000	 8.207127391511461e+000
 3.593374992362954e-001	 4.435468020588207e+000	 8.136245656678963e+000
 3.189285321890961e-001	 4.438556588731601e+000	 8.099610114037915e+000
 2.786299703017645e-001	 4.441268438145198e+000	 8.091617814783472e+000
 2.384463431322625e-001	 4.443607019242291e+000	 8.105843555710981e+000
 1.983820864867247e-001	 4.445575839840191e+000	 8.135069928640208e+000
 1.584415419596280e-001	 4.447178462552210e+000	 8.171318205049007e+000
 1.186289565487843e-001	 4.448418502195166e+000	 8.205879962038608e+000
 7.894848234373154e-002	 4.449299623214602e+000	 8.229349357024510e+000
 3.940417628603975e-002	 4.449825537129714e+000	 8.231655960035573e+000
 0.000000000000000e+000	 4.449999999999999e+000	 8.202098054208605e+000
 4.020986096186051e-001	 4.456898216039838e+000	 9.643297571761542e+000
 3.613562492331282e-001	 4.460386380252357e+000	 9.649840447380244e+000
 3.207202655168545e-001	 4.463492299902615e+000	 9.692638830919218e+000
 2.801953072141926e-001	 4.466219384425665e+000	 9.766009760948066e+000
 2.397859293300590e-001	 4.468571103619142e+000	 9.863434626547937e+000
 1.994965925908473e-001	 4.470550985007201e+000	 9.977589671050520e+000
 1.593316629820141e-001	 4.472162611217829e+000	 1.010037734593917e+001
 1.192954113609092e-001	 4.473409617375812e+000	 1.022295841951151e+001
 7.939201314341601e-002	 4.474295688513460e+000	 1.033578474619619e+001
 3.962554806291059e-002	 4.474824557001203e+000	 1.042863260392405e+001
 0.000000000000000e+000	 4.474999999999999e+000	 1.049063650868070e+001
 4.043449705671096e-001	 4.481797088752095e+000	 1.104855404777629e+001
 3.633749992293684e-001	 4.485304739916109e+000	 1.113162279506058e+001
 3.225119988439666e-001	 4.488428011073319e+000	 1.125323240343377e+001
 2.817606441259515e-001	 4.491170330705895e+000	 1.140761893278119e+001
 2.411255155271938e-001	 4.493535187995821e+000	 1.158816909445394e+001
 2.006110986943454e-001	 4.495526130174090e+000	 1.178745121751261e+001
 1.602217840038425e-001	 4.497146759883374e+000	 1.199724708034261e+001
 1.199618661725727e-001	 4.498400732556415e+000	 1.220858451069826e+001
 7.983554394276425e-002	 4.499291753812299e+000	 1.241177065854184e+001
 3.984691983959917e-002	 4.499823576872690e+000	 1.259642584756809e+001
 0.000000000000000e+000	 4.500000000000000e+000	 1.275151791306722e+001
 4.500000000000000e+000	 0.000000000000000e+000	 1.017345029439979e+001
 4.499823576872690e+000	 3.984691983959790e-002	 1.018287666935499e+001
 4.499291753812299e+000	 7.983554394276311e-002	 1.019483387072085e+001
 4.498400732556415e+000	 1.199618661725717e-001	 1.020864910450188e+001
 4.497146759883374e+000	 1.602217840038416e-001	 1.022368461124375e+001
 4.495526130174089e+000	 2.006110986943446e-001	 1.023933961182562e+001
 4.493535187995821e+000	 2.411255155271932e-001	 1.025505222748831e+001
 4.491170330705895e+000	 2.817606441259510e-001	 1.027030136889036e+001
 4.488428011073320e+000	 3.225119988439663e-001	 1.028460858888300e+001
 4.485304739916110e+000	 3.633749992293682e-001	 1.029753989360482e+001
 4.481797088752097e+000	 4.043449705671097e-001	 1.030870750642106e+001
 4.525000000000000e+000	 0.000000000000000e+000	 1.020945974285592e+001
 4.524822596744175e+000	 4.006829161619294e-002	 1.021735715667856e+001
 4.524287819111140e+000	 8.027907474193370e-002	 1.022764960640938e+001
 4.523391847737016e+000	 1.206283209839829e-001	 1.023966679127418e+001
 4.522130908548916e+000	 1.611119050253526e-001	 1.025277432553606e+001
 4.520501275340979e+000	 2.017256047974699e-001	 1.026637570924105e+001
 4.518499272372498e+000	 2.424651017239095e-001	 1.027991427223374e+001
 4.516121276986123e+000	 2.833259810372560e-001	 1.029287508614486e+001
 4.513363722244021e+000	 3.243037321705990e-001	 1.030478683895037e+001
 4.510223099579862e+000	 3.653937492251135e-001	 1.031522366661154e+001
 4.506695961464353e+000	 4.065913315151141e-001	 1.032380693622849e+001
 4.550000000000000e+000	 0.000000000000000e+000	 1.024236327045503e+001
 4.549821616615666e+000	 4.028966339278321e-002	 1.024909973207024e+001
 4.549283884409996e+000	 8.072260554108510e-002	 1.025808130375338e+001
 4.548382962917662e+000	 1.212947757953508e-001	 1.026863991258927e+001
 4.547115057214539e+000	 1.620020260467866e-001	 1.028014429374806e+001
 4.545476420507988e+000	 2.028401109004743e-001	 1.029200198675555e+001
 4.543463356749350e+000	 2.438046879204513e-001	 1.030366130406113e+001
 4.541072223266592e+000	 2.848913179483225e-001	 1.031461326651370e+001
 4.538299433415035e+000	 3.260954654969190e-001	 1.032439350025267e+001
 4.535141459244013e+000	 3.674124992204619e-001	 1.033258408943003e+001
 4.531594834177102e+000	 4.088376924626270e-001	 1.033881537910345e+001
 4.574999999999999e+000	 0.000000000000000e+000	 1.027219242349712e+001
 4.574820636487161e+000	 4.051103516936872e-002	 1.027813201687520e+001
 4.574279949708873e+000	 8.116613634021740e-002	 1.028615260156015e+001
 4.573374078098351e+000	 1.219612306066755e-001	 1.029558806812956e+001
 4.572099205880235e+000	 1.628921470681434e-001	 1.030581002094430e+001
 4.570451565675120e+000	 2.039546170033579e-001	 1.031622980051698e+001
 4.568427441126377e+000	 2.451442741168184e-001	 1.032630047719887e+001
 4.566023169547297e+000	 2.864566548591504e-001	 1.033551881070254e+001
 4.563235144586363e+000	 3.278871988229265e-001	 1.034342716987377e+001
 4.560059818908560e+000	 3.694312492154132e-001	 1.034961540703435e+001
 4.556493706890342e+000	 4.110840534096479e-001	 1.035372268114050e+001
 4.600000000000000e+000	 0.000000000000000e+000	 1.029897806249303e+001
 4.599819656358659e+000	 4.073240694594946e-002	 1.030448102653258e+001
 4.599276015007772e+000	 8.160966713933057e-002	 1.031188661158766e+001
 4.598365193279084e+000	 1.226276854179570e-001	 1.032053040831725e+001
 4.597083354546008e+000	 1.637822680894232e-001	 1.032978663960982e+001
 4.595426710842369e+000	 2.050691231061205e-001	 1.033907020962498e+001
 4.593391525503580e+000	 2.464838603130109e-001	 1.034783872316765e+001
 4.590974115828240e+000	 2.880219917697399e-001	 1.035559446981787e+001
 4.588170855758002e+000	 3.296789321486214e-001	 1.036188636713411e+001
 4.584978178573502e+000	 3.714499992099676e-001	 1.036631185715660e+001
 4.581392579604074e+000	 4.133304143561773e-001	 1.036851875035866e+001
 4.624999999999999e+000	 0.000000000000000e+000	 1.032275038069939e+001
 4.624818676230165e+000	 4.095377872252544e-002	 1.032817318695141e+001
 4.624272080306688e+000	 8.205319793842462e-002	 1.033530593278903e+001
 4.623356308459858e+000	 1.232941402291954e-001	 1.034348564645657e+001
 4.622067503211861e+000	 1.646723891106259e-001	 1.035208891971999e+001
 4.620401856009741e+000	 2.061836292087624e-001	 1.036053398415920e+001
 4.618355609880956e+000	 2.478234465090287e-001	 1.036828275679950e+001
 4.615925062109422e+000	 2.895873286800908e-001	 1.037484284941029e+001
 4.613106566929955e+000	 3.314706654740036e-001	 1.037976953569232e+001
 4.609896538238842e+000	 3.734687492041250e-001	 1.038266767048262e+001
 4.606291452318299e+000	 4.155767753022150e-001	 1.038319355502777e+001
 4.650000000000000e+000	 0.000000000000000e+000	 1.034353892205544e+001
 4.649817696101674e+000	 4.117515049909665e-002	 1.034923435035814e+001
 4.649268145605621e+000	 8.249672873749950e-002	 1.035643266509776e+001
 4.648347423640677e+000	 1.239605950403905e-001	 1.036447207048416e+001
 4.647051651877790e+000	 1.655625101317515e-001	 1.037273127848529e+001
 4.645377001177234e+000	 2.072981353112834e-001	 1.038063161294877e+001
 4.643319694258506e+000	 2.491630327048719e-001	 1.038763908206276e+001
 4.640876008390843e+000	 2.911526655902032e-001	 1.039326641338728e+001
 4.638042278102218e+000	 3.332623987990734e-001	 1.039707504557919e+001
 4.634814897904580e+000	 3.754874991978856e-001	 1.039867707084147e+001
 4.631190325033014e+000	 4.178231362477610e-001	 1.039773712204885e+001
 4.675000000000000e+000	 0.000000000000000e+000	 1.036137259854448e+001
 4.674816715973187e+000	 4.139652227566309e-002	 1.036768981063575e+001
 4.674264210904576e+000	 8.294025953655530e-002	 1.037528842277027e+001
 4.673338538821540e+000	 1.246270498515425e-001	 1.038350755434260e+001
 4.672035800543796e+000	 1.664526311528001e-001	 1.039172778978359e+001
 4.670352146344847e+000	 2.084126414136835e-001	 1.039937331109228e+001
 4.668283778636232e+000	 2.505026189005405e-001	 1.040591399770020e+001
 4.665826954672503e+000	 2.927180025000771e-001	 1.041086748780050e+001
 4.662977989274797e+000	 3.350541321238305e-001	 1.041380119516631e+001
 4.659733257570715e+000	 3.775062491912491e-001	 1.041433427538876e+001
 4.656089197748221e+000	 4.200694971928152e-001	 1.041213953538641e+001
 4.699999999999999e+000	 0.000000000000000e+000	 1.037627970700128e+001
 4.699815735844708e+000	 4.161789405222478e-002	 1.038356431817331e+001
 4.699260276203549e+000	 8.338379033559194e-002	 1.039189434730307e+001
 4.698329654002444e+000	 1.252935046626512e-001	 1.040060956899094e+001
 4.697019949209879e+000	 1.673427521737716e-001	 1.040909219329132e+001
 4.695327291512582e+000	 2.095271475159628e-001	 1.041676902723792e+001
 4.693247863014131e+000	 2.518422050960345e-001	 1.042311360268710e+001
 4.690777900954401e+000	 2.942833394097125e-001	 1.042764826451210e+001
 4.687913700447687e+000	 3.368458654482750e-001	 1.042994621307192e+001
 4.684651617237246e+000	 3.795249991842157e-001	 1.042963349478407e+001
 4.680988070463921e+000	 4.223158581373777e-001	 1.042639093455082e+001
 4.725000000000000e+000	 0.000000000000000e+000	 1.038828794538577e+001
 4.724814755716230e+000	 4.183926582878168e-002	 1.039688209424416e+001
 4.724256341502540e+000	 8.382732113460945e-002	 1.040627111993952e+001
 4.723320769183393e+000	 1.259599594737167e-001	 1.041579519306551e+001
 4.722004097876039e+000	 1.682328731946660e-001	 1.042483790332475e+001
 4.720302436680437e+000	 2.106416536181212e-001	 1.043282845063237e+001
 4.718211947392206e+000	 2.531817912913539e-001	 1.043924380151611e+001
 4.715728847236537e+000	 2.958486763191094e-001	 1.044361080474471e+001
 4.712849411620889e+000	 3.386375987724069e-001	 1.044550826000624e+001
 4.709569976904175e+000	 3.815437491767853e-001	 1.044456893336287e+001
 4.705886943180112e+000	 4.245622190814485e-001	 1.044048151312884e+001
 4.750000000000000e+000	 0.000000000000000e+000	 1.039742442854293e+001
 4.749813775587761e+000	 4.206063760533384e-002	 1.040766684492993e+001
 4.749252406801552e+000	 8.427085193360784e-002	 1.041843897378175e+001
 4.748311884364385e+000	 1.266264142847391e-001	 1.042908112320434e+001
 4.746988246542276e+000	 1.691229942154834e-001	 1.043897801740218e+001
 4.745277581848414e+000	 2.117561597201589e-001	 1.044756101794719e+001
 4.743176031770457e+000	 2.545213774864986e-001	 1.045431030931524e+001
 4.740679793518913e+000	 2.974140132282679e-001	 1.045875704251940e+001
 4.737785122794405e+000	 3.404293320962263e-001	 1.046048543055844e+001
 4.734488336571500e+000	 3.835624991689580e-001	 1.045913478930290e+001
 4.730785815896796e+000	 4.268085800250276e-001	 1.045440151736056e+001
 4.481797088752097e+000	 4.043449705671097e-001	 1.030870750642106e+001
 4.477901692461161e+000	 4.454171445002335e-001	 1.031347214439636e+001
 4.473615251955686e+000	 4.865866597290444e-001	 1.031830778423173e+001
 4.468934536857286e+000	 5.278485627910552e-001	 1.032294099122582e+001
 4.463856388177796e+000	 5.691978089245402e-001	 1.032714833765703e+001
 4.458377721001111e+000	 6.106292630141446e-001	 1.033075782563119e+001
 4.452495527163420e+000	 6.521377006203358e-001	 1.036375611089651e+001
 4.446206877929084e+000	 6.937178090935400e-001	 1.041184057212884e+001
 4.439508926659324e+000	 7.353641887737129e-001	 1.045910102843234e+001
 4.432398911470851e+000	 7.770713542760025e-001	 1.050566687307199e+001
 4.424874157881446e+000	 8.188337358630459e-001	 1.055172303992417e+001
 4.506695961464353e+000	 4.065913315151141e-001	 1.032380693622849e+001
 4.502778924082358e+000	 4.478916841926803e-001	 1.032485065873454e+001
 4.498468670018098e+000	 4.892899189508041e-001	 1.032597887294913e+001
 4.493761950946636e+000	 5.307810548077607e-001	 1.032694435025715e+001
 4.488655590329878e+000	 5.723600189753693e-001	 1.032755113047568e+001
 4.483146486113297e+000	 6.140216478098557e-001	 1.032765594633028e+001
 4.477231613421060e+000	 6.557606878470224e-001	 1.035895849232532e+001
 4.470908027246774e+000	 6.975717969225737e-001	 1.040092867403078e+001
 4.464172865137007e+000	 7.394495453783545e-001	 1.044229662519157e+001
 4.457023349864672e+000	 7.813884173551503e-001	 1.048321994683406e+001
 4.449456792089316e+000	 8.233828121726123e-001	 1.052391287169685e+001
 4.531594834177102e+000	 4.088376924626270e-001	 1.033881537910345e+001
 4.527656155704141e+000	 4.503662238845501e-001	 1.033664022445737e+001
 4.523322088081165e+000	 4.919931781719295e-001	 1.033454694033035e+001
 4.518589365036693e+000	 5.337135468238041e-001	 1.033231427553805e+001
 4.513454792482697e+000	 5.755222290255385e-001	 1.032977352490442e+001
 4.507915251226232e+000	 6.174140326049388e-001	 1.032680995587041e+001
 4.501967699679440e+000	 6.593836750731418e-001	 1.035640115268606e+001
 4.495609176565179e+000	 7.014257847511329e-001	 1.039276943122858e+001
 4.488836803615358e+000	 7.435349019826437e-001	 1.042874061879186e+001
 4.481647788259090e+000	 7.857054804340989e-001	 1.046450023337968e+001
 4.474039426297694e+000	 8.279318884821644e-001	 1.050029153150618e+001
 4.556493706890342e+000	 4.110840534096479e-001	 1.035372268114050e+001
 4.552533387326506e+000	 4.528407635758423e-001	 1.034882156023453e+001
 4.548175506144886e+000	 4.946964373924210e-001	 1.034398353385696e+001
 4.543416779127454e+000	 5.366460388391862e-001	 1.033901310350653e+001
 4.538253994636254e+000	 5.786844390750477e-001	 1.033376861052897e+001
 4.532684016339917e+000	 6.208064173993935e-001	 1.032816366536141e+001
 4.526703785938563e+000	 6.630066622986950e-001	 1.035605505886256e+001
 4.520310325884299e+000	 7.052797725792174e-001	 1.038732687027368e+001
 4.513500742094372e+000	 7.476202585865805e-001	 1.041839008115645e+001
 4.506272226654105e+000	 7.900225435128488e-001	 1.044945783879527e+001
 4.498622060506580e+000	 8.324809647917016e-001	 1.048080215158586e+001
 4.581392579604074e+000	 4.133304143561773e-001	 1.036851875035866e+001
 4.577410618949450e+000	 4.553153032665570e-001	 1.036137561624792e+001
 4.573028924209256e+000	 4.973996966122782e-001	 1.035426060069035e+001
 4.568244193218922e+000	 5.395785308539064e-001	 1.034700373694665e+001
 4.563053196790550e+000	 5.818466491238975e-001	 1.033949020836457e+001
 4.557452781454351e+000	 6.241988021932196e-001	 1.033166178076181e+001
 4.551439872198428e+000	 6.666296495236816e-001	 1.035789223426017e+001
 4.545011475204132e+000	 7.091337604068273e-001	 1.038456623408326e+001
 4.538164680574053e+000	 7.517056151901652e-001	 1.041120345850765e+001
 4.530896665049718e+000	 7.943396065913998e-001	 1.043804439940651e+001
 4.523204694715974e+000	 8.370300411012241e-001	 1.046538954827340e+001
 4.606291452318299e+000	 4.155767753022150e-001	 1.038319355502777e+001
 4.602287850572980e+000	 4.577898429566946e-001	 1.037428356793472e+001
 4.597882342274284e+000	 5.001029558315013e-001	 1.036535047686959e+001
 4.593071607311094e+000	 5.425110228679650e-001	 1.035624962968191e+001
 4.587852398945583e+000	 5.850088591720871e-001	 1.034689285108773e+001
 4.582221546569534e+000	 6.275911869864179e-001	 1.033922807999301e+001
 4.576175958459033e+000	 6.702526367481012e-001	 1.036188573025106e+001
 4.569712624524679e+000	 7.129877482339623e-001	 1.038445394906544e+001
 4.562828619054400e+000	 7.557909717933976e-001	 1.040714053422364e+001
 4.555521103445926e+000	 7.986566696697516e-001	 1.043021304042055e+001
 4.547787328925875e+000	 8.415791174107322e-001	 1.045400017649381e+001
 4.631190325033014e+000	 4.178231362477610e-001	 1.039773712204885e+001
 4.627165082197091e+000	 4.602643826462549e-001	 1.038752680993204e+001
 4.622735760339963e+000	 5.028062150500905e-001	 1.037722587685775e+001
 4.617899021403971e+000	 5.454435148813617e-001	 1.036671477176230e+001
 4.612651601101351e+000	 5.881710692196172e-001	 1.035593176390550e+001
 4.606990311685467e+000	 6.309835717789877e-001	 1.034908499353048e+001
 4.600912044720382e+000	 6.738756239719546e-001	 1.036800959854076e+001
 4.594413773845941e+000	 7.168417360606224e-001	 1.038695759330506e+001
 4.587492557535412e+000	 7.598763283962778e-001	 1.040616239289349e+001
 4.580145541842733e+000	 8.029737327479043e-001	 1.042591833590226e+001
 4.572369963136282e+000	 8.461281937202254e-001	 1.044658208571156e+001
 4.656089197748221e+000	 4.200694971928152e-001	 1.041213953538641e+001
 4.652042313821781e+000	 4.627389223352377e-001	 1.040108695021602e+001
 4.647589178406295e+000	 5.055094742680454e-001	 1.038985988342357e+001
 4.642726435497552e+000	 5.483760068940969e-001	 1.037836367512675e+001
 4.637450803257858e+000	 5.913332792664872e-001	 1.036656284603861e+001
 4.631759076802149e+000	 6.343759565709294e-001	 1.036055164090172e+001
 4.625648130982472e+000	 6.774986111952412e-001	 1.037623886442121e+001
 4.619114923167916e+000	 7.206957238868079e-001	 1.039204586577016e+001
 4.612156496017089e+000	 7.639616849988056e-001	 1.040823138552532e+001
 4.604769980240135e+000	 8.072907958258581e-001	 1.042511627003479e+001
 4.596952597347198e+000	 8.506772700297042e-001	 1.044308487729579e+001
 4.680988070463921e+000	 4.223158581373777e-001	 1.042639093455082e+001
 4.676919545447057e+000	 4.652134620236433e-001	 1.041494580442787e+001
 4.672442596473283e+000	 5.082127334853663e-001	 1.040322593784612e+001
 4.667553849591841e+000	 5.513084989061705e-001	 1.039116135972310e+001
 4.662250005415101e+000	 5.944954893126973e-001	 1.037874265279559e+001
 4.656527841919582e+000	 6.377683413622428e-001	 1.037361015209474e+001
 4.650384217245304e+000	 6.811215984179611e-001	 1.038654950087760e+001
 4.643816072490604e+000	 7.245497117125187e-001	 1.039968855650124e+001
 4.636820434499434e+000	 7.680470416009811e-001	 1.041331109586505e+001
 4.629394418638134e+000	 8.116078589036129e-001	 1.042776419961641e+001
 4.621535231558619e+000	 8.552263463391679e-001	 1.044345966324632e+001
 4.705886943180112e+000	 4.245622190814485e-001	 1.044048151312884e+001
 4.701796777072913e+000	 4.676880017114715e-001	 1.042908539038011e+001
 4.697296014540921e+000	 5.109159927020531e-001	 1.041729783043042e+001
 4.692381263686833e+000	 5.542409909175823e-001	 1.040507334006865e+001
 4.687049207573082e+000	 5.976576993582478e-001	 1.039242837821596e+001
 4.681296607037763e+000	 6.411607261529280e-001	 1.038824343853652e+001
 4.675120303508878e+000	 6.847445856401145e-001	 1.039891840351702e+001
 4.668517221814008e+000	 7.284036995377549e-001	 1.040985651774697e+001
 4.661484372982443e+000	 7.721323982028044e-001	 1.042136630778421e+001
 4.654018857036731e+000	 8.159249219811687e-001	 1.043382081774788e+001
 4.646117865770552e+000	 8.597754226486175e-001	 1.044765902622983e+001
 4.730785815896796e+000	 4.268085800250276e-001	 1.045440151736056e+001
 4.726674008699353e+000	 4.701625413987225e-001	 1.044348792273630e+001
 4.722149432609216e+000	 5.136192519181059e-001	 1.043204969132249e+001
 4.717208677782532e+000	 5.571734829283325e-001	 1.042006561223526e+001
 4.711848409731800e+000	 6.008199094031386e-001	 1.040757783826149e+001
 4.706065372156694e+000	 6.445531109429850e-001	 1.040443517252884e+001
 4.699856389773194e+000	 6.883675728617011e-001	 1.041332336628903e+001
 4.693218371138125e+000	 7.322576873625164e-001	 1.042252163601125e+001
 4.686148311466119e+000	 7.762177548042758e-001	 1.043236297369775e+001
 4.678643295435927e+000	 8.202419850585258e-001	 1.044324611866672e+001
 4.670700499982989e+000	 8.643244989580522e-001	 1.045563698087813e+001
 4.424874157881446e+000	 8.188337358630459e-001	 1.055172303992417e+001
 4.416932081439071e+000	 8.606456809043407e-001	 1.056255186732522e+001
 4.408570190332767e+000	 9.025014554232427e-001	 1.057112589580560e+001
 4.399786087981418e+000	 9.443952457313437e-001	 1.057797054966162e+001
 4.390577475596269e+000	 9.863211601505713e-001	 1.058367605761558e+001
 4.380942154715376e+000	 1.028273230823133e+000	 1.058889830019911e+001
 4.370878029706319e+000	 1.070245415609068e+000	 1.059174892276183e+001
 4.360383110233927e+000	 1.112231600071145e+000	 1.059301850384609e+001
 4.349455513689764e+000	 1.154225599546729e+000	 1.059647049878714e+001
 4.338093467580077e+000	 1.196221161306078e+000	 1.060107002740420e+001
 4.326295311868889e+000	 1.238211966796443e+000	 1.060569139431248e+001
 4.449456792089316e+000	 8.233828121726123e-001	 1.052391287169685e+001
 4.441470593000705e+000	 8.654270457968737e-001	 1.053316263850851e+001
 4.433062246944354e+000	 9.075153523960031e-001	 1.054042177847260e+001
 4.424229344024800e+000	 9.496418859833249e-001	 1.054623383503939e+001
 4.414969572682244e+000	 9.918007221492239e-001	 1.055120807194171e+001
 4.405280722241064e+000	 1.033985859881143e+000	 1.055602032203563e+001
 4.395160685426432e+000	 1.076191223471678e+000	 1.056141371918770e+001
 4.384607460845763e+000	 1.118410664514506e+000	 1.056819930795206e+001
 4.373619155431682e+000	 1.160637963987752e+000	 1.057647964195586e+001
 4.362193986843245e+000	 1.202866834424291e+000	 1.058188871544551e+001
 4.350330285822056e+000	 1.245090922168304e+000	 1.058894666594173e+001
 4.474039426297694e+000	 8.279318884821644e-001	 1.050029153150618e+001
 4.466009104562758e+000	 8.702084106895727e-001	 1.050811777970390e+001
 4.457554303556283e+000	 9.125292493690713e-001	 1.051419994704709e+001
 4.448672600068478e+000	 9.548885262357173e-001	 1.051909959313662e+001
 4.439361669768483e+000	 9.972802841483514e-001	 1.052344493315312e+001
 4.429619289767003e+000	 1.039698488939652e+000	 1.052793168859170e+001
 4.419443341146805e+000	 1.082137031334772e+000	 1.053332381905587e+001
 4.408831811457884e+000	 1.124589728958293e+000	 1.054045412978464e+001
 4.397782797173934e+000	 1.167050328429106e+000	 1.055022474976166e+001
 4.386294506106817e+000	 1.209512507542697e+000	 1.056360747545233e+001
 4.374365259775718e+000	 1.251969877540177e+000	 1.057938680292390e+001
 4.498622060506580e+000	 8.324809647917016e-001	 1.048080215158586e+001
 4.490547616125227e+000	 8.749897755824375e-001	 1.048735817594723e+001
 4.482046360168561e+000	 9.175431463424479e-001	 1.049239903681544e+001
 4.473115856112449e+000	 9.601351664885214e-001	 1.049650420845236e+001
 4.463753766854984e+000	 1.002759846147954e+000	 1.050032077551573e+001
 4.453957857293190e+000	 1.045411117998660e+000	 1.050456428612525e+001
 4.443725996867435e+000	 1.088082839198349e+000	 1.051001948397564e+001
 4.433056162070295e+000	 1.130768793402507e+000	 1.051754091410033e+001
 4.421946438916521e+000	 1.173462692870789e+000	 1.052805339706779e+001
 4.410395025370796e+000	 1.216158180661294e+000	 1.054255236659328e+001
 4.398400233729874e+000	 1.258848832912064e+000	 1.055430280024759e+001
 4.523204694715974e+000	 8.370300411012241e-001	 1.046538954827340e+001
 4.515086127688112e+000	 8.797711404754689e-001	 1.047082644522881e+001
 4.506538416781186e+000	 9.225570433161329e-001	 1.047495946265594e+001
 4.497559112156713e+000	 9.653818067417365e-001	 1.047838588946300e+001
 4.488145863941748e+000	 1.008239408148032e+000	 1.048177159936836e+001
 4.478296424819631e+000	 1.051123747058167e+000	 1.048585190673562e+001
 4.468008652588326e+000	 1.094028647062409e+000	 1.049143229941847e+001
 4.457280512682989e+000	 1.136947857847147e+000	 1.049938904314754e+001
 4.446110080659443e+000	 1.179875057312801e+000	 1.051066965217277e+001
 4.434495544635176e+000	 1.222803853780083e+000	 1.052629322107954e+001
 4.422435207684522e+000	 1.265727788283963e+000	 1.053371723893317e+001
 4.547787328925875e+000	 8.415791174107322e-001	 1.045400017649381e+001
 4.539624639251415e+000	 8.845525053686660e-001	 1.045846689165690e+001
 4.531030473394155e+000	 9.275709402901259e-001	 1.046182337094177e+001
 4.522002368201274e+000	 9.706284469953628e-001	 1.046468461932559e+001
 4.512537961028775e+000	 1.013718970148584e+000	 1.046773522068827e+001
 4.502634992346319e+000	 1.056836376118173e+000	 1.047173019685435e+001
 4.492291308309473e+000	 1.099974454926952e+000	 1.047749574158258e+001
 4.481504863295974e+000	 1.143126922292215e+000	 1.048592982396244e+001
 4.470273722402701e+000	 1.186287421755143e+000	 1.049800265586133e+001
 4.458596063899960e+000	 1.229449526899063e+000	 1.051475701827483e+001
 4.446470181639666e+000	 1.272606743655874e+000	 1.051807476901321e+001
 4.572369963136282e+000	 8.461281937202254e-001	 1.044658208571156e+001
 4.564163150815135e+000	 8.893338702620293e-001	 1.045022546013192e+001
 4.555522530007471e+000	 9.325848372644270e-001	 1.045293459299538e+001
 4.546445624246128e+000	 9.758750872494004e-001	 1.045534210817135e+001
 4.536930058116062e+000	 1.019198532149612e+000	 1.045815122228371e+001
 4.526973559873260e+000	 1.062549005178679e+000	 1.046213660739757e+001
 4.516573964030879e+000	 1.105920262791978e+000	 1.046814512656690e+001
 4.505729213909241e+000	 1.149305986737709e+000	 1.047709643662726e+001
 4.494437364146293e+000	 1.192699786197816e+000	 1.048998345280655e+001
 4.482696583165150e+000	 1.236095200018235e+000	 1.050787266993867e+001
 4.470505155595303e+000	 1.279485699027798e+000	 1.050732814002059e+001
 4.596952597347198e+000	 8.506772700297042e-001	 1.044308487729579e+001
 4.588701662379272e+000	 8.941152351555588e-001	 1.044604969247499e+001
 4.580014586621130e+000	 9.375987342390362e-001	 1.044823860003639e+001
 4.570888880291277e+000	 9.811217275038494e-001	 1.045030174692995e+001
 4.561322155203614e+000	 1.024678094151114e+000	 1.045296090655243e+001
 4.551312127400450e+000	 1.068261634239683e+000	 1.045701034551772e+001
 4.540856619752545e+000	 1.111866070657487e+000	 1.046331756117589e+001
 4.529953564522797e+000	 1.155485051183629e+000	 1.047282388418893e+001
 4.518601005890221e+000	 1.199112150640817e+000	 1.048654494066366e+001
 4.506797102430744e+000	 1.242740873137600e+000	 1.050557096855803e+001
 4.494540129551432e+000	 1.286364654399735e+000	 1.050143200765910e+001
 4.621535231558619e+000	 8.552263463391679e-001	 1.044345966324632e+001
 4.613240173943826e+000	 8.988966000492542e-001	 1.044588868495669e+001
 4.604506643235138e+000	 9.426126312139539e-001	 1.044768245956735e+001
 4.595332136336721e+000	 9.863683677587096e-001	 1.044950856262739e+001
 4.585714252291427e+000	 1.030157656153092e+000	 1.045210724974792e+001
 4.575650694927891e+000	 1.073974263301187e+000	 1.045629232789515e+001
 4.565139275474467e+000	 1.117811878523480e+000	 1.046295189529440e+001
 4.554177915136639e+000	 1.161664115629977e+000	 1.047304894417591e+001
 4.542764647634484e+000	 1.205524515084149e+000	 1.048762182078861e+001
 4.530897621696741e+000	 1.249386546257156e+000	 1.050778453732798e+001
 4.518575103508055e+000	 1.293243609771683e+000	 1.050034288310734e+001
 4.646117865770552e+000	 8.597754226486175e-001	 1.044765902622983e+001
 4.637778685508796e+000	 9.036779649431156e-001	 1.044969304717402e+001
 4.628998699849491e+000	 9.476265281891795e-001	 1.045121479314397e+001
 4.619775392382458e+000	 9.916150080139811e-001	 1.045290917510301e+001
 4.610106349379503e+000	 1.035637218155545e+000	 1.045553485769755e+001
 4.599989262455583e+000	 1.079686892363189e+000	 1.045992513551250e+001
 4.589421931196648e+000	 1.123757686389955e+000	 1.046698867577436e+001
 4.578402265750768e+000	 1.167843180076752e+000	 1.047771012165427e+001
 4.566928289379082e+000	 1.211936879527810e+000	 1.049315055052115e+001
 4.554998140963142e+000	 1.256032219376904e+000	 1.051070606921119e+001
 4.542610077465175e+000	 1.300122565143645e+000	 1.050401908393212e+001
 4.670700499982989e+000	 8.643244989580522e-001	 1.045563698087813e+001
 4.662317197074184e+000	 9.084593298371435e-001	 1.045741486222602e+001
 4.653490756464190e+000	 9.526404251647136e-001	 1.045878573547903e+001
 4.644218648428491e+000	 9.968616482696642e-001	 1.046045175509337e+001
 4.634498446467843e+000	 1.041116780158473e+000	 1.046318992291899e+001
 4.624327829983526e+000	 1.085399521425691e+000	 1.046785296985727e+001
 4.613704586919089e+000	 1.129703494256914e+000	 1.047537010177789e+001
 4.602626616365185e+000	 1.174022244523953e+000	 1.048674760376615e+001
 4.591091931124016e+000	 1.218349243971802e+000	 1.050306929697472e+001
 4.579098660229948e+000	 1.262677892496843e+000	 1.051783804215062e+001
 4.566645051422785e+000	 1.307001520515620e+000	 1.051242068655188e+001
 4.326295311868889e+000	 1.238211966796443e+000	 1.060569139431248e+001
 4.314059501273209e+000	 1.280191633970678e+000	 1.062055629866317e+001
 4.301384607506363e+000	 1.322153719700637e+000	 1.062263832170534e+001
 4.288269321466461e+000	 1.364091722274012e+000	 1.062344182669675e+001
 4.274712455367261e+000	 1.405999083972017e+000	 1.062351372727404e+001
 4.260712944807515e+000	 1.447869193727904e+000	 1.062343552169537e+001
 4.246269850775702e+000	 1.489695389864481e+000	 1.062382293259857e+001
 4.231382361586969e+000	 1.531470962909008e+000	 1.062532546682179e+001
 4.216049794749046e+000	 1.573189158483706e+000	 1.062862589448567e+001
 4.200271598754028e+000	 1.614843180269973e+000	 1.063443964674088e+001
 4.184047354792891e+000	 1.656426193044263e+000	 1.064351413179744e+001
 4.350330285822056e+000	 1.245090922168304e+000	 1.058894666594173e+001
 4.338026498500345e+000	 1.287303809716620e+000	 1.059795342257015e+001
 4.325281188656641e+000	 1.329499018145727e+000	 1.060049285187655e+001
 4.312093039916263e+000	 1.371670009622691e+000	 1.060154790041435e+001
 4.298460857894163e+000	 1.413810189996953e+000	 1.060166746268407e+001
 4.284383572275750e+000	 1.455912911473615e+000	 1.060143560298977e+001
 4.269860238832774e+000	 1.497971475366166e+000	 1.060147119604241e+001
 4.254890041371024e+000	 1.539979134927016e+000	 1.060242748640357e+001
 4.239472293606604e+000	 1.581929098254062e+000	 1.060499156594643e+001
 4.223606440967679e+000	 1.623814531271376e+000	 1.060988376871911e+001
 4.207292062318510e+000	 1.665628560781946e+000	 1.061785698281080e+001
 4.374365259775718e+000	 1.251969877540177e+000	 1.057938680292390e+001
 4.361993495728061e+000	 1.294415985462394e+000	 1.058435562885562e+001
 4.349177769807554e+000	 1.336844316590506e+000	 1.058711281615941e+001
 4.335916758366729e+000	 1.379248296970957e+000	 1.058817339682134e+001
 4.322209260421725e+000	 1.421621296021413e+000	 1.058808844578637e+001
 4.308054199744611e+000	 1.463956629218827e+000	 1.058744480365481e+001
 4.293450626890411e+000	 1.506247560867369e+000	 1.058686471802483e+001
 4.278397721155550e+000	 1.548487306944599e+000	 1.058700540243307e+001
 4.262894792464511e+000	 1.590669038024090e+000	 1.058855851204788e+001
 4.246941283181525e+000	 1.632785882272590e+000	 1.059224953548125e+001
 4.230536769844139e+000	 1.674830928519619e+000	 1.059883710230390e+001
 4.398400233729874e+000	 1.258848832912064e+000	 1.055430280024759e+001
 4.385960492956355e+000	 1.301528161207999e+000	 1.056883632644949e+001
 4.373074350959102e+000	 1.344189615034976e+000	 1.058239912503737e+001
 4.359740476817858e+000	 1.386826584318810e+000	 1.058322079156362e+001
 4.345957662949947e+000	 1.429432402045397e+000	 1.058268068165176e+001
 4.331724827214101e+000	 1.472000346963540e+000	 1.058136862230945e+001
 4.317041014948613e+000	 1.514523646368090e+000	 1.057991045474298e+001
 4.301905400940547e+000	 1.556995478961755e+000	 1.057896759266872e+001
 4.286317291322765e+000	 1.599408977793790e+000	 1.057923649609222e+001
 4.270276125395566e+000	 1.641757233273613e+000	 1.058144805990156e+001
 4.253781477369779e+000	 1.684033296257282e+000	 1.058636691684381e+001
 4.422435207684522e+000	 1.265727788283963e+000	 1.053371723893317e+001
 4.409927490185231e+000	 1.308640336953436e+000	 1.054642671316362e+001
 4.396970932111286e+000	 1.351534913479136e+000	 1.056038594798546e+001
 4.383564195269647e+000	 1.394404871666250e+000	 1.057570666028371e+001
 4.369706065478828e+000	 1.437243508068906e+000	 1.058535001560915e+001
 4.355395454684217e+000	 1.480044064707754e+000	 1.058311434041618e+001
 4.340631403007379e+000	 1.522799731868328e+000	 1.058051708773485e+001
 4.325413080726016e+000	 1.565503650978487e+000	 1.057822410264396e+001
 4.309739790181370e+000	 1.608148917563162e+000	 1.057693689155291e+001
 4.293610967609800e+000	 1.650728584274447e+000	 1.057739200740962e+001
 4.277026184895429e+000	 1.693235663994934e+000	 1.058036034795030e+001
 4.446470181639666e+000	 1.272606743655874e+000	 1.051807476901321e+001
 4.433894487414683e+000	 1.315752512698706e+000	 1.052885794719549e+001
 4.420867513264104e+000	 1.358880211922986e+000	 1.054099478197357e+001
 4.407387913722100e+000	 1.401983159013279e+000	 1.055458646164589e+001
 4.393454468008369e+000	 1.445054614091939e+000	 1.056973606586130e+001
 4.379066082154961e+000	 1.488087782451469e+000	 1.058654892941562e+001
 4.364221791066710e+000	 1.531075817368083e+000	 1.058859497724843e+001
 4.348920760511959e+000	 1.574011822994792e+000	 1.058468660059226e+001
 4.333162289040322e+000	 1.616888857332206e+000	 1.058157263855667e+001
 4.316945809824231e+000	 1.659699935275091e+000	 1.057999555402933e+001
 4.300270892421088e+000	 1.702438031732576e+000	 1.058073277169170e+001
 4.470505155595303e+000	 1.279485699027798e+000	 1.050732814002059e+001
 4.457861484644715e+000	 1.322864688443807e+000	 1.051608661857691e+001
 4.444764094417560e+000	 1.366225510366526e+000	 1.052630138263985e+001
 4.431211632175216e+000	 1.409561446359895e+000	 1.053806304333955e+001
 4.417202870538569e+000	 1.452865720114497e+000	 1.055146398120789e+001
 4.402736709626332e+000	 1.496131500194685e+000	 1.056659872692244e+001
 4.387812179126604e+000	 1.539351902867356e+000	 1.058356434785817e+001
 4.372428440298370e+000	 1.582519995010672e+000	 1.059826833382614e+001
 4.356584787899623e+000	 1.625628797100923e+000	 1.059305820176904e+001
 4.340280652038857e+000	 1.668671286275547e+000	 1.058917434577157e+001
 4.323515599946758e+000	 1.711640399470208e+000	 1.058740097958414e+001
 4.494540129551432e+000	 1.286364654399735e+000	 1.050143200765910e+001
 4.481828481875328e+000	 1.329976864188740e+000	 1.050807117115148e+001
 4.468660675571649e+000	 1.373570808809755e+000	 1.051626797831417e+001
 4.455035350628992e+000	 1.417139733706099e+000	 1.052610241239663e+001
 4.440951273069429e+000	 1.460676826136579e+000	 1.053765610506926e+001
 4.426407337098330e+000	 1.504175217937402e+000	 1.055101273426744e+001
 4.411402567187063e+000	 1.547627988366147e+000	 1.056625842829854e+001
 4.395936120085255e+000	 1.591028167026127e+000	 1.058348217494784e+001
 4.380007286759271e+000	 1.634368736869311e+000	 1.060277623426377e+001
 4.363615494253678e+000	 1.677642637275812e+000	 1.060484545932974e+001
 4.346760307472438e+000	 1.720842767207830e+000	 1.060028314074537e+001
 4.518575103508055e+000	 1.293243609771683e+000	 1.050034288310734e+001
 4.505795479106517e+000	 1.337089039933506e+000	 1.050477185327096e+001
 4.492557256726375e+000	 1.380916107252676e+000	 1.051085855070241e+001
 4.478859069083431e+000	 1.424718021051889e+000	 1.051867227794860e+001
 4.464699675600948e+000	 1.468487932158185e+000	 1.052828386594801e+001
 4.450077964570956e+000	 1.512218935679620e+000	 1.053976608912981e+001
 4.434992955248089e+000	 1.555904073864455e+000	 1.055319408723276e+001
 4.419443799872612e+000	 1.599536339041157e+000	 1.056864579254793e+001
 4.403429785619271e+000	 1.643108676637371e+000	 1.058620236123202e+001
 4.386950336468694e+000	 1.686613988275887e+000	 1.060594860728373e+001
 4.370005014998127e+000	 1.730045134945440e+000	 1.061929876525636e+001
 4.542610077465175e+000	 1.300122565143645e+000	 1.050401908393212e+001
 4.529762476338289e+000	 1.344201215678103e+000	 1.050615067005700e+001
 4.516453837881738e+000	 1.388261405695286e+000	 1.051003878850087e+001
 4.502682787538534e+000	 1.432296308397268e+000	 1.051574200619727e+001
 4.488448078133128e+000	 1.476299038179315e+000	 1.052332029937744e+001
 4.473748592044207e+000	 1.520262653421339e+000	 1.053283548608140e+001
 4.458583343309677e+000	 1.564180159362281e+000	 1.054435166584753e+001
 4.442951479660441e+000	 1.608044511055761e+000	 1.055793566525230e+001
 4.426852284479617e+000	 1.651848616405103e+000	 1.057365748791280e+001
 4.410285178683903e+000	 1.695585339275773e+000	 1.059159076750868e+001
 4.393249722523829e+000	 1.739247502683042e+000	 1.061181322232831e+001
 4.566645051422785e+000	 1.307001520515620e+000	 1.051242068655188e+001
 4.553729473570638e+000	 1.351313391422532e+000	 1.051217133717034e+001
 4.540350419037734e+000	 1.395606704137587e+000	 1.051377604247548e+001
 4.526506505994300e+000	 1.439874595742234e+000	 1.051728257680780e+001
 4.512196480665969e+000	 1.484110144199970e+000	 1.052274000563135e+001
 4.497419219518086e+000	 1.528306371162558e+000	 1.053019913561586e+001
 4.482173731371831e+000	 1.572456244859625e+000	 1.053971297235781e+001
 4.466459159448743e+000	 1.616552683069939e+000	 1.055133718437952e+001
 4.450274783340313e+000	 1.660588556172508e+000	 1.056513057198432e+001
 4.433620020899308e+000	 1.704556690275470e+000	 1.058115553948818e+001
 4.416494430049541e+000	 1.748449870420633e+000	 1.059947856929458e+001
 4.184047354792891e+000	 1.656426193044263e+000	 1.064351413179744e+001
 4.167376778389714e+000	 1.697931325783844e+000	 1.065747456028461e+001
 4.150259720952576e+000	 1.739351674839182e+000	 1.067816420144016e+001
 4.132696171238480e+000	 1.780680307170584e+000	 1.070671586165446e+001
 4.114686256729197e+000	 1.821910263647758e+000	 1.074429244351003e+001
 4.096230244915355e+000	 1.863034562408458e+000	 1.079208557043759e+001
 4.077328544486139e+000	 1.904046202273650e+000	 1.079131944498015e+001
 4.057981706422046e+000	 1.944938166216197e+000	 1.077181194426079e+001
 4.038190424988224e+000	 1.985703424879968e+000	 1.075757923968052e+001
 4.017955538626073e+000	 2.026334940146125e+000	 1.074902479253545e+001
 3.997278030740859e+000	 2.066825668743275e+000	 1.074655087189413e+001
 4.207292062318510e+000	 1.665628560781946e+000	 1.061785698281080e+001
 4.190528871602665e+000	 1.707364277590921e+000	 1.063557235669467e+001
 4.173316719402627e+000	 1.749014739695385e+000	 1.065999155960587e+001
 4.155655594412936e+000	 1.790572975538763e+000	 1.069221912549164e+001
 4.137545624823596e+000	 1.832031987328927e+000	 1.073338970252284e+001
 4.118987079611292e+000	 1.873384754415509e+000	 1.078466669708529e+001
 4.099980369735707e+000	 1.914624236724038e+000	 1.076895175690498e+001
 4.080526049238338e+000	 1.955743378243895e+000	 1.075498143231687e+001
 4.060624816241361e+000	 1.996735110566969e+000	 1.074616158274918e+001
 4.040277513844186e+000	 2.037592356473764e+000	 1.074284998472558e+001
 4.019485130915437e+000	 2.078308033563603e+000	 1.074540280982116e+001
 4.230536769844139e+000	 1.674830928519619e+000	 1.059883710230390e+001
 4.213680964815437e+000	 1.716797229398172e+000	 1.061934100356073e+001
 4.196373717852327e+000	 1.758677804551919e+000	 1.064651622386137e+001
 4.178615017586891e+000	 1.800465643907400e+000	 1.068143960594302e+001
 4.160404992917361e+000	 1.842153711010651e+000	 1.072521813808153e+001
 4.141743914306483e+000	 1.883734946423183e+000	 1.076327139781392e+001
 4.122632194984438e+000	 1.925202271175086e+000	 1.074923345805492e+001
 4.103070392053720e+000	 1.966548590272258e+000	 1.073990764016284e+001
 4.083059207493538e+000	 2.007766796254612e+000	 1.073560806392084e+001
 4.062599489061307e+000	 2.048849772801992e+000	 1.073664723966824e+001
 4.041692231089015e+000	 2.089790398384435e+000	 1.074333566183389e+001
 4.253781477369779e+000	 1.684033296257282e+000	 1.058636691684381e+001
 4.236833058028028e+000	 1.726230181205598e+000	 1.060870531305064e+001
 4.219430716301676e+000	 1.768340869408785e+000	 1.063767540448598e+001
 4.201574440760342e+000	 1.810358312276494e+000	 1.067432691936787e+001
 4.183264361010493e+000	 1.852275434692930e+000	 1.071973977602640e+001
 4.164500749000932e+000	 1.894085138431478e+000	 1.074234913399361e+001
 4.145284020232332e+000	 1.935780305626793e+000	 1.073215639347087e+001
 4.125614734868195e+000	 1.977353802301288e+000	 1.072659605540854e+001
 4.105493598744757e+000	 2.018798481942898e+000	 1.072593783509476e+001
 4.084921464277440e+000	 2.060107189130809e+000	 1.073044938910644e+001
 4.063899331261593e+000	 2.101272763205771e+000	 1.074039594884265e+001
 4.277026184895429e+000	 1.693235663994934e+000	 1.058036034795030e+001
 4.259985151240440e+000	 1.735663133013200e+000	 1.060359129325124e+001
 4.242487714750674e+000	 1.778003934265982e+000	 1.063340720766520e+001
 4.224533863933293e+000	 1.820250980646046e+000	 1.067083127716981e+001
 4.206123729102992e+000	 1.862397158375763e+000	 1.071691693566325e+001
 4.187257583694635e+000	 1.904435330440396e+000	 1.072492505199940e+001
 4.167935845479390e+000	 1.946358340079158e+000	 1.071771209688648e+001
 4.148159077681762e+000	 1.988159014330984e+000	 1.071505155143429e+001
 4.127927989995016e+000	 2.029830167631827e+000	 1.071716913084456e+001
 4.107243439492581e+000	 2.071364605460214e+000	 1.072428804432652e+001
 4.086106431433171e+000	 2.112755128027612e+000	 1.073662866827538e+001
 4.300270892421088e+000	 1.702438031732576e+000	 1.058073277169170e+001
 4.283137244452671e+000	 1.745096084820976e+000	 1.060392611584626e+001
 4.265544713199322e+000	 1.787666999123510e+000	 1.063365061127697e+001
 4.247493287105741e+000	 1.830143649016057e+000	 1.067090346971450e+001
 4.228983097194856e+000	 1.872518882059152e+000	 1.071671222183193e+001
 4.210014418387592e+000	 1.914785522449936e+000	 1.071097736496264e+001
 4.190587670725611e+000	 1.956936374532184e+000	 1.070589179914197e+001
 4.170703420494422e+000	 1.998964226361345e+000	 1.070527840399174e+001
 4.150362381244317e+000	 2.040861853321398e+000	 1.070931929321073e+001
 4.129565414706734e+000	 2.082622021790207e+000	 1.071819362914340e+001
 4.108313531603750e+000	 2.124237492849956e+000	 1.073207733525283e+001
 4.323515599946758e+000	 1.711640399470208e+000	 1.058740097958414e+001
 4.306289337664721e+000	 1.754529036628928e+000	 1.060963808483681e+001
 4.288601711647618e+000	 1.797330063981369e+000	 1.063834544145911e+001
 4.270452710277686e+000	 1.840036317386525e+000	 1.067449485076615e+001
 4.251842465286088e+000	 1.882640605743094e+000	 1.070853178658626e+001
 4.232771253079805e+000	 1.925135714460097e+000	 1.070048427778048e+001
 4.213239495970997e+000	 1.967514408985869e+000	 1.069668643632634e+001
 4.193247763306173e+000	 2.009769438392373e+000	 1.069728030726914e+001
 4.172796772492659e+000	 2.051893539011612e+000	 1.070240479569353e+001
 4.151887389919897e+000	 2.093879438120789e+000	 1.071219541182193e+001
 4.130520631773328e+000	 2.135719857672803e+000	 1.072678402243552e+001
 4.346760307472438e+000	 1.720842767207830e+000	 1.060028314074537e+001
 4.329441430876592e+000	 1.763961988437055e+000	 1.062065660626555e+001
 4.311658710095563e+000	 1.806993128839560e+000	 1.064743234992862e+001
 4.293412133449130e+000	 1.849928985757451e+000	 1.068155732242343e+001
 4.274701833376686e+000	 1.892762329427593e+000	 1.070097267556831e+001
 4.255528087771272e+000	 1.935485906470880e+000	 1.069342398733612e+001
 4.235891321215545e+000	 1.978092443440211e+000	 1.069008665765848e+001
 4.215792106117017e+000	 2.020574650424067e+000	 1.069106038944116e+001
 4.195231163740042e+000	 2.062925224702467e+000	 1.069644126647593e+001
 4.174209365132070e+000	 2.105136854451960e+000	 1.070632153597384e+001
 4.152727731941906e+000	 2.147202222496155e+000	 1.072078939859226e+001
 4.370005014998127e+000	 1.730045134945440e+000	 1.061929876525636e+001
 4.352593524088284e+000	 1.773394940245357e+000	 1.063691215890704e+001
 4.334715708543159e+000	 1.816656193698082e+000	 1.066085279202469e+001
 4.316371556620073e+000	 1.859821654128835e+000	 1.069204332053608e+001
 4.297561201466651e+000	 1.902884053112646e+000	 1.069763903592416e+001
 4.278284922461995e+000	 1.945836098482286e+000	 1.068977468271186e+001
 4.258543146459256e+000	 1.988670477895214e+000	 1.068608283311663e+001
 4.238336448926953e+000	 2.031379862456426e+000	 1.068662122772247e+001
 4.217665554986465e+000	 2.073956910393966e+000	 1.069144351090548e+001
 4.196531340343254e+000	 2.116394270783719e+000	 1.070059905046884e+001
 4.174934832109484e+000	 2.158684587320011e+000	 1.071413276593763e+001
 4.393249722523829e+000	 1.739247502683042e+000	 1.061181322232831e+001
 4.375745617299795e+000	 1.782827892053834e+000	 1.065703370336357e+001
 4.357772706990403e+000	 1.826319258556935e+000	 1.067854900544893e+001
 4.339330979790512e+000	 1.869714322500677e+000	 1.070590580058451e+001
 4.320420569555982e+000	 1.913005776798254e+000	 1.069849716383019e+001
 4.301041757151973e+000	 1.956186290494313e+000	 1.068951454539553e+001
 4.281194971702131e+000	 1.999248512350875e+000	 1.068466506082576e+001
 4.260880791735980e+000	 2.042185074489451e+000	 1.068396486294333e+001
 4.240099946231929e+000	 2.084988596086107e+000	 1.068742553326243e+001
 4.218853315553447e+000	 2.127651687116066e+000	 1.069505393839598e+001
 4.197141932276062e+000	 2.170166952144371e+000	 1.070685209628423e+001
 4.416494430049541e+000	 1.748449870420633e+000	 1.059947856929458e+001
 4.398897710511125e+000	 1.792260843862486e+000	 1.064210946506683e+001
 4.380829705437297e+000	 1.835982323416120e+000	 1.069035671132531e+001
 4.362290402960451e+000	 1.879606990872976e+000	 1.071851887933066e+001
 4.343279937644680e+000	 1.923127500484416e+000	 1.070351360499159e+001
 4.323798591841205e+000	 1.966536482506963e+000	 1.069262174948033e+001
 4.303846796944171e+000	 2.009826546807196e+000	 1.068582317421156e+001
 4.283425134544102e+000	 2.052990286523143e+000	 1.068309281366507e+001
 4.262534337476437e+000	 2.096020281778891e+000	 1.068440055784049e+001
 4.241175290762652e+000	 2.138909103449004e+000	 1.068971114511055e+001
 4.219349032441642e+000	 2.181649316969236e+000	 1.069898406605323e+001
 3.997278030740859e+000	 2.066825668743275e+000	 1.074655087189413e+001
 3.976159030383603e+000	 2.107168565897559e+000	 1.073373935631316e+001
 3.954599812824290e+000	 2.147356589020302e+000	 1.072488506220258e+001
 3.932601800014996e+000	 2.187382701429100e+000	 1.072002879519620e+001
 3.910166560942135e+000	 2.227239876097466e+000	 1.071920784189321e+001
 3.887295811865206e+000	 2.266921099430403e+000	 1.072245586474917e+001
 3.863991416440920e+000	 2.306419375061632e+000	 1.072980280628170e+001
 3.840255385731489e+000	 2.345727727668477e+000	 1.074127480300518e+001
 3.816089878095935e+000	 2.384839206800333e+000	 1.075689410948252e+001
 3.791497198963489e+000	 2.423746890716575e+000	 1.077667903285364e+001
 3.766479800488311e+000	 2.462443890229713e+000	 1.080064387816961e+001
 4.019485130915437e+000	 2.078308033563603e+000	 1.074540280982116e+001
 3.998248802778659e+000	 2.118875057924907e+000	 1.073169649782315e+001
 3.976569811788677e+000	 2.159286347843419e+000	 1.072145513401978e+001
 3.954449587797304e+000	 2.199534827544055e+000	 1.071474786866367e+001
 3.931889708507547e+000	 2.239613430961295e+000	 1.071164089638991e+001
 3.908891899713674e+000	 2.279515105535721e+000	 1.071219732505520e+001
 3.885458035426050e+000	 2.319232816032355e+000	 1.071647705302681e+001
 3.861590137879450e+000	 2.358759548376727e+000	 1.072453665537328e+001
 3.837290377423783e+000	 2.398088313504621e+000	 1.073642927938462e+001
 3.812561072296218e+000	 2.437212151221293e+000	 1.075220454982272e+001
 3.787404688273996e+000	 2.476124134065992e+000	 1.077190848427445e+001
 4.041692231089015e+000	 2.089790398384435e+000	 1.074333566183389e+001
 4.020338575172714e+000	 2.130581549952659e+000	 1.072921107357266e+001
 3.998539810752065e+000	 2.171216106666839e+000	 1.071806519420718e+001
 3.976297375578613e+000	 2.211686953659215e+000	 1.070999532170761e+001
 3.953612856071957e+000	 2.251986985825226e+000	 1.070509635554128e+001
 3.930487987561143e+000	 2.292109111641043e+000	 1.070346063957151e+001
 3.906924654410178e+000	 2.332046257002981e+000	 1.070517781255131e+001
 3.882924890026412e+000	 2.371791369084782e+000	 1.071033466670169e+001
 3.858490876750632e+000	 2.411337420208612e+000	 1.071901501484134e+001
 3.833624945627949e+000	 2.450677411725614e+000	 1.073129956651014e+001
 3.808329576058680e+000	 2.489804377901773e+000	 1.074726581350186e+001
 4.063899331261593e+000	 2.101272763205771e+000	 1.074039594884265e+001
 4.042428347565767e+000	 2.142288041980814e+000	 1.072632089797714e+001
 4.020509809714452e+000	 2.183145865490564e+000	 1.071474427749082e+001
 3.998145163358922e+000	 2.223839079774578e+000	 1.070579133994341e+001
 3.975336003635369e+000	 2.264360540689262e+000	 1.069958549026677e+001
 3.952084075407609e+000	 2.304703117746367e+000	 1.069624810283203e+001
 3.928391273393308e+000	 2.344859697973510e+000	 1.069589834526660e+001
 3.904259642172374e+000	 2.384823189792640e+000	 1.069865300954830e+001
 3.879691376076480e+000	 2.424586526912305e+000	 1.070462635088275e+001
 3.854688818958676e+000	 2.464142672229537e+000	 1.071392993484763e+001
 3.829254463842364e+000	 2.503484621737058e+000	 1.072684369117436e+001
 4.086106431433171e+000	 2.112755128027612e+000	 1.073662866827538e+001
 4.064518119957823e+000	 2.153994534009374e+000	 1.072306244611874e+001
 4.042479808675839e+000	 2.195075624314593e+000	 1.071152026532026e+001
 4.019992951138231e+000	 2.235991205890145e+000	 1.070215514359635e+001
 3.997059151197778e+000	 2.276734095553400e+000	 1.069511879573177e+001
 3.973680163253079e+000	 2.317297123851694e+000	 1.069056142492079e+001
 3.949857892375436e+000	 2.357673138943943e+000	 1.068863152002322e+001
 3.925594394317335e+000	 2.397855010500300e+000	 1.068947565929951e+001
 3.900891875401328e+000	 2.437835633615702e+000	 1.069323832117096e+001
 3.875752692288407e+000	 2.477607932733064e+000	 1.070006170252926e+001
 3.850179351625048e+000	 2.517164865571844e+000	 1.071138928537585e+001
 4.108313531603750e+000	 2.124237492849956e+000	 1.073207733525283e+001
 4.086607892348878e+000	 2.165701026038337e+000	 1.071947088994443e+001
 4.064449807636226e+000	 2.207005383138925e+000	 1.070841991703819e+001
 4.041840738916539e+000	 2.248143332005915e+000	 1.069910501359328e+001
 4.018782298759190e+000	 2.289107650417643e+000	 1.069170601231395e+001
 3.995276251097546e+000	 2.329891129957026e+000	 1.068640174726785e+001
 3.971324511356565e+000	 2.370486579914278e+000	 1.068336982469355e+001
 3.946929146461295e+000	 2.410886831207762e+000	 1.068278639949918e+001
 3.922092374725176e+000	 2.451084740318801e+000	 1.068482595803714e+001
 3.896816565617136e+000	 2.491073193236193e+000	 1.068966110772059e+001
 3.871104239406733e+000	 2.530845109406134e+000	 1.070058716087979e+001
 4.130520631773328e+000	 2.135719857672803e+000	 1.072678402243552e+001
 4.108697664738933e+000	 2.177407518067704e+000	 1.071558013329661e+001
 4.086419806595614e+000	 2.218935141963561e+000	 1.070546890004465e+001
 4.063688526693849e+000	 2.260295458121890e+000	 1.069665831681253e+001
 4.040505446319600e+000	 2.301481205281988e+000	 1.068935614589326e+001
 4.016872338941014e+000	 2.342485136062360e+000	 1.068376965793564e+001
 3.992791130336695e+000	 2.383300020884517e+000	 1.068010537641319e+001
 3.968263898604257e+000	 2.423918651915029e+000	 1.067856882700566e+001
 3.943292874048022e+000	 2.464333847021602e+000	 1.067936429251727e+001
 3.917880438944865e+000	 2.504538453738924e+000	 1.068341845831755e+001
 3.892029127187417e+000	 2.544525353239926e+000	 1.069433465486074e+001
 4.152727731941906e+000	 2.147202222496155e+000	 1.072078939859226e+001
 4.130787437127987e+000	 2.189114010097476e+000	 1.071142284581961e+001
 4.108389805554000e+000	 2.230864900788501e+000	 1.070269181899332e+001
 4.085536314470157e+000	 2.272447584238067e+000	 1.069483153052374e+001
 4.062228593879011e+000	 2.313854760146438e+000	 1.068807748749090e+001
 4.038468426783482e+000	 2.355079142167698e+000	 1.068266520641495e+001
 4.014257749315824e+000	 2.396113461854660e+000	 1.067882993149370e+001
 3.989598650746219e+000	 2.436950472622097e+000	 1.067680635698345e+001
 3.964493373369871e+000	 2.477582953724107e+000	 1.067682835438681e+001
 3.938944312271595e+000	 2.518003714241259e+000	 1.068236641016366e+001
 3.912954014967101e+000	 2.558205597073220e+000	 1.069252946768536e+001
 4.174934832109484e+000	 2.158684587320011e+000	 1.071413276593763e+001
 4.152877209516043e+000	 2.200820502127651e+000	 1.070703049578409e+001
 4.130359804511387e+000	 2.242794659613744e+000	 1.070011224405603e+001
 4.107384102245465e+000	 2.284599710354449e+000	 1.069364026604767e+001
 4.083951741437423e+000	 2.326228315010991e+000	 1.068787763228150e+001
 4.060064514624951e+000	 2.367673148273040e+000	 1.068308791794863e+001
 4.035724368293952e+000	 2.408926902824704e+000	 1.067953489501899e+001
 4.010933402887179e+000	 2.449982293328969e+000	 1.067748222773543e+001
 3.985693872690720e+000	 2.490832060426314e+000	 1.067719317219415e+001
 3.960008185597324e+000	 2.531468974743195e+000	 1.068518233948412e+001
 3.933878902745785e+000	 2.571885840906018e+000	 1.069506965325294e+001
 4.197141932276062e+000	 2.170166952144371e+000	 1.070685209628423e+001
 4.174966981903096e+000	 2.212526994158230e+000	 1.070243338186946e+001
 4.152329803467775e+000	 2.254724418439292e+000	 1.069775273829007e+001
 4.129231890019775e+000	 2.296751836471034e+000	 1.069309929166485e+001
 4.105674888994834e+000	 2.338601869875647e+000	 1.068876349800180e+001
 4.081660602465419e+000	 2.380267154378384e+000	 1.068503680740054e+001
 4.057190987271080e+000	 2.421740343794652e+000	 1.068221133013701e+001
 4.032268155027141e+000	 2.463014114035644e+000	 1.068057950538172e+001
 4.006894372010566e+000	 2.504081167128224e+000	 1.068141470401421e+001
 3.981072058922055e+000	 2.544934235244736e+000	 1.069177273101943e+001
 3.954803790523469e+000	 2.585566084738318e+000	 1.070185360964273e+001
 4.219349032441642e+000	 2.181649316969236e+000	 1.069898406605323e+001
 4.197056754289153e+000	 2.224233486189214e+000	 1.069766066394254e+001
 4.174299802423162e+000	 2.266654177265143e+000	 1.069563488414116e+001
 4.151079677793085e+000	 2.308903962587824e+000	 1.069322255480095e+001
 4.127398036551244e+000	 2.350975424740407e+000	 1.069074134277795e+001
 4.103256690304888e+000	 2.392861160483732e+000	 1.068851039268664e+001
 4.078657606247211e+000	 2.434553784764503e+000	 1.068684996705814e+001
 4.053602907166103e+000	 2.476045934742122e+000	 1.068608108839088e+001
 4.028094871329415e+000	 2.517330273829837e+000	 1.069092796898645e+001
 4.002135932245784e+000	 2.558399495745879e+000	 1.070204423596362e+001
 3.975728678300154e+000	 2.599246328570120e+000	 1.071278007005660e+001
 3.766479800488311e+000	 2.462443890229713e+000	 1.080064387816961e+001
 3.741040281084275e+000	 2.500923352550201e+000	 1.083772968932040e+001
 3.715181384841301e+000	 2.539178465126698e+000	 1.083198166083907e+001
 3.688906000821718e+000	 2.577202459478735e+000	 1.082462100634910e+001
 3.662217162235256e+000	 2.614988615018722e+000	 1.081616769416030e+001
 3.635118045494689e+000	 2.652530262857025e+000	 1.080716695428144e+001
 3.607611969151799e+000	 2.689820789586394e+000	 1.079818838067942e+001
 3.579702392714055e+000	 2.726853641041346e+000	 1.078982496237240e+001
 3.551392915342706e+000	 2.763622326028174e+000	 1.078269204509196e+001
 3.522687274433060e+000	 2.800120420021203e+000	 1.077742622548062e+001
 3.493589344077969e+000	 2.836341568821007e+000	 1.077468418001791e+001
 3.787404688273996e+000	 2.476124134065992e+000	 1.077190848427445e+001
 3.761823838206611e+000	 2.514817371178015e+000	 1.082416245298266e+001
 3.735821281428924e+000	 2.553285012158412e+000	 1.084329953542919e+001
 3.709399923053606e+000	 2.591520250924044e+000	 1.083270513927473e+001
 3.682562813141554e+000	 2.629516329550722e+000	 1.082097080275322e+001
 3.655313145752281e+000	 2.667266542099426e+000	 1.080865219074071e+001
 3.627654257873964e+000	 2.704764238421754e+000	 1.079632977774810e+001
 3.599589628233558e+000	 2.742002827940189e+000	 1.078460786183893e+001
 3.571122875987657e+000	 2.778975783398840e+000	 1.077411350789820e+001
 3.542257759294873e+000	 2.815676644580222e+000	 1.076549542225248e+001
 3.512998173770796e+000	 2.852099021983801e+000	 1.075942276087271e+001
 3.808329576058680e+000	 2.489804377901773e+000	 1.074726581350186e+001
 3.782607395327954e+000	 2.528711389805241e+000	 1.079373098812300e+001
 3.756461178015566e+000	 2.567391559189468e+000	 1.084196818866188e+001
 3.729893845284540e+000	 2.605838042368645e+000	 1.084331486173566e+001
 3.702908464046932e+000	 2.644044044081983e+000	 1.082822515698757e+001
 3.675508246008996e+000	 2.682002821341077e+000	 1.081250629582829e+001
 3.647696546595307e+000	 2.719707687256372e+000	 1.079674981400943e+001
 3.619476863752307e+000	 2.757152014838322e+000	 1.078157151027097e+001
 3.590852836631927e+000	 2.794329240768846e+000	 1.076761037097466e+001
 3.561828244156089e+000	 2.831232869138650e+000	 1.075552742488347e+001
 3.532407003463121e+000	 2.867856475146093e+000	 1.074600453035713e+001
 3.829254463842364e+000	 2.503484621737058e+000	 1.072684369117436e+001
 3.803390952448300e+000	 2.542605408431881e+000	 1.076810105157814e+001
 3.777101074601229e+000	 2.581498106219867e+000	 1.081119459294216e+001
 3.750387767514518e+000	 2.620155833812538e+000	 1.085560773738114e+001
 3.723254114951390e+000	 2.658571758612505e+000	 1.083799420386690e+001
 3.695703346264835e+000	 2.696739100581979e+000	 1.081879285694714e+001
 3.667738835315830e+000	 2.734651136090251e+000	 1.079951219427714e+001
 3.639364099270299e+000	 2.772301201735744e+000	 1.078077970771569e+001
 3.610582797275516e+000	 2.809682698138190e+000	 1.076324650828118e+001
 3.581398729016710e+000	 2.846789093696487e+000	 1.074758616082608e+001
 3.551815833154945e+000	 2.883613928307883e+000	 1.073449344993957e+001
 3.850179351625048e+000	 2.517164865571844e+000	 1.071138928537585e+001
 3.824174509567652e+000	 2.556499427057932e+000	 1.074716977237263e+001
 3.797740971185911e+000	 2.595604653249607e+000	 1.078506538992897e+001
 3.770881689743540e+000	 2.634473625255720e+000	 1.082455144550235e+001
 3.743599765854925e+000	 2.673099473142290e+000	 1.085034172974379e+001
 3.715898446519798e+000	 2.711475379822131e+000	 1.082757578528764e+001
 3.687781124035530e+000	 2.749594584923389e+000	 1.080468093085461e+001
 3.659251334787535e+000	 2.787450388632455e+000	 1.078229654468210e+001
 3.630312757918424e+000	 2.825036155506874e+000	 1.076108606648837e+001
 3.600969213876734e+000	 2.862345318253733e+000	 1.074173581177602e+001
 3.571224662846269e+000	 2.899371381469173e+000	 1.072495371615534e+001
 3.871104239406733e+000	 2.530845109406134e+000	 1.070058716087979e+001
 3.844958066686008e+000	 2.570393445683397e+000	 1.073083465078270e+001
 3.818380867769612e+000	 2.609711200278689e+000	 1.076347870705463e+001
 3.791375611971606e+000	 2.648791416698196e+000	 1.079798646604192e+001
 3.763945416757542e+000	 2.687627187671334e+000	 1.083380420404827e+001
 3.736093546773886e+000	 2.726211659061534e+000	 1.083891930707658e+001
 3.707823412754411e+000	 2.764538033755787e+000	 1.081232033522434e+001
 3.679138570304016e+000	 2.802599575528457e+000	 1.078618639429086e+001
 3.650042718560651e+000	 2.840389612874897e+000	 1.076119345760698e+001
 3.620539698736161e+000	 2.877901542810388e+000	 1.073804080680080e+001
 3.590633492537089e+000	 2.915128834629961e+000	 1.071744975425352e+001
 3.892029127187417e+000	 2.544525353239926e+000	 1.069433465486074e+001
 3.865741623803371e+000	 2.584287464308273e+000	 1.071899354835642e+001
 3.839020764352334e+000	 2.623817747307115e+000	 1.074633302040988e+001
 3.811869534198717e+000	 2.663109208139963e+000	 1.077581197929091e+001
 3.784291067659238e+000	 2.702154902199639e+000	 1.080686778014912e+001
 3.756288647027099e+000	 2.740947938300187e+000	 1.083891694695765e+001
 3.727865701472470e+000	 2.779481482587446e+000	 1.082249501000552e+001
 3.699025805819740e+000	 2.817748762423748e+000	 1.079251390467707e+001
 3.669772679202196e+000	 2.855743070242259e+000	 1.076363335185515e+001
 3.640110183594994e+000	 2.893457767366451e+000	 1.073656581568996e+001
 3.610042322227410e+000	 2.930886287790248e+000	 1.071204621204874e+001
 3.912954014967101e+000	 2.558205597073220e+000	 1.069252946768536e+001
 3.886525180919736e+000	 2.598181482932562e+000	 1.071154467825393e+001
 3.859660660934076e+000	 2.637924294334881e+000	 1.073352714542153e+001
 3.832363456424873e+000	 2.677426999581022e+000	 1.075792749190794e+001
 3.804636718560013e+000	 2.716682616727206e+000	 1.078417408704669e+001
 3.776483747279436e+000	 2.755684217538092e+000	 1.081167377820740e+001
 3.747907990189709e+000	 2.794424931418365e+000	 1.083526984116961e+001
 3.718913041334707e+000	 2.832897949318327e+000	 1.080134399163702e+001
 3.689502639843061e+000	 2.871096527608960e+000	 1.076847067075444e+001
 3.659680668453230e+000	 2.909013991921924e+000	 1.073737574251862e+001
 3.629451151917229e+000	 2.946643740950033e+000	 1.070880795397023e+001
 3.933878902745785e+000	 2.571885840906018e+000	 1.069506965325294e+001
 3.907308738035108e+000	 2.612075501556264e+000	 1.070838659589615e+001
 3.880300557514837e+000	 2.652030841361990e+000	 1.072496022782752e+001
 3.852857378650074e+000	 2.691744791021372e+000	 1.074423282823915e+001
 3.824982369459868e+000	 2.731210331254034e+000	 1.076562371539540e+001
 3.796678847530897e+000	 2.770420496775246e+000	 1.078852998760268e+001
 3.767950278906126e+000	 2.809368380248543e+000	 1.081232733203787e+001
 3.738800276848919e+000	 2.848047136212197e+000	 1.081274183150951e+001
 3.709232600483244e+000	 2.886449984975000e+000	 1.077577058044629e+001
 3.679251153310868e+000	 2.924570216476804e+000	 1.074053571941652e+001
 3.648859981606546e+000	 2.962401194109317e+000	 1.070780005530078e+001
 3.954803790523469e+000	 2.585566084738318e+000	 1.070185360964273e+001
 3.928092295149484e+000	 2.625969520179377e+000	 1.070941818991025e+001
 3.900940454094619e+000	 2.666137388388442e+000	 1.072053173493852e+001
 3.873351300874320e+000	 2.706062582461015e+000	 1.073462812191378e+001
 3.845328020358802e+000	 2.745738045780124e+000	 1.075111755219098e+001
 3.816873947781481e+000	 2.785156776011651e+000	 1.076938730188040e+001
 3.787992567621723e+000	 2.824311829077981e+000	 1.078880254186333e+001
 3.758687512362374e+000	 2.863196323105355e+000	 1.080870722614575e+001
 3.728962561122746e+000	 2.901803442340379e+000	 1.078559848522051e+001
 3.698821638167911e+000	 2.940126441031094e+000	 1.074611110053478e+001
 3.668268811295363e+000	 2.978158647268101e+000	 1.070908779659864e+001
 3.975728678300154e+000	 2.599246328570120e+000	 1.071278007005660e+001
 3.948875852262866e+000	 2.639863538801905e+000	 1.071453867336100e+001
 3.921580350673420e+000	 2.680243935414237e+000	 1.072014144717552e+001
 3.893845223097610e+000	 2.720380373899949e+000	 1.072901380770516e+001
 3.865673671256817e+000	 2.760265760305474e+000	 1.074055677297206e+001
 3.837069048031190e+000	 2.799893055247307e+000	 1.075414772308845e+001
 3.808034856336499e+000	 2.839255277906679e+000	 1.076914123154567e+001
 3.778574747875074e+000	 2.878345509997804e+000	 1.078486996641730e+001
 3.748692521761567e+000	 2.917156899705098e+000	 1.079802002124826e+001
 3.718392123024358e+000	 2.955682665584793e+000	 1.075416745620325e+001
 3.687677640983678e+000	 2.993916100426382e+000	 1.071273665829547e+001
 3.493589344077969e+000	 2.836341568821007e+000	 1.077468418001791e+001
 3.464103133416387e+000	 2.872279492169516e+000	 1.075524410269962e+001
 3.434232784866212e+000	 2.907927987320115e+000	 1.073454164918288e+001
 3.403982572244511e+000	 2.943280932556834e+000	 1.071347296996488e+001
 3.373356898778110e+000	 2.978332290657102e+000	 1.069295406646629e+001
 3.342360295004344e+000	 3.013076112296309e+000	 1.067391914415941e+001
 3.310997416564727e+000	 3.047506539389349e+000	 1.065731891098275e+001
 3.279273041893774e+000	 3.081617808365264e+000	 1.064411882493400e+001
 3.247192069805367e+000	 3.115404253371149e+000	 1.063529729490778e+001
 3.214759516979200e+000	 3.148860309401588e+000	 1.064494552347236e+001
 3.181980515350000e+000	 3.181980515350000e+000	 1.065720609597841e+001
 3.512998173770796e+000	 2.852099021983801e+000	 1.075942276087271e+001
 3.483348150827399e+000	 2.888236600461318e+000	 1.073978618806064e+001
 3.453311855896036e+000	 2.924083142806598e+000	 1.071867949520553e+001
 3.422893586537202e+000	 2.959632493294132e+000	 1.069701513604074e+001
 3.392097770440096e+000	 2.994878581161230e+000	 1.067572596260674e+001
 3.360928963311705e+000	 3.029815424031473e+000	 1.065576354981203e+001
 3.329391846658216e+000	 3.064437131274841e+000	 1.063809646406570e+001
 3.297491225461002e+000	 3.098737907300537e+000	 1.062370847994000e+001
 3.265232025749582e+000	 3.132712054778697e+000	 1.061914045689661e+001
 3.232619292074090e+000	 3.166353977787204e+000	 1.063287113491029e+001
 3.199658184880000e+000	 3.199658184880000e+000	 1.064251054977584e+001
 3.532407003463121e+000	 2.867856475146093e+000	 1.074600453035713e+001
 3.502593168238003e+000	 2.904193708752715e+000	 1.072608662680757e+001
 3.472390926925537e+000	 2.940238298292759e+000	 1.070448717108106e+001
 3.441804600829648e+000	 2.975984054031187e+000	 1.068213515409679e+001
 3.410838642101901e+000	 3.011424871665177e+000	 1.065998051941618e+001
 3.379497631618939e+000	 3.046554735766512e+000	 1.063899245887050e+001
 3.347786276751622e+000	 3.081367723160253e+000	 1.062015765103087e+001
 3.315709409028185e+000	 3.115858006235765e+000	 1.060447844654601e+001
 3.283271981693775e+000	 3.150019856186222e+000	 1.061164009189367e+001
 3.250479067168973e+000	 3.183847646172815e+000	 1.062284308574004e+001
 3.217335854410000e+000	 3.217335854410000e+000	 1.062987156512431e+001
 3.551815833154945e+000	 2.883613928307883e+000	 1.073449344993957e+001
 3.521838185648202e+000	 2.920150817043707e+000	 1.071420871442348e+001
 3.491469997954720e+000	 2.956393453778600e+000	 1.069202724196139e+001
 3.460715615121846e+000	 2.992335614767993e+000	 1.066889479595666e+001
 3.429579513763525e+000	 3.027971162168942e+000	 1.064577865380814e+001
 3.398066299926047e+000	 3.063294047501425e+000	 1.062366587323649e+001
 3.366180706844950e+000	 3.098298315045584e+000	 1.060356150020894e+001
 3.333927592595324e+000	 3.132978105170948e+000	 1.059353801324671e+001
 3.301311937637951e+000	 3.167327657593730e+000	 1.060614302436986e+001
 3.268338842263852e+000	 3.201341314558420e+000	 1.061482777265826e+001
 3.235013523940000e+000	 3.235013523940000e+000	 1.061925653902172e+001
 3.571224662846269e+000	 2.899371381469173e+000	 1.072495371615534e+001
 3.541083203057994e+000	 2.936107925334290e+000	 1.070421597639667e+001
 3.510549068983579e+000	 2.972548609264119e+000	 1.068136249826880e+001
 3.479626629413799e+000	 3.008687175504554e+000	 1.065735605430899e+001
 3.448320385424970e+000	 3.044517452672527e+000	 1.063318149948781e+001
 3.416634968233030e+000	 3.080033359236212e+000	 1.060984400786441e+001
 3.384575136938196e+000	 3.115228906930835e+000	 1.058836724958081e+001
 3.352145776162416e+000	 3.150098204106086e+000	 1.059244848541694e+001
 3.319351893582105e+000	 3.184635459001217e+000	 1.060261485269390e+001
 3.286198617358726e+000	 3.218834982944022e+000	 1.060879179384045e+001
 3.252691193470001e+000	 3.252691193470001e+000	 1.061063306790478e+001
 3.590633492537089e+000	 2.915128834629961e+000	 1.071744975425352e+001
 3.560328220467381e+000	 2.952065033624467e+000	 1.069617216200433e+001
 3.529628140012117e+000	 2.988703764749316e+000	 1.067255594960759e+001
 3.498537643705507e+000	 3.025038736240869e+000	 1.064758113673809e+001
 3.467061257086231e+000	 3.061063743175931e+000	 1.062225040109287e+001
 3.435203636539888e+000	 3.096772670970874e+000	 1.059758728500310e+001
 3.402969567031362e+000	 3.132159498816006e+000	 1.058184788930295e+001
 3.370363959729464e+000	 3.167218303041179e+000	 1.059328416076082e+001
 3.337391849526239e+000	 3.201943260408684e+000	 1.060102137358644e+001
 3.304058392453595e+000	 3.236328651329618e+000	 1.060470194349569e+001
 3.270368862999999e+000	 3.270368862999999e+000	 1.060396894225872e+001
 3.610042322227410e+000	 2.930886287790248e+000	 1.071204621204874e+001
 3.579573237876362e+000	 2.968022141914240e+000	 1.069014123829673e+001
 3.548707211040334e+000	 3.004858920234193e+000	 1.066567081887203e+001
 3.517448657996968e+000	 3.041390296976939e+000	 1.063963245994722e+001
 3.485802128747313e+000	 3.077610033679155e+000	 1.061304690852317e+001
 3.453772304846619e+000	 3.113511982705410e+000	 1.058695632862353e+001
 3.421363997124447e+000	 3.149090090701097e+000	 1.058693799706725e+001
 3.388582143296466e+000	 3.184338401976226e+000	 1.059601003425042e+001
 3.355431805470353e+000	 3.219251061816130e+000	 1.060132857678801e+001
 3.321918167548458e+000	 3.253822319715209e+000	 1.060252520659688e+001
 3.288046532530000e+000	 3.288046532530000e+000	 1.059923214140103e+001
 3.629451151917229e+000	 2.946643740950033e+000	 1.070880795397023e+001
 3.598818255284934e+000	 2.983979250203605e+000	 1.068618738427439e+001
 3.567786282068231e+000	 3.021014075718749e+000	 1.066077053654345e+001
 3.536359672288182e+000	 3.057741857712761e+000	 1.063357264416710e+001
 3.504543000408214e+000	 3.094156324182197e+000	 1.060563277145250e+001
 3.472340973153226e+000	 3.130251294439821e+000	 1.058373009740171e+001
 3.439758427217453e+000	 3.166020682586106e+000	 1.059387412509027e+001
 3.406800326863423e+000	 3.201458500911228e+000	 1.060059129122709e+001
 3.373471761414447e+000	 3.236558863223557e+000	 1.060350263989800e+001
 3.339777942643317e+000	 3.271315988100795e+000	 1.060222875378001e+001
 3.305724202060000e+000	 3.305724202060000e+000	 1.059639082843236e+001
 3.648859981606546e+000	 2.962401194109317e+000	 1.070780005530078e+001
 3.618063272693102e+000	 2.999936358492565e+000	 1.068437498525112e+001
 3.586865353095806e+000	 3.037169231202983e+000	 1.065791873516932e+001
 3.555270686579151e+000	 3.074093418448338e+000	 1.062946450774305e+001
 3.523283872068935e+000	 3.110702614685059e+000	 1.060006993401542e+001
 3.490909641459706e+000	 3.146990606174107e+000	 1.059478205967939e+001
 3.458152857310378e+000	 3.182951274471036e+000	 1.060262065663085e+001
 3.425018510430335e+000	 3.218578599846186e+000	 1.060699330233842e+001
 3.391511717358521e+000	 3.253866664630963e+000	 1.060750992337853e+001
 3.357637717738171e+000	 3.288809656486376e+000	 1.060377993640650e+001
 3.323401871590000e+000	 3.323401871590000e+000	 1.059541334534873e+001
 3.668268811295363e+000	 2.978158647268101e+000	 1.070908779659864e+001
 3.637308290100862e+000	 3.015893466781117e+000	 1.068476862739597e+001
 3.605944424123060e+000	 3.053324386686897e+000	 1.065717924401757e+001
 3.574181700869874e+000	 3.090444979183670e+000	 1.062737106189372e+001
 3.542024743729474e+000	 3.127248905187740e+000	 1.059895465052780e+001
 3.509478309766062e+000	 3.163729917908265e+000	 1.060759993995914e+001
 3.476547287403223e+000	 3.199881866355886e+000	 1.061314215802767e+001
 3.443236693997202e+000	 3.235698698781097e+000	 1.061518161863608e+001
 3.409551673302576e+000	 3.271174466038349e+000	 1.061331696571671e+001
 3.375497492833020e+000	 3.306303324871952e+000	 1.060714628178192e+001
 3.341079541120000e+000	 3.341079541120000e+000	 1.059626820830886e+001
 3.687677640983678e+000	 2.993916100426382e+000	 1.071273665829547e+001
 3.656553307508218e+000	 3.031850575069264e+000	 1.068743309244763e+001
 3.625023495149993e+000	 3.069479542170489e+000	 1.065861608389970e+001
 3.593092715160352e+000	 3.106796539918756e+000	 1.062735550563565e+001
 3.560765615389834e+000	 3.143795195690242e+000	 1.061576541788769e+001
 3.528046978072291e+000	 3.180469229642300e+000	 1.062214750507325e+001
 3.494941717495988e+000	 3.216812458240655e+000	 1.062540337388142e+001
 3.461454877564024e+000	 3.252818797715964e+000	 1.062512196682819e+001
 3.427591629246610e+000	 3.288482267445716e+000	 1.062089047873982e+001
 3.393357267927864e+000	 3.323796993257524e+000	 1.061229548852599e+001
 3.358757210650000e+000	 3.358757210650000e+000	 1.059892410305090e+001
 3.181980515350000e+000	 3.181980515350000e+000	 1.065720609597841e+001
 3.148860309401589e+000	 3.214759516979199e+000	 1.069095160109895e+001
 3.115404253371151e+000	 3.247192069805366e+000	 1.070672611952221e+001
 3.081617808365265e+000	 3.279273041893772e+000	 1.066685125362591e+001
 3.047506539389349e+000	 3.310997416564726e+000	 1.062759990294921e+001
 3.013076112296310e+000	 3.342360295004343e+000	 1.059032361830769e+001
 2.978332290657104e+000	 3.373356898778109e+000	 1.055637836768830e+001
 2.943280932556835e+000	 3.403982572244510e+000	 1.052712151268620e+001
 2.907927987320116e+000	 3.434232784866211e+000	 1.050390877211123e+001
 2.872279492169517e+000	 3.464103133416387e+000	 1.048809118063280e+001
 2.836341568821007e+000	 3.493589344077969e+000	 1.048101205034513e+001
 3.199658184880000e+000	 3.199658184880000e+000	 1.064251054977584e+001
 3.166353977787205e+000	 3.232619292074087e+000	 1.067141928779173e+001
 3.132712054778697e+000	 3.265232025749580e+000	 1.070516212081632e+001
 3.098737907300539e+000	 3.297491225461001e+000	 1.068091322699384e+001
 3.064437131274842e+000	 3.329391846658214e+000	 1.063926713660691e+001
 3.029815424031474e+000	 3.360928963311703e+000	 1.059950519378475e+001
 2.994878581161231e+000	 3.392097770440095e+000	 1.056302178343016e+001
 2.959632493294134e+000	 3.422893586537201e+000	 1.053121289474844e+001
 2.924083142806599e+000	 3.453311855896036e+000	 1.050547301666615e+001
 2.888236600461320e+000	 3.483348150827398e+000	 1.048719202798974e+001
 2.852099021983801e+000	 3.512998173770796e+000	 1.047775209034756e+001
 3.217335854410000e+000	 3.217335854410000e+000	 1.062987156512431e+001
 3.183847646172816e+000	 3.250479067168972e+000	 1.065406363976704e+001
 3.150019856186225e+000	 3.283271981693775e+000	 1.068307215252273e+001
 3.115858006235767e+000	 3.315709409028185e+000	 1.069526886051077e+001
 3.081367723160254e+000	 3.347786276751620e+000	 1.065117937002892e+001
 3.046554735766512e+000	 3.379497631618937e+000	 1.060887885899561e+001
 3.011424871665178e+000	 3.410838642101900e+000	 1.056980055927961e+001
 2.975984054031187e+000	 3.441804600829646e+000	 1.053537952311019e+001
 2.940238298292760e+000	 3.472390926925536e+000	 1.050704944954061e+001
 2.904193708752717e+000	 3.502593168238003e+000	 1.048623950534524e+001
 2.867856475146093e+000	 3.532407003463121e+000	 1.047437114855807e+001
 3.235013523940000e+000	 3.235013523940000e+000	 1.061925653902172e+001
 3.201341314558423e+000	 3.268338842263850e+000	 1.063885127632831e+001
 3.167327657593731e+000	 3.301311937637950e+000	 1.066324532060200e+001
 3.132978105170949e+000	 3.333927592595322e+000	 1.069198344348161e+001
 3.098298315045586e+000	 3.366180706844949e+000	 1.066343119569764e+001
 3.063294047501426e+000	 3.398066299926045e+000	 1.061853506996060e+001
 3.027971162168944e+000	 3.429579513763525e+000	 1.057680097003830e+001
 2.992335614767995e+000	 3.460715615121845e+000	 1.053970345088729e+001
 2.956393453778601e+000	 3.491469997954718e+000	 1.050871586602331e+001
 2.920150817043707e+000	 3.521838185648202e+000	 1.048530711837606e+001
 2.883613928307883e+000	 3.551815833154945e+000	 1.047093841363778e+001
 3.252691193470001e+000	 3.252691193470001e+000	 1.061063306790478e+001
 3.218834982944023e+000	 3.286198617358724e+000	 1.062574905310282e+001
 3.184635459001219e+000	 3.319351893582104e+000	 1.064564775069892e+001
 3.150098204106087e+000	 3.352145776162415e+000	 1.066986918936062e+001
 3.115228906930837e+000	 3.384575136938195e+000	 1.067611755305725e+001
 3.080033359236213e+000	 3.416634968233030e+000	 1.062856466647619e+001
 3.044517452672528e+000	 3.448320385424968e+000	 1.058410971103642e+001
 3.008687175504556e+000	 3.479626629413798e+000	 1.054426718839669e+001
 2.972548609264120e+000	 3.510549068983577e+000	 1.051055055517945e+001
 2.936107925334291e+000	 3.541083203057994e+000	 1.048446890299618e+001
 2.899371381469173e+000	 3.571224662846268e+000	 1.046752364081352e+001
 3.270368862999999e+000	 3.270368862999999e+000	 1.060396894225872e+001
 3.236328651329619e+000	 3.304058392453593e+000	 1.061472405565451e+001
 3.201943260408684e+000	 3.337391849526239e+000	 1.063024583429195e+001
 3.167218303041179e+000	 3.370363959729463e+000	 1.065006934315658e+001
 3.132159498816007e+000	 3.402969567031361e+000	 1.067372526562525e+001
 3.096772670970876e+000	 3.435203636539887e+000	 1.063905886174276e+001
 3.061063743175933e+000	 3.467061257086230e+000	 1.059181388676698e+001
 3.025038736240870e+000	 3.498537643705504e+000	 1.054915369079965e+001
 2.988703764749318e+000	 3.529628140012117e+000	 1.051263228650542e+001
 2.952065033624470e+000	 3.560328220467380e+000	 1.048379941102598e+001
 2.915128834629961e+000	 3.590633492537090e+000	 1.046419713656527e+001
 3.288046532530000e+000	 3.288046532530000e+000	 1.059923214140103e+001
 3.253822319715210e+000	 3.321918167548457e+000	 1.060574359330295e+001
 3.219251061816132e+000	 3.355431805470353e+000	 1.061700622154702e+001
 3.184338401976227e+000	 3.388582143296466e+000	 1.063254990615320e+001
 3.149090090701097e+000	 3.421363997124447e+000	 1.065190009635253e+001
 3.113511982705412e+000	 3.453772304846618e+000	 1.065010923232667e+001
 3.077610033679156e+000	 3.485802128747312e+000	 1.060000099988683e+001
 3.041390296976939e+000	 3.517448657996966e+000	 1.055444634614363e+001
 3.004858920234195e+000	 3.548707211040334e+000	 1.051504029701400e+001
 2.968022141914241e+000	 3.579573237876359e+000	 1.048337369632379e+001
 2.930886287790248e+000	 3.610042322227410e+000	 1.046102974380746e+001
 3.305724202060000e+000	 3.305724202060000e+000	 1.059639082843236e+001
 3.271315988100795e+000	 3.339777942643316e+000	 1.059877519314052e+001
 3.236558863223558e+000	 3.373471761414446e+000	 1.060589581440084e+001
 3.201458500911230e+000	 3.406800326863422e+000	 1.061727716539475e+001
 3.166020682586108e+000	 3.439758427217452e+000	 1.063243923846583e+001
 3.130251294439822e+000	 3.472340973153225e+000	 1.065089875988389e+001
 3.094156324182199e+000	 3.504543000408213e+000	 1.060875894057057e+001
 3.057741857712763e+000	 3.536359672288181e+000	 1.056022896378767e+001
 3.021014075718751e+000	 3.567786282068230e+000	 1.051785427873388e+001
 2.983979250203606e+000	 3.598818255284933e+000	 1.048326730136243e+001
 2.946643740950033e+000	 3.629451151917229e+000	 1.045809282754591e+001
 3.323401871590000e+000	 3.323401871590000e+000	 1.059541334534873e+001
 3.288809656486377e+000	 3.357637717738170e+000	 1.059378659424065e+001
 3.253866664630964e+000	 3.391511717358519e+000	 1.059688175986486e+001
 3.218578599846186e+000	 3.425018510430334e+000	 1.060421768608608e+001
 3.182951274471038e+000	 3.458152857310378e+000	 1.061530868500306e+001
 3.146990606174108e+000	 3.490909641459706e+000	 1.062966576946964e+001
 3.110702614685061e+000	 3.523283872068934e+000	 1.061817597620426e+001
 3.074093418448340e+000	 3.555270686579150e+000	 1.056658576319745e+001
 3.037169231202985e+000	 3.586865353095806e+000	 1.052115436660823e+001
 2.999936358492565e+000	 3.618063272693100e+000	 1.048355624423422e+001
 2.962401194109317e+000	 3.648859981606546e+000	 1.045545826099233e+001
 3.341079541120000e+000	 3.341079541120000e+000	 1.059626820830886e+001
 3.306303324871953e+000	 3.375497492833018e+000	 1.059074574204975e+001
 3.271174466038349e+000	 3.409551673302574e+000	 1.058993144354182e+001
 3.235698698781098e+000	 3.443236693997201e+000	 1.059333830423388e+001
 3.199881866355887e+000	 3.476547287403222e+000	 1.060047473199137e+001
 3.163729917908267e+000	 3.509478309766060e+000	 1.061084580172550e+001
 3.127248905187742e+000	 3.542024743729473e+000	 1.062395451193078e+001
 3.090444979183671e+000	 3.574181700869873e+000	 1.057360136309575e+001
 3.053324386686898e+000	 3.605944424123059e+000	 1.052502112677732e+001
 3.015893466781118e+000	 3.637308290100862e+000	 1.048431700606831e+001
 2.978158647268101e+000	 3.668268811295363e+000	 1.045319841211974e+001
 3.358757210650000e+000	 3.358757210650000e+000	 1.059892410305090e+001
 3.323796993257525e+000	 3.393357267927863e+000	 1.058962078295645e+001
 3.288482267445717e+000	 3.427591629246607e+000	 1.058501248334698e+001
 3.252818797715966e+000	 3.461454877564024e+000	 1.058460611952029e+001
 3.216812458240656e+000	 3.494941717495987e+000	 1.058790397047366e+001
 3.180469229642302e+000	 3.528046978072290e+000	 1.059440494799373e+001
 3.143795195690242e+000	 3.560765615389833e+000	 1.060360587174190e+001
 3.106796539918757e+000	 3.593092715160351e+000	 1.058136077095580e+001
 3.069479542170491e+000	 3.625023495149992e+000	 1.052953554523127e+001
 3.031850575069266e+000	 3.656553307508217e+000	 1.048562651884558e+001
 2.993916100426382e+000	 3.687677640983678e+000	 1.045138613064246e+001
 2.836341568821007e+000	 3.493589344077969e+000	 1.048101205034513e+001
 2.800120420021204e+000	 3.522687274433059e+000	 1.044469331714034e+001
 2.763622326028175e+000	 3.551392915342705e+000	 1.040781577139636e+001
 2.726853641041347e+000	 3.579702392714053e+000	 1.037171984856513e+001
 2.689820789586396e+000	 3.607611969151798e+000	 1.033773728762775e+001
 2.652530262857026e+000	 3.635118045494689e+000	 1.030718812861465e+001
 2.614988615018723e+000	 3.662217162235255e+000	 1.028137774511770e+001
 2.577202459478736e+000	 3.688906000821717e+000	 1.026159391927344e+001
 2.539178465126700e+000	 3.715181384841300e+000	 1.024910396652672e+001
 2.500923352550203e+000	 3.741040281084274e+000	 1.024515191729044e+001
 2.462443890229713e+000	 3.766479800488312e+000	 1.024225156071894e+001
 2.852099021983801e+000	 3.512998173770796e+000	 1.047775209034756e+001
 2.815676644580223e+000	 3.542257759294872e+000	 1.043914590952183e+001
 2.778975783398841e+000	 3.571122875987657e+000	 1.040019036097372e+001
 2.742002827940190e+000	 3.599589628233557e+000	 1.036226025140877e+001
 2.704764238421754e+000	 3.627654257873962e+000	 1.032672145398221e+001
 2.667266542099427e+000	 3.655313145752280e+000	 1.029492784303039e+001
 2.629516329550723e+000	 3.682562813141553e+000	 1.026821826453731e+001
 2.591520250924045e+000	 3.709399923053605e+000	 1.024791354996026e+001
 2.553285012158413e+000	 3.735821281428923e+000	 1.023531358086625e+001
 2.514817371178017e+000	 3.761823838206612e+000	 1.023958441456228e+001
 2.476124134065992e+000	 3.787404688273996e+000	 1.024221735967809e+001
 2.867856475146093e+000	 3.532407003463121e+000	 1.047437114855807e+001
 2.831232869138651e+000	 3.561828244156089e+000	 1.043333852284613e+001
 2.794329240768847e+000	 3.590852836631926e+000	 1.039216452387978e+001
 2.757152014838323e+000	 3.619476863752306e+000	 1.035225881503097e+001
 2.719707687256372e+000	 3.647696546595306e+000	 1.031502188900864e+001
 2.682002821341079e+000	 3.675508246008994e+000	 1.028184193899103e+001
 2.644044044081985e+000	 3.702908464046931e+000	 1.025409176624101e+001
 2.605838042368646e+000	 3.729893845284539e+000	 1.023312573197680e+001
 2.567391559189470e+000	 3.756461178015565e+000	 1.022690044323004e+001
 2.528711389805244e+000	 3.782607395327953e+000	 1.024001147176709e+001
 2.489804377901773e+000	 3.808329576058680e+000	 1.024209810501666e+001
 2.883613928307883e+000	 3.551815833154945e+000	 1.047093841363778e+001
 2.846789093696489e+000	 3.581398729016709e+000	 1.042733714970701e+001
 2.809682698138191e+000	 3.610582797275515e+000	 1.038380104291094e+001
 2.772301201735746e+000	 3.639364099270299e+000	 1.034177510255936e+001
 2.734651136090252e+000	 3.667738835315828e+000	 1.030269493015264e+001
 2.696739100581981e+000	 3.695703346264835e+000	 1.026798352609827e+001
 2.658571758612507e+000	 3.723254114951389e+000	 1.023904813366478e+001
 2.620155833812538e+000	 3.750387767514516e+000	 1.021779745740830e+001
 2.581498106219867e+000	 3.777101074601226e+000	 1.023285761063525e+001
 2.542605408431882e+000	 3.803390952448300e+000	 1.024086619684491e+001
 2.503484621737058e+000	 3.829254463842364e+000	 1.024097718626304e+001
 2.899371381469173e+000	 3.571224662846268e+000	 1.046752364081352e+001
 2.862345318253735e+000	 3.600969213876733e+000	 1.042120836057464e+001
 2.825036155506875e+000	 3.630312757918423e+000	 1.037516328977849e+001
 2.787450388632458e+000	 3.659251334787534e+000	 1.033086927679818e+001
 2.749594584923391e+000	 3.687781124035530e+000	 1.028979752501643e+001
 2.711475379822133e+000	 3.715898446519798e+000	 1.025340633430469e+001
 2.673099473142290e+000	 3.743599765854925e+000	 1.022313788049933e+001
 2.634473625255722e+000	 3.770881689743538e+000	 1.022912866294652e+001
 2.595604653249608e+000	 3.797740971185909e+000	 1.023922222881271e+001
 2.556499427057933e+000	 3.824174509567651e+000	 1.024217450082849e+001
 2.517164865571844e+000	 3.850179351625048e+000	 1.023712231087958e+001
 2.915128834629961e+000	 3.590633492537090e+000	 1.046419713656527e+001
 2.877901542810389e+000	 3.620539698736160e+000	 1.041501928817730e+001
 2.840389612874899e+000	 3.650042718560650e+000	 1.036631520919211e+001
 2.802599575528459e+000	 3.679138570304014e+000	 1.031960208402076e+001
 2.764538033755789e+000	 3.707823412754410e+000	 1.027638721486818e+001
 2.726211659061536e+000	 3.736093546773886e+000	 1.023816469714732e+001
 2.687627187671335e+000	 3.763945416757541e+000	 1.022933875528289e+001
 2.648791416698197e+000	 3.791375611971605e+000	 1.024083968723394e+001
 2.609711200278691e+000	 3.818380867769611e+000	 1.024602000340119e+001
 2.570393445683398e+000	 3.844958066686007e+000	 1.024396293514863e+001
 2.530845109406134e+000	 3.871104239406732e+000	 1.023378790362677e+001
 2.930886287790248e+000	 3.610042322227410e+000	 1.046102974380746e+001
 2.893457767366452e+000	 3.640110183594993e+000	 1.040883761238695e+001
 2.855743070242261e+000	 3.669772679202195e+000	 1.035732130345656e+001
 2.817748762423749e+000	 3.699025805819737e+000	 1.030803483828482e+001
 2.779481482587447e+000	 3.727865701472470e+000	 1.026252211868314e+001
 2.740947938300189e+000	 3.756288647027098e+000	 1.023406920622830e+001
 2.702154902199641e+000	 3.784291067659237e+000	 1.024622987610926e+001
 2.663109208139964e+000	 3.811869534198716e+000	 1.025295595210145e+001
 2.623817747307116e+000	 3.839020764352334e+000	 1.025327725469140e+001
 2.584287464308274e+000	 3.865741623803368e+000	 1.024625867441924e+001
 2.544525353239926e+000	 3.892029127187417e+000	 1.023100194756861e+001
 2.946643740950033e+000	 3.629451151917229e+000	 1.045809282754591e+001
 2.909013991921924e+000	 3.659680668453228e+000	 1.040273154558971e+001
 2.871096527608962e+000	 3.689502639843060e+000	 1.034824661756285e+001
 2.832897949318329e+000	 3.718913041334706e+000	 1.029622940625114e+001
 2.794424931418366e+000	 3.747907990189708e+000	 1.024826091769706e+001
 2.755684217538093e+000	 3.776483747279434e+000	 1.025597275865619e+001
 2.716682616727208e+000	 3.804636718560011e+000	 1.026349094068727e+001
 2.677426999581023e+000	 3.832363456424872e+000	 1.026550346901636e+001
 2.637924294334883e+000	 3.859660660934074e+000	 1.026102090119131e+001
 2.598181482932563e+000	 3.886525180919735e+000	 1.024908949977460e+001
 2.558205597073221e+000	 3.912954014967101e+000	 1.022879304031161e+001
 2.962401194109317e+000	 3.648859981606546e+000	 1.045545826099233e+001
 2.924570216476806e+000	 3.679251153310866e+000	 1.039676981852319e+001
 2.886449984975001e+000	 3.709232600483242e+000	 1.033915672475503e+001
 2.848047136212198e+000	 3.738800276848918e+000	 1.028424819248665e+001
 2.809368380248544e+000	 3.767950278906126e+000	 1.027072063046660e+001
 2.770420496775247e+000	 3.796678847530895e+000	 1.027820370732400e+001
 2.731210331254036e+000	 3.824982369459867e+000	 1.028114757617138e+001
 2.691744791021374e+000	 3.852857378650074e+000	 1.027850882340058e+001
 2.652030841361992e+000	 3.880300557514837e+000	 1.026927844371627e+001
 2.612075501556264e+000	 3.907308738035107e+000	 1.025248378273860e+001
 2.571885840906018e+000	 3.933878902745785e+000	 1.022719037766050e+001
 2.978158647268101e+000	 3.668268811295363e+000	 1.045319841211974e+001
 2.940126441031095e+000	 3.698821638167910e+000	 1.039102166656361e+001
 2.901803442340381e+000	 3.728962561122744e+000	 1.033011771255522e+001
 2.863196323105357e+000	 3.758687512362374e+000	 1.029120168298987e+001
 2.824311829077982e+000	 3.787992567621723e+000	 1.029774684498227e+001
 2.785156776011652e+000	 3.816873947781480e+000	 1.030078722185136e+001
 2.745738045780125e+000	 3.845328020358801e+000	 1.029922596009475e+001
 2.706062582461016e+000	 3.873351300874318e+000	 1.029199915944663e+001
 2.666137388388443e+000	 3.900940454094618e+000	 1.027807794998398e+001
 2.625969520179379e+000	 3.928092295149483e+000	 1.025647046960582e+001
 2.585566084738318e+000	 3.954803790523470e+000	 1.022622373779295e+001
 2.993916100426382e+000	 3.687677640983678e+000	 1.045138613064246e+001
 2.955682665584793e+000	 3.718392123024356e+000	 1.038555681644570e+001
 2.917156899705098e+000	 3.748692521761566e+000	 1.032119616922999e+001
 2.878345509997806e+000	 3.778574747875073e+000	 1.032285039889155e+001
 2.839255277906680e+000	 3.808034856336499e+000	 1.032507544697468e+001
 2.799893055247309e+000	 3.837069048031190e+000	 1.032374899933167e+001
 2.760265760305475e+000	 3.865673671256816e+000	 1.031775280588552e+001
 2.720380373899951e+000	 3.893845223097609e+000	 1.030600216541313e+001
 2.680243935414238e+000	 3.921580350673420e+000	 1.028744803969599e+001
 2.639863538801907e+000	 3.948875852262866e+000	 1.026107906631617e+001
 2.599246328570120e+000	 3.975728678300154e+000	 1.022592346593397e+001
 2.462443890229713e+000	 3.766479800488312e+000	 1.024225156071894e+001
 2.423746890716576e+000	 3.791497198963489e+000	 1.022887762009353e+001
 2.384839206800335e+000	 3.816089878095935e+000	 1.020697556029467e+001
 2.345727727668478e+000	 3.840255385731489e+000	 1.017795206571222e+001
 2.306419375061633e+000	 3.863991416440919e+000	 1.014320421154840e+001
 2.266921099430404e+000	 3.887295811865205e+000	 1.010411643679687e+001
 2.227239876097467e+000	 3.910166560942134e+000	 1.006205756381915e+001
 2.187382701429101e+000	 3.932601800014995e+000	 1.001837787175413e+001
 2.147356589020303e+000	 3.954599812824289e+000	 9.974406230762982e+000
 2.107168565897561e+000	 3.976159030383603e+000	 9.931447303857478e+000
 2.066825668743274e+000	 3.997278030740858e+000	 9.890778822785626e+000
 2.476124134065992e+000	 3.787404688273996e+000	 1.024221735967809e+001
 2.437212151221294e+000	 3.812561072296217e+000	 1.023031250010255e+001
 2.398088313504623e+000	 3.837290377423782e+000	 1.020974672759922e+001
 2.358759548376729e+000	 3.861590137879450e+000	 1.018196453342311e+001
 2.319232816032356e+000	 3.885458035426049e+000	 1.014840076727518e+001
 2.279515105535722e+000	 3.908891899713674e+000	 1.011047754226157e+001
 2.239613430961296e+000	 3.931889708507546e+000	 1.006960118718135e+001
 2.199534827544057e+000	 3.954449587797303e+000	 1.002715925353008e+001
 2.159286347843420e+000	 3.976569811788677e+000	 9.984517584368540e+000
 2.118875057924909e+000	 3.998248802778657e+000	 9.943017451947874e+000
 2.078308033563603e+000	 4.019485130915437e+000	 9.903972770702469e+000
 2.489804377901773e+000	 3.808329576058680e+000	 1.024209810501666e+001
 2.450677411725615e+000	 3.833624945627947e+000	 1.023152453452233e+001
 2.411337420208613e+000	 3.858490876750630e+000	 1.021215441201494e+001
 2.371791369084784e+000	 3.882924890026411e+000	 1.018547050841119e+001
 2.332046257002982e+000	 3.906924654410177e+000	 1.015294592190626e+001
 2.292109111641044e+000	 3.930487987561142e+000	 1.011604091409834e+001
 2.251986985825228e+000	 3.953612856071956e+000	 1.007619979417931e+001
 2.211686953659217e+000	 3.976297375578613e+000	 1.003484785873194e+001
 2.171216106666841e+000	 3.998539810752064e+000	 9.993388394432577e+000
 2.130581549952660e+000	 4.020338575172712e+000	 9.953199750694306e+000
 2.089790398384435e+000	 4.041692231089016e+000	 9.915632489002144e+000
 2.503484621737058e+000	 3.829254463842364e+000	 1.024097718626304e+001
 2.464142672229539e+000	 3.854688818958676e+000	 1.023265179719337e+001
 2.424586526912307e+000	 3.879691376076478e+000	 1.021433173686283e+001
 2.384823189792640e+000	 3.904259642172372e+000	 1.018859810691531e+001
 2.344859697973512e+000	 3.928391273393306e+000	 1.015696273279531e+001
 2.304703117746368e+000	 3.952084075407610e+000	 1.012092450374836e+001
 2.264360540689263e+000	 3.975336003635367e+000	 1.008196618809971e+001
 2.223839079774579e+000	 3.998145163358922e+000	 1.004155130503859e+001
 2.183145865490566e+000	 4.020509809714451e+000	 1.000112106035817e+001
 2.142288041980816e+000	 4.042428347565767e+000	 9.962091353332239e+000
 2.101272763205771e+000	 4.063899331261593e+000	 9.925849861621101e+000
 2.517164865571844e+000	 3.850179351625048e+000	 1.023712231087958e+001
 2.477607932733066e+000	 3.875752692288406e+000	 1.023383306182059e+001
 2.437835633615703e+000	 3.900891875401327e+000	 1.021641255851233e+001
 2.397855010500301e+000	 3.925594394317333e+000	 1.019147621160231e+001
 2.357673138943945e+000	 3.949857892375436e+000	 1.016057505728269e+001
 2.317297123851696e+000	 3.973680163253078e+000	 1.012524709636096e+001
 2.276734095553402e+000	 3.997059151197778e+000	 1.008701403980510e+001
 2.235991205890147e+000	 4.019992951138230e+000	 1.004737811170224e+001
 2.195075624314594e+000	 4.042479808675839e+000	 1.000781891723270e+001
 2.153994534009375e+000	 4.064518119957822e+000	 9.969790382989377e+000
 2.112755128027612e+000	 4.086106431433171e+000	 9.934717776676742e+000
 2.530845109406134e+000	 3.871104239406732e+000	 1.023378790362677e+001
 2.491073193236195e+000	 3.896816565617135e+000	 1.023520778305805e+001
 2.451084740318802e+000	 3.922092374725174e+000	 1.021853144656923e+001
 2.410886831207764e+000	 3.946929146461295e+000	 1.019423445085286e+001
 2.370486579914279e+000	 3.971324511356564e+000	 1.016390753107438e+001
 2.329891129957027e+000	 3.995276251097546e+000	 1.012912828826103e+001
 2.289107650417644e+000	 4.018782298759190e+000	 1.009145786428598e+001
 2.248143332005917e+000	 4.041840738916538e+000	 1.005243767518167e+001
 2.207005383138926e+000	 4.064449807636225e+000	 1.001358621053914e+001
 2.165701026038339e+000	 4.086607892348876e+000	 9.976395906472412e+000
 2.124237492849956e+000	 4.108313531603750e+000	 9.942330099327345e+000
 2.544525353239926e+000	 3.892029127187417e+000	 1.023100194756861e+001
 2.504538453738926e+000	 3.917880438944866e+000	 1.023507921715679e+001
 2.464333847021603e+000	 3.943292874048022e+000	 1.022082366470262e+001
 2.423918651915030e+000	 3.968263898604255e+000	 1.019700317871532e+001
 2.383300020884518e+000	 3.992791130336693e+000	 1.016708554731800e+001
 2.342485136062361e+000	 4.016872338941013e+000	 1.013268846514324e+001
 2.301481205281990e+000	 4.040505446319600e+000	 1.009541299796909e+001
 2.260295458121891e+000	 4.063688526693848e+000	 1.005684024556143e+001
 2.218935141963562e+000	 4.086419806595612e+000	 1.001852807168296e+001
 2.177407518067706e+000	 4.108697664738932e+000	 9.982007908899291e+000
 2.135719857672804e+000	 4.130520631773328e+000	 9.948781645507593e+000
 2.558205597073221e+000	 3.912954014967101e+000	 1.022879304031161e+001
 2.518003714241260e+000	 3.938944312271593e+000	 1.023192993116210e+001
 2.477582953724108e+000	 3.964493373369870e+000	 1.022342515208706e+001
 2.436950472622099e+000	 3.989598650746217e+000	 1.019991345550287e+001
 2.396113461854660e+000	 4.014257749315822e+000	 1.017023523635044e+001
 2.355079142167700e+000	 4.038468426783482e+000	 1.013604878096584e+001
 2.313854760146439e+000	 4.062228593879011e+000	 1.009899557675393e+001
 2.272447584238069e+000	 4.085536314470156e+000	 1.006069690372755e+001
 2.230864900788501e+000	 4.108389805553999e+000	 1.002275049430446e+001
 2.189114010097477e+000	 4.130787437127987e+000	 9.986727269145428e+000
 2.147202222496156e+000	 4.152727731941907e+000	 9.954168156506739e+000
 2.571885840906018e+000	 3.933878902745785e+000	 1.022719037766050e+001
 2.531468974743198e+000	 3.960008185597324e+000	 1.022948516616217e+001
 2.490832060426316e+000	 3.985693872690718e+000	 1.022647250543700e+001
 2.449982293328970e+000	 4.010933402887178e+000	 1.020309702900988e+001
 2.408926902824705e+000	 4.035724368293952e+000	 1.017348344609173e+001
 2.367673148273041e+000	 4.060064514624949e+000	 1.013933113751819e+001
 2.326228315010992e+000	 4.083951741437421e+000	 1.010232251475018e+001
 2.284599710354450e+000	 4.107384102245465e+000	 1.006411953927177e+001
 2.242794659613746e+000	 4.130359804511387e+000	 1.002636031134694e+001
 2.200820502127653e+000	 4.152877209516041e+000	 9.990655736073592e+000
 2.158684587320011e+000	 4.174934832109484e+000	 9.958586274358051e+000
 2.585566084738318e+000	 3.954803790523470e+000	 1.022622373779295e+001
 2.544934235244737e+000	 3.981072058922053e+000	 1.022777449131169e+001
 2.504081167128226e+000	 4.006894372010565e+000	 1.022815339207194e+001
 2.463014114035645e+000	 4.032268155027139e+000	 1.020668631632454e+001
 2.421740343794653e+000	 4.057190987271080e+000	 1.017695772306142e+001
 2.380267154378385e+000	 4.081660602465417e+000	 1.014265816463680e+001
 2.338601869875648e+000	 4.105674888994833e+000	 1.010551148369010e+001
 2.296751836471036e+000	 4.129231890019773e+000	 1.006722082909728e+001
 2.254724418439293e+000	 4.152329803467774e+000	 1.002946517285291e+001
 2.212526994158232e+000	 4.174966981903097e+000	 9.993895905518313e+000
 2.170166952144371e+000	 4.197141932276062e+000	 9.962133518009651e+000
 2.599246328570120e+000	 3.975728678300154e+000	 1.022592346593397e+001
 2.558399495745880e+000	 4.002135932245784e+000	 1.022682807084823e+001
 2.517330273829839e+000	 4.028094871329415e+000	 1.022624778128054e+001
 2.476045934742124e+000	 4.053602907166102e+000	 1.021081438621594e+001
 2.434553784764505e+000	 4.078657606247210e+000	 1.018078629399432e+001
 2.392861160483733e+000	 4.103256690304887e+000	 1.014615320104622e+001
 2.350975424740408e+000	 4.127398036551243e+000	 1.010868089299117e+001
 2.308903962587825e+000	 4.151079677793084e+000	 1.007011421669988e+001
 2.266654177265145e+000	 4.174299802423161e+000	 1.003217352446150e+001
 2.224233486189215e+000	 4.197056754289152e+000	 9.996551197997208e+000
 2.181649316969235e+000	 4.219349032441642e+000	 9.964908260247814e+000
 2.066825668743274e+000	 3.997278030740858e+000	 9.890778822785626e+000
 2.026334940146127e+000	 4.017955538626073e+000	 9.858579664785358e+000
 1.985703424879969e+000	 4.038190424988225e+000	 9.820154941084439e+000
 1.944938166216199e+000	 4.057981706422045e+000	 9.776890970944143e+000
 1.904046202273651e+000	 4.077328544486139e+000	 9.730144914521556e+000
 1.863034562408459e+000	 4.096230244915353e+000	 9.711476946385272e+000
 1.821910263647760e+000	 4.114686256729197e+000	 9.743261659349125e+000
 1.780680307170586e+000	 4.132696171238479e+000	 9.743351271722307e+000
 1.739351674839183e+000	 4.150259720952575e+000	 9.715849482863609e+000
 1.697931325783846e+000	 4.167376778389714e+000	 9.664719976531785e+000
 1.656426193044263e+000	 4.184047354792892e+000	 9.593779147633759e+000
 2.078308033563603e+000	 4.019485130915437e+000	 9.903972770702469e+000
 2.037592356473766e+000	 4.040277513844186e+000	 9.875695002491602e+000
 1.996735110566970e+000	 4.060624816241361e+000	 9.841332533535761e+000
 1.955743378243896e+000	 4.080526049238336e+000	 9.802259377223441e+000
 1.914624236724040e+000	 4.099980369735707e+000	 9.759820338420377e+000
 1.873384754415511e+000	 4.118987079611292e+000	 9.719399388140513e+000
 1.832031987328929e+000	 4.137545624823596e+000	 9.760672145737365e+000
 1.790572975538765e+000	 4.155655594412934e+000	 9.770720590780810e+000
 1.749014739695386e+000	 4.173316719402626e+000	 9.753711951732477e+000
 1.707364277590922e+000	 4.190528871602665e+000	 9.713670997889224e+000
 1.665628560781946e+000	 4.207292062318510e+000	 9.654472645181016e+000
 2.089790398384435e+000	 4.041692231089016e+000	 9.915632489002144e+000
 2.048849772801994e+000	 4.062599489061308e+000	 9.890268030967807e+000
 2.007766796254614e+000	 4.083059207493538e+000	 9.858963810914782e+000
 1.966548590272261e+000	 4.103070392053721e+000	 9.823082371256490e+000
 1.925202271175088e+000	 4.122632194984438e+000	 9.783956985395079e+000
 1.883734946423184e+000	 4.141743914306483e+000	 9.742889056217678e+000
 1.842153711010653e+000	 4.160404992917361e+000	 9.770235465577004e+000
 1.800465643907401e+000	 4.178615017586889e+000	 9.788730502680206e+000
 1.758677804551921e+000	 4.196373717852326e+000	 9.780724021659436e+000
 1.716797229398173e+000	 4.213680964815437e+000	 9.750303873850660e+000
 1.674830928519619e+000	 4.230536769844139e+000	 9.701405441603610e+000
 2.101272763205771e+000	 4.063899331261593e+000	 9.925849861621101e+000
 2.060107189130810e+000	 4.084921464277438e+000	 9.902399495391974e+000
 2.018798481942900e+000	 4.105493598744757e+000	 9.873158329350368e+000
 1.977353802301289e+000	 4.125614734868194e+000	 9.839478268187827e+000
 1.935780305626794e+000	 4.145284020232332e+000	 9.802681876062806e+000
 1.894085138431480e+000	 4.164500749000930e+000	 9.764059759549101e+000
 1.852275434692931e+000	 4.183264361010493e+000	 9.772353414574186e+000
 1.810358312276496e+000	 4.201574440760342e+000	 9.797781493389962e+000
 1.768340869408786e+000	 4.219430716301675e+000	 9.797284897989565e+000
 1.726230181205599e+000	 4.236833058028028e+000	 9.775016566643769e+000
 1.684033296257282e+000	 4.253781477369778e+000	 9.734974301710816e+000
 2.112755128027612e+000	 4.086106431433171e+000	 9.934717776676742e+000
 2.071364605460215e+000	 4.107243439492581e+000	 9.912190871890742e+000
 2.029830167631828e+000	 4.127927989995016e+000	 9.884026103531667e+000
 1.988159014330986e+000	 4.148159077681763e+000	 9.851565570299458e+000
 1.946358340079160e+000	 4.167935845479390e+000	 9.816121947840726e+000
 1.904435330440397e+000	 4.187257583694633e+000	 9.778975855187969e+000
 1.862397158375764e+000	 4.206123729102990e+000	 9.767427168286973e+000
 1.820250980646048e+000	 4.224533863933291e+000	 9.798273162352066e+000
 1.778003934265984e+000	 4.242487714750673e+000	 9.803792634708373e+000
 1.735663133013202e+000	 4.259985151240439e+000	 9.788205623962783e+000
 1.693235663994934e+000	 4.277026184895429e+000	 9.755574314371669e+000
 2.124237492849956e+000	 4.108313531603750e+000	 9.942330099327345e+000
 2.082622021790209e+000	 4.129565414706734e+000	 9.919744347783855e+000
 2.040861853321399e+000	 4.150362381244316e+000	 9.891677594314567e+000
 1.998964226361347e+000	 4.170703420494422e+000	 9.859462961953163e+000
 1.956936374532186e+000	 4.190587670725611e+000	 9.824404057194682e+000
 1.914785522449937e+000	 4.210014418387591e+000	 9.787772318963151e+000
 1.872518882059153e+000	 4.228983097194856e+000	 9.755857298886186e+000
 1.830143649016058e+000	 4.247493287105741e+000	 9.790604246441195e+000
 1.787666999123512e+000	 4.265544713199321e+000	 9.800644165559614e+000
 1.745096084820978e+000	 4.283137244452670e+000	 9.790266217199175e+000
 1.702438031732576e+000	 4.300270892421088e+000	 9.763598937810720e+000
 2.135719857672804e+000	 4.130520631773328e+000	 9.948781645507593e+000
 2.093879438120791e+000	 4.151887389919897e+000	 9.925162802466193e+000
 2.051893539011612e+000	 4.172796772492658e+000	 9.896223696728002e+000
 2.009769438392374e+000	 4.193247763306173e+000	 9.863289304695840e+000
 1.967514408985870e+000	 4.213239495970996e+000	 9.827654981815300e+000
 1.925135714460099e+000	 4.232771253079804e+000	 9.790583793107409e+000
 1.882640605743096e+000	 4.251842465286086e+000	 9.753303948479250e+000
 1.840036317386526e+000	 4.270452710277686e+000	 9.775172643152013e+000
 1.797330063981371e+000	 4.288601711647616e+000	 9.788235334159319e+000
 1.754529036628929e+000	 4.306289337664721e+000	 9.781592178438956e+000
 1.711640399470208e+000	 4.323515599946758e+000	 9.759440043442440e+000
 2.147202222496156e+000	 4.152727731941907e+000	 9.954168156506739e+000
 2.105136854451962e+000	 4.174209365132070e+000	 9.928549788902993e+000
 2.062925224702469e+000	 4.195231163740040e+000	 9.897775728365030e+000
 2.020574650424068e+000	 4.215792106117017e+000	 9.863163632521916e+000
 1.978092443440213e+000	 4.235891321215545e+000	 9.826001422724261e+000
 1.935485906470882e+000	 4.255528087771272e+000	 9.787544595177137e+000
 1.892762329427594e+000	 4.274701833376685e+000	 9.749013637680035e+000
 1.849928985757452e+000	 4.293412133449129e+000	 9.752375433042520e+000
 1.806993128839562e+000	 4.311658710095563e+000	 9.766960923143541e+000
 1.763961988437056e+000	 4.329441430876591e+000	 9.762576036273096e+000
 1.720842767207830e+000	 4.346760307472438e+000	 9.743487958299452e+000
 2.158684587320011e+000	 4.174934832109484e+000	 9.958586274358051e+000
 2.116394270783720e+000	 4.196531340343253e+000	 9.930009515715804e+000
 2.073956910393968e+000	 4.217665554986464e+000	 9.896445418144429e+000
 2.031379862456428e+000	 4.238336448926953e+000	 9.859205147286998e+000
 1.988670477895216e+000	 4.258543146459256e+000	 9.819570006313425e+000
 1.945836098482288e+000	 4.278284922461995e+000	 9.778788726687266e+000
 1.902884053112647e+000	 4.297561201466650e+000	 9.738074865400106e+000
 1.859821654128836e+000	 4.316371556620072e+000	 9.722608901461015e+000
 1.816656193698084e+000	 4.334715708543159e+000	 9.737214682385995e+000
 1.773394940245358e+000	 4.352593524088283e+000	 9.733609050464816e+000
 1.730045134945440e+000	 4.370005014998127e+000	 9.716131506106358e+000
 2.170166952144371e+000	 4.197141932276062e+000	 9.962133518009651e+000
 2.127651687116068e+000	 4.218853315553446e+000	 9.929646829837061e+000
 2.084988596086108e+000	 4.240099946231929e+000	 9.892344895429075e+000
 2.042185074489454e+000	 4.260880791735980e+000	 9.851533214267128e+000
 1.999248512350877e+000	 4.281194971702131e+000	 9.808487286319100e+000
 1.956186290494315e+000	 4.301041757151972e+000	 9.764449881472313e+000
 1.913005776798255e+000	 4.320420569555981e+000	 9.720628416325617e+000
 1.869714322500678e+000	 4.339330979790511e+000	 9.686268559583503e+000
 1.826319258556937e+000	 4.357772706990402e+000	 9.699389356319774e+000
 1.782827892053836e+000	 4.375745617299794e+000	 9.696866365115055e+000
 1.739247502683042e+000	 4.393249722523829e+000	 9.714745188143420e+000
 2.181649316969235e+000	 4.219349032441642e+000	 9.964908260247814e+000
 2.138909103449004e+000	 4.241175290762651e+000	 9.927567199712454e+000
 2.096020281778892e+000	 4.262534337476436e+000	 9.885586679487904e+000
 2.052990286523145e+000	 4.283425134544102e+000	 9.840267357858197e+000
 2.009826546807198e+000	 4.303846796944171e+000	 9.792879745734059e+000
 1.966536482506964e+000	 4.323798591841205e+000	 9.744661453783074e+000
 1.923127500484418e+000	 4.343279937644680e+000	 9.696814547841264e+000
 1.879606990872978e+000	 4.362290402960450e+000	 9.650503017879341e+000
 1.835982323416121e+000	 4.380829705437296e+000	 9.670364620456970e+000
 1.792260843862488e+000	 4.398897710511126e+000	 9.708042035844125e+000
 1.748449870420633e+000	 4.416494430049542e+000	 9.719491668975204e+000
 1.656426193044263e+000	 4.184047354792892e+000	 9.593779147633759e+000
 1.614843180269973e+000	 4.200271598754027e+000	 9.453124941411968e+000
 1.573189158483706e+000	 4.216049794749046e+000	 9.332849592905916e+000
 1.531470962909008e+000	 4.231382361586969e+000	 9.236235305788000e+000
 1.489695389864481e+000	 4.246269850775702e+000	 9.166364130195465e+000
 1.447869193727905e+000	 4.260712944807515e+000	 9.126113527437784e+000
 1.405999083972017e+000	 4.274712455367261e+000	 9.118152448389202e+000
 1.364091722274013e+000	 4.288269321466460e+000	 9.144937925928279e+000
 1.322153719700638e+000	 4.301384607506362e+000	 9.208712180333571e+000
 1.280191633970679e+000	 4.314059501273208e+000	 9.311500235129218e+000
 1.238211966796443e+000	 4.326295311868889e+000	 9.454794171953392e+000
 1.665628560781946e+000	 4.207292062318510e+000	 9.654472645181016e+000
 1.623814531271376e+000	 4.223606440967679e+000	 9.529003850505790e+000
 1.581929098254062e+000	 4.239472293606605e+000	 9.423277805128771e+000
 1.539979134927016e+000	 4.254890041371024e+000	 9.340637056032955e+000
 1.497971475366167e+000	 4.269860238832774e+000	 9.284222068163487e+000
 1.455912911473616e+000	 4.284383572275750e+000	 9.256966681857406e+000
 1.413810189996953e+000	 4.298460857894164e+000	 9.261594091243980e+000
 1.371670009622692e+000	 4.312093039916264e+000	 9.300613344066450e+000
 1.329499018145728e+000	 4.325281188656641e+000	 9.376316361900166e+000
 1.287303809716621e+000	 4.338026498500344e+000	 9.490775478303155e+000
 1.245090922168304e+000	 4.350330285822056e+000	 9.646871703015901e+000
 1.674830928519619e+000	 4.230536769844139e+000	 9.701405441603610e+000
 1.632785882272589e+000	 4.246941283181525e+000	 9.589702846270891e+000
 1.590669038024091e+000	 4.262894792464511e+000	 9.497151136089865e+000
 1.548487306944598e+000	 4.278397721155550e+000	 9.427154878014310e+000
 1.506247560867370e+000	 4.293450626890412e+000	 9.382914561048381e+000
 1.463956629218828e+000	 4.308054199744611e+000	 9.367421944901151e+000
 1.421621296021414e+000	 4.322209260421725e+000	 9.383455937037784e+000
 1.379248296970957e+000	 4.335916758366728e+000	 9.433578998667787e+000
 1.336844316590508e+000	 4.349177769807554e+000	 9.520134078710630e+000
 1.294415985462395e+000	 4.361993495728061e+000	 9.645242073317185e+000
 1.251969877540177e+000	 4.374365259775718e+000	 9.810799807106868e+000
 1.684033296257282e+000	 4.253781477369778e+000	 9.734974301710816e+000
 1.641757233273613e+000	 4.270276125395566e+000	 9.635617611075704e+000
 1.599408977793790e+000	 4.286317291322766e+000	 9.554863995922146e+000
 1.556995478961755e+000	 4.301905400940546e+000	 9.496181729037824e+000
 1.514523646368090e+000	 4.317041014948612e+000	 9.462832941831440e+000
 1.472000346963541e+000	 4.331724827214100e+000	 9.457868862702780e+000
 1.429432402045398e+000	 4.345957662949947e+000	 9.484125591376639e+000
 1.386826584318810e+000	 4.359740476817857e+000	 9.544220409830974e+000
 1.344189615034977e+000	 4.373074350959101e+000	 9.640548628925105e+000
 1.301528161208000e+000	 4.385960492956355e+000	 9.711422881976167e+000
 1.258848832912064e+000	 4.398400233729873e+000	 9.789298346527016e+000
 1.693235663994934e+000	 4.277026184895429e+000	 9.755574314371669e+000
 1.650728584274448e+000	 4.293610967609801e+000	 9.667141890482734e+000
 1.608148917563162e+000	 4.309739790181370e+000	 9.596808604526796e+000
 1.565503650978487e+000	 4.325413080726016e+000	 9.548108130257157e+000
 1.522799731868328e+000	 4.340631403007379e+000	 9.524365868987639e+000
 1.480044064707755e+000	 4.355395454684217e+000	 9.528694076157013e+000
 1.437243508068906e+000	 4.369706065478828e+000	 9.563987531566422e+000
 1.394404871666252e+000	 4.383564195269647e+000	 9.601913537456779e+000
 1.351534913479137e+000	 4.396970932111286e+000	 9.638072615502576e+000
 1.308640336953438e+000	 4.409927490185230e+000	 9.688054692699849e+000
 1.265727788283963e+000	 4.422435207684523e+000	 9.752777715074387e+000
 1.702438031732576e+000	 4.300270892421088e+000	 9.763598937810720e+000
 1.659699935275092e+000	 4.316945809824232e+000	 9.684667545594753e+000
 1.616888857332206e+000	 4.333162289040322e+000	 9.623375050768681e+000
 1.574011822994792e+000	 4.348920760511957e+000	 9.583322232515815e+000
 1.531075817368083e+000	 4.364221791066709e+000	 9.567899398769551e+000
 1.488087782451470e+000	 4.379066082154960e+000	 9.573350663584243e+000
 1.445054614091940e+000	 4.393454468008369e+000	 9.577363315503618e+000
 1.401983159013280e+000	 4.407387913722100e+000	 9.591593442365818e+000
 1.358880211922987e+000	 4.420867513264104e+000	 9.617116051577360e+000
 1.315752512698707e+000	 4.433894487414682e+000	 9.654928724174559e+000
 1.272606743655874e+000	 4.446470181639666e+000	 9.705951609639234e+000
 1.711640399470208e+000	 4.323515599946758e+000	 9.759440043442440e+000
 1.668671286275546e+000	 4.340280652038856e+000	 9.688584603712265e+000
 1.625628797100923e+000	 4.356584787899623e+000	 9.634951349762265e+000
 1.582519995010673e+000	 4.372428440298371e+000	 9.602209880065104e+000
 1.539351902867357e+000	 4.387812179126605e+000	 9.584323600724328e+000
 1.496131500194686e+000	 4.402736709626332e+000	 9.572548514965334e+000
 1.452865720114497e+000	 4.417202870538570e+000	 9.568332200864026e+000
 1.409561446359896e+000	 4.431211632175215e+000	 9.572827886985600e+000
 1.366225510366526e+000	 4.444764094417558e+000	 9.587112036219713e+000
 1.322864688443808e+000	 4.457861484644715e+000	 9.612184168852080e+000
 1.279485699027798e+000	 4.470505155595302e+000	 9.648966844892012e+000
 1.720842767207830e+000	 4.346760307472438e+000	 9.743487958299452e+000
 1.677642637275812e+000	 4.363615494253677e+000	 9.679281307365608e+000
 1.634368736869311e+000	 4.380007286759271e+000	 9.635495395650484e+000
 1.591028167026128e+000	 4.395936120085255e+000	 9.607915809264021e+000
 1.547627988366147e+000	 4.411402567187063e+000	 9.583882082400082e+000
 1.504175217937403e+000	 4.426407337098330e+000	 9.564700075618596e+000
 1.460676826136579e+000	 4.440951273069429e+000	 9.551600222480458e+000
 1.417139733706099e+000	 4.455035350628992e+000	 9.545737009755685e+000
 1.373570808809757e+000	 4.468660675571649e+000	 9.548188624180270e+000
 1.329976864188742e+000	 4.481828481875327e+000	 9.559956762604934e+000
 1.286364654399735e+000	 4.494540129551433e+000	 9.581966602018811e+000
 1.730045134945440e+000	 4.370005014998127e+000	 9.716131506106358e+000
 1.686613988275887e+000	 4.386950336468694e+000	 9.674087172116169e+000
 1.643108676637371e+000	 4.403429785619270e+000	 9.640605301207692e+000
 1.599536339041157e+000	 4.419443799872612e+000	 9.607839737292983e+000
 1.555904073864455e+000	 4.434992955248088e+000	 9.577171248699091e+000
 1.512218935679621e+000	 4.450077964570955e+000	 9.549906342763913e+000
 1.468487932158185e+000	 4.464699675600948e+000	 9.527276561940319e+000
 1.424718021051890e+000	 4.478859069083431e+000	 9.510437949887367e+000
 1.380916107252677e+000	 4.492557256726375e+000	 9.500470684776573e+000
 1.337089039933507e+000	 4.505795479106518e+000	 9.498378876656643e+000
 1.293243609771684e+000	 4.518575103508055e+000	 9.505090525356525e+000
 1.739247502683042e+000	 4.393249722523829e+000	 9.714745188143420e+000
 1.695585339275773e+000	 4.410285178683903e+000	 9.678931121842593e+000
 1.651848616405103e+000	 4.426852284479617e+000	 9.640958445511203e+000
 1.608044511055761e+000	 4.442951479660440e+000	 9.602281412095383e+000
 1.564180159362282e+000	 4.458583343309677e+000	 9.564281351046652e+000
 1.520262653421339e+000	 4.473748592044207e+000	 9.528265776581078e+000
 1.476299038179316e+000	 4.488448078133128e+000	 9.495467668999851e+000
 1.432296308397268e+000	 4.502682787538533e+000	 9.467044926708368e+000
 1.388261405695288e+000	 4.516453837881738e+000	 9.444079986163848e+000
 1.344201215678104e+000	 4.529762476338288e+000	 9.427579606593669e+000
 1.300122565143645e+000	 4.542610077465175e+000	 9.418474815960366e+000
 1.748449870420633e+000	 4.416494430049542e+000	 9.719491668975204e+000
 1.704556690275469e+000	 4.433620020899308e+000	 9.679834765157583e+000
 1.660588556172508e+000	 4.450274783340313e+000	 9.636626146376948e+000
 1.616552683069940e+000	 4.466459159448742e+000	 9.591320586660157e+000
 1.572456244859625e+000	 4.482173731371831e+000	 9.545300366780356e+000
 1.528306371162559e+000	 4.497419219518087e+000	 9.499874366974096e+000
 1.484110144199971e+000	 4.512196480665968e+000	 9.456277333474425e+000
 1.439874595742234e+000	 4.526506505994299e+000	 9.415669316501903e+000
 1.395606704137588e+000	 4.540350419037734e+000	 9.379135276944448e+000
 1.351313391422534e+000	 4.553729473570638e+000	 9.347684858566346e+000
 1.307001520515620e+000	 4.566645051422786e+000	 9.322252322216423e+000
 1.238211966796443e+000	 4.326295311868889e+000	 9.454794171953392e+000
 1.196221161306078e+000	 4.338093467580077e+000	 9.411817631307226e+000
 1.154225599546729e+000	 4.349455513689764e+000	 9.386996888940521e+000
 1.112231600071146e+000	 4.360383110233927e+000	 9.365213246264334e+000
 1.070245415609068e+000	 4.370878029706319e+000	 9.332419578631162e+000
 1.028273230823134e+000	 4.380942154715376e+000	 9.255140645063927e+000
 9.863211601505719e-001	 4.390577475596267e+000	 9.175510541015889e+000
 9.443952457313445e-001	 4.399786087981418e+000	 9.122694992532331e+000
 9.025014554232437e-001	 4.408570190332767e+000	 9.101531918451427e+000
 8.606456809043420e-001	 4.416932081439071e+000	 9.116116457391900e+000
 8.188337358630459e-001	 4.424874157881446e+000	 9.169807868711011e+000
 1.245090922168304e+000	 4.350330285822056e+000	 9.646871703015901e+000
 1.202866834424291e+000	 4.362193986843245e+000	 9.645492470056036e+000
 1.160637963987752e+000	 4.373619155431682e+000	 9.642811435797672e+000
 1.118410664514506e+000	 4.384607460845763e+000	 9.552980833394123e+000
 1.076191223471679e+000	 4.395160685426433e+000	 9.454868080446737e+000
 1.033985859881143e+000	 4.405280722241064e+000	 9.366936014238149e+000
 9.918007221492244e-001	 4.414969572682243e+000	 9.295710209391022e+000
 9.496418859833258e-001	 4.424229344024799e+000	 9.246956044839912e+000
 9.075153523960041e-001	 4.433062246944353e+000	 9.225682531394474e+000
 8.654270457968748e-001	 4.441470593000705e+000	 9.236147666709826e+000
 8.233828121726124e-001	 4.449456792089316e+000	 9.281865266194867e+000
 1.251969877540177e+000	 4.374365259775718e+000	 9.810799807106868e+000
 1.209512507542697e+000	 4.386294506106817e+000	 9.762586728068934e+000
 1.167050328429106e+000	 4.397782797173934e+000	 9.691718289858244e+000
 1.124589728958293e+000	 4.408831811457884e+000	 9.610801776433094e+000
 1.082137031334773e+000	 4.419443341146805e+000	 9.528093653184882e+000
 1.039698488939653e+000	 4.429619289767002e+000	 9.451079315329597e+000
 9.972802841483522e-001	 4.439361669768483e+000	 9.386473554351245e+000
 9.548885262357183e-001	 4.448672600068476e+000	 9.340222670862964e+000
 9.125292493690724e-001	 4.457554303556284e+000	 9.317508187810597e+000
 8.702084106895740e-001	 4.466009104562758e+000	 9.322752114857220e+000
 8.279318884821645e-001	 4.474039426297694e+000	 9.359623711948837e+000
 1.258848832912064e+000	 4.398400233729873e+000	 9.789298346527016e+000
 1.216158180661293e+000	 4.410395025370794e+000	 9.757681991340563e+000
 1.173462692870789e+000	 4.421946438916520e+000	 9.709111767907700e+000
 1.130768793402507e+000	 4.433056162070295e+000	 9.645820964750524e+000
 1.088082839198349e+000	 4.443725996867436e+000	 9.576273949351119e+000
 1.045411117998661e+000	 4.453957857293190e+000	 9.508155751134462e+000
 1.002759846147955e+000	 4.463753766854985e+000	 9.448372365668524e+000
 9.601351664885222e-001	 4.473115856112448e+000	 9.403052730391027e+000
 9.175431463424488e-001	 4.482046360168562e+000	 9.377552325351191e+000
 8.749897755824388e-001	 4.490547616125227e+000	 9.376458349311967e+000
 8.324809647917018e-001	 4.498622060506580e+000	 9.403596418667952e+000
 1.265727788283963e+000	 4.422435207684523e+000	 9.752777715074387e+000
 1.222803853780082e+000	 4.434495544635175e+000	 9.735747782156128e+000
 1.179875057312801e+000	 4.446110080659443e+000	 9.706783927996080e+000
 1.136947857847147e+000	 4.457280512682990e+000	 9.658643539881910e+000
 1.094028647062409e+000	 4.468008652588326e+000	 9.600001450026538e+000
 1.051123747058168e+000	 4.478296424819630e+000	 9.538744609466180e+000
 1.008239408148032e+000	 4.488145863941747e+000	 9.481972231045647e+000
 9.653818067417374e-001	 4.497559112156713e+000	 9.435997629472682e+000
 9.225570433161338e-001	 4.506538416781186e+000	 9.406351711480122e+000
 8.797711404754701e-001	 4.515086127688112e+000	 9.397788065935441e+000
 8.370300411012241e-001	 4.523204694715973e+000	 9.414289600793866e+000
 1.272606743655874e+000	 4.446470181639666e+000	 9.705951609639234e+000
 1.229449526899063e+000	 4.458596063899961e+000	 9.697408567213346e+000
 1.186287421755143e+000	 4.470273722402702e+000	 9.685347303859871e+000
 1.143126922292215e+000	 4.481504863295972e+000	 9.649869550920103e+000
 1.099974454926952e+000	 4.492291308309473e+000	 9.599863195125431e+000
 1.056836376118174e+000	 4.502634992346319e+000	 9.543419423019744e+000
 1.013718970148585e+000	 4.512537961028774e+000	 9.487832703739636e+000
 9.706284469953637e-001	 4.522002368201274e+000	 9.439602494841052e+000
 9.275709402901268e-001	 4.531030473394154e+000	 9.404436623749115e+000
 8.845525053686674e-001	 4.539624639251415e+000	 9.387256294151234e+000
 8.415791174107322e-001	 4.547787328925875e+000	 9.392202663656885e+000
 1.279485699027798e+000	 4.470505155595302e+000	 9.648966844892012e+000
 1.236095200018235e+000	 4.482696583165149e+000	 9.643284638359710e+000
 1.192699786197815e+000	 4.494437364146294e+000	 9.645409847000297e+000
 1.149305986737709e+000	 4.505729213909240e+000	 9.620094091408976e+000
 1.105920262791978e+000	 4.516573964030879e+000	 9.576440929663242e+000
 1.062549005178679e+000	 4.526973559873260e+000	 9.522748124079275e+000
 1.019198532149613e+000	 4.536930058116062e+000	 9.466507464778040e+000
 9.758750872494013e-001	 4.546445624246127e+000	 9.414406342712576e+000
 9.325848372644280e-001	 4.555522530007469e+000	 9.372331024257775e+000
 8.893338702620306e-001	 4.564163150815134e+000	 9.345371576150516e+000
 8.461281937202254e-001	 4.572369963136283e+000	 9.337828386516577e+000
 1.286364654399735e+000	 4.494540129551433e+000	 9.581966602018811e+000
 1.242740873137600e+000	 4.506797102430743e+000	 9.573992224219539e+000
 1.199112150640817e+000	 4.518601005890221e+000	 9.587575049202995e+000
 1.155485051183629e+000	 4.529953564522796e+000	 9.569907431844696e+000
 1.111866070657487e+000	 4.540856619752542e+000	 9.530311245331413e+000
 1.068261634239684e+000	 4.551312127400450e+000	 9.477293194261554e+000
 1.024678094151115e+000	 4.561322155203614e+000	 9.418544479970457e+000
 9.811217275038501e-001	 4.570888880291277e+000	 9.360942242169855e+000
 9.375987342390375e-001	 4.580014586621130e+000	 9.310552728515892e+000
 8.941152351555600e-001	 4.588701662379271e+000	 9.272636140347334e+000
 8.506772700297042e-001	 4.596952597347197e+000	 9.251653099729346e+000
 1.293243609771684e+000	 4.518575103508055e+000	 9.505090525356525e+000
 1.249386546257156e+000	 4.530897621696742e+000	 9.490143598258438e+000
 1.205524515084149e+000	 4.542764647634485e+000	 9.512442061147455e+000
 1.161664115629977e+000	 4.554177915136639e+000	 9.499895147948307e+000
 1.117811878523480e+000	 4.565139275474468e+000	 9.462045717553803e+000
 1.073974263301187e+000	 4.575650694927893e+000	 9.407611809480672e+000
 1.030157656153093e+000	 4.585714252291426e+000	 9.344486151908967e+000
 9.863683677587105e-001	 4.595332136336720e+000	 9.279737473329973e+000
 9.426126312139549e-001	 4.604506643235138e+000	 9.219613568916580e+000
 8.988966000492554e-001	 4.613240173943825e+000	 9.169546069298381e+000
 8.552263463391679e-001	 4.621535231558619e+000	 9.134156856261971e+000
 1.300122565143645e+000	 4.542610077465175e+000	 9.418474815960366e+000
 1.256032219376904e+000	 4.554998140963141e+000	 9.395400113220706e+000
 1.211936879527810e+000	 4.566928289379082e+000	 9.420605807251185e+000
 1.167843180076752e+000	 4.578402265750768e+000	 9.410638244866135e+000
 1.123757686389955e+000	 4.589421931196649e+000	 9.372211038192313e+000
 1.079686892363190e+000	 4.599989262455583e+000	 9.314255980310447e+000
 1.035637218155546e+000	 4.610106349379503e+000	 9.244869467143202e+000
 9.916150080139821e-001	 4.619775392382457e+000	 9.171313680491878e+000
 9.476265281891807e-001	 4.628998699849491e+000	 9.100019553019784e+000
 9.036779649431170e-001	 4.637778685508795e+000	 9.036591462291609e+000
 8.597754226486175e-001	 4.646117865770551e+000	 8.985813597759956e+000
 1.307001520515620e+000	 4.566645051422786e+000	 9.322252322216423e+000
 1.262677892496843e+000	 4.579098660229949e+000	 9.290052335927406e+000
 1.218349243971802e+000	 4.591091931124016e+000	 9.312657096887037e+000
 1.174022244523953e+000	 4.602626616365185e+000	 9.302713277448081e+000
 1.129703494256914e+000	 4.613704586919089e+000	 9.261369144061565e+000
 1.085399521425691e+000	 4.624327829983526e+000	 9.197772687914499e+000
 1.041116780158474e+000	 4.634498446467842e+000	 9.120226138707825e+000
 9.968616482696650e-001	 4.644218648428490e+000	 9.036187020447292e+000
 9.526404251647149e-001	 4.653490756464190e+000	 8.952271016837385e+000
 9.084593298371448e-001	 4.662317197074184e+000	 8.874256592800794e+000
 8.643244989580522e-001	 4.670700499982988e+000	 8.807091315371709e+000
 8.188337358630459e-001	 4.424874157881446e+000	 9.169807868711011e+000
 7.770713542760024e-001	 4.432398911470850e+000	 9.334594278888378e+000
 7.353641887737129e-001	 4.439508926659324e+000	 9.536449324103540e+000
 6.937178090935400e-001	 4.446206877929083e+000	 9.776256268776153e+000
 6.521377006203363e-001	 4.452495527163420e+000	 1.005421399733758e+001
 6.106292630141452e-001	 4.458377721001112e+000	 1.033238193604780e+001
 5.691978089245410e-001	 4.463856388177795e+000	 1.053304571499485e+001
 5.278485627910562e-001	 4.468934536857285e+000	 1.070585755378608e+001
 4.865866597290456e-001	 4.473615251955685e+000	 1.085042003149773e+001
 4.454171445002347e-001	 4.477901692461160e+000	 1.096540042103443e+001
 4.043449705671096e-001	 4.481797088752095e+000	 1.104855404777629e+001
 8.233828121726124e-001	 4.449456792089316e+000	 9.281865266194867e+000
 7.813884173551501e-001	 4.457023349864672e+000	 9.427017359496901e+000
 7.394495453783545e-001	 4.464172865137007e+000	 9.604945638938625e+000
 6.975717969225739e-001	 4.470908027246775e+000	 9.816705365558553e+000
 6.557606878470227e-001	 4.477231613421060e+000	 1.006265892827444e+001
 6.140216478098564e-001	 4.483146486113297e+000	 1.031687830898403e+001
 5.723600189753701e-001	 4.488655590329879e+000	 1.049344080090488e+001
 5.307810548077615e-001	 4.493761950946637e+000	 1.064149342083450e+001
 4.892899189508052e-001	 4.498468670018098e+000	 1.076080967758387e+001
 4.478916841926816e-001	 4.502778924082359e+000	 1.085021154704952e+001
 4.065913315151142e-001	 4.506695961464353e+000	 1.090759303833984e+001
 8.279318884821645e-001	 4.474039426297694e+000	 9.359623711948837e+000
 7.857054804340988e-001	 4.481647788259090e+000	 9.485259523662807e+000
 7.435349019826437e-001	 4.488836803615357e+000	 9.639615740899618e+000
 7.014257847511332e-001	 4.495609176565180e+000	 9.823919368514536e+000
 6.593836750731423e-001	 4.501967699679440e+000	 1.003869579892321e+001
 6.174140326049393e-001	 4.507915251226232e+000	 1.026804079741904e+001
 5.755222290255393e-001	 4.513454792482698e+000	 1.042100398050667e+001
 5.337135468238050e-001	 4.518589365036693e+000	 1.054510805846014e+001
 4.919931781719306e-001	 4.523322088081164e+000	 1.064029672879951e+001
 4.503662238845512e-001	 4.527656155704142e+000	 1.070554559057443e+001
 4.088376924626270e-001	 4.531594834177102e+000	 1.073888592557565e+001
 8.324809647917018e-001	 4.498622060506580e+000	 9.403596418667952e+000
 7.900225435128486e-001	 4.506272226654105e+000	 9.509805768644879e+000
 7.476202585865805e-001	 4.513500742094372e+000	 9.640915912614005e+000
 7.052797725792176e-001	 4.520310325884300e+000	 9.798325373758653e+000
 6.630066622986954e-001	 4.526703785938563e+000	 9.982722073559717e+000
 6.208064173993939e-001	 4.532684016339917e+000	 1.018640607427217e+001
 5.786844390750486e-001	 4.538253994636254e+000	 1.031622543511117e+001
 5.366460388391871e-001	 4.543416779127454e+000	 1.041714545017111e+001
 4.946964373924221e-001	 4.548175506144885e+000	 1.048927929421558e+001
 4.528407635758435e-001	 4.552533387326505e+000	 1.053175513756843e+001
 4.110840534096479e-001	 4.556493706890342e+000	 1.054274015003040e+001
 8.370300411012241e-001	 4.523204694715973e+000	 9.414289600793866e+000
 7.943396065913998e-001	 4.530896665049719e+000	 9.501134252204537e+000
 7.517056151901652e-001	 4.538164680574053e+000	 9.609295792418081e+000
 7.091337604068274e-001	 4.545011475204132e+000	 9.740344064365175e+000
 6.666296495236819e-001	 4.551439872198428e+000	 9.895129070294841e+000
 6.241988021932204e-001	 4.557452781454351e+000	 1.007250496836193e+001
 5.818466491238982e-001	 4.563053196790551e+000	 1.017958983873280e+001
 5.395785308539073e-001	 4.568244193218921e+000	 1.025804444326218e+001
 4.973996966122793e-001	 4.573028924209257e+000	 1.030815075157664e+001
 4.553153032665584e-001	 4.577410618949451e+000	 1.032918848087066e+001
 4.133304143561772e-001	 4.581392579604075e+000	 1.031945933015683e+001
 8.415791174107322e-001	 4.547787328925875e+000	 9.392202663656885e+000
 7.986566696697515e-001	 4.555521103445926e+000	 9.459716477456905e+000
 7.557909717933976e-001	 4.562828619054400e+000	 9.545198553932842e+000
 7.129877482339623e-001	 4.569712624524678e+000	 9.650389883694228e+000
 6.702526367481017e-001	 4.576175958459034e+000	 9.776302127187302e+000
 6.275911869864184e-001	 4.582221546569534e+000	 9.923231069766429e+000
 5.850088591720880e-001	 4.587852398945582e+000	 1.001157650693522e+001
 5.425110228679660e-001	 4.593071607311094e+000	 1.006823888763145e+001
 5.001029558315024e-001	 4.597882342274283e+000	 1.009729987517521e+001
 4.577898429566961e-001	 4.602287850572980e+000	 1.009818973622986e+001
 4.155767753022150e-001	 4.606291452318299e+000	 1.006934336561291e+001
 8.461281937202254e-001	 4.572369963136283e+000	 9.337828386516577e+000
 8.029737327479043e-001	 4.580145541842733e+000	 9.386017471759510e+000
 7.598763283962778e-001	 4.587492557535412e+000	 9.449061079846100e+000
 7.168417360606226e-001	 4.594413773845940e+000	 9.528871203125544e+000
 6.738756239719550e-001	 4.600912044720381e+000	 9.626620762997478e+000
 6.309835717789881e-001	 4.606990311685467e+000	 9.742757085144746e+000
 5.881710692196178e-001	 4.612651601101351e+000	 9.812659540876368e+000
 5.454435148813628e-001	 4.617899021403972e+000	 9.848157770118670e+000
 5.028062150500916e-001	 4.622735760339963e+000	 9.857110959600508e+000
 4.602643826462561e-001	 4.627165082197089e+000	 9.839098954592426e+000
 4.178231362477610e-001	 4.631190325033014e+000	 9.792688537230415e+000
 8.506772700297042e-001	 4.596952597347197e+000	 9.251653099729346e+000
 8.072907958258579e-001	 4.604769980240135e+000	 9.280495959860474e+000
 7.639616849988057e-001	 4.612156496017090e+000	 9.321314130119655e+000
 7.206957238868081e-001	 4.619114923167916e+000	 9.376190484410927e+000
 6.774986111952416e-001	 4.625648130982472e+000	 9.446458832783824e+000
 6.343759565709299e-001	 4.631759076802148e+000	 9.532717421480339e+000
 5.913332792664878e-001	 4.637450803257857e+000	 9.583307966730493e+000
 5.483760068940979e-001	 4.642726435497554e+000	 9.598225344534043e+000
 5.055094742680467e-001	 4.647589178406297e+000	 9.587963939516072e+000
 4.627389223352391e-001	 4.652042313821781e+000	 9.552252230786291e+000
 4.200694971928152e-001	 4.656089197748221e+000	 9.489787603774476e+000
 8.552263463391679e-001	 4.621535231558619e+000	 9.134156856261971e+000
 8.116078589036128e-001	 4.629394418638134e+000	 9.143604531521369e+000
 7.680470416009811e-001	 4.636820434499433e+000	 9.162382504827416e+000
 7.245497117125190e-001	 4.643816072490603e+000	 9.192744436845157e+000
 6.811215984179616e-001	 4.650384217245304e+000	 9.236184678533121e+000
 6.377683413622434e-001	 4.656527841919582e+000	 9.293451800652303e+000
 5.944954893126981e-001	 4.662250005415102e+000	 9.323985870661364e+000
 5.513084989061714e-001	 4.667553849591840e+000	 9.318861257536426e+000
 5.082127334853674e-001	 4.672442596473282e+000	 9.290234505615532e+000
 4.652134620236447e-001	 4.676919545447056e+000	 9.237981808737407e+000
 4.223158581373777e-001	 4.680988070463921e+000	 9.160929895615510e+000
 8.597754226486175e-001	 4.646117865770551e+000	 8.985813597759956e+000
 8.159249219811684e-001	 4.654018857036731e+000	 8.975789803818241e+000
 7.721323982028044e-001	 4.661484372982442e+000	 8.972685201824707e+000
 7.284036995377552e-001	 4.668517221814008e+000	 8.978924169447698e+000
 6.847445856401149e-001	 4.675120303508876e+000	 8.996161275009044e+000
 6.411607261529285e-001	 4.681296607037763e+000	 9.025294841098079e+000
 5.976576993582484e-001	 4.687049207573082e+000	 9.035152529510057e+000
 5.542409909175832e-001	 4.692381263686833e+000	 9.010480670515534e+000
 5.109159927020543e-001	 4.697296014540922e+000	 8.964294216897217e+000
 4.676880017114728e-001	 4.701796777072913e+000	 8.896616183344861e+000
 4.245622190814485e-001	 4.705886943180112e+000	 8.806401405427536e+000
 8.643244989580522e-001	 4.670700499982988e+000	 8.807091315371709e+000
 8.202419850585254e-001	 4.678643295435927e+000	 8.777492578317744e+000
 7.762177548042755e-001	 4.686148311466118e+000	 8.752635569437976e+000
 7.322576873625165e-001	 4.693218371138125e+000	 8.735115338337907e+000
 6.883675728617015e-001	 4.699856389773194e+000	 8.726746370994764e+000
 6.445531109429856e-001	 4.706065372156695e+000	 8.728576192114659e+000
 6.008199094031392e-001	 4.711848409731800e+000	 8.717262537356508e+000
 5.571734829283334e-001	 4.717208677782531e+000	 8.673494377625419e+000
 5.136192519181071e-001	 4.722149432609214e+000	 8.610510609392485e+000
 4.701625413987239e-001	 4.726674008699353e+000	 8.528480199140180e+000
 4.268085800250276e-001	 4.730785815896795e+000	 8.426484876022517e+000
 4.043449705671096e-001	 4.481797088752095e+000	 1.104855404777629e+001
 3.633749992293684e-001	 4.485304739916109e+000	 1.113162279506058e+001
 3.225119988439666e-001	 4.488428011073319e+000	 1.125323240343377e+001
 2.817606441259515e-001	 4.491170330705895e+000	 1.140761893278119e+001
 2.411255155271938e-001	 4.493535187995821e+000	 1.158816909445394e+001
 2.006110986943454e-001	 4.495526130174090e+000	 1.178745121751261e+001
 1.602217840038425e-001	 4.497146759883374e+000	 1.199724708034261e+001
 1.199618661725727e-001	 4.498400732556415e+000	 1.220858451069826e+001
 7.983554394276425e-002	 4.499291753812299e+000	 1.241177065854184e+001
 3.984691983959917e-002	 4.499823576872690e+000	 1.259642584756809e+001
 0.000000000000000e+000	 4.500000000000000e+000	 1.275151791306722e+001
 4.065913315151142e-001	 4.506695961464353e+000	 1.090759303833984e+001
 3.653937492251137e-001	 4.510223099579862e+000	 1.096198385256816e+001
 3.243037321705993e-001	 4.513363722244021e+000	 1.105277776825959e+001
 2.833259810372565e-001	 4.516121276986124e+000	 1.117434681855301e+001
 2.424651017239101e-001	 4.518499272372497e+000	 1.132019949305459e+001
 2.017256047974707e-001	 4.520501275340979e+000	 1.148301197903522e+001
 1.611119050253535e-001	 4.522130908548917e+000	 1.165466028873653e+001
 1.206283209839839e-001	 4.523391847737017e+000	 1.182625317440669e+001
 8.027907474193483e-002	 4.524287819111139e+000	 1.198816573399199e+001
 4.006829161619421e-002	 4.524822596744175e+000	 1.213007361195083e+001
 0.000000000000000e+000	 4.525000000000000e+000	 1.224098770142719e+001
 4.088376924626270e-001	 4.531594834177102e+000	 1.073888592557565e+001
 3.674124992204621e-001	 4.535141459244013e+000	 1.076709866549933e+001
 3.260954654969194e-001	 4.538299433415035e+000	 1.082990094655290e+001
 2.848913179483229e-001	 4.541072223266590e+000	 1.092179800362175e+001
 2.438046879204519e-001	 4.543463356749350e+000	 1.103641702997016e+001
 2.028401109004750e-001	 4.545476420507988e+000	 1.116653870296605e+001
 1.620020260467874e-001	 4.547115057214537e+000	 1.130412961687461e+001
 1.212947757953518e-001	 4.548382962917663e+000	 1.144037552288827e+001
 8.072260554108625e-002	 4.549283884409997e+000	 1.156571527784520e+001
 4.028966339278450e-002	 4.549821616615666e+000	 1.166987540466479e+001
 0.000000000000000e+000	 4.550000000000000e+000	 1.174190516928706e+001
 4.110840534096479e-001	 4.556493706890342e+000	 1.054274015003040e+001
 3.694312492154133e-001	 4.560059818908559e+000	 1.054722230612175e+001
 3.278871988229268e-001	 4.563235144586363e+000	 1.058480469892142e+001
 2.864566548591509e-001	 4.566023169547296e+000	 1.065012302206571e+001
 2.451442741168190e-001	 4.568427441126379e+000	 1.073692012496239e+001
 2.039546170033585e-001	 4.570451565675118e+000	 1.083807783262509e+001
 1.628921470681443e-001	 4.572099205880235e+000	 1.094564969377659e+001
 1.219612306066765e-001	 4.573374078098351e+000	 1.105089455588127e+001
 8.116613634021858e-002	 4.574279949708875e+000	 1.114431086709619e+001
 4.051103516937001e-002	 4.574820636487162e+000	 1.121567160667275e+001
 0.000000000000000e+000	 4.574999999999999e+000	 1.125405974714829e+001
 4.133304143561772e-001	 4.581392579604075e+000	 1.031945933015683e+001
 3.714499992099677e-001	 4.584978178573502e+000	 1.030260669371701e+001
 3.296789321486217e-001	 4.588170855758004e+000	 1.031768934191249e+001
 2.880219917697403e-001	 4.590974115828240e+000	 1.035947071197197e+001
 2.464838603130115e-001	 4.593391525503579e+000	 1.042180628832512e+001
 2.050691231061213e-001	 4.595426710842370e+000	 1.049767572615054e+001
 1.637822680894241e-001	 4.597083354546009e+000	 1.057921592461371e+001
 1.226276854179581e-001	 4.598365193279083e+000	 1.065775494694875e+001
 8.160966713933174e-002	 4.599276015007772e+000	 1.072384668584994e+001
 4.073240694595075e-002	 4.599819656358660e+000	 1.076730617421888e+001
 0.000000000000000e+000	 4.600000000000000e+000	 1.077724544311025e+001
 4.155767753022150e-001	 4.606291452318299e+000	 1.006934336561291e+001
 3.734687492041253e-001	 4.609896538238842e+000	 1.003350067979632e+001
 3.314706654740040e-001	 4.613106566929956e+000	 1.002875281406926e+001
 2.895873286800912e-001	 4.615925062109421e+000	 1.004998826127364e+001
 2.478234465090293e-001	 4.618355609880955e+000	 1.009117214546684e+001
 2.061836292087631e-001	 4.620401856009741e+000	 1.014537865879776e+001
 1.646723891106268e-001	 4.622067503211861e+000	 1.020482446973327e+001
 1.232941402291965e-001	 4.623356308459860e+000	 1.026090299824032e+001
 8.205319793842578e-002	 4.624272080306687e+000	 1.030421945486133e+001
 4.095377872252674e-002	 4.624818676230166e+000	 1.032462654219978e+001
 0.000000000000000e+000	 4.624999999999999e+000	 1.031126071915059e+001
 4.178231362477610e-001	 4.631190325033014e+000	 9.792688537230415e+000
 3.754874991978857e-001	 4.634814897904579e+000	 9.740150130566340e+000
 3.332623987990737e-001	 4.638042278102219e+000	 9.718190739854572e+000
 2.911526655902036e-001	 4.640876008390843e+000	 9.721821252109843e+000
 2.491630327048726e-001	 4.643319694258506e+000	 9.745113460696485e+000
 2.072981353112841e-001	 4.645377001177233e+000	 9.781232825170005e+000
 1.655625101317525e-001	 4.647051651877789e+000	 9.822472224356103e+000
 1.239605950403916e-001	 4.648347423640677e+000	 9.860286596711891e+000
 8.249672873750068e-002	 4.649268145605622e+000	 9.885328363343634e+000
 4.117515049909797e-002	 4.649817696101675e+000	 9.887483530651808e+000
 0.000000000000000e+000	 4.650000000000000e+000	 9.855908371398536e+000
 4.200694971928152e-001	 4.656089197748221e+000	 9.489787603774476e+000
 3.775062491912493e-001	 4.659733257570714e+000	 9.422798006752213e+000
 3.350541321238309e-001	 4.662977989274798e+000	 9.386196491526260e+000
 2.927180025000777e-001	 4.665826954672504e+000	 9.375113703759613e+000
 2.505026189005412e-001	 4.668283778636231e+000	 9.383725160247284e+000
 2.084126414136843e-001	 4.670352146344848e+000	 9.405284341373321e+000
 1.664526311528010e-001	 4.672035800543795e+000	 9.432156798929276e+000
 1.246270498515435e-001	 4.673338538821540e+000	 9.455855171752367e+000
 8.294025953655647e-002	 4.674264210904576e+000	 9.467075002968654e+000
 4.139652227566441e-002	 4.674816715973188e+000	 9.455731254239064e+000
 0.000000000000000e+000	 4.675000000000000e+000	 9.410995414247742e+000
 4.223158581373777e-001	 4.680988070463921e+000	 9.160929895615510e+000
 3.795249991842159e-001	 4.684651617237246e+000	 9.081684440869017e+000
 3.368458654482753e-001	 4.687913700447686e+000	 9.032961249034548e+000
 2.942833394097131e-001	 4.690777900954402e+000	 9.010008114208757e+000
 2.518422050960352e-001	 4.693247863014132e+000	 9.007101354566956e+000
 2.095271475159636e-001	 4.695327291512582e+000	 9.017579247104626e+000
 1.673427521737726e-001	 4.697019949209879e+000	 9.033876500102956e+000
 1.252935046626522e-001	 4.698329654002444e+000	 9.047559654160807e+000
 8.338379033559312e-002	 4.699260276203550e+000	 9.049363303969990e+000
 4.161789405222610e-002	 4.699815735844708e+000	 9.029227034631663e+000
 0.000000000000000e+000	 4.699999999999999e+000	 8.976332968168332e+000
 4.245622190814485e-001	 4.705886943180112e+000	 8.806401405427536e+000
 3.815437491767854e-001	 4.709569976904174e+000	 8.717046812043266e+000
 3.386375987724072e-001	 4.712849411620889e+000	 8.658674058021147e+000
 2.958486763191099e-001	 4.715728847236537e+000	 8.626645500394952e+000
 2.531817912913545e-001	 4.718211947392206e+000	 8.615335359898223e+000
 2.106416536181220e-001	 4.720302436680437e+000	 8.618163507673421e+000
 1.682328731946670e-001	 4.722004097876038e+000	 8.627630312313343e+000
 1.259599594737178e-001	 4.723320769183392e+000	 8.635352436426906e+000
 8.382732113461064e-002	 4.724256341502541e+000	 8.632099473277696e+000
 4.183926582878302e-002	 4.724814755716229e+000	 8.607831315662153e+000
 0.000000000000000e+000	 4.725000000000000e+000	 8.551736151081441e+000
 4.268085800250276e-001	 4.730785815896795e+000	 8.426484876022517e+000
 3.835624991689582e-001	 4.734488336571500e+000	 8.329119818470431e+000
 3.404293320962267e-001	 4.737785122794405e+000	 8.263521885983888e+000
 2.974140132282684e-001	 4.740679793518914e+000	 8.225165437183717e+000
 2.545213774864993e-001	 4.743176031770457e+000	 8.208519719180142e+000
 2.117561597201596e-001	 4.745277581848414e+000	 8.207083015959215e+000
 1.691229942154843e-001	 4.746988246542276e+000	 8.213417879945192e+000
 1.266264142847402e-001	 4.748311884364385e+000	 8.219187334265333e+000
 8.427085193360903e-002	 4.749252406801554e+000	 8.215191934604288e+000
 4.206063760533519e-002	 4.749813775587759e+000	 8.191407581165851e+000
 0.000000000000000e+000	 4.750000000000000e+000	 8.137023973161750e+000
 4.750000000000000e+000	 0.000000000000000e+000	 1.039742442854293e+001
 4.749813775587761e+000	 4.206063760533384e-002	 1.040766684492993e+001
 4.749252406801552e+000	 8.427085193360784e-002	 1.041843897378175e+001
 4.748311884364385e+000	 1.266264142847391e-001	 1.042908112320434e+001
 4.746988246542276e+000	 1.691229942154834e-001	 1.043897801740218e+001
 4.745277581848414e+000	 2.117561597201589e-001	 1.044756101794719e+001
 4.743176031770457e+000	 2.545213774864986e-001	 1.045431030931524e+001
 4.740679793518913e+000	 2.974140132282679e-001	 1.045875704251940e+001
 4.737785122794405e+000	 3.404293320962263e-001	 1.046048543055844e+001
 4.734488336571500e+000	 3.835624991689580e-001	 1.045913478930290e+001
 4.730785815896796e+000	 4.268085800250276e-001	 1.045440151736056e+001
 4.775000000000001e+000	 0.000000000000000e+000	 1.038477407985430e+001
 4.774812795459289e+000	 4.228200938188836e-002	 1.039272585005970e+001
 4.774248472100565e+000	 8.471438273261578e-002	 1.040151363848422e+001
 4.773302999545376e+000	 1.272928690957831e-001	 1.041047950286556e+001
 4.771972395208514e+000	 1.700131152363393e-001	 1.041901049349991e+001
 4.770252727016390e+000	 2.128706658222569e-001	 1.042654089387473e+001
 4.768140116148707e+000	 2.558609636817307e-001	 1.043255442474790e+001
 4.765630739801289e+000	 2.989793501375455e-001	 1.043658640542213e+001
 4.762720833967920e+000	 3.422210654202020e-001	 1.043822586585126e+001
 4.759406696238826e+000	 3.855812491613292e-001	 1.043711760311872e+001
 4.755684688613478e+000	 4.290549409688527e-001	 1.043296417574795e+001
 4.800000000000001e+000	 0.000000000000000e+000	 1.037322987950926e+001
 4.799811815330812e+000	 4.250338115845243e-002	 1.037911949511383e+001
 4.799244537399557e+000	 8.515791353166197e-002	 1.038613066244190e+001
 4.798294114726322e+000	 1.279593239069134e-001	 1.039360690751364e+001
 4.796956543874674e+000	 1.709032362573493e-001	 1.040093734177341e+001
 4.795227872184247e+000	 2.139851719245967e-001	 1.040755892275437e+001
 4.793104200526780e+000	 2.572005498773120e-001	 1.041295867735966e+001
 4.790581686083425e+000	 3.005446870473001e-001	 1.041667588142681e+001
 4.787656545141123e+000	 3.440127987448028e-001	 1.041830418912901e+001
 4.784325055905753e+000	 3.875999991544943e-001	 1.041749370566977e+001
 4.780583561329669e+000	 4.313013019136611e-001	 1.041395299664687e+001
 4.825000000000000e+000	 0.000000000000000e+000	 1.036275626670632e+001
 4.824810835202331e+000	 4.272475293502601e-002	 1.036681061448299e+001
 4.824240602698530e+000	 8.560144433074646e-002	 1.037225130208194e+001
 4.823285229907229e+000	 1.286257787181301e-001	 1.037842304346564e+001
 4.821940692540756e+000	 1.717933572785135e-001	 1.038471674734482e+001
 4.820203017351980e+000	 2.150996780271780e-001	 1.039057179854369e+001
 4.818068284904680e+000	 2.585401360732425e-001	 1.039547830114329e+001
 4.815532632365324e+000	 3.021100239575318e-001	 1.039897927698578e+001
 4.812592256314012e+000	 3.458045320700289e-001	 1.040067281300830e+001
 4.809243415572285e+000	 3.896187491484532e-001	 1.040021415077821e+001
 4.805482434045368e+000	 4.335476628594529e-001	 1.039731771151977e+001
 4.850000000000000e+000	 0.000000000000000e+000	 1.035331841385643e+001
 4.849809855073845e+000	 4.294612471160915e-002	 1.035576280369767e+001
 4.849236667997485e+000	 8.604497512986921e-002	 1.035983760018425e+001
 4.848276345088090e+000	 1.292922335294333e-001	 1.036488842585093e+001
 4.846924841206763e+000	 1.726834782998318e-001	 1.037030772381641e+001
 4.845178162519593e+000	 2.162141841300012e-001	 1.037553706051914e+001
 4.843032369282406e+000	 2.598797222695223e-001	 1.038006938938387e+001
 4.840483578646983e+000	 3.036753608682405e-001	 1.038345126891619e+001
 4.837527967486590e+000	 3.475962653958800e-001	 1.038528502860770e+001
 4.834161775238419e+000	 3.916374991432061e-001	 1.038523087593669e+001
 4.830381306760575e+000	 4.357940238062281e-001	 1.038300893766727e+001
 4.875000000000000e+000	 0.000000000000000e+000	 1.034488220778260e+001
 4.874808874945352e+000	 4.316749648820179e-002	 1.034594039991172e+001
 4.874232733296419e+000	 8.648850592903019e-002	 1.034885236571863e+001
 4.873267460268909e+000	 1.299586883408228e-001	 1.035296435787239e+001
 4.871908989872690e+000	 1.735735993213043e-001	 1.035767009202753e+001
 4.870153307687087e+000	 2.173286902330660e-001	 1.036241307160134e+001
 4.867996453659956e+000	 2.612193084661514e-001	 1.036668887262566e+001
 4.865434524928405e+000	 3.052406977794263e-001	 1.037004738208291e+001
 4.862463678658856e+000	 3.493879987223563e-001	 1.037209498302203e+001
 4.859080134904157e+000	 3.936562491387530e-001	 1.037249667965012e+001
 4.855280179475290e+000	 4.380403847539867e-001	 1.037097815551446e+001
 4.900000000000000e+000	 0.000000000000000e+000	 1.033741423149513e+001
 4.899807894816859e+000	 4.338886826480400e-002	 1.033730846298334e+001
 4.899228798595335e+000	 8.693203672822945e-002	 1.033925915429903e+001
 4.898258575449684e+000	 1.306251431522988e-001	 1.034261291070248e+001
 4.896893138538543e+000	 1.744637203429309e-001	 1.034676445946176e+001
 4.895128452854458e+000	 2.184431963363725e-001	 1.035115899734370e+001
 4.892960538037332e+000	 2.625588946631297e-001	 1.035529449731342e+001
 4.890385471209588e+000	 3.068060346910890e-001	 1.035872396776467e+001
 4.887399389830807e+000	 3.511797320494579e-001	 1.036105765748625e+001
 4.883998494569497e+000	 3.956749991350937e-001	 1.036196519947111e+001
 4.880179052189514e+000	 4.402867457027287e-001	 1.036117768659235e+001
 4.925000000000000e+000	 0.000000000000000e+000	 1.033088174652188e+001
 4.924806914688357e+000	 4.361024004141571e-002	 1.032983275713242e+001
 4.924224863894231e+000	 8.737556752746696e-002	 1.033102224923332e+001
 4.923249690630416e+000	 1.312915979638611e-001	 1.033379690399167e+001
 4.921877287204318e+000	 1.753538413647117e-001	 1.033755220028145e+001
 4.920103598021710e+000	 2.195577024399207e-001	 1.034173478556095e+001
 4.917924622414534e+000	 2.638984808604573e-001	 1.034584480508432e+001
 4.915336417490530e+000	 3.083713716032288e-001	 1.034943818267911e+001
 4.912335101002446e+000	 3.529714653771846e-001	 1.035212884620436e+001
 4.908916854234441e+000	 3.976937491322283e-001	 1.035359089070434e+001
 4.905077924903247e+000	 4.425331066524542e-001	 1.035356067219001e+001
 4.949999999999999e+000	 0.000000000000000e+000	 1.032525267577400e+001
 4.949805934559854e+000	 4.383161181803696e-002	 1.032347973315356e+001
 4.949220929193109e+000	 8.781909832674277e-002	 1.032410664314702e+001
 4.948240805811104e+000	 1.319580527755098e-001	 1.032647988696746e+001
 4.946861435870015e+000	 1.762439623866466e-001	 1.032999543596703e+001
 4.945078743188840e+000	 2.206722085437106e-001	 1.033410114657521e+001
 4.942888706791562e+000	 2.652380670581341e-001	 1.033829911268731e+001
 4.940287363771237e+000	 3.099367085158457e-001	 1.034214796864336e+001
 4.937270812173774e+000	 3.547631987055365e-001	 1.034526513581991e+001
 4.933835213898987e+000	 3.997124991301568e-001	 1.034732900575623e+001
 4.929976797616488e+000	 4.447794676031630e-001	 1.034808105265365e+001
 4.975000000000000e+000	 0.000000000000000e+000	 1.032049558692820e+001
 4.974804954431343e+000	 4.405298359466774e-002	 1.031821651116551e+001
 4.974216994491966e+000	 8.826262912605680e-002	 1.031847802016141e+001
 4.973231920991751e+000	 1.326245075872450e-001	 1.032062612010326e+001
 4.971845584535635e+000	 1.771340834087356e-001	 1.032405701654018e+001
 4.970053888355849e+000	 2.217867146477423e-001	 1.032821953405742e+001
 4.967852791168413e+000	 2.665776532561602e-001	 1.033261749250793e+001
 4.965238310051703e+000	 3.115020454289394e-001	 1.033681203284801e+001
 4.962206523344789e+000	 3.565549320345135e-001	 1.034042388550548e+001
 4.958753573563136e+000	 4.017312491288792e-001	 1.034313557410727e+001
 4.954875670329236e+000	 4.470258285548553e-001	 1.034469354730981e+001
 5.000000000000000e+000	 0.000000000000000e+000	 1.031657967630769e+001
 4.999803974302830e+000	 4.427435537130806e-002	 1.031401086387798e+001
 4.999213059790807e+000	 8.870615992540913e-002	 1.031410273860601e+001
 4.998223036172354e+000	 1.332909623990665e-001	 1.031620055733734e+001
 4.996829733201179e+000	 1.780242044309789e-001	 1.031970050235038e+001
 4.995029033522739e+000	 2.229012207520157e-001	 1.032405212644362e+001
 4.992816875545091e+000	 2.679172394545357e-001	 1.032876075367740e+001
 4.990189256331933e+000	 3.130673823425104e-001	 1.033338982872266e+001
 4.987142234515491e+000	 3.583466653641158e-001	 1.033756320764938e+001
 4.983671933226890e+000	 4.037499991283957e-001	 1.034096738288516e+001
 4.979774543041494e+000	 4.492721895075311e-001	 1.034335363499077e+001
 4.730785815896796e+000	 4.268085800250276e-001	 1.045440151736056e+001
 4.726674008699353e+000	 4.701625413987225e-001	 1.044348792273630e+001
 4.722149432609216e+000	 5.136192519181059e-001	 1.043204969132249e+001
 4.717208677782532e+000	 5.571734829283325e-001	 1.042006561223526e+001
 4.711848409731800e+000	 6.008199094031386e-001	 1.040757783826149e+001
 4.706065372156694e+000	 6.445531109429850e-001	 1.040443517252884e+001
 4.699856389773194e+000	 6.883675728617011e-001	 1.041332336628903e+001
 4.693218371138125e+000	 7.322576873625164e-001	 1.042252163601125e+001
 4.686148311466119e+000	 7.762177548042758e-001	 1.043236297369775e+001
 4.678643295435927e+000	 8.202419850585258e-001	 1.044324611866672e+001
 4.670700499982989e+000	 8.643244989580522e-001	 1.045563698087813e+001
 4.755684688613478e+000	 4.290549409688527e-001	 1.043296417574795e+001
 4.751551240325787e+000	 4.726370810862668e-001	 1.042415086911467e+001
 4.747002850677489e+000	 5.163225111344948e-001	 1.041484041259627e+001
 4.742036091878187e+000	 5.601059749394567e-001	 1.040500667670759e+001
 4.736647611890441e+000	 6.039821194484364e-001	 1.039468764266937e+001
 4.730834137275505e+000	 6.479454957334774e-001	 1.039443230179163e+001
 4.724592476037334e+000	 6.919905600837466e-001	 1.040378712496681e+001
 4.717919520462003e+000	 7.361116751877544e-001	 1.041350794655386e+001
 4.710812249949480e+000	 7.803031114062363e-001	 1.042391967863508e+001
 4.703267733834721e+000	 8.245590481363798e-001	 1.043541362556519e+001
 4.695283134194934e+000	 8.688735752679868e-001	 1.044844893399337e+001
 4.780583561329669e+000	 4.313013019136611e-001	 1.041395299664687e+001
 4.776428471951631e+000	 4.751116207749754e-001	 1.040703908477466e+001
 4.771856268745071e+000	 5.190257703521906e-001	 1.039963543274097e+001
 4.766863505973047e+000	 5.630384669519913e-001	 1.039171101340719e+001
 4.761446814048191e+000	 6.071443294952087e-001	 1.038329967995728e+001
 4.755602902393324e+000	 6.513378805254689e-001	 1.038544715149795e+001
 4.749328562300383e+000	 6.956135473072754e-001	 1.039510093454200e+001
 4.742620669784687e+000	 7.399656630144204e-001	 1.040515771074108e+001
 4.735476188431549e+000	 7.843884680095284e-001	 1.041593427122739e+001
 4.727892172232125e+000	 8.288761112154278e-001	 1.042781446513304e+001
 4.719865768405383e+000	 8.734226515789357e-001	 1.044125067679271e+001
 4.805482434045368e+000	 4.335476628594529e-001	 1.039731771151977e+001
 4.801305703576881e+000	 4.775861604648483e-001	 1.039210429817632e+001
 4.796709686811961e+000	 5.217290295711928e-001	 1.038638847475755e+001
 4.791690920067119e+000	 5.659709589659361e-001	 1.038013433728224e+001
 4.786246016205046e+000	 6.103065395434554e-001	 1.037337165434659e+001
 4.780371667510149e+000	 6.547302653189596e-001	 1.037747349127428e+001
 4.774064648562338e+000	 6.992365345322883e-001	 1.038726293127939e+001
 4.767321819106180e+000	 7.438196508425142e-001	 1.039747343447541e+001
 4.760140126912325e+000	 7.884738246141517e-001	 1.040841362855801e+001
 4.752516610628135e+000	 8.331931742956693e-001	 1.042045988575432e+001
 4.744448402614344e+000	 8.779717278908998e-001	 1.043405782769278e+001
 4.830381306760575e+000	 4.357940238062281e-001	 1.038300893766727e+001
 4.826182935201540e+000	 4.800607001558854e-001	 1.037929905509456e+001
 4.821563104878159e+000	 5.244322887915017e-001	 1.037505400823976e+001
 4.816518334160397e+000	 5.689034509812909e-001	 1.037023303695946e+001
 4.811045218361012e+000	 6.134687495931768e-001	 1.036486186863863e+001
 4.805140432625981e+000	 6.581226501139492e-001	 1.037050561205344e+001
 4.798800734823201e+000	 7.028595217587845e-001	 1.038027169331200e+001
 4.792022968426481e+000	 7.476736386720359e-001	 1.039045798393713e+001
 4.784804065391810e+000	 7.925591812201065e-001	 1.040136490425877e+001
 4.777141049022752e+000	 8.375102373771048e-001	 1.041336132650822e+001
 4.769031036821811e+000	 8.825208042038785e-001	 1.042688610784426e+001
 4.855280179475290e+000	 4.380403847539867e-001	 1.037097815551446e+001
 4.851060166825605e+000	 4.825352398480867e-001	 1.036857669766246e+001
 4.846416522943667e+000	 5.271355480131172e-001	 1.036558723023076e+001
 4.841345748252884e+000	 5.718359429980561e-001	 1.036196415747025e+001
 4.835844420516082e+000	 6.166309596443724e-001	 1.035772920886637e+001
 4.829909197740824e+000	 6.615150349104380e-001	 1.036453831270765e+001
 4.823536821082972e+000	 7.064825089867647e-001	 1.037412622931115e+001
 4.816724117745589e+000	 7.515276265029859e-001	 1.038411457634651e+001
 4.809468003870001e+000	 7.966445378273929e-001	 1.039479552141906e+001
 4.801765487415977e+000	 8.418273004597342e-001	 1.040653041227948e+001
 4.793613671027784e+000	 8.870698805178717e-001	 1.041975133849756e+001
 4.880179052189514e+000	 4.402867457027287e-001	 1.036117768659235e+001
 4.875937398449081e+000	 4.850097795414525e-001	 1.035989134405589e+001
 4.871269941008481e+000	 5.298388072360395e-001	 1.035794404666574e+001
 4.866173162344578e+000	 5.747684350162313e-001	 1.035528538350565e+001
 4.860643622670264e+000	 6.197931696970426e-001	 1.035193312941615e+001
 4.854677962854673e+000	 6.649074197084258e-001	 1.035956688709098e+001
 4.848272907341651e+000	 7.101054962162284e-001	 1.036882596750333e+001
 4.841425267063504e+000	 7.553816143353637e-001	 1.037844677100869e+001
 4.834131942346899e+000	 8.007298944360106e-001	 1.038871316571184e+001
 4.826389925807809e+000	 8.461443635435572e-001	 1.039997894901837e+001
 4.818196305232266e+000	 8.916189568328796e-001	 1.041266943844937e+001
 4.905077924903247e+000	 4.425331066524542e-001	 1.035356067219001e+001
 4.900814630071965e+000	 4.874843192359823e-001	 1.035319786879709e+001
 4.896123359072603e+000	 5.325420664602684e-001	 1.035208105437969e+001
 4.891000576435481e+000	 5.777009270358167e-001	 1.035015502318142e+001
 4.885442824823553e+000	 6.229553797511871e-001	 1.034743363860241e+001
 4.879446727967530e+000	 6.682998045079130e-001	 1.035558711147631e+001
 4.873008993599236e+000	 7.137284834471761e-001	 1.036437074502159e+001
 4.866126416380228e+000	 7.592356021691692e-001	 1.037345846063124e+001
 4.858795880822505e+000	 8.048152510459598e-001	 1.038312577872916e+001
 4.851014364198250e+000	 8.504614266285741e-001	 1.039371891914522e+001
 4.842778939435253e+000	 8.961680331489021e-001	 1.040565642156681e+001
 4.929976797616488e+000	 4.447794676031630e-001	 1.034808105265365e+001
 4.925691861694258e+000	 4.899588589316765e-001	 1.034845188365497e+001
 4.920976777136034e+000	 5.352453256858040e-001	 1.034795552366048e+001
 4.915827990525591e+000	 5.806334190568122e-001	 1.034653199229489e+001
 4.910242026975950e+000	 6.261175898068063e-001	 1.034445978120581e+001
 4.904215493079394e+000	 6.716921893088990e-001	 1.035259523237306e+001
 4.897745079855732e+000	 7.173514706796075e-001	 1.036076079757962e+001
 4.890827565695757e+000	 7.630895900044028e-001	 1.036915386290501e+001
 4.883459819296820e+000	 8.089006076572403e-001	 1.037804155151953e+001
 4.875638802587296e+000	 8.547784897147845e-001	 1.038776247709401e+001
 4.867361573636751e+000	 9.007171094659396e-001	 1.039872839438662e+001
 4.954875670329236e+000	 4.470258285548553e-001	 1.034469354730981e+001
 4.950569093315958e+000	 4.924333986285350e-001	 1.034560971912135e+001
 4.945830195198774e+000	 5.379485849126461e-001	 1.034552538132796e+001
 4.940655404614910e+000	 5.835659110792180e-001	 1.034437579905663e+001
 4.935041229127454e+000	 6.292797998638997e-001	 1.034312297062606e+001
 4.928984258190266e+000	 6.750845741113841e-001	 1.035058795471218e+001
 4.922481166111132e+000	 7.209744579135223e-001	 1.035799674945715e+001
 4.915528715010096e+000	 7.669435778410643e-001	 1.036553751233869e+001
 4.908123757769840e+000	 8.129859642698522e-001	 1.037346891832011e+001
 4.900263240974951e+000	 8.590955528021890e-001	 1.038212194499050e+001
 4.891944207836753e+000	 9.052661857839915e-001	 1.039190155378688e+001
 4.979774543041494e+000	 4.492721895075311e-001	 1.034335363499077e+001
 4.975446324937067e+000	 4.949079383265578e-001	 1.034462840644284e+001
 4.970683613260823e+000	 5.406518441407950e-001	 1.034474919432059e+001
 4.965482818703439e+000	 5.864984031030339e-001	 1.034364652928010e+001
 4.959840431278068e+000	 6.324420099224679e-001	 1.034288387613249e+001
 4.953753023300148e+000	 6.784769589153686e-001	 1.034956243038566e+001
 4.947217252365444e+000	 7.245974451489213e-001	 1.035607960378583e+001
 4.940229864323243e+000	 7.707975656791541e-001	 1.036261425233831e+001
 4.932787696241570e+000	 8.170713208837956e-001	 1.036941655047710e+001
 4.924887679361214e+000	 8.634126158907873e-001	 1.037680980845988e+001
 4.916526842035265e+000	 9.098152621030583e-001	 1.038519218472839e+001
 4.670700499982989e+000	 8.643244989580522e-001	 1.045563698087813e+001
 4.662317197074184e+000	 9.084593298371435e-001	 1.045741486222602e+001
 4.653490756464190e+000	 9.526404251647136e-001	 1.045878573547903e+001
 4.644218648428491e+000	 9.968616482696642e-001	 1.046045175509337e+001
 4.634498446467843e+000	 1.041116780158473e+000	 1.046318992291899e+001
 4.624327829983526e+000	 1.085399521425691e+000	 1.046785296985727e+001
 4.613704586919089e+000	 1.129703494256914e+000	 1.047537010177789e+001
 4.602626616365185e+000	 1.174022244523953e+000	 1.048674760376615e+001
 4.591091931124016e+000	 1.218349243971802e+000	 1.050306929697472e+001
 4.579098660229948e+000	 1.262677892496843e+000	 1.051783804215062e+001
 4.566645051422785e+000	 1.307001520515620e+000	 1.051242068655188e+001
 4.695283134194934e+000	 8.688735752679868e-001	 1.044844893399337e+001
 4.686855708638989e+000	 9.132406947316664e-001	 1.045184588624716e+001
 4.677982813078237e+000	 9.576543221407282e-001	 1.045482406022770e+001
 4.668661904473817e+000	 1.002108288525804e+000	 1.045808267166736e+001
 4.658890543555444e+000	 1.046596342161823e+000	 1.046239661981046e+001
 4.648666397510717e+000	 1.091112150488570e+000	 1.046861738938478e+001
 4.637987242640786e+000	 1.135649302124196e+000	 1.047767381525806e+001
 4.626850966978886e+000	 1.180201308971414e+000	 1.049057270376082e+001
 4.615255572868284e+000	 1.224761608415979e+000	 1.050839930486079e+001
 4.603199179496159e+000	 1.269323565616884e+000	 1.052097970745903e+001
 4.590680025379892e+000	 1.313880475887600e+000	 1.051705725730329e+001
 4.719865768405383e+000	 8.734226515789357e-001	 1.044125067679271e+001
 4.711394220202210e+000	 9.180220596270136e-001	 1.044603856791692e+001
 4.702474869690624e+000	 9.626682191173959e-001	 1.045037748064175e+001
 4.693105160517438e+000	 1.007354928782444e+000	 1.045496374904464e+001
 4.683282640641307e+000	 1.052075904165542e+000	 1.046057024936306e+001
 4.673004965036161e+000	 1.096824779551708e+000	 1.046804732263625e+001
 4.662269898360744e+000	 1.141595109991644e+000	 1.047832355842819e+001
 4.651075317590875e+000	 1.186380373418968e+000	 1.049240643352066e+001
 4.639419214610887e+000	 1.231173972860197e+000	 1.051138279967282e+001
 4.627299698760771e+000	 1.275969238736935e+000	 1.052166376136221e+001
 4.614714999335491e+000	 1.320759431259581e+000	 1.051899818601107e+001
 4.744448402614344e+000	 8.779717278908998e-001	 1.043405782769278e+001
 4.735932731763849e+000	 9.228034245231848e-001	 1.044001235872013e+001
 4.726966926301361e+000	 9.676821160947169e-001	 1.044546926972049e+001
 4.717548416559352e+000	 1.012601569039586e+000	 1.045112206907722e+001
 4.707674737725434e+000	 1.057555466169631e+000	 1.045774168856171e+001
 4.697343532559855e+000	 1.102537408615102e+000	 1.046617742700424e+001
 4.686552554078960e+000	 1.147540917859257e+000	 1.047735775341151e+001
 4.675299668201150e+000	 1.192559437866615e+000	 1.049229096332705e+001
 4.663582856351825e+000	 1.237586337304457e+000	 1.051206568243980e+001
 4.651400218023789e+000	 1.282614911856997e+000	 1.051996344168940e+001
 4.638749973289582e+000	 1.327638386631561e+000	 1.051832274613551e+001
 4.769031036821811e+000	 8.825208042038785e-001	 1.042688610784426e+001
 4.760471243323902e+000	 9.275847894201803e-001	 1.043378673384190e+001
 4.751458982910444e+000	 9.726960130726908e-001	 1.044012264321627e+001
 4.741991672599561e+000	 1.017848209297230e+000	 1.044658457352653e+001
 4.732066834807823e+000	 1.063035028174090e+000	 1.045394158957973e+001
 4.721682100081798e+000	 1.108250037678754e+000	 1.046304204849101e+001
 4.710835209795433e+000	 1.153486725727035e+000	 1.047481442252621e+001
 4.699524018809712e+000	 1.198738502314356e+000	 1.049026797342826e+001
 4.687746498091099e+000	 1.243998701748758e+000	 1.051049327214033e+001
 4.675500737285211e+000	 1.289260584977068e+000	 1.051595131043838e+001
 4.662784947242169e+000	 1.334517342003541e+000	 1.051510943978746e+001
 4.793613671027784e+000	 8.870698805178717e-001	 1.041975133849756e+001
 4.785009754882376e+000	 9.323661543180003e-001	 1.042738119155991e+001
 4.775951039517873e+000	 9.777099100513179e-001	 1.043436076110222e+001
 4.766434928638065e+000	 1.023094849555375e+000	 1.044137806765550e+001
 4.756458931888473e+000	 1.068514590178917e+000	 1.044920038554310e+001
 4.746020667601993e+000	 1.113962666742662e+000	 1.045867522969286e+001
 4.735117865510166e+000	 1.159432533594977e+000	 1.047073119853689e+001
 4.723748369416562e+000	 1.204917566762189e+000	 1.048637866660445e+001
 4.711910139828707e+000	 1.250411066193101e+000	 1.050654665582184e+001
 4.699601256545038e+000	 1.295906258097151e+000	 1.050969927110449e+001
 4.686819921193249e+000	 1.341396297375522e+000	 1.050943601750651e+001
 4.818196305232266e+000	 8.916189568328796e-001	 1.041266943844937e+001
 4.809548266439266e+000	 9.371475192166445e-001	 1.042081525265538e+001
 4.800443096123647e+000	 9.827238070305986e-001	 1.042820672899532e+001
 4.790878184674864e+000	 1.028341489814022e+000	 1.043552922371065e+001
 4.780851028967386e+000	 1.073994152184115e+000	 1.044354829611849e+001
 4.770359235120437e+000	 1.119675295806829e+000	 1.045311071754012e+001
 4.759400521223157e+000	 1.165378341463085e+000	 1.046514533459213e+001
 4.747972720021696e+000	 1.211096631210116e+000	 1.048066378034791e+001
 4.736073781564651e+000	 1.256823430637485e+000	 1.049815766240092e+001
 4.723701775803267e+000	 1.302551931217244e+000	 1.050127858547915e+001
 4.710854895142822e+000	 1.348275252747503e+000	 1.050137949743379e+001
 4.842778939435253e+000	 8.961680331489021e-001	 1.040565642156681e+001
 4.834086777994573e+000	 9.419288841161130e-001	 1.041410845984182e+001
 4.824935152727766e+000	 9.877377040105320e-001	 1.042168359953591e+001
 4.815321440709955e+000	 1.033588130073170e+000	 1.042906458429815e+001
 4.805243126044562e+000	 1.079473714189682e+000	 1.043701533293096e+001
 4.794697802637132e+000	 1.125387924871252e+000	 1.044638197080137e+001
 4.783683176934407e+000	 1.171324149331359e+000	 1.045809371385940e+001
 4.772197070625118e+000	 1.217275695658136e+000	 1.047316359867247e+001
 4.760237423298931e+000	 1.263235795081911e+000	 1.048787376484245e+001
 4.747802295059902e+000	 1.309197604337347e+000	 1.049075988993678e+001
 4.734889869090889e+000	 1.355154208119483e+000	 1.049101618390066e+001
 4.867361573636751e+000	 9.007171094659396e-001	 1.039872839438662e+001
 4.858625289548295e+000	 9.467102490164057e-001	 1.040728037721128e+001
 4.849427209330234e+000	 9.927516009911185e-001	 1.041481437372553e+001
 4.839764696743343e+000	 1.038834770332819e+000	 1.042201056565755e+001
 4.829635223120002e+000	 1.084953276195618e+000	 1.042963130481757e+001
 4.819036370152078e+000	 1.131100553935933e+000	 1.043852216736020e+001
 4.807965832643914e+000	 1.177269957199797e+000	 1.044961285886807e+001
 4.796421421226826e+000	 1.223454760106249e+000	 1.046391796356491e+001
 4.784401065031544e+000	 1.269648159526378e+000	 1.047575947491839e+001
 4.771902814314941e+000	 1.315843277457460e+000	 1.047821321122813e+001
 4.758924843037452e+000	 1.362033163491464e+000	 1.047842168545432e+001
 4.891944207836753e+000	 9.052661857839915e-001	 1.039190155378688e+001
 4.883163801100436e+000	 9.514916139175227e-001	 1.040035058969712e+001
 4.873919265931045e+000	 9.977654979723585e-001	 1.040762200222432e+001
 4.864207952775023e+000	 1.044081410592970e+000	 1.041439346083685e+001
 4.854027320193703e+000	 1.090432838201924e+000	 1.042142582292254e+001
 4.843374937665274e+000	 1.136813183000871e+000	 1.042956421127267e+001
 4.832248488351679e+000	 1.183215765068401e+000	 1.043973894057060e+001
 4.820645771826821e+000	 1.229633824554455e+000	 1.045296628609124e+001
 4.808564706762494e+000	 1.276060523970887e+000	 1.046187879256261e+001
 4.796003333568383e+000	 1.322488950577584e+000	 1.046370798179747e+001
 4.782959816982506e+000	 1.368912118863444e+000	 1.046367093233975e+001
 4.916526842035265e+000	 9.098152621030583e-001	 1.038519218472839e+001
 4.907702312650993e+000	 9.562729788194643e-001	 1.039333870255301e+001
 4.898411322530204e+000	 1.002779394954252e+000	 1.040012938660965e+001
 4.888651208805000e+000	 1.049328050853623e+000	 1.040623944277224e+001
 4.878419417265668e+000	 1.095912400208599e+000	 1.041242830563954e+001
 4.867713505176722e+000	 1.142525812066066e+000	 1.041954073961296e+001
 4.856531144057705e+000	 1.189161572937169e+000	 1.042850778713200e+001
 4.844870122425104e+000	 1.235812889002754e+000	 1.044034755716961e+001
 4.832728348491778e+000	 1.282472888415437e+000	 1.044629521866673e+001
 4.820103852820230e+000	 1.329134623697719e+000	 1.044731305464026e+001
 4.806994790926056e+000	 1.375791074235425e+000	 1.044683819345727e+001
 4.566645051422785e+000	 1.307001520515620e+000	 1.051242068655188e+001
 4.553729473570638e+000	 1.351313391422532e+000	 1.051217133717034e+001
 4.540350419037734e+000	 1.395606704137587e+000	 1.051377604247548e+001
 4.526506505994300e+000	 1.439874595742234e+000	 1.051728257680780e+001
 4.512196480665969e+000	 1.484110144199970e+000	 1.052274000563135e+001
 4.497419219518086e+000	 1.528306371162558e+000	 1.053019913561586e+001
 4.482173731371831e+000	 1.572456244859625e+000	 1.053971297235781e+001
 4.466459159448743e+000	 1.616552683069939e+000	 1.055133718437952e+001
 4.450274783340313e+000	 1.660588556172508e+000	 1.056513057198432e+001
 4.433620020899308e+000	 1.704556690275470e+000	 1.058115553948818e+001
 4.416494430049541e+000	 1.748449870420633e+000	 1.059947856929458e+001
 4.590680025379892e+000	 1.313880475887600e+000	 1.051705725730329e+001
 4.577696470802579e+000	 1.358425567166879e+000	 1.051469495136993e+001
 4.564247000193416e+000	 1.402952002579742e+000	 1.051415474689639e+001
 4.550330224449835e+000	 1.447452883087015e+000	 1.051550308808513e+001
 4.535944883198663e+000	 1.491921250220426e+000	 1.051880805051412e+001
 4.521089846991900e+000	 1.536350088903590e+000	 1.052413978527036e+001
 4.505764119433992e+000	 1.580732330356816e+000	 1.053157097021472e+001
 4.489966839237115e+000	 1.625060855084025e+000	 1.054117726700480e+001
 4.473697282201146e+000	 1.669328495939906e+000	 1.055303778244229e+001
 4.456954863114908e+000	 1.713528041275271e+000	 1.056723553265383e+001
 4.439739137575500e+000	 1.757652238158466e+000	 1.058385790856152e+001
 4.614714999335491e+000	 1.320759431259581e+000	 1.051899818601107e+001
 4.601663468033124e+000	 1.365537742911231e+000	 1.051499965457613e+001
 4.588143581347830e+000	 1.410297301021918e+000	 1.051279140156987e+001
 4.574153942904255e+000	 1.455031170431841e+000	 1.051245824782118e+001
 4.559693285730408e+000	 1.499732356240961e+000	 1.051408698332504e+001
 4.544760474464951e+000	 1.544393806644744e+000	 1.051776680574243e+001
 4.529354507495598e+000	 1.589008415854183e+000	 1.052358976553186e+001
 4.513474519025167e+000	 1.633569027098352e+000	 1.053165121632684e+001
 4.497119781061903e+000	 1.678068435707619e+000	 1.054205026911310e+001
 4.480289705330701e+000	 1.722499392275472e+000	 1.055489024870311e+001
 4.462983845101943e+000	 1.766854605896794e+000	 1.057027915095252e+001
 4.638749973289582e+000	 1.327638386631561e+000	 1.051832274613551e+001
 4.625630465262270e+000	 1.372649918655588e+000	 1.051315962389303e+001
 4.612040162500976e+000	 1.417642599464112e+000	 1.050975506056258e+001
 4.597977661357554e+000	 1.462609457776710e+000	 1.050821196196108e+001
 4.583441688261203e+000	 1.507543462261574e+000	 1.050863553843806e+001
 4.568431101937241e+000	 1.552437524386020e+000	 1.051113373805646e+001
 4.552944895556652e+000	 1.597284501351727e+000	 1.051581768591360e+001
 4.536982198812894e+000	 1.642077199112921e+000	 1.052280212820345e+001
 4.520542279922587e+000	 1.686808375475648e+000	 1.053220587956112e+001
 4.503624547546691e+000	 1.731470743276074e+000	 1.054415227217476e+001
 4.486228552628871e+000	 1.776056973635617e+000	 1.055876960509787e+001
 4.662784947242169e+000	 1.334517342003541e+000	 1.051510943978746e+001
 4.649597462490021e+000	 1.379762094399950e+000	 1.050924839887047e+001
 4.635936743652853e+000	 1.424987897906325e+000	 1.050511427449650e+001
 4.621801379809737e+000	 1.470187745121623e+000	 1.050282776737290e+001
 4.607190090791048e+000	 1.515354568282264e+000	 1.050251221571851e+001
 4.592101729408772e+000	 1.560481242127419e+000	 1.050429402343962e+001
 4.576535283617155e+000	 1.605560586849447e+000	 1.050830309396277e+001
 4.560489878600298e+000	 1.650585371127729e+000	 1.051467326831165e+001
 4.543964778783194e+000	 1.695548315243992e+000	 1.052354276595570e+001
 4.526959389762876e+000	 1.740442094277075e+000	 1.053505462690282e+001
 4.509473260156283e+000	 1.785259341374934e+000	 1.054935715345677e+001
 4.686819921193249e+000	 1.341396297375522e+000	 1.050943601750651e+001
 4.673564459716376e+000	 1.386874270144317e+000	 1.050333889785156e+001
 4.659833324803467e+000	 1.432333196348558e+000	 1.049893710345770e+001
 4.645625098260799e+000	 1.477766032466580e+000	 1.049636884131107e+001
 4.630938493319944e+000	 1.523165674303032e+000	 1.049577528653606e+001
 4.615772356879540e+000	 1.568524959868940e+000	 1.049730100588070e+001
 4.600125671677106e+000	 1.613836672347345e+000	 1.050109438638328e+001
 4.583997558387378e+000	 1.659093543142779e+000	 1.050730806779329e+001
 4.567387277643729e+000	 1.704288255012651e+000	 1.051609937726074e+001
 4.550294231979255e+000	 1.749413445278477e+000	 1.052763076475256e+001
 4.532717967684180e+000	 1.794461709114747e+000	 1.054207023760383e+001
 4.710854895142822e+000	 1.348275252747503e+000	 1.050137949743379e+001
 4.697531456941334e+000	 1.393986445888689e+000	 1.049550343381980e+001
 4.683729905952809e+000	 1.439678494790811e+000	 1.049129112951014e+001
 4.669448816710744e+000	 1.485344319811581e+000	 1.048889801059024e+001
 4.654686895847889e+000	 1.530976780323879e+000	 1.048848279959373e+001
 4.639442984349548e+000	 1.576568677610583e+000	 1.049020793461073e+001
 4.623716059736504e+000	 1.622112757845418e+000	 1.049423999311018e+001
 4.607505238174135e+000	 1.667601715158070e+000	 1.050075011903405e+001
 4.590809776504189e+000	 1.713028194781626e+000	 1.050991445166349e+001
 4.573629074195829e+000	 1.758384796280278e+000	 1.052191455470139e+001
 4.555962675212561e+000	 1.803664076855054e+000	 1.053693784396592e+001
 4.734889869090889e+000	 1.355154208119483e+000	 1.049101618390066e+001
 4.721498454164894e+000	 1.401098621633065e+000	 1.048581372976357e+001
 4.707626487100888e+000	 1.447023793233083e+000	 1.048224346882803e+001
 4.693272535159570e+000	 1.492922607156626e+000	 1.048047776047970e+001
 4.678435298374886e+000	 1.538787886344804e+000	 1.048069258657934e+001
 4.663113611818793e+000	 1.584612395352349e+000	 1.048306796650798e+001
 4.647306447795349e+000	 1.630388843343668e+000	 1.048778837646624e+001
 4.631012917960569e+000	 1.676109887173602e+000	 1.049504317157094e+001
 4.614232275364574e+000	 1.721768134550916e+000	 1.050502700923376e+001
 4.596963916412597e+000	 1.767356147282479e+000	 1.051794027225220e+001
 4.579207382741428e+000	 1.812866444595856e+000	 1.053398948999333e+001
 4.758924843037452e+000	 1.362033163491464e+000	 1.047842168545432e+001
 4.745465451387058e+000	 1.408210797377446e+000	 1.047434093357493e+001
 4.731523068247697e+000	 1.454369091675374e+000	 1.047186078346090e+001
 4.717096253607279e+000	 1.500500894501714e+000	 1.047117024332824e+001
 4.702183700900933e+000	 1.546598992365808e+000	 1.047246226764568e+001
 4.686784239287278e+000	 1.592656113094236e+000	 1.047593416843005e+001
 4.670896835853644e+000	 1.638664928842095e+000	 1.048178803034406e+001
 4.654520597746679e+000	 1.684618059189375e+000	 1.049023112812383e+001
 4.637654774224886e+000	 1.730508074320522e+000	 1.050147634480574e+001
 4.620298758629560e+000	 1.776327498285080e+000	 1.051574258916761e+001
 4.602452090270778e+000	 1.822068812337153e+000	 1.053325521075024e+001
 4.782959816982506e+000	 1.368912118863444e+000	 1.046367093233975e+001
 4.769432448607826e+000	 1.415322973121832e+000	 1.046115563249934e+001
 4.755419649393240e+000	 1.461714390117685e+000	 1.046020929274364e+001
 4.740919972053868e+000	 1.508079181846847e+000	 1.046103728692900e+001
 4.725932103426031e+000	 1.554410098386889e+000	 1.046384925672546e+001
 4.710454866755005e+000	 1.600699830836247e+000	 1.046885951947582e+001
 4.694487223911384e+000	 1.646941014340699e+000	 1.047628747941289e+001
 4.678028277532465e+000	 1.693126231205388e+000	 1.048635804074663e+001
 4.661077273085121e+000	 1.739248014090443e+000	 1.049930202107433e+001
 4.643633600846719e+000	 1.785298849288082e+000	 1.051535656351367e+001
 4.625696797800613e+000	 1.831271180078945e+000	 1.053476554590924e+001
 4.806994790926056e+000	 1.375791074235425e+000	 1.044683819345727e+001
 4.793399445827198e+000	 1.422435148866224e+000	 1.044632786715180e+001
 4.779316230537516e+000	 1.469059688560016e+000	 1.044735478436444e+001
 4.764743690499341e+000	 1.515657469192023e+000	 1.045014040263333e+001
 4.749680505950179e+000	 1.562221204408049e+000	 1.045491076668681e+001
 4.734125494221968e+000	 1.608743548578380e+000	 1.046189691317927e+001
 4.718077611968575e+000	 1.655217099839480e+000	 1.047133527834917e+001
 4.701535957317928e+000	 1.701634403221643e+000	 1.048346810709394e+001
 4.684499771945284e+000	 1.747987953860680e+000	 1.049854386189865e+001
 4.666968443064073e+000	 1.794270200291484e+000	 1.051681763000226e+001
 4.648941505330933e+000	 1.840473547821232e+000	 1.053855152713614e+001
 4.416494430049541e+000	 1.748449870420633e+000	 1.059947856929458e+001
 4.398897710511125e+000	 1.792260843862486e+000	 1.064210946506683e+001
 4.380829705437297e+000	 1.835982323416120e+000	 1.069035671132531e+001
 4.362290402960451e+000	 1.879606990872976e+000	 1.071851887933066e+001
 4.343279937644680e+000	 1.923127500484416e+000	 1.070351360499159e+001
 4.323798591841205e+000	 1.966536482506963e+000	 1.069262174948033e+001
 4.303846796944171e+000	 2.009826546807196e+000	 1.068582317421156e+001
 4.283425134544102e+000	 2.052990286523143e+000	 1.068309281366507e+001
 4.262534337476437e+000	 2.096020281778891e+000	 1.068440055784049e+001
 4.241175290762652e+000	 2.138909103449004e+000	 1.068971114511055e+001
 4.219349032441642e+000	 2.181649316969236e+000	 1.069898406605323e+001
 4.439739137575500e+000	 1.757652238158466e+000	 1.058385790856152e+001
 4.422049803722750e+000	 1.801693795671522e+000	 1.062353529750912e+001
 4.403886703884518e+000	 1.845645388275808e+000	 1.066849500060191e+001
 4.385249826130742e+000	 1.889499659245881e+000	 1.070554302499243e+001
 4.366139305733747e+000	 1.933249224171265e+000	 1.070442279266790e+001
 4.346555426530813e+000	 1.976886674520360e+000	 1.068973869819480e+001
 4.326498622186581e+000	 2.020404581264306e+000	 1.067888540326023e+001
 4.305969477352579e+000	 2.063795498557646e+000	 1.067185191588276e+001
 4.284968728721273e+000	 2.107051967472486e+000	 1.066862251645360e+001
 4.263497265972154e+000	 2.150166519782732e+000	 1.066917663801880e+001
 4.241556132607472e+000	 2.193131681794851e+000	 1.067348875708100e+001
 4.462983845101943e+000	 1.766854605896794e+000	 1.057027915095252e+001
 4.445201896935138e+000	 1.811126747481146e+000	 1.060726628441551e+001
 4.426943702332746e+000	 1.855308453136171e+000	 1.064920358823450e+001
 4.408209249302243e+000	 1.899392327619536e+000	 1.067577534717693e+001
 4.388998673824186e+000	 1.943370947858931e+000	 1.068825830379036e+001
 4.369312261221915e+000	 1.987236866534629e+000	 1.069311729200657e+001
 4.349150447430567e+000	 2.030982615722333e+000	 1.067839939141361e+001
 4.328513820162675e+000	 2.074600710593101e+000	 1.066725704701049e+001
 4.307403119967733e+000	 2.118083653167060e+000	 1.065968886942314e+001
 4.285819241183236e+000	 2.161423936117454e+000	 1.065568892193589e+001
 4.263763232774805e+000	 2.204614046621467e+000	 1.065524659825508e+001
 4.486228552628871e+000	 1.776056973635617e+000	 1.055876960509787e+001
 4.468353990148293e+000	 1.820559699291361e+000	 1.059332757743756e+001
 4.450000700781982e+000	 1.864971517997210e+000	 1.063250538572825e+001
 4.431168672474953e+000	 1.909284995993942e+000	 1.065029426520587e+001
 4.411858041915995e+000	 1.953492671547412e+000	 1.066221609438039e+001
 4.392069095914512e+000	 1.997587058549771e+000	 1.067526538313176e+001
 4.371802272676131e+000	 2.041560650181278e+000	 1.068429364400451e+001
 4.351058162974391e+000	 2.085405922629510e+000	 1.066923269216450e+001
 4.329837511215814e+000	 2.129115338862614e+000	 1.065752004278876e+001
 4.308141216395904e+000	 2.172681352453172e+000	 1.064916432667416e+001
 4.285970332943644e+000	 2.216096411449083e+000	 1.064416978774919e+001
 4.509473260156283e+000	 1.785259341374934e+000	 1.054935715345677e+001
 4.491506083362213e+000	 1.829992651102166e+000	 1.058174497183664e+001
 4.473057699232222e+000	 1.874634582858924e+000	 1.061842401922622e+001
 4.454128095648869e+000	 1.919177664369099e+000	 1.062902312082351e+001
 4.434717410009177e+000	 1.963614395236710e+000	 1.064057327058972e+001
 4.414825930608602e+000	 2.007937250565785e+000	 1.065306016671848e+001
 4.394454097923273e+000	 2.052138684641142e+000	 1.066621594163675e+001
 4.373602505787726e+000	 2.096211134666874e+000	 1.067770442404734e+001
 4.352271902465517e+000	 2.140147024559147e+000	 1.066203762813399e+001
 4.330463191610156e+000	 2.183938768789885e+000	 1.064952042660109e+001
 4.308177433113985e+000	 2.227578776277698e+000	 1.064017184832565e+001
 4.532717967684180e+000	 1.794461709114747e+000	 1.054207023760383e+001
 4.514658176576894e+000	 1.839425602913561e+000	 1.057254488998112e+001
 4.496114697683471e+000	 1.884297647721313e+000	 1.060151712077410e+001
 4.477087518823998e+000	 1.929070332745008e+000	 1.061188602248598e+001
 4.457576778103730e+000	 1.973736118926826e+000	 1.062325004496890e+001
 4.437582765304188e+000	 2.018287442582671e+000	 1.063536610805991e+001
 4.417105923171993e+000	 2.062716719101925e+000	 1.064797672125111e+001
 4.396146848602683e+000	 2.107016346705191e+000	 1.066080993499917e+001
 4.374706293716842e+000	 2.151178710256659e+000	 1.067316435270047e+001
 4.352785166825990e+000	 2.195196185127592e+000	 1.065667600872757e+001
 4.330384533285831e+000	 2.239061141107313e+000	 1.064316759337161e+001
 4.555962675212561e+000	 1.803664076855054e+000	 1.053693784396592e+001
 4.537810269792344e+000	 1.848858554725545e+000	 1.056575436534872e+001
 4.519171696135725e+000	 1.893960712584378e+000	 1.058825437503224e+001
 4.500046942000333e+000	 1.938963001121667e+000	 1.059880782580231e+001
 4.480436146199654e+000	 1.983857842617758e+000	 1.061016744695986e+001
 4.460339600001268e+000	 2.028637634600431e+000	 1.062210038551898e+001
 4.439757748422287e+000	 2.073294753563625e+000	 1.063435947083519e+001
 4.418691191419258e+000	 2.117821558744462e+000	 1.064668315404797e+001
 4.397140684969790e+000	 2.162210395955151e+000	 1.065879548161940e+001
 4.375107142043407e+000	 2.206453601466294e+000	 1.067040610400773e+001
 4.352591633459181e+000	 2.250543505937929e+000	 1.065307309397495e+001
 4.579207382741428e+000	 1.812866444595856e+000	 1.053398948999333e+001
 4.560962363008558e+000	 1.858291506538120e+000	 1.056140102701618e+001
 4.542228694588986e+000	 1.903623777448118e+000	 1.057880415443838e+001
 4.523006365177878e+000	 1.948855669499077e+000	 1.058971411457117e+001
 4.503295514296952e+000	 1.993979566309507e+000	 1.060124730216258e+001
 4.483096434699842e+000	 2.038987826619062e+000	 1.061318104266787e+001
 4.462409573674162e+000	 2.083872788026244e+000	 1.062527842968128e+001
 4.441235534237454e+000	 2.128626770784687e+000	 1.063728825245374e+001
 4.419575076224358e+000	 2.173242081654623e+000	 1.064894495749861e+001
 4.397429117262409e+000	 2.217711017805991e+000	 1.065996864535114e+001
 4.374798733634036e+000	 2.262025870769545e+000	 1.066980564700290e+001
 4.602452090270778e+000	 1.822068812337153e+000	 1.053325521075024e+001
 4.584114456225539e+000	 1.867724458351285e+000	 1.055951308461878e+001
 4.565285693043254e+000	 1.913286842312534e+000	 1.057309642022641e+001
 4.545965788356632e+000	 1.958748337877238e+000	 1.058453118239223e+001
 4.526154882395619e+000	 2.004101290002073e+000	 1.059641221223018e+001
 4.505853269399911e+000	 2.049338018638566e+000	 1.060852696643934e+001
 4.485061398927613e+000	 2.094450822489781e+000	 1.062064874878009e+001
 4.463779877057269e+000	 2.139431982825866e+000	 1.063253662560769e+001
 4.442009467480551e+000	 2.184273767355074e+000	 1.064393537549625e+001
 4.419751092482994e+000	 2.228968434146683e+000	 1.065457547404629e+001
 4.397005833810392e+000	 2.273508235602161e+000	 1.066417311488667e+001
 4.625696797800613e+000	 1.831271180078945e+000	 1.053476554590924e+001
 4.607266549443284e+000	 1.877157410165040e+000	 1.055940128333804e+001
 4.588342691498529e+000	 1.922949907177625e+000	 1.057106176206198e+001
 4.568925211536594e+000	 1.968641006256150e+000	 1.058318601483198e+001
 4.549014250495659e+000	 2.014223013695455e+000	 1.059558553537000e+001
 4.528610104101475e+000	 2.059688210658943e+000	 1.060805786593675e+001
 4.507713224182639e+000	 2.105028856954236e+000	 1.062038646791385e+001
 4.486324219878705e+000	 2.150237194867999e+000	 1.063234062529267e+001
 4.464443858738363e+000	 2.195305453056505e+000	 1.064367538226657e+001
 4.442073067705161e+000	 2.240225850488371e+000	 1.065413151604696e+001
 4.419212933988254e+000	 2.284990600435776e+000	 1.066343554594191e+001
 4.648941505330933e+000	 1.840473547821232e+000	 1.053855152713614e+001
 4.630418642661795e+000	 1.886590361979385e+000	 1.055994524026834e+001
 4.611399689954811e+000	 1.932612972043392e+000	 1.057263138233168e+001
 4.591884634717767e+000	 1.978533674635814e+000	 1.058560627212453e+001
 4.571873618597071e+000	 2.024344737389654e+000	 1.059869136742982e+001
 4.551366938804533e+000	 2.070038402680192e+000	 1.061169425187982e+001
 4.530365049439246e+000	 2.115606891419609e+000	 1.062440849343642e+001
 4.508868562701761e+000	 2.161042406911086e+000	 1.063661353577347e+001
 4.486878249997798e+000	 2.206337138758915e+000	 1.064807462378550e+001
 4.464395042928914e+000	 2.251483266831053e+000	 1.065854276437178e+001
 4.441420034167620e+000	 2.296472965270393e+000	 1.066775472356180e+001
 4.219349032441642e+000	 2.181649316969236e+000	 1.069898406605323e+001
 4.197056754289153e+000	 2.224233486189214e+000	 1.069766066394254e+001
 4.174299802423162e+000	 2.266654177265143e+000	 1.069563488414116e+001
 4.151079677793085e+000	 2.308903962587824e+000	 1.069322255480095e+001
 4.127398036551244e+000	 2.350975424740407e+000	 1.069074134277795e+001
 4.103256690304888e+000	 2.392861160483732e+000	 1.068851039268664e+001
 4.078657606247211e+000	 2.434553784764503e+000	 1.068684996705814e+001
 4.053602907166103e+000	 2.476045934742122e+000	 1.068608108839088e+001
 4.028094871329415e+000	 2.517330273829837e+000	 1.069092796898645e+001
 4.002135932245784e+000	 2.558399495745879e+000	 1.070204423596362e+001
 3.975728678300154e+000	 2.599246328570120e+000	 1.071278007005660e+001
 4.241556132607472e+000	 2.193131681794851e+000	 1.067348875708100e+001
 4.219146526675409e+000	 2.235939978220896e+000	 1.067330345401159e+001
 4.196269801378701e+000	 2.278583936091637e+000	 1.067277646473169e+001
 4.172927465566494e+000	 2.321056088705192e+000	 1.067217620252472e+001
 4.149121184107708e+000	 2.363348979605680e+000	 1.067177214440841e+001
 4.124852778144358e+000	 2.405455166589519e+000	 1.067183451252633e+001
 4.100124225223292e+000	 2.447367225734717e+000	 1.067263395818442e+001
 4.074937659304965e+000	 2.489077755448879e+000	 1.067444124926935e+001
 4.049295370648115e+000	 2.530579380531643e+000	 1.068566802183468e+001
 4.023199805569314e+000	 2.571864756247122e+000	 1.069985483700645e+001
 3.996653566076591e+000	 2.612926572401926e+000	 1.071373813695697e+001
 4.263763232774805e+000	 2.204614046621467e+000	 1.065524659825508e+001
 4.241236299063069e+000	 2.247646470253574e+000	 1.065529714130188e+001
 4.218239800335543e+000	 2.290513694919109e+000	 1.065536312760325e+001
 4.194775253341109e+000	 2.333208214823516e+000	 1.065566596334811e+001
 4.170844331665274e+000	 2.375722534471873e+000	 1.065642734694065e+001
 4.146448865984832e+000	 2.418049172696183e+000	 1.065786899238284e+001
 4.121590844200275e+000	 2.460180666705753e+000	 1.066021235683759e+001
 4.096272411444630e+000	 2.502109576156394e+000	 1.066429257455929e+001
 4.070495869967516e+000	 2.543828487234131e+000	 1.068062249506361e+001
 4.044263678893448e+000	 2.585330016748961e+000	 1.069696339320702e+001
 4.017578453853528e+000	 2.626606816234234e+000	 1.071308152037125e+001
 4.285970332943644e+000	 2.216096411449083e+000	 1.064416978774919e+001
 4.263326071452134e+000	 2.259352962287246e+000	 1.064356705147483e+001
 4.240209799293691e+000	 2.302443453747564e+000	 1.064333340868172e+001
 4.216623041116927e+000	 2.345360340942795e+000	 1.064364366045317e+001
 4.192567479223944e+000	 2.388096089338986e+000	 1.064467213192420e+001
 4.168044953826307e+000	 2.430643178803723e+000	 1.064659243731306e+001
 4.143057463178162e+000	 2.472994107677609e+000	 1.064957725066367e+001
 4.117607163585099e+000	 2.515141396864667e+000	 1.065831112887243e+001
 4.091696369287622e+000	 2.557077593937302e+000	 1.067575014624842e+001
 4.065327552218185e+000	 2.598795277251399e+000	 1.069334226696697e+001
 4.038503341630969e+000	 2.640287060067045e+000	 1.071079626417624e+001
 4.308177433113985e+000	 2.227578776277698e+000	 1.064017184832565e+001
 4.285415843842603e+000	 2.271059454321914e+000	 1.063803955925211e+001
 4.262179798253142e+000	 2.314373212576999e+000	 1.063662661601843e+001
 4.238470828893949e+000	 2.357512467063031e+000	 1.063606161092901e+001
 4.214290626783717e+000	 2.400469644207022e+000	 1.063647189543818e+001
 4.189641041668788e+000	 2.443237184912141e+000	 1.063798338649303e+001
 4.164524082156952e+000	 2.485807548650289e+000	 1.064072038011212e+001
 4.138941915726370e+000	 2.528173217573696e+000	 1.065335386807431e+001
 4.112896868608430e+000	 2.570326700641154e+000	 1.067100882093694e+001
 4.086391425543523e+000	 2.612260537754435e+000	 1.068896262540706e+001
 4.059428229408913e+000	 2.653967303900358e+000	 1.070686693333173e+001
 4.330384533285831e+000	 2.239061141107313e+000	 1.064316759337161e+001
 4.307505616234475e+000	 2.282765946357576e+000	 1.063864206151665e+001
 4.284149797213895e+000	 2.326302971407412e+000	 1.063518280999207e+001
 4.260318616672174e+000	 2.369664593184222e+000	 1.063287261310750e+001
 4.236013774344594e+000	 2.412843199075978e+000	 1.063179224259057e+001
 4.211237129512270e+000	 2.455831191021433e+000	 1.063202031490728e+001
 4.185990701136645e+000	 2.498620989623789e+000	 1.063363314733832e+001
 4.160276667868445e+000	 2.541205038283481e+000	 1.064936478567507e+001
 4.134097367929940e+000	 2.583575807345689e+000	 1.066635547603494e+001
 4.107455298869464e+000	 2.625725798258067e+000	 1.068379447101535e+001
 4.080353117187359e+000	 2.667647547734174e+000	 1.070127665180135e+001
 4.352591633459181e+000	 2.250543505937929e+000	 1.065307309397495e+001
 4.329595388627752e+000	 2.294472438394234e+000	 1.064530295123718e+001
 4.306119796175953e+000	 2.338232730238808e+000	 1.063894278411663e+001
 4.282166404451603e+000	 2.381816719306368e+000	 1.063402993428661e+001
 4.257736921906573e+000	 2.425216753945855e+000	 1.063059898218576e+001
 4.232833217356757e+000	 2.468425197131603e+000	 1.062868163498633e+001
 4.207457320117240e+000	 2.511434430598111e+000	 1.063186670512801e+001
 4.181611420011321e+000	 2.554236858994024e+000	 1.064628727767327e+001
 4.155297867252154e+000	 2.596824914050907e+000	 1.066174620247553e+001
 4.128519172196009e+000	 2.639191058762298e+000	 1.067780667135726e+001
 4.101278004966307e+000	 2.681327791568492e+000	 1.069400713931278e+001
 4.374798733634036e+000	 2.262025870769545e+000	 1.066980564700290e+001
 4.351685161022432e+000	 2.306178930431887e+000	 1.065795159218674e+001
 4.328089795139315e+000	 2.350162489071183e+000	 1.064784804643394e+001
 4.304014192232236e+000	 2.393968845429471e+000	 1.063948729882781e+001
 4.279460069469657e+000	 2.437590308816653e+000	 1.063285812155468e+001
 4.254429305202247e+000	 2.481019203242649e+000	 1.062794569819434e+001
 4.228923939098740e+000	 2.524247871573255e+000	 1.063224261947268e+001
 4.202946172155001e+000	 2.567268679705325e+000	 1.064406415772119e+001
 4.176498366575070e+000	 2.610074020756807e+000	 1.065713624719825e+001
 4.149583045523156e+000	 2.652656319267126e+000	 1.067096698788068e+001
 4.122202892745759e+000	 2.695008035403313e+000	 1.068503874699821e+001
 4.397005833810392e+000	 2.273508235602161e+000	 1.066417311488667e+001
 4.373774933418516e+000	 2.317885422470535e+000	 1.067651829442752e+001
 4.350059794103981e+000	 2.362092247904538e+000	 1.066184080147003e+001
 4.325861980014071e+000	 2.406120971553528e+000	 1.064919887661399e+001
 4.301183217033842e+000	 2.449963863688371e+000	 1.063853586154145e+001
 4.276025393048739e+000	 2.493613209354571e+000	 1.062979079656871e+001
 4.250390558081143e+000	 2.537061312549222e+000	 1.063426166896690e+001
 4.224280924299484e+000	 2.580300500417383e+000	 1.064263767183053e+001
 4.197698865898689e+000	 2.623323127463389e+000	 1.065248003446194e+001
 4.170646918850905e+000	 2.666121579772552e+000	 1.066324210384826e+001
 4.143127780525714e+000	 2.708688279238637e+000	 1.067435049195484e+001
 4.419212933988254e+000	 2.284990600435776e+000	 1.066343554594191e+001
 4.395864705816003e+000	 2.329591914510178e+000	 1.067473746577366e+001
 4.372029793069951e+000	 2.374022006738874e+000	 1.068086393273551e+001
 4.347709767797112e+000	 2.418273097678542e+000	 1.066311927185550e+001
 4.322906364599133e+000	 2.462337418561011e+000	 1.064759859164127e+001
 4.297621480896234e+000	 2.506207215467370e+000	 1.063601655084996e+001
 4.271857177064447e+000	 2.549874753526010e+000	 1.063785370263129e+001
 4.245615676444771e+000	 2.593332321130198e+000	 1.064194951263474e+001
 4.218899365223010e+000	 2.636572234170654e+000	 1.064773118651517e+001
 4.191710792179259e+000	 2.679586840278576e+000	 1.065459765142746e+001
 4.164052668306169e+000	 2.722368523074463e+000	 1.066192009076334e+001
 4.441420034167620e+000	 2.296472965270393e+000	 1.066775472356180e+001
 4.417954478214896e+000	 2.341298406550817e+000	 1.067573991346538e+001
 4.393999792037225e+000	 2.385951765574191e+000	 1.068235608276875e+001
 4.369557555581356e+000	 2.430425223804511e+000	 1.068120351223193e+001
 4.344629512165529e+000	 2.474710973434573e+000	 1.066001288528410e+001
 4.319217568744735e+000	 2.518801221581046e+000	 1.064649067997471e+001
 4.293323796048657e+000	 2.562688194503620e+000	 1.064294827180476e+001
 4.266950428590861e+000	 2.606364141843770e+000	 1.064194083322348e+001
 4.240099864548036e+000	 2.649821340878601e+000	 1.064284254364650e+001
 4.212774665508213e+000	 2.693052100785196e+000	 1.064499823796795e+001
 4.184977556087130e+000	 2.736048766910793e+000	 1.064772399200074e+001
 3.975728678300154e+000	 2.599246328570120e+000	 1.071278007005660e+001
 3.948875852262866e+000	 2.639863538801905e+000	 1.071453867336100e+001
 3.921580350673420e+000	 2.680243935414237e+000	 1.072014144717552e+001
 3.893845223097610e+000	 2.720380373899949e+000	 1.072901380770516e+001
 3.865673671256817e+000	 2.760265760305474e+000	 1.074055677297206e+001
 3.837069048031190e+000	 2.799893055247307e+000	 1.075414772308845e+001
 3.808034856336499e+000	 2.839255277906679e+000	 1.076914123154567e+001
 3.778574747875074e+000	 2.878345509997804e+000	 1.078486996641730e+001
 3.748692521761567e+000	 2.917156899705098e+000	 1.079802002124826e+001
 3.718392123024358e+000	 2.955682665584793e+000	 1.075416745620325e+001
 3.687677640983678e+000	 2.993916100426382e+000	 1.071273665829547e+001
 3.996653566076591e+000	 2.612926572401926e+000	 1.071373813695697e+001
 3.969659409375954e+000	 2.653757557424342e+000	 1.071238274244085e+001
 3.942220247251892e+000	 2.694350482439861e+000	 1.071432859736247e+001
 3.914339145320548e+000	 2.734698165338652e+000	 1.071903827319525e+001
 3.886019322154460e+000	 2.774793474830545e+000	 1.072595019127754e+001
 3.857264148280525e+000	 2.814629334482651e+000	 1.073447934893344e+001
 3.828077145050904e+000	 2.854198726735047e+000	 1.074401811667790e+001
 3.798461983387418e+000	 2.893494696889920e+000	 1.075393710545814e+001
 3.768422482400057e+000	 2.932510357069494e+000	 1.076358610265228e+001
 3.737962607880510e+000	 2.971238890138198e+000	 1.074913986674725e+001
 3.707086470671743e+000	 3.009673553584413e+000	 1.070007719546388e+001
 4.017578453853528e+000	 2.626606816234234e+000	 1.071308152037125e+001
 3.990442966489449e+000	 2.667651576047185e+000	 1.070934675330385e+001
 3.962860143830687e+000	 2.708457029465810e+000	 1.070838200460578e+001
 3.934833067543729e+000	 2.749015956777602e+000	 1.070968658762776e+001
 3.906364973052286e+000	 2.789321189355798e+000	 1.071273589917846e+001
 3.877459248529986e+000	 2.829365613718120e+000	 1.071698211184638e+001
 3.848119433765392e+000	 2.869142175563498e+000	 1.072185493750003e+001
 3.818349218899808e+000	 2.908643883782080e+000	 1.072676246097295e+001
 3.788152443038568e+000	 2.947863814433913e+000	 1.073109204270683e+001
 3.757533092736664e+000	 2.986795114691607e+000	 1.073421128889405e+001
 3.726495300359807e+000	 3.025431006742444e+000	 1.069257050202024e+001
 4.038503341630969e+000	 2.640287060067045e+000	 1.071079626417624e+001
 4.011226523603352e+000	 2.681545594670439e+000	 1.070540496128252e+001
 3.983500040409803e+000	 2.722563576492080e+000	 1.070226408788821e+001
 3.955326989767160e+000	 2.763333748216800e+000	 1.070090929083665e+001
 3.926710623950293e+000	 2.803848903881233e+000	 1.070085251958901e+001
 3.897654348779573e+000	 2.844101892953717e+000	 1.070158268509592e+001
 3.868161722479959e+000	 2.884085624392028e+000	 1.070256638996803e+001
 3.838236454412243e+000	 2.923793070674288e+000	 1.070324872900542e+001
 3.807882403677098e+000	 2.963217271798351e+000	 1.070305415891166e+001
 3.777103577592825e+000	 3.002351339245024e+000	 1.070138743578458e+001
 3.745904130047871e+000	 3.041188459900474e+000	 1.069024127842354e+001
 4.059428229408913e+000	 2.653967303900358e+000	 1.070686693333173e+001
 4.032010080717662e+000	 2.695439613294097e+000	 1.070053038550489e+001
 4.004139936989244e+000	 2.736670123518674e+000	 1.069593627487424e+001
 3.975820911990837e+000	 2.777651539656244e+000	 1.069265617828756e+001
 3.947056274848482e+000	 2.818376618406849e+000	 1.069023817995668e+001
 3.917849449029286e+000	 2.858838172189438e+000	 1.068820749722375e+001
 3.888204011194608e+000	 2.899029073220639e+000	 1.068606717777329e+001
 3.858123689924725e+000	 2.938942257566539e+000	 1.068329886740306e+001
 3.827612364315648e+000	 2.978570729162808e+000	 1.067936364723121e+001
 3.796674062448990e+000	 3.017907563798444e+000	 1.067370293898237e+001
 3.765312959735935e+000	 3.056945913058504e+000	 1.066573947676258e+001
 4.080353117187359e+000	 2.667647547734174e+000	 1.070127665180135e+001
 4.052793637832379e+000	 2.709333631918165e+000	 1.069469484059202e+001
 4.024779833569006e+000	 2.750776670545588e+000	 1.068935902732856e+001
 3.996314834214760e+000	 2.791969331095935e+000	 1.068487632016422e+001
 3.967401925746854e+000	 2.832904332932648e+000	 1.068083052496658e+001
 3.938044549279125e+000	 2.873574451425288e+000	 1.067678273831960e+001
 3.908246299909337e+000	 2.913972522049331e+000	 1.067227201214432e+001
 3.878010925437251e+000	 2.954091444458837e+000	 1.066681608910428e+001
 3.847342324954219e+000	 2.993924186527287e+000	 1.065991220772419e+001
 3.816244547305162e+000	 3.033463788351870e+000	 1.065103797591435e+001
 3.784721789423999e+000	 3.072703366216536e+000	 1.063965231135920e+001
 4.101278004966307e+000	 2.681327791568492e+000	 1.069400713931278e+001
 4.073577194947506e+000	 2.723227650542639e+000	 1.068786896738519e+001
 4.045419730149088e+000	 2.764883217572826e+000	 1.068249186575637e+001
 4.016808756438932e+000	 2.806287122535875e+000	 1.067751807987051e+001
 3.987747576645406e+000	 2.847432047458628e+000	 1.067256672885682e+001
 3.958239649529090e+000	 2.888310730661262e+000	 1.066723436610424e+001
 3.928288588624146e+000	 2.928915970878103e+000	 1.066109561165447e+001
 3.897898160949822e+000	 2.969240631351180e+000	 1.065370385563102e+001
 3.867072285592811e+000	 3.009277643891787e+000	 1.064459203168398e+001
 3.835815032161338e+000	 3.049020012905300e+000	 1.063327345919231e+001
 3.804130619112063e+000	 3.088460819374566e+000	 1.061924275272926e+001
 4.122202892745759e+000	 2.695008035403313e+000	 1.068503874699821e+001
 4.094360752063038e+000	 2.737121669167521e+000	 1.068002226273731e+001
 4.066059626729495e+000	 2.778989764600385e+000	 1.067529339329314e+001
 4.037302678663351e+000	 2.820604913976060e+000	 1.067052913196906e+001
 4.008093227544140e+000	 2.861959761984789e+000	 1.066538350735874e+001
 3.978434749779183e+000	 2.903047009897364e+000	 1.065948811182717e+001
 3.948330877339038e+000	 2.943859419706957e+000	 1.065245270203551e+001
 3.917785396462439e+000	 2.984389818243568e+000	 1.064386587077943e+001
 3.886802246231422e+000	 3.024631101256305e+000	 1.063329578917081e+001
 3.855385517017518e+000	 3.064576237458736e+000	 1.062029101795349e+001
 3.823539448800127e+000	 3.104218272532597e+000	 1.060438138650544e+001
 4.143127780525714e+000	 2.708688279238637e+000	 1.067435049195484e+001
 4.115144309178978e+000	 2.751015687792811e+000	 1.067112310840154e+001
 4.086699523310224e+000	 2.793096311628269e+000	 1.066772131887063e+001
 4.057796600888016e+000	 2.834922705416492e+000	 1.066385647957619e+001
 4.028438878443054e+000	 2.876487476511132e+000	 1.065921712927540e+001
 3.998629850029400e+000	 2.917783289133591e+000	 1.065346948598555e+001
 3.968373166054010e+000	 2.958802868535892e+000	 1.064625801599685e+001
 3.937672631975102e+000	 2.999539005136003e+000	 1.063720607450190e+001
 3.906532206870054e+000	 3.039984558620844e+000	 1.062591661692162e+001
 3.874956001873705e+000	 3.080132462012176e+000	 1.061197297976640e+001
 3.842948278488191e+000	 3.119975725690628e+000	 1.059493972963138e+001
 4.164052668306169e+000	 2.722368523074463e+000	 1.066192009076334e+001
 4.135927866295327e+000	 2.764909706418508e+000	 1.066113879904877e+001
 4.107339419891274e+000	 2.807202858656472e+000	 1.065973247968421e+001
 4.078290523112928e+000	 2.849240496857172e+000	 1.065744647123249e+001
 4.048784529342152e+000	 2.891015191037656e+000	 1.065400342771093e+001
 4.018824950279745e+000	 2.932519568369945e+000	 1.064910378387077e+001
 3.988415454769063e+000	 2.973746317364907e+000	 1.064242629305023e+001
 3.957559867487811e+000	 3.014688192028483e+000	 1.063362863697348e+001
 3.926262167508706e+000	 3.055338015985404e+000	 1.062234810662456e+001
 3.894526486729896e+000	 3.095688686565622e+000	 1.060820235308241e+001
 3.862357108176255e+000	 3.135733178848658e+000	 1.059918641601085e+001
 4.184977556087130e+000	 2.736048766910793e+000	 1.064772399200074e+001
 4.156711423412083e+000	 2.778803725044614e+000	 1.065003556944477e+001
 4.127979316472650e+000	 2.821309405685000e+000	 1.065128286298634e+001
 4.098784445338088e+000	 2.863558288298099e+000	 1.065124481726712e+001
 4.069130180241432e+000	 2.905542905564363e+000	 1.064967781096301e+001
 4.039020050530216e+000	 2.947255847606425e+000	 1.064631609094861e+001
 4.008457743484196e+000	 2.988689766194003e+000	 1.064087227933966e+001
 3.977447103000566e+000	 3.029837378921008e+000	 1.063303795283629e+001
 3.945992128147379e+000	 3.070691473349984e+000	 1.062248429354516e+001
 3.914096971586093e+000	 3.111244911119073e+000	 1.060886281021353e+001
 3.881765937864321e+000	 3.151490632006690e+000	 1.061162828141214e+001
 3.687677640983678e+000	 2.993916100426382e+000	 1.071273665829547e+001
 3.656553307508218e+000	 3.031850575069264e+000	 1.068743309244763e+001
 3.625023495149993e+000	 3.069479542170489e+000	 1.065861608389970e+001
 3.593092715160352e+000	 3.106796539918756e+000	 1.062735550563565e+001
 3.560765615389834e+000	 3.143795195690242e+000	 1.061576541788769e+001
 3.528046978072291e+000	 3.180469229642300e+000	 1.062214750507325e+001
 3.494941717495988e+000	 3.216812458240655e+000	 1.062540337388142e+001
 3.461454877564024e+000	 3.252818797715964e+000	 1.062512196682819e+001
 3.427591629246610e+000	 3.288482267445716e+000	 1.062089047873982e+001
 3.393357267927864e+000	 3.323796993257524e+000	 1.061229548852599e+001
 3.358757210650000e+000	 3.358757210650000e+000	 1.059892410305090e+001
 3.707086470671743e+000	 3.009673553584413e+000	 1.070007719546388e+001
 3.675798324915369e+000	 3.047807683357208e+000	 1.067032269310310e+001
 3.644102566176766e+000	 3.085634697653921e+000	 1.063780718319230e+001
 3.612003729450707e+000	 3.123148100653718e+000	 1.060360338041271e+001
 3.579506487050102e+000	 3.160341486192651e+000	 1.060795909689999e+001
 3.546615646378458e+000	 3.197208541376272e+000	 1.061261166234370e+001
 3.513336147588712e+000	 3.233743050125383e+000	 1.061504807825282e+001
 3.479673061130823e+000	 3.269938896650808e+000	 1.061482613696362e+001
 3.445631585190633e+000	 3.305790068853071e+000	 1.061150090949918e+001
 3.411217043022705e+000	 3.341290661643093e+000	 1.060462592153204e+001
 3.376434880180000e+000	 3.376434880180000e+000	 1.059375434290572e+001
 3.726495300359807e+000	 3.025431006742444e+000	 1.069257050202024e+001
 3.695043342322521e+000	 3.063764791645150e+000	 1.065799810510098e+001
 3.663181637203538e+000	 3.101789853137353e+000	 1.062140279011516e+001
 3.630914743741060e+000	 3.139499661388680e+000	 1.059983785158267e+001
 3.598247358710371e+000	 3.176887776695061e+000	 1.060330044716979e+001
 3.565184314684625e+000	 3.213947853110242e+000	 1.060591841132398e+001
 3.531730577681437e+000	 3.250673642010112e+000	 1.060722326398259e+001
 3.497891244697622e+000	 3.287058995585652e+000	 1.060674163091948e+001
 3.463671541134656e+000	 3.323097870260428e+000	 1.060399644582139e+001
 3.429076818117546e+000	 3.358784330028661e+000	 1.059850817059916e+001
 3.394112549710000e+000	 3.394112549710000e+000	 1.058979603071756e+001
 3.745904130047871e+000	 3.041188459900474e+000	 1.069024127842354e+001
 3.714288359729673e+000	 3.079721899933094e+000	 1.065048759646588e+001
 3.682260708230310e+000	 3.117945008620784e+000	 1.060943483468506e+001
 3.649825758031414e+000	 3.155851222123642e+000	 1.060152704967174e+001
 3.616988230370638e+000	 3.193434067197471e+000	 1.060172948067803e+001
 3.583752982990792e+000	 3.230687164844213e+000	 1.060201361711080e+001
 3.550125007774161e+000	 3.267604233894841e+000	 1.060188080332516e+001
 3.516109428264421e+000	 3.304179094520495e+000	 1.060082647851728e+001
 3.481711497078680e+000	 3.340405671667783e+000	 1.059834142176267e+001
 3.446936593212388e+000	 3.376277998414229e+000	 1.059391301683902e+001
 3.411790219240000e+000	 3.411790219240000e+000	 1.058702653352631e+001
 3.765312959735935e+000	 3.056945913058504e+000	 1.066573947676258e+001
 3.733533377136824e+000	 3.095679008221037e+000	 1.064782037558737e+001
 3.701339779257082e+000	 3.134100164104215e+000	 1.061139790109246e+001
 3.668736772321767e+000	 3.172202782858603e+000	 1.060653136702253e+001
 3.635729102030907e+000	 3.209980357699881e+000	 1.060318685588574e+001
 3.602321651296959e+000	 3.247426476578185e+000	 1.060084368759368e+001
 3.568519437866884e+000	 3.284534825779570e+000	 1.059897300485520e+001
 3.534327611831220e+000	 3.321299193455340e+000	 1.059703903669023e+001
 3.499751453022704e+000	 3.357713473075139e+000	 1.059450038659754e+001
 3.464796368307229e+000	 3.393771666799797e+000	 1.059081134205635e+001
 3.429467888769999e+000	 3.429467888769999e+000	 1.058542320196246e+001
 3.784721789423999e+000	 3.072703366216536e+000	 1.063965231135920e+001
 3.752778394543975e+000	 3.111636116508981e+000	 1.064536234406840e+001
 3.720418850283854e+000	 3.150255319587648e+000	 1.062442362615755e+001
 3.687647786612122e+000	 3.188554343593566e+000	 1.061478659556858e+001
 3.654469973691175e+000	 3.226526648202292e+000	 1.060761386115755e+001
 3.620890319603125e+000	 3.264165788312155e+000	 1.060235555953708e+001
 3.586913867959608e+000	 3.301465417664299e+000	 1.059845260227980e+001
 3.552545795398019e+000	 3.338419292390184e+000	 1.059533798109566e+001
 3.517791408966728e+000	 3.375021274482495e+000	 1.059243809930046e+001
 3.482656143402070e+000	 3.411265335185366e+000	 1.058917412616706e+001
 3.447145558300000e+000	 3.447145558300000e+000	 1.058496337066782e+001
 3.804130619112063e+000	 3.088460819374566e+000	 1.061924275272926e+001
 3.772023411951127e+000	 3.127593224796924e+000	 1.062286152872389e+001
 3.739497921310627e+000	 3.166410475071078e+000	 1.064090628116063e+001
 3.706558800902476e+000	 3.204905904328529e+000	 1.062622923683976e+001
 3.673210845351445e+000	 3.243072938704701e+000	 1.061495239869277e+001
 3.639458987909292e+000	 3.280905100046127e+000	 1.060649668508875e+001
 3.605308298052333e+000	 3.318396009549027e+000	 1.060027274359333e+001
 3.570763978964818e+000	 3.355539391325027e+000	 1.059568229798440e+001
 3.535831364910752e+000	 3.392329075889852e+000	 1.059211952319628e+001
 3.500515918496912e+000	 3.428759003570934e+000	 1.058897244469550e+001
 3.464823227830000e+000	 3.464823227830000e+000	 1.058562435870338e+001
 3.823539448800127e+000	 3.104218272532597e+000	 1.060438138650544e+001
 3.791268429358279e+000	 3.143550333084867e+000	 1.061746701905513e+001
 3.758576992337398e+000	 3.182565630554509e+000	 1.064752962725394e+001
 3.725469815192831e+000	 3.221257465063491e+000	 1.064079648395224e+001
 3.691951717011712e+000	 3.259619229207111e+000	 1.062514496894584e+001
 3.658027656215458e+000	 3.297644411780098e+000	 1.061321501869894e+001
 3.623702728145057e+000	 3.335326601433756e+000	 1.060438698056256e+001
 3.588982162531616e+000	 3.372659490259871e+000	 1.059803127631762e+001
 3.553871320854775e+000	 3.409636877297207e+000	 1.059350982077369e+001
 3.518375693591752e+000	 3.446252671956502e+000	 1.059017746634773e+001
 3.482500897360000e+000	 3.482500897360000e+000	 1.058738346994480e+001
 3.842948278488191e+000	 3.119975725690628e+000	 1.059493972963138e+001
 3.810513446765430e+000	 3.159507441372810e+000	 1.061612610266568e+001
 3.777656063364171e+000	 3.198720786037942e+000	 1.064161577131642e+001
 3.744380829483185e+000	 3.237609025798454e+000	 1.065842620414417e+001
 3.710692588671980e+000	 3.276165519709520e+000	 1.063813465551881e+001
 3.676596324521626e+000	 3.314383723514069e+000	 1.062245900443595e+001
 3.642097158237782e+000	 3.352257193318485e+000	 1.061074925853027e+001
 3.607200346098415e+000	 3.389779589194715e+000	 1.060234450012267e+001
 3.571911276798799e+000	 3.426944678704563e+000	 1.059657434865587e+001
 3.536235468686593e+000	 3.463746340342071e+000	 1.059276045065851e+001
 3.500178566889999e+000	 3.500178566889999e+000	 1.059021799346587e+001
 3.862357108176255e+000	 3.135733178848658e+000	 1.059918641601085e+001
 3.829758464172582e+000	 3.175464549660754e+000	 1.061875021985375e+001
 3.796735134390942e+000	 3.214875941521374e+000	 1.063944387115670e+001
 3.763291843773539e+000	 3.253960586533416e+000	 1.066034403774464e+001
 3.729433460332249e+000	 3.292711810211931e+000	 1.065386511050946e+001
 3.695164992827793e+000	 3.331123035248041e+000	 1.063417756368421e+001
 3.660491588330505e+000	 3.369187785203213e+000	 1.061931390652653e+001
 3.625418529665214e+000	 3.406899688129558e+000	 1.060858184107936e+001
 3.589951232742823e+000	 3.444252480111920e+000	 1.060127865272271e+001
 3.554095243781435e+000	 3.481240008727639e+000	 1.059669274570917e+001
 3.517856236419999e+000	 3.517856236419999e+000	 1.059410520391038e+001
 3.881765937864321e+000	 3.151490632006690e+000	 1.061162828141214e+001
 3.849003481579734e+000	 3.191421657948697e+000	 1.062525161717390e+001
 3.815814205417716e+000	 3.231031097004806e+000	 1.064093105586859e+001
 3.782202858063894e+000	 3.270312147268379e+000	 1.065771161079741e+001
 3.748174331992518e+000	 3.309258100714341e+000	 1.067228054029886e+001
 3.713733661133960e+000	 3.347862346982012e+000	 1.064832008321137e+001
 3.678886018423230e+000	 3.386118377087943e+000	 1.063003562767643e+001
 3.643636713232014e+000	 3.424019787064403e+000	 1.061670345132860e+001
 3.607991188686847e+000	 3.461560281519276e+000	 1.060758846337936e+001
 3.571955018876276e+000	 3.498733677113208e+000	 1.060194578591394e+001
 3.535533905950000e+000	 3.535533905950000e+000	 1.059902236185289e+001
 3.358757210650000e+000	 3.358757210650000e+000	 1.059892410305090e+001
 3.323796993257525e+000	 3.393357267927863e+000	 1.058962078295645e+001
 3.288482267445717e+000	 3.427591629246607e+000	 1.058501248334698e+001
 3.252818797715966e+000	 3.461454877564024e+000	 1.058460611952029e+001
 3.216812458240656e+000	 3.494941717495987e+000	 1.058790397047366e+001
 3.180469229642302e+000	 3.528046978072290e+000	 1.059440494799373e+001
 3.143795195690242e+000	 3.560765615389833e+000	 1.060360587174190e+001
 3.106796539918757e+000	 3.593092715160351e+000	 1.058136077095580e+001
 3.069479542170491e+000	 3.625023495149992e+000	 1.052953554523127e+001
 3.031850575069266e+000	 3.656553307508217e+000	 1.048562651884558e+001
 2.993916100426382e+000	 3.687677640983678e+000	 1.045138613064246e+001
 3.376434880180000e+000	 3.376434880180000e+000	 1.059375434290572e+001
 3.341290661643093e+000	 3.411217043022703e+000	 1.058557473783330e+001
 3.305790068853073e+000	 3.445631585190631e+000	 1.058079446612756e+001
 3.269938896650809e+000	 3.479673061130822e+000	 1.057889691944951e+001
 3.233743050125385e+000	 3.513336147588712e+000	 1.057936205231112e+001
 3.197208541376273e+000	 3.546615646378457e+000	 1.058166768578917e+001
 3.160341486192652e+000	 3.579506487050101e+000	 1.058529081560910e+001
 3.123148100653719e+000	 3.612003729450704e+000	 1.058638050699230e+001
 3.085634697653922e+000	 3.644102566176764e+000	 1.052670097953208e+001
 3.047807683357208e+000	 3.675798324915367e+000	 1.047359803199379e+001
 3.009673553584413e+000	 3.707086470671743e+000	 1.042885943434660e+001
 3.394112549710000e+000	 3.394112549710000e+000	 1.058979603071756e+001
 3.358784330028662e+000	 3.429076818117545e+000	 1.058256670806726e+001
 3.323097870260429e+000	 3.463671541134656e+000	 1.057745486368063e+001
 3.287058995585653e+000	 3.497891244697621e+000	 1.057392026956900e+001
 3.250673642010114e+000	 3.531730577681436e+000	 1.057142045018440e+001
 3.213947853110243e+000	 3.565184314684624e+000	 1.056941202101202e+001
 3.176887776695063e+000	 3.598247358710369e+000	 1.056735202991910e+001
 3.139499661388681e+000	 3.630914743741059e+000	 1.056469929770817e+001
 3.101789853137354e+000	 3.663181637203536e+000	 1.052222781984803e+001
 3.063764791645151e+000	 3.695043342322519e+000	 1.045964551043545e+001
 3.025431006742444e+000	 3.726495300359807e+000	 1.040413492355663e+001
 3.411790219240000e+000	 3.411790219240000e+000	 1.058702653352631e+001
 3.376277998414230e+000	 3.446936593212386e+000	 1.058057807650945e+001
 3.340405671667785e+000	 3.481711497078680e+000	 1.057497888025265e+001
 3.304179094520497e+000	 3.516109428264420e+000	 1.056966499841986e+001
 3.267604233894843e+000	 3.550125007774160e+000	 1.056407141726770e+001
 3.230687164844215e+000	 3.583752982990790e+000	 1.055763342937430e+001
 3.193434067197472e+000	 3.616988230370637e+000	 1.054978800852242e+001
 3.155851222123644e+000	 3.649825758031413e+000	 1.053997518211041e+001
 3.117945008620786e+000	 3.682260708230309e+000	 1.051623632133373e+001
 3.079721899933096e+000	 3.714288359729672e+000	 1.044388801839937e+001
 3.041188459900474e+000	 3.745904130047871e+000	 1.037733022547550e+001
 3.429467888769999e+000	 3.429467888769999e+000	 1.058542320196246e+001
 3.393771666799799e+000	 3.464796368307228e+000	 1.057959014575011e+001
 3.357713473075141e+000	 3.499751453022703e+000	 1.057335158021796e+001
 3.321299193455341e+000	 3.534327611831218e+000	 1.056611973932774e+001
 3.284534825779570e+000	 3.568519437866883e+000	 1.055730696046934e+001
 3.247426476578187e+000	 3.602321651296957e+000	 1.054632709358670e+001
 3.209980357699883e+000	 3.635729102030906e+000	 1.053259690986733e+001
 3.172202782858606e+000	 3.668736772321767e+000	 1.051553750629362e+001
 3.134100164104217e+000	 3.701339779257082e+000	 1.049457570236810e+001
 3.095679008221039e+000	 3.733533377136823e+000	 1.042644418366812e+001
 3.056945913058505e+000	 3.765312959735935e+000	 1.038309003510275e+001
 3.447145558300000e+000	 3.447145558300000e+000	 1.058496337066782e+001
 3.411265335185366e+000	 3.482656143402068e+000	 1.057958414017662e+001
 3.375021274482497e+000	 3.517791408966727e+000	 1.057255789166526e+001
 3.338419292390184e+000	 3.552545795398016e+000	 1.056327293540837e+001
 3.301465417664300e+000	 3.586913867959607e+000	 1.055111884674619e+001
 3.264165788312157e+000	 3.620890319603124e+000	 1.053548791087147e+001
 3.226526648202292e+000	 3.654469973691175e+000	 1.051577656559996e+001
 3.188554343593569e+000	 3.687647786612121e+000	 1.049138683834764e+001
 3.150255319587648e+000	 3.720418850283852e+000	 1.046172777355410e+001
 3.111636116508982e+000	 3.752778394543974e+000	 1.041346559934138e+001
 3.072703366216536e+000	 3.784721789423999e+000	 1.039555328311424e+001
 3.464823227830000e+000	 3.464823227830000e+000	 1.058562435870338e+001
 3.428759003570936e+000	 3.500515918496910e+000	 1.058054120796841e+001
 3.392329075889854e+000	 3.535831364910751e+000	 1.057258260987428e+001
 3.355539391325028e+000	 3.570763978964817e+000	 1.056111284441978e+001
 3.318396009549028e+000	 3.605308298052331e+000	 1.054549860922495e+001
 3.280905100046128e+000	 3.639458987909290e+000	 1.052511050024525e+001
 3.243072938704702e+000	 3.673210845351442e+000	 1.049932448890105e+001
 3.204905904328530e+000	 3.706558800902476e+000	 1.046752339176855e+001
 3.166410475071081e+000	 3.739497921310626e+000	 1.042909832899899e+001
 3.127593224796926e+000	 3.772023411951126e+000	 1.043063077051114e+001
 3.088460819374566e+000	 3.804130619112063e+000	 1.040547096839001e+001
 3.482500897360000e+000	 3.482500897360000e+000	 1.058738346994480e+001
 3.446252671956504e+000	 3.518375693591751e+000	 1.058244242303124e+001
 3.409636877297208e+000	 3.553871320854773e+000	 1.057341040068656e+001
 3.372659490259872e+000	 3.588982162531616e+000	 1.055962754346694e+001
 3.335326601433758e+000	 3.623702728145056e+000	 1.054043755313689e+001
 3.297644411780099e+000	 3.658027656215457e+000	 1.051518920958018e+001
 3.259619229207112e+000	 3.691951717011711e+000	 1.048323788256886e+001
 3.221257465063492e+000	 3.725469815192829e+000	 1.044394703445844e+001
 3.182565630554512e+000	 3.758576992337398e+000	 1.041401095976087e+001
 3.143550333084868e+000	 3.791268429358277e+000	 1.042800545757255e+001
 3.104218272532596e+000	 3.823539448800127e+000	 1.041290615554747e+001
 3.500178566889999e+000	 3.500178566889999e+000	 1.059021799346587e+001
 3.463746340342071e+000	 3.536235468686592e+000	 1.058526878687275e+001
 3.426944678704565e+000	 3.571911276798797e+000	 1.057502580377406e+001
 3.389779589194716e+000	 3.607200346098414e+000	 1.055880493356361e+001
 3.352257193318486e+000	 3.642097158237780e+000	 1.053592676157272e+001
 3.314383723514070e+000	 3.676596324521623e+000	 1.050571812245091e+001
 3.276165519709522e+000	 3.710692588671980e+000	 1.046751364685708e+001
 3.237609025798454e+000	 3.744380829483183e+000	 1.042065729745260e+001
 3.198720786037943e+000	 3.777656063364170e+000	 1.041949933958765e+001
 3.159507441372812e+000	 3.810513446765429e+000	 1.042439736162206e+001
 3.119975725690628e+000	 3.842948278488191e+000	 1.041792149303078e+001
 3.517856236419999e+000	 3.517856236419999e+000	 1.059410520391038e+001
 3.481240008727641e+000	 3.554095243781433e+000	 1.058900123042150e+001
 3.444252480111921e+000	 3.589951232742822e+000	 1.057741323580936e+001
 3.406899688129559e+000	 3.625418529665213e+000	 1.055863274405673e+001
 3.369187785203215e+000	 3.660491588330504e+000	 1.053195710106418e+001
 3.331123035248041e+000	 3.695164992827790e+000	 1.049669106477532e+001
 3.292711810211932e+000	 3.729433460332248e+000	 1.045214838707650e+001
 3.253960586533417e+000	 3.763291843773537e+000	 1.042238989790522e+001
 3.214875941521374e+000	 3.796735134390942e+000	 1.042404300345236e+001
 3.175464549660755e+000	 3.829758464172581e+000	 1.041982529666927e+001
 3.135733178848659e+000	 3.862357108176256e+000	 1.040869829806890e+001
 3.535533905950000e+000	 3.535533905950000e+000	 1.059902236185289e+001
 3.498733677113209e+000	 3.571955018876275e+000	 1.059362061579151e+001
 3.461560281519278e+000	 3.607991188686845e+000	 1.058055699354049e+001
 3.424019787064404e+000	 3.643636713232012e+000	 1.055909853691817e+001
 3.386118377087944e+000	 3.678886018423229e+000	 1.052851922699784e+001
 3.347862346982013e+000	 3.713733661133958e+000	 1.048810161125588e+001
 3.309258100714343e+000	 3.748174331992517e+000	 1.043713842096853e+001
 3.270312147268379e+000	 3.782202858063892e+000	 1.043385609076130e+001
 3.231031097004808e+000	 3.815814205417715e+000	 1.042765784868702e+001
 3.191421657948699e+000	 3.849003481579733e+000	 1.041430770252063e+001
 3.151490632006690e+000	 3.881765937864321e+000	 1.039274396646162e+001
 2.993916100426382e+000	 3.687677640983678e+000	 1.045138613064246e+001
 2.955682665584793e+000	 3.718392123024356e+000	 1.038555681644570e+001
 2.917156899705098e+000	 3.748692521761566e+000	 1.032119616922999e+001
 2.878345509997806e+000	 3.778574747875073e+000	 1.032285039889155e+001
 2.839255277906680e+000	 3.808034856336499e+000	 1.032507544697468e+001
 2.799893055247309e+000	 3.837069048031190e+000	 1.032374899933167e+001
 2.760265760305475e+000	 3.865673671256816e+000	 1.031775280588552e+001
 2.720380373899951e+000	 3.893845223097609e+000	 1.030600216541313e+001
 2.680243935414238e+000	 3.921580350673420e+000	 1.028744803969599e+001
 2.639863538801907e+000	 3.948875852262866e+000	 1.026107906631617e+001
 2.599246328570120e+000	 3.975728678300154e+000	 1.022592346593397e+001
 3.009673553584413e+000	 3.707086470671743e+000	 1.042885943434660e+001
 2.971238890138199e+000	 3.737962607880507e+000	 1.035249067940321e+001
 2.932510357069496e+000	 3.768422482400055e+000	 1.032119100986571e+001
 2.893494696889921e+000	 3.798461983387418e+000	 1.031801708349686e+001
 2.854198726735049e+000	 3.828077145050905e+000	 1.031404301152399e+001
 2.814629334482652e+000	 3.857264148280524e+000	 1.030814011071250e+001
 2.774793474830547e+000	 3.886019322154459e+000	 1.029920981032102e+001
 2.734698165338654e+000	 3.914339145320546e+000	 1.028618586747133e+001
 2.694350482439863e+000	 3.942220247251891e+000	 1.026803648662655e+001
 2.653757557424343e+000	 3.969659409375954e+000	 1.024376633862944e+001
 2.612926572401926e+000	 3.996653566076591e+000	 1.021241847509581e+001
 3.025431006742444e+000	 3.726495300359807e+000	 1.040413492355663e+001
 2.986795114691609e+000	 3.757533092736663e+000	 1.033517397768638e+001
 2.947863814433914e+000	 3.788152443038567e+000	 1.032314876350398e+001
 2.908643883782081e+000	 3.818349218899807e+000	 1.031303756024887e+001
 2.869142175563499e+000	 3.848119433765391e+000	 1.030370532785744e+001
 2.829365613718122e+000	 3.877459248529985e+000	 1.029404362523206e+001
 2.789321189355800e+000	 3.906364973052285e+000	 1.028297292074567e+001
 2.749015956777604e+000	 3.934833067543729e+000	 1.026944481269408e+001
 2.708457029465811e+000	 3.962860143830687e+000	 1.025244415477411e+001
 2.667651576047188e+000	 3.990442966489447e+000	 1.023099108199583e+001
 2.626606816234234e+000	 4.017578453853528e+000	 1.020414293278211e+001
 3.041188459900474e+000	 3.745904130047871e+000	 1.037733022547550e+001
 3.002351339245025e+000	 3.777103577592825e+000	 1.034378477894816e+001
 2.963217271798352e+000	 3.807882403677097e+000	 1.032413906116233e+001
 2.923793070674289e+000	 3.838236454412242e+000	 1.030794329354431e+001
 2.884085624392029e+000	 3.868161722479958e+000	 1.029408320426326e+001
 2.844101892953719e+000	 3.897654348779573e+000	 1.028146993476213e+001
 2.803848903881235e+000	 3.926710623950291e+000	 1.026904235513413e+001
 2.763333748216801e+000	 3.955326989767159e+000	 1.025576929036896e+001
 2.722563576492082e+000	 3.983500040409803e+000	 1.024065165250230e+001
 2.681545594670439e+000	 4.011226523603351e+000	 1.022272447403367e+001
 2.640287060067045e+000	 4.038503341630969e+000	 1.020105883832210e+001
 3.056945913058505e+000	 3.765312959735935e+000	 1.038309003510275e+001
 3.017907563798445e+000	 3.796674062448990e+000	 1.035060697408016e+001
 2.978570729162810e+000	 3.827612364315648e+000	 1.032420432906829e+001
 2.938942257566541e+000	 3.858123689924723e+000	 1.030276607341854e+001
 2.899029073220639e+000	 3.888204011194606e+000	 1.028519802547078e+001
 2.858838172189440e+000	 3.917849449029285e+000	 1.027043025246837e+001
 2.818376618406851e+000	 3.947056274848481e+000	 1.025741939155533e+001
 2.777651539656246e+000	 3.975820911990836e+000	 1.024515088252670e+001
 2.736670123518675e+000	 4.004139936989242e+000	 1.023264110732088e+001
 2.695439613294099e+000	 4.032010080717660e+000	 1.021893943157423e+001
 2.653967303900358e+000	 4.059428229408913e+000	 1.020313014390264e+001
 3.072703366216536e+000	 3.784721789423999e+000	 1.039555328311424e+001
 3.033463788351870e+000	 3.816244547305160e+000	 1.035569366497765e+001
 2.993924186527289e+000	 3.847342324954219e+000	 1.032338706067447e+001
 2.954091444458838e+000	 3.878010925437250e+000	 1.029753800719590e+001
 2.913972522049332e+000	 3.908246299909336e+000	 1.027707173786970e+001
 2.873574451425290e+000	 3.938044549279125e+000	 1.026093659175157e+001
 2.832904332932649e+000	 3.967401925746852e+000	 1.024810634099062e+001
 2.791969331095938e+000	 3.996314834214760e+000	 1.023758243079404e+001
 2.750776670545590e+000	 4.024779833569004e+000	 1.022839612693334e+001
 2.709333631918166e+000	 4.052793637832379e+000	 1.021961056606645e+001
 2.667647547734174e+000	 4.080353117187359e+000	 1.021032270449500e+001
 3.088460819374566e+000	 3.804130619112063e+000	 1.040547096839001e+001
 3.049020012905300e+000	 3.835815032161337e+000	 1.035909776992000e+001
 3.009277643891787e+000	 3.867072285592808e+000	 1.032172981494370e+001
 2.969240631351181e+000	 3.897898160949821e+000	 1.029229151139558e+001
 2.928915970878105e+000	 3.928288588624145e+000	 1.026972683518218e+001
 2.888310730661264e+000	 3.958239649529089e+000	 1.025300174583342e+001
 2.847432047458629e+000	 3.987747576645404e+000	 1.024110652098384e+001
 2.806287122535876e+000	 4.016808756438931e+000	 1.023305800426109e+001
 2.764883217572828e+000	 4.045419730149088e+000	 1.022790176147680e+001
 2.723227650542640e+000	 4.073577194947505e+000	 1.022471414034692e+001
 2.681327791568492e+000	 4.101278004966307e+000	 1.022260422931443e+001
 3.104218272532596e+000	 3.823539448800127e+000	 1.041290615554747e+001
 3.064576237458737e+000	 3.855385517017518e+000	 1.036087202823118e+001
 3.024631101256306e+000	 3.886802246231421e+000	 1.031927521468633e+001
 2.984389818243570e+000	 3.917785396462439e+000	 1.028705930388404e+001
 2.943859419706958e+000	 3.948330877339037e+000	 1.026318634457103e+001
 2.903047009897366e+000	 3.978434749779182e+000	 1.024663926796416e+001
 2.861959761984791e+000	 4.008093227544138e+000	 1.023642423009420e+001
 2.820604913976061e+000	 4.037302678663349e+000	 1.023157286832752e+001
 2.778989764600388e+000	 4.066059626729494e+000	 1.023114446691205e+001
 2.737121669167522e+000	 4.094360752063037e+000	 1.023422802672653e+001
 2.695008035403313e+000	 4.122202892745759e+000	 1.023994423475814e+001
 3.119975725690628e+000	 3.842948278488191e+000	 1.041792149303078e+001
 3.080132462012176e+000	 3.874956001873703e+000	 1.036106900479869e+001
 3.039984558620846e+000	 3.906532206870053e+000	 1.031606594494792e+001
 2.999539005136004e+000	 3.937672631975101e+000	 1.028187439626522e+001
 2.958802868535893e+000	 3.968373166054009e+000	 1.025747381316907e+001
 2.917783289133593e+000	 3.998629850029400e+000	 1.024186345222991e+001
 2.876487476511134e+000	 4.028438878443055e+000	 1.023406472312305e+001
 2.834922705416494e+000	 4.057796600888015e+000	 1.023312345449261e+001
 2.793096311628269e+000	 4.086699523310223e+000	 1.023811206952293e+001
 2.751015687792812e+000	 4.115144309178977e+000	 1.024813166634710e+001
 2.708688279238637e+000	 4.143127780525714e+000	 1.026231399876935e+001
 3.135733178848659e+000	 3.862357108176256e+000	 1.040869829806890e+001
 3.095688686565623e+000	 3.894526486729895e+000	 1.035974109445647e+001
 3.055338015985406e+000	 3.926262167508705e+000	 1.031214475144549e+001
 3.014688192028484e+000	 3.957559867487809e+000	 1.027677008650023e+001
 2.973746317364908e+000	 3.988415454769061e+000	 1.025261329501453e+001
 2.932519568369946e+000	 4.018824950279744e+000	 1.023868931493871e+001
 2.891015191037658e+000	 4.048784529342151e+000	 1.023403418708775e+001
 2.849240496857173e+000	 4.078290523112926e+000	 1.023770733105641e+001
 2.807202858656474e+000	 4.107339419891273e+000	 1.024879373148613e+001
 2.764909706418509e+000	 4.135927866295326e+000	 1.026640602976359e+001
 2.722368523074464e+000	 4.164052668306170e+000	 1.028968651657740e+001
 3.151490632006690e+000	 3.881765937864321e+000	 1.039274396646162e+001
 3.111244911119075e+000	 3.914096971586092e+000	 1.035694052623616e+001
 3.070691473349985e+000	 3.945992128147378e+000	 1.030755443905081e+001
 3.029837378921010e+000	 3.977447103000564e+000	 1.027177995174838e+001
 2.988689766194006e+000	 4.008457743484195e+000	 1.024862933837840e+001
 2.947255847606427e+000	 4.039020050530215e+000	 1.023713257656494e+001
 2.905542905564365e+000	 4.069130180241431e+000	 1.023633971791626e+001
 2.863558288298100e+000	 4.098784445338087e+000	 1.024532317469957e+001
 2.821309405685001e+000	 4.127979316472648e+000	 1.026317991747383e+001
 2.778803725044615e+000	 4.156711423412083e+000	 1.028903357870872e+001
 2.736048766910793e+000	 4.184977556087130e+000	 1.032203645776557e+001
 2.599246328570120e+000	 3.975728678300154e+000	 1.022592346593397e+001
 2.558399495745880e+000	 4.002135932245784e+000	 1.022682807084823e+001
 2.517330273829839e+000	 4.028094871329415e+000	 1.022624778128054e+001
 2.476045934742124e+000	 4.053602907166102e+000	 1.021081438621594e+001
 2.434553784764505e+000	 4.078657606247210e+000	 1.018078629399432e+001
 2.392861160483733e+000	 4.103256690304887e+000	 1.014615320104622e+001
 2.350975424740408e+000	 4.127398036551243e+000	 1.010868089299117e+001
 2.308903962587825e+000	 4.151079677793084e+000	 1.007011421669988e+001
 2.266654177265145e+000	 4.174299802423161e+000	 1.003217352446150e+001
 2.224233486189215e+000	 4.197056754289152e+000	 9.996551197997208e+000
 2.181649316969235e+000	 4.219349032441642e+000	 9.964908260247814e+000
 2.612926572401926e+000	 3.996653566076591e+000	 1.021241847509581e+001
 2.571864756247123e+000	 4.023199805569313e+000	 1.022084113422808e+001
 2.530579380531644e+000	 4.049295370648115e+000	 1.022618951042640e+001
 2.489077755448881e+000	 4.074937659304963e+000	 1.022203316723601e+001
 2.447367225734719e+000	 4.100124225223291e+000	 1.019556793520379e+001
 2.405455166589521e+000	 4.124852778144357e+000	 1.016299095620729e+001
 2.363348979605680e+000	 4.149121184107707e+000	 1.012604726459964e+001
 2.321056088705193e+000	 4.172927465566493e+000	 1.008646264013887e+001
 2.278583936091637e+000	 4.196269801378699e+000	 1.004594002568497e+001
 2.235939978220897e+000	 4.219146526675409e+000	 1.000615602297366e+001
 2.193131681794851e+000	 4.241556132607472e+000	 9.968757474511509e+000
 2.626606816234234e+000	 4.017578453853528e+000	 1.020414293278211e+001
 2.585330016748962e+000	 4.044263678893447e+000	 1.021897325126914e+001
 2.543828487234133e+000	 4.070495869967516e+000	 1.022914883421704e+001
 2.502109576156395e+000	 4.096272411444629e+000	 1.023388606804943e+001
 2.460180666705754e+000	 4.121590844200274e+000	 1.021072416733674e+001
 2.418049172696184e+000	 4.146448865984830e+000	 1.017886307031256e+001
 2.375722534471874e+000	 4.170844331665273e+000	 1.014112354631044e+001
 2.333208214823518e+000	 4.194775253341109e+000	 1.009921328626130e+001
 2.290513694919111e+000	 4.218239800335542e+000	 1.005481878586316e+001
 2.247646470253575e+000	 4.241236299063068e+000	 1.000960181199975e+001
 2.204614046621467e+000	 4.263763232774805e+000	 9.965195953661876e+000
 2.640287060067045e+000	 4.038503341630969e+000	 1.020105883832210e+001
 2.598795277251401e+000	 4.065327552218183e+000	 1.022120509731668e+001
 2.557077593937302e+000	 4.091696369287622e+000	 1.023512479761275e+001
 2.515141396864668e+000	 4.117607163585099e+000	 1.024195406372643e+001
 2.472994107677612e+000	 4.143057463178161e+000	 1.022638885458645e+001
 2.430643178803725e+000	 4.168044953826306e+000	 1.019391638748930e+001
 2.388096089338988e+000	 4.192567479223942e+000	 1.015406925466734e+001
 2.345360340942797e+000	 4.216623041116927e+000	 1.010853803402787e+001
 2.302443453747565e+000	 4.240209799293689e+000	 1.005899373410624e+001
 2.259352962287248e+000	 4.263326071452133e+000	 1.000708423001228e+001
 2.216096411449083e+000	 4.285970332943644e+000	 9.954430782294354e+000
 2.653967303900358e+000	 4.059428229408913e+000	 1.020313014390264e+001
 2.612260537754436e+000	 4.086391425543521e+000	 1.022751893864889e+001
 2.570326700641156e+000	 4.112896868608430e+000	 1.024411767961026e+001
 2.528173217573697e+000	 4.138941915726369e+000	 1.025198244270898e+001
 2.485807548650290e+000	 4.164524082156952e+000	 1.024269639707514e+001
 2.443237184912142e+000	 4.189641041668787e+000	 1.020829794687288e+001
 2.400469644207023e+000	 4.214290626783716e+000	 1.016504376590970e+001
 2.357512467063032e+000	 4.238470828893949e+000	 1.011460829252500e+001
 2.314373212577000e+000	 4.262179798253141e+000	 1.005864800595274e+001
 2.271059454321915e+000	 4.285415843842602e+000	 9.998797830676848e+000
 2.227578776277698e+000	 4.308177433113985e+000	 9.936667622152205e+000
 2.667647547734174e+000	 4.080353117187359e+000	 1.021032270449500e+001
 2.625725798258069e+000	 4.107455298869463e+000	 1.023789859168385e+001
 2.583575807345691e+000	 4.134097367929940e+000	 1.025612896160082e+001
 2.541205038283483e+000	 4.160276667868444e+000	 1.026399004621082e+001
 2.498620989623791e+000	 4.185990701136644e+000	 1.025978171711225e+001
 2.455831191021435e+000	 4.211237129512270e+000	 1.022215497760657e+001
 2.412843199075979e+000	 4.236013774344592e+000	 1.017420631957002e+001
 2.369664593184223e+000	 4.260318616672174e+000	 1.011759501301284e+001
 2.326302971407415e+000	 4.284149797213895e+000	 1.005396396371746e+001
 2.282765946357579e+000	 4.307505616234475e+000	 9.984936084881946e+000
 2.239061141107313e+000	 4.330384533285831e+000	 9.912110748609779e+000
 2.681327791568492e+000	 4.101278004966307e+000	 1.022260422931443e+001
 2.639191058762300e+000	 4.128519172196009e+000	 1.025232938343505e+001
 2.596824914050908e+000	 4.155297867252152e+000	 1.027116129669681e+001
 2.554236858994026e+000	 4.181611420011321e+000	 1.027799655321040e+001
 2.511434430598113e+000	 4.207457320117239e+000	 1.027178317617952e+001
 2.468425197131605e+000	 4.232833217356756e+000	 1.023563489399440e+001
 2.425216753945856e+000	 4.257736921906572e+000	 1.018171602196134e+001
 2.381816719306370e+000	 4.282166404451602e+000	 1.011766870060452e+001
 2.338232730238809e+000	 4.306119796175953e+000	 1.004512321621664e+001
 2.294472438394236e+000	 4.329595388627751e+000	 9.965691408360801e+000
 2.250543505937929e+000	 4.352591633459181e+000	 9.880963086039159e+000
 2.695008035403313e+000	 4.122202892745759e+000	 1.023994423475814e+001
 2.652656319267128e+000	 4.149583045523155e+000	 1.027079811317145e+001
 2.610074020756808e+000	 4.176498366575068e+000	 1.028921847999269e+001
 2.567268679705327e+000	 4.202946172155001e+000	 1.029402245918793e+001
 2.524247871573258e+000	 4.228923939098740e+000	 1.028408126884252e+001
 2.481019203242650e+000	 4.254429305202245e+000	 1.024888529080168e+001
 2.437590308816654e+000	 4.279460069469655e+000	 1.018773184955845e+001
 2.393968845429472e+000	 4.304014192232234e+000	 1.011499942558976e+001
 2.350162489071185e+000	 4.328089795139315e+000	 1.003230663789221e+001
 2.306178930431889e+000	 4.351685161022431e+000	 9.941255188472013e+000
 2.262025870769545e+000	 4.374798733634035e+000	 9.843426242099497e+000
 2.708688279238637e+000	 4.143127780525714e+000	 1.026231399876935e+001
 2.666121579772554e+000	 4.170646918850905e+000	 1.029329301523930e+001
 2.623323127463390e+000	 4.197698865898687e+000	 1.031030541972705e+001
 2.580300500417384e+000	 4.224280924299484e+000	 1.031208905550663e+001
 2.537061312549223e+000	 4.250390558081141e+000	 1.029743851640795e+001
 2.493613209354573e+000	 4.276025393048738e+000	 1.026205393869781e+001
 2.449963863688373e+000	 4.301183217033842e+000	 1.019241265227667e+001
 2.406120971553530e+000	 4.325861980014071e+000	 1.010975683441511e+001
 2.362092247904540e+000	 4.350059794103980e+000	 1.001569438735667e+001
 2.317885422470537e+000	 4.373774933418515e+000	 9.911817810168605e+000
 2.273508235602161e+000	 4.397005833810392e+000	 9.887994516938559e+000
 2.722368523074464e+000	 4.164052668306170e+000	 1.028968651657740e+001
 2.679586840278577e+000	 4.191710792179257e+000	 1.031980372300489e+001
 2.636572234170655e+000	 4.218899365223009e+000	 1.033442810931412e+001
 2.593332321130199e+000	 4.245615676444769e+000	 1.033221840941559e+001
 2.549874753526011e+000	 4.271857177064447e+000	 1.031189276588328e+001
 2.506207215467371e+000	 4.297621480896234e+000	 1.027223058563077e+001
 2.462337418561013e+000	 4.322906364599133e+000	 1.019591715665169e+001
 2.418273097678543e+000	 4.347709767797110e+000	 1.010211016033346e+001
 2.374022006738876e+000	 4.372029793069950e+000	 9.995465925378719e+000
 2.329591914510180e+000	 4.395864705816003e+000	 9.959323895501287e+000
 2.284990600435776e+000	 4.419212933988255e+000	 9.929122517132193e+000
 2.736048766910793e+000	 4.184977556087130e+000	 1.032203645776557e+001
 2.693052100785198e+000	 4.212774665508213e+000	 1.035032123387915e+001
 2.649821340878603e+000	 4.240099864548034e+000	 1.036159360021444e+001
 2.606364141843772e+000	 4.266950428590860e+000	 1.035443334465273e+001
 2.562688194503621e+000	 4.293323796048655e+000	 1.032748232377422e+001
 2.518801221581047e+000	 4.319217568744734e+000	 1.027944639278350e+001
 2.474710973434575e+000	 4.344629512165526e+000	 1.019840396892411e+001
 2.430425223804513e+000	 4.369557555581356e+000	 1.009222823373370e+001
 2.385951765574192e+000	 4.393999792037223e+000	 1.004339146297617e+001
 2.341298406550818e+000	 4.417954478214896e+000	 1.000820280460184e+001
 2.296472965270393e+000	 4.441420034167621e+000	 9.966065605228790e+000
 2.181649316969235e+000	 4.219349032441642e+000	 9.964908260247814e+000
 2.138909103449004e+000	 4.241175290762651e+000	 9.927567199712454e+000
 2.096020281778892e+000	 4.262534337476436e+000	 9.885586679487904e+000
 2.052990286523145e+000	 4.283425134544102e+000	 9.840267357858197e+000
 2.009826546807198e+000	 4.303846796944171e+000	 9.792879745734059e+000
 1.966536482506964e+000	 4.323798591841205e+000	 9.744661453783074e+000
 1.923127500484418e+000	 4.343279937644680e+000	 9.696814547841264e+000
 1.879606990872978e+000	 4.362290402960450e+000	 9.650503017879341e+000
 1.835982323416121e+000	 4.380829705437296e+000	 9.670364620456970e+000
 1.792260843862488e+000	 4.398897710511126e+000	 9.708042035844125e+000
 1.748449870420633e+000	 4.416494430049542e+000	 9.719491668975204e+000
 2.193131681794851e+000	 4.241556132607472e+000	 9.968757474511509e+000
 2.150166519782733e+000	 4.263497265972152e+000	 9.920620581558778e+000
 2.107051967472487e+000	 4.284968728721272e+000	 9.869199798917483e+000
 2.063795498557647e+000	 4.305969477352576e+000	 9.815841074431402e+000
 2.020404581264307e+000	 4.326498622186580e+000	 9.761858357364782e+000
 1.976886674520361e+000	 4.346555426530813e+000	 9.708530792405883e+000
 1.933249224171267e+000	 4.366139305733747e+000	 9.657100025524404e+000
 1.889499659245882e+000	 4.385249826130742e+000	 9.641209061963496e+000
 1.845645388275810e+000	 4.403886703884519e+000	 9.683598646685976e+000
 1.801693795671523e+000	 4.422049803722749e+000	 9.719855780661966e+000
 1.757652238158466e+000	 4.439739137575500e+000	 9.731312369892109e+000
 2.204614046621467e+000	 4.263763232774805e+000	 9.965195953661876e+000
 2.161423936117456e+000	 4.285819241183235e+000	 9.906277038252437e+000
 2.118083653167060e+000	 4.307403119967731e+000	 9.845418506289054e+000
 2.074600710593102e+000	 4.328513820162674e+000	 9.784012063664628e+000
 2.030982615722334e+000	 4.349150447430566e+000	 9.723415567941798e+000
 1.987236866534631e+000	 4.369312261221914e+000	 9.664950168432810e+000
 1.943370947858931e+000	 4.388998673824185e+000	 9.658063039544203e+000
 1.899392327619538e+000	 4.408209249302242e+000	 9.668142414895627e+000
 1.855308453136172e+000	 4.426943702332745e+000	 9.695598401399142e+000
 1.811126747481148e+000	 4.445201896935138e+000	 9.730472145085887e+000
 1.766854605896794e+000	 4.462983845101943e+000	 9.741968324140688e+000
 2.216096411449083e+000	 4.285970332943644e+000	 9.954430782294354e+000
 2.172681352453174e+000	 4.308141216395904e+000	 9.884735403822271e+000
 2.129115338862615e+000	 4.329837511215812e+000	 9.814433573926252e+000
 2.085405922629511e+000	 4.351058162974391e+000	 9.744963229990265e+000
 2.041560650181280e+000	 4.371802272676131e+000	 9.677726612605257e+000
 1.997587058549772e+000	 4.392069095914510e+000	 9.676670817148159e+000
 1.953492671547414e+000	 4.411858041915995e+000	 9.685811168564960e+000
 1.909284995993944e+000	 4.431168672474952e+000	 9.692493956503840e+000
 1.864971517997211e+000	 4.450000700781981e+000	 9.706392931354667e+000
 1.820559699291362e+000	 4.468353990148292e+000	 9.739915629679389e+000
 1.776056973635617e+000	 4.486228552628871e+000	 9.751479773061179e+000
 2.227578776277698e+000	 4.308177433113985e+000	 9.936667622152205e+000
 2.183938768789886e+000	 4.330463191610154e+000	 9.856193183117370e+000
 2.140147024559148e+000	 4.352271902465517e+000	 9.776434534515195e+000
 2.096211134666875e+000	 4.373602505787726e+000	 9.698876323594112e+000
 2.052138684641144e+000	 4.394454097923272e+000	 9.699695329574348e+000
 2.007937250565786e+000	 4.414825930608600e+000	 9.705705241410369e+000
 1.963614395236712e+000	 4.434717410009177e+000	 9.710789379545364e+000
 1.919177664369101e+000	 4.454128095648869e+000	 9.714307358455866e+000
 1.874634582858925e+000	 4.473057699232221e+000	 9.716010493208245e+000
 1.829992651102168e+000	 4.491506083362212e+000	 9.748210005099686e+000
 1.785259341374934e+000	 4.509473260156284e+000	 9.759866284062031e+000
 2.239061141107313e+000	 4.330384533285831e+000	 9.912110748609779e+000
 2.195196185127593e+000	 4.352785166825989e+000	 9.820846585888670e+000
 2.151178710256661e+000	 4.374706293716842e+000	 9.731609712890084e+000
 2.107016346705192e+000	 4.396146848602681e+000	 9.729764219723103e+000
 2.062716719101926e+000	 4.417105923171991e+000	 9.730446104958638e+000
 2.018287442582673e+000	 4.437582765304187e+000	 9.731767194275086e+000
 1.973736118926828e+000	 4.457576778103729e+000	 9.733042641056182e+000
 1.929070332745010e+000	 4.477087518823997e+000	 9.733625459811499e+000
 1.884297647721314e+000	 4.496114697683469e+000	 9.732907374340583e+000
 1.839425602913563e+000	 4.514658176576896e+000	 9.755378330813333e+000
 1.794461709114746e+000	 4.532717967684179e+000	 9.767146767900151e+000
 2.250543505937929e+000	 4.352591633459181e+000	 9.880963086039159e+000
 2.206453601466296e+000	 4.375107142043407e+000	 9.779318930797903e+000
 2.162210395955153e+000	 4.397140684969789e+000	 9.769470331128392e+000
 2.117821558744463e+000	 4.418691191419258e+000	 9.762621070769848e+000
 2.073294753563626e+000	 4.439757748422286e+000	 9.758007891302430e+000
 2.028637634600432e+000	 4.460339600001268e+000	 9.754902980076595e+000
 1.983857842617759e+000	 4.480436146199653e+000	 9.752615045134812e+000
 1.938963001121668e+000	 4.500046942000332e+000	 9.750490288262608e+000
 1.893960712584380e+000	 4.519171696135725e+000	 9.747913275532381e+000
 1.848858554725547e+000	 4.537810269792344e+000	 9.761442973238784e+000
 1.803664076855054e+000	 4.555962675212561e+000	 9.773339495432321e+000
 2.262025870769545e+000	 4.374798733634035e+000	 9.843426242099497e+000
 2.217711017805993e+000	 4.397429117262409e+000	 9.821372196476725e+000
 2.173242081654625e+000	 4.419575076224358e+000	 9.804783826543835e+000
 2.128626770784688e+000	 4.441235534237453e+000	 9.792058937048378e+000
 2.083872788026245e+000	 4.462409573674161e+000	 9.782428361031762e+000
 2.038987826619064e+000	 4.483096434699841e+000	 9.775157981457470e+000
 1.993979566309509e+000	 4.503295514296950e+000	 9.769549829532256e+000
 1.948855669499079e+000	 4.523006365177877e+000	 9.764943080726276e+000
 1.903623777448120e+000	 4.542228694588985e+000	 9.760714947814817e+000
 1.858291506538122e+000	 4.560962363008558e+000	 9.766425623336474e+000
 1.812866444595856e+000	 4.579207382741427e+000	 9.778462113856209e+000
 2.273508235602161e+000	 4.397005833810392e+000	 9.887994516938559e+000
 2.228968434146685e+000	 4.419751092482993e+000	 9.859454967422938e+000
 2.184273767355075e+000	 4.442009467480548e+000	 9.836435353853544e+000
 2.139431982825867e+000	 4.463779877057269e+000	 9.818126885267493e+000
 2.094450822489782e+000	 4.485061398927611e+000	 9.803754218666343e+000
 2.049338018638568e+000	 4.505853269399911e+000	 9.792576682643542e+000
 2.004101290002075e+000	 4.526154882395619e+000	 9.783889399286021e+000
 1.958748337877240e+000	 4.545965788356630e+000	 9.777024303313763e+000
 1.913286842312536e+000	 4.565285693043254e+000	 9.771351057739953e+000
 1.867724458351287e+000	 4.584114456225539e+000	 9.770347313665850e+000
 1.822068812337153e+000	 4.602452090270778e+000	 9.782531662459416e+000
 2.284990600435776e+000	 4.419212933988255e+000	 9.929122517132193e+000
 2.240225850488372e+000	 4.442073067705161e+000	 9.893620294446409e+000
 2.195305453056506e+000	 4.464443858738362e+000	 9.864475394483661e+000
 2.150237194868001e+000	 4.486324219878704e+000	 9.840872967125144e+000
 2.105028856954238e+000	 4.507713224182639e+000	 9.822031225138764e+000
 2.059688210658945e+000	 4.528610104101473e+000	 9.807202692017249e+000
 2.014223013695456e+000	 4.549014250495659e+000	 9.795675347642584e+000
 1.968641006256152e+000	 4.568925211536593e+000	 9.786773670697590e+000
 1.922949907177626e+000	 4.588342691498529e+000	 9.779859577066690e+000
 1.877157410165042e+000	 4.607266549443283e+000	 9.774333253785153e+000
 1.831271180078945e+000	 4.625696797800614e+000	 9.785564587893571e+000
 2.296472965270393e+000	 4.441420034167621e+000	 9.966065605228790e+000
 2.251483266831054e+000	 4.464395042928913e+000	 9.923920088736148e+000
 2.206337138758916e+000	 4.486878249997798e+000	 9.888953367011752e+000
 2.161042406911088e+000	 4.508868562701760e+000	 9.860344244683656e+000
 2.115606891419611e+000	 4.530365049439245e+000	 9.837304221384242e+000
 2.070038402680194e+000	 4.551366938804532e+000	 9.819078764013696e+000
 2.024344737389656e+000	 4.571873618597071e+000	 9.804948476352161e+000
 1.978533674635815e+000	 4.591884634717766e+000	 9.794230164897439e+000
 1.932612972043393e+000	 4.611399689954809e+000	 9.786277800130602e+000
 1.886590361979387e+000	 4.630418642661793e+000	 9.780483372731448e+000
 1.840473547821232e+000	 4.648941505330933e+000	 9.787576758990214e+000
 1.748449870420633e+000	 4.416494430049542e+000	 9.719491668975204e+000
 1.704556690275469e+000	 4.433620020899308e+000	 9.679834765157583e+000
 1.660588556172508e+000	 4.450274783340313e+000	 9.636626146376948e+000
 1.616552683069940e+000	 4.466459159448742e+000	 9.591320586660157e+000
 1.572456244859625e+000	 4.482173731371831e+000	 9.545300366780356e+000
 1.528306371162559e+000	 4.497419219518087e+000	 9.499874366974096e+000
 1.484110144199971e+000	 4.512196480665968e+000	 9.456277333474425e+000
 1.439874595742234e+000	 4.526506505994299e+000	 9.415669316501903e+000
 1.395606704137588e+000	 4.540350419037734e+000	 9.379135276944448e+000
 1.351313391422534e+000	 4.553729473570638e+000	 9.347684858566346e+000
 1.307001520515620e+000	 4.566645051422786e+000	 9.322252322216423e+000
 1.757652238158466e+000	 4.439739137575500e+000	 9.731312369892109e+000
 1.713528041275271e+000	 4.456954863114908e+000	 9.695262657735134e+000
 1.669328495939905e+000	 4.473697282201146e+000	 9.654716707593190e+000
 1.625060855084026e+000	 4.489966839237116e+000	 9.611174219995707e+000
 1.580732330356816e+000	 4.505764119433992e+000	 9.566061832635441e+000
 1.536350088903591e+000	 4.521089846991900e+000	 9.520732166869937e+000
 1.491921250220428e+000	 4.535944883198664e+000	 9.476463050610510e+000
 1.447452883087016e+000	 4.550330224449836e+000	 9.434456915258229e+000
 1.402952002579744e+000	 4.564247000193415e+000	 9.395840363927709e+000
 1.358425567166881e+000	 4.577696470802579e+000	 9.361663907802287e+000
 1.313880475887600e+000	 4.590680025379892e+000	 9.332901867086259e+000
 1.766854605896794e+000	 4.462983845101943e+000	 9.741968324140688e+000
 1.722499392275472e+000	 4.480289705330701e+000	 9.709626776878142e+000
 1.678068435707619e+000	 4.497119781061904e+000	 9.671865887857472e+000
 1.633569027098352e+000	 4.513474519025166e+000	 9.630230360683926e+000
 1.589008415854183e+000	 4.529354507495596e+000	 9.586191242863563e+000
 1.544393806644745e+000	 4.544760474464951e+000	 9.541144926227622e+000
 1.499732356240962e+000	 4.559693285730408e+000	 9.496412326353633e+000
 1.455031170431842e+000	 4.574153942904253e+000	 9.453238238659001e+000
 1.410297301021918e+000	 4.588143581347828e+000	 9.412790868417195e+000
 1.365537742911233e+000	 4.601663468033122e+000	 9.376161531541658e+000
 1.320759431259581e+000	 4.614714999335489e+000	 9.344364522598054e+000
 1.776056973635617e+000	 4.486228552628871e+000	 9.751479773061179e+000
 1.731470743276074e+000	 4.503624547546692e+000	 9.722942269571215e+000
 1.686808375475648e+000	 4.520542279922586e+000	 9.688083639943114e+000
 1.642077199112921e+000	 4.536982198812894e+000	 9.648493671784035e+000
 1.597284501351727e+000	 4.552944895556653e+000	 9.605687879622703e+000
 1.552437524386021e+000	 4.568431101937240e+000	 9.561106459391541e+000
 1.507543462261574e+000	 4.583441688261203e+000	 9.516113424552332e+000
 1.462609457776711e+000	 4.597977661357553e+000	 9.471995921556927e+000
 1.417642599464113e+000	 4.612040162500974e+000	 9.429963721900698e+000
 1.372649918655590e+000	 4.625630465262270e+000	 9.391148887614877e+000
 1.327638386631561e+000	 4.638749973289583e+000	 9.356605606651819e+000
 1.785259341374934e+000	 4.509473260156284e+000	 9.759866284062031e+000
 1.740442094277075e+000	 4.526959389762877e+000	 9.735223683791048e+000
 1.695548315243992e+000	 4.543964778783195e+000	 9.703379396361317e+000
 1.650585371127730e+000	 4.560489878600299e+000	 9.665968378601367e+000
 1.605560586849447e+000	 4.576535283617155e+000	 9.624550673526521e+000
 1.560481242127419e+000	 4.592101729408769e+000	 9.580610319009802e+000
 1.515354568282265e+000	 4.607190090791048e+000	 9.535554440781283e+000
 1.470187745121624e+000	 4.621801379809735e+000	 9.490712527461689e+000
 1.424987897906327e+000	 4.635936743652855e+000	 9.447335884895175e+000
 1.379762094399952e+000	 4.649597462490021e+000	 9.406597266626607e+000
 1.334517342003541e+000	 4.662784947242169e+000	 9.369590676970066e+000
 1.794461709114746e+000	 4.532717967684179e+000	 9.767146767900151e+000
 1.749413445278476e+000	 4.550294231979255e+000	 9.746484983865653e+000
 1.704288255012651e+000	 4.567387277643729e+000	 9.717762082701260e+000
 1.659093543142780e+000	 4.583997558387378e+000	 9.682658279911914e+000
 1.613836672347345e+000	 4.600125671677105e+000	 9.642778212658381e+000
 1.568524959868940e+000	 4.615772356879539e+000	 9.599649802744558e+000
 1.523165674303034e+000	 4.630938493319944e+000	 9.554723306656024e+000
 1.477766032466581e+000	 4.645625098260799e+000	 9.509370550369276e+000
 1.432333196348560e+000	 4.659833324803466e+000	 9.464884346202449e+000
 1.386874270144318e+000	 4.673564459716376e+000	 9.422478088551324e+000
 1.341396297375522e+000	 4.686819921193250e+000	 9.383285524948468e+000
 1.803664076855054e+000	 4.555962675212561e+000	 9.773339495432321e+000
 1.758384796280277e+000	 4.573629074195829e+000	 9.756739565363311e+000
 1.713028194781627e+000	 4.590809776504190e+000	 9.731240130561798e+000
 1.667601715158070e+000	 4.607505238174134e+000	 9.698566758843091e+000
 1.622112757845418e+000	 4.623716059736503e+000	 9.660368751309250e+000
 1.576568677610583e+000	 4.639442984349548e+000	 9.618217959776588e+000
 1.530976780323880e+000	 4.654686895847889e+000	 9.573607794015610e+000
 1.485344319811582e+000	 4.669448816710744e+000	 9.527952416535319e+000
 1.439678494790812e+000	 4.683729905952810e+000	 9.482586122187664e+000
 1.393986445888690e+000	 4.697531456941333e+000	 9.438762899433034e+000
 1.348275252747503e+000	 4.710854895142822e+000	 9.397656169694796e+000
 1.812866444595856e+000	 4.579207382741427e+000	 9.778462113856209e+000
 1.767356147282479e+000	 4.596963916412597e+000	 9.766000269528140e+000
 1.721768134550916e+000	 4.614232275364574e+000	 9.743821490089234e+000
 1.676109887173602e+000	 4.631012917960568e+000	 9.713696793423246e+000
 1.630388843343669e+000	 4.647306447795349e+000	 9.677320218449703e+000
 1.584612395352349e+000	 4.663113611818793e+000	 9.636307597112028e+000
 1.538787886344805e+000	 4.678435298374885e+000	 9.592195518977785e+000
 1.492922607156627e+000	 4.693272535159570e+000	 9.546440486194312e+000
 1.447023793233084e+000	 4.707626487100888e+000	 9.500418256079652e+000
 1.401098621633067e+000	 4.721498454164895e+000	 9.455423368185532e+000
 1.355154208119483e+000	 4.734889869090891e+000	 9.412668852249459e+000
 1.822068812337153e+000	 4.602452090270778e+000	 9.782531662459416e+000
 1.776327498285080e+000	 4.620298758629560e+000	 9.774279397278150e+000
 1.730508074320522e+000	 4.637654774224886e+000	 9.755513642135259e+000
 1.684618059189375e+000	 4.654520597746679e+000	 9.728050966811418e+000
 1.638664928842096e+000	 4.670896835853643e+000	 9.693630225945002e+000
 1.592656113094237e+000	 4.686784239287278e+000	 9.653911285697872e+000
 1.546598992365808e+000	 4.702183700900933e+000	 9.610473945871416e+000
 1.500500894501715e+000	 4.717096253607278e+000	 9.564817055226907e+000
 1.454369091675375e+000	 4.731523068247697e+000	 9.518357817292641e+000
 1.408210797377448e+000	 4.745465451387059e+000	 9.472431283489682e+000
 1.362033163491464e+000	 4.758924843037452e+000	 9.428290029981145e+000
 1.831271180078945e+000	 4.625696797800614e+000	 9.785564587893571e+000
 1.785298849288082e+000	 4.643633600846719e+000	 9.781588722781285e+000
 1.739248014090443e+000	 4.661077273085121e+000	 9.766323610048255e+000
 1.693126231205388e+000	 4.678028277532464e+000	 9.741631477218689e+000
 1.646941014340700e+000	 4.694487223911384e+000	 9.709296076522621e+000
 1.600699830836248e+000	 4.710454866755004e+000	 9.671021366353072e+000
 1.554410098386890e+000	 4.725932103426030e+000	 9.628430391050243e+000
 1.508079181846848e+000	 4.740919972053868e+000	 9.583064356776823e+000
 1.461714390117686e+000	 4.755419649393240e+000	 9.536381900768269e+000
 1.415322973121834e+000	 4.769432448607827e+000	 9.489758550784119e+000
 1.368912118863444e+000	 4.782959816982506e+000	 9.444486371151426e+000
 1.840473547821232e+000	 4.648941505330933e+000	 9.787576758990214e+000
 1.794270200291483e+000	 4.666968443064073e+000	 9.787939506624175e+000
 1.747987953860680e+000	 4.684499771945285e+000	 9.776257971110882e+000
 1.701634403221643e+000	 4.701535957317928e+000	 9.754440147531842e+000
 1.655217099839480e+000	 4.718077611968574e+000	 9.724314771500662e+000
 1.608743548578381e+000	 4.734125494221969e+000	 9.687629955521768e+000
 1.562221204408049e+000	 4.749680505950178e+000	 9.646052026592239e+000
 1.515657469192024e+000	 4.764743690499340e+000	 9.601164562819188e+000
 1.469059688560017e+000	 4.779316230537516e+000	 9.554467626337406e+000
 1.422435148866225e+000	 4.793399445827198e+000	 9.507377189346361e+000
 1.375791074235425e+000	 4.806994790926056e+000	 9.461224749642415e+000
 1.307001520515620e+000	 4.566645051422786e+000	 9.322252322216423e+000
 1.262677892496843e+000	 4.579098660229949e+000	 9.290052335927406e+000
 1.218349243971802e+000	 4.591091931124016e+000	 9.312657096887037e+000
 1.174022244523953e+000	 4.602626616365185e+000	 9.302713277448081e+000
 1.129703494256914e+000	 4.613704586919089e+000	 9.261369144061565e+000
 1.085399521425691e+000	 4.624327829983526e+000	 9.197772687914499e+000
 1.041116780158474e+000	 4.634498446467842e+000	 9.120226138707825e+000
 9.968616482696650e-001	 4.644218648428490e+000	 9.036187020447292e+000
 9.526404251647149e-001	 4.653490756464190e+000	 8.952271016837385e+000
 9.084593298371448e-001	 4.662317197074184e+000	 8.874256592800794e+000
 8.643244989580522e-001	 4.670700499982988e+000	 8.807091315371709e+000
 1.313880475887600e+000	 4.590680025379892e+000	 9.332901867086259e+000
 1.269323565616884e+000	 4.603199179496159e+000	 9.304987381670829e+000
 1.224761608415979e+000	 4.615255572868285e+000	 9.336690850287672e+000
 1.180201308971415e+000	 4.626850966978888e+000	 9.342796526350513e+000
 1.135649302124197e+000	 4.637987242640786e+000	 9.316770225083634e+000
 1.091112150488572e+000	 4.648666397510717e+000	 9.267963125033024e+000
 1.046596342161823e+000	 4.658890543555442e+000	 9.204868533639948e+000
 1.002108288525804e+000	 4.668661904473817e+000	 9.135122858022346e+000
 9.576543221407293e-001	 4.677982813078234e+000	 9.065508414386164e+000
 9.132406947316675e-001	 4.686855708638987e+000	 9.001958021904914e+000
 8.688735752679867e-001	 4.695283134194933e+000	 8.949561323573089e+000
 1.320759431259581e+000	 4.614714999335489e+000	 9.344364522598054e+000
 1.275969238736935e+000	 4.627299698760772e+000	 9.319717830009553e+000
 1.231173972860197e+000	 4.639419214610888e+000	 9.356174190452848e+000
 1.186380373418968e+000	 4.651075317590874e+000	 9.375828711132876e+000
 1.141595109991644e+000	 4.662269898360744e+000	 9.362815711830891e+000
 1.096824779551708e+000	 4.673004965036161e+000	 9.326692183725198e+000
 1.052075904165543e+000	 4.683282640641307e+000	 9.276144867051677e+000
 1.007354928782445e+000	 4.693105160517438e+000	 9.218991137944116e+000
 9.626682191173969e-001	 4.702474869690625e+000	 9.162181763362211e+000
 9.180220596270147e-001	 4.711394220202211e+000	 9.111805469247164e+000
 8.734226515789358e-001	 4.719865768405385e+000	 9.073095263655103e+000
 1.327638386631561e+000	 4.638749973289583e+000	 9.356605606651819e+000
 1.282614911856997e+000	 4.651400218023791e+000	 9.334223824833218e+000
 1.237586337304457e+000	 4.663582856351826e+000	 9.371524675625112e+000
 1.192559437866615e+000	 4.675299668201150e+000	 9.402210868838367e+000
 1.147540917859257e+000	 4.686552554078959e+000	 9.399890149632778e+000
 1.102537408615102e+000	 4.697343532559855e+000	 9.374327970657035e+000
 1.057555466169632e+000	 4.707674737725434e+000	 9.334406882602179e+000
 1.012601569039587e+000	 4.717548416559352e+000	 9.288127338159635e+000
 9.676821160947181e-001	 4.726966926301362e+000	 9.242610393956603e+000
 9.228034245231862e-001	 4.735932731763849e+000	 9.204102254898309e+000
 8.779717278908999e-001	 4.744448402614344e+000	 9.177980601897515e+000
 1.334517342003541e+000	 4.662784947242169e+000	 9.369590676970066e+000
 1.289260584977069e+000	 4.675500737285212e+000	 9.348485432748179e+000
 1.243998701748758e+000	 4.687746498091098e+000	 9.383159490883273e+000
 1.198738502314356e+000	 4.699524018809712e+000	 9.422343388655014e+000
 1.153486725727035e+000	 4.710835209795433e+000	 9.428377182412238e+000
 1.108250037678754e+000	 4.721682100081798e+000	 9.411237458616485e+000
 1.063035028174090e+000	 4.732066834807823e+000	 9.380004978608833e+000
 1.017848209297231e+000	 4.741991672599561e+000	 9.342865400734441e+000
 9.726960130726919e-001	 4.751458982910445e+000	 9.307111930769029e+000
 9.275847894201817e-001	 4.760471243323905e+000	 9.279149844352313e+000
 8.825208042038785e-001	 4.769031036821811e+000	 9.264502821626085e+000
 1.341396297375522e+000	 4.686819921193250e+000	 9.383285524948468e+000
 1.295906258097151e+000	 4.699601256545038e+000	 9.362482645059018e+000
 1.250411066193101e+000	 4.711910139828708e+000	 9.391590750573204e+000
 1.204917566762190e+000	 4.723748369416562e+000	 9.436626028527309e+000
 1.159432533594978e+000	 4.735117865510165e+000	 9.448659575798763e+000
 1.113962666742663e+000	 4.746020667601992e+000	 9.437786515587344e+000
 1.068514590178918e+000	 4.756458931888473e+000	 9.413288242543034e+000
 1.023094849555376e+000	 4.766434928638065e+000	 9.383537771234176e+000
 9.777099100513192e-001	 4.775951039517873e+000	 9.356002336540943e+000
 9.323661543180016e-001	 4.785009754882376e+000	 9.337247896079482e+000
 8.870698805178715e-001	 4.793613671027785e+000	 9.332945474057544e+000
 1.348275252747503e+000	 4.710854895142822e+000	 9.397656169694796e+000
 1.302551931217244e+000	 4.723701775803268e+000	 9.376195379689589e+000
 1.256823430637485e+000	 4.736073781564651e+000	 9.399371167469720e+000
 1.211096631210117e+000	 4.747972720021697e+000	 9.445457931259366e+000
 1.165378341463086e+000	 4.759400521223156e+000	 9.461119239533801e+000
 1.119675295806829e+000	 4.770359235120437e+000	 9.454339932932953e+000
 1.073994152184115e+000	 4.780851028967387e+000	 9.434604484470224e+000
 1.028341489814023e+000	 4.790878184674864e+000	 9.410475436900573e+000
 9.827238070305994e-001	 4.800443096123646e+000	 9.389595954549829e+000
 9.371475192166460e-001	 4.809548266439266e+000	 9.378694307624068e+000
 8.916189568328796e-001	 4.818196305232266e+000	 9.383590227588222e+000
 1.355154208119483e+000	 4.734889869090891e+000	 9.412668852249459e+000
 1.309197604337347e+000	 4.747802295059902e+000	 9.389603483045503e+000
 1.263235795081911e+000	 4.760237423298930e+000	 9.405973328053653e+000
 1.217275695658136e+000	 4.772197070625118e+000	 9.449237640127651e+000
 1.171324149331359e+000	 4.783683176934406e+000	 9.466137249193837e+000
 1.125387924871253e+000	 4.794697802637132e+000	 9.461261452721651e+000
 1.079473714189682e+000	 4.805243126044562e+000	 9.444300269471350e+000
 1.033588130073171e+000	 4.815321440709956e+000	 9.424007963664776e+000
 9.877377040105332e-001	 4.824935152727766e+000	 9.408205549712534e+000
 9.419288841161144e-001	 4.834086777994571e+000	 9.403785260297745e+000
 8.961680331489021e-001	 4.842778939435253e+000	 9.416716915581228e+000
 1.362033163491464e+000	 4.758924843037452e+000	 9.428290029981145e+000
 1.315843277457460e+000	 4.771902814314941e+000	 9.402686731820026e+000
 1.269648159526378e+000	 4.784401065031544e+000	 9.411389494613445e+000
 1.223454760106249e+000	 4.796421421226826e+000	 9.448363114020522e+000
 1.177269957199798e+000	 4.807965832643914e+000	 9.464093867255116e+000
 1.131100553935933e+000	 4.819036370152078e+000	 9.458913794224076e+000
 1.084953276195619e+000	 4.829635223120001e+000	 9.442720949081849e+000
 1.038834770332820e+000	 4.839764696743343e+000	 9.424463532039043e+000
 9.927516009911197e-001	 4.849427209330234e+000	 9.412142348442609e+000
 9.467102490164072e-001	 4.858625289548295e+000	 9.412815262518972e+000
 9.007171094659395e-001	 4.867361573636750e+000	 9.432603582705745e+000
 1.368912118863444e+000	 4.782959816982506e+000	 9.444486371151426e+000
 1.322488950577584e+000	 4.796003333568383e+000	 9.415424834745767e+000
 1.276060523970887e+000	 4.808564706762494e+000	 9.415611601288257e+000
 1.229633824554455e+000	 4.820645771826822e+000	 9.443231742121375e+000
 1.183215765068401e+000	 4.832248488351681e+000	 9.455368563523370e+000
 1.136813183000871e+000	 4.843374937665274e+000	 9.447658679611626e+000
 1.090432838201924e+000	 4.854027320193702e+000	 9.430210691782788e+000
 1.044081410592971e+000	 4.864207952775023e+000	 9.412168971926247e+000
 9.977654979723596e-001	 4.873919265931045e+000	 9.401716077306407e+000
 9.514916139175242e-001	 4.883163801100436e+000	 9.406077191845322e+000
 9.052661857839915e-001	 4.891944207836753e+000	 9.431526529879124e+000
 1.375791074235425e+000	 4.806994790926056e+000	 9.461224749642415e+000
 1.329134623697719e+000	 4.820103852820232e+000	 9.427797434293613e+000
 1.282472888415437e+000	 4.832728348491778e+000	 9.418631262271743e+000
 1.235812889002754e+000	 4.844870122425104e+000	 9.434240358151287e+000
 1.189161572937170e+000	 4.856531144057705e+000	 9.440340034950495e+000
 1.142525812066067e+000	 4.867713505176722e+000	 9.427856858883965e+000
 1.095912400208600e+000	 4.878419417265667e+000	 9.407112512577148e+000
 1.049328050853624e+000	 4.888651208805000e+000	 9.387449796385127e+000
 1.002779394954253e+000	 4.898411322530204e+000	 9.377235000519129e+000
 9.562729788194657e-001	 4.907702312650993e+000	 9.383862335745127e+000
 9.098152621030583e-001	 4.916526842035265e+000	 9.413760357860632e+000
 8.643244989580522e-001	 4.670700499982988e+000	 8.807091315371709e+000
 8.202419850585254e-001	 4.678643295435927e+000	 8.777492578317744e+000
 7.762177548042755e-001	 4.686148311466118e+000	 8.752635569437976e+000
 7.322576873625165e-001	 4.693218371138125e+000	 8.735115338337907e+000
 6.883675728617015e-001	 4.699856389773194e+000	 8.726746370994764e+000
 6.445531109429856e-001	 4.706065372156695e+000	 8.728576192114659e+000
 6.008199094031392e-001	 4.711848409731800e+000	 8.717262537356508e+000
 5.571734829283334e-001	 4.717208677782531e+000	 8.673494377625419e+000
 5.136192519181071e-001	 4.722149432609214e+000	 8.610510609392485e+000
 4.701625413987239e-001	 4.726674008699353e+000	 8.528480199140180e+000
 4.268085800250276e-001	 4.730785815896795e+000	 8.426484876022517e+000
 8.688735752679867e-001	 4.695283134194933e+000	 8.949561323573089e+000
 8.245590481363796e-001	 4.703267733834722e+000	 8.932222590516679e+000
 7.803031114062362e-001	 4.710812249949480e+000	 8.916458547312990e+000
 7.361116751877546e-001	 4.717919520462003e+000	 8.904984959556257e+000
 6.919905600837472e-001	 4.724592476037333e+000	 8.899728000706345e+000
 6.479454957334779e-001	 4.730834137275504e+000	 8.901837902395091e+000
 6.039821194484371e-001	 4.736647611890441e+000	 8.894354209595235e+000
 5.601059749394577e-001	 4.742036091878187e+000	 8.855815431402407e+000
 5.163225111344961e-001	 4.747002850677490e+000	 8.799179222018948e+000
 4.726370810862681e-001	 4.751551240325787e+000	 8.724721627992816e+000
 4.290549409688527e-001	 4.755684688613479e+000	 8.631614027627384e+000
 8.734226515789358e-001	 4.719865768405385e+000	 9.073095263655103e+000
 8.288761112154275e-001	 4.727892172232124e+000	 9.066732831248933e+000
 7.843884680095284e-001	 4.735476188431549e+000	 9.059027674519546e+000
 7.399656630144206e-001	 4.742620669784688e+000	 9.052816585890712e+000
 6.956135473072760e-001	 4.749328562300383e+000	 9.050137466959344e+000
 6.513378805254695e-001	 4.755602902393323e+000	 9.052243031389690e+000
 6.071443294952095e-001	 4.761446814048191e+000	 9.047303850888532e+000
 5.630384669519922e-001	 4.766863505973046e+000	 9.013335325413499e+000
 5.190257703521917e-001	 4.771856268745071e+000	 8.962718212740347e+000
 4.751116207749768e-001	 4.776428471951628e+000	 8.895835043987241e+000
 4.313013019136611e-001	 4.780583561329669e+000	 8.811945890006999e+000
 8.779717278908999e-001	 4.744448402614344e+000	 9.177980601897515e+000
 8.331931742956691e-001	 4.752516610628134e+000	 9.181301467745257e+000
 7.884738246141516e-001	 4.760140126912325e+000	 9.180611388569961e+000
 7.438196508425145e-001	 4.767321819106181e+000	 9.178868513395026e+000
 6.992365345322885e-001	 4.774064648562337e+000	 9.178222530862662e+000
 6.547302653189601e-001	 4.780371667510148e+000	 9.180028429352456e+000
 6.103065395434563e-001	 4.786246016205046e+000	 9.176490255920221e+000
 5.659709589659370e-001	 4.791690920067117e+000	 9.146405860040344e+000
 5.217290295711939e-001	 4.796709686811961e+000	 9.101452730556339e+000
 4.775861604648496e-001	 4.801305703576881e+000	 9.042119307805514e+000
 4.335476628594530e-001	 4.805482434045368e+000	 8.967753417255688e+000
 8.825208042038785e-001	 4.769031036821811e+000	 9.264502821626085e+000
 8.375102373771048e-001	 4.777141049022752e+000	 9.276204444826545e+000
 7.925591812201065e-001	 4.784804065391811e+000	 9.281475698269519e+000
 7.476736386720361e-001	 4.792022968426481e+000	 9.283396436065326e+000
 7.028595217587850e-001	 4.798800734823201e+000	 9.284228210836343e+000
 6.581226501139499e-001	 4.805140432625982e+000	 9.285428095692392e+000
 6.134687495931775e-001	 4.811045218361012e+000	 9.282289292591075e+000
 5.689034509812920e-001	 4.816518334160397e+000	 9.255375864887684e+000
 5.244322887915028e-001	 4.821563104878160e+000	 9.215704941354980e+000
 4.800607001558868e-001	 4.826182935201539e+000	 9.163870316041816e+000
 4.357940238062281e-001	 4.830381306760575e+000	 9.099306649449877e+000
 8.870698805178715e-001	 4.793613671027785e+000	 9.332945474057544e+000
 8.418273004597338e-001	 4.801765487415977e+000	 9.351715541888755e+000
 7.966445378273929e-001	 4.809468003870001e+000	 9.361884245990998e+000
 7.515276265029860e-001	 4.816724117745588e+000	 9.366653512559724e+000
 7.064825089867651e-001	 4.823536821082972e+000	 9.368396852936288e+000
 6.615150349104386e-001	 4.829909197740823e+000	 9.368673252071888e+000
 6.166309596443732e-001	 4.835844420516084e+000	 9.365073977063721e+000
 5.718359429980570e-001	 4.841345748252883e+000	 9.340591274957019e+000
 5.271355480131184e-001	 4.846416522943665e+000	 9.305794104402700e+000
 4.825352398480882e-001	 4.851060166825606e+000	 9.261381077205220e+000
 4.380403847539867e-001	 4.855280179475290e+000	 9.206872787366821e+000
 8.916189568328796e-001	 4.818196305232266e+000	 9.383590227588222e+000
 8.461443635435570e-001	 4.826389925807810e+000	 9.408106428143306e+000
 8.007298944360106e-001	 4.834131942346899e+000	 9.422098368042876e+000
 7.553816143353638e-001	 4.841425267063504e+000	 9.428890430875153e+000
 7.101054962162290e-001	 4.848272907341652e+000	 9.430968199027335e+000
 6.649074197084265e-001	 4.854677962854673e+000	 9.429992413267653e+000
 6.197931696970432e-001	 4.860643622670264e+000	 9.425214546511905e+000
 5.747684350162322e-001	 4.866173162344578e+000	 9.402395204489043e+000
 5.298388072360406e-001	 4.871269941008480e+000	 9.372036646493212e+000
 4.850097795414539e-001	 4.875937398449081e+000	 9.334941785395099e+000
 4.402867457027287e-001	 4.880179052189514e+000	 9.290716264915378e+000
 8.961680331489021e-001	 4.842778939435253e+000	 9.416716915581228e+000
 8.504614266285739e-001	 4.851014364198250e+000	 9.445646716175144e+000
 8.048152510459596e-001	 4.858795880822506e+000	 9.462377153198977e+000
 7.592356021691694e-001	 4.866126416380226e+000	 9.470355471054635e+000
 7.137284834471765e-001	 4.873008993599238e+000	 9.472179452879171e+000
 6.682998045079135e-001	 4.879446727967530e+000	 9.469611455873269e+000
 6.229553797511880e-001	 4.885442824823553e+000	 9.463078529652677e+000
 5.777009270358176e-001	 4.891000576435481e+000	 9.441128018556237e+000
 5.325420664602696e-001	 4.896123359072604e+000	 9.414746233837448e+000
 4.874843192359838e-001	 4.900814630071966e+000	 9.384839891733204e+000
 4.425331066524542e-001	 4.905077924903247e+000	 9.351098819361516e+000
 9.007171094659395e-001	 4.867361573636750e+000	 9.432603582705745e+000
 8.547784897147843e-001	 4.875638802587297e+000	 9.464604013877587e+000
 8.089006076572401e-001	 4.883459819296819e+000	 9.482977499454240e+000
 7.630895900044030e-001	 4.890827565695759e+000	 9.491294565994197e+000
 7.173514706796077e-001	 4.897745079855731e+000	 9.492265344259826e+000
 6.716921893088994e-001	 4.904215493079393e+000	 9.487753684920143e+000
 6.261175898068071e-001	 4.910242026975949e+000	 9.478792747900933e+000
 5.806334190568133e-001	 4.915827990525592e+000	 9.457127402486394e+000
 5.352453256858051e-001	 4.920976777136034e+000	 9.434233841775033e+000
 4.899588589316778e-001	 4.925691861694258e+000	 9.411360173630131e+000
 4.447794676031630e-001	 4.929976797616488e+000	 9.388279559424916e+000
 9.052661857839915e-001	 4.891944207836753e+000	 9.431526529879124e+000
 8.590955528021887e-001	 4.900263240974951e+000	 9.465243974821728e+000
 8.129859642698522e-001	 4.908123757769840e+000	 9.484154169069562e+000
 7.669435778410646e-001	 4.915528715010095e+000	 9.491951360416220e+000
 7.209744579135228e-001	 4.922481166111133e+000	 9.491458191096475e+000
 6.750845741113848e-001	 4.928984258190267e+000	 9.484639898489789e+000
 6.292797998639005e-001	 4.935041229127454e+000	 9.472620012503295e+000
 5.835659110792189e-001	 4.940655404614910e+000	 9.450728429192761e+000
 5.379485849126473e-001	 4.945830195198774e+000	 9.430807822384683e+000
 4.924333986285364e-001	 4.950569093315958e+000	 9.414784801964581e+000
 4.470258285548553e-001	 4.954875670329237e+000	 9.402515031323073e+000
 9.098152621030583e-001	 4.916526842035265e+000	 9.413760357860632e+000
 8.634126158907872e-001	 4.924887679361214e+000	 9.447830347114275e+000
 8.170713208837958e-001	 4.932787696241570e+000	 9.466159841965149e+000
 7.707975656791543e-001	 4.940229864323243e+000	 9.472567268074249e+000
 7.245974451489217e-001	 4.947217252365443e+000	 9.469987959771400e+000
 6.784769589153692e-001	 4.953753023300148e+000	 9.460488450387020e+000
 6.324420099224686e-001	 4.959840431278067e+000	 9.445282282626815e+000
 5.864984031030350e-001	 4.965482818703439e+000	 9.422263624484748e+000
 5.406518441407963e-001	 4.970683613260823e+000	 9.404773970065104e+000
 4.949079383265592e-001	 4.975446324937067e+000	 9.395393406246340e+000
 4.492721895075311e-001	 4.979774543041494e+000	 9.394059282833927e+000
 4.268085800250276e-001	 4.730785815896795e+000	 8.426484876022517e+000
 3.835624991689582e-001	 4.734488336571500e+000	 8.329119818470431e+000
 3.404293320962267e-001	 4.737785122794405e+000	 8.263521885983888e+000
 2.974140132282684e-001	 4.740679793518914e+000	 8.225165437183717e+000
 2.545213774864993e-001	 4.743176031770457e+000	 8.208519719180142e+000
 2.117561597201596e-001	 4.745277581848414e+000	 8.207083015959215e+000
 1.691229942154843e-001	 4.746988246542276e+000	 8.213417879945192e+000
 1.266264142847402e-001	 4.748311884364385e+000	 8.219187334265333e+000
 8.427085193360903e-002	 4.749252406801554e+000	 8.215191934604288e+000
 4.206063760533519e-002	 4.749813775587759e+000	 8.191407581165851e+000
 0.000000000000000e+000	 4.750000000000000e+000	 8.137023973161750e+000
 4.290549409688527e-001	 4.755684688613479e+000	 8.631614027627384e+000
 3.855812491613293e-001	 4.759406696238825e+000	 8.544040652386869e+000
 3.422210654202023e-001	 4.762720833967920e+000	 8.484586416257937e+000
 2.989793501375459e-001	 4.765630739801289e+000	 8.448800514658048e+000
 2.558609636817313e-001	 4.768140116148705e+000	 8.431214388484998e+000
 2.128706658222577e-001	 4.770252727016391e+000	 8.425376167754811e+000
 1.700131152363402e-001	 4.771972395208514e+000	 8.423886218148143e+000
 1.272928690957841e-001	 4.773302999545376e+000	 8.418433676513383e+000
 8.471438273261697e-002	 4.774248472100563e+000	 8.399833862730434e+000
 4.228200938188972e-002	 4.774812795459289e+000	 8.358066456994608e+000
 0.000000000000000e+000	 4.775000000000001e+000	 8.282314333477883e+000
 4.313013019136611e-001	 4.780583561329669e+000	 8.811945890006999e+000
 3.875999991544945e-001	 4.784325055905754e+000	 8.734415269893381e+000
 3.440127987448031e-001	 4.787656545141123e+000	 8.681736306421140e+000
 3.005446870473006e-001	 4.790581686083425e+000	 8.649530632748702e+000
 2.572005498773125e-001	 4.793104200526779e+000	 8.632389135148664e+000
 2.139851719245974e-001	 4.795227872184246e+000	 8.623906702195146e+000
 1.709032362573503e-001	 4.796956543874675e+000	 8.616718096859630e+000
 1.279593239069144e-001	 4.798294114726323e+000	 8.602534836051197e+000
 8.515791353166319e-002	 4.799244537399557e+000	 8.572182963505156e+000
 4.250338115845378e-002	 4.799811815330812e+000	 8.515641603577661e+000
 0.000000000000000e+000	 4.800000000000001e+000	 8.422082185443566e+000
 4.335476628594530e-001	 4.805482434045368e+000	 8.967753417255688e+000
 3.896187491484534e-001	 4.809243415572285e+000	 8.900497450941611e+000
 3.458045320700291e-001	 4.812592256314011e+000	 8.855205732125331e+000
 3.021100239575324e-001	 4.815532632365326e+000	 8.827569953361042e+000
 2.585401360732431e-001	 4.818068284904680e+000	 8.812237717554003e+000
 2.150996780271788e-001	 4.820203017351980e+000	 8.802847603011090e+000
 1.717933572785144e-001	 4.821940692540756e+000	 8.792065371661805e+000
 1.286257787181312e-001	 4.823285229907228e+000	 8.771621203452694e+000
 8.560144433074766e-002	 4.824240602698530e+000	 8.732347841286552e+000
 4.272475293502739e-002	 4.824810835202331e+000	 8.664219532547682e+000
 0.000000000000000e+000	 4.825000000000000e+000	 8.556391655199997e+000
 4.357940238062281e-001	 4.830381306760575e+000	 9.099306649449877e+000
 3.916374991432063e-001	 4.834161775238420e+000	 9.042538011668356e+000
 3.475962653958803e-001	 4.837527967486588e+000	 9.005225903212192e+000
 3.036753608682411e-001	 4.840483578646984e+000	 8.983129717916373e+000
 2.598797222695229e-001	 4.843032369282406e+000	 8.970951065751709e+000
 2.162141841300019e-001	 4.845178162519593e+000	 8.962369164060686e+000
 1.726834782998328e-001	 4.846924841206762e+000	 8.950077392497018e+000
 1.292922335294343e-001	 4.848276345088091e+000	 8.925820893107662e+000
 8.604497512987042e-002	 4.849236667997483e+000	 8.880435098367018e+000
 4.294612471161052e-002	 4.849809855073844e+000	 8.803885071664961e+000
 0.000000000000000e+000	 4.850000000000000e+000	 8.685305546699796e+000
 4.380403847539867e-001	 4.855280179475290e+000	 9.206872787366821e+000
 3.936562491387531e-001	 4.859080134904158e+000	 9.160784880390027e+000
 3.493879987223567e-001	 4.862463678658854e+000	 9.132025139759548e+000
 3.052406977794268e-001	 4.865434524928404e+000	 9.116418322238090e+000
 2.612193084661519e-001	 4.867996453659957e+000	 9.108717353982344e+000
 2.173286902330668e-001	 4.870153307687086e+000	 9.102639058299250e+000
 1.735735993213052e-001	 4.871908989872692e+000	 9.090901067914006e+000
 1.299586883408239e-001	 4.873267460268909e+000	 9.065259801586162e+000
 8.648850592903142e-002	 4.874232733296418e+000	 9.016549386306602e+000
 4.316749648820319e-002	 4.874808874945354e+000	 8.934721407996397e+000
 0.000000000000000e+000	 4.875000000000000e+000	 8.808885375609384e+000
 4.402867457027287e-001	 4.880179052189514e+000	 9.290716264915378e+000
 3.956749991350939e-001	 4.883998494569498e+000	 9.255483171271736e+000
 3.511797320494583e-001	 4.887399389830808e+000	 9.235828945799389e+000
 3.068060346910895e-001	 4.890385471209586e+000	 9.227641389142665e+000
 2.625588946631303e-001	 4.892960538037332e+000	 9.225722070977234e+000
 2.184431963363733e-001	 4.895128452854459e+000	 9.223822404640353e+000
 1.744637203429319e-001	 4.896893138538543e+000	 9.214680927348168e+000
 1.306251431522999e-001	 4.898258575449685e+000	 9.190061664215945e+000
 8.693203672823067e-002	 4.899228798595333e+000	 9.140793455696917e+000
 4.338886826480538e-002	 4.899807894816859e+000	 9.056810129768001e+000
 0.000000000000000e+000	 4.900000000000000e+000	 8.927191402173200e+000
 4.425331066524542e-001	 4.905077924903247e+000	 9.351098819361516e+000
 3.976937491322284e-001	 4.908916854234440e+000	 9.326875255752549e+000
 3.529714653771849e-001	 4.912335101002447e+000	 9.316860080791303e+000
 3.083713716032294e-001	 4.915336417490532e+000	 9.317001838820184e+000
 2.638984808604579e-001	 4.917924622414533e+000	 9.322148088118837e+000
 2.195577024399215e-001	 4.920103598021710e+000	 9.326081832778293e+000
 1.753538413647127e-001	 4.921877287204318e+000	 9.321559181506116e+000
 1.312915979638622e-001	 4.923249690630416e+000	 9.300348109935460e+000
 8.737556752746820e-002	 4.924224863894231e+000	 9.253268204409858e+000
 4.361024004141711e-002	 4.924806914688358e+000	 9.170231266945754e+000
 0.000000000000000e+000	 4.925000000000000e+000	 9.040282663077788e+000
 4.447794676031630e-001	 4.929976797616488e+000	 9.388279559424916e+000
 3.997124991301571e-001	 4.933835213898987e+000	 9.375200831806327e+000
 3.547631987055368e-001	 4.937270812173773e+000	 9.375338628930443e+000
 3.099367085158461e-001	 4.940287363771236e+000	 9.384699957082558e+000
 2.652380670581347e-001	 4.942888706791560e+000	 9.398175725535408e+000
 2.206722085437114e-001	 4.945078743188839e+000	 9.409577546047704e+000
 1.762439623866476e-001	 4.946861435870014e+000	 9.411675780918575e+000
 1.319580527755109e-001	 4.948240805811105e+000	 9.396238714486083e+000
 8.781909832674401e-002	 4.949220929193109e+000	 9.354072724382002e+000
 4.383161181803836e-002	 4.949805934559854e+000	 9.275063330585459e+000
 0.000000000000000e+000	 4.949999999999999e+000	 9.148217002348828e+000
 4.470258285548553e-001	 4.954875670329237e+000	 9.402515031323073e+000
 4.017312491288794e-001	 4.958753573563137e+000	 9.400696991113898e+000
 3.565549320345138e-001	 4.962206523344788e+000	 9.411482066364473e+000
 3.115020454289399e-001	 4.965238310051704e+000	 9.430933461554693e+000
 2.665776532561608e-001	 4.967852791168412e+000	 9.453982816202187e+000
 2.217867146477431e-001	 4.970053888355849e+000	 9.474467382387472e+000
 1.771340834087366e-001	 4.971845584535635e+000	 9.485168472729429e+000
 1.326245075872461e-001	 4.973231920991751e+000	 9.477851052000036e+000
 8.826262912605805e-002	 4.974216994491967e+000	 9.443304346990955e+000
 4.405298359466915e-002	 4.974804954431344e+000	 9.371383350995824e+000
 0.000000000000000e+000	 4.975000000000000e+000	 9.251051101318588e+000
 4.492721895075311e-001	 4.979774543041494e+000	 9.394059282833927e+000
 4.037499991283959e-001	 4.983671933226891e+000	 9.403598284220504e+000
 3.583466653641162e-001	 4.987142234515491e+000	 9.425505326395044e+000
 3.130673823425109e-001	 4.990189256331933e+000	 9.455897565878093e+000
 2.679172394545363e-001	 4.992816875545092e+000	 9.489744768121382e+000
 2.229012207520164e-001	 4.995029033522738e+000	 9.520906873474825e+000
 1.780242044309799e-001	 4.996829733201179e+000	 9.542172855779539e+000
 1.332909623990677e-001	 4.998223036172353e+000	 9.545300745040008e+000
 8.870615992541038e-002	 4.999213059790806e+000	 9.521058687068985e+000
 4.427435537130947e-002	 4.999803974302830e+000	 9.459266914757338e+000
 0.000000000000000e+000	 5.000000000000000e+000	 9.348840507692300e+000
