x	y	stress_xx
 1.0000000000e+000	 0.0000000000e+000	 1.4845968016e+000
 9.9996079486e-001	 8.8548710816e-003	 1.4868793400e+000
 9.9984261196e-001	 1.7741231999e-002	 1.4929516052e+000
 9.9964460724e-001	 2.6658192499e-002	 1.5028625502e+000
 9.9936594664e-001	 3.5604840910e-002	 1.5166566382e+000
 9.9900580671e-001	 4.4580244178e-002	 1.5343736767e+000
 9.9856337512e-001	 5.3583447921e-002	 1.5560486525e+000
 9.9803785128e-001	 6.2613476500e-002	 1.5817115693e+000
 9.9742844692e-001	 7.1669333105e-002	 1.6113872876e+000
 9.9673438666e-001	 8.0749999857e-002	 1.6450953673e+000
 9.9595490863e-001	 8.9854437932e-002	 1.6828499130e+000
 1.0250000000e+000	 0.0000000000e+000	 1.3945463340e+000
 1.0249598147e+000	 9.0762428582e-003	 1.3982660605e+000
 1.0248386773e+000	 1.8184762798e-002	 1.4048678672e+000
 1.0246357224e+000	 2.7324647310e-002	 1.4143869063e+000
 1.0243500953e+000	 3.6494961931e-002	 1.4268542300e+000
 1.0239809519e+000	 4.5694750280e-002	 1.4422966463e+000
 1.0235274595e+000	 5.4923034116e-002	 1.4607365762e+000
 1.0229887976e+000	 6.4178813409e-002	 1.4821919134e+000
 1.0223641581e+000	 7.3461066429e-002	 1.5066758867e+000
 1.0216527463e+000	 8.2768749849e-002	 1.5341969246e+000
 1.0208537813e+000	 9.2100798875e-002	 1.5647585237e+000
 1.0500000000e+000	 0.0000000000e+000	 1.3986711182e+000
 1.0499588346e+000	 9.2976146348e-003	 1.4034420616e+000
 1.0498347426e+000	 1.8628293597e-002	 1.4102391950e+000
 1.0496268376e+000	 2.7991102121e-002	 1.4190845027e+000
 1.0493342440e+000	 3.7385082952e-002	 1.4299962383e+000
 1.0489560970e+000	 4.6809256382e-002	 1.4429888010e+000
 1.0484915439e+000	 5.6262620311e-002	 1.4580726144e+000
 1.0479397438e+000	 6.5744150319e-002	 1.4752540074e+000
 1.0472998693e+000	 7.5252799753e-002	 1.4945350976e+000
 1.0465711060e+000	 8.4787499842e-002	 1.5159136786e+000
 1.0457526541e+000	 9.4347159819e-002	 1.5393831088e+000
 1.0750000000e+000	 0.0000000000e+000	 1.4903140544e+000
 1.0749578545e+000	 9.5189864113e-003	 1.4957837047e+000
 1.0748308079e+000	 1.9071824396e-002	 1.5024722139e+000
 1.0746179528e+000	 2.8657556932e-002	 1.5103889840e+000
 1.0743183926e+000	 3.8275203973e-002	 1.5195400355e+000
 1.0739312422e+000	 4.7923762484e-002	 1.5299279037e+000
 1.0734556282e+000	 5.7602206507e-002	 1.5415515385e+000
 1.0728906901e+000	 6.7309487228e-002	 1.5544062052e+000
 1.0722355804e+000	 7.7044533077e-002	 1.5684833891e+000
 1.0714894657e+000	 8.6806249835e-002	 1.5837707027e+000
 1.0706515268e+000	 9.6593520764e-002	 1.6002517964e+000
 1.1000000000e+000	 0.0000000000e+000	 1.6634232339e+000
 1.0999568743e+000	 9.7403581879e-003	 1.6692699985e+000
 1.0998268732e+000	 1.9515355195e-002	 1.6755739574e+000
 1.0996090680e+000	 2.9324011743e-002	 1.6823324720e+000
 1.0993025413e+000	 3.9165324994e-002	 1.6895398523e+000
 1.0989063874e+000	 4.9038268587e-002	 1.6971872734e+000
 1.0984197126e+000	 5.8941792703e-002	 1.7052626940e+000
 1.0978416364e+000	 6.8874824138e-002	 1.7137507771e+000
 1.0971712916e+000	 7.8836266402e-002	 1.7226328149e+000
 1.0964078253e+000	 8.8824999828e-002	 1.7318866558e+000
 1.0955503995e+000	 9.8839881709e-002	 1.7414866347e+000
 1.1250000000e+000	 0.0000000000e+000	 1.9124846954e+000
 1.1249558942e+000	 9.9617299645e-003	 1.9184156386e+000
 1.1248229385e+000	 1.9958885994e-002	 1.9240851551e+000
 1.1246001831e+000	 2.9990466555e-002	 1.9294790679e+000
 1.1242866900e+000	 4.0055446015e-002	 1.9345804605e+000
 1.1238815325e+000	 5.0152774689e-002	 1.9393696126e+000
 1.1233837970e+000	 6.0281378898e-002	 1.9438239365e+000
 1.1227925827e+000	 7.0440161048e-002	 1.9479179182e+000
 1.1221070028e+000	 8.0627999727e-002	 1.9516230603e+000
 1.1213261850e+000	 9.0843749822e-002	 1.9549078283e+000
 1.1204492722e+000	 1.0108624265e-001	 1.9577376014e+000
 1.1500000000e+000	 0.0000000000e+000	 2.2324639525e+000
 1.1499549141e+000	 1.0183101741e-002	 2.2382127800e+000
 1.1498190038e+000	 2.0402416793e-002	 2.2430222221e+000
 1.1495912983e+000	 3.0656921366e-002	 2.2468670288e+000
 1.1492708386e+000	 4.0945567036e-002	 2.2497195052e+000
 1.1488566777e+000	 5.1267280792e-002	 2.2515494651e+000
 1.1483478814e+000	 6.1620965094e-002	 2.2523241855e+000
 1.1477435290e+000	 7.2005497959e-002	 2.2520083661e+000
 1.1470427139e+000	 8.2419733053e-002	 2.2505640904e+000
 1.1462445446e+000	 9.2862499816e-002	 2.2479507914e+000
 1.1453481449e+000	 1.0333260360e-001	 2.2441252198e+000
 1.1750000000e+000	 0.0000000000e+000	 2.6187549856e+000
 1.1749539340e+000	 1.0404473518e-002	 2.6240802441e+000
 1.1748150691e+000	 2.0845947592e-002	 2.6278266544e+000
 1.1745824135e+000	 3.1323376177e-002	 2.6299583254e+000
 1.1742549873e+000	 4.1835688057e-002	 2.6304371992e+000
 1.1738318229e+000	 5.2381786895e-002	 2.6292230205e+000
 1.1733119658e+000	 6.2960551291e-002	 2.6262733105e+000
 1.1726944752e+000	 7.3570834869e-002	 2.6215433423e+000
 1.1719784251e+000	 8.4211466378e-002	 2.6149861209e+000
 1.1711629043e+000	 9.4881249811e-002	 2.6065523665e+000
 1.1702470176e+000	 1.0557896455e-001	 2.5961905009e+000
 1.2000000000e+000	 0.0000000000e+000	 3.0671356101e+000
 1.1999529538e+000	 1.0625845294e-002	 3.0718190741e+000
 1.1998111344e+000	 2.1289478391e-002	 3.0743207494e+000
 1.1995735287e+000	 3.1989830989e-002	 3.0745945054e+000
 1.1992391360e+000	 4.2725809079e-002	 3.0725923053e+000
 1.1988069680e+000	 5.3496292997e-002	 3.0682641929e+000
 1.1982760501e+000	 6.4300137487e-002	 3.0615582827e+000
 1.1976454215e+000	 7.5136171780e-002	 3.0524207526e+000
 1.1969141363e+000	 8.6003199704e-002	 3.0407958416e+000
 1.1960812640e+000	 9.6899999806e-002	 3.0266258496e+000
 1.1951458903e+000	 1.0782532549e-001	 3.0098511422e+000
 1.2250000000e+000	 0.0000000000e+000	 3.5737283098e+000
 1.2249519737e+000	 1.0847217071e-002	 3.5775735325e+000
 1.2248071996e+000	 2.1733009191e-002	 3.5786687488e+000
 1.2245646439e+000	 3.2656285800e-002	 3.5769579607e+000
 1.2242232846e+000	 4.3615930100e-002	 3.5723835093e+000
 1.2237821132e+000	 5.4610799100e-002	 3.5648860772e+000
 1.2232401345e+000	 6.5639723683e-002	 3.5544046946e+000
 1.2225963678e+000	 7.6701508691e-002	 3.5408767495e+000
 1.2218498475e+000	 8.7794933031e-002	 3.5242380007e+000
 1.2209996236e+000	 9.8918749801e-002	 3.5044225955e+000
 1.2200447631e+000	 1.1007168644e-001	 3.4813630909e+000
 1.2500000000e+000	 0.0000000000e+000	 4.1349657694e+000
 1.2499509936e+000	 1.1068588847e-002	 4.1377967799e+000
 1.2498032649e+000	 2.2176539990e-002	 4.1373426441e+000
 1.2495557590e+000	 3.3322740611e-002	 4.1335378434e+000
 1.2492074333e+000	 4.4506051122e-002	 4.1263154272e+000
 1.2487572584e+000	 5.5725305204e-002	 4.1156070310e+000
 1.2482042189e+000	 6.6979309880e-002	 4.1013428986e+000
 1.2475473141e+000	 7.8266845602e-002	 4.0834519076e+000
 1.2467855586e+000	 8.9586666357e-002	 4.0618615992e+000
 1.2459179833e+000	 1.0093749980e-001	 4.0364982117e+000
 1.2449436358e+000	 1.1231804739e-001	 4.0072867183e+000
 9.9595490863e-001	 8.9854437932e-002	 1.6828499130e+000
 9.9508926501e-001	 9.8981587693e-002	 1.7243859727e+000
 9.9413672268e-001	 1.0813036885e-001	 1.7697783315e+000
 9.9309656377e-001	 1.1729968064e-001	 1.8190666737e+000
 9.9196808628e-001	 1.2648840201e-001	 1.8722856741e+000
 9.9075060469e-001	 1.3569539180e-001	 1.9294648449e+000
 9.8944345050e-001	 1.4491948905e-001	 1.9906283854e+000
 9.8804597288e-001	 1.5415951315e-001	 2.0557950370e+000
 9.8655753926e-001	 1.6341426419e-001	 2.1249779404e+000
 9.8497753588e-001	 1.7268252319e-001	 2.1981844988e+000
 9.8330536841e-001	 1.8196305243e-001	 2.2754162456e+000
 1.0208537813e+000	 9.2100798875e-002	 1.5647585237e+000
 1.0199664966e+000	 1.0145612738e-001	 1.6021374398e+000
 1.0189901407e+000	 1.1083362807e-001	 1.6423107366e+000
 1.0179239779e+000	 1.2023217266e-001	 1.6853037032e+000
 1.0167672884e+000	 1.2965061205e-001	 1.7311371731e+000
 1.0155193698e+000	 1.3908777659e-001	 1.7798273975e+000
 1.0141795368e+000	 1.4854247627e-001	 1.8313859220e+000
 1.0127471222e+000	 1.5801350098e-001	 1.8858194660e+000
 1.0112214777e+000	 1.6749962079e-001	 1.9431298079e+000
 1.0096019743e+000	 1.7699958627e-001	 2.0033136735e+000
 1.0078880026e+000	 1.8651212874e-001	 2.0663626293e+000
 1.0457526541e+000	 9.4347159819e-002	 1.5393831088e+000
 1.0448437283e+000	 1.0393066707e-001	 1.5722384521e+000
 1.0438435588e+000	 1.1353688729e-001	 1.6068839026e+000
 1.0427513919e+000	 1.2316466467e-001	 1.6433309558e+000
 1.0415664906e+000	 1.3281282210e-001	 1.6815871794e+000
 1.0402881349e+000	 1.4248016138e-001	 1.7216561119e+000
 1.0389156230e+000	 1.5216546349e-001	 1.7635371643e+000
 1.0374482715e+000	 1.6186748880e-001	 1.8072255254e+000
 1.0358854162e+000	 1.7158497739e-001	 1.8527120721e+000
 1.0342264127e+000	 1.8131664935e-001	 1.8999832826e+000
 1.0324706368e+000	 1.9106120505e-001	 1.9490211551e+000
 1.0706515268e+000	 9.6593520764e-002	 1.6002517964e+000
 1.0697209599e+000	 1.0640520676e-001	 1.6282531507e+000
 1.0686969769e+000	 1.1624014650e-001	 1.6570943158e+000
 1.0675788060e+000	 1.2609715668e-001	 1.6867735442e+000
 1.0663656927e+000	 1.3597503214e-001	 1.7172856634e+000
 1.0650569000e+000	 1.4587254618e-001	 1.7486219984e+000
 1.0636517093e+000	 1.5578845071e-001	 1.7807702986e+000
 1.0621494208e+000	 1.6572147663e-001	 1.8137146674e+000
 1.0605493547e+000	 1.7567033400e-001	 1.8474354966e+000
 1.0588508511e+000	 1.8563371242e-001	 1.8819094044e+000
 1.0570532710e+000	 1.9561028136e-001	 1.9171091783e+000
 1.0955503995e+000	 9.8839881709e-002	 1.7414866347e+000
 1.0945981915e+000	 1.0887974645e-001	 1.7643369468e+000
 1.0935503949e+000	 1.1894340572e-001	 1.7871274272e+000
 1.0924062201e+000	 1.2902964869e-001	 1.8098435890e+000
 1.0911648949e+000	 1.3913724219e-001	 1.8324679991e+000
 1.0898256651e+000	 1.4926493097e-001	 1.8549802246e+000
 1.0883877955e+000	 1.5941143794e-001	 1.8773567825e+000
 1.0868505702e+000	 1.6957546445e-001	 1.8995710939e+000
 1.0852132932e+000	 1.7975569060e-001	 1.9215934417e+000
 1.0834752895e+000	 1.8995077550e-001	 1.9433909326e+000
 1.0816359052e+000	 2.0015935767e-001	 1.9649274634e+000
 1.1204492722e+000	 1.0108624265e-001	 1.9577376014e+000
 1.1194754231e+000	 1.1135428614e-001	 1.9751708256e+000
 1.1184038130e+000	 1.2164666494e-001	 1.9916922119e+000
 1.1172336342e+000	 1.3196214071e-001	 2.0072749954e+000
 1.1159640970e+000	 1.4229945224e-001	 2.0218899202e+000
 1.1145944303e+000	 1.5265731576e-001	 2.0355052091e+000
 1.1131238818e+000	 1.6303442516e-001	 2.0480865370e+000
 1.1115517195e+000	 1.7342945228e-001	 2.0595970070e+000
 1.1098772317e+000	 1.8384104720e-001	 2.0699971320e+000
 1.1080997279e+000	 1.9426783858e-001	 2.0792448194e+000
 1.1062185395e+000	 2.0470843398e-001	 2.0872953605e+000
 1.1453481449e+000	 1.0333260360e-001	 2.2441252198e+000
 1.1443526547e+000	 1.1382882583e-001	 2.2559042180e+000
 1.1432572311e+000	 1.2434992416e-001	 2.2659642648e+000
 1.1420610483e+000	 1.3489463272e-001	 2.2742667380e+000
 1.1407632992e+000	 1.4546166229e-001	 2.2807709584e+000
 1.1393631954e+000	 1.5604970055e-001	 2.2854341813e+000
 1.1378599681e+000	 1.6665741239e-001	 2.2882115918e+000
 1.1362528688e+000	 1.7728344011e-001	 2.2890563045e+000
 1.1345411701e+000	 1.8792640381e-001	 2.2879193663e+000
 1.1327241663e+000	 1.9858490166e-001	 2.2847497644e+000
 1.1308011737e+000	 2.0925751029e-001	 2.2794944373e+000
 1.1702470176e+000	 1.0557896455e-001	 2.5961905009e+000
 1.1692298864e+000	 1.1630336552e-001	 2.6021051666e+000
 1.1681106491e+000	 1.2705318338e-001	 2.6055361594e+000
 1.1668884624e+000	 1.3782712473e-001	 2.6064333850e+000
 1.1655625014e+000	 1.4862387233e-001	 2.6047451040e+000
 1.1641319605e+000	 1.5944208535e-001	 2.6004179457e+000
 1.1625960543e+000	 1.7028039961e-001	 2.5933969249e+000
 1.1609540181e+000	 1.8113742794e-001	 2.5836254632e+000
 1.1592051086e+000	 1.9201176041e-001	 2.5710454143e+000
 1.1573486046e+000	 2.0290196474e-001	 2.5555970927e+000
 1.1553838079e+000	 2.1380658660e-001	 2.5372193077e+000
 1.1951458903e+000	 1.0782532549e-001	 3.0098511422e+000
 1.1941071180e+000	 1.1877790521e-001	 3.0097167197e+000
 1.1929640672e+000	 1.2975644260e-001	 3.0063740133e+000
 1.1917158765e+000	 1.4075961675e-001	 2.9997618072e+000
 1.1903617035e+000	 1.5178608238e-001	 2.9898176325e+000
 1.1889007256e+000	 1.6283447014e-001	 2.9764778017e+000
 1.1873321406e+000	 1.7390338684e-001	 2.9596774469e+000
 1.1856551674e+000	 1.8499141576e-001	 2.9393505623e+000
 1.1838690471e+000	 1.9609711701e-001	 2.9154300505e+000
 1.1819730430e+000	 2.0721902781e-001	 2.8878477730e+000
 1.1799664421e+000	 2.1835566291e-001	 2.8565346051e+000
 1.2200447631e+000	 1.1007168644e-001	 3.4813630909e+000
 1.2189843496e+000	 1.2125244490e-001	 3.4750186661e+000
 1.2178174853e+000	 1.3245970182e-001	 3.4647793710e+000
 1.2165432906e+000	 1.4369210877e-001	 3.4505731881e+000
 1.2151609057e+000	 1.5494829243e-001	 3.4323272186e+000
 1.2136694907e+000	 1.6622685494e-001	 3.4099677376e+000
 1.2120682268e+000	 1.7752637406e-001	 3.3834202530e+000
 1.2103563168e+000	 1.8884540359e-001	 3.3526095683e+000
 1.2085329856e+000	 2.0018247362e-001	 3.3174598500e+000
 1.2065974814e+000	 2.1153609089e-001	 3.2778946991e+000
 1.2045490763e+000	 2.2290473922e-001	 3.2338372263e+000
 1.2449436358e+000	 1.1231804739e-001	 4.0072867183e+000
 1.2438615812e+000	 1.2372698459e-001	 3.9945938604e+000
 1.2426709033e+000	 1.3516296104e-001	 3.9773556614e+000
 1.2413707047e+000	 1.4662460078e-001	 3.9554895924e+000
 1.2399601078e+000	 1.5811050249e-001	 3.9289125962e+000
 1.2384382558e+000	 1.6961923973e-001	 3.8975411621e+000
 1.2368043131e+000	 1.8114936129e-001	 3.8612914044e+000
 1.2350574661e+000	 1.9269939142e-001	 3.8200791467e+000
 1.2331969241e+000	 2.0426783022e-001	 3.7738200084e+000
 1.2312219198e+000	 2.1585315397e-001	 3.7224294972e+000
 1.2291317105e+000	 2.2745381553e-001	 3.6658231043e+000
 9.8330536841e-001	 1.8196305243e-001	 2.2754162456e+000
 9.8154046252e-001	 1.9125459577e-001	 2.3596724218e+000
 9.7968226449e-001	 2.0055587900e-001	 2.4456532032e+000
 9.7773024174e-001	 2.0986561017e-001	 2.5333641183e+000
 9.7568388343e-001	 2.1918248004e-001	 2.6228067781e+000
 9.7354270101e-001	 2.2850516241e-001	 2.7139787950e+000
 9.7130622879e-001	 2.3783231458e-001	 2.8068737056e+000
 9.6897402446e-001	 2.4716257779e-001	 2.9014808983e+000
 9.6654566967e-001	 2.5649457767e-001	 2.9977855451e+000
 9.6402077054e-001	 2.6582692472e-001	 3.0957685385e+000
 9.6139895816e-001	 2.7515821483e-001	 3.1954064340e+000
 1.0078880026e+000	 1.8651212874e-001	 2.0663626293e+000
 1.0060789741e+000	 1.9603596067e-001	 2.1390324171e+000
 1.0041743211e+000	 2.0556977597e-001	 2.2126431799e+000
 1.0021734978e+000	 2.1511225043e-001	 2.2871933026e+000
 1.0000759805e+000	 2.2466204205e-001	 2.3626777602e+000
 9.9788126854e-001	 2.3421779148e-001	 2.4390880554e+000
 9.9558888451e-001	 2.4377812245e-001	 2.5164121591e+000
 9.9319837507e-001	 2.5334164224e-001	 2.5946344566e+000
 9.9070931141e-001	 2.6290694212e-001	 2.6737356966e+000
 9.8812128980e-001	 2.7247259785e-001	 2.7536929466e+000
 9.8543393212e-001	 2.8203717021e-001	 2.8344795512e+000
 1.0324706368e+000	 1.9106120505e-001	 1.9490211551e+000
 1.0306174856e+000	 2.0081732556e-001	 2.0100698006e+000
 1.0286663777e+000	 2.1058367295e-001	 2.0713191135e+000
 1.0266167538e+000	 2.2035889069e-001	 2.1327605896e+000
 1.0244680776e+000	 2.3014160405e-001	 2.1943827986e+000
 1.0222198361e+000	 2.3993042054e-001	 2.2561713391e+000
 1.0198715402e+000	 2.4972393032e-001	 2.3181087974e+000
 1.0174227257e+000	 2.5952070669e-001	 2.3801747109e+000
 1.0148729532e+000	 2.6931930657e-001	 2.4423455347e+000
 1.0122218091e+000	 2.7911827098e-001	 2.5045946139e+000
 1.0094689061e+000	 2.8891612559e-001	 2.5668921586e+000
 1.0570532710e+000	 1.9561028136e-001	 1.9171091783e+000
 1.0551559972e+000	 2.0559869045e-001	 1.9665178601e+000
 1.0531584343e+000	 2.1559756992e-001	 2.0154274388e+000
 1.0510600099e+000	 2.2560553094e-001	 2.0638227434e+000
 1.0488601747e+000	 2.3562116605e-001	 2.1116861372e+000
 1.0465584036e+000	 2.4564304960e-001	 2.1589974907e+000
 1.0441541959e+000	 2.5566973819e-001	 2.2057341575e+000
 1.0416470763e+000	 2.6569977114e-001	 2.2518709551e+000
 1.0390365949e+000	 2.7573167102e-001	 2.2973801481e+000
 1.0363223283e+000	 2.8576394410e-001	 2.3422314374e+000
 1.0335038800e+000	 2.9579508097e-001	 2.3863919521e+000
 1.0816359052e+000	 2.0015935767e-001	 1.9649274634e+000
 1.0796945088e+000	 2.1038005535e-001	 2.0026925612e+000
 1.0776504909e+000	 2.2061146690e-001	 2.0392967972e+000
 1.0755032659e+000	 2.3085217120e-001	 2.0747185256e+000
 1.0732522718e+000	 2.4110072806e-001	 2.1089340736e+000
 1.0708969711e+000	 2.5135567866e-001	 2.1419177316e+000
 1.0684368517e+000	 2.6161554606e-001	 2.1736417458e+000
 1.0658714269e+000	 2.7187883559e-001	 2.2040763157e+000
 1.0632002366e+000	 2.8214403546e-001	 2.2331895947e+000
 1.0604228476e+000	 2.9240961722e-001	 2.2609476946e+000
 1.0575388540e+000	 3.0267403634e-001	 2.2873146945e+000
 1.1062185395e+000	 2.0470843398e-001	 2.0872953605e+000
 1.1042330203e+000	 2.1516142024e-001	 2.1134278049e+000
 1.1021425476e+000	 2.2562536387e-001	 2.1377733465e+000
 1.0999465220e+000	 2.3609881145e-001	 2.1603040289e+000
 1.0976443689e+000	 2.4658029006e-001	 2.1809902866e+000
 1.0952355386e+000	 2.5706830773e-001	 2.1998009516e+000
 1.0927195074e+000	 2.6756135392e-001	 2.2167032634e+000
 1.0900957775e+000	 2.7805790004e-001	 2.2316628819e+000
 1.0873638784e+000	 2.8855639991e-001	 2.2446439051e+000
 1.0845233669e+000	 2.9905529035e-001	 2.2556088897e+000
 1.0815738279e+000	 3.0955299172e-001	 2.2645188754e+000
 1.1308011737e+000	 2.0925751029e-001	 2.2794944373e+000
 1.1287715319e+000	 2.1994278513e-001	 2.2940191305e+000
 1.1266346042e+000	 2.3063926085e-001	 2.3061645095e+000
 1.1243897780e+000	 2.4134545170e-001	 2.3158964455e+000
 1.1220364660e+000	 2.5205985206e-001	 2.3231795986e+000
 1.1195741062e+000	 2.6278093679e-001	 2.3279774406e+000
 1.1170021631e+000	 2.7350716179e-001	 2.3302522808e+000
 1.1143201281e+000	 2.8423696448e-001	 2.3299652961e+000
 1.1115275201e+000	 2.9496876435e-001	 2.3270765638e+000
 1.1086238861e+000	 3.0570096347e-001	 2.3215450987e+000
 1.1056088019e+000	 3.1643194709e-001	 2.3133288928e+000
 1.1553838079e+000	 2.1380658660e-001	 2.5372193077e+000
 1.1533100435e+000	 2.2472415003e-001	 2.5401746053e+000
 1.1511266608e+000	 2.3565315782e-001	 2.5401899029e+000
 1.1488330341e+000	 2.4659209196e-001	 2.5372250138e+000
 1.1464285630e+000	 2.5753941406e-001	 2.5312389183e+000
 1.1439126737e+000	 2.6849356585e-001	 2.5221898030e+000
 1.1412848188e+000	 2.7945296965e-001	 2.5100351029e+000
 1.1385444787e+000	 2.9041602893e-001	 2.4947315465e+000
 1.1356911619e+000	 3.0138112879e-001	 2.4762352056e+000
 1.1327244054e+000	 3.1234663659e-001	 2.4545015469e+000
 1.1296437758e+000	 3.2331090246e-001	 2.4294854885e+000
 1.1799664421e+000	 2.1835566291e-001	 2.8565346051e+000
 1.1778485550e+000	 2.2950551492e-001	 2.8479718525e+000
 1.1756187174e+000	 2.4066705479e-001	 2.8359384009e+000
 1.1732762901e+000	 2.5183873221e-001	 2.8203880971e+000
 1.1708206601e+000	 2.6301897606e-001	 2.8012743147e+000
 1.1682512412e+000	 2.7420619490e-001	 2.7785500091e+000
 1.1655674746e+000	 2.8539877752e-001	 2.7521677756e+000
 1.1627688294e+000	 2.9659509337e-001	 2.7220799102e+000
 1.1598548036e+000	 3.0779349323e-001	 2.6882384747e+000
 1.1568249247e+000	 3.1899230970e-001	 2.6505953642e+000
 1.1536787498e+000	 3.3018985783e-001	 2.6091023787e+000
 1.2045490763e+000	 2.2290473922e-001	 3.2338372263e+000
 1.2023870666e+000	 2.3428687981e-001	 3.2138203418e+000
 1.2001107740e+000	 2.4568095177e-001	 3.1898304555e+000
 1.1977195461e+000	 2.5708537246e-001	 3.1618155177e+000
 1.1952127572e+000	 2.6849853806e-001	 3.1297233478e+000
 1.1925898088e+000	 2.7991882396e-001	 3.0935017041e+000
 1.1898501303e+000	 2.9134458538e-001	 3.0530983575e+000
 1.1869931800e+000	 3.0277415782e-001	 3.0084611685e+000
 1.1840184454e+000	 3.1420585767e-001	 2.9595381669e+000
 1.1809254439e+000	 3.2563798282e-001	 2.9062776354e+000
 1.1777137238e+000	 3.3706881320e-001	 2.8486281957e+000
 1.2291317105e+000	 2.2745381553e-001	 3.6658231043e+000
 1.2269255782e+000	 2.3906824470e-001	 3.6344282047e+000
 1.2246028306e+000	 2.5069484874e-001	 3.5985849387e+000
 1.2221628022e+000	 2.6233201271e-001	 3.5582354110e+000
 1.2196048543e+000	 2.7397810005e-001	 3.5133219195e+000
 1.2169283763e+000	 2.8563145302e-001	 3.4637870406e+000
 1.2141327860e+000	 2.9729039324e-001	 3.4095737183e+000
 1.2112175306e+000	 3.0895322226e-001	 3.3506253566e+000
 1.2081820871e+000	 3.2061822211e-001	 3.2868859146e+000
 1.2050259632e+000	 3.3228365593e-001	 3.2183000052e+000
 1.2017486977e+000	 3.4394776857e-001	 3.1448129962e+000
 9.6139895816e-001	 2.7515821483e-001	 3.1954064340e+000
 9.5867988915e-001	 2.8448702975e-001	 3.2979350615e+000
 9.5586324609e-001	 2.9381193769e-001	 3.4000379304e+000
 9.5294873809e-001	 3.0313149381e-001	 3.5017459432e+000
 9.4993610118e-001	 3.1244424085e-001	 3.6030883239e+000
 9.4682509884e-001	 3.2174870969e-001	 3.7040925630e+000
 9.4361552239e-001	 3.3104341994e-001	 3.8047843651e+000
 9.4030719147e-001	 3.4032688062e-001	 3.9051875975e+000
 9.3689995439e-001	 3.4959759075e-001	 4.0053242422e+000
 9.3339368862e-001	 3.5885404004e-001	 4.1052143496e+000
 9.2978830108e-001	 3.6809470955e-001	 4.2048759956e+000
 9.8543393212e-001	 2.8203717021e-001	 2.8344795512e+000
 9.8264688638e-001	 2.9159920551e-001	 2.9240168423e+000
 9.7975982724e-001	 3.0115723614e-001	 3.0125501746e+000
 9.7677245654e-001	 3.1070978117e-001	 3.1001009640e+000
 9.7368450371e-001	 3.2025534689e-001	 3.1866893247e+000
 9.7049572631e-001	 3.2979242744e-001	 3.2723340322e+000
 9.6720591045e-001	 3.3931950545e-001	 3.3570524891e+000
 9.6381487125e-001	 3.4883505265e-001	 3.4408606924e+000
 9.6032245325e-001	 3.5833753053e-001	 3.5237732036e+000
 9.5672853083e-001	 3.6782539105e-001	 3.6058031201e+000
 9.5303300860e-001	 3.7729707730e-001	 3.6869620496e+000
 1.0094689061e+000	 2.8891612559e-001	 2.5668921586e+000
 1.0066138836e+000	 2.9871138126e-001	 2.6429465211e+000
 1.0036564084e+000	 3.0850253459e-001	 2.7174499160e+000
 1.0005961750e+000	 3.1828806852e-001	 2.7904145666e+000
 9.9743290624e-001	 3.2806645292e-001	 2.8618517542e+000
 9.9416635378e-001	 3.3783614519e-001	 2.9317717993e+000
 9.9079629851e-001	 3.4759559096e-001	 3.0001840453e+000
 9.8732255103e-001	 3.5734322467e-001	 3.0670968444e+000
 9.8374495210e-001	 3.6707747030e-001	 3.1325175445e+000
 9.8006337304e-001	 3.7679674206e-001	 3.1964524794e+000
 9.7627771612e-001	 3.8649944504e-001	 3.2589069599e+000
 1.0335038800e+000	 2.9579508097e-001	 2.3863919521e+000
 1.0305808808e+000	 3.0582355701e-001	 2.4485212484e+000
 1.0275529895e+000	 3.1584783304e-001	 2.5085816528e+000
 1.0244198934e+000	 3.2586635588e-001	 2.5665764499e+000
 1.0211813088e+000	 3.3587755895e-001	 2.6225083260e+000
 1.0178369812e+000	 3.4587986295e-001	 2.6763793688e+000
 1.0143866866e+000	 3.5587167647e-001	 2.7281910684e+000
 1.0108302308e+000	 3.6585139669e-001	 2.7779443211e+000
 1.0071674510e+000	 3.7581741008e-001	 2.8256394342e+000
 1.0033982153e+000	 3.8576809306e-001	 2.8712761330e+000
 9.9952242364e-001	 3.9570181278e-001	 2.9148535694e+000
 1.0575388540e+000	 3.0267403634e-001	 2.2873146945e+000
 1.0545478781e+000	 3.1293573276e-001	 2.3351225080e+000
 1.0514495707e+000	 3.2319313149e-001	 2.3803706749e+000
 1.0482436119e+000	 3.3344464323e-001	 2.4230537584e+000
 1.0449297113e+000	 3.4368866498e-001	 2.4631660523e+000
 1.0415076087e+000	 3.5392358070e-001	 2.5007015983e+000
 1.0379770746e+000	 3.6414776197e-001	 2.5356542049e+000
 1.0343379106e+000	 3.7435956871e-001	 2.5680174684e+000
 1.0305899498e+000	 3.8455734985e-001	 2.5977847951e+000
 1.0267330575e+000	 3.9473944407e-001	 2.6249494258e+000
 1.0227671312e+000	 4.0490418052e-001	 2.6495044612e+000
 1.0815738279e+000	 3.0955299172e-001	 2.2645188754e+000
 1.0785148753e+000	 3.2004790851e-001	 2.2976511908e+000
 1.0753461519e+000	 3.3053842994e-001	 2.3277585313e+000
 1.0720673303e+000	 3.4102293058e-001	 2.3548269221e+000
 1.0686781138e+000	 3.5149977101e-001	 2.3788424335e+000
 1.0651782362e+000	 3.6196729844e-001	 2.3997912155e+000
 1.0615674627e+000	 3.7242384748e-001	 2.4176595348e+000
 1.0578455904e+000	 3.8286774073e-001	 2.4324338121e+000
 1.0540124487e+000	 3.9329728963e-001	 2.4441006629e+000
 1.0500678997e+000	 4.0371079507e-001	 2.4526469375e+000
 1.0460118387e+000	 4.1410654826e-001	 2.4580597647e+000
 1.1056088019e+000	 3.1643194709e-001	 2.3133288928e+000
 1.1024818725e+000	 3.2716008426e-001	 2.3314711375e+000
 1.0992427330e+000	 3.3788372839e-001	 2.3461469151e+000
 1.0958910488e+000	 3.4860121793e-001	 2.3573338644e+000
 1.0924265164e+000	 3.5931087703e-001	 2.3650099700e+000
 1.0888488637e+000	 3.7001101619e-001	 2.3691536145e+000
 1.0851578507e+000	 3.8069993298e-001	 2.3697436324e+000
 1.0813532702e+000	 3.9137591275e-001	 2.3667593650e+000
 1.0774349475e+000	 4.0203722940e-001	 2.3601807177e+000
 1.0734027419e+000	 4.1268214607e-001	 2.3499882181e+000
 1.0692565462e+000	 4.2330891600e-001	 2.3361630749e+000
 1.1296437758e+000	 3.2331090246e-001	 2.4294854885e+000
 1.1264488698e+000	 3.3427226000e-001	 2.4323598887e+000
 1.1231393142e+000	 3.4522902683e-001	 2.4313487119e+000
 1.1197147673e+000	 3.5617950528e-001	 2.4264213324e+000
 1.1161749189e+000	 3.6712198306e-001	 2.4175477582e+000
 1.1125194911e+000	 3.7805473393e-001	 2.4046986999e+000
 1.1087482388e+000	 3.8897601848e-001	 2.3878456421e+000
 1.1048609500e+000	 3.9988408477e-001	 2.3669609151e+000
 1.1008574464e+000	 4.1077716917e-001	 2.3420177694e+000
 1.0967375841e+000	 4.2165349708e-001	 2.3129904504e+000
 1.0925012537e+000	 4.3251128374e-001	 2.2798542749e+000
 1.1536787498e+000	 3.3018985783e-001	 2.6091023787e+000
 1.1504158670e+000	 3.4138443575e-001	 2.5964655914e+000
 1.1470358953e+000	 3.5257432527e-001	 2.5795451674e+000
 1.1435384857e+000	 3.6375779263e-001	 2.5583023115e+000
 1.1399233214e+000	 3.7493308908e-001	 2.5326991365e+000
 1.1361901186e+000	 3.8609845168e-001	 2.5026987504e+000
 1.1323386269e+000	 3.9725210398e-001	 2.4682653436e+000
 1.1283686297e+000	 4.0839225679e-001	 2.4293642784e+000
 1.1242799453e+000	 4.1951710894e-001	 2.3859621806e+000
 1.1200724263e+000	 4.3062484808e-001	 2.3380270304e+000
 1.1157459613e+000	 4.4171365148e-001	 2.2855282563e+000
 1.1777137238e+000	 3.3706881320e-001	 2.8486281957e+000
 1.1743828642e+000	 3.4849661149e-001	 2.8202691814e+000
 1.1709324765e+000	 3.5991962372e-001	 2.7872482996e+000
 1.1673622042e+000	 3.7133607997e-001	 2.7495186537e+000
 1.1636717239e+000	 3.8274419510e-001	 2.7070345182e+000
 1.1598607461e+000	 3.9414216942e-001	 2.6597514418e+000
 1.1559290149e+000	 4.0552818948e-001	 2.6076263524e+000
 1.1518763095e+000	 4.1690042880e-001	 2.5506176635e+000
 1.1477024441e+000	 4.2825704871e-001	 2.4886853824e+000
 1.1434072685e+000	 4.3959619908e-001	 2.4217912185e+000
 1.1389906688e+000	 4.5091601922e-001	 2.3498986933e+000
 1.2017486977e+000	 3.4394776857e-001	 3.1448129962e+000
 1.1983498614e+000	 3.5560878723e-001	 3.1005511051e+000
 1.1948290576e+000	 3.6726492216e-001	 3.0512678213e+000
 1.1911859226e+000	 3.7891436731e-001	 2.9969081914e+000
 1.1874201265e+000	 3.9055530112e-001	 2.9374186834e+000
 1.1835313736e+000	 4.0218588716e-001	 2.8727473071e+000
 1.1795194030e+000	 4.1380427497e-001	 2.8028437363e+000
 1.1753839893e+000	 4.2540860082e-001	 2.7276594320e+000
 1.1711249430e+000	 4.3699698847e-001	 2.6471477674e+000
 1.1667421108e+000	 4.4856755008e-001	 2.5612641532e+000
 1.1622353763e+000	 4.6011838696e-001	 2.4699661649e+000
 9.2978830108e-001	 3.6809470955e-001	 4.2048759956e+000
 9.2608372854e-001	 3.7731807239e-001	 4.3138589440e+000
 9.2227993800e-001	 3.8652259441e-001	 4.4184135784e+000
 9.1837692696e-001	 3.9570673493e-001	 4.5185414549e+000
 9.1437472374e-001	 4.0486894748e-001	 4.6142458672e+000
 9.1027338778e-001	 4.1400768054e-001	 4.7055318747e+000
 9.0607300991e-001	 4.2312137829e-001	 4.7924063281e+000
 9.0177371256e-001	 4.3220848139e-001	 4.8748778938e+000
 8.9737565002e-001	 4.4126742776e-001	 4.9529570777e+000
 8.9287900861e-001	 4.5029665337e-001	 5.0266562461e+000
 8.8828400685e-001	 4.5929459305e-001	 5.0959896458e+000
 9.5303300860e-001	 3.7729707730e-001	 3.6869620496e+000
 9.4923582175e-001	 3.8675102420e-001	 3.7785133391e+000
 9.4533693645e-001	 3.9618565927e-001	 3.8659720439e+000
 9.4133635013e-001	 4.0559940330e-001	 3.9493454817e+000
 9.3723409182e-001	 4.1499067117e-001	 4.0286425166e+000
 9.3303022247e-001	 4.2435787255e-001	 4.1038735824e+000
 9.2872483515e-001	 4.3369941274e-001	 4.1750507050e+000
 9.2431805537e-001	 4.4301369342e-001	 4.2421875229e+000
 9.1981004127e-001	 4.5229911345e-001	 4.3052993072e+000
 9.1520098382e-001	 4.6155406970e-001	 4.3644029799e+000
 9.1049110702e-001	 4.7077695788e-001	 4.4195171306e+000
 9.7627771612e-001	 3.8649944504e-001	 3.2589069599e+000
 9.7238791496e-001	 3.9618397601e-001	 3.3332813122e+000
 9.6839393489e-001	 4.0584872413e-001	 3.4038861356e+000
 9.6429577330e-001	 4.1549207167e-001	 3.4707341783e+000
 9.6009345991e-001	 4.2511239485e-001	 3.5338395486e+000
 9.5578705716e-001	 4.3470806456e-001	 3.5932177352e+000
 9.5137666039e-001	 4.4427744720e-001	 3.6488856255e+000
 9.4686239818e-001	 4.5381890545e-001	 3.7008615237e+000
 9.4224443251e-001	 4.6333079914e-001	 3.7491651674e+000
 9.3752295903e-001	 4.7281148603e-001	 3.7938177431e+000
 9.3269820719e-001	 4.8225932270e-001	 3.8348419007e+000
 9.9952242364e-001	 3.9570181278e-001	 2.9148535694e+000
 9.9554000817e-001	 4.0561692782e-001	 2.9723028848e+000
 9.9145093334e-001	 4.1551178899e-001	 3.0262938036e+000
 9.8725519647e-001	 4.2538474004e-001	 3.0768441747e+000
 9.8295282800e-001	 4.3523411854e-001	 3.1239730265e+000
 9.7854389185e-001	 4.4505825657e-001	 3.1677005834e+000
 9.7402848564e-001	 4.5485548165e-001	 3.2080482817e+000
 9.6940674099e-001	 4.6462411748e-001	 3.2450387850e+000
 9.6467882376e-001	 4.7436248483e-001	 3.2786959980e+000
 9.5984493424e-001	 4.8406890236e-001	 3.3090450800e+000
 9.5490530736e-001	 4.9374168753e-001	 3.3361124574e+000
 1.0227671312e+000	 4.0490418052e-001	 2.6495044612e+000
 1.0186921014e+000	 4.1504987963e-001	 2.6902788199e+000
 1.0145079318e+000	 4.2517485385e-001	 2.7278946668e+000
 1.0102146196e+000	 4.3527740842e-001	 2.7623746233e+000
 1.0058121961e+000	 4.4535584222e-001	 2.7937423138e+000
 1.0013007265e+000	 4.5540844858e-001	 2.8220223799e+000
 9.9668031088e-001	 4.6543351611e-001	 2.8472404939e+000
 9.9195108380e-001	 4.7542932951e-001	 2.8694233716e+000
 9.8711321501e-001	 4.8539417052e-001	 2.8885987844e+000
 9.8216690946e-001	 4.9532631870e-001	 2.9047955717e+000
 9.7711240753e-001	 5.0522405235e-001	 2.9180436507e+000
 1.0460118387e+000	 4.1410654826e-001	 2.4580597647e+000
 1.0418441946e+000	 4.2448283144e-001	 2.4824083167e+000
 1.0375649302e+000	 4.3483791871e-001	 2.5038876054e+000
 1.0331740428e+000	 4.4517007679e-001	 2.5225246962e+000
 1.0286715642e+000	 4.5547756591e-001	 2.5383474856e+000
 1.0240575612e+000	 4.6575864059e-001	 2.5513847134e+000
 1.0193321361e+000	 4.7601155056e-001	 2.5616659737e+000
 1.0144954266e+000	 4.8623454155e-001	 2.5692217264e+000
 1.0095476063e+000	 4.9642585621e-001	 2.5740833082e+000
 1.0044888847e+000	 5.0658373503e-001	 2.5762829429e+000
 9.9931950770e-001	 5.1670641718e-001	 2.5758537509e+000
 1.0692565462e+000	 4.2330891600e-001	 2.3361630749e+000
 1.0649962878e+000	 4.3391578325e-001	 2.3443348336e+000
 1.0606219287e+000	 4.4450098357e-001	 2.3499164934e+000
 1.0561334660e+000	 4.5506274516e-001	 2.3529392354e+000
 1.0515309323e+000	 4.6559928959e-001	 2.3534349035e+000
 1.0468143959e+000	 4.7610883261e-001	 2.3514360149e+000
 1.0419839614e+000	 4.8658958502e-001	 2.3469757705e+000
 1.0370397694e+000	 4.9703975358e-001	 2.3400880646e+000
 1.0319819975e+000	 5.0745754190e-001	 2.3308074949e+000
 1.0268108599e+000	 5.1784115136e-001	 2.3191693723e+000
 1.0215266079e+000	 5.2818878200e-001	 2.3052097298e+000
 1.0925012537e+000	 4.3251128374e-001	 2.2798542749e+000
 1.0881483810e+000	 4.4334873506e-001	 2.2720988257e+000
 1.0836789271e+000	 4.5416404842e-001	 2.2620228589e+000
 1.0790928892e+000	 4.6495541353e-001	 2.2496613411e+000
 1.0743903004e+000	 4.7572101328e-001	 2.2350497377e+000
 1.0695712306e+000	 4.8645902462e-001	 2.2182240216e+000
 1.0646357866e+000	 4.9716761947e-001	 2.1992206829e+000
 1.0595841122e+000	 5.0784496561e-001	 2.1780767382e+000
 1.0544163888e+000	 5.1848922760e-001	 2.1548297397e+000
 1.0491328351e+000	 5.2909856769e-001	 2.1295177850e+000
 1.0437337080e+000	 5.3967114683e-001	 2.1021795257e+000
 1.1157459613e+000	 4.4171365148e-001	 2.2855282563e+000
 1.1113004742e+000	 4.5278168687e-001	 2.2620963918e+000
 1.1067359256e+000	 4.6382711328e-001	 2.2366044616e+000
 1.1020523123e+000	 4.7484808190e-001	 2.2090908865e+000
 1.0972496685e+000	 4.8584273696e-001	 2.1795944253e+000
 1.0923280653e+000	 4.9680921663e-001	 2.1481541825e+000
 1.0872876119e+000	 5.0774565393e-001	 2.1148096178e+000
 1.0821284551e+000	 5.1865017764e-001	 2.0796005550e+000
 1.0768507800e+000	 5.2952091329e-001	 2.0425671913e+000
 1.0714548103e+000	 5.4035598403e-001	 2.0037501075e+000
 1.0659408082e+000	 5.5115351165e-001	 1.9631902768e+000
 1.1389906688e+000	 4.5091601922e-001	 2.3498986933e+000
 1.1344525674e+000	 4.6221463868e-001	 2.3110429837e+000
 1.1297929240e+000	 4.7349017814e-001	 2.2703789427e+000
 1.1250117355e+000	 4.8474075028e-001	 2.2279481122e+000
 1.1201090366e+000	 4.9596446065e-001	 2.1837922139e+000
 1.1150849000e+000	 5.0715940864e-001	 2.1379531571e+000
 1.1099394371e+000	 5.1832368838e-001	 2.0904730486e+000
 1.1046727979e+000	 5.2945538968e-001	 2.0413942014e+000
 1.0992851713e+000	 5.4055259898e-001	 1.9907591450e+000
 1.0937767855e+000	 5.5161340036e-001	 1.9386106358e+000
 1.0881479084e+000	 5.6263587648e-001	 1.8849916675e+000
 1.1622353763e+000	 4.6011838696e-001	 2.4699661649e+000
 1.1576046607e+000	 4.7164759049e-001	 2.4159414711e+000
 1.1528499225e+000	 4.8315324300e-001	 2.3603518370e+000
 1.1479711587e+000	 4.9463341865e-001	 2.3032415897e+000
 1.1429684047e+000	 5.0608618433e-001	 2.2446550806e+000
 1.1378417347e+000	 5.1750960065e-001	 2.1846366945e+000
 1.1325912624e+000	 5.2890172284e-001	 2.1232308589e+000
 1.1272171407e+000	 5.4026060171e-001	 2.0604820549e+000
 1.1217195625e+000	 5.5158428467e-001	 1.9964348274e+000
 1.1160987607e+000	 5.6287081669e-001	 1.9311337976e+000
 1.1103550086e+000	 5.7411824131e-001	 1.8646236743e+000
 8.8828400685e-001	 4.5929459305e-001	 5.0959896458e+000
 8.8359089566e-001	 4.6825968131e-001	 5.1571377833e+000
 8.7879995843e-001	 4.7719035311e-001	 5.2197151905e+000
 8.7391151114e-001	 4.8608504475e-001	 5.2838930417e+000
 8.6892590245e-001	 4.9494219467e-001	 5.3498402983e+000
 8.6384351377e-001	 5.0376024430e-001	 5.4177235234e+000
 8.5866475923e-001	 5.1253763888e-001	 5.4877066978e+000
 8.5339008574e-001	 5.2127282835e-001	 5.5599510371e+000
 8.4801997294e-001	 5.2996426816e-001	 5.6346148119e+000
 8.4255493313e-001	 5.3861042014e-001	 5.7118531687e+000
 8.3699551125e-001	 5.4720975336e-001	 5.7918179545e+000
 9.1049110702e-001	 4.7077695788e-001	 4.4195171306e+000
 9.0568066805e-001	 4.7996617334e-001	 4.4751096722e+000
 9.0076995739e-001	 4.8912011194e-001	 4.5294071981e+000
 8.9575929892e-001	 4.9823717087e-001	 4.5825573862e+000
 8.9064905002e-001	 5.0731574954e-001	 4.6347081517e+000
 8.8543960162e-001	 5.1635425041e-001	 4.6860075108e+000
 8.8013137822e-001	 5.2535107986e-001	 4.7366034433e+000
 8.7472483789e-001	 5.3430464906e-001	 4.7866437540e+000
 8.6922047226e-001	 5.4321337486e-001	 4.8362759324e+000
 8.6361880646e-001	 5.5207568064e-001	 4.8856470122e+000
 8.5792039903e-001	 5.6088999720e-001	 4.9349034298e+000
 9.3269820719e-001	 4.8225932270e-001	 3.8348419007e+000
 9.2777044045e-001	 4.9167266537e-001	 3.8836634101e+000
 9.2273995635e-001	 5.0104987077e-001	 3.9285963753e+000
 9.1760708670e-001	 5.1038929699e-001	 3.9697659338e+000
 9.1237219758e-001	 5.1968930441e-001	 4.0072998361e+000
 9.0703568946e-001	 5.2894825652e-001	 4.0413283577e+000
 9.0159799720e-001	 5.3816452084e-001	 4.0719842068e+000
 8.9605959003e-001	 5.4733646978e-001	 4.0994024283e+000
 8.9042097158e-001	 5.5646248157e-001	 4.1237203034e+000
 8.8468267979e-001	 5.6554094115e-001	 4.1450772458e+000
 8.7884528681e-001	 5.7457024104e-001	 4.1636146931e+000
 9.5490530736e-001	 4.9374168753e-001	 3.3361124574e+000
 9.4986021284e-001	 5.0337915740e-001	 3.3770449464e+000
 9.4470995531e-001	 5.1297962959e-001	 3.4116166515e+000
 9.3945487447e-001	 5.2254142311e-001	 3.4399310389e+000
 9.3409534514e-001	 5.3206285928e-001	 3.4620964948e+000
 9.2863177731e-001	 5.4154226263e-001	 3.4782262837e+000
 9.2306461618e-001	 5.5097796181e-001	 3.4884385013e+000
 9.1739434218e-001	 5.6036829049e-001	 3.4928560198e+000
 9.1162147091e-001	 5.6971158828e-001	 3.4916064263e+000
 9.0574655311e-001	 5.7900620166e-001	 3.4848219544e+000
 8.9977017459e-001	 5.8825048487e-001	 3.4726394087e+000
 9.7711240753e-001	 5.0522405235e-001	 2.9180436507e+000
 9.7194998523e-001	 5.1508564944e-001	 2.9500583798e+000
 9.6667995427e-001	 5.2490938842e-001	 2.9733527548e+000
 9.6130266225e-001	 5.3469354923e-001	 2.9880093601e+000
 9.5581849270e-001	 5.4443641415e-001	 2.9941179423e+000
 9.5022786515e-001	 5.5413626874e-001	 2.9917754160e+000
 9.4453123516e-001	 5.6379140279e-001	 2.9810858588e+000
 9.3872909432e-001	 5.7340011120e-001	 2.9621604979e+000
 9.3282197023e-001	 5.8296069499e-001	 2.9351176866e+000
 9.2681042644e-001	 5.9247146216e-001	 2.9000828705e+000
 9.2069506237e-001	 6.0193072871e-001	 2.8571885443e+000
 9.9931950770e-001	 5.1670641718e-001	 2.5758537509e+000
 9.9403975762e-001	 5.2679214147e-001	 2.5980039417e+000
 9.8864995323e-001	 5.3683914725e-001	 2.6091790124e+000
 9.8315045003e-001	 5.4684567535e-001	 2.6094413813e+000
 9.7754164026e-001	 5.5680996902e-001	 2.5988628126e+000
 9.7182395300e-001	 5.6673027485e-001	 2.5775244668e+000
 9.6599785414e-001	 5.7660484376e-001	 2.5455169389e+000
 9.6006384646e-001	 5.8643193191e-001	 2.5029402846e+000
 9.5402246955e-001	 5.9620980169e-001	 2.4499040338e+000
 9.4787429977e-001	 6.0593672267e-001	 2.3865271916e+000
 9.4161995015e-001	 6.1561097254e-001	 2.3129382264e+000
 1.0215266079e+000	 5.2818878200e-001	 2.3052097298e+000
 1.0161295300e+000	 5.3849863350e-001	 2.3166240688e+000
 1.0106199522e+000	 5.4876890608e-001	 2.3149061329e+000
 1.0049982378e+000	 5.5899780147e-001	 2.3000988227e+000
 9.9926478782e-001	 5.6918352389e-001	 2.2722565130e+000
 9.9342004084e-001	 5.7932428096e-001	 2.2314451478e+000
 9.8746447312e-001	 5.8941828473e-001	 2.1777423197e+000
 9.8139859860e-001	 5.9946375262e-001	 2.1112373357e+000
 9.7522296887e-001	 6.0945890840e-001	 2.0320312675e+000
 9.6893817309e-001	 6.1940198317e-001	 1.9402369857e+000
 9.6254483793e-001	 6.2929121638e-001	 1.8833597706e+000
 1.0437337080e+000	 5.3967114683e-001	 2.1021795257e+000
 1.0382193024e+000	 5.5020512553e-001	 2.1020563598e+000
 1.0325899511e+000	 5.6069866491e-001	 2.0867347829e+000
 1.0268460256e+000	 5.7114992759e-001	 2.0562387639e+000
 1.0209879354e+000	 5.8155707876e-001	 2.0106058232e+000
 1.0150161287e+000	 5.9191828707e-001	 1.9498871702e+000
 1.0089310921e+000	 6.0223172571e-001	 1.8741478251e+000
 1.0027333507e+000	 6.1249557333e-001	 1.7834667227e+000
 9.9642346820e-001	 6.2270801510e-001	 1.6779367985e+000
 9.9000204642e-001	 6.3286724368e-001	 1.6455868995e+000
 9.8346972570e-001	 6.4297146022e-001	 1.6248841836e+000
 1.0659408082e+000	 5.5115351165e-001	 1.9631902768e+000
 1.0603090748e+000	 5.6191161756e-001	 1.9507924128e+000
 1.0545599501e+000	 5.7262842373e-001	 1.9212149664e+000
 1.0486938134e+000	 5.8330205371e-001	 1.8744635032e+000
 1.0427110829e+000	 5.9393063362e-001	 1.8105591686e+000
 1.0366122165e+000	 6.0451229318e-001	 1.7295388700e+000
 1.0303977111e+000	 6.1504516668e-001	 1.6314554374e+000
 1.0240681029e+000	 6.2552739404e-001	 1.5222741296e+000
 1.0176239675e+000	 6.3595712181e-001	 1.5077104616e+000
 1.0110659197e+000	 6.4633250419e-001	 1.4773014561e+000
 1.0043946135e+000	 6.5665170405e-001	 1.4311628656e+000
 1.0881479084e+000	 5.6263587648e-001	 1.8849916675e+000
 1.0823988472e+000	 5.7361810960e-001	 1.8596417030e+000
 1.0765299491e+000	 5.8455818256e-001	 1.8152103785e+000
 1.0705416011e+000	 5.9545417983e-001	 1.7516853300e+000
 1.0644342305e+000	 6.0630418849e-001	 1.6690717588e+000
 1.0582083044e+000	 6.1710629929e-001	 1.5673926540e+000
 1.0518643301e+000	 6.2785860765e-001	 1.4787054650e+000
 1.0454028550e+000	 6.3855921475e-001	 1.4599518337e+000
 1.0388244668e+000	 6.4920622851e-001	 1.4234227767e+000
 1.0321297931e+000	 6.5979776469e-001	 1.3692233459e+000
 1.0253195013e+000	 6.7033194789e-001	 1.2974729525e+000
 1.1103550086e+000	 5.7411824131e-001	 1.8646236743e+000
 1.1044886196e+000	 5.8532460163e-001	 1.8256997949e+000
 1.0984999480e+000	 5.9648794139e-001	 1.7658670354e+000
 1.0923893889e+000	 6.0760630594e-001	 1.6850955270e+000
 1.0861573781e+000	 6.1867774335e-001	 1.5833749090e+000
 1.0798043922e+000	 6.2970030539e-001	 1.5131974253e+000
 1.0733309490e+000	 6.4067204862e-001	 1.4934289334e+000
 1.0667376072e+000	 6.5159103546e-001	 1.4540612914e+000
 1.0600249662e+000	 6.6245533522e-001	 1.3951860365e+000
 1.0531936664e+000	 6.7326302520e-001	 1.3169109247e+000
 1.0462443890e+000	 6.8401219173e-001	 1.2193598087e+000
 8.3699551125e-001	 5.4720975336e-001	 5.7918179545e+000
 8.3134228471e-001	 5.5576074499e-001	 5.8771583560e+000
 8.2559586333e-001	 5.6426188112e-001	 5.9389399526e+000
 8.1975688910e-001	 5.7271165764e-001	 5.9772732847e+000
 8.1382603608e-001	 5.8110858109e-001	 5.9922902578e+000
 8.0780401013e-001	 5.8945116950e-001	 5.9841441504e+000
 8.0169154872e-001	 5.9773795322e-001	 5.9530095929e+000
 7.9548942062e-001	 6.0596747576e-001	 5.8990825182e+000
 7.8919842564e-001	 6.1413829464e-001	 5.8225800820e+000
 7.8281939432e-001	 6.2224898220e-001	 5.7237405550e+000
 7.7635318757e-001	 6.3029812637e-001	 5.6513219660e+000
 8.5792039903e-001	 5.6088999720e-001	 4.9349034298e+000
 8.5212584183e-001	 5.6965476362e-001	 4.9907739721e+000
 8.4623575991e-001	 5.7836842815e-001	 5.0256895825e+000
 8.4025081132e-001	 5.8702944908e-001	 5.0397705536e+000
 8.3417168698e-001	 5.9563629562e-001	 5.0331565420e+000
 8.2799911038e-001	 6.0418744874e-001	 5.0060065605e+000
 8.2173383744e-001	 6.1268140204e-001	 4.9584989447e+000
 8.1537665613e-001	 6.2111666265e-001	 4.8908312918e+000
 8.0892838628e-001	 6.2949175201e-001	 4.8464563405e+000
 8.0238987918e-001	 6.3780520675e-001	 4.8195293812e+000
 7.9576201726e-001	 6.4605557953e-001	 4.7729883345e+000
 8.7884528681e-001	 5.7457024104e-001	 4.1636146931e+000
 8.7290939895e-001	 5.8354878224e-001	 4.1897479312e+000
 8.6687565649e-001	 5.9247497517e-001	 4.1974072602e+000
 8.6074473355e-001	 6.0134724052e-001	 4.1867224350e+000
 8.5451733788e-001	 6.1016401015e-001	 4.1578406538e+000
 8.4819421063e-001	 6.1892372797e-001	 4.1109265363e+000
 8.4177612615e-001	 6.2762485087e-001	 4.0724732720e+000
 8.3526389165e-001	 6.3626584955e-001	 4.0770992406e+000
 8.2865834692e-001	 6.4484520937e-001	 4.0642991204e+000
 8.2196036404e-001	 6.5336143130e-001	 4.0342546388e+000
 8.1517084695e-001	 6.6181303269e-001	 3.9871618355e+000
 8.9977017459e-001	 5.8825048487e-001	 3.4726394087e+000
 8.9369295606e-001	 5.9744280087e-001	 3.4687948814e+000
 8.8751555307e-001	 6.0658152220e-001	 3.4488426573e+000
 8.8123865577e-001	 6.1566503196e-001	 3.4129216677e+000
 8.7486298878e-001	 6.2469172467e-001	 3.3611864426e+000
 8.6838931088e-001	 6.3366000721e-001	 3.3838343726e+000
 8.6181841487e-001	 6.4256829971e-001	 3.3943973944e+000
 8.5515112716e-001	 6.5141503644e-001	 3.3898403874e+000
 8.4838830756e-001	 6.6019866674e-001	 3.3703312715e+000
 8.4153084889e-001	 6.6891765586e-001	 3.3360501974e+000
 8.3457967664e-001	 6.7757048585e-001	 3.2871893554e+000
 9.2069506237e-001	 6.0193072871e-001	 2.8571885443e+000
 9.1447651318e-001	 6.1133681950e-001	 2.8231508298e+000
 9.0815544965e-001	 6.2068806923e-001	 2.7752641108e+000
 9.0173257800e-001	 6.2998282341e-001	 2.7667849602e+000
 8.9520863967e-001	 6.3921943920e-001	 2.7908533890e+000
 8.8858441113e-001	 6.4839628645e-001	 2.8018775264e+000
 8.8186070358e-001	 6.5751174854e-001	 2.8000057820e+000
 8.7503836267e-001	 6.6656422333e-001	 2.7853969552e+000
 8.6811826820e-001	 6.7555212411e-001	 2.7582200524e+000
 8.6110133375e-001	 6.8447388041e-001	 2.7186540942e+000
 8.5398850633e-001	 6.9332793901e-001	 2.6668879120e+000
 9.4161995015e-001	 6.1561097254e-001	 2.3129382264e+000
 9.3526007029e-001	 6.2523083812e-001	 2.2510201016e+000
 9.2879534623e-001	 6.3479461626e-001	 2.2792648751e+000
 9.2222650022e-001	 6.4430061485e-001	 2.2964731782e+000
 9.1555429057e-001	 6.5374715373e-001	 2.3027821493e+000
 9.0877951138e-001	 6.6313256569e-001	 2.2983375511e+000
 9.0190299230e-001	 6.7245519737e-001	 2.2832935859e+000
 8.9492559818e-001	 6.8171341023e-001	 2.2578127013e+000
 8.8784822884e-001	 6.9090558147e-001	 2.2220653891e+000
 8.8067181861e-001	 7.0003010497e-001	 2.1762299779e+000
 8.7339733601e-001	 7.0908539217e-001	 2.1204924181e+000
 9.6254483793e-001	 6.2929121638e-001	 1.8833597706e+000
 9.5604362741e-001	 6.3912485675e-001	 1.8978764455e+000
 9.4943524281e-001	 6.4890116329e-001	 1.9034117523e+000
 9.4272042245e-001	 6.5861840629e-001	 1.9001063330e+000
 9.3589994147e-001	 6.6827486826e-001	 1.8881075959e+000
 9.2897461163e-001	 6.7786884493e-001	 1.8675695109e+000
 9.2194528101e-001	 6.8739864620e-001	 1.8386523995e+000
 9.1481283370e-001	 6.9686259713e-001	 1.8015227194e+000
 9.0757818948e-001	 7.0625903884e-001	 1.7563528455e+000
 9.0024230346e-001	 7.1558632953e-001	 1.7033208465e+000
 8.9280616570e-001	 7.2484284533e-001	 1.6426102578e+000
 9.8346972570e-001	 6.4297146022e-001	 1.6248841836e+000
 9.7682718452e-001	 6.5301887538e-001	 1.6141912415e+000
 9.7007513939e-001	 6.6300771033e-001	 1.5966294838e+000
 9.6321434467e-001	 6.7293619774e-001	 1.5723520975e+000
 9.5624559237e-001	 6.8280258279e-001	 1.5415170327e+000
 9.4916971188e-001	 6.9260512417e-001	 1.5042867693e+000
 9.4198756973e-001	 7.0234209504e-001	 1.4608280829e+000
 9.3470006921e-001	 7.1201178402e-001	 1.4113118077e+000
 9.2730815011e-001	 7.2161249621e-001	 1.3559125984e+000
 9.1981278832e-001	 7.3114255408e-001	 1.2948086907e+000
 9.1221499539e-001	 7.4060029849e-001	 1.2281816623e+000
 1.0043946135e+000	 6.5665170405e-001	 1.4311628656e+000
 9.9761074164e-001	 6.6691289401e-001	 1.3949427984e+000
 9.9071503597e-001	 6.7711425736e-001	 1.3539014852e+000
 9.8370826689e-001	 6.8725398918e-001	 1.3082049182e+000
 9.7659124327e-001	 6.9733029732e-001	 1.2580218765e+000
 9.6936481213e-001	 7.0734140341e-001	 1.2035236663e+000
 9.6202985844e-001	 7.1728554387e-001	 1.1448838609e+000
 9.5458730472e-001	 7.2716097092e-001	 1.0822780416e+000
 9.4703811075e-001	 7.3696595358e-001	 1.0158835401e+000
 9.3938327317e-001	 7.4669877864e-001	 9.4587918265e-001
 9.3162382508e-001	 7.5635775165e-001	 8.7244503788e-001
 1.0253195013e+000	 6.7033194789e-001	 1.2974729525e+000
 1.0183942987e+000	 6.8080691263e-001	 1.2354063491e+000
 1.0113549325e+000	 6.9122080439e-001	 1.1705065629e+000
 1.0042021891e+000	 7.0157178063e-001	 1.1029526703e+000
 9.9693689417e-001	 7.1185801186e-001	 1.0329245842e+000
 9.8955991238e-001	 7.2207768265e-001	 9.6060276582e-001
 9.8207214715e-001	 7.3222899270e-001	 8.8616793858e-001
 9.7447454023e-001	 7.4231015782e-001	 8.0980080659e-001
 9.6676807139e-001	 7.5231941095e-001	 7.3168177701e-001
 9.5895375803e-001	 7.6225500320e-001	 6.5199068764e-001
 9.5103265477e-001	 7.7211520481e-001	 5.7090654032e-001
 1.0462443890e+000	 6.8401219173e-001	 1.2193598087e+000
 1.0391778559e+000	 6.9470093126e-001	 1.1311243587e+000
 1.0319948291e+000	 7.0532735142e-001	 1.0419893740e+000
 1.0246961113e+000	 7.1588957207e-001	 9.5214731493e-001
 1.0172825451e+000	 7.2638572639e-001	 8.6178954882e-001
 1.0097550126e+000	 7.3681396190e-001	 7.7110603306e-001
 1.0021144359e+000	 7.4717244154e-001	 6.8028500305e-001
 9.9436177575e-001	 7.5745934472e-001	 5.8951266706e-001
 9.8649803203e-001	 7.6767286832e-001	 4.9897290829e-001
 9.7852424289e-001	 7.7781122776e-001	 4.0884699501e-001
 9.7044148445e-001	 7.8787265798e-001	 3.1931329955e-001
 7.7635318757e-001	 6.3029812637e-001	 5.6513219660e+000
 7.6980069631e-001	 6.3828433156e-001	 5.5850574036e+000
 7.6316284107e-001	 6.4620621937e-001	 5.5120267289e+000
 7.5644057159e-001	 6.5406242942e-001	 5.4325641968e+000
 7.4963486637e-001	 6.6185162011e-001	 5.3470084661e+000
 7.4274673220e-001	 6.6957246936e-001	 5.2557022294e+000
 7.3577720365e-001	 6.7722367538e-001	 5.1589918404e+000
 7.2872734261e-001	 6.8480395737e-001	 5.0572269401e+000
 7.2159823770e-001	 6.9231205626e-001	 4.9507600813e+000
 7.1439100374e-001	 6.9974673538e-001	 4.8399463532e+000
 7.0710678115e-001	 7.0710678115e-001	 4.7251430066e+000
 7.9576201726e-001	 6.4605557953e-001	 4.7729883345e+000
 7.8904571372e-001	 6.5424143985e-001	 4.7140191987e+000
 7.8224191210e-001	 6.6236137485e-001	 4.6491729237e+000
 7.7535158588e-001	 6.7041399015e-001	 4.5787559434e+000
 7.6837573803e-001	 6.7839791061e-001	 4.5030781718e+000
 7.6131540050e-001	 6.8631178109e-001	 4.4224526586e+000
 7.5417163374e-001	 6.9415426726e-001	 4.3371952441e+000
 7.4694552618e-001	 7.0192405631e-001	 4.2476242140e+000
 7.3963819364e-001	 7.0961985767e-001	 4.1540599541e+000
 7.3225077883e-001	 7.1724040377e-001	 4.0568246074e+000
 7.2478445068e-001	 7.2478445068e-001	 3.9562417315e+000
 8.1517084695e-001	 6.6181303269e-001	 3.9871618355e+000
 8.0829073112e-001	 6.7019854813e-001	 3.9329378549e+000
 8.0132098312e-001	 6.7851653033e-001	 3.8737042063e+000
 7.9426260017e-001	 6.8676555089e-001	 3.8097408141e+000
 7.8711660969e-001	 6.9494420111e-001	 3.7413301599e+000
 7.7988406881e-001	 7.0305109283e-001	 3.6687569629e+000
 7.7256606384e-001	 7.1108485915e-001	 3.5923078608e+000
 7.6516370974e-001	 7.1904415524e-001	 3.5122710918e+000
 7.5767814959e-001	 7.2692765908e-001	 3.4289361793e+000
 7.5011055393e-001	 7.3473407215e-001	 3.3425936184e+000
 7.4246212021e-001	 7.4246212021e-001	 3.2535345660e+000
 8.3457967664e-001	 6.7757048585e-001	 3.2871893554e+000
 8.2753574853e-001	 6.8615565642e-001	 3.2353364288e+000
 8.2040005415e-001	 6.9467168582e-001	 3.1793228734e+000
 8.1317361446e-001	 7.0311711162e-001	 3.1194033360e+000
 8.0585748135e-001	 7.1149049161e-001	 3.0558340965e+000
 7.9845273712e-001	 7.1979040456e-001	 2.9888727714e+000
 7.9096049393e-001	 7.2801545103e-001	 2.9187780198e+000
 7.8338189331e-001	 7.3616425418e-001	 2.8458092518e+000
 7.7571810553e-001	 7.4423546049e-001	 2.7702263410e+000
 7.6797032902e-001	 7.5222774054e-001	 2.6922893405e+000
 7.6013978974e-001	 7.6013978974e-001	 2.6122582038e+000
 8.5398850633e-001	 6.9332793901e-001	 2.6668879120e+000
 8.4678076594e-001	 7.0211276471e-001	 2.6151914518e+000
 8.3947912518e-001	 7.1082684130e-001	 2.5601678324e+000
 8.3208462875e-001	 7.1946867236e-001	 2.5020475829e+000
 8.2459835301e-001	 7.2803678212e-001	 2.4410619379e+000
 8.1702140542e-001	 7.3652971630e-001	 2.3774425632e+000
 8.0935492402e-001	 7.4494604292e-001	 2.3114212849e+000
 8.0160007688e-001	 7.5328435311e-001	 2.2432298236e+000
 7.9375806148e-001	 7.6154326189e-001	 2.1730995334e+000
 7.8583010412e-001	 7.6972140893e-001	 2.1012611466e+000
 7.7781745927e-001	 7.7781745927e-001	 2.0279445240e+000
 8.7339733601e-001	 7.0908539217e-001	 2.1204924181e+000
 8.6602578334e-001	 7.1806987300e-001	 2.0668825445e+000
 8.5855819620e-001	 7.2698199679e-001	 2.0107660889e+000
 8.5099564304e-001	 7.3582023310e-001	 1.9523505583e+000
 8.4333922467e-001	 7.4458307262e-001	 1.8918432317e+000
 8.3559007373e-001	 7.5326902803e-001	 1.8294509065e+000
 8.2774935411e-001	 7.6187663480e-001	 1.7653796505e+000
 8.1981826044e-001	 7.7040445205e-001	 1.6998345603e+000
 8.1179801742e-001	 7.7885106330e-001	 1.6330195261e+000
 8.0368987921e-001	 7.8721507731e-001	 1.5651370032e+000
 7.9549512880e-001	 7.9549512880e-001	 1.4963877923e+000
 8.9280616570e-001	 7.2484284533e-001	 1.6426102578e+000
 8.8527080075e-001	 7.3402698129e-001	 1.5851486021e+000
 8.7763726723e-001	 7.4313715227e-001	 1.5259905624e+000
 8.6990665733e-001	 7.5217179383e-001	 1.4653216602e+000
 8.6208009633e-001	 7.6112936312e-001	 1.4033262479e+000
 8.5415874203e-001	 7.7000833977e-001	 1.3401872746e+000
 8.4614378421e-001	 7.7880722669e-001	 1.2760860599e+000
 8.3803644401e-001	 7.8752455098e-001	 1.2112020753e+000
 8.2983797336e-001	 7.9615886471e-001	 1.1457127342e+000
 8.2154965430e-001	 8.0470874570e-001	 1.0797931893e+000
 8.1317279833e-001	 8.1317279833e-001	 1.0136161409e+000
 9.1221499539e-001	 7.4060029849e-001	 1.2281816623e+000
 9.0451581816e-001	 7.4998408958e-001	 1.1650495743e+000
 8.9671633826e-001	 7.5929230776e-001	 1.1010232867e+000
 8.8881767162e-001	 7.6852335457e-001	 1.0362673195e+000
 8.8082096799e-001	 7.7767565363e-001	 9.7094407235e-001
 8.7272741034e-001	 7.8674765150e-001	 9.0521360933e-001
 8.6453821430e-001	 7.9573781857e-001	 8.3923345315e-001
 8.5625462758e-001	 8.0464464992e-001	 7.7315838888e-001
 8.4787792931e-001	 8.1346666612e-001	 7.0714027743e-001
 8.3940942940e-001	 8.2220241408e-001	 6.4132787934e-001
 8.3085046786e-001	 8.3085046786e-001	 5.7586668911e-001
 9.3162382508e-001	 7.5635775165e-001	 8.7244503788e-001
 9.2376083557e-001	 7.6594119787e-001	 8.0193302164e-001
 9.1579540928e-001	 7.7544746325e-001	 7.3132321055e-001
 9.0772868592e-001	 7.8487491531e-001	 6.6076005923e-001
 8.9956183966e-001	 7.9422194413e-001	 5.9038493865e-001
 8.9129607865e-001	 8.0348696323e-001	 5.2033593922e-001
 8.8293264439e-001	 8.1266841046e-001	 4.5074768458e-001
 8.7447281114e-001	 8.2176474885e-001	 3.8175115658e-001
 8.6591788525e-001	 8.3077446752e-001	 3.1347353175e-001
 8.5726920449e-001	 8.3969608247e-001	 2.4603802969e-001
 8.4852813739e-001	 8.4852813739e-001	 1.7956377367e-001
 9.5103265477e-001	 7.7211520481e-001	 5.7090654032e-001
 9.4300585297e-001	 7.8189830617e-001	 4.9140476757e-001
 9.3487448031e-001	 7.9160261873e-001	 4.1259794123e-001
 9.2663970021e-001	 8.0122647604e-001	 3.3461134247e-001
 9.1830271132e-001	 8.1076823464e-001	 2.5756619244e-001
 9.0986474695e-001	 8.2022627497e-001	 1.8157947226e-001
 9.0132707449e-001	 8.2959900235e-001	 1.0676375552e-001
 8.9269099471e-001	 8.3888484779e-001	 3.3227053618e-002
 8.8395784120e-001	 8.4808226893e-001	-3.8927325564e-002
 8.7512897959e-001	 8.5718975085e-001	-1.0960090548e-001
 8.6620580692e-001	 8.6620580692e-001	-1.7870015483e-001
 9.7044148445e-001	 7.8787265798e-001	 3.1931329955e-001
 9.6225087038e-001	 7.9785541446e-001	 2.2930307230e-001
 9.5395355134e-001	 8.0775777422e-001	 1.4077887838e-001
 9.4555071450e-001	 8.1757803678e-001	 5.3847678107e-002
 9.3704358298e-001	 8.2731452514e-001	-3.1388619701e-002
 9.2843341526e-001	 8.3696558670e-001	-1.1483332179e-001
 9.1972150458e-001	 8.4652959423e-001	-1.9639510019e-001
 9.1090917828e-001	 8.5600494672e-001	-2.7598812730e-001
 9.0199779714e-001	 8.6539007034e-001	-3.5353219590e-001
 8.9298875468e-001	 8.7468341924e-001	-4.2895282390e-001
 8.8388347645e-001	 8.8388347645e-001	-5.0218134351e-001
 7.0710678115e-001	 7.0710678115e-001	 4.7251430066e+000
 6.9974673538e-001	 7.1439100374e-001	 4.5864298028e+000
 6.9231205626e-001	 7.2159823770e-001	 4.4391644964e+000
 6.8480395737e-001	 7.2872734261e-001	 4.2837284402e+000
 6.7722367538e-001	 7.3577720365e-001	 4.1205081829e+000
 6.6957246936e-001	 7.4274673220e-001	 3.9498950785e+000
 6.6185162011e-001	 7.4963486637e-001	 3.7722848926e+000
 6.5406242942e-001	 7.5644057159e-001	 3.5880774088e+000
 6.4620621937e-001	 7.6316284107e-001	 3.3976760340e+000
 6.3828433156e-001	 7.6980069631e-001	 3.2014874031e+000
 6.3029812637e-001	 7.7635318757e-001	 2.9999209855e+000
 7.2478445068e-001	 7.2478445068e-001	 3.9562417315e+000
 7.1724040377e-001	 7.3225077883e-001	 3.8335077724e+000
 7.0961985767e-001	 7.3963819364e-001	 3.7035808676e+000
 7.0192405631e-001	 7.4694552618e-001	 3.5668048128e+000
 6.9415426726e-001	 7.5417163374e-001	 3.4235273067e+000
 6.8631178109e-001	 7.6131540050e-001	 3.2740996020e+000
 6.7839791061e-001	 7.6837573803e-001	 3.1188761565e+000
 6.7041399015e-001	 7.7535158588e-001	 2.9582142851e+000
 6.6236137485e-001	 7.8224191210e-001	 2.7924738126e+000
 6.5424143985e-001	 7.8904571372e-001	 2.6220167280e+000
 6.4605557953e-001	 7.9576201726e-001	 2.4472068423e+000
 7.4246212021e-001	 7.4246212021e-001	 3.2535345660e+000
 7.3473407215e-001	 7.5011055393e-001	 3.1439868576e+000
 7.2692765908e-001	 7.5767814959e-001	 3.0285594044e+000
 7.1904415524e-001	 7.6516370974e-001	 2.9075597801e+000
 7.1108485915e-001	 7.7256606384e-001	 2.7812981816e+000
 7.0305109283e-001	 7.7988406881e-001	 2.6500871206e+000
 6.9494420111e-001	 7.8711660969e-001	 2.5142411181e+000
 6.8676555089e-001	 7.9426260017e-001	 2.3740764007e+000
 6.7851653033e-001	 8.0132098312e-001	 2.2299106005e+000
 6.7019854813e-001	 8.0829073112e-001	 2.0820624578e+000
 6.6181303269e-001	 8.1517084695e-001	 1.9308515276e+000
 7.6013978974e-001	 7.6013978974e-001	 2.6122582038e+000
 7.5222774054e-001	 7.6797032902e-001	 2.5133128042e+000
 7.4423546049e-001	 7.7571810553e-001	 2.4097596916e+000
 7.3616425418e-001	 7.8338189331e-001	 2.3018714476e+000
 7.2801545103e-001	 7.9096049393e-001	 2.1899220066e+000
 7.1979040456e-001	 7.9845273712e-001	 2.0741863876e+000
 7.1149049161e-001	 8.0585748135e-001	 1.9549404307e+000
 7.0311711162e-001	 8.1317361446e-001	 1.8324605369e+000
 6.9467168582e-001	 8.2040005415e-001	 1.7070234141e+000
 6.8615565642e-001	 8.2753574853e-001	 1.5789058263e+000
 6.7757048585e-001	 8.3457967664e-001	 1.4483843498e+000
 7.7781745927e-001	 7.7781745927e-001	 2.0279445240e+000
 7.6972140893e-001	 7.8583010412e-001	 1.9372076281e+000
 7.6154326189e-001	 7.9375806148e-001	 1.8430983077e+000
 7.5328435311e-001	 8.0160007688e-001	 1.7458552860e+000
 7.4494604292e-001	 8.0935492402e-001	 1.6457173751e+000
 7.3652971630e-001	 8.1702140542e-001	 1.5429232476e+000
 7.2803678212e-001	 8.2459835301e-001	 1.4377112132e+000
 7.1946867236e-001	 8.3208462875e-001	 1.3303190026e+000
 7.1082684130e-001	 8.3947912518e-001	 1.2209835566e+000
 7.0211276471e-001	 8.4678076594e-001	 1.1099408232e+000
 6.9332793901e-001	 8.5398850633e-001	 9.9742556092e-001
 7.9549512880e-001	 7.9549512880e-001	 1.4963877923e+000
 7.8721507731e-001	 8.0368987921e-001	 1.4116389189e+000
 7.7885106330e-001	 8.1179801742e-001	 1.3247202706e+000
 7.7040445205e-001	 8.1981826044e-001	 1.2358377579e+000
 7.6187663480e-001	 8.2774935411e-001	 1.1451961207e+000
 7.5326902803e-001	 8.3559007373e-001	 1.0529987376e+000
 7.4458307262e-001	 8.4333922467e-001	 9.5944744303e-001
 7.3582023310e-001	 8.5099564304e-001	 8.6474235278e-001
 7.2698199679e-001	 8.5855819620e-001	 7.6908169759e-001
 7.1806987300e-001	 8.6602578334e-001	 6.7266166525e-001
 7.0908539217e-001	 8.7339733601e-001	 5.7567625132e-001
 8.1317279833e-001	 8.1317279833e-001	 1.0136161409e+000
 8.0470874570e-001	 8.2154965430e-001	 9.3279314677e-001
 7.9615886471e-001	 8.2983797336e-001	 8.5097420631e-001
 7.8752455098e-001	 8.3803644401e-001	 7.6833338333e-001
 7.7880722669e-001	 8.4614378421e-001	 6.8504231213e-001
 7.7000833977e-001	 8.5415874203e-001	 6.0127004436e-001
 7.6112936312e-001	 8.6208009633e-001	 5.1718290566e-001
 7.5217179383e-001	 8.6990665733e-001	 4.3294436239e-001
 7.4313715227e-001	 8.7763726723e-001	 3.4871489839e-001
 7.3402698129e-001	 8.8527080075e-001	 2.6465190197e-001
 7.2484284533e-001	 8.9280616570e-001	 1.8090956320e-001
 8.3085046786e-001	 8.3085046786e-001	 5.7586668911e-001
 8.2220241408e-001	 8.3940942940e-001	 4.9705237742e-001
 8.1346666612e-001	 8.4787792931e-001	 4.1839068938e-001
 8.0464464992e-001	 8.5625462758e-001	 3.4002473406e-001
 7.9573781857e-001	 8.6453821430e-001	 2.6209393078e-001
 7.8674765150e-001	 8.7272741034e-001	 1.8473389265e-001
 7.7767565363e-001	 8.8082096799e-001	 1.0807632195e-001
 7.6852335457e-001	 8.8881767162e-001	 3.2248917458e-002
 7.5929230776e-001	 8.9671633826e-001	-4.2624706276e-002
 7.4998408958e-001	 9.0451581816e-001	-1.1642508761e-001
 7.4060029849e-001	 9.1221499539e-001	-1.8903697458e-001
 8.4852813739e-001	 8.4852813739e-001	 1.7956377367e-001
 8.3969608247e-001	 8.5726920449e-001	 1.0097389763e-001
 8.3077446752e-001	 8.6591788525e-001	 2.3663289449e-002
 8.2176474885e-001	 8.7447281114e-001	-5.2255072036e-002
 8.1266841046e-001	 8.8293264439e-001	-1.2667316197e-001
 8.0348696323e-001	 8.9129607865e-001	-1.9948798988e-001
 7.9422194413e-001	 8.9956183966e-001	-2.7060166615e-001
 7.8487491531e-001	 9.0772868592e-001	-3.3992145471e-001
 7.7544746325e-001	 9.1579540928e-001	-4.0735981174e-001
 7.6594119787e-001	 9.2376083557e-001	-4.7283441068e-001
 7.5635775165e-001	 9.3162382508e-001	-5.3626815344e-001
 8.6620580692e-001	 8.6620580692e-001	-1.7870015483e-001
 8.5718975085e-001	 8.7512897959e-001	-2.5872766455e-001
 8.4808226893e-001	 8.8395784120e-001	-3.3636806076e-001
 8.3888484779e-001	 8.9269099471e-001	-4.1153773272e-001
 8.2959900235e-001	 9.0132707449e-001	-4.8415929417e-001
 8.2022627497e-001	 9.0986474695e-001	-5.5416162816e-001
 8.1076823464e-001	 9.1830271132e-001	-6.2147991613e-001
 8.0122647604e-001	 9.2663970021e-001	-6.8605565094e-001
 7.9160261873e-001	 9.3487448031e-001	-7.4783663419e-001
 7.8189830617e-001	 9.4300585297e-001	-8.0677695791e-001
 7.7211520481e-001	 9.5103265477e-001	-8.6283697074e-001
 8.8388347645e-001	 8.8388347645e-001	-5.0218134351e-001
 8.7468341924e-001	 8.9298875468e-001	-5.8519607390e-001
 8.6539007034e-001	 9.0199779714e-001	-6.6473170177e-001
 8.5600494672e-001	 9.1090917828e-001	-7.4073327988e-001
 8.4652959423e-001	 9.1972150458e-001	-8.1315336430e-001
 8.3696558670e-001	 9.2843341526e-001	-8.8195202443e-001
 8.2731452514e-001	 9.3704358298e-001	-9.4709683494e-001
 8.1757803678e-001	 9.4555071450e-001	-1.0085628498e+000
 8.0775777422e-001	 9.5395355134e-001	-1.0663325586e+000
 7.9785541446e-001	 9.6225087038e-001	-1.1203958251e+000
 7.8787265798e-001	 9.7044148445e-001	-1.1707498092e+000
 6.3029812637e-001	 7.7635318757e-001	 2.9999209855e+000
 6.2224898220e-001	 7.8281939432e-001	 2.7772599280e+000
 6.1413829464e-001	 7.8919842564e-001	 2.5458176252e+000
 6.0596747576e-001	 7.9548942062e-001	 2.3118034476e+000
 5.9773795322e-001	 8.0169154872e-001	 2.0756344507e+000
 5.8945116950e-001	 8.0780401013e-001	 1.8377315756e+000
 5.8110858109e-001	 8.1382603608e-001	 1.5985191650e+000
 5.7271165764e-001	 8.1975688910e-001	 1.3584244721e+000
 5.6426188112e-001	 8.2559586333e-001	 1.1178771640e+000
 5.5576074499e-001	 8.3134228471e-001	 8.7730882049e-001
 5.4720975336e-001	 8.3699551125e-001	 6.3715242879e-001
 6.4605557953e-001	 7.9576201726e-001	 2.4472068423e+000
 6.3780520675e-001	 8.0238987918e-001	 2.2530158587e+000
 6.2949175201e-001	 8.0892838628e-001	 2.0572154428e+000
 6.2111666265e-001	 8.1537665613e-001	 1.8541495314e+000
 6.1268140204e-001	 8.2173383744e-001	 1.6425847857e+000
 6.0418744874e-001	 8.2799911038e-001	 1.4296287315e+000
 5.9563629562e-001	 8.3417168698e-001	 1.2156668431e+000
 5.8702944908e-001	 8.4025081132e-001	 1.0010876502e+000
 5.7836842815e-001	 8.4623575991e-001	 7.8628227529e-001
 5.6965476362e-001	 8.5212584183e-001	 5.7164396697e-001
 5.6088999720e-001	 8.5792039903e-001	 3.5756762738e-001
 6.6181303269e-001	 8.1517084695e-001	 1.9308515276e+000
 6.5336143130e-001	 8.2196036404e-001	 1.7590965257e+000
 6.4484520937e-001	 8.2865834692e-001	 1.5864348495e+000
 6.3626584955e-001	 8.3526389165e-001	 1.4131585492e+000
 6.2762485087e-001	 8.4177612615e-001	 1.2395574591e+000
 6.1892372797e-001	 8.4819421063e-001	 1.0533797759e+000
 6.1016401015e-001	 8.5451733788e-001	 8.6117043724e-001
 6.0134724052e-001	 8.6074473355e-001	 6.6855953298e-001
 5.9247497517e-001	 8.6687565649e-001	 4.7590160055e-001
 5.8354878224e-001	 8.7290939895e-001	 2.8355355446e-001
 5.7457024104e-001	 8.7884528681e-001	 9.1874245049e-002
 6.7757048585e-001	 8.3457967664e-001	 1.4483843498e+000
 6.6891765586e-001	 8.4153084889e-001	 1.2963756446e+000
 6.6019866674e-001	 8.4838830756e-001	 1.1441435258e+000
 6.5141503644e-001	 8.5515112716e-001	 9.9193780822e-001
 6.4256829971e-001	 8.6181841487e-001	 8.4000542956e-001
 6.3366000721e-001	 8.6838931088e-001	 6.8859027499e-001
 6.2469172467e-001	 8.7486298878e-001	 5.3712153780e-001
 6.1566503196e-001	 8.8123865577e-001	 3.6315524117e-001
 6.0658152220e-001	 8.8751555307e-001	 1.8927437383e-001
 5.9744280087e-001	 8.9369295606e-001	 1.5801409340e-002
 5.8825048487e-001	 8.9977017459e-001	-1.5693892431e-001
 6.9332793901e-001	 8.5398850633e-001	 9.9742556092e-001
 6.8447388041e-001	 8.6110133375e-001	 8.6268616582e-001
 6.7555212411e-001	 8.6811826820e-001	 7.2838984083e-001
 6.6656422333e-001	 8.7503836267e-001	 5.9474519400e-001
 6.5751174854e-001	 8.8186070358e-001	 4.6195728816e-001
 6.4839628645e-001	 8.8858441113e-001	 3.3022751617e-001
 6.3921943920e-001	 8.9520863967e-001	 1.9975348595e-001
 6.2998282341e-001	 9.0173257800e-001	 7.0728915477e-002
 6.2068806923e-001	 9.0815544965e-001	-7.1137200437e-002
 6.1133681950e-001	 9.1447651318e-001	-2.2894733604e-001
 6.0193072871e-001	 9.2069506237e-001	-3.8600355846e-001
 7.0908539217e-001	 8.7339733601e-001	 5.7567625132e-001
 7.0003010497e-001	 8.8067181861e-001	 4.5592376308e-001
 6.9090558147e-001	 8.8784822884e-001	 3.3726659674e-001
 6.8171341023e-001	 8.9492559818e-001	 2.1987307855e-001
 6.7245519737e-001	 9.0190299230e-001	 1.0390731289e-001
 6.6313256569e-001	 9.0877951138e-001	-1.0470892331e-002
 6.5374715373e-001	 9.1555429057e-001	-1.2310608960e-001
 6.4430061485e-001	 9.2222650022e-001	-2.3384724501e-001
 6.3479461626e-001	 9.2879534623e-001	-3.4254778099e-001
 6.2523083812e-001	 9.3526007029e-001	-4.4906560867e-001
 6.1561097254e-001	 9.4161995015e-001	-5.9255842104e-001
 7.2484284533e-001	 8.9280616570e-001	 1.8090956320e-001
 7.1558632953e-001	 9.0024230346e-001	 7.4040015607e-002
 7.0625903884e-001	 9.0757818948e-001	-3.1093801032e-002
 6.9686259713e-001	 9.1481283370e-001	-1.3436301301e-001
 6.8739864620e-001	 9.2194528101e-001	-2.3564365508e-001
 6.7786884493e-001	 9.2897461163e-001	-3.3481669548e-001
 6.6827486826e-001	 9.3589994147e-001	-4.3176804909e-001
 6.5861840629e-001	 9.4272042245e-001	-5.2638857922e-001
 6.4890116329e-001	 9.4943524281e-001	-6.1857408809e-001
 6.3912485675e-001	 9.5604362741e-001	-7.0822529633e-001
 6.2929121638e-001	 9.6254483793e-001	-7.9524781187e-001
 7.4060029849e-001	 9.1221499539e-001	-1.8903697458e-001
 7.3114255408e-001	 9.1981278832e-001	-2.8496353924e-001
 7.2161249621e-001	 9.2730815011e-001	-3.7852355691e-001
 7.1201178402e-001	 9.3470006921e-001	-4.6962686552e-001
 7.0234209504e-001	 9.4198756973e-001	-5.5818890956e-001
 6.9260512417e-001	 9.4916971188e-001	-6.4413071575e-001
 6.8280258279e-001	 9.5624559237e-001	-7.2737885583e-001
 6.7293619774e-001	 9.6321434467e-001	-8.0786539711e-001
 6.6300771033e-001	 9.7007513939e-001	-8.8552784090e-001
 6.5301887538e-001	 9.7682718452e-001	-9.6030904942e-001
 6.4297146022e-001	 9.8346972570e-001	-1.0321571614e+000
 7.5635775165e-001	 9.3162382508e-001	-5.3626815344e-001
 7.4669877864e-001	 9.3938327317e-001	-6.2304060997e-001
 7.3696595358e-001	 9.4703811075e-001	-7.0682317164e-001
 7.2716097092e-001	 9.5458730472e-001	-7.8756372903e-001
 7.1728554387e-001	 9.6202985844e-001	-8.6521649029e-001
 7.0734140341e-001	 9.6936481213e-001	-9.3974190757e-001
 6.9733029732e-001	 9.7659124327e-001	-1.0111065897e+000
 6.8725398918e-001	 9.8370826689e-001	-1.0792832018e+000
 6.7711425736e-001	 9.9071503597e-001	-1.1442503516e+000
 6.6691289401e-001	 9.9761074164e-001	-1.2059924637e+000
 6.5665170405e-001	 1.0043946135e+000	-1.2644996425e+000
 7.7211520481e-001	 9.5103265477e-001	-8.6283697074e-001
 7.6225500320e-001	 9.5895375803e-001	-9.4210471767e-001
 7.5231941095e-001	 9.6676807139e-001	-1.0177646773e+000
 7.4231015782e-001	 9.7447454023e-001	-1.0898022101e+000
 7.3222899270e-001	 9.8207214715e-001	-1.1582097190e+000
 7.2207768265e-001	 9.8955991238e-001	-1.2229865275e+000
 7.1185801186e-001	 9.9693689417e-001	-1.2841387415e+000
 7.0157178063e-001	 1.0042021891e+000	-1.3416790986e+000
 6.9122080439e-001	 1.0113549325e+000	-1.3956268021e+000
 6.8080691263e-001	 1.0183942987e+000	-1.4460073433e+000
 6.7033194789e-001	 1.0253195013e+000	-1.4928523103e+000
 7.8787265798e-001	 9.7044148445e-001	-1.1707498092e+000
 7.7781122776e-001	 9.7852424289e-001	-1.2440332148e+000
 7.6767286832e-001	 9.8649803203e-001	-1.3130944843e+000
 7.5745934472e-001	 9.9436177575e-001	-1.3779559361e+000
 7.4717244154e-001	 1.0021144359e+000	-1.4386476715e+000
 7.3681396190e-001	 1.0097550126e+000	-1.4952074040e+000
 7.2638572639e-001	 1.0172825451e+000	-1.5476802716e+000
 7.1588957207e-001	 1.0246961113e+000	-1.5961186344e+000
 7.0532735142e-001	 1.0319948291e+000	-1.6405818574e+000
 6.9470093126e-001	 1.0391778559e+000	-1.6811360794e+000
 6.8401219173e-001	 1.0462443890e+000	-1.7178539695e+000
 5.4720975336e-001	 8.3699551125e-001	 6.3715242879e-001
 5.3861042014e-001	 8.4255493313e-001	 3.9164726972e-001
 5.2996426816e-001	 8.4801997294e-001	 1.3619023683e-001
 5.2127282835e-001	 8.5339008574e-001	-1.2867227341e-001
 5.1253763888e-001	 8.5866475923e-001	-4.0238480447e-001
 5.0376024430e-001	 8.6384351377e-001	-6.8438355123e-001
 4.9494219467e-001	 8.6892590245e-001	-9.7409708007e-001
 4.8608504475e-001	 8.7391151114e-001	-1.2709470558e+000
 4.7719035311e-001	 8.7879995843e-001	-1.5743489745e+000
 4.6825968131e-001	 8.8359089566e-001	-1.8837128998e+000
 4.5929459305e-001	 8.8828400685e-001	-2.1984442031e+000
 5.6088999720e-001	 8.5792039903e-001	 3.5756762738e-001
 5.5207568064e-001	 8.6361880646e-001	 1.4355663756e-001
 5.4321337486e-001	 8.6922047226e-001	-7.7512694782e-002
 5.3430464906e-001	 8.7472483789e-001	-3.0516773077e-001
 5.2535107986e-001	 8.8013137822e-001	-5.3892865939e-001
 5.1635425041e-001	 8.8543960162e-001	-7.7830912327e-001
 5.0731574954e-001	 8.9064905002e-001	-1.0228168516e+000
 4.9823717087e-001	 8.9575929892e-001	-1.2719542988e+000
 4.8912011194e-001	 9.0076995739e-001	-1.5252192881e+000
 4.7996617334e-001	 9.0568066805e-001	-1.7821056576e+000
 4.7077695788e-001	 9.1049110702e-001	-2.0421039094e+000
 5.7457024104e-001	 8.7884528681e-001	 9.1874245049e-002
 5.6554094115e-001	 8.8468267979e-001	-9.6296701595e-002
 5.5646248157e-001	 8.9042097158e-001	-2.8880427881e-001
 5.4733646978e-001	 8.9605959003e-001	-4.8524605216e-001
 5.3816452084e-001	 9.0159799720e-001	-6.8521420120e-001
 5.2894825652e-001	 9.0703568946e-001	-8.8829606377e-001
 5.1968930441e-001	 9.1237219758e-001	-1.0940746861e+000
 5.1038929699e-001	 9.1760708670e-001	-1.3021293778e+000
 5.0104987077e-001	 9.2273995635e-001	-1.5120362704e+000
 4.9167266537e-001	 9.2777044045e-001	-1.7233688780e+000
 4.8225932270e-001	 9.3269820719e-001	-1.9356986600e+000
 5.8825048487e-001	 8.9977017459e-001	-1.5693892431e-001
 5.7900620166e-001	 9.0574655311e-001	-3.2456406863e-001
 5.6971158828e-001	 9.1162147091e-001	-4.9396652069e-001
 5.6036829049e-001	 9.1739434218e-001	-6.6481069850e-001
 5.5097796181e-001	 9.2306461618e-001	-8.3675732271e-001
 5.4154226263e-001	 9.2863177731e-001	-1.0094638835e+000
 5.3206285928e-001	 9.3409534514e-001	-1.1825851121e+000
 5.2254142311e-001	 9.3945487447e-001	-1.3557734562e+000
 5.1297962959e-001	 9.4470995531e-001	-1.5286795578e+000
 5.0337915740e-001	 9.4986021284e-001	-1.7009527330e+000
 4.9374168753e-001	 9.5490530736e-001	-1.8722414526e+000
 6.0193072871e-001	 9.2069506237e-001	-3.8600355846e-001
 5.9247146216e-001	 9.2681042644e-001	-5.3805137671e-001
 5.8296069499e-001	 9.3282197023e-001	-6.8947107249e-001
 5.7340011120e-001	 9.3872909432e-001	-8.3999074562e-001
 5.6379140279e-001	 9.4453123516e-001	-9.8933639370e-001
 5.5413626874e-001	 9.5022786515e-001	-1.1372323054e+000
 5.4443641415e-001	 9.5581849270e-001	-1.2834014576e+000
 5.3469354923e-001	 9.6130266225e-001	-1.4275659147e+000
 5.2490938842e-001	 9.6667995427e-001	-1.5694472307e+000
 5.1508564944e-001	 9.7194998523e-001	-1.7087668518e+000
 5.0522405235e-001	 9.7711240753e-001	-1.8452465189e+000
 6.1561097254e-001	 9.4161995015e-001	-5.9255842104e-001
 6.0593672267e-001	 9.4787429977e-001	-7.3370195433e-001
 5.9620980169e-001	 9.5402246955e-001	-8.7195816102e-001
 5.8643193191e-001	 9.6006384646e-001	-1.0071158159e+000
 5.7660484376e-001	 9.6599785414e-001	-1.1389630969e+000
 5.6673027485e-001	 9.7182395300e-001	-1.2672879079e+000
 5.5680996902e-001	 9.7754164026e-001	-1.3918782057e+000
 5.4684567535e-001	 9.8315045003e-001	-1.5125223273e+000
 5.3683914725e-001	 9.8864995323e-001	-1.6290093198e+000
 5.2679214147e-001	 9.9403975762e-001	-1.7411292697e+000
 5.1670641718e-001	 9.9931950770e-001	-1.8486736319e+000
 6.2929121638e-001	 9.6254483793e-001	-7.9524781187e-001
 6.1940198317e-001	 9.6893817309e-001	-9.0858160893e-001
 6.0945890840e-001	 9.7522296887e-001	-1.0382182645e+000
 5.9946375262e-001	 9.8139859860e-001	-1.1626942800e+000
 5.8941828473e-001	 9.8746447312e-001	-1.2818570677e+000
 5.7932428096e-001	 9.9342004084e-001	-1.3955551185e+000
 5.6918352389e-001	 9.9926478782e-001	-1.5036382604e+000
 5.5899780147e-001	 1.0049982378e+000	-1.6059579185e+000
 5.4876890608e-001	 1.0106199522e+000	-1.7023673765e+000
 5.3849863350e-001	 1.0161295300e+000	-1.7927220361e+000
 5.2818878200e-001	 1.0215266079e+000	-1.8768796772e+000
 6.4297146022e-001	 9.8346972570e-001	-1.0321571614e+000
 6.3286724368e-001	 9.9000204642e-001	-1.1063235912e+000
 6.2270801510e-001	 9.9642346820e-001	-1.1851761285e+000
 6.1249557333e-001	 1.0027333507e+000	-1.3033942405e+000
 6.0223172571e-001	 1.0089310921e+000	-1.4144237719e+000
 5.9191828707e-001	 1.0150161287e+000	-1.5181709111e+000
 5.8155707876e-001	 1.0209879354e+000	-1.6145443910e+000
 5.7114992759e-001	 1.0268460256e+000	-1.7034556855e+000
 5.6069866491e-001	 1.0325899511e+000	-1.7848192046e+000
 5.5020512553e-001	 1.0382193024e+000	-1.8585524897e+000
 5.3967114683e-001	 1.0437337080e+000	-1.9245764075e+000
 6.5665170405e-001	 1.0043946135e+000	-1.2644996425e+000
 6.4633250419e-001	 1.0110659197e+000	-1.3308299663e+000
 6.3595712181e-001	 1.0176239675e+000	-1.3858554627e+000
 6.2552739404e-001	 1.0240681029e+000	-1.4297279684e+000
 6.1504516668e-001	 1.0303977111e+000	-1.5332351479e+000
 6.0451229318e-001	 1.0366122165e+000	-1.6314626653e+000
 5.9393063362e-001	 1.0427110829e+000	-1.7206742466e+000
 5.8330205371e-001	 1.0486938134e+000	-1.8008385052e+000
 5.7262842373e-001	 1.0545599501e+000	-1.8719280011e+000
 5.6191161756e-001	 1.0603090748e+000	-1.9339193744e+000
 5.5115351165e-001	 1.0659408082e+000	-1.9867934766e+000
 6.7033194789e-001	 1.0253195013e+000	-1.4928523103e+000
 6.5979776469e-001	 1.0321297931e+000	-1.5542285136e+000
 6.4920622851e-001	 1.0388244668e+000	-1.6021082544e+000
 6.3855921475e-001	 1.0454028550e+000	-1.6367133182e+000
 6.2785860765e-001	 1.0518643301e+000	-1.6582790171e+000
 6.1710629929e-001	 1.0582083044e+000	-1.7319287377e+000
 6.0630418849e-001	 1.0644342305e+000	-1.8182984290e+000
 5.9545417983e-001	 1.0705416011e+000	-1.8941446568e+000
 5.8455818256e-001	 1.0765299491e+000	-1.9594952750e+000
 5.7361810960e-001	 1.0823988472e+000	-2.0143831036e+000
 5.6263587648e-001	 1.0881479084e+000	-2.0588460014e+000
 6.8401219173e-001	 1.0462443890e+000	-1.7178539695e+000
 6.7326302520e-001	 1.0531936664e+000	-1.7769410649e+000
 6.6245533522e-001	 1.0600249662e+000	-1.8204169301e+000
 6.5159103546e-001	 1.0667376072e+000	-1.8485721057e+000
 6.4067204862e-001	 1.0733309490e+000	-1.8617126091e+000
 6.2970030539e-001	 1.0798043922e+000	-1.8601593356e+000
 6.1867774335e-001	 1.0861573781e+000	-1.9038611977e+000
 6.0760630594e-001	 1.0923893889e+000	-1.9796062815e+000
 5.9648794139e-001	 1.0984999480e+000	-2.0435370162e+000
 5.8532460163e-001	 1.1044886196e+000	-2.0957395937e+000
 5.7411824131e-001	 1.1103550086e+000	-2.1363060147e+000
 4.5929459305e-001	 8.8828400685e-001	-2.1984442031e+000
 4.5029665337e-001	 8.9287900861e-001	-2.4888701070e+000
 4.4126742776e-001	 8.9737565002e-001	-2.7752638177e+000
 4.3220848139e-001	 9.0177371256e-001	-3.0573896577e+000
 4.2312137829e-001	 9.0607300991e-001	-3.3350139065e+000
 4.1400768054e-001	 9.1027338778e-001	-3.6079051086e+000
 4.0486894748e-001	 9.1437472374e-001	-3.8758343766e+000
 3.9570673493e-001	 9.1837692696e-001	-4.1385756899e+000
 3.8652259441e-001	 9.2227993800e-001	-4.3959061871e+000
 3.7731807239e-001	 9.2608372854e-001	-4.6476064524e+000
 3.6809470955e-001	 9.2978830108e-001	-4.8934607958e+000
 4.7077695788e-001	 9.1049110702e-001	-2.0421039094e+000
 4.6155406970e-001	 9.1520098382e-001	-2.2996665557e+000
 4.5229911345e-001	 9.1981004127e-001	-2.5543494815e+000
 4.4301369342e-001	 9.2431805537e-001	-2.8059035056e+000
 4.3369941274e-001	 9.2872483515e-001	-3.0540805032e+000
 4.2435787255e-001	 9.3303022247e-001	-3.2986337479e+000
 4.1499067117e-001	 9.3723409182e-001	-3.5393182502e+000
 4.0559940330e-001	 9.4133635013e-001	-3.7758910903e+000
 3.9618565927e-001	 9.4533693645e-001	-4.0081117478e+000
 3.8675102420e-001	 9.4923582175e-001	-4.2357424239e+000
 3.7729707730e-001	 9.5303300860e-001	-4.4585483584e+000
 4.8225932270e-001	 9.3269820719e-001	-1.9356986600e+000
 4.7281148603e-001	 9.3752295903e-001	-2.1607915515e+000
 4.6333079914e-001	 9.4224443251e-001	-2.3841434204e+000
 4.5381890545e-001	 9.4686239818e-001	-2.6054911340e+000
 4.4427744720e-001	 9.5137666039e-001	-2.8245717177e+000
 4.3470806456e-001	 9.5578705716e-001	-3.0411227319e+000
 4.2511239485e-001	 9.6009345991e-001	-3.2548826450e+000
 4.1549207167e-001	 9.6429577330e-001	-3.4655912039e+000
 4.0584872413e-001	 9.6839393489e-001	-3.6729897988e+000
 3.9618397601e-001	 9.7238791496e-001	-3.8768218242e+000
 3.8649944504e-001	 9.7627771612e-001	-4.0768330325e+000
 4.9374168753e-001	 9.5490530736e-001	-1.8722414526e+000
 4.8406890236e-001	 9.5984493424e-001	-2.0652883888e+000
 4.7436248483e-001	 9.6467882376e-001	-2.2577221652e+000
 4.6462411748e-001	 9.6940674099e-001	-2.4492652124e+000
 4.5485548165e-001	 9.7402848564e-001	-2.6396392209e+000
 4.4505825657e-001	 9.7854389185e-001	-2.8285655531e+000
 4.3523411854e-001	 9.8295282800e-001	-3.0157656533e+000
 4.2538474004e-001	 9.8725519647e-001	-3.2009614550e+000
 4.1551178899e-001	 9.9145093334e-001	-3.3838757833e+000
 4.0561692782e-001	 9.9554000817e-001	-3.5642327542e+000
 3.9570181278e-001	 9.9952242364e-001	-3.7417581669e+000
 5.0522405235e-001	 9.7711240753e-001	-1.8452465189e+000
 4.9532631870e-001	 9.8216690946e-001	-2.0067009362e+000
 4.8539417052e-001	 9.8711321501e-001	-2.1686619537e+000
 4.7542932951e-001	 9.9195108380e-001	-2.3308370432e+000
 4.6543351611e-001	 9.9668031088e-001	-2.4929320365e+000
 4.5540844858e-001	 1.0013007265e+000	-2.6546515739e+000
 4.4535584222e-001	 1.0058121961e+000	-2.8156995518e+000
 4.3527740842e-001	 1.0102146196e+000	-2.9757795675e+000
 4.2517485385e-001	 1.0145079318e+000	-3.1345953610e+000
 4.1504987963e-001	 1.0186921014e+000	-3.2918512526e+000
 4.0490418052e-001	 1.0227671312e+000	-3.4472525753e+000
 5.1670641718e-001	 9.9931950770e-001	-1.8486736319e+000
 5.0658373503e-001	 1.0044888847e+000	-1.9790180177e+000
 4.9642585621e-001	 1.0095476063e+000	-2.1109832077e+000
 4.8623454155e-001	 1.0144954266e+000	-2.2442611576e+000
 4.7601155056e-001	 1.0193321361e+000	-2.3785412797e+000
 4.6575864059e-001	 1.0240575612e+000	-2.5135109297e+000
 4.5547756591e-001	 1.0286715642e+000	-2.6488558923e+000
 4.4517007679e-001	 1.0331740428e+000	-2.7842608650e+000
 4.3483791871e-001	 1.0375649302e+000	-2.9194099398e+000
 4.2448283144e-001	 1.0418441946e+000	-3.0539870804e+000
 4.1410654826e-001	 1.0460118387e+000	-3.1876765957e+000
 5.2818878200e-001	 1.0215266079e+000	-1.8768796772e+000
 5.1784115136e-001	 1.0268108599e+000	-1.9766250476e+000
 5.0745754190e-001	 1.0319819975e+000	-2.0791022523e+000
 4.9703975358e-001	 1.0370397694e+000	-2.1839871388e+000
 4.8658958502e-001	 1.0419839614e+000	-2.2909521039e+000
 4.7610883261e-001	 1.0468143959e+000	-2.3996666190e+000
 4.6559928959e-001	 1.0515309323e+000	-2.5097977548e+000
 4.5506274516e-001	 1.0561334660e+000	-2.6210107056e+000
 4.4450098357e-001	 1.0606219287e+000	-2.7329693117e+000
 4.3391578325e-001	 1.0649962878e+000	-2.8453365775e+000
 4.2330891600e-001	 1.0692565462e+000	-2.9577751863e+000
 5.3967114683e-001	 1.0437337080e+000	-1.9245764075e+000
 5.2909856769e-001	 1.0491328351e+000	-1.9942618403e+000
 5.1848922760e-001	 1.0544163888e+000	-2.0677891979e+000
 5.0784496561e-001	 1.0595841122e+000	-2.1448175949e+000
 4.9716761947e-001	 1.0646357866e+000	-2.2250017816e+000
 4.8645902462e-001	 1.0695712306e+000	-2.3079927092e+000
 4.7572101328e-001	 1.0743903004e+000	-2.3934380951e+000
 4.6495541353e-001	 1.0790928892e+000	-2.4809829888e+000
 4.5416404842e-001	 1.0836789271e+000	-2.5702703355e+000
 4.4334873506e-001	 1.0881483810e+000	-2.6609415367e+000
 4.3251128374e-001	 1.0925012537e+000	-2.7526370078e+000
 5.5115351165e-001	 1.0659408082e+000	-1.9867934766e+000
 5.4035598403e-001	 1.0714548103e+000	-2.0269856934e+000
 5.2952091329e-001	 1.0768507800e+000	-2.0721310885e+000
 5.1865017764e-001	 1.0821284551e+000	-2.1218713861e+000
 5.0774565393e-001	 1.0872876119e+000	-2.1758430254e+000
 4.9680921663e-001	 1.0923280653e+000	-2.2336777669e+000
 4.8584273696e-001	 1.0972496685e+000	-2.2950032996e+000
 4.7484808190e-001	 1.1020523123e+000	-2.3594438491e+000
 4.6382711328e-001	 1.1067359256e+000	-2.4266207838e+000
 4.5278168687e-001	 1.1113004742e+000	-2.4961532197e+000
 4.4171365148e-001	 1.1157459613e+000	-2.5676586210e+000
 5.6263587648e-001	 1.0881479084e+000	-2.0588460014e+000
 5.5161340036e-001	 1.0937767855e+000	-2.0701389917e+000
 5.4055259898e-001	 1.0992851713e+000	-2.0874995607e+000
 5.2945538968e-001	 1.1046727979e+000	-2.1105513532e+000
 5.1832368838e-001	 1.1099394371e+000	-2.1389118000e+000
 5.0715940864e-001	 1.1150849000e+000	-2.1721927666e+000
 4.9596446065e-001	 1.1201090366e+000	-2.2100012029e+000
 4.8474075028e-001	 1.1250117355e+000	-2.2519397953e+000
 4.7349017814e-001	 1.1297929240e+000	-2.2976076172e+000
 4.6221463868e-001	 1.1344525674e+000	-2.3466007781e+000
 4.5091601922e-001	 1.1389906688e+000	-2.3985130691e+000
 5.7411824131e-001	 1.1103550086e+000	-2.1363060147e+000
 5.6287081669e-001	 1.1160987607e+000	-2.1193206982e+000
 5.5158428467e-001	 1.1217195625e+000	-2.1095223849e+000
 5.4026060171e-001	 1.1272171407e+000	-2.1065159203e+000
 5.2890172284e-001	 1.1325912624e+000	-2.1098989975e+000
 5.1750960065e-001	 1.1378417347e+000	-2.1192628493e+000
 5.0608618433e-001	 1.1429684047e+000	-2.1341929423e+000
 4.9463341865e-001	 1.1479711587e+000	-2.1542696732e+000
 4.8315324300e-001	 1.1528499225e+000	-2.1790690657e+000
 4.7164759049e-001	 1.1576046607e+000	-2.2081634647e+000
 4.6011838696e-001	 1.1622353763e+000	-2.2411222288e+000
 3.6809470955e-001	 9.2978830108e-001	-4.8934607958e+000
 3.5885404004e-001	 9.3339368862e-001	-5.1742697297e+000
 3.4959759075e-001	 9.3689995439e-001	-5.4551223754e+000
 3.4032688062e-001	 9.4030719147e-001	-5.7354243130e+000
 3.3104341994e-001	 9.4361552239e-001	-6.0145852167e+000
 3.2174870969e-001	 9.4682509884e-001	-6.2920194992e+000
 3.1244424085e-001	 9.4993610118e-001	-6.5671469402e+000
 3.0313149381e-001	 9.5294873809e-001	-6.8393932981e+000
 2.9381193769e-001	 9.5586324609e-001	-7.1081909047e+000
 2.8448702975e-001	 9.5867988915e-001	-7.3729792414e+000
 2.7515821483e-001	 9.6139895816e-001	-7.6332054961e+000
 3.7729707730e-001	 9.5303300860e-001	-4.4585483584e+000
 3.6782539105e-001	 9.5672853083e-001	-4.6910145521e+000
 3.5833753053e-001	 9.6032245325e-001	-4.9235135285e+000
 3.4883505265e-001	 9.6381487125e-001	-5.1555081800e+000
 3.3931950545e-001	 9.6720591045e-001	-5.3864647826e+000
 3.2979242744e-001	 9.7049572631e-001	-5.6158536028e+000
 3.2025534689e-001	 9.7368450371e-001	-5.8431494917e+000
 3.1070978117e-001	 9.7677245654e-001	-6.0678324630e+000
 3.0115723614e-001	 9.7975982724e-001	-6.2893882553e+000
 2.9159920551e-001	 9.8264688638e-001	-6.5073088777e+000
 2.8203717021e-001	 9.8543393212e-001	-6.7210931380e+000
 3.8649944504e-001	 9.7627771612e-001	-4.0768330325e+000
 3.7679674206e-001	 9.8006337304e-001	-4.2672813333e+000
 3.6707747030e-001	 9.8374495210e-001	-4.4577714534e+000
 3.5734322467e-001	 9.8732255103e-001	-4.6478202296e+000
 3.4759559096e-001	 9.9079629851e-001	-4.8369471889e+000
 3.3783614519e-001	 9.9416635378e-001	-5.0246751231e+000
 3.2806645292e-001	 9.9743290624e-001	-5.2105306500e+000
 3.1828806852e-001	 1.0005961750e+000	-5.3940447608e+000
 3.0850253459e-001	 1.0036564084e+000	-5.5747533533e+000
 2.9871138126e-001	 1.0066138836e+000	-5.7521977494e+000
 2.8891612559e-001	 1.0094689061e+000	-5.9259251973e+000
 3.9570181278e-001	 9.9952242364e-001	-3.7417581669e+000
 3.8576809306e-001	 1.0033982153e+000	-3.8961464071e+000
 3.7581741008e-001	 1.0071674510e+000	-4.0506053035e+000
 3.6585139669e-001	 1.0108302308e+000	-4.2047024237e+000
 3.5587167647e-001	 1.0143866866e+000	-4.3580073494e+000
 3.4587986295e-001	 1.0178369812e+000	-4.5100922198e+000
 3.3587755895e-001	 1.0211813088e+000	-4.6605322643e+000
 3.2586635588e-001	 1.0244198934e+000	-4.8089063215e+000
 3.1584783304e-001	 1.0275529895e+000	-4.9547973464e+000
 3.0582355701e-001	 1.0305808808e+000	-5.0977929026e+000
 2.9579508097e-001	 1.0335038800e+000	-5.2374856402e+000
 4.0490418052e-001	 1.0227671312e+000	-3.4472525753e+000
 3.9473944407e-001	 1.0267330575e+000	-3.5712075266e+000
 3.8455734985e-001	 1.0305899498e+000	-3.6952816581e+000
 3.7435956871e-001	 1.0343379106e+000	-3.8190901932e+000
 3.6414776197e-001	 1.0379770746e+000	-3.9422497084e+000
 3.5392358070e-001	 1.0415076087e+000	-4.0643786483e+000
 3.4368866498e-001	 1.0449297113e+000	-4.1850978322e+000
 3.3344464323e-001	 1.0482436119e+000	-4.3040309482e+000
 3.2319313149e-001	 1.0514495707e+000	-4.4208050365e+000
 3.1293573276e-001	 1.0545478781e+000	-4.5350509589e+000
 3.0267403634e-001	 1.0575388540e+000	-4.6464038560e+000
 4.1410654826e-001	 1.0460118387e+000	-3.1876765957e+000
 4.0371079507e-001	 1.0500678997e+000	-3.2865259290e+000
 3.9329728963e-001	 1.0540124487e+000	-3.3855625862e+000
 3.8286774073e-001	 1.0578455904e+000	-3.4844464964e+000
 3.7242384748e-001	 1.0615674627e+000	-3.5828382929e+000
 3.6196729844e-001	 1.0651782362e+000	-3.6803998048e+000
 3.5149977101e-001	 1.0686781138e+000	-3.7767945394e+000
 3.4102293058e-001	 1.0720673303e+000	-3.8716881540e+000
 3.3053842994e-001	 1.0753461519e+000	-3.9647489182e+000
 3.2004790851e-001	 1.0785148753e+000	-4.0556481632e+000
 3.0955299172e-001	 1.0815738279e+000	-4.1440607208e+000
 4.2330891600e-001	 1.0692565462e+000	-2.9577751863e+000
 4.1268214607e-001	 1.0734027419e+000	-3.0365759566e+000
 4.0203722940e-001	 1.0774349475e+000	-3.1156517895e+000
 3.9137591275e-001	 1.0813532702e+000	-3.1947044791e+000
 3.8069993298e-001	 1.0851578507e+000	-3.2734358882e+000
 3.7001101619e-001	 1.0888488637e+000	-3.3515484175e+000
 3.5931087703e-001	 1.0924265164e+000	-3.4287454671e+000
 3.4860121793e-001	 1.0958910488e+000	-3.5047318887e+000
 3.3788372839e-001	 1.0992427330e+000	-3.5792144292e+000
 3.2716008426e-001	 1.1024818725e+000	-3.6519021633e+000
 3.1643194709e-001	 1.1056088019e+000	-3.7225069146e+000
 4.3251128374e-001	 1.0925012537e+000	-2.7526370078e+000
 4.2165349708e-001	 1.0967375841e+000	-2.8162011099e+000
 4.1077716917e-001	 1.1008574464e+000	-2.8801476194e+000
 3.9988408477e-001	 1.1048609500e+000	-2.9442174548e+000
 3.8897601848e-001	 1.1087482388e+000	-3.0081509787e+000
 3.7805473393e-001	 1.1125194911e+000	-3.0716884474e+000
 3.6712198306e-001	 1.1161749189e+000	-3.1345704542e+000
 3.5617950528e-001	 1.1197147673e+000	-3.1965383647e+000
 3.4522902683e-001	 1.1231393142e+000	-3.2573347443e+000
 3.3427226000e-001	 1.1264488698e+000	-3.3167037754e+000
 3.2331090246e-001	 1.1296437758e+000	-3.3743916655e+000
 4.4171365148e-001	 1.1157459613e+000	-2.5676586210e+000
 4.3062484808e-001	 1.1200724263e+000	-2.6205755934e+000
 4.1951710894e-001	 1.1242799453e+000	-2.6740019683e+000
 4.0839225679e-001	 1.1283686297e+000	-2.7277151373e+000
 3.9725210398e-001	 1.1323386269e+000	-2.7814913208e+000
 3.8609845168e-001	 1.1361901186e+000	-2.8351060015e+000
 3.7493308908e-001	 1.1399233214e+000	-2.8883343518e+000
 3.6375779263e-001	 1.1435384857e+000	-2.9409516550e+000
 3.5257432527e-001	 1.1470358953e+000	-2.9927337186e+000
 3.4138443575e-001	 1.1504158670e+000	-3.0434572796e+000
 3.3018985783e-001	 1.1536787498e+000	-3.0929004006e+000
 4.5091601922e-001	 1.1389906688e+000	-2.3985130691e+000
 4.3959619908e-001	 1.1434072685e+000	-2.4451705701e+000
 4.2825704871e-001	 1.1477024441e+000	-2.4924841938e+000
 4.1690042880e-001	 1.1518763095e+000	-2.5402652324e+000
 4.0552818948e-001	 1.1559290149e+000	-2.5883232010e+000
 3.9414216942e-001	 1.1598607461e+000	-2.6364662569e+000
 3.8274419510e-001	 1.1636717239e+000	-2.6845016140e+000
 3.7133607997e-001	 1.1673622042e+000	-2.7322359521e+000
 3.5991962372e-001	 1.1709324765e+000	-2.7794758189e+000
 3.4849661149e-001	 1.1743828642e+000	-2.8260280252e+000
 3.3706881320e-001	 1.1777137238e+000	-2.8717000322e+000
 4.6011838696e-001	 1.1622353763e+000	-2.2411222288e+000
 4.4856755008e-001	 1.1667421108e+000	-2.2857244659e+000
 4.3699698847e-001	 1.1711249430e+000	-2.3311493718e+000
 4.2540860082e-001	 1.1753839893e+000	-2.3772396385e+000
 4.1380427497e-001	 1.1795194030e+000	-2.4238355826e+000
 4.0218588716e-001	 1.1835313736e+000	-2.4707755535e+000
 3.9055530112e-001	 1.1874201265e+000	-2.5178963372e+000
 3.7891436731e-001	 1.1911859226e+000	-2.5650335559e+000
 3.6726492216e-001	 1.1948290576e+000	-2.6120220617e+000
 3.5560878723e-001	 1.1983498614e+000	-2.6586963240e+000
 3.4394776857e-001	 1.2017486977e+000	-2.7048908091e+000
 2.7515821483e-001	 9.6139895816e-001	-7.6332054961e+000
 2.6582692472e-001	 9.6402077054e-001	-7.8530513002e+000
 2.5649457767e-001	 9.6654566967e-001	-8.0675833489e+000
 2.4716257779e-001	 9.6897402446e-001	-8.2764894733e+000
 2.3783231458e-001	 9.7130622879e-001	-8.4794634222e+000
 2.2850516241e-001	 9.7354270101e-001	-8.6762051760e+000
 2.1918248004e-001	 9.7568388343e-001	-8.8664212458e+000
 2.0986561017e-001	 9.7773024174e-001	-9.0498249576e+000
 2.0055587900e-001	 9.7968226449e-001	-9.2261367219e+000
 1.9125459577e-001	 9.8154046252e-001	-9.3950842872e+000
 1.8196305243e-001	 9.8330536841e-001	-9.5564029793e+000
 2.8203717021e-001	 9.8543393212e-001	-6.7210931380e+000
 2.7247259785e-001	 9.8812128980e-001	-6.9120081819e+000
 2.6290694212e-001	 9.9070931141e-001	-7.0983585261e+000
 2.5334164224e-001	 9.9319837507e-001	-7.2798331181e+000
 2.4377812245e-001	 9.9558888451e-001	-7.4561263313e+000
 2.3421779148e-001	 9.9788126854e-001	-7.6269382944e+000
 2.2466204205e-001	 1.0000759805e+000	-7.7919752058e+000
 2.1511225043e-001	 1.0021734978e+000	-7.9509496339e+000
 2.0556977597e-001	 1.0041743211e+000	-8.1035808019e+000
 1.9603596067e-001	 1.0060789741e+000	-8.2495948577e+000
 1.8651212874e-001	 1.0078880026e+000	-8.3887251283e+000
 2.8891612559e-001	 1.0094689061e+000	-5.9259251973e+000
 2.7911827098e-001	 1.0122218091e+000	-6.0901951300e+000
 2.6931930657e-001	 1.0148729532e+000	-6.2506340101e+000
 2.5952070669e-001	 1.0174227257e+000	-6.4069306211e+000
 2.4972393032e-001	 1.0198715402e+000	-6.5587787056e+000
 2.3993042054e-001	 1.0222198361e+000	-6.7058773106e+000
 2.3014160405e-001	 1.0244680776e+000	-6.8479311189e+000
 2.2035889069e-001	 1.0266167538e+000	-6.9846507656e+000
 2.1058367295e-001	 1.0286663777e+000	-7.1157531404e+000
 2.0081732556e-001	 1.0306174856e+000	-7.2409616733e+000
 1.9106120505e-001	 1.0324706368e+000	-7.3600066057e+000
 2.9579508097e-001	 1.0335038800e+000	-5.2374856402e+000
 2.8576394410e-001	 1.0363223283e+000	-5.3773195466e+000
 2.7573167102e-001	 1.0390365949e+000	-5.5140421358e+000
 2.6569977114e-001	 1.0416470763e+000	-5.6473407578e+000
 2.5566973819e-001	 1.0441541959e+000	-5.7769072778e+000
 2.4564304960e-001	 1.0465584036e+000	-5.9024384394e+000
 2.3562116605e-001	 1.0488601747e+000	-6.0236362141e+000
 2.2560553094e-001	 1.0510600099e+000	-6.1402081349e+000
 2.1559756992e-001	 1.0531584343e+000	-6.2518676162e+000
 2.0559869045e-001	 1.0551559972e+000	-6.3583342577e+000
 1.9561028136e-001	 1.0570532710e+000	-6.4593341324e+000
 3.0267403634e-001	 1.0575388540e+000	-4.6464038560e+000
 2.9240961722e-001	 1.0604228476e+000	-4.7639440732e+000
 2.8214403546e-001	 1.0632002366e+000	-4.8790801722e+000
 2.7187883559e-001	 1.0658714269e+000	-4.9914968064e+000
 2.6161554606e-001	 1.0684368517e+000	-5.1008827236e+000
 2.5135567866e-001	 1.0708969711e+000	-5.2069311477e+000
 2.4110072806e-001	 1.0732522718e+000	-5.3093401471e+000
 2.3085217120e-001	 1.0755032659e+000	-5.4078129874e+000
 2.2061146690e-001	 1.0776504909e+000	-5.5020584694e+000
 2.1038005535e-001	 1.0796945088e+000	-5.5917912515e+000
 2.0015935767e-001	 1.0816359052e+000	-5.6767321560e+000
 3.0955299172e-001	 1.0815738279e+000	-4.1440607208e+000
 2.9905529035e-001	 1.0845233669e+000	-4.2413915642e+000
 2.8855639991e-001	 1.0873638784e+000	-4.3370142182e+000
 2.7805790004e-001	 1.0900957775e+000	-4.4306093810e+000
 2.6756135392e-001	 1.0927195074e+000	-4.5218614460e+000
 2.5706830773e-001	 1.0952355386e+000	-4.6104589039e+000
 2.4658029006e-001	 1.0976443689e+000	-4.6960947304e+000
 2.3609881145e-001	 1.0999465220e+000	-4.7784667591e+000
 2.2562536387e-001	 1.1021425476e+000	-4.8572780391e+000
 2.1516142024e-001	 1.1042330203e+000	-4.9322371762e+000
 2.0470843398e-001	 1.1062185395e+000	-5.0030586593e+000
 3.1643194709e-001	 1.1056088019e+000	-3.7225069146e+000
 3.0570096347e-001	 1.1086238861e+000	-3.8016624552e+000
 2.9496876435e-001	 1.1115275201e+000	-3.8797956345e+000
 2.8423696448e-001	 1.1143201281e+000	-3.9565819384e+000
 2.7350716179e-001	 1.1170021631e+000	-4.0317001703e+000
 2.6278093679e-001	 1.1195741062e+000	-4.1048328738e+000
 2.5205985206e-001	 1.1220364660e+000	-4.1756667423e+000
 2.4134545170e-001	 1.1243897780e+000	-4.2438930118e+000
 2.3063926085e-001	 1.1266346042e+000	-4.3092078394e+000
 2.1994278513e-001	 1.1287715319e+000	-4.3713126654e+000
 2.0925751029e-001	 1.1308011737e+000	-4.4299145587e+000
 3.2331090246e-001	 1.1296437758e+000	-3.3743916655e+000
 3.1234663659e-001	 1.1327244054e+000	-3.4373626796e+000
 3.0138112879e-001	 1.1356911619e+000	-3.4999881429e+000
 2.9041602893e-001	 1.1385444787e+000	-3.5619370714e+000
 2.7945296965e-001	 1.1412848188e+000	-3.6228814411e+000
 2.6849356585e-001	 1.1439126737e+000	-3.6824966337e+000
 2.5753941406e-001	 1.1464285630e+000	-3.7404618670e+000
 2.4659209196e-001	 1.1488330341e+000	-3.7964606113e+000
 2.3565315782e-001	 1.1511266608e+000	-3.8501809881e+000
 2.2472415003e-001	 1.1533100435e+000	-3.9013161543e+000
 2.1380658660e-001	 1.1553838079e+000	-3.9495646685e+000
 3.3018985783e-001	 1.1536787498e+000	-3.0929004006e+000
 3.1899230970e-001	 1.1568249247e+000	-3.1416405962e+000
 3.0779349323e-001	 1.1598548036e+000	-3.1907040392e+000
 2.9659509337e-001	 1.1627688294e+000	-3.2397520155e+000
 2.8539877752e-001	 1.1655674746e+000	-3.2884484336e+000
 2.7420619490e-001	 1.1682512412e+000	-3.3364602936e+000
 2.6301897606e-001	 1.1708206601e+000	-3.3834581416e+000
 2.5183873221e-001	 1.1732762901e+000	-3.4291165082e+000
 2.4066705479e-001	 1.1756187174e+000	-3.4731143308e+000
 2.2950551492e-001	 1.1778485550e+000	-3.5151353594e+000
 2.1835566291e-001	 1.1799664421e+000	-3.5548685451e+000
 3.3706881320e-001	 1.1777137238e+000	-2.8717000322e+000
 3.2563798282e-001	 1.1809254439e+000	-2.9081316395e+000
 3.1420585767e-001	 1.1840184454e+000	-2.9455482160e+000
 3.0277415782e-001	 1.1869931800e+000	-2.9836020529e+000
 2.9134458538e-001	 1.1898501303e+000	-3.0219477458e+000
 2.7991882396e-001	 1.1925898088e+000	-3.0602426886e+000
 2.6849853806e-001	 1.1952127572e+000	-3.0981475529e+000
 2.5708537246e-001	 1.1977195461e+000	-3.1353267498e+000
 2.4568095177e-001	 1.2001107740e+000	-3.1714488769e+000
 2.3428687981e-001	 1.2023870666e+000	-3.2061871469e+000
 2.2290473922e-001	 1.2045490763e+000	-3.2392197989e+000
 3.4394776857e-001	 1.2017486977e+000	-2.7048908091e+000
 3.3228365593e-001	 1.2050259632e+000	-2.7309096120e+000
 3.2061822211e-001	 1.2081820871e+000	-2.7585689030e+000
 3.0895322226e-001	 1.2112175306e+000	-2.7875107076e+000
 2.9729039324e-001	 1.2141327860e+000	-2.8173790563e+000
 2.8563145302e-001	 1.2169283763e+000	-2.8478205058e+000
 2.7397810005e-001	 1.2196048543e+000	-2.8784846423e+000
 2.6233201271e-001	 1.2221628022e+000	-2.9090245703e+000
 2.5069484874e-001	 1.2246028306e+000	-2.9390973837e+000
 2.3906824470e-001	 1.2269255782e+000	-2.9683646185e+000
 2.2745381553e-001	 1.2291317105e+000	-2.9964926889e+000
 1.8196305243e-001	 9.8330536841e-001	-9.5564029793e+000
 1.7268252319e-001	 9.8497753588e-001	-9.7115151540e+000
 1.6341426419e-001	 9.8655753926e-001	-9.8610011723e+000
 1.5415951315e-001	 9.8804597288e-001	-1.0004584007e+001
 1.4491948905e-001	 9.8944345050e-001	-1.0141993449e+001
 1.3569539180e-001	 9.9075060469e-001	-1.0272966336e+001
 1.2648840201e-001	 9.9196808628e-001	-1.0397246765e+001
 1.1729968064e-001	 9.9309656377e-001	-1.0514586291e+001
 1.0813036885e-001	 9.9413672268e-001	-1.0624744109e+001
 9.8981587693e-002	 9.9508926501e-001	-1.0727487221e+001
 8.9854437932e-002	 9.9595490863e-001	-1.0822590590e+001
 1.8651212874e-001	 1.0078880026e+000	-8.3887251283e+000
 1.7699958627e-001	 1.0096019743e+000	-8.5213926136e+000
 1.6749962079e-001	 1.0112214777e+000	-8.6488053164e+000
 1.5801350098e-001	 1.0127471222e+000	-8.7706920860e+000
 1.4854247627e-001	 1.0141795368e+000	-8.8867883797e+000
 1.3908777659e-001	 1.0155193698e+000	-8.9968364949e+000
 1.2965061205e-001	 1.0167672884e+000	-9.1005857868e+000
 1.2023217266e-001	 1.0179239779e+000	-9.1977928708e+000
 1.1083362807e-001	 1.0189901407e+000	-9.2882218086e+000
 1.0145612738e-001	 1.0199664966e+000	-9.3716442805e+000
 9.2100798875e-002	 1.0208537813e+000	-9.4478397408e+000
 1.9106120505e-001	 1.0324706368e+000	-7.3600066057e+000
 1.8131664935e-001	 1.0342264127e+000	-7.4728081789e+000
 1.7158497739e-001	 1.0358854162e+000	-7.5807156464e+000
 1.6186748880e-001	 1.0374482715e+000	-7.6834623857e+000
 1.5216546349e-001	 1.0389156230e+000	-7.7807882001e+000
 1.4248016138e-001	 1.0402881349e+000	-7.8724395569e+000
 1.3281282210e-001	 1.0415664906e+000	-7.9581698103e+000
 1.2316466467e-001	 1.0427513919e+000	-8.0377394079e+000
 1.1353688729e-001	 1.0438435588e+000	-8.1109160829e+000
 1.0393066707e-001	 1.0448437283e+000	-8.1774750302e+000
 9.4347159819e-002	 1.0457526541e+000	-8.2371990665e+000
 1.9561028136e-001	 1.0570532710e+000	-6.4593341324e+000
 1.8563371242e-001	 1.0588508511e+000	-6.5547523229e+000
 1.7567033400e-001	 1.0605493547e+000	-6.6456268079e+000
 1.6572147663e-001	 1.0621494208e+000	-6.7316941696e+000
 1.5578845071e-001	 1.0636517093e+000	-6.8126972633e+000
 1.4587254618e-001	 1.0650569000e+000	-6.8883854609e+000
 1.3597503214e-001	 1.0663656927e+000	-6.9585148803e+000
 1.2609715668e-001	 1.0675788060e+000	-7.0228485975e+000
 1.1624014650e-001	 1.0686969769e+000	-7.0811568444e+000
 1.0640520676e-001	 1.0697209599e+000	-7.1332171901e+000
 9.6593520764e-002	 1.0706515268e+000	-7.1788147067e+000
 2.0015935767e-001	 1.0816359052e+000	-5.6767321560e+000
 1.8995077550e-001	 1.0834752895e+000	-5.7571648908e+000
 1.7975569060e-001	 1.0852132932e+000	-5.8333944174e+000
 1.6957546445e-001	 1.0868505702e+000	-5.9051592218e+000
 1.5941143794e-001	 1.0883877955e+000	-5.9722039373e+000
 1.4926493097e-001	 1.0898256651e+000	-6.0342795963e+000
 1.3913724219e-001	 1.0911648949e+000	-6.0911438652e+000
 1.2902964869e-001	 1.0924062201e+000	-6.1425612644e+000
 1.1894340572e-001	 1.0935503949e+000	-6.1883033710e+000
 1.0887974645e-001	 1.0945981915e+000	-6.2281490070e+000
 9.8839881709e-002	 1.0955503995e+000	-6.2618844107e+000
 2.0470843398e-001	 1.1062185395e+000	-5.0030586593e+000
 1.9426783858e-001	 1.1080997279e+000	-5.0708296141e+000
 1.8384104720e-001	 1.1098772317e+000	-5.1347282887e+000
 1.7342945228e-001	 1.1115517195e+000	-5.1944937886e+000
 1.6303442516e-001	 1.1131238818e+000	-5.2498712698e+000
 1.5265731576e-001	 1.1145944303e+000	-5.3006121971e+000
 1.4229945224e-001	 1.1159640970e+000	-5.3464745876e+000
 1.3196214071e-001	 1.1172336342e+000	-5.3872232374e+000
 1.2164666494e-001	 1.1184038130e+000	-5.4226299319e+000
 1.1135428614e-001	 1.1194754231e+000	-5.4524736399e+000
 1.0108624265e-001	 1.1204492722e+000	-5.4765406921e+000
 2.0925751029e-001	 1.1308011737e+000	-4.4299145587e+000
 1.9858490166e-001	 1.1327241663e+000	-4.4872823841e+000
 1.8792640381e-001	 1.1345411701e+000	-4.5410995844e+000
 1.7728344011e-001	 1.1362528688e+000	-4.5911046160e+000
 1.6665741239e-001	 1.1378599681e+000	-4.6370419146e+000
 1.5604970055e-001	 1.1393631954e+000	-4.6786621638e+000
 1.4546166229e-001	 1.1407632992e+000	-4.7157225466e+000
 1.3489463272e-001	 1.1420610483e+000	-4.7479869798e+000
 1.2434992416e-001	 1.1432572311e+000	-4.7752263323e+000
 1.1382882583e-001	 1.1443526547e+000	-4.7972186268e+000
 1.0333260360e-001	 1.1453481449e+000	-4.8137492243e+000
 2.1380658660e-001	 1.1553838079e+000	-3.9495646685e+000
 2.0290196474e-001	 1.1573486046e+000	-3.9987312344e+000
 1.9201176041e-001	 1.1592051086e+000	-4.0446598224e+000
 1.8113742794e-001	 1.1609540181e+000	-4.0870869807e+000
 1.7028039961e-001	 1.1625960543e+000	-4.1257551942e+000
 1.5944208535e-001	 1.1641319605e+000	-4.1604131621e+000
 1.4862387233e-001	 1.1655625014e+000	-4.1908160586e+000
 1.3782712473e-001	 1.1668884624e+000	-4.2167257766e+000
 1.2705318338e-001	 1.1681106491e+000	-4.2379111542e+000
 1.1630336552e-001	 1.1692298864e+000	-4.2541481842e+000
 1.0557896455e-001	 1.1702470176e+000	-4.2652202061e+000
 2.1835566291e-001	 1.1799664421e+000	-3.5548685451e+000
 2.0721902781e-001	 1.1819730430e+000	-3.5979863268e+000
 1.9609711701e-001	 1.1838690471e+000	-3.6381700046e+000
 1.8499141576e-001	 1.1856551674e+000	-3.6751529690e+000
 1.7390338684e-001	 1.1873321406e+000	-3.7086745309e+000
 1.6283447014e-001	 1.1889007256e+000	-3.7384802100e+000
 1.5178608238e-001	 1.1903617035e+000	-3.7643220056e+000
 1.4075961675e-001	 1.1917158765e+000	-3.7859586495e+000
 1.2975644260e-001	 1.1929640672e+000	-3.8031558421e+000
 1.1877790521e-001	 1.1941071180e+000	-3.8156864701e+000
 1.0782532549e-001	 1.1951458903e+000	-3.8233308071e+000
 2.2290473922e-001	 1.2045490763e+000	-3.2392197989e+000
 2.1153609089e-001	 1.2065974814e+000	-3.2783985090e+000
 2.0018247362e-001	 1.2085329856e+000	-3.3149384252e+000
 1.8884540359e-001	 1.2103563168e+000	-3.3485685364e+000
 1.7752637406e-001	 1.2120682268e+000	-3.3790237626e+000
 1.6622685494e-001	 1.2136694907e+000	-3.4060452545e+000
 1.5494829243e-001	 1.2151609057e+000	-3.4293806755e+000
 1.4369210877e-001	 1.2165432906e+000	-3.4487844650e+000
 1.3245970182e-001	 1.2178174853e+000	-3.4640180842e+000
 1.2125244490e-001	 1.2189843496e+000	-3.4748502431e+000
 1.1007168644e-001	 1.2200447631e+000	-3.4810571096e+000
 2.2745381553e-001	 1.2291317105e+000	-2.9964926889e+000
 2.1585315397e-001	 1.2312219198e+000	-3.0338052462e+000
 2.0426783022e-001	 1.2331969241e+000	-3.0687659412e+000
 1.9269939142e-001	 1.2350574661e+000	-3.1010981211e+000
 1.8114936129e-001	 1.2368043131e+000	-3.1305311013e+000
 1.6961923973e-001	 1.2384382558e+000	-3.1568004779e+000
 1.5811050249e-001	 1.2399601078e+000	-3.1796484212e+000
 1.4662460078e-001	 1.2413707047e+000	-3.1988239500e+000
 1.3516296104e-001	 1.2426709033e+000	-3.2140831884e+000
 1.2372698459e-001	 1.2438615812e+000	-3.2251896020e+000
 1.1231804739e-001	 1.2449436358e+000	-3.2319142172e+000
 8.9854437932e-002	 9.9595490863e-001	-1.0822590590e+001
 8.0749999857e-002	 9.9673438666e-001	-1.0891139184e+001
 7.1669333105e-002	 9.9742844692e-001	-1.0951515414e+001
 6.2613476500e-002	 9.9803785128e-001	-1.1003693134e+001
 5.3583447921e-002	 9.9856337512e-001	-1.1047651127e+001
 4.4580244178e-002	 9.9900580671e-001	-1.1083373097e+001
 3.5604840910e-002	 9.9936594664e-001	-1.1110847664e+001
 2.6658192499e-002	 9.9964460724e-001	-1.1130068349e+001
 1.7741231999e-002	 9.9984261196e-001	-1.1141033544e+001
 8.8548710816e-003	 9.9996079486e-001	-1.1143746487e+001
 0.0000000000e+000	 1.0000000000e+000	-1.1138215219e+001
 9.2100798875e-002	 1.0208537813e+000	-9.4478397408e+000
 8.2768749849e-002	 1.0216527463e+000	-9.5136395778e+000
 7.3461066429e-002	 1.0223641581e+000	-9.5717561476e+000
 6.4178813409e-002	 1.0229887976e+000	-9.6221366592e+000
 5.4923034116e-002	 1.0235274595e+000	-9.6647336119e+000
 4.5694750280e-002	 1.0239809519e+000	-9.6995048137e+000
 3.6494961931e-002	 1.0243500953e+000	-9.7264133894e+000
 2.7324647310e-002	 1.0246357224e+000	-9.7454277811e+000
 1.8184762798e-002	 1.0248386773e+000	-9.7565217394e+000
 9.0762428582e-003	 1.0249598147e+000	-9.7596743069e+000
 0.0000000000e+000	 1.0250000000e+000	-9.7548697928e+000
 9.4347159819e-002	 1.0457526541e+000	-8.2371990665e+000
 8.4787499842e-002	 1.0465711060e+000	-8.2996248426e+000
 7.5252799753e-002	 1.0472998693e+000	-8.3548377132e+000
 6.5744150319e-002	 1.0479397438e+000	-8.4027583522e+000
 5.6262620311e-002	 1.0484915439e+000	-8.4433131035e+000
 4.6809256382e-002	 1.0489560970e+000	-8.4764340180e+000
 3.7385082952e-002	 1.0493342440e+000	-8.5020588793e+000
 2.7991102121e-002	 1.0496268376e+000	-8.5201312209e+000
 1.8628293597e-002	 1.0498347426e+000	-8.5306003326e+000
 9.2976146348e-003	 1.0499588346e+000	-8.5334212581e+000
 0.0000000000e+000	 1.0500000000e+000	-8.5285547834e+000
 9.6593520764e-002	 1.0706515268e+000	-7.1788147067e+000
 8.6806249835e-002	 1.0714894657e+000	-7.2373622683e+000
 7.7044533077e-002	 1.0722355804e+000	-7.2891489225e+000
 6.7309487228e-002	 1.0728906901e+000	-7.3340688609e+000
 5.7602206507e-002	 1.0734556282e+000	-7.3720223399e+000
 4.7923762484e-002	 1.0739312422e+000	-7.4029157363e+000
 3.8275203973e-002	 1.0743183926e+000	-7.4266615911e+000
 2.8657556932e-002	 1.0746179528e+000	-7.4431786423e+000
 1.9071824396e-002	 1.0748308079e+000	-7.4523918471e+000
 9.5189864113e-003	 1.0749578545e+000	-7.4542323929e+000
 0.0000000000e+000	 1.0750000000e+000	-7.4486376992e+000
 9.8839881709e-002	 1.0955503995e+000	-6.2618844107e+000
 8.8824999828e-002	 1.0964078253e+000	-6.3161624747e+000
 7.8836266402e-002	 1.0971712916e+000	-6.3641135786e+000
 6.8874824138e-002	 1.0978416364e+000	-6.4056054289e+000
 5.8941792703e-002	 1.0984197126e+000	-6.4405122083e+000
 4.9038268587e-002	 1.0989063874e+000	-6.4687146496e+000
 3.9165324994e-002	 1.0993025413e+000	-6.4901000970e+000
 2.9324011743e-002	 1.0996090680e+000	-6.5045625550e+000
 1.9515355195e-002	 1.0998268732e+000	-6.5120027256e+000
 9.7403581879e-003	 1.0999568743e+000	-6.5123280333e+000
 0.0000000000e+000	 1.1000000000e+000	-6.5054526393e+000
 1.0108624265e-001	 1.1204492722e+000	-5.4765406921e+000
 9.0843749822e-002	 1.1213261850e+000	-5.5262634861e+000
 8.0627999727e-002	 1.1221070028e+000	-5.5700754759e+000
 7.0440161048e-002	 1.1227925827e+000	-5.6078178290e+000
 6.0281378898e-002	 1.1233837970e+000	-5.6393386171e+000
 5.0152774689e-002	 1.1238815325e+000	-5.6644929092e+000
 4.0055446015e-002	 1.1242866900e+000	-5.6831428494e+000
 2.9990466555e-002	 1.1246001831e+000	-5.6951577226e+000
 1.9958885994e-002	 1.1248229385e+000	-5.7004140058e+000
 9.9617299645e-003	 1.1249558942e+000	-5.6987954075e+000
 0.0000000000e+000	 1.1250000000e+000	-5.6901928938e+000
 1.0333260360e-001	 1.1453481449e+000	-4.8137492243e+000
 9.2862499816e-002	 1.1462445446e+000	-4.8587299263e+000
 8.2419733053e-002	 1.1470427139e+000	-4.8981984016e+000
 7.2005497959e-002	 1.1477435290e+000	-4.9319691755e+000
 6.1620965094e-002	 1.1483478814e+000	-4.9598641243e+000
 5.1267280792e-002	 1.1488566777e+000	-4.9817125857e+000
 4.0945567036e-002	 1.1492708386e+000	-4.9973514548e+000
 3.0656921366e-002	 1.1495912983e+000	-5.0066252652e+000
 2.0402416793e-002	 1.1498190038e+000	-5.0093862554e+000
 1.0183101741e-002	 1.1499549141e+000	-5.0054944210e+000
 0.0000000000e+000	 1.1500000000e+000	-4.9948175538e+000
 1.0557896455e-001	 1.1702470176e+000	-4.2652202061e+000
 9.4881249811e-002	 1.1711629043e+000	-4.3053650827e+000
 8.4211466378e-002	 1.1719784251e+000	-4.3403789020e+000
 7.3570834869e-002	 1.1726944752e+000	-4.3700493987e+000
 6.2960551291e-002	 1.1733119658e+000	-4.3941721232e+000
 5.2381786895e-002	 1.1738318229e+000	-4.4125505710e+000
 4.1835688057e-002	 1.1742549873e+000	-4.4249962956e+000
 3.1323376177e-002	 1.1745824135e+000	-4.4313290051e+000
 2.0845947592e-002	 1.1748150691e+000	-4.4313766436e+000
 1.0404473518e-002	 1.1749539340e+000	-4.4249754568e+000
 0.0000000000e+000	 1.1750000000e+000	-4.4119700431e+000
 1.0782532549e-001	 1.1951458903e+000	-3.8233308071e+000
 9.6899999806e-002	 1.1960812640e+000	-3.8586339619e+000
 8.6003199704e-002	 1.1969141363e+000	-3.8891699538e+000
 7.5136171780e-002	 1.1976454215e+000	-3.9146995344e+000
 6.4300137487e-002	 1.1982760501e+000	-3.9349917559e+000
 5.3496292997e-002	 1.1988069680e+000	-3.9498241182e+000
 4.2725809079e-002	 1.1992391360e+000	-3.9589826993e+000
 3.1989830989e-002	 1.1995735287e+000	-3.9622622677e+000
 2.1289478391e-002	 1.1998111344e+000	-3.9594663782e+000
 1.0625845294e-002	 1.1999529538e+000	-3.9504074508e+000
 0.0000000000e+000	 1.2000000000e+000	-3.9349068334e+000
 1.1007168644e-001	 1.2200447631e+000	-3.4810571096e+000
 9.8918749801e-002	 1.2209996236e+000	-3.5115957676e+000
 8.7794933031e-002	 1.2218498475e+000	-3.5377139810e+000
 7.6701508691e-002	 1.2225963678e+000	-3.5591452850e+000
 6.5639723683e-002	 1.2232401345e+000	-3.5756320201e+000
 5.4610799100e-002	 1.2237821132e+000	-3.5869254979e+000
 4.3615930100e-002	 1.2242232846e+000	-3.5927861482e+000
 3.2656285800e-002	 1.2245646439e+000	-3.5929836474e+000
 2.1733009191e-002	 1.2248071996e+000	-3.5872970287e+000
 1.0847217071e-002	 1.2249519737e+000	-3.5755147740e+000
 0.0000000000e+000	 1.2250000000e+000	-3.5574348885e+000
 1.1231804739e-001	 1.2449436358e+000	-3.2319142172e+000
 1.0093749980e-001	 1.2459179833e+000	-3.2578444808e+000
 8.9586666357e-002	 1.2467855586e+000	-3.2796839106e+000
 7.8266845602e-002	 1.2475473141e+000	-3.2971385527e+000
 6.6979309880e-002	 1.2482042189e+000	-3.3099237841e+000
 5.5725305204e-002	 1.2487572584e+000	-3.3177644971e+000
 4.4506051122e-002	 1.2492074333e+000	-3.3203952639e+000
 3.3322740611e-002	 1.2495557590e+000	-3.3175604801e+000
 2.2176539990e-002	 1.2498032649e+000	-3.3090144894e+000
 1.1068588847e-002	 1.2499509936e+000	-3.2945216890e+000
 0.0000000000e+000	 1.2500000000e+000	-3.2738566152e+000
 1.2500000000e+000	 0.0000000000e+000	 4.1349657694e+000
 1.2499509936e+000	 1.1068588847e-002	 4.1377967799e+000
 1.2498032649e+000	 2.2176539990e-002	 4.1373426441e+000
 1.2495557590e+000	 3.3322740611e-002	 4.1335378434e+000
 1.2492074333e+000	 4.4506051122e-002	 4.1263154272e+000
 1.2487572584e+000	 5.5725305204e-002	 4.1156070310e+000
 1.2482042189e+000	 6.6979309880e-002	 4.1013428986e+000
 1.2475473141e+000	 7.8266845602e-002	 4.0834519076e+000
 1.2467855586e+000	 8.9586666357e-002	 4.0618615992e+000
 1.2459179833e+000	 1.0093749980e-001	 4.0364982117e+000
 1.2449436358e+000	 1.1231804739e-001	 4.0072867183e+000
 1.2750000000e+000	 0.0000000000e+000	 4.0122157576e+000
 1.2749500134e+000	 1.1289960624e-002	 4.0171148344e+000
 1.2747993302e+000	 2.2620070789e-002	 4.0188255630e+000
 1.2745468742e+000	 3.3989195423e-002	 4.0173101989e+000
 1.2741915820e+000	 4.5396172143e-002	 4.0125297636e+000
 1.2737324036e+000	 5.6839811307e-002	 4.0044440058e+000
 1.2731683033e+000	 6.8318896077e-002	 3.9930113652e+000
 1.2724982604e+000	 7.9832182514e-002	 3.9781889370e+000
 1.2717212698e+000	 9.1378399684e-002	 3.9599324389e+000
 1.2708363430e+000	 1.0295624979e-001	 3.9381961799e+000
 1.2698425085e+000	 1.1456440834e-001	 3.9129330311e+000
 1.3000000000e+000	 0.0000000000e+000	 3.9148497818e+000
 1.2999490333e+000	 1.1511332401e-002	 3.9212269767e+000
 1.2997953955e+000	 2.3063601588e-002	 3.9241803419e+000
 1.2995379894e+000	 3.4655650234e-002	 3.9236675813e+000
 1.2991757306e+000	 4.6286293165e-002	 3.9196452194e+000
 1.2987075487e+000	 5.7954317410e-002	 3.9120685672e+000
 1.2981323876e+000	 6.9658482273e-002	 3.9008916904e+000
 1.2974492067e+000	 8.1397519425e-002	 3.8860673788e+000
 1.2966569810e+000	 9.3170133010e-002	 3.8675471176e+000
 1.2957547027e+000	 1.0497499979e-001	 3.8452810614e+000
 1.2947413812e+000	 1.1681076929e-001	 3.8192180098e+000
 1.3250000000e+000	 0.0000000000e+000	 3.8413545283e+000
 1.3249480532e+000	 1.1732704177e-002	 3.8487978597e+000
 1.3247914608e+000	 2.3507132387e-002	 3.8526018914e+000
 1.3245291046e+000	 3.5322105045e-002	 3.8527201646e+000
 1.3241598793e+000	 4.7176414186e-002	 3.8491050870e+000
 1.3236826939e+000	 5.9068823513e-002	 3.8417079032e+000
 1.3230964720e+000	 7.0998068470e-002	 3.8304786661e+000
 1.3224001529e+000	 8.2962856336e-002	 3.8153662109e+000
 1.3215926922e+000	 9.4961866336e-002	 3.7963181302e+000
 1.3206730623e+000	 1.0699374978e-001	 3.7732807528e+000
 1.3196402539e+000	 1.1905713023e-001	 3.7461991234e+000
 1.3500000000e+000	 0.0000000000e+000	 3.7903287805e+000
 1.3499470731e+000	 1.1954075954e-002	 3.7984375271e+000
 1.3497875261e+000	 2.3950663186e-002	 3.8027108966e+000
 1.3495202198e+000	 3.5988559857e-002	 3.8030986462e+000
 1.3491440280e+000	 4.8066535207e-002	 3.7995494371e+000
 1.3486578391e+000	 6.0183329615e-002	 3.7920108082e+000
 1.3480605564e+000	 7.2337654666e-002	 3.7804291510e+000
 1.3473510992e+000	 8.4528193246e-002	 3.7647496869e+000
 1.3465284033e+000	 9.6753599662e-002	 3.7449164463e+000
 1.3455914220e+000	 1.0901249978e-001	 3.7208722509e+000
 1.3445391266e+000	 1.2130349118e-001	 3.6925586974e+000
 1.3750000000e+000	 0.0000000000e+000	 3.7604732286e+000
 1.3749460929e+000	 1.2175447730e-002	 3.7688569442e+000
 1.3747835914e+000	 2.4394193985e-002	 3.7732280358e+000
 1.3745113349e+000	 3.6655014668e-002	 3.7735328460e+000
 1.3741281766e+000	 4.8956656228e-002	 3.7697166504e+000
 1.3736329842e+000	 6.1297835718e-002	 3.7617236338e+000
 1.3730246408e+000	 7.3677240862e-002	 3.7494968684e+000
 1.3723020455e+000	 8.6093530156e-002	 3.7329782940e+000
 1.3714641145e+000	 9.8545332987e-002	 3.7121087000e+000
 1.3705097816e+000	 1.1103124977e-001	 3.6868277112e+000
 1.3694379994e+000	 1.2354985212e-001	 3.6570737743e+000
 1.4000000000e+000	 0.0000000000e+000	 3.7505813706e+000
 1.3999451128e+000	 1.2396819507e-002	 3.7588589869e+000
 1.3997796567e+000	 2.4837724784e-002	 3.7629650523e+000
 1.3995024501e+000	 3.7321469479e-002	 3.7628428557e+000
 1.3991123253e+000	 4.9846777250e-002	 3.7584346394e+000
 1.3986081294e+000	 6.2412341821e-002	 3.7496815778e+000
 1.3979887252e+000	 7.5016827058e-002	 3.7365237576e+000
 1.3972529918e+000	 8.7658867067e-002	 3.7189001607e+000
 1.3963998257e+000	 1.0033706631e-001	 3.6967486489e+000
 1.3954281413e+000	 1.1304999977e-001	 3.6700059518e+000
 1.3943368721e+000	 1.2579621307e-001	 3.6386076568e+000
 1.4250000000e+000	 0.0000000000e+000	 3.7595313713e+000
 1.4249441327e+000	 1.2618191283e-002	 3.7673303793e+000
 1.4247757220e+000	 2.5281255584e-002	 3.7708167663e+000
 1.4244935653e+000	 3.7987924290e-002	 3.7699311203e+000
 1.4240964740e+000	 5.0736898271e-002	 3.7646129955e+000
 1.4235832746e+000	 6.3526847923e-002	 3.7548008914e+000
 1.4229528095e+000	 7.6356413254e-002	 3.7404322359e+000
 1.4222039381e+000	 8.9224203976e-002	 3.7214433692e+000
 1.4213355368e+000	 1.0212879964e-001	 3.6977695313e+000
 1.4203465010e+000	 1.1506874976e-001	 3.6693448515e+000
 1.4192357448e+000	 1.2804257402e-001	 3.6361023410e+000
 1.4500000000e+000	 0.0000000000e+000	 3.7862787634e+000
 1.4499431525e+000	 1.2839563060e-002	 3.7932344659e+000
 1.4497717873e+000	 2.5724786383e-002	 3.7957539130e+000
 1.4494846805e+000	 3.8654379101e-002	 3.7937753389e+000
 1.4490806226e+000	 5.1627019292e-002	 3.7872359470e+000
 1.4485584197e+000	 6.4641354025e-002	 3.7760718913e+000
 1.4479168939e+000	 7.7695999449e-002	 3.7602182603e+000
 1.4471548843e+000	 9.0789540886e-002	 3.7396090623e+000
 1.4462712480e+000	 1.0392053296e-001	 3.7141772146e+000
 1.4452648606e+000	 1.1708749975e-001	 3.6838545342e+000
 1.4441346175e+000	 1.3028893496e-001	 3.6485717328e+000
 1.4750000000e+000	 0.0000000000e+000	 3.8298498911e+000
 1.4749421724e+000	 1.3060934837e-002	 3.8356047176e+000
 1.4747678526e+000	 2.6168317182e-002	 3.8368167096e+000
 1.4744757957e+000	 3.9320833912e-002	 3.8334220870e+000
 1.4740647713e+000	 5.2517140313e-002	 3.8253560345e+000
 1.4735335649e+000	 6.5755860127e-002	 3.8125526834e+000
 1.4728809783e+000	 7.9035585644e-002	 3.7949450960e+000
 1.4721058306e+000	 9.2354877796e-002	 3.7724652524e+000
 1.4712069592e+000	 1.0571226629e-001	 3.7450440400e+000
 1.4701832203e+000	 1.1910624974e-001	 3.7126112461e+000
 1.4690334902e+000	 1.3253529590e-001	 3.6750955532e+000
 1.5000000000e+000	 0.0000000000e+000	 3.8893360088e+000
 1.4999411923e+000	 1.3282306613e-002	 3.8935388884e+000
 1.4997639179e+000	 2.6611847981e-002	 3.8931090644e+000
 1.4994669109e+000	 3.9987288723e-002	 3.8879810769e+000
 1.4990489200e+000	 5.3407261333e-002	 3.8780884179e+000
 1.4985087101e+000	 6.6870366229e-002	 3.8633635130e+000
 1.4978450627e+000	 8.0375171839e-002	 3.8437377067e+000
 1.4970567769e+000	 9.3920214705e-002	 3.8191412485e+000
 1.4961426704e+000	 1.0750399961e-001	 3.7895032837e+000
 1.4951015800e+000	 1.2112499974e-001	 3.7547518462e+000
 1.4939323629e+000	 1.3478165685e-001	 3.7148138545e+000
 1.2449436358e+000	 1.1231804739e-001	 4.0072867183e+000
 1.2438615812e+000	 1.2372698459e-001	 3.9945938604e+000
 1.2426709033e+000	 1.3516296104e-001	 3.9773556614e+000
 1.2413707047e+000	 1.4662460078e-001	 3.9554895924e+000
 1.2399601078e+000	 1.5811050249e-001	 3.9289125962e+000
 1.2384382558e+000	 1.6961923973e-001	 3.8975411621e+000
 1.2368043131e+000	 1.8114936129e-001	 3.8612914044e+000
 1.2350574661e+000	 1.9269939142e-001	 3.8200791467e+000
 1.2331969241e+000	 2.0426783022e-001	 3.7738200084e+000
 1.2312219198e+000	 2.1585315397e-001	 3.7224294972e+000
 1.2291317105e+000	 2.2745381553e-001	 3.6658231043e+000
 1.2698425085e+000	 1.1456440834e-001	 3.9129330311e+000
 1.2687388129e+000	 1.2620152428e-001	 3.9048615286e+000
 1.2675243214e+000	 1.3786622027e-001	 3.8927210272e+000
 1.2661981188e+000	 1.4955709280e-001	 3.8764566856e+000
 1.2647593100e+000	 1.6127271254e-001	 3.8560126138e+000
 1.2632070210e+000	 1.7301162453e-001	 3.8313318708e+000
 1.2615403994e+000	 1.8477234852e-001	 3.8023564665e+000
 1.2597586154e+000	 1.9655337925e-001	 3.7690273659e+000
 1.2578608626e+000	 2.0835318683e-001	 3.7312844974e+000
 1.2558463582e+000	 2.2017021705e-001	 3.6890667642e+000
 1.2537143447e+000	 2.3200289184e-001	 3.6423120592e+000
 1.2947413812e+000	 1.1681076929e-001	 3.8192180098e+000
 1.2936160445e+000	 1.2867606398e-001	 3.8103793874e+000
 1.2923777395e+000	 1.4056947949e-001	 3.7972900428e+000
 1.2910255329e+000	 1.5248958481e-001	 3.7798920387e+000
 1.2895585122e+000	 1.6443492259e-001	 3.7581264305e+000
 1.2879757861e+000	 1.7640400932e-001	 3.7319332673e+000
 1.2862764856e+000	 1.8839533574e-001	 3.7012515980e+000
 1.2844597647e+000	 2.0040736708e-001	 3.6660194789e+000
 1.2825248010e+000	 2.1243854343e-001	 3.6261739862e+000
 1.2804707966e+000	 2.2448728013e-001	 3.5816512311e+000
 1.2782969789e+000	 2.3655196814e-001	 3.5323863796e+000
 1.3196402539e+000	 1.1905713023e-001	 3.7461991234e+000
 1.3184932761e+000	 1.3115060367e-001	 3.7363815698e+000
 1.3172311575e+000	 1.4327273871e-001	 3.7221513650e+000
 1.3158529470e+000	 1.5542207683e-001	 3.7034477251e+000
 1.3143577143e+000	 1.6759713264e-001	 3.6802088869e+000
 1.3127445512e+000	 1.7979639412e-001	 3.6523721134e+000
 1.3110125719e+000	 1.9201832297e-001	 3.6198737020e+000
 1.3091609141e+000	 2.0426135491e-001	 3.5826489965e+000
 1.3071887395e+000	 2.1652390003e-001	 3.5406324019e+000
 1.3050952350e+000	 2.2880434321e-001	 3.4937574045e+000
 1.3028796131e+000	 2.4110104445e-001	 3.4419565943e+000
 1.3445391266e+000	 1.2130349118e-001	 3.6925586974e+000
 1.3433705078e+000	 1.3362514336e-001	 3.6815559274e+000
 1.3420845756e+000	 1.4597599793e-001	 3.6659978579e+000
 1.3406803611e+000	 1.5835456884e-001	 3.6458210991e+000
 1.3391569165e+000	 1.7075934268e-001	 3.6209612990e+000
 1.3375133163e+000	 1.8318877891e-001	 3.5913531502e+000
 1.3357486582e+000	 1.9564131019e-001	 3.5569304017e+000
 1.3338620634e+000	 2.0811534273e-001	 3.5176258729e+000
 1.3318526780e+000	 2.2060925664e-001	 3.4733714728e+000
 1.3297196734e+000	 2.3312140629e-001	 3.4240982219e+000
 1.3274622474e+000	 2.4565012076e-001	 3.3697362787e+000
 1.3694379994e+000	 1.2354985212e-001	 3.6570737743e+000
 1.3682477394e+000	 1.3609968305e-001	 3.6446845861e+000
 1.3669379937e+000	 1.4867925715e-001	 3.6276162669e+000
 1.3655077752e+000	 1.6128706086e-001	 3.6058030562e+000
 1.3639561186e+000	 1.7392155273e-001	 3.5791782350e+000
 1.3622820814e+000	 1.8658116370e-001	 3.5476741353e+000
 1.3604847444e+000	 1.9926429742e-001	 3.5112221534e+000
 1.3585632127e+000	 2.1196933056e-001	 3.4697527671e+000
 1.3565166165e+000	 2.2469461324e-001	 3.4231955569e+000
 1.3543441118e+000	 2.3743846937e-001	 3.3714792308e+000
 1.3520448816e+000	 2.5019919707e-001	 3.3145316545e+000
 1.3943368721e+000	 1.2579621307e-001	 3.6386076568e+000
 1.3931249710e+000	 1.3857422274e-001	 3.6246355284e+000
 1.3917914117e+000	 1.5138251636e-001	 3.6058788372e+000
 1.3903351893e+000	 1.6421955287e-001	 3.5822696808e+000
 1.3887553208e+000	 1.7708376278e-001	 3.5537391894e+000
 1.3870508465e+000	 1.8997354850e-001	 3.5202175374e+000
 1.3852208307e+000	 2.0288728464e-001	 3.4816339586e+000
 1.3832643620e+000	 2.1582331839e-001	 3.4379167653e+000
 1.3811805550e+000	 2.2877996984e-001	 3.3889933715e+000
 1.3789685502e+000	 2.4175553244e-001	 3.3347903207e+000
 1.3766275158e+000	 2.5474827338e-001	 3.2752333174e+000
 1.4192357448e+000	 1.2804257402e-001	 3.6361023410e+000
 1.4180022026e+000	 1.4104876243e-001	 3.6203550620e+000
 1.4166448298e+000	 1.5408577558e-001	 3.5997358135e+000
 1.4151626033e+000	 1.6715204489e-001	 3.5741747738e+000
 1.4135545229e+000	 1.8024597283e-001	 3.5436011330e+000
 1.4118196117e+000	 1.9336593329e-001	 3.5079431055e+000
 1.4099569169e+000	 2.0651027186e-001	 3.4671279470e+000
 1.4079655113e+000	 2.1967730621e-001	 3.4210819750e+000
 1.4058444934e+000	 2.3286532645e-001	 3.3697305938e+000
 1.4035929886e+000	 2.4607259552e-001	 3.3129983238e+000
 1.4012101500e+000	 2.5929734969e-001	 3.2508088362e+000
 1.4441346175e+000	 1.3028893496e-001	 3.6485717328e+000
 1.4428794342e+000	 1.4352330212e-001	 3.6308610681e+000
 1.4414982479e+000	 1.5678903480e-001	 3.6082087160e+000
 1.4399900174e+000	 1.7008453690e-001	 3.5805431530e+000
 1.4383537251e+000	 1.8340818287e-001	 3.5477918343e+000
 1.4365883768e+000	 1.9675831808e-001	 3.5098812070e+000
 1.4346930032e+000	 2.1013325909e-001	 3.4667367280e+000
 1.4326666607e+000	 2.2353129404e-001	 3.4182828855e+000
 1.4305084319e+000	 2.3695068305e-001	 3.3644432255e+000
 1.4282174270e+000	 2.5038965860e-001	 3.3051403828e+000
 1.4257927842e+000	 2.6384642600e-001	 3.2402961169e+000
 1.4690334902e+000	 1.3253529590e-001	 3.6750955532e+000
 1.4677566659e+000	 1.4599784180e-001	 3.6552369355e+000
 1.4663516659e+000	 1.5949229402e-001	 3.6303842999e+000
 1.4648174315e+000	 1.7301702891e-001	 3.6004646343e+000
 1.4631529272e+000	 1.8657039292e-001	 3.5654038594e+000
 1.4613571419e+000	 2.0015070287e-001	 3.5251268429e+000
 1.4594290895e+000	 2.1375624631e-001	 3.4795574175e+000
 1.4573678100e+000	 2.2738528187e-001	 3.4286184030e+000
 1.4551723704e+000	 2.4103603965e-001	 3.3722316340e+000
 1.4528418654e+000	 2.5470672168e-001	 3.3103179920e+000
 1.4503754184e+000	 2.6839550231e-001	 3.2427974421e+000
 1.4939323629e+000	 1.3478165685e-001	 3.7148138545e+000
 1.4926338975e+000	 1.4847238149e-001	 3.6926261018e+000
 1.4912050840e+000	 1.6219555323e-001	 3.6654091195e+000
 1.4896448456e+000	 1.7594952092e-001	 3.6330886154e+000
 1.4879521294e+000	 1.8973260296e-001	 3.5955891724e+000
 1.4861259070e+000	 2.0354308766e-001	 3.5528342619e+000
 1.4841651757e+000	 2.1737923353e-001	 3.5047462626e+000
 1.4820689593e+000	 2.3123926969e-001	 3.4512464828e+000
 1.4798363089e+000	 2.4512139625e-001	 3.3922551881e+000
 1.4774663038e+000	 2.5902378476e-001	 3.3276916345e+000
 1.4749580526e+000	 2.7294457862e-001	 3.2574741062e+000
 1.2291317105e+000	 2.2745381553e-001	 3.6658231043e+000
 1.2269255782e+000	 2.3906824470e-001	 3.6344282047e+000
 1.2246028306e+000	 2.5069484874e-001	 3.5985849387e+000
 1.2221628022e+000	 2.6233201271e-001	 3.5582354110e+000
 1.2196048543e+000	 2.7397810005e-001	 3.5133219195e+000
 1.2169283763e+000	 2.8563145302e-001	 3.4637870406e+000
 1.2141327860e+000	 2.9729039324e-001	 3.4095737183e+000
 1.2112175306e+000	 3.0895322226e-001	 3.3506253566e+000
 1.2081820871e+000	 3.2061822211e-001	 3.2868859146e+000
 1.2050259632e+000	 3.3228365593e-001	 3.2183000052e+000
 1.2017486977e+000	 3.4394776857e-001	 3.1448129962e+000
 1.2537143447e+000	 2.3200289184e-001	 3.6423120592e+000
 1.2514640897e+000	 2.4384960960e-001	 3.6228676604e+000
 1.2490948872e+000	 2.5570874571e-001	 3.5945410353e+000
 1.2466060582e+000	 2.6757865297e-001	 3.5533317441e+000
 1.2439969514e+000	 2.7945766205e-001	 3.5069584865e+000
 1.2412669438e+000	 2.9134408208e-001	 3.4553524940e+000
 1.2384154417e+000	 3.0323620110e-001	 3.3984457134e+000
 1.2354418812e+000	 3.1513228670e-001	 3.3361709195e+000
 1.2323457289e+000	 3.2703058655e-001	 3.2684618319e+000
 1.2291264825e+000	 3.3892932905e-001	 3.1952532331e+000
 1.2257836717e+000	 3.5082672394e-001	 3.1164810915e+000
 1.2782969789e+000	 2.3655196814e-001	 3.5323863796e+000
 1.2760026013e+000	 2.4863097449e-001	 3.5112990079e+000
 1.2735869439e+000	 2.6072264268e-001	 3.4857589469e+000
 1.2710493143e+000	 2.7282529322e-001	 3.4557120245e+000
 1.2683890485e+000	 2.8493722405e-001	 3.4211032700e+000
 1.2656055113e+000	 2.9705671113e-001	 3.3818769414e+000
 1.2626980974e+000	 3.0918200896e-001	 3.3379765558e+000
 1.2596662318e+000	 3.2131135114e-001	 3.2893449251e+000
 1.2565093706e+000	 3.3344295099e-001	 3.2359241952e+000
 1.2532270017e+000	 3.4557500216e-001	 3.1776558902e+000
 1.2498186456e+000	 3.5770567931e-001	 3.1133624070e+000
 1.3028796131e+000	 2.4110104445e-001	 3.4419565943e+000
 1.3005411129e+000	 2.5341233938e-001	 3.4189166788e+000
 1.2980790005e+000	 2.6573653966e-001	 3.3909915263e+000
 1.2954925703e+000	 2.7807193347e-001	 3.3581185150e+000
 1.2927811456e+000	 2.9041678605e-001	 3.3202344087e+000
 1.2899440789e+000	 3.0276934019e-001	 3.2772753967e+000
 1.2869807532e+000	 3.1512781682e-001	 3.2291771371e+000
 1.2838905824e+000	 3.2749041558e-001	 3.1758748050e+000
 1.2806730123e+000	 3.3985531543e-001	 3.1173031452e+000
 1.2773275210e+000	 3.5222067528e-001	 3.0533965295e+000
 1.2738536196e+000	 3.6458463467e-001	 2.9840890184e+000
 1.3274622474e+000	 2.4565012076e-001	 3.3697362787e+000
 1.3250796244e+000	 2.5819370428e-001	 3.3444512702e+000
 1.3225710571e+000	 2.7075043663e-001	 3.3138777887e+000
 1.3199358264e+000	 2.8331857372e-001	 3.2779450479e+000
 1.3171732427e+000	 2.9589634805e-001	 3.2365818121e+000
 1.3142826464e+000	 3.0848196925e-001	 3.1897164480e+000
 1.3112634089e+000	 3.2107362469e-001	 3.1372769807e+000
 1.3081149330e+000	 3.3366948003e-001	 3.0791911539e+000
 1.3048366541e+000	 3.4626767987e-001	 3.0153864954e+000
 1.3014280403e+000	 3.5886634840e-001	 2.9457903870e+000
 1.2978885935e+000	 3.7146359004e-001	 2.8703301389e+000
 1.3520448816e+000	 2.5019919707e-001	 3.3145316545e+000
 1.3496181360e+000	 2.6297506917e-001	 3.2867248834e+000
 1.3470631137e+000	 2.7576433361e-001	 3.2532547382e+000
 1.3443790824e+000	 2.8856521398e-001	 3.2140425368e+000
 1.3415653397e+000	 3.0137591005e-001	 3.1690092941e+000
 1.3386212139e+000	 3.1419459831e-001	 3.1180757850e+000
 1.3355460646e+000	 3.2701943255e-001	 3.0611626119e+000
 1.3323392837e+000	 3.3984854447e-001	 2.9981902776e+000
 1.3290002958e+000	 3.5268004431e-001	 2.9290792620e+000
 1.3255285595e+000	 3.6551202151e-001	 2.8537501051e+000
 1.3219235675e+000	 3.7834254541e-001	 2.7721234931e+000
 1.3766275158e+000	 2.5474827338e-001	 3.2752333174e+000
 1.3741566475e+000	 2.6775643406e-001	 3.2446429540e+000
 1.3715551703e+000	 2.8077823058e-001	 3.2080417565e+000
 1.3688223385e+000	 2.9381185423e-001	 3.1653434011e+000
 1.3659574368e+000	 3.0685547205e-001	 3.1164613884e+000
 1.3629597814e+000	 3.1990722737e-001	 3.0613091173e+000
 1.3598287203e+000	 3.3296524041e-001	 2.9997999640e+000
 1.3565636343e+000	 3.4602760891e-001	 2.9318473663e+000
 1.3531639376e+000	 3.5909240875e-001	 2.8573649122e+000
 1.3496290788e+000	 3.7215769463e-001	 2.7762664340e+000
 1.3459585415e+000	 3.8522150078e-001	 2.6884661074e+000
 1.4012101500e+000	 2.5929734969e-001	 3.2508088362e+000
 1.3986951591e+000	 2.7253779896e-001	 3.2171869420e+000
 1.3960472269e+000	 2.8579212755e-001	 3.1772333774e+000
 1.3932655945e+000	 2.9905849449e-001	 3.1308544168e+000
 1.3903495339e+000	 3.1233503405e-001	 3.0779562676e+000
 1.3872983490e+000	 3.2561985643e-001	 3.0184451552e+000
 1.3841113760e+000	 3.3891104828e-001	 2.9522274126e+000
 1.3807879849e+000	 3.5220667336e-001	 2.8792095754e+000
 1.3773275793e+000	 3.6550477319e-001	 2.7992984824e+000
 1.3737295980e+000	 3.7880336775e-001	 2.7124013801e+000
 1.3699935154e+000	 3.9210045615e-001	 2.6184260345e+000
 1.4257927842e+000	 2.6384642600e-001	 3.2402961169e+000
 1.4232336707e+000	 2.7731916385e-001	 3.2034077776e+000
 1.4205392835e+000	 2.9080602453e-001	 3.1598928075e+000
 1.4177088505e+000	 3.0430513474e-001	 3.1096503057e+000
 1.4147416310e+000	 3.1781459605e-001	 3.0525793949e+000
 1.4116369165e+000	 3.3133248549e-001	 2.9885793165e+000
 1.4083940318e+000	 3.4485685614e-001	 2.9175495306e+000
 1.4050123355e+000	 3.5838573780e-001	 2.8393898214e+000
 1.4014912211e+000	 3.7191713763e-001	 2.7540004085e+000
 1.3978301173e+000	 3.8544904087e-001	 2.6612820633e+000
 1.3940284894e+000	 3.9897941152e-001	 2.5611362305e+000
 1.4503754184e+000	 2.6839550231e-001	 3.2427974421e+000
 1.4477721822e+000	 2.8210052874e-001	 3.2024199743e+000
 1.4450313401e+000	 2.9581992150e-001	 3.1551461069e+000
 1.4421521066e+000	 3.0955177499e-001	 3.1008679779e+000
 1.4391337281e+000	 3.2329415806e-001	 3.0394778218e+000
 1.4359754840e+000	 3.3704511455e-001	 2.9708680734e+000
 1.4326766875e+000	 3.5080266401e-001	 2.8949314784e+000
 1.4292366861e+000	 3.6456480225e-001	 2.8115612087e+000
 1.4256548628e+000	 3.7832950208e-001	 2.7206509839e+000
 1.4219306366e+000	 3.9209471399e-001	 2.6220951986e+000
 1.4180634633e+000	 4.0585836689e-001	 2.5157890547e+000
 1.4749580526e+000	 2.7294457862e-001	 3.2574741062e+000
 1.4723106938e+000	 2.8688189364e-001	 3.2133963303e+000
 1.4695233968e+000	 3.0083381848e-001	 3.1621769513e+000
 1.4665953626e+000	 3.1479841525e-001	 3.1037013494e+000
 1.4635258252e+000	 3.2877372006e-001	 3.0378550554e+000
 1.4603140515e+000	 3.4275774362e-001	 2.9645238644e+000
 1.4569593432e+000	 3.5674847188e-001	 2.8835939548e+000
 1.4534610367e+000	 3.7074386670e-001	 2.7949520143e+000
 1.4498185045e+000	 3.8474186652e-001	 2.6984853709e+000
 1.4460311558e+000	 3.9874038711e-001	 2.5940821302e+000
 1.4420984373e+000	 4.1273732227e-001	 2.4816313193e+000
 1.2017486977e+000	 3.4394776857e-001	 3.1448129962e+000
 1.1983498614e+000	 3.5560878723e-001	 3.1005511051e+000
 1.1948290576e+000	 3.6726492216e-001	 3.0512678213e+000
 1.1911859226e+000	 3.7891436731e-001	 2.9969081914e+000
 1.1874201265e+000	 3.9055530112e-001	 2.9374186834e+000
 1.1835313736e+000	 4.0218588716e-001	 2.8727473071e+000
 1.1795194030e+000	 4.1380427497e-001	 2.8028437363e+000
 1.1753839893e+000	 4.2540860082e-001	 2.7276594320e+000
 1.1711249430e+000	 4.3699698847e-001	 2.6471477674e+000
 1.1667421108e+000	 4.4856755008e-001	 2.5612641532e+000
 1.1622353763e+000	 4.6011838696e-001	 2.4699661649e+000
 1.2257836717e+000	 3.5082672394e-001	 3.1164810915e+000
 1.2223168587e+000	 3.6272096297e-001	 3.0668253639e+000
 1.2187256388e+000	 3.7461022059e-001	 3.0121724135e+000
 1.2150096411e+000	 3.8649265466e-001	 2.9524664822e+000
 1.2111685290e+000	 3.9836640714e-001	 2.8876532045e+000
 1.2072020010e+000	 4.1022960490e-001	 2.8176797327e+000
 1.2031097911e+000	 4.2208036047e-001	 2.7424948631e+000
 1.1988916691e+000	 4.3391677283e-001	 2.6620491641e+000
 1.1945474418e+000	 4.4573692824e-001	 2.5762951066e+000
 1.1900769530e+000	 4.5753890108e-001	 2.4851871938e+000
 1.1854800839e+000	 4.6932075469e-001	 2.3886820938e+000
 1.2498186456e+000	 3.5770567931e-001	 3.1133624070e+000
 1.2462838559e+000	 3.6983313871e-001	 3.0586174686e+000
 1.2426222199e+000	 3.8195551903e-001	 2.9989005921e+000
 1.2388333595e+000	 3.9407094200e-001	 2.9341549179e+000
 1.2349169315e+000	 4.0617751316e-001	 2.8643249454e+000
 1.2308726285e+000	 4.1827332264e-001	 2.7893566626e+000
 1.2267001791e+000	 4.3035644597e-001	 2.7091976777e+000
 1.2223993489e+000	 4.4242494484e-001	 2.6237973522e+000
 1.2179699407e+000	 4.5447686801e-001	 2.5331069362e+000
 1.2134117952e+000	 4.6651025208e-001	 2.4370797041e+000
 1.2087247914e+000	 4.7852312243e-001	 2.3356710925e+000
 1.2738536196e+000	 3.6458463467e-001	 2.9840890184e+000
 1.2702508531e+000	 3.7694531445e-001	 2.9456819196e+000
 1.2665188011e+000	 3.8930081747e-001	 2.9037615710e+000
 1.2626570780e+000	 4.0164922934e-001	 2.8582790769e+000
 1.2586653341e+000	 4.1398861918e-001	 2.8091841761e+000
 1.2545432560e+000	 4.2631704038e-001	 2.7564252875e+000
 1.2502905672e+000	 4.3863253146e-001	 2.6999495625e+000
 1.2459070287e+000	 4.5093311686e-001	 2.6118604919e+000
 1.2413924396e+000	 4.6321680778e-001	 2.5165410658e+000
 1.2367466374e+000	 4.7548160308e-001	 2.4159007822e+000
 1.2319694989e+000	 4.8772549017e-001	 2.3098935177e+000
 1.2978885935e+000	 3.7146359004e-001	 2.8703301389e+000
 1.2942178504e+000	 3.8405749020e-001	 2.8263441891e+000
 1.2904153822e+000	 3.9664611591e-001	 2.7789977358e+000
 1.2864807964e+000	 4.0922751669e-001	 2.7282423793e+000
 1.2824137366e+000	 4.2179972519e-001	 2.6740281433e+000
 1.2782138834e+000	 4.3436075812e-001	 2.6163035195e+000
 1.2738809552e+000	 4.4690861696e-001	 2.5550155184e+000
 1.2694147085e+000	 4.5944128887e-001	 2.4901097268e+000
 1.2648149384e+000	 4.7195674754e-001	 2.4215303706e+000
 1.2600814796e+000	 4.8445295408e-001	 2.3492203849e+000
 1.2552142064e+000	 4.9692785791e-001	 2.2731214893e+000
 1.3219235675e+000	 3.7834254541e-001	 2.7721234931e+000
 1.3181848476e+000	 3.9116966594e-001	 2.7227180350e+000
 1.3143119634e+000	 4.0399141435e-001	 2.6701125489e+000
 1.3103045149e+000	 4.1680580403e-001	 2.6142589724e+000
 1.3061621391e+000	 4.2961083121e-001	 2.5551074433e+000
 1.3018845109e+000	 4.4240447586e-001	 2.4926063431e+000
 1.2974713433e+000	 4.5518470246e-001	 2.4267023470e+000
 1.2929223883e+000	 4.6794946089e-001	 2.3573404806e+000
 1.2882374373e+000	 4.8069668731e-001	 2.2844641832e+000
 1.2834163219e+000	 4.9342430508e-001	 2.2080153782e+000
 1.2784589140e+000	 5.0613022564e-001	 2.1279345493e+000
 1.3459585415e+000	 3.8522150078e-001	 2.6884661074e+000
 1.3421518448e+000	 3.9828184168e-001	 2.6337980827e+000
 1.3382085446e+000	 4.1133671280e-001	 2.5760984018e+000
 1.3341282333e+000	 4.2438409137e-001	 2.5153191803e+000
 1.3299105417e+000	 4.3742193723e-001	 2.4514104987e+000
 1.3255551384e+000	 4.5044819360e-001	 2.3843204447e+000
 1.3210617314e+000	 4.6346078795e-001	 2.3139951623e+000
 1.3164300681e+000	 4.7645763290e-001	 2.2403789081e+000
 1.3116599362e+000	 4.8943662708e-001	 2.1634141152e+000
 1.3067511641e+000	 5.0239565608e-001	 2.0830414638e+000
 1.3017036215e+000	 5.1533259338e-001	 1.9991999584e+000
 1.3699935154e+000	 3.9210045615e-001	 2.6184260345e+000
 1.3661188421e+000	 4.0539401742e-001	 2.5586503755e+000
 1.3621051257e+000	 4.1868201124e-001	 2.4960194961e+000
 1.3579519518e+000	 4.3196237872e-001	 2.4304855300e+000
 1.3536589442e+000	 4.4523304325e-001	 2.3619983281e+000
 1.3492257659e+000	 4.5849191134e-001	 2.2905054994e+000
 1.3446521194e+000	 4.7173687345e-001	 2.2159524599e+000
 1.3399377478e+000	 4.8496580491e-001	 2.1382824881e+000
 1.3350824350e+000	 4.9817656684e-001	 2.0574367894e+000
 1.3300860063e+000	 5.1136700707e-001	 1.9733545671e+000
 1.3249483290e+000	 5.2453496112e-001	 1.8859731019e+000
 1.3940284894e+000	 3.9897941152e-001	 2.5611362305e+000
 1.3900858393e+000	 4.1250619317e-001	 2.4964062182e+000
 1.3860017069e+000	 4.2602730968e-001	 2.4290056533e+000
 1.3817756702e+000	 4.3954066606e-001	 2.3588865269e+000
 1.3774073467e+000	 4.5304414927e-001	 2.2859982873e+000
 1.3728963933e+000	 4.6653562908e-001	 2.2102878791e+000
 1.3682425075e+000	 4.8001295895e-001	 2.1316997915e+000
 1.3634454276e+000	 4.9347397693e-001	 2.0501761141e+000
 1.3585049339e+000	 5.0691650661e-001	 1.9656566014e+000
 1.3534208485e+000	 5.2033835807e-001	 1.8780787448e+000
 1.3481930365e+000	 5.3373732886e-001	 1.7873778530e+000
 1.4180634633e+000	 4.0585836689e-001	 2.5157890547e+000
 1.4140528365e+000	 4.1961836891e-001	 2.4462566462e+000
 1.4098982880e+000	 4.3337260812e-001	 2.3742467534e+000
 1.4055993887e+000	 4.4711895341e-001	 2.2997110639e+000
 1.4011557493e+000	 4.6085525529e-001	 2.2225984485e+000
 1.3965670208e+000	 4.7457934682e-001	 2.1428550002e+000
 1.3918328955e+000	 4.8828904444e-001	 2.0604240817e+000
 1.3869531074e+000	 5.0198214894e-001	 1.9752463812e+000
 1.3819274327e+000	 5.1565644638e-001	 1.8872599768e+000
 1.3767556907e+000	 5.2930970907e-001	 1.7964004104e+000
 1.3714377441e+000	 5.4293969659e-001	 1.7026007690e+000
 1.4420984373e+000	 4.1273732227e-001	 2.4816313193e+000
 1.4380198337e+000	 4.2673054465e-001	 2.4074474479e+000
 1.4337948692e+000	 4.4071790656e-001	 2.3309877306e+000
 1.4294231071e+000	 4.5469724075e-001	 2.2522033885e+000
 1.4249041518e+000	 4.6866636131e-001	 2.1710425395e+000
 1.4202376483e+000	 4.8262306456e-001	 2.0874502365e+000
 1.4154232836e+000	 4.9656512994e-001	 2.0013685140e+000
 1.4104607872e+000	 5.1049032095e-001	 1.9127364441e+000
 1.4053499316e+000	 5.2439638615e-001	 1.8214902015e+000
 1.4000905329e+000	 5.3828106007e-001	 1.7275631384e+000
 1.3946824516e+000	 5.5214206433e-001	 1.6308858678e+000
 1.1622353763e+000	 4.6011838696e-001	 2.4699661649e+000
 1.1576046607e+000	 4.7164759049e-001	 2.4159414711e+000
 1.1528499225e+000	 4.8315324300e-001	 2.3603518370e+000
 1.1479711587e+000	 4.9463341865e-001	 2.3032415897e+000
 1.1429684047e+000	 5.0608618433e-001	 2.2446550806e+000
 1.1378417347e+000	 5.1750960065e-001	 2.1846366945e+000
 1.1325912624e+000	 5.2890172284e-001	 2.1232308589e+000
 1.1272171407e+000	 5.4026060171e-001	 2.0604820549e+000
 1.1217195625e+000	 5.5158428467e-001	 1.9964348274e+000
 1.1160987607e+000	 5.6287081669e-001	 1.9311337976e+000
 1.1103550086e+000	 5.7411824131e-001	 1.8646236743e+000
 1.1854800839e+000	 4.6932075469e-001	 2.3886820938e+000
 1.1807567539e+000	 4.8108054230e-001	 2.3322002347e+000
 1.1759069209e+000	 4.9281630786e-001	 2.2714194789e+000
 1.1709305819e+000	 5.0452608702e-001	 2.2063599988e+000
 1.1658277727e+000	 5.1620790802e-001	 2.1370442951e+000
 1.1605985694e+000	 5.2785979267e-001	 2.0634972628e+000
 1.1552430876e+000	 5.3947975730e-001	 1.9857462559e+000
 1.1497614835e+000	 5.5106581375e-001	 1.9038211498e+000
 1.1441539538e+000	 5.6261597037e-001	 1.8177544033e+000
 1.1384207360e+000	 5.7412823303e-001	 1.7275811170e+000
 1.1325621087e+000	 5.8560060613e-001	 1.6333390905e+000
 1.2087247914e+000	 4.7852312243e-001	 2.3356710925e+000
 1.2039088471e+000	 4.9051349411e-001	 2.2764108794e+000
 1.1989639194e+000	 5.0247937272e-001	 2.2102203969e+000
 1.1938900050e+000	 5.1441875539e-001	 2.1370961937e+000
 1.1886871408e+000	 5.2632963171e-001	 2.0570393917e+000
 1.1833554041e+000	 5.3820998468e-001	 1.9700558095e+000
 1.1778949129e+000	 5.5005779175e-001	 1.8761560801e+000
 1.1723058263e+000	 5.6187102578e-001	 1.7753557664e+000
 1.1665883450e+000	 5.7364765606e-001	 1.6676754712e+000
 1.1607427112e+000	 5.8538564936e-001	 1.5531409440e+000
 1.1547692089e+000	 5.9708297096e-001	 1.4317831810e+000
 1.2319694989e+000	 4.8772549017e-001	 2.3098935177e+000
 1.2270609403e+000	 4.9994644592e-001	 2.2475702545e+000
 1.2220209178e+000	 5.1214243758e-001	 2.1757819731e+000
 1.2168494282e+000	 5.2431142377e-001	 2.0945020755e+000
 1.2115465089e+000	 5.3645135539e-001	 2.0037107278e+000
 1.2061122388e+000	 5.4856017669e-001	 1.9033950382e+000
 1.2005467381e+000	 5.6063582621e-001	 1.7935492293e+000
 1.1948501691e+000	 5.7267623781e-001	 1.6741748037e+000
 1.1890227363e+000	 5.8467934175e-001	 1.5452807039e+000
 1.1830646864e+000	 5.9664306569e-001	 1.4068834642e+000
 1.1769763091e+000	 6.0856533578e-001	 1.2590073554e+000
 1.2552142064e+000	 4.9692785791e-001	 2.2731214893e+000
 1.2502130335e+000	 5.0937939773e-001	 2.2432366789e+000
 1.2450779163e+000	 5.2180550244e-001	 2.1672270655e+000
 1.2398088514e+000	 5.3420409214e-001	 2.0777238029e+000
 1.2344058770e+000	 5.4657307908e-001	 1.9762221427e+000
 1.2288690735e+000	 5.5891036871e-001	 1.8626908062e+000
 1.2231985634e+000	 5.7121386067e-001	 1.7371078749e+000
 1.2173945119e+000	 5.8348144985e-001	 1.5994610072e+000
 1.2114571275e+000	 5.9571102745e-001	 1.4497476458e+000
 1.2053866616e+000	 6.0790048203e-001	 1.2879752160e+000
 1.1991834092e+000	 6.2004770061e-001	 1.1141613138e+000
 1.2784589140e+000	 5.0613022564e-001	 2.1279345493e+000
 1.2733651267e+000	 5.1881234953e-001	 2.0946659602e+000
 1.2681349147e+000	 5.3146856730e-001	 2.0488119779e+000
 1.2627682746e+000	 5.4409676051e-001	 1.9902805224e+000
 1.2572652451e+000	 5.5669480277e-001	 1.9189866662e+000
 1.2516259082e+000	 5.6926056072e-001	 1.8348528714e+000
 1.2458503886e+000	 5.8179189512e-001	 1.7060989836e+000
 1.2399388547e+000	 5.9428666188e-001	 1.5504824369e+000
 1.2338915188e+000	 6.0674271314e-001	 1.3803400882e+000
 1.2277086368e+000	 6.1915789836e-001	 1.1956703312e+000
 1.2213905094e+000	 6.3153006543e-001	 1.0631290589e+000
 1.3017036215e+000	 5.1533259338e-001	 1.9991999584e+000
 1.2965172200e+000	 5.2824530134e-001	 1.9622781184e+000
 1.2911919132e+000	 5.4113163216e-001	 1.9106491079e+000
 1.2857276977e+000	 5.5398942888e-001	 1.8441992403e+000
 1.2801246132e+000	 5.6681652645e-001	 1.7628237803e+000
 1.2743827429e+000	 5.7961075273e-001	 1.6664272301e+000
 1.2685022138e+000	 5.9236992958e-001	 1.5549236109e+000
 1.2624831976e+000	 6.0509187392e-001	 1.4282367397e+000
 1.2563259100e+000	 6.1777439883e-001	 1.2863005005e+000
 1.2500306120e+000	 6.3041531469e-001	 1.1824609094e+000
 1.2435976096e+000	 6.4301243026e-001	 1.0845868718e+000
 1.3249483290e+000	 5.2453496112e-001	 1.8859731019e+000
 1.3196693132e+000	 5.3767825315e-001	 1.8451542979e+000
 1.3142489116e+000	 5.5079469702e-001	 1.7875914793e+000
 1.3086871209e+000	 5.6388209726e-001	 1.7131497226e+000
 1.3029839813e+000	 5.7693825014e-001	 1.6217048005e+000
 1.2971395776e+000	 5.8996094475e-001	 1.5131435159e+000
 1.2911540391e+000	 6.0294796403e-001	 1.3873640310e+000
 1.2850275404e+000	 6.1589708595e-001	 1.2442761884e+000
 1.2787603012e+000	 6.2880608453e-001	 1.1199507490e+000
 1.2723525872e+000	 6.4167273103e-001	 1.0656243673e+000
 1.2658047097e+000	 6.5449479508e-001	 9.9567076617e-001
 1.3481930365e+000	 5.3373732886e-001	 1.7873778530e+000
 1.3428214064e+000	 5.4711120496e-001	 1.7424426845e+000
 1.3373059101e+000	 5.6045776188e-001	 1.6788076541e+000
 1.3316465441e+000	 5.7377476563e-001	 1.5963169350e+000
 1.3258433494e+000	 5.8705997383e-001	 1.4948270891e+000
 1.3198964122e+000	 6.0031113676e-001	 1.3742074487e+000
 1.3138058643e+000	 6.1352599849e-001	 1.2343404912e+000
 1.3075718832e+000	 6.2670229798e-001	 1.0906843993e+000
 1.3011946925e+000	 6.3983777022e-001	 1.0332168843e+000
 1.2946745624e+000	 6.5293014736e-001	 9.5794233606e-001
 1.2880118099e+000	 6.6597715991e-001	 8.6497816101e-001
 1.3714377441e+000	 5.4293969659e-001	 1.7026007690e+000
 1.3659734996e+000	 5.5654415677e-001	 1.6533528239e+000
 1.3603629085e+000	 5.7012082674e-001	 1.5835265063e+000
 1.3546059672e+000	 5.8366743400e-001	 1.4929453854e+000
 1.3487027175e+000	 5.9718169751e-001	 1.3814470610e+000
 1.3426532469e+000	 6.1066132877e-001	 1.2488835926e+000
 1.3364576896e+000	 6.2410403295e-001	 1.0951219192e+000
 1.3301162260e+000	 6.3750751002e-001	 1.0308626209e+000
 1.3236290837e+000	 6.5086945591e-001	 9.5458280689e-001
 1.3169965376e+000	 6.6418756369e-001	 8.5850406370e-001
 1.3102189101e+000	 6.7745952473e-001	 7.4274813291e-001
 1.3946824516e+000	 5.5214206433e-001	 1.6308858678e+000
 1.3891255928e+000	 5.6597710858e-001	 1.5771505083e+000
 1.3834199070e+000	 5.7978389160e-001	 1.5010321955e+000
 1.3775653904e+000	 5.9356010237e-001	 1.4023341615e+000
 1.3715620856e+000	 6.0730342120e-001	 1.2808752623e+000
 1.3654100816e+000	 6.2101152078e-001	 1.1364904530e+000
 1.3591095148e+000	 6.3468206740e-001	 1.0514539397e+000
 1.3526605688e+000	 6.4831272205e-001	 9.7824373330e-001
 1.3460634750e+000	 6.6190114160e-001	 8.8320925247e-001
 1.3393185129e+000	 6.7544498003e-001	 7.6645459182e-001
 1.3324260102e+000	 6.8894188956e-001	 6.2810627838e-001
 1.1103550086e+000	 5.7411824131e-001	 1.8646236743e+000
 1.1044886196e+000	 5.8532460163e-001	 1.8256997949e+000
 1.0984999480e+000	 5.9648794139e-001	 1.7658670354e+000
 1.0923893889e+000	 6.0760630594e-001	 1.6850955270e+000
 1.0861573781e+000	 6.1867774335e-001	 1.5833749090e+000
 1.0798043922e+000	 6.2970030539e-001	 1.5131974253e+000
 1.0733309490e+000	 6.4067204862e-001	 1.4934289334e+000
 1.0667376072e+000	 6.5159103546e-001	 1.4540612914e+000
 1.0600249662e+000	 6.6245533522e-001	 1.3951860365e+000
 1.0531936664e+000	 6.7326302520e-001	 1.3169109247e+000
 1.0462443890e+000	 6.8401219173e-001	 1.2193598087e+000
 1.1325621087e+000	 5.8560060613e-001	 1.6333390905e+000
 1.1265783920e+000	 5.9703109366e-001	 1.5661111485e+000
 1.1204699470e+000	 6.0841770021e-001	 1.4803721949e+000
 1.1142371767e+000	 6.1975843206e-001	 1.3761103689e+000
 1.1078805256e+000	 6.3105129822e-001	 1.3203687369e+000
 1.1014004800e+000	 6.4229431150e-001	 1.3051309512e+000
 1.0947975680e+000	 6.5348548960e-001	 1.2728486127e+000
 1.0880723593e+000	 6.6462285617e-001	 1.2236168627e+000
 1.0812254655e+000	 6.7570444192e-001	 1.1575448181e+000
 1.0742575397e+000	 6.8672828570e-001	 1.0747554213e+000
 1.0671692768e+000	 6.9769243556e-001	 9.7538527544e-001
 1.1547692089e+000	 5.9708297096e-001	 1.4317831810e+000
 1.1486681643e+000	 6.0873758569e-001	 1.3368090983e+000
 1.1424399459e+000	 6.2034745904e-001	 1.2256244493e+000
 1.1360849645e+000	 6.3191055818e-001	 1.1738196254e+000
 1.1296036732e+000	 6.4342485309e-001	 1.1578124487e+000
 1.1229965679e+000	 6.5488831761e-001	 1.1272053280e+000
 1.1162641870e+000	 6.6629893057e-001	 1.0821016784e+000
 1.1094071114e+000	 6.7765467688e-001	 1.0226167659e+000
 1.1024259648e+000	 6.8895354863e-001	 9.4887752503e-001
 1.0953214130e+000	 7.0019354621e-001	 8.6102236234e-001
 1.0880941646e+000	 7.1137267940e-001	 7.5920094903e-001
 1.1769763091e+000	 6.0856533578e-001	 1.2590073554e+000
 1.1707579367e+000	 6.2044407772e-001	 1.1368292147e+000
 1.1644099449e+000	 6.3227721786e-001	 1.0788415271e+000
 1.1579327522e+000	 6.4406268430e-001	 1.0570362848e+000
 1.1513268207e+000	 6.5579840795e-001	 1.0229645616e+000
 1.1445926557e+000	 6.6748232371e-001	 9.7674250241e-001
 1.1377308060e+000	 6.7911237154e-001	 9.1849610367e-001
 1.1307418636e+000	 6.9068649759e-001	 8.4836099131e-001
 1.1236264641e+000	 7.0220265533e-001	 7.6648218827e-001
 1.1163852864e+000	 7.1365880671e-001	 6.7301387255e-001
 1.1090190524e+000	 7.2505292324e-001	 5.6811912613e-001
 1.1991834092e+000	 6.2004770061e-001	 1.1141613138e+000
 1.1928477091e+000	 6.3215056975e-001	 1.0403930269e+000
 1.1863799439e+000	 6.4420697669e-001	 1.0080196849e+000
 1.1797805400e+000	 6.5621481041e-001	 9.6560088075e-001
 1.1730499683e+000	 6.6817196282e-001	 9.1326973312e-001
 1.1661887436e+000	 6.8007632982e-001	 8.5116734173e-001
 1.1591974249e+000	 6.9192581251e-001	 7.7944252141e-001
 1.1520766157e+000	 7.0371831829e-001	 6.9825152786e-001
 1.1448269634e+000	 7.1545176204e-001	 6.0775777574e-001
 1.1374491597e+000	 7.2712406721e-001	 5.0813154988e-001
 1.1299439401e+000	 7.3873316707e-001	 3.9954971046e-001
 1.2213905094e+000	 6.3153006543e-001	 1.0631290589e+000
 1.2149374815e+000	 6.4385706178e-001	 1.0156650764e+000
 1.2083499428e+000	 6.5613673552e-001	 9.6026279285e-001
 1.2016283278e+000	 6.6836693653e-001	 8.9707633159e-001
 1.1947731158e+000	 6.8054551768e-001	 8.2626606057e-001
 1.1877848314e+000	 6.9267033592e-001	 7.4799827800e-001
 1.1806640439e+000	 7.0473925348e-001	 6.6244489139e-001
 1.1734113679e+000	 7.1675013900e-001	 5.6978309065e-001
 1.1660274628e+000	 7.2870086874e-001	 4.7019501611e-001
 1.1585130330e+000	 7.4058932772e-001	 3.6386742246e-001
 1.1508688279e+000	 7.5241341090e-001	 2.5099133946e-001
 1.2435976096e+000	 6.4301243026e-001	 1.0845868718e+000
 1.2370272539e+000	 6.5556355381e-001	 1.0118010098e+000
 1.2303199418e+000	 6.6806649434e-001	 9.3324759228e-001
 1.2234761156e+000	 6.8051906265e-001	 8.4911021127e-001
 1.2164962634e+000	 6.9291907255e-001	 7.5957673858e-001
 1.2093809192e+000	 7.0526434203e-001	 6.6483895381e-001
 1.2021306629e+000	 7.1755269445e-001	 5.6509216766e-001
 1.1947461200e+000	 7.2978195971e-001	 4.6053484171e-001
 1.1872279621e+000	 7.4194997544e-001	 3.5136820589e-001
 1.1795769063e+000	 7.5405458822e-001	 2.3779587446e-001
 1.1717937157e+000	 7.6609365474e-001	 1.2002346161e-001
 1.2658047097e+000	 6.5449479508e-001	 9.9567076617e-001
 1.2591170263e+000	 6.6727004585e-001	 9.5188093517e-001
 1.2522899407e+000	 6.7999625317e-001	 9.0591106047e-001
 1.2453239033e+000	 6.9267118877e-001	 8.1942732325e-001
 1.2382194110e+000	 7.0529262741e-001	 7.1090259428e-001
 1.2309770071e+000	 7.1785834814e-001	 5.9937074773e-001
 1.2235972819e+000	 7.3036613542e-001	 4.8505084284e-001
 1.2160808721e+000	 7.4281378042e-001	 3.6816298243e-001
 1.2084284614e+000	 7.5519908214e-001	 2.4892787895e-001
 1.2006407797e+000	 7.6751984872e-001	 1.2756642193e-001
 1.1927186035e+000	 7.7977389857e-001	 4.2992477824e-003
 1.2880118099e+000	 6.6597715991e-001	 8.6497816101e-001
 1.2812067987e+000	 6.7897653788e-001	 7.9744147623e-001
 1.2742599397e+000	 6.9192601199e-001	 7.2973562885e-001
 1.2671716911e+000	 7.0482331488e-001	 6.6207361575e-001
 1.2599425585e+000	 7.1766618228e-001	 5.9467201047e-001
 1.2525730949e+000	 7.3045235424e-001	 5.2775071477e-001
 1.2450639008e+000	 7.4317957639e-001	 4.2005826381e-001
 1.2374156243e+000	 7.5584560112e-001	 2.9039411223e-001
 1.2296289607e+000	 7.6844818885e-001	 1.6059423429e-001
 1.2217046530e+000	 7.8098510922e-001	 3.0897235871e-002
 1.2136434913e+000	 7.9345414240e-001	-9.8460764166e-002
 1.3102189101e+000	 6.7745952473e-001	 7.4274813291e-001
 1.3032965711e+000	 6.9068302991e-001	 6.5164756854e-001
 1.2962299386e+000	 7.0385577082e-001	 5.6232663421e-001
 1.2890194789e+000	 7.1697544100e-001	 4.7502125996e-001
 1.2816657061e+000	 7.3003973714e-001	 3.8996939801e-001
 1.2741691828e+000	 7.4304636035e-001	 3.0741073528e-001
 1.2665305198e+000	 7.5599301736e-001	 2.2758639887e-001
 1.2587503764e+000	 7.6887742183e-001	 1.5073865502e-001
 1.2508294600e+000	 7.8169729555e-001	 7.7110601952e-002
 1.2427685263e+000	 7.9445036972e-001	-5.4430675985e-002
 1.2345683790e+000	 8.0713438624e-001	-1.9047437845e-001
 1.3324260102e+000	 6.8894188956e-001	 6.2810627838e-001
 1.3253863434e+000	 7.0238952194e-001	 5.1360716182e-001
 1.3181999376e+000	 7.1578552965e-001	 4.0277750487e-001
 1.3108672667e+000	 7.2912756712e-001	 2.9587602365e-001
 1.3033888536e+000	 7.4241329201e-001	 1.9316194002e-001
 1.2957652706e+000	 7.5564036645e-001	 9.4894655348e-002
 1.2879971388e+000	 7.6880645833e-001	 1.3334187868e-003
 1.2800851286e+000	 7.8190924254e-001	-8.7263009324e-002
 1.2720299594e+000	 7.9494640225e-001	-1.7063669839e-001
 1.2638323996e+000	 8.0791563023e-001	-2.4853089218e-001
 1.2554932668e+000	 8.2081463007e-001	-3.2069035643e-001
 1.0462443890e+000	 6.8401219173e-001	 1.2193598087e+000
 1.0391778559e+000	 6.9470093126e-001	 1.1311243587e+000
 1.0319948291e+000	 7.0532735142e-001	 1.0419893740e+000
 1.0246961113e+000	 7.1588957207e-001	 9.5214731493e-001
 1.0172825451e+000	 7.2638572639e-001	 8.6178954882e-001
 1.0097550126e+000	 7.3681396190e-001	 7.7110603306e-001
 1.0021144359e+000	 7.4717244154e-001	 6.8028500305e-001
 9.9436177575e-001	 7.5745934472e-001	 5.8951266706e-001
 9.8649803203e-001	 7.6767286832e-001	 4.9897290829e-001
 9.7852424289e-001	 7.7781122776e-001	 4.0884699501e-001
 9.7044148445e-001	 7.8787265798e-001	 3.1931329955e-001
 1.0671692768e+000	 6.9769243556e-001	 9.7538527544e-001
 1.0599614130e+000	 7.0859494989e-001	 8.8642179173e-001
 1.0526347257e+000	 7.1943389845e-001	 7.9742960390e-001
 1.0451900336e+000	 7.3020736352e-001	 7.0859787802e-001
 1.0376281960e+000	 7.4091344092e-001	 6.2011363152e-001
 1.0299501129e+000	 7.5155024114e-001	 5.3216140659e-001
 1.0221567246e+000	 7.6211589037e-001	 4.4492295107e-001
 1.0142490113e+000	 7.7260853162e-001	 3.5857690760e-001
 1.0062279927e+000	 7.8302632569e-001	 2.7329851192e-001
 9.9809472774e-001	 7.9336745232e-001	 1.8925930108e-001
 9.8985031414e-001	 8.0363011114e-001	 1.0662683230e-001
 1.0880941646e+000	 7.1137267940e-001	 7.5920094903e-001
 1.0807449701e+000	 7.2248896852e-001	 6.6853778848e-001
 1.0732746223e+000	 7.3354044548e-001	 5.7870722999e-001
 1.0656839558e+000	 7.4452515496e-001	 4.8989587659e-001
 1.0579738469e+000	 7.5544115545e-001	 4.0228712041e-001
 1.0501452131e+000	 7.6628652038e-001	 3.1606080594e-001
 1.0421990133e+000	 7.7705933921e-001	 2.3139290245e-001
 1.0341362468e+000	 7.8775771852e-001	 1.4845518663e-001
 1.0259579533e+000	 7.9837978306e-001	 6.7414936053e-002
 1.0176652126e+000	 8.0892367688e-001	-1.1565365441e-002
 1.0092591438e+000	 8.1938756430e-001	-8.8328309929e-002
 1.1090190524e+000	 7.2505292324e-001	 5.6811912613e-001
 1.1015285272e+000	 7.3638298714e-001	 4.7481557767e-001
 1.0939145189e+000	 7.4764699251e-001	 3.8319854040e-001
 1.0861778780e+000	 7.5884294641e-001	 2.9345278167e-001
 1.0783194978e+000	 7.6996886998e-001	 2.0575878769e-001
 1.0703403134e+000	 7.8102279962e-001	 1.2029241551e-001
 1.0622413020e+000	 7.9200278804e-001	 3.7224556147e-002
 1.0540234823e+000	 8.0290690541e-001	-4.3279190498e-002
 1.0456879139e+000	 8.1373324043e-001	-1.2105882783e-001
 1.0372356975e+000	 8.2447990144e-001	-1.9596026110e-001
 1.0286679735e+000	 8.3514501747e-001	-2.6783558145e-001
 1.1299439401e+000	 7.3873316707e-001	 3.9954971046e-001
 1.1223120843e+000	 7.5027700577e-001	 3.0269264011e-001
 1.1145544154e+000	 7.6175353954e-001	 2.0837061278e-001
 1.1066718002e+000	 7.7316073785e-001	 1.1676728509e-001
 1.0986651487e+000	 7.8449658451e-001	 2.8060952641e-002
 1.0905354136e+000	 7.9575907886e-001	-5.7575810148e-002
 1.0822835907e+000	 8.0694623688e-001	-1.3997649751e-001
 1.0739107178e+000	 8.1805609231e-001	-2.1898100596e-001
 1.0654178746e+000	 8.2908669780e-001	-2.9443595322e-001
 1.0568061823e+000	 8.4003612600e-001	-3.6619498159e-001
 1.0480768032e+000	 8.5090247063e-001	-4.3411904479e-001
 1.1508688279e+000	 7.5241341090e-001	 2.5099133946e-001
 1.1430956414e+000	 7.6417102439e-001	 1.4969214035e-001
 1.1351943120e+000	 7.7586008657e-001	 5.1773060722e-002
 1.1271657225e+000	 7.8747852929e-001	-4.2582629789e-002
 1.1190107996e+000	 7.9902429904e-001	-1.3319811348e-001
 1.1107305139e+000	 8.1049535810e-001	-2.1990339814e-001
 1.1023258794e+000	 8.2188968571e-001	-3.0253567599e-001
 1.0937979533e+000	 8.3320527921e-001	-3.8093966697e-001
 1.0851478352e+000	 8.4444015517e-001	-4.5496794540e-001
 1.0763766672e+000	 8.5559235055e-001	-5.2448124909e-001
 1.0674856329e+000	 8.6665992379e-001	-5.8934876993e-001
 1.1717937157e+000	 7.6609365474e-001	 1.2002346161e-001
 1.1638791986e+000	 7.7806504302e-001	 1.3415276288e-002
 1.1558342086e+000	 7.8996663360e-001	-8.8969335550e-002
 1.1476596447e+000	 8.0179632073e-001	-1.8694676759e-001
 1.1393564505e+000	 8.1355201357e-001	-2.8034096893e-001
 1.1309256141e+000	 8.2523163734e-001	-3.6898383211e-001
 1.1223681682e+000	 8.3683313454e-001	-4.5271556461e-001
 1.1136851888e+000	 8.4835446610e-001	-5.3138504284e-001
 1.1048777959e+000	 8.5979361254e-001	-6.0485014755e-001
 1.0959471520e+000	 8.7114857511e-001	-6.7297807955e-001
 1.0868944626e+000	 8.8241737695e-001	-7.3564565511e-001
 1.1927186035e+000	 7.7977389857e-001	 4.2992477824e-003
 1.1846627557e+000	 7.9195906164e-001	-1.0846556579e-001
 1.1764741052e+000	 8.0407318063e-001	-2.1616322271e-001
 1.1681535669e+000	 8.1611411218e-001	-3.1860905536e-001
 1.1597021014e+000	 8.2807972810e-001	-4.1562706903e-001
 1.1511207144e+000	 8.3996791658e-001	-5.0705034548e-001
 1.1424104569e+000	 8.5177658338e-001	-5.9272142808e-001
 1.1335724243e+000	 8.6350365300e-001	-6.7249268760e-001
 1.1246077565e+000	 8.7514706991e-001	-7.4622666721e-001
 1.1155176369e+000	 8.8670479967e-001	-8.1379640605e-001
 1.1063032923e+000	 8.9817483012e-001	-8.7508574008e-001
 1.2136434913e+000	 7.9345414240e-001	-9.8460764166e-002
 1.2054463128e+000	 8.0585308027e-001	-2.1821294821e-001
 1.1971140018e+000	 8.1817972766e-001	-3.3205258580e-001
 1.1886474891e+000	 8.3043190362e-001	-4.3979322164e-001
 1.1800477523e+000	 8.4260744262e-001	-5.4125820609e-001
 1.1713158147e+000	 8.5470419582e-001	-6.3628111547e-001
 1.1624527456e+000	 8.6672003221e-001	-7.2470615201e-001
 1.1534596599e+000	 8.7865283990e-001	-8.0638852232e-001
 1.1443377172e+000	 8.9050052728e-001	-8.8119479321e-001
 1.1350881218e+000	 9.0226102423e-001	-9.4900322386e-001
 1.1257121220e+000	 9.1393228328e-001	-1.0097040733e+000
 1.2345683790e+000	 8.0713438624e-001	-1.9047437845e-001
 1.2262298699e+000	 8.1974709889e-001	-3.1802989466e-001
 1.2177538984e+000	 8.3228627468e-001	-4.3882405858e-001
 1.2091414114e+000	 8.4474969506e-001	-5.5266789806e-001
 1.2003934032e+000	 8.5713515715e-001	-6.5938339608e-001
 1.1915109149e+000	 8.6944047506e-001	-7.5880392889e-001
 1.1824950343e+000	 8.8166348104e-001	-8.5077468175e-001
 1.1733468954e+000	 8.9380202679e-001	-9.3515304134e-001
 1.1640676778e+000	 9.0585398465e-001	-1.0118089633e+000
 1.1546586066e+000	 9.1781724879e-001	-1.0806253140e+000
 1.1451209517e+000	 9.2968973644e-001	-1.1414981856e+000
 1.2554932668e+000	 8.2081463007e-001	-3.2069035643e-001
 1.2470134270e+000	 8.3364111751e-001	-4.1006485182e-001
 1.2383937949e+000	 8.4639282171e-001	-5.3861170276e-001
 1.2296353336e+000	 8.5906748650e-001	-6.5935121073e-001
 1.2207390541e+000	 8.7166287168e-001	-7.7210327672e-001
 1.2117060152e+000	 8.8417675429e-001	-8.7670038129e-001
 1.2025373230e+000	 8.9660692987e-001	-9.7298801743e-001
 1.1932341309e+000	 9.0895121369e-001	-1.0608250978e+000
 1.1837976384e+000	 9.2120744201e-001	-1.1400843350e+000
 1.1742290915e+000	 9.3337347334e-001	-1.2106525944e+000
 1.1645297814e+000	 9.4544718961e-001	-1.2724312169e+000
 9.7044148445e-001	 7.8787265798e-001	 3.1931329955e-001
 9.6225087038e-001	 7.9785541446e-001	 2.2930307230e-001
 9.5395355134e-001	 8.0775777422e-001	 1.4077887838e-001
 9.4555071450e-001	 8.1757803678e-001	 5.3847678107e-002
 9.3704358298e-001	 8.2731452514e-001	-3.1388619701e-002
 9.2843341526e-001	 8.3696558670e-001	-1.1483332179e-001
 9.1972150458e-001	 8.4652959423e-001	-1.9639510019e-001
 9.1090917828e-001	 8.5600494672e-001	-2.7598812730e-001
 9.0199779714e-001	 8.6539007034e-001	-3.5353219590e-001
 8.9298875468e-001	 8.7468341924e-001	-4.2895282390e-001
 8.8388347645e-001	 8.8388347645e-001	-5.0218134351e-001
 9.8985031414e-001	 8.0363011114e-001	 1.0662683230e-001
 9.8149588779e-001	 8.1381252275e-001	 2.0496117399e-002
 9.7303262236e-001	 8.2391292970e-001	-6.4349833505e-002
 9.6446172879e-001	 8.3392959752e-001	-1.4780404707e-001
 9.5578445464e-001	 8.4386081564e-001	-2.2976469467e-001
 9.4700208356e-001	 8.5370489844e-001	-3.1013525995e-001
 9.3811593467e-001	 8.6346018612e-001	-3.8882469149e-001
 9.2912736184e-001	 8.7312504566e-001	-4.6574754014e-001
 9.2003775308e-001	 8.8269787175e-001	-5.4082408071e-001
 9.1084852978e-001	 8.9217708762e-001	-6.1398041777e-001
 9.0156114598e-001	 9.0156114598e-001	-6.8514857514e-001
 1.0092591438e+000	 8.1938756430e-001	-8.8328309929e-002
 1.0007409052e+000	 8.2976963104e-001	-1.7071010105e-001
 9.9211169339e-001	 8.4006808519e-001	-2.5197236958e-001
 9.8337274308e-001	 8.5028115826e-001	-3.3200790627e-001
 9.7452532630e-001	 8.6040710615e-001	-4.1071478069e-001
 9.6557075187e-001	 8.7044421018e-001	-4.8799651277e-001
 9.5651036476e-001	 8.8039077800e-001	-5.6376222863e-001
 9.4734554541e-001	 8.9024514460e-001	-6.3792680057e-001
 9.3807770903e-001	 9.0000567316e-001	-7.1041097057e-001
 9.2870830487e-001	 9.0967075601e-001	-7.8114145721e-001
 9.1923881551e-001	 9.1923881551e-001	-8.5005104563e-001
 1.0286679735e+000	 8.3514501747e-001	-2.6783558145e-001
 1.0199859226e+000	 8.4572673933e-001	-3.4659839289e-001
 1.0111907644e+000	 8.5622324068e-001	-4.2437106870e-001
 1.0022837574e+000	 8.6663271899e-001	-5.0104593877e-001
 9.9326619796e-001	 8.7695339665e-001	-5.7652078708e-001
 9.8413942018e-001	 8.8718352191e-001	-6.5069902760e-001
 9.7490479486e-001	 8.9732136989e-001	-7.2348986375e-001
 9.6556372898e-001	 9.0736524353e-001	-7.9480843117e-001
 9.5611766497e-001	 9.1731347456e-001	-8.6457592334e-001
 9.4656807997e-001	 9.2716442440e-001	-9.3271969968e-001
 9.3691648504e-001	 9.3691648504e-001	-9.9917337605e-001
 1.0480768032e+000	 8.5090247063e-001	-4.3411904479e-001
 1.0392309400e+000	 8.6168384763e-001	-5.0939274637e-001
 1.0302698354e+000	 8.7237839617e-001	-5.8376994733e-001
 1.0211947717e+000	 8.8298427973e-001	-6.5714228933e-001
 1.0120070696e+000	 8.9349968716e-001	-7.2940708488e-001
 1.0027080885e+000	 9.0392283365e-001	-8.0046749798e-001
 9.9329922495e-001	 9.1425196178e-001	-8.7023270753e-001
 9.8378191255e-001	 9.2448534247e-001	-9.3861805323e-001
 9.7415762092e-001	 9.3462127597e-001	-1.0055451634e+000
 9.6442785507e-001	 9.4465809279e-001	-1.0709420647e+000
 9.5459415457e-001	 9.5459415457e-001	-1.1347432726e+000
 1.0674856329e+000	 8.6665992379e-001	-5.8934876993e-001
 1.0584759574e+000	 8.7764095592e-001	-6.6126367556e-001
 1.0493489065e+000	 8.8853355166e-001	-7.3234000154e-001
 1.0401057860e+000	 8.9933584047e-001	-8.0246847132e-001
 1.0307479413e+000	 9.1004597767e-001	-8.7154573766e-001
 1.0212767568e+000	 9.2066214539e-001	-9.3947456852e-001
 1.0116936550e+000	 9.3118255367e-001	-1.0061640148e+000
 1.0020000961e+000	 9.4160544141e-001	-1.0715295596e+000
 9.9219757686e-001	 9.5192907738e-001	-1.1354932485e+000
 9.8228763016e-001	 9.6215176117e-001	-1.1979838008e+000
 9.7227182411e-001	 9.7227182411e-001	-1.2589367006e+000
 1.0868944626e+000	 8.8241737695e-001	-7.3564565511e-001
 1.0777209748e+000	 8.9359806421e-001	-8.0433299479e-001
 1.0684279775e+000	 9.0468870714e-001	-8.7220394101e-001
 1.0590168002e+000	 9.1568740121e-001	-9.3914806596e-001
 1.0494888129e+000	 9.2659226817e-001	-1.0050611718e+000
 1.0398454251e+000	 9.3740145713e-001	-1.0698454821e+000
 1.0300880851e+000	 9.4811314556e-001	-1.1334098145e+000
 1.0202182797e+000	 9.5872554035e-001	-1.1956697332e+000
 1.0102375328e+000	 9.6923687880e-001	-1.2565476826e+000
 1.0001474053e+000	 9.7964542956e-001	-1.3159730992e+000
 9.8994949364e-001	 9.8994949364e-001	-1.3738825045e+000
 1.1063032923e+000	 8.9817483012e-001	-8.7508574008e-001
 1.0969659922e+000	 9.0955517251e-001	-9.4067809062e-001
 1.0875070485e+000	 9.2084386263e-001	-1.0054404247e+000
 1.0779278145e+000	 9.3203896195e-001	-1.0692609269e+000
 1.0682296846e+000	 9.4313855868e-001	-1.1320343552e+000
 1.0584140934e+000	 9.5414076887e-001	-1.1936622380e+000
 1.0484825152e+000	 9.6504373745e-001	-1.2540530523e+000
 1.0384364633e+000	 9.7584563929e-001	-1.3131223798e+000
 1.0282774888e+000	 9.8654468021e-001	-1.3707930435e+000
 1.0180071804e+000	 9.9713909795e-001	-1.4269952216e+000
 1.0076271632e+000	 1.0076271632e+000	-1.4816665407e+000
 1.1257121220e+000	 9.1393228328e-001	-1.0097040733e+000
 1.1162110097e+000	 9.2551228080e-001	-1.0723357518e+000
 1.1065861196e+000	 9.3699901812e-001	-1.1340878581e+000
 1.0968388288e+000	 9.4839052269e-001	-1.1948469498e+000
 1.0869705563e+000	 9.5968484919e-001	-1.2545065436e+000
 1.0769827617e+000	 9.7088008061e-001	-1.3129673198e+000
 1.0668769453e+000	 9.8197432934e-001	-1.3701373048e+000
 1.0566546468e+000	 9.9296573823e-001	-1.4259320326e+000
 1.0463174447e+000	 1.0038524816e+000	-1.4802746835e+000
 1.0358669555e+000	 1.0146327663e+000	-1.5330962009e+000
 1.0253048327e+000	 1.0253048327e+000	-1.5843353840e+000
 1.1451209517e+000	 9.2968973644e-001	-1.1414981856e+000
 1.1354560271e+000	 9.4146938909e-001	-1.2013056097e+000
 1.1256651906e+000	 9.5315417361e-001	-1.2601478050e+000
 1.1157498431e+000	 9.6474208344e-001	-1.3179094587e+000
 1.1057114279e+000	 9.7623113970e-001	-1.3744826464e+000
 1.0955514300e+000	 9.8761939235e-001	-1.4297670439e+000
 1.0852713754e+000	 9.9890492123e-001	-1.4836701156e+000
 1.0748728304e+000	 1.0100858372e+000	-1.5361072804e+000
 1.0643574006e+000	 1.0211602830e+000	-1.5870020535e+000
 1.0537267306e+000	 1.0321264347e+000	-1.6362861656e+000
 1.0429825022e+000	 1.0429825022e+000	-1.6838996565e+000
 1.1645297814e+000	 9.4544718961e-001	-1.2724312169e+000
 1.1547010445e+000	 9.5742649739e-001	-1.3295532348e+000
 1.1447442616e+000	 9.6930932910e-001	-1.3855880572e+000
 1.1346608574e+000	 9.8109364418e-001	-1.4404182534e+000
 1.1244522996e+000	 9.9277743021e-001	-1.4939342549e+000
 1.1141200983e+000	 1.0043587041e+000	-1.5460345738e+000
 1.1036658055e+000	 1.0158355131e+000	-1.5966259985e+000
 1.0930910140e+000	 1.0272059361e+000	-1.6456237632e+000
 1.0823973566e+000	 1.0384680844e+000	-1.6929516946e+000
 1.0715865057e+000	 1.0496201031e+000	-1.7385423322e+000
 1.0606601718e+000	 1.0606601718e+000	-1.7823370231e+000
 8.8388347645e-001	 8.8388347645e-001	-5.0218134351e-001
 8.7468341924e-001	 8.9298875468e-001	-5.8519607390e-001
 8.6539007034e-001	 9.0199779714e-001	-6.6473170177e-001
 8.5600494672e-001	 9.1090917828e-001	-7.4073327988e-001
 8.4652959423e-001	 9.1972150458e-001	-8.1315336430e-001
 8.3696558670e-001	 9.2843341526e-001	-8.8195202443e-001
 8.2731452514e-001	 9.3704358298e-001	-9.4709683494e-001
 8.1757803678e-001	 9.4555071450e-001	-1.0085628498e+000
 8.0775777422e-001	 9.5395355134e-001	-1.0663325586e+000
 7.9785541446e-001	 9.6225087038e-001	-1.1203958251e+000
 7.8787265798e-001	 9.7044148445e-001	-1.1707498092e+000
 9.0156114598e-001	 9.0156114598e-001	-6.8514857514e-001
 8.9217708762e-001	 9.1084852978e-001	-7.6603677158e-001
 8.8269787175e-001	 9.2003775308e-001	-8.4320454472e-001
 8.7312504566e-001	 9.2912736184e-001	-9.1660578371e-001
 8.6346018612e-001	 9.3811593467e-001	-9.8620242796e-001
 8.5370489844e-001	 9.4700208356e-001	-1.0519644651e+000
 8.4386081564e-001	 9.5578445464e-001	-1.1138699096e+000
 8.3392959752e-001	 9.6446172879e-001	-1.1719047627e+000
 8.2391292970e-001	 9.7303262236e-001	-1.2260629524e+000
 8.1381252275e-001	 9.8149588779e-001	-1.2763462564e+000
 8.0363011114e-001	 9.8985031414e-001	-1.3227642050e+000
 9.1923881551e-001	 9.1923881551e-001	-8.5005104563e-001
 9.0967075601e-001	 9.2870830487e-001	-9.2901444216e-001
 9.0000567316e-001	 9.3807770903e-001	-1.0039969761e+000
 8.9024514460e-001	 9.4734554541e-001	-1.0749613460e+000
 8.8039077800e-001	 9.5651036476e-001	-1.1418788785e+000
 8.7044421018e-001	 9.6557075187e-001	-1.2047295144e+000
 8.6040710615e-001	 9.7452532630e-001	-1.2635017732e+000
 8.5028115826e-001	 9.8337274308e-001	-1.3181926989e+000
 8.4006808519e-001	 9.9211169339e-001	-1.3688077842e+000
 8.2976963104e-001	 1.0007409052e+000	-1.4153608755e+000
 8.1938756430e-001	 1.0092591438e+000	-1.4578740588e+000
 9.3691648504e-001	 9.3691648504e-001	-9.9917337605e-001
 9.2716442440e-001	 9.4656807997e-001	-1.0763900282e+000
 9.1731347456e-001	 9.5611766497e-001	-1.1493454469e+000
 9.0736524353e-001	 9.6556372898e-001	-1.2180111264e+000
 8.9732136989e-001	 9.7490479486e-001	-1.2823677988e+000
 8.8718352191e-001	 9.8413942018e-001	-1.3424054071e+000
 8.7695339665e-001	 9.9326619796e-001	-1.3981230573e+000
 8.6663271899e-001	 1.0022837574e+000	-1.4495289482e+000
 8.5622324068e-001	 1.0111907644e+000	-1.4966402801e+000
 8.4572673933e-001	 1.0199859226e+000	-1.5394831419e+000
 8.3514501747e-001	 1.0286679735e+000	-1.5780923788e+000
 9.5459415457e-001	 9.5459415457e-001	-1.1347432726e+000
 9.4465809279e-001	 9.6442785507e-001	-1.2103692380e+000
 9.3462127597e-001	 9.7415762092e-001	-1.2814328549e+000
 9.2448534247e-001	 9.8378191255e-001	-1.3479144119e+000
 9.1425196178e-001	 9.9329922495e-001	-1.4098040771e+000
 9.0392283365e-001	 1.0027080885e+000	-1.4671018600e+000
 8.9349968716e-001	 1.0120070696e+000	-1.5198175487e+000
 8.8298427973e-001	 1.0211947717e+000	-1.5679706247e+000
 8.7237839617e-001	 1.0302698354e+000	-1.6115901553e+000
 8.6168384763e-001	 1.0392309400e+000	-1.6507146632e+000
 8.5090247063e-001	 1.0480768032e+000	-1.6853919741e+000
 9.7227182411e-001	 9.7227182411e-001	-1.2589367006e+000
 9.6215176117e-001	 9.8228763016e-001	-1.3331075673e+000
 9.5192907738e-001	 9.9219757686e-001	-1.4023934134e+000
 9.4160544141e-001	 1.0020000961e+000	-1.4667833318e+000
 9.3118255367e-001	 1.0116936550e+000	-1.5262769708e+000
 9.2066214539e-001	 1.0212767568e+000	-1.5808844827e+000
 9.1004597767e-001	 1.0307479413e+000	-1.6306264478e+000
 8.9933584047e-001	 1.0401057860e+000	-1.6755337735e+000
 8.8853355166e-001	 1.0493489065e+000	-1.7156475695e+000
 8.7764095592e-001	 1.0584759574e+000	-1.7510189994e+000
 8.6665992379e-001	 1.0674856329e+000	-1.7817091086e+000
 9.8994949364e-001	 9.8994949364e-001	-1.3738825045e+000
 9.7964542956e-001	 1.0001474053e+000	-1.4467147820e+000
 9.6923687880e-001	 1.0102375328e+000	-1.5143169976e+000
 9.5872554035e-001	 1.0202182797e+000	-1.5766870689e+000
 9.4811314556e-001	 1.0300880851e+000	-1.6338341798e+000
 9.3740145713e-001	 1.0398454251e+000	-1.6857787153e+000
 9.2659226817e-001	 1.0494888129e+000	-1.7325521713e+000
 9.1568740121e-001	 1.0590168002e+000	-1.7741970381e+000
 9.0468870714e-001	 1.0684279775e+000	-1.8107666585e+000
 8.9359806421e-001	 1.0777209748e+000	-1.8423250601e+000
 8.8241737695e-001	 1.0868944626e+000	-1.8689467640e+000
 1.0076271632e+000	 1.0076271632e+000	-1.4816665407e+000
 9.9713909795e-001	 1.0180071804e+000	-1.5532589303e+000
 9.8654468021e-001	 1.0282774888e+000	-1.6192530340e+000
 9.7584563929e-001	 1.0384364633e+000	-1.6796556264e+000
 9.6504373745e-001	 1.0484825152e+000	-1.7344854928e+000
 9.5414076887e-001	 1.0584140934e+000	-1.7837733526e+000
 9.4313855868e-001	 1.0682296846e+000	-1.8275617539e+000
 9.3203896195e-001	 1.0779278145e+000	-1.8659049408e+000
 9.2084386263e-001	 1.0875070485e+000	-1.8988686940e+000
 9.0955517251e-001	 1.0969659922e+000	-1.9265301441e+000
 8.9817483012e-001	 1.1063032923e+000	-1.9489775594e+000
 1.0253048327e+000	 1.0253048327e+000	-1.5843353840e+000
 1.0146327663e+000	 1.0358669555e+000	-1.6547699381e+000
 1.0038524816e+000	 1.0463174447e+000	-1.7192139878e+000
 9.9296573823e-001	 1.0566546468e+000	-1.7776832052e+000
 9.8197432934e-001	 1.0668769453e+000	-1.8302060547e+000
 9.7088008061e-001	 1.0769827617e+000	-1.8768237030e+000
 9.5968484919e-001	 1.0869705563e+000	-1.9175898989e+000
 9.4839052269e-001	 1.0968388288e+000	-1.9525708245e+000
 9.3699901812e-001	 1.1065861196e+000	-1.9818449174e+000
 9.2551228080e-001	 1.1162110097e+000	-2.0055026645e+000
 9.1393228328e-001	 1.1257121220e+000	-2.0236463688e+000
 1.0429825022e+000	 1.0429825022e+000	-1.6838996565e+000
 1.0321264347e+000	 1.0537267306e+000	-1.7532428404e+000
 1.0211602830e+000	 1.0643574006e+000	-1.8161784946e+000
 1.0100858372e+000	 1.0748728304e+000	-1.8727312386e+000
 9.9890492123e-001	 1.0852713754e+000	-1.9229393032e+000
 9.8761939235e-001	 1.0955514300e+000	-1.9668544261e+000
 9.7623113970e-001	 1.1057114279e+000	-2.0045417177e+000
 9.6474208344e-001	 1.1157498431e+000	-2.0360794946e+000
 9.5315417361e-001	 1.1256651906e+000	-2.0615590838e+000
 9.4146938909e-001	 1.1354560271e+000	-2.0810845964e+000
 9.2968973644e-001	 1.1451209517e+000	-2.0947726725e+000
 1.0606601718e+000	 1.0606601718e+000	-1.7823370231e+000
 1.0496201031e+000	 1.0715865057e+000	-1.8506406889e+000
 1.0384680844e+000	 1.0823973566e+000	-1.9120941800e+000
 1.0272059361e+000	 1.0930910140e+000	-1.9667311226e+000
 1.0158355131e+000	 1.1036658055e+000	-2.0145996103e+000
 1.0043587041e+000	 1.1141200983e+000	-2.0557620870e+000
 9.9277743021e-001	 1.1244522996e+000	-2.0902951960e+000
 9.8109364418e-001	 1.1346608574e+000	-2.1182895976e+000
 9.6930932910e-001	 1.1447442616e+000	-2.1398497535e+000
 9.5742649739e-001	 1.1547010445e+000	-2.1550936805e+000
 9.4544718961e-001	 1.1645297814e+000	-2.1641526727e+000
 7.8787265798e-001	 9.7044148445e-001	-1.1707498092e+000
 7.7781122776e-001	 9.7852424289e-001	-1.2440332148e+000
 7.6767286832e-001	 9.8649803203e-001	-1.3130944843e+000
 7.5745934472e-001	 9.9436177575e-001	-1.3779559361e+000
 7.4717244154e-001	 1.0021144359e+000	-1.4386476715e+000
 7.3681396190e-001	 1.0097550126e+000	-1.4952074040e+000
 7.2638572639e-001	 1.0172825451e+000	-1.5476802716e+000
 7.1588957207e-001	 1.0246961113e+000	-1.5961186344e+000
 7.0532735142e-001	 1.0319948291e+000	-1.6405818574e+000
 6.9470093126e-001	 1.0391778559e+000	-1.6811360794e+000
 6.8401219173e-001	 1.0462443890e+000	-1.7178539695e+000
 8.0363011114e-001	 9.8985031414e-001	-1.3227642050e+000
 7.9336745232e-001	 9.9809472774e-001	-1.3923718668e+000
 7.8302632569e-001	 1.0062279927e+000	-1.4573309076e+000
 7.7260853162e-001	 1.0142490113e+000	-1.5176841928e+000
 7.6211589037e-001	 1.0221567246e+000	-1.5734830197e+000
 7.5155024114e-001	 1.0299501129e+000	-1.6247869144e+000
 7.4091344092e-001	 1.0376281960e+000	-1.6716634120e+000
 7.3020736352e-001	 1.0451900336e+000	-1.7141878208e+000
 7.1943389845e-001	 1.0526347257e+000	-1.7524429706e+000
 7.0859494989e-001	 1.0599614130e+000	-1.7865189462e+000
 6.9769243556e-001	 1.0671692768e+000	-1.8165128079e+000
 8.1938756430e-001	 1.0092591438e+000	-1.4578740588e+000
 8.0892367688e-001	 1.0176652126e+000	-1.5241807074e+000
 7.9837978306e-001	 1.0259579533e+000	-1.5854054888e+000
 7.8775771852e-001	 1.0341362468e+000	-1.6416118857e+000
 7.7705933921e-001	 1.0421990133e+000	-1.6928724818e+000
 7.6628652038e-001	 1.0501452131e+000	-1.7392687267e+000
 7.5544115545e-001	 1.0579738469e+000	-1.7808906831e+000
 7.4452515496e-001	 1.0656839558e+000	-1.8178367571e+000
 7.3354044548e-001	 1.0732746223e+000	-1.8502134111e+000
 7.2248896852e-001	 1.0807449701e+000	-1.8781348620e+000
 7.1137267940e-001	 1.0880941646e+000	-1.9017227642e+000
 8.3514501747e-001	 1.0286679735e+000	-1.5780923788e+000
 8.2447990144e-001	 1.0372356975e+000	-1.6414211540e+000
 8.1373324043e-001	 1.0456879139e+000	-1.6992267721e+000
 8.0290690541e-001	 1.0540234823e+000	-1.7515934359e+000
 7.9200278804e-001	 1.0622413020e+000	-1.7986151393e+000
 7.8102279962e-001	 1.0703403134e+000	-1.8403954007e+000
 7.6996886998e-001	 1.0783194978e+000	-1.8770469761e+000
 7.5884294641e-001	 1.0861778780e+000	-1.9086915549e+000
 7.4764699251e-001	 1.0939145189e+000	-1.9354594375e+000
 7.3638298714e-001	 1.1015285272e+000	-1.9574891961e+000
 7.2505292324e-001	 1.1090190524e+000	-1.9749273211e+000
 8.5090247063e-001	 1.0480768032e+000	-1.6853919741e+000
 8.4003612600e-001	 1.0568061823e+000	-1.7460175864e+000
 8.2908669780e-001	 1.0654178746e+000	-1.8006694658e+000
 8.1805609231e-001	 1.0739107178e+000	-1.8494526679e+000
 8.0694623688e-001	 1.0822835907e+000	-1.8924827527e+000
 7.9575907886e-001	 1.0905354136e+000	-1.9298854849e+000
 7.8449658451e-001	 1.0986651487e+000	-1.9617965134e+000
 7.7316073785e-001	 1.1066718002e+000	-1.9883610311e+000
 7.6175353954e-001	 1.1145544154e+000	-2.0097334163e+000
 7.5027700577e-001	 1.1223120843e+000	-2.0260768568e+000
 7.3873316707e-001	 1.1299439401e+000	-2.0375629572e+000
 8.6665992379e-001	 1.0674856329e+000	-1.7817091086e+000
 8.5559235055e-001	 1.0763766672e+000	-1.8398607144e+000
 8.4444015517e-001	 1.0851478352e+000	-1.8915775184e+000
 8.3320527921e-001	 1.0937979533e+000	-1.9369855911e+000
 8.2188968571e-001	 1.1023258794e+000	-1.9762222446e+000
 8.1049535810e-001	 1.1107305139e+000	-2.0094356992e+000
 7.9902429904e-001	 1.1190107996e+000	-2.0367847276e+000
 7.8747852929e-001	 1.1271657225e+000	-2.0584382795e+000
 7.7586008657e-001	 1.1351943120e+000	-2.0745750853e+000
 7.6417102439e-001	 1.1430956414e+000	-2.0853832426e+000
 7.5241341090e-001	 1.1508688279e+000	-2.0910597842e+000
 8.8241737695e-001	 1.0868944626e+000	-1.8689467640e+000
 8.7114857511e-001	 1.0959471520e+000	-1.9248105836e+000
 8.5979361254e-001	 1.1048777959e+000	-1.9737668647e+000
 8.4835446610e-001	 1.1136851888e+000	-2.0159628833e+000
 8.3683313454e-001	 1.1223681682e+000	-2.0515579182e+000
 8.2523163734e-001	 1.1309256141e+000	-2.0807228838e+000
 8.1355201357e-001	 1.1393564505e+000	-2.1036399391e+000
 8.0179632073e-001	 1.1476596447e+000	-2.1205020749e+000
 7.8996663360e-001	 1.1558342086e+000	-2.1315126806e+000
 7.7806504302e-001	 1.1638791986e+000	-2.1368850909e+000
 7.6609365474e-001	 1.1717937157e+000	-2.1368421145e+000
 8.9817483012e-001	 1.1063032923e+000	-1.9489775594e+000
 8.8670479967e-001	 1.1155176369e+000	-2.0026992653e+000
 8.7514706991e-001	 1.1246077565e+000	-2.0490278838e+000
 8.6350365300e-001	 1.1335724243e+000	-2.0881321129e+000
 8.5177658338e-001	 1.1424104569e+000	-2.1201934408e+000
 8.3996791658e-001	 1.1511207144e+000	-2.1454057434e+000
 8.2807972810e-001	 1.1597021014e+000	-2.1639748572e+000
 8.1611411218e-001	 1.1681535669e+000	-2.1761181295e+000
 8.0407318063e-001	 1.1764741052e+000	-2.1820639459e+000
 7.9195906164e-001	 1.1846627557e+000	-2.1820512380e+000
 7.7977389857e-001	 1.1927186035e+000	-2.1763289707e+000
 9.1393228328e-001	 1.1257121220e+000	-2.0236463688e+000
 9.0226102423e-001	 1.1350881218e+000	-2.0753332683e+000
 8.9050052728e-001	 1.1443377172e+000	-2.1191276014e+000
 8.7865283990e-001	 1.1534596599e+000	-2.1552197308e+000
 8.6672003221e-001	 1.1624527456e+000	-2.1838136230e+000
 8.5470419582e-001	 1.1713158147e+000	-2.2051264101e+000
 8.4260744262e-001	 1.1800477523e+000	-2.2193879260e+000
 8.3043190362e-001	 1.1886474891e+000	-2.2268402185e+000
 8.1817972766e-001	 1.1971140018e+000	-2.2277370371e+000
 8.0585308027e-001	 1.2054463128e+000	-2.2223433003e+000
 7.9345414240e-001	 1.2136434913e+000	-2.2109345412e+000
 9.2968973644e-001	 1.1451209517e+000	-2.0947726725e+000
 9.1781724879e-001	 1.1546586066e+000	-2.1444957048e+000
 9.0585398465e-001	 1.1640676778e+000	-2.1858116694e+000
 8.9380202679e-001	 1.1733468954e+000	-2.2189328604e+000
 8.8166348104e-001	 1.1824950343e+000	-2.2440860168e+000
 8.6944047506e-001	 1.1915109149e+000	-2.2615118482e+000
 8.5713515715e-001	 1.2003934032e+000	-2.2714645331e+000
 8.4474969506e-001	 1.2091414114e+000	-2.2742111918e+000
 8.3228627468e-001	 1.2177538984e+000	-2.2700313344e+000
 8.1974709889e-001	 1.2262298699e+000	-2.2592162860e+000
 8.0713438624e-001	 1.2345683790e+000	-2.2420685901e+000
 9.4544718961e-001	 1.1645297814e+000	-2.1641526727e+000
 9.3337347334e-001	 1.1742290915e+000	-2.2119482407e+000
 9.2120744201e-001	 1.1837976384e+000	-2.2508061469e+000
 9.0895121369e-001	 1.1932341309e+000	-2.2809609077e+000
 8.9660692987e-001	 1.2025373230e+000	-2.3026623536e+000
 8.8417675429e-001	 1.2117060152e+000	-2.3161751181e+000
 8.7166287168e-001	 1.2207390541e+000	-2.3217780977e+000
 8.5906748650e-001	 1.2296353336e+000	-2.3197638847e+000
 8.4639282171e-001	 1.2383937949e+000	-2.3104381740e+000
 8.3364111751e-001	 1.2470134270e+000	-2.2941191458e+000
 8.2081463007e-001	 1.2554932668e+000	-2.2577475554e+000
 6.8401219173e-001	 1.0462443890e+000	-1.7178539695e+000
 6.7326302520e-001	 1.0531936664e+000	-1.7769410649e+000
 6.6245533522e-001	 1.0600249662e+000	-1.8204169301e+000
 6.5159103546e-001	 1.0667376072e+000	-1.8485721057e+000
 6.4067204862e-001	 1.0733309490e+000	-1.8617126091e+000
 6.2970030539e-001	 1.0798043922e+000	-1.8601593356e+000
 6.1867774335e-001	 1.0861573781e+000	-1.9038611977e+000
 6.0760630594e-001	 1.0923893889e+000	-1.9796062815e+000
 5.9648794139e-001	 1.0984999480e+000	-2.0435370162e+000
 5.8532460163e-001	 1.1044886196e+000	-2.0957395937e+000
 5.7411824131e-001	 1.1103550086e+000	-2.1363060147e+000
 6.9769243556e-001	 1.0671692768e+000	-1.8165128079e+000
 6.8672828570e-001	 1.0742575397e+000	-1.8784929019e+000
 6.7570444192e-001	 1.0812254655e+000	-1.9265233215e+000
 6.6462285617e-001	 1.0880723593e+000	-1.9608919551e+000
 6.5348548960e-001	 1.0947975680e+000	-1.9819010422e+000
 6.4229431150e-001	 1.1014004800e+000	-1.9898665763e+000
 6.3105129822e-001	 1.1078805256e+000	-1.9851176907e+000
 6.1975843206e-001	 1.1142371767e+000	-2.0242136351e+000
 6.0841770021e-001	 1.1204699470e+000	-2.1179199570e+000
 5.9703109366e-001	 1.1265783920e+000	-2.2018808582e+000
 5.8560060613e-001	 1.1325621087e+000	-2.2761502493e+000
 7.1137267940e-001	 1.0880941646e+000	-1.9017227642e+000
 7.0019354621e-001	 1.0953214130e+000	-1.9655693603e+000
 6.8895354863e-001	 1.1024259648e+000	-2.0170520600e+000
 6.7765467688e-001	 1.1094071114e+000	-2.0564572556e+000
 6.6629893057e-001	 1.1162641870e+000	-2.0840846181e+000
 6.5488831761e-001	 1.1229965679e+000	-2.1002465002e+000
 6.4342485309e-001	 1.1296036732e+000	-2.1052673236e+000
 6.3191055818e-001	 1.1360849645e+000	-2.0994829514e+000
 6.2034745904e-001	 1.1424399459e+000	-2.1395636394e+000
 6.0873758569e-001	 1.1486681643e+000	-2.2549425527e+000
 5.9708297096e-001	 1.1547692089e+000	-2.3625416555e+000
 7.2505292324e-001	 1.1090190524e+000	-1.9749273211e+000
 7.1365880671e-001	 1.1163852864e+000	-2.0396268782e+000
 7.0220265533e-001	 1.1236264641e+000	-2.0934756161e+000
 6.9068649759e-001	 1.1307418636e+000	-2.1367595764e+000
 6.7911237154e-001	 1.1377308060e+000	-2.1697770589e+000
 6.6748232371e-001	 1.1445926557e+000	-2.1928380225e+000
 6.5579840795e-001	 1.1513268207e+000	-2.2062634721e+000
 6.4406268430e-001	 1.1579327522e+000	-2.2103848314e+000
 6.3227721786e-001	 1.1644099449e+000	-2.2055433038e+000
 6.2044407772e-001	 1.1707579367e+000	-2.2539128930e+000
 6.0856533578e-001	 1.1769763091e+000	-2.3945516549e+000
 7.3873316707e-001	 1.1299439401e+000	-2.0375629572e+000
 7.2712406721e-001	 1.1374491597e+000	-2.1021127561e+000
 7.1545176204e-001	 1.1448269634e+000	-2.1572549158e+000
 7.0371831829e-001	 1.1520766157e+000	-2.2032762641e+000
 6.9192581251e-001	 1.1591974249e+000	-2.2404749167e+000
 6.8007632982e-001	 1.1661887436e+000	-2.2691596745e+000
 6.6817196282e-001	 1.1730499683e+000	-2.2896494074e+000
 6.5621481041e-001	 1.1797805400e+000	-2.3022724257e+000
 6.4420697669e-001	 1.1863799439e+000	-2.3073658410e+000
 6.3215056975e-001	 1.1928477091e+000	-2.3052749170e+000
 6.2004770061e-001	 1.1991834092e+000	-2.3712113096e+000
 7.5241341090e-001	 1.1508688279e+000	-2.0910597842e+000
 7.4058932772e-001	 1.1585130330e+000	-2.1544659877e+000
 7.2870086874e-001	 1.1660274628e+000	-2.2098403900e+000
 7.1675013900e-001	 1.1734113679e+000	-2.2574717355e+000
 7.0473925348e-001	 1.1806640439e+000	-2.2976591349e+000
 6.9267033592e-001	 1.1877848314e+000	-2.3307114569e+000
 6.8054551768e-001	 1.1947731158e+000	-2.3569467078e+000
 6.6836693653e-001	 1.2016283278e+000	-2.3766913992e+000
 6.5613673552e-001	 1.2083499428e+000	-2.3902799059e+000
 6.4385706178e-001	 1.2149374815e+000	-2.3980538156e+000
 6.3153006543e-001	 1.2213905094e+000	-2.4003612719e+000
 7.6609365474e-001	 1.1717937157e+000	-2.1368421145e+000
 7.5405458822e-001	 1.1795769063e+000	-2.1981180013e+000
 7.4194997544e-001	 1.1872279621e+000	-2.2526729118e+000
 7.2978195971e-001	 1.1947461200e+000	-2.3007986323e+000
 7.1755269445e-001	 1.2021306629e+000	-2.3427964412e+000
 7.0526434203e-001	 1.2093809192e+000	-2.3789764940e+000
 6.9291907255e-001	 1.2164962634e+000	-2.4096571961e+000
 6.8051906265e-001	 1.2234761156e+000	-2.4351645648e+000
 6.6806649434e-001	 1.2303199418e+000	-2.4558315827e+000
 6.5556355381e-001	 1.2370272539e+000	-2.4719975440e+000
 6.4301243026e-001	 1.2435976096e+000	-2.4840073944e+000
 7.7977389857e-001	 1.1927186035e+000	-2.1763289707e+000
 7.6751984872e-001	 1.2006407797e+000	-2.2344933236e+000
 7.5519908214e-001	 1.2084284614e+000	-2.2871846347e+000
 7.4281378042e-001	 1.2160808721e+000	-2.3346988536e+000
 7.3036613542e-001	 1.2235972819e+000	-2.3773405950e+000
 7.1785834814e-001	 1.2309770071e+000	-2.4154225144e+000
 7.0529262741e-001	 1.2382194110e+000	-2.4492646721e+000
 6.9267118877e-001	 1.2453239033e+000	-2.4791938882e+000
 6.7999625317e-001	 1.2522899407e+000	-2.4883547038e+000
 6.6727004585e-001	 1.2591170263e+000	-2.4568862438e+000
 6.5449479508e-001	 1.2658047097e+000	-2.4184905401e+000
 7.9345414240e-001	 1.2136434913e+000	-2.2109345412e+000
 7.8098510922e-001	 1.2217046530e+000	-2.2650101750e+000
 7.6844818885e-001	 1.2296289607e+000	-2.3147997443e+000
 7.5584560112e-001	 1.2374156243e+000	-2.3606044823e+000
 7.4317957639e-001	 1.2450639008e+000	-2.4027335054e+000
 7.3045235424e-001	 1.2525730949e+000	-2.4271363729e+000
 7.1766618228e-001	 1.2599425585e+000	-2.4184844007e+000
 7.0482331488e-001	 1.2671716911e+000	-2.4029954868e+000
 6.9192601199e-001	 1.2742599397e+000	-2.3808895822e+000
 6.7897653788e-001	 1.2812067987e+000	-2.3523996117e+000
 6.6597715991e-001	 1.2880118099e+000	-2.3177710902e+000
 8.0713438624e-001	 1.2345683790e+000	-2.2420685901e+000
 7.9445036972e-001	 1.2427685263e+000	-2.2910810033e+000
 7.8169729555e-001	 1.2508294600e+000	-2.3337744700e+000
 7.6887742183e-001	 1.2587503764e+000	-2.3441028920e+000
 7.5599301736e-001	 1.2665305198e+000	-2.3478038858e+000
 7.4304636035e-001	 1.2741691828e+000	-2.3450480860e+000
 7.3003973714e-001	 1.2816657061e+000	-2.3360196538e+000
 7.1697544100e-001	 1.2890194789e+000	-2.3209159664e+000
 7.0385577082e-001	 1.2962299386e+000	-2.2999472872e+000
 6.9068302991e-001	 1.3032965711e+000	-2.2733364151e+000
 6.7745952473e-001	 1.3102189101e+000	-2.2413183156e+000
 8.2081463007e-001	 1.2554932668e+000	-2.2577475554e+000
 8.0791563023e-001	 1.2638323996e+000	-2.2768718144e+000
 7.9494640225e-001	 1.2720299594e+000	-2.2898124602e+000
 7.8190924254e-001	 1.2800851286e+000	-2.2967053147e+000
 7.6880645833e-001	 1.2879971388e+000	-2.2976998145e+000
 7.5564036645e-001	 1.2957652706e+000	-2.2929587572e+000
 7.4241329201e-001	 1.3033888536e+000	-2.2826580269e+000
 7.2912756712e-001	 1.3108672667e+000	-2.2669862976e+000
 7.1578552965e-001	 1.3181999376e+000	-2.2461447168e+000
 7.0238952194e-001	 1.3253863434e+000	-2.2203465695e+000
 6.8894188956e-001	 1.3324260102e+000	-2.1898169228e+000
 5.7411824131e-001	 1.1103550086e+000	-2.1363060147e+000
 5.6287081669e-001	 1.1160987607e+000	-2.1193206982e+000
 5.5158428467e-001	 1.1217195625e+000	-2.1095223849e+000
 5.4026060171e-001	 1.1272171407e+000	-2.1065159203e+000
 5.2890172284e-001	 1.1325912624e+000	-2.1098989975e+000
 5.1750960065e-001	 1.1378417347e+000	-2.1192628493e+000
 5.0608618433e-001	 1.1429684047e+000	-2.1341929423e+000
 4.9463341865e-001	 1.1479711587e+000	-2.1542696732e+000
 4.8315324300e-001	 1.1528499225e+000	-2.1790690657e+000
 4.7164759049e-001	 1.1576046607e+000	-2.2081634647e+000
 4.6011838696e-001	 1.1622353763e+000	-2.2411222288e+000
 5.8560060613e-001	 1.1325621087e+000	-2.2761502493e+000
 5.7412823303e-001	 1.1384207360e+000	-2.2692014153e+000
 5.6261597037e-001	 1.1441539538e+000	-2.2665031419e+000
 5.5106581375e-001	 1.1497614835e+000	-2.2677377874e+000
 5.3947975730e-001	 1.1552430876e+000	-2.2725821790e+000
 5.2785979267e-001	 1.1605985694e+000	-2.2807082154e+000
 5.1620790802e-001	 1.1658277727e+000	-2.2917834721e+000
 5.0452608702e-001	 1.1709305819e+000	-2.3054718079e+000
 4.9281630786e-001	 1.1759069209e+000	-2.3214339703e+000
 4.8108054230e-001	 1.1807567539e+000	-2.3393282006e+000
 4.6932075469e-001	 1.1854800839e+000	-2.3588108347e+000
 5.9708297096e-001	 1.1547692089e+000	-2.3625416555e+000
 5.8538564936e-001	 1.1607427112e+000	-2.3713151585e+000
 5.7364765606e-001	 1.1665883450e+000	-2.3815471118e+000
 5.6187102578e-001	 1.1723058263e+000	-2.3929935666e+000
 5.5005779175e-001	 1.1778949129e+000	-2.4054065932e+000
 5.3820998468e-001	 1.1833554041e+000	-2.4185348001e+000
 5.2632963171e-001	 1.1886871408e+000	-2.4321238539e+000
 5.1441875539e-001	 1.1938900050e+000	-2.4459170004e+000
 5.0247937272e-001	 1.1989639194e+000	-2.4596555853e+000
 4.9051349411e-001	 1.2039088471e+000	-2.4730795721e+000
 4.7852312243e-001	 1.2087247914e+000	-2.4859280581e+000
 6.0856533578e-001	 1.1769763091e+000	-2.3945516549e+000
 5.9664306569e-001	 1.1830646864e+000	-2.4244757539e+000
 5.8467934175e-001	 1.1890227363e+000	-2.4532044517e+000
 5.7267623781e-001	 1.1948501691e+000	-2.4805638150e+000
 5.6063582621e-001	 1.2005467381e+000	-2.5063774126e+000
 5.4856017669e-001	 1.2061122388e+000	-2.5304667534e+000
 5.3645135539e-001	 1.2115465089e+000	-2.5526517270e+000
 5.2431142377e-001	 1.2168494282e+000	-2.5727510435e+000
 5.1214243758e-001	 1.2220209178e+000	-2.5905826734e+000
 4.9994644592e-001	 1.2270609403e+000	-2.6059642840e+000
 4.8772549017e-001	 1.2319694989e+000	-2.6187136737e+000
 6.2004770061e-001	 1.1991834092e+000	-2.3712113096e+000
 6.0790048203e-001	 1.2053866616e+000	-2.4274774564e+000
 5.9571102745e-001	 1.2114571275e+000	-2.4800270331e+000
 5.8348144985e-001	 1.2173945119e+000	-2.5287525765e+000
 5.7121386067e-001	 1.2231985634e+000	-2.5735455411e+000
 5.5891036871e-001	 1.2288690735e+000	-2.6142966627e+000
 5.4657307908e-001	 1.2344058770e+000	-2.6508963222e+000
 5.3420409214e-001	 1.2398088514e+000	-2.6832349097e+000
 5.2180550244e-001	 1.2450779163e+000	-2.7112031873e+000
 5.0937939773e-001	 1.2502130335e+000	-2.7317840093e+000
 4.9692785791e-001	 1.2552142064e+000	-2.6810965002e+000
 6.3153006543e-001	 1.2213905094e+000	-2.4003612719e+000
 6.1915789836e-001	 1.2277086368e+000	-2.3790967285e+000
 6.0674271314e-001	 1.2338915188e+000	-2.4605682868e+000
 5.9428666188e-001	 1.2399388547e+000	-2.5358852465e+000
 5.8179189512e-001	 1.2458503886e+000	-2.6050034576e+000
 5.6926056072e-001	 1.2516259082e+000	-2.6485433927e+000
 5.5669480277e-001	 1.2572652451e+000	-2.6356473939e+000
 5.4409676051e-001	 1.2627682746e+000	-2.6144759668e+000
 5.3146856730e-001	 1.2681349147e+000	-2.5852635671e+000
 5.1881234953e-001	 1.2733651267e+000	-2.5482542244e+000
 5.0613022564e-001	 1.2784589140e+000	-2.5037005568e+000
 6.4301243026e-001	 1.2435976096e+000	-2.4840073944e+000
 6.3041531469e-001	 1.2500306120e+000	-2.3773308894e+000
 6.1777439883e-001	 1.2563259100e+000	-2.3302919288e+000
 6.0509187392e-001	 1.2624831976e+000	-2.3707922838e+000
 5.9236992958e-001	 1.2685022138e+000	-2.3995901265e+000
 5.7961075273e-001	 1.2743827429e+000	-2.4169892869e+000
 5.6681652645e-001	 1.2801246132e+000	-2.4233081905e+000
 5.5398942888e-001	 1.2857276977e+000	-2.4188787119e+000
 5.4113163216e-001	 1.2911919132e+000	-2.4040450217e+000
 5.2824530134e-001	 1.2965172200e+000	-2.3791624299e+000
 5.1533259338e-001	 1.3017036215e+000	-2.3445962278e+000
 6.5449479508e-001	 1.2658047097e+000	-2.4184905401e+000
 6.4167273103e-001	 1.2723525872e+000	-2.2651360601e+000
 6.2880608453e-001	 1.2787603012e+000	-2.0938252129e+000
 6.1589708595e-001	 1.2850275404e+000	-2.0883756972e+000
 6.0294796403e-001	 1.2911540391e+000	-2.1448684553e+000
 5.8996094475e-001	 1.2971395776e+000	-2.1873316017e+000
 5.7693825014e-001	 1.3029839813e+000	-2.2161891232e+000
 5.6388209726e-001	 1.3086871209e+000	-2.2318803571e+000
 5.5079469702e-001	 1.3142489116e+000	-2.2348586656e+000
 5.3767825315e-001	 1.3196693132e+000	-2.2255901055e+000
 5.2453496112e-001	 1.3249483290e+000	-2.2045520975e+000
 6.6597715991e-001	 1.2880118099e+000	-2.3177710902e+000
 6.5293014736e-001	 1.2946745624e+000	-2.1796104915e+000
 6.3983777022e-001	 1.3011946925e+000	-2.0205131854e+000
 6.2670229798e-001	 1.3075718832e+000	-1.8411231298e+000
 6.1352599849e-001	 1.3138058643e+000	-1.8913765773e+000
 6.0031113676e-001	 1.3198964122e+000	-1.9619006036e+000
 5.8705997383e-001	 1.3258433494e+000	-2.0163439373e+000
 5.7377476563e-001	 1.3316465441e+000	-2.0552530425e+000
 5.6045776188e-001	 1.3373059101e+000	-2.0791901298e+000
 5.4711120496e-001	 1.3428214064e+000	-2.0887316513e+000
 5.3373732886e-001	 1.3481930365e+000	-2.0844667962e+000
 6.7745952473e-001	 1.3102189101e+000	-2.2413183156e+000
 6.6418756369e-001	 1.3169965376e+000	-2.1212796870e+000
 6.5086945591e-001	 1.3236290837e+000	-1.9773887201e+000
 6.3750751002e-001	 1.3301162260e+000	-1.8103730017e+000
 6.2410403295e-001	 1.3364576896e+000	-1.6417449064e+000
 6.1066132877e-001	 1.3426532469e+000	-1.7430697905e+000
 5.9718169751e-001	 1.3487027175e+000	-1.8258842358e+000
 5.8366743400e-001	 1.3546059672e+000	-1.8908416669e+000
 5.7012082674e-001	 1.3603629085e+000	-1.9386129709e+000
 5.5654415677e-001	 1.3659734996e+000	-1.9698848176e+000
 5.4293969659e-001	 1.3714377441e+000	-1.9853579789e+000
 6.8894188956e-001	 1.3324260102e+000	-2.1898169228e+000
 6.7544498003e-001	 1.3393185129e+000	-2.0906578169e+000
 6.6190114160e-001	 1.3460634750e+000	-1.9647911417e+000
 6.4831272205e-001	 1.3526605688e+000	-1.8130264467e+000
 6.3468206740e-001	 1.3591095148e+000	-1.6361978609e+000
 6.2101152078e-001	 1.3654100816e+000	-1.5332522897e+000
 6.0730342120e-001	 1.3715620856e+000	-1.6469746583e+000
 5.9356010237e-001	 1.3775653904e+000	-1.7405578241e+000
 5.7978389160e-001	 1.3834199070e+000	-1.8147813439e+000
 5.6597710858e-001	 1.3891255928e+000	-1.8704420929e+000
 5.5214206433e-001	 1.3946824516e+000	-1.9083524071e+000
 4.6011838696e-001	 1.1622353763e+000	-2.2411222288e+000
 4.4856755008e-001	 1.1667421108e+000	-2.2857244659e+000
 4.3699698847e-001	 1.1711249430e+000	-2.3311493718e+000
 4.2540860082e-001	 1.1753839893e+000	-2.3772396385e+000
 4.1380427497e-001	 1.1795194030e+000	-2.4238355826e+000
 4.0218588716e-001	 1.1835313736e+000	-2.4707755535e+000
 3.9055530112e-001	 1.1874201265e+000	-2.5178963372e+000
 3.7891436731e-001	 1.1911859226e+000	-2.5650335559e+000
 3.6726492216e-001	 1.1948290576e+000	-2.6120220617e+000
 3.5560878723e-001	 1.1983498614e+000	-2.6586963240e+000
 3.4394776857e-001	 1.2017486977e+000	-2.7048908091e+000
 4.6932075469e-001	 1.1854800839e+000	-2.3588108347e+000
 4.5753890108e-001	 1.1900769530e+000	-2.4034953966e+000
 4.4573692824e-001	 1.1945474418e+000	-2.4499558166e+000
 4.3391677283e-001	 1.1988916691e+000	-2.4979898959e+000
 4.2208036047e-001	 1.2031097911e+000	-2.5473927525e+000
 4.1022960490e-001	 1.2072020010e+000	-2.5979572909e+000
 3.9836640714e-001	 1.2111685290e+000	-2.6494746674e+000
 3.8649265466e-001	 1.2150096411e+000	-2.7017347505e+000
 3.7461022059e-001	 1.2187256388e+000	-2.7545265740e+000
 3.6272096297e-001	 1.2223168587e+000	-2.8076387827e+000
 3.5082672394e-001	 1.2257836717e+000	-2.8608600704e+000
 4.7852312243e-001	 1.2087247914e+000	-2.4859280581e+000
 4.6651025208e-001	 1.2134117952e+000	-2.5301070962e+000
 4.5447686801e-001	 1.2179699407e+000	-2.5770144865e+000
 4.4242494484e-001	 1.2223993489e+000	-2.6264028967e+000
 4.3035644597e-001	 1.2267001791e+000	-2.6780219990e+000
 4.1827332264e-001	 1.2308726285e+000	-2.7316190036e+000
 4.0617751316e-001	 1.2349169315e+000	-2.7869391854e+000
 3.9407094200e-001	 1.2388333595e+000	-2.8437264065e+000
 3.8195551903e-001	 1.2426222199e+000	-2.9017236288e+000
 3.6983313871e-001	 1.2462838559e+000	-2.9606734205e+000
 3.5770567931e-001	 1.2498186456e+000	-3.0203184508e+000
 4.8772549017e-001	 1.2319694989e+000	-2.6187136737e+000
 4.7548160308e-001	 1.2367466374e+000	-2.6619143544e+000
 4.6321680778e-001	 1.2413924396e+000	-2.7087965298e+000
 4.5093311686e-001	 1.2459070287e+000	-2.7590674206e+000
 4.3863253146e-001	 1.2502905672e+000	-2.8080751085e+000
 4.2631704038e-001	 1.2545432560e+000	-2.7998071534e+000
 4.1398861918e-001	 1.2586653341e+000	-2.7948797120e+000
 4.0164922934e-001	 1.2626570780e+000	-2.7932074118e+000
 3.8930081747e-001	 1.2665188011e+000	-2.7947013480e+000
 3.7694531445e-001	 1.2702508531e+000	-2.7992687173e+000
 3.6458463467e-001	 1.2738536196e+000	-2.8068124684e+000
 4.9692785791e-001	 1.2552142064e+000	-2.6810965002e+000
 4.8445295408e-001	 1.2600814796e+000	-2.6528548602e+000
 4.7195674754e-001	 1.2648149384e+000	-2.6289961075e+000
 4.5944128887e-001	 1.2694147085e+000	-2.6094395841e+000
 4.4690861696e-001	 1.2738809552e+000	-2.5941024970e+000
 4.3436075812e-001	 1.2782138834e+000	-2.5828994674e+000
 4.2179972519e-001	 1.2824137366e+000	-2.5757420952e+000
 4.0922751669e-001	 1.2864807964e+000	-2.5725385372e+000
 3.9664611591e-001	 1.2904153822e+000	-2.5731931030e+000
 3.8405749020e-001	 1.2942178504e+000	-2.5776058676e+000
 3.7146359004e-001	 1.2978885935e+000	-2.5856723039e+000
 5.0613022564e-001	 1.2784589140e+000	-2.5037005568e+000
 4.9342430508e-001	 1.2834163219e+000	-2.4675421830e+000
 4.8069668731e-001	 1.2882374373e+000	-2.4364686659e+000
 4.6794946089e-001	 1.2929223883e+000	-2.4103963616e+000
 4.5518470246e-001	 1.2974713433e+000	-2.3892392667e+000
 4.4240447586e-001	 1.3018845109e+000	-2.3729085409e+000
 4.2961083121e-001	 1.3061621391e+000	-2.3613120437e+000
 4.1680580403e-001	 1.3103045149e+000	-2.3543538882e+000
 4.0399141435e-001	 1.3143119634e+000	-2.3519340113e+000
 3.9116966594e-001	 1.3181848476e+000	-2.3539477642e+000
 3.7834254541e-001	 1.3219235675e+000	-2.3602855209e+000
 5.1533259338e-001	 1.3017036215e+000	-2.3445962278e+000
 5.0239565608e-001	 1.3067511641e+000	-2.2984228123e+000
 4.8943662708e-001	 1.3116599362e+000	-2.2580098845e+000
 4.7645763290e-001	 1.3164300681e+000	-2.2232732822e+000
 4.6346078795e-001	 1.3210617314e+000	-2.1941262605e+000
 4.5044819360e-001	 1.3255551384e+000	-2.1704789828e+000
 4.3742193723e-001	 1.3299105417e+000	-2.1522380275e+000
 4.2438409137e-001	 1.3341282333e+000	-2.1393059127e+000
 4.1133671280e-001	 1.3382085446e+000	-2.1315806390e+000
 3.9828184168e-001	 1.3421518448e+000	-2.1289552521e+000
 3.8522150078e-001	 1.3459585415e+000	-2.1313174267e+000
 5.2453496112e-001	 1.3249483290e+000	-2.2045520975e+000
 5.1136700707e-001	 1.3300860063e+000	-2.1462641064e+000
 4.9817656684e-001	 1.3350824350e+000	-2.0943858464e+000
 4.8496580491e-001	 1.3399377478e+000	-2.0488351308e+000
 4.7173687345e-001	 1.3446521194e+000	-2.0095269667e+000
 4.5849191134e-001	 1.3492257659e+000	-1.9763730121e+000
 4.4523304325e-001	 1.3536589442e+000	-1.9492810489e+000
 4.3196237872e-001	 1.3579519518e+000	-1.9281544743e+000
 4.1868201124e-001	 1.3621051257e+000	-1.9128918126e+000
 4.0539401742e-001	 1.3661188421e+000	-1.9033862478e+000
 3.9210045615e-001	 1.3699935154e+000	-1.8995251789e+000
 5.3373732886e-001	 1.3481930365e+000	-2.0844667962e+000
 5.2033835807e-001	 1.3534208485e+000	-2.0119590454e+000
 5.0691650661e-001	 1.3585049339e+000	-1.9464837851e+000
 4.9347397693e-001	 1.3634454276e+000	-1.8879633249e+000
 4.8001295895e-001	 1.3682425075e+000	-1.8363169459e+000
 4.6653562908e-001	 1.3728963933e+000	-1.7914603194e+000
 4.5304414927e-001	 1.3774073467e+000	-1.7533049420e+000
 4.3954066606e-001	 1.3817756702e+000	-1.7217575915e+000
 4.2602730968e-001	 1.3860017069e+000	-1.6967198038e+000
 4.1250619317e-001	 1.3900858393e+000	-1.6780873714e+000
 3.9897941152e-001	 1.3940284894e+000	-1.6657498673e+000
 5.4293969659e-001	 1.3714377441e+000	-1.9853579789e+000
 5.2930970907e-001	 1.3767556907e+000	-1.8965155854e+000
 5.1565644638e-001	 1.3819274327e+000	-1.8153018171e+000
 5.0198214894e-001	 1.3869531074e+000	-1.7416460310e+000
 4.8828904444e-001	 1.3918328955e+000	-1.6754743340e+000
 4.7457934682e-001	 1.3965670208e+000	-1.6167089585e+000
 4.6085525529e-001	 1.4011557493e+000	-1.5652676574e+000
 4.4711895341e-001	 1.4055993887e+000	-1.5210631200e+000
 4.3337260812e-001	 1.4098982880e+000	-1.4840024103e+000
 4.1961836891e-001	 1.4140528365e+000	-1.4539864288e+000
 4.0585836689e-001	 1.4180634633e+000	-1.4309094008e+000
 5.5214206433e-001	 1.3946824516e+000	-1.9083524071e+000
 5.3828106007e-001	 1.4000905329e+000	-1.8010470770e+000
 5.2439638615e-001	 1.4053499316e+000	-1.7019397019e+000
 5.1049032095e-001	 1.4104607872e+000	-1.6109692689e+000
 4.9656512994e-001	 1.4154232836e+000	-1.5280712936e+000
 4.8262306456e-001	 1.4202376483e+000	-1.4531771498e+000
 4.6866636131e-001	 1.4249041518e+000	-1.3862134197e+000
 4.5469724075e-001	 1.4294231071e+000	-1.3271012661e+000
 4.4071790656e-001	 1.4337948692e+000	-1.2757558289e+000
 4.2673054465e-001	 1.4380198337e+000	-1.2320856467e+000
 4.1273732227e-001	 1.4420984373e+000	-1.1959921060e+000
 3.4394776857e-001	 1.2017486977e+000	-2.7048908091e+000
 3.3228365593e-001	 1.2050259632e+000	-2.7309096120e+000
 3.2061822211e-001	 1.2081820871e+000	-2.7585689030e+000
 3.0895322226e-001	 1.2112175306e+000	-2.7875107076e+000
 2.9729039324e-001	 1.2141327860e+000	-2.8173790563e+000
 2.8563145302e-001	 1.2169283763e+000	-2.8478205058e+000
 2.7397810005e-001	 1.2196048543e+000	-2.8784846423e+000
 2.6233201271e-001	 1.2221628022e+000	-2.9090245703e+000
 2.5069484874e-001	 1.2246028306e+000	-2.9390973837e+000
 2.3906824470e-001	 1.2269255782e+000	-2.9683646185e+000
 2.2745381553e-001	 1.2291317105e+000	-2.9964926889e+000
 3.5082672394e-001	 1.2257836717e+000	-2.8608600704e+000
 3.3892932905e-001	 1.2291264825e+000	-2.8832501528e+000
 3.2703058655e-001	 1.2323457289e+000	-2.9064284199e+000
 3.1513228670e-001	 1.2354418812e+000	-2.9300612054e+000
 3.0323620110e-001	 1.2384154417e+000	-2.9538172066e+000
 2.9134408208e-001	 1.2412669438e+000	-2.9773679859e+000
 2.7945766205e-001	 1.2439969514e+000	-3.0003884555e+000
 2.6757865297e-001	 1.2466060582e+000	-3.0225573465e+000
 2.5570874571e-001	 1.2490948872e+000	-3.0435576603e+000
 2.4384960960e-001	 1.2514640897e+000	-3.0415850489e+000
 2.3200289184e-001	 1.2537143447e+000	-3.0269086922e+000
 3.5770567931e-001	 1.2498186456e+000	-3.0203184508e+000
 3.4557500216e-001	 1.2532270017e+000	-2.9922805348e+000
 3.3344295099e-001	 1.2565093706e+000	-2.9633172904e+000
 3.2131135114e-001	 1.2596662318e+000	-2.9360933277e+000
 3.0918200896e-001	 1.2626980974e+000	-2.9104460116e+000
 2.9705671113e-001	 1.2656055113e+000	-2.8862082104e+000
 2.8493722405e-001	 1.2683890485e+000	-2.8632081259e+000
 2.7282529322e-001	 1.2710493143e+000	-2.8412691416e+000
 2.6072264268e-001	 1.2735869439e+000	-2.8202096908e+000
 2.4863097449e-001	 1.2760026013e+000	-2.7998431442e+000
 2.3655196814e-001	 1.2782969789e+000	-2.7799777168e+000
 3.6458463467e-001	 1.2738536196e+000	-2.8068124684e+000
 3.5222067528e-001	 1.2773275210e+000	-2.7761935819e+000
 3.3985531543e-001	 1.2806730123e+000	-2.7468700625e+000
 3.2749041558e-001	 1.2838905824e+000	-2.7187381426e+000
 3.1512781682e-001	 1.2869807532e+000	-2.6916894511e+000
 3.0276934019e-001	 1.2899440789e+000	-2.6656107463e+000
 2.9041678605e-001	 1.2927811456e+000	-2.6403836718e+000
 2.7807193347e-001	 1.2954925703e+000	-2.6158845334e+000
 2.6573653966e-001	 1.2980790005e+000	-2.5919840973e+000
 2.5341233938e-001	 1.3005411129e+000	-2.5685474117e+000
 2.4110104445e-001	 1.3028796131e+000	-2.5454336500e+000
 3.7146359004e-001	 1.2978885935e+000	-2.5856723039e+000
 3.5886634840e-001	 1.3014280403e+000	-2.5566885643e+000
 3.4626767987e-001	 1.3048366541e+000	-2.5284339399e+000
 3.3366948003e-001	 1.3081149330e+000	-2.5008596242e+000
 3.2107362469e-001	 1.3112634089e+000	-2.4739118801e+000
 3.0848196925e-001	 1.3142826464e+000	-2.4475316957e+000
 2.9589634805e-001	 1.3171732427e+000	-2.4216544643e+000
 2.8331857372e-001	 1.3199358264e+000	-2.3962096881e+000
 2.7075043663e-001	 1.3225710571e+000	-2.3711207076e+000
 2.5819370428e-001	 1.3250796244e+000	-2.3463044549e+000
 2.4565012076e-001	 1.3274622474e+000	-2.3216712334e+000
 3.7834254541e-001	 1.3219235675e+000	-2.3602855209e+000
 3.6551202151e-001	 1.3255285595e+000	-2.3341409170e+000
 3.5268004431e-001	 1.3290002958e+000	-2.3081933214e+000
 3.3984854447e-001	 1.3323392837e+000	-2.2824494096e+000
 3.2701943255e-001	 1.3355460646e+000	-2.2569105690e+000
 3.1419459831e-001	 1.3386212139e+000	-2.2315724763e+000
 3.0137591005e-001	 1.3415653397e+000	-2.2064247004e+000
 2.8856521398e-001	 1.3443790824e+000	-2.1814503330e+000
 2.7576433361e-001	 1.3470631137e+000	-2.1566256465e+000
 2.6297506917e-001	 1.3496181360e+000	-2.1319197796e+000
 2.5019919707e-001	 1.3520448816e+000	-2.1072944512e+000
 3.8522150078e-001	 1.3459585415e+000	-2.1313174267e+000
 3.7215769463e-001	 1.3496290788e+000	-2.1090352592e+000
 3.5909240875e-001	 1.3531639376e+000	-2.0864504127e+000
 3.4602760891e-001	 1.3565636343e+000	-2.0636256811e+000
 3.3296524041e-001	 1.3598287203e+000	-2.0406181822e+000
 3.1990722737e-001	 1.3629597814e+000	-2.0174788549e+000
 3.0685547205e-001	 1.3659574368e+000	-1.9942519841e+000
 2.9381185423e-001	 1.3688223385e+000	-1.9709747568e+000
 2.8077823058e-001	 1.3715551703e+000	-1.9476768472e+000
 2.6775643406e-001	 1.3741566475e+000	-1.9243800342e+000
 2.5474827338e-001	 1.3766275158e+000	-1.9010978487e+000
 3.9210045615e-001	 1.3699935154e+000	-1.8995251789e+000
 3.7880336775e-001	 1.3737295980e+000	-1.8819558168e+000
 3.6550477319e-001	 1.3773275793e+000	-1.8636148921e+000
 3.5220667336e-001	 1.3807879849e+000	-1.8446220653e+000
 3.3891104828e-001	 1.3841113760e+000	-1.8250909015e+000
 3.2561985643e-001	 1.3872983490e+000	-1.8051282860e+000
 3.1233503405e-001	 1.3903495339e+000	-1.7848338698e+000
 2.9905849449e-001	 1.3932655945e+000	-1.7642995496e+000
 2.8579212755e-001	 1.3960472269e+000	-1.7436089800e+000
 2.7253779896e-001	 1.3986951591e+000	-1.7228371203e+000
 2.5929734969e-001	 1.4012101500e+000	-1.7020498157e+000
 3.9897941152e-001	 1.3940284894e+000	-1.6657498673e+000
 3.8544904087e-001	 1.3978301173e+000	-1.6535778356e+000
 3.7191713763e-001	 1.4014912211e+000	-1.6401946459e+000
 3.5838573780e-001	 1.4050123355e+000	-1.6257776812e+000
 3.4485685614e-001	 1.4083940318e+000	-1.6104977782e+000
 3.3133248549e-001	 1.4116369165e+000	-1.5945185592e+000
 3.1781459605e-001	 1.4147416310e+000	-1.5779957974e+000
 3.0430513474e-001	 1.4177088505e+000	-1.5610768189e+000
 2.9080602453e-001	 1.4205392835e+000	-1.5438999408e+000
 2.7731916385e-001	 1.4232336707e+000	-1.5265939468e+000
 2.6384642600e-001	 1.4257927842e+000	-1.5092776001e+000
 4.0585836689e-001	 1.4180634633e+000	-1.4309094008e+000
 3.9209471399e-001	 1.4219306366e+000	-1.4246598678e+000
 3.7832950208e-001	 1.4256548628e+000	-1.4167874457e+000
 3.6456480225e-001	 1.4292366861e+000	-1.4075282002e+000
 3.5080266401e-001	 1.4326766875e+000	-1.3971111677e+000
 3.3704511455e-001	 1.4359754840e+000	-1.3857576013e+000
 3.2329415806e-001	 1.4391337281e+000	-1.3736802545e+000
 3.0955177499e-001	 1.4421521066e+000	-1.3610827042e+000
 2.9581992150e-001	 1.4450313401e+000	-1.3481587131e+000
 2.8210052874e-001	 1.4477721822e+000	-1.3350916323e+000
 2.6839550231e-001	 1.4503754184e+000	-1.3220538455e+000
 4.1273732227e-001	 1.4420984373e+000	-1.1959921060e+000
 3.9874038711e-001	 1.4460311558e+000	-1.1960368296e+000
 3.8474186652e-001	 1.4498185045e+000	-1.1940734577e+000
 3.7074386670e-001	 1.4534610367e+000	-1.1903978000e+000
 3.5674847188e-001	 1.4569593432e+000	-1.1852981209e+000
 3.4275774362e-001	 1.4603140515e+000	-1.1790542979e+000
 3.2877372006e-001	 1.4635258252e+000	-1.1719370225e+000
 3.1479841525e-001	 1.4665953626e+000	-1.1642070419e+000
 3.0083381848e-001	 1.4695233968e+000	-1.1561144443e+000
 2.8688189364e-001	 1.4723106938e+000	-1.1478979880e+000
 2.7294457862e-001	 1.4749580526e+000	-1.1397844748e+000
 2.2745381553e-001	 1.2291317105e+000	-2.9964926889e+000
 2.1585315397e-001	 1.2312219198e+000	-3.0338052462e+000
 2.0426783022e-001	 1.2331969241e+000	-3.0687659412e+000
 1.9269939142e-001	 1.2350574661e+000	-3.1010981211e+000
 1.8114936129e-001	 1.2368043131e+000	-3.1305311013e+000
 1.6961923973e-001	 1.2384382558e+000	-3.1568004779e+000
 1.5811050249e-001	 1.2399601078e+000	-3.1796484212e+000
 1.4662460078e-001	 1.2413707047e+000	-3.1988239500e+000
 1.3516296104e-001	 1.2426709033e+000	-3.2140831884e+000
 1.2372698459e-001	 1.2438615812e+000	-3.2251896020e+000
 1.1231804739e-001	 1.2449436358e+000	-3.2319142172e+000
 2.3200289184e-001	 1.2537143447e+000	-3.0269086922e+000
 2.2017021705e-001	 1.2558463582e+000	-3.0256648704e+000
 2.0835318683e-001	 1.2578608626e+000	-3.0243038471e+000
 1.9655337925e-001	 1.2597586154e+000	-3.0225926382e+000
 1.8477234852e-001	 1.2615403994e+000	-3.0202934849e+000
 1.7301162453e-001	 1.2632070210e+000	-3.0171638938e+000
 1.6127271254e-001	 1.2647593100e+000	-3.0129566943e+000
 1.4955709280e-001	 1.2661981188e+000	-3.0074201113e+000
 1.3786622027e-001	 1.2675243214e+000	-3.0002978553e+000
 1.2620152428e-001	 1.2687388129e+000	-2.9913292278e+000
 1.1456440834e-001	 1.2698425085e+000	-2.9802492410e+000
 2.3655196814e-001	 1.2782969789e+000	-2.7799777168e+000
 2.2448728013e-001	 1.2804707966e+000	-2.7746039366e+000
 2.1243854343e-001	 1.2825248010e+000	-2.7692139389e+000
 2.0040736708e-001	 1.2844597647e+000	-2.7636069947e+000
 1.8839533574e-001	 1.2862764856e+000	-2.7575767963e+000
 1.7640400932e-001	 1.2879757861e+000	-2.7509114619e+000
 1.6443492259e-001	 1.2895585122e+000	-2.7433935599e+000
 1.5248958481e-001	 1.2910255329e+000	-2.7348001518e+000
 1.4056947949e-001	 1.2923777395e+000	-2.7249028538e+000
 1.2867606398e-001	 1.2936160445e+000	-2.7134679166e+000
 1.1681076929e-001	 1.2947413812e+000	-2.7002563227e+000
 2.4110104445e-001	 1.3028796131e+000	-2.5454336500e+000
 2.2880434321e-001	 1.3050952350e+000	-2.5368885304e+000
 2.1652390003e-001	 1.3071887395e+000	-2.5284619312e+000
 2.0426135491e-001	 1.3091609141e+000	-2.5199857951e+000
 1.9201832297e-001	 1.3110125719e+000	-2.5112856427e+000
 1.7979639412e-001	 1.3127445512e+000	-2.5021805412e+000
 1.6759713264e-001	 1.3143577143e+000	-2.4924830953e+000
 1.5542207683e-001	 1.3158529470e+000	-2.4819994596e+000
 1.4327273871e-001	 1.3172311575e+000	-2.4705293718e+000
 1.3115060367e-001	 1.3184932761e+000	-2.4578662067e+000
 1.1905713023e-001	 1.3196402539e+000	-2.4437970508e+000
 2.4565012076e-001	 1.3274622474e+000	-2.3216712334e+000
 2.3312140629e-001	 1.3297196734e+000	-2.3107574022e+000
 2.2060925664e-001	 1.3318526780e+000	-2.3001301337e+000
 2.0811534273e-001	 1.3338620634e+000	-2.2896545484e+000
 1.9564131019e-001	 1.3357486582e+000	-2.2791884606e+000
 1.8318877891e-001	 1.3375133163e+000	-2.2685823110e+000
 1.7075934268e-001	 1.3391569165e+000	-2.2576791236e+000
 1.5835456884e-001	 1.3406803611e+000	-2.2463144865e+000
 1.4597599793e-001	 1.3420845756e+000	-2.2343165571e+000
 1.3362514336e-001	 1.3433705078e+000	-2.2215060904e+000
 1.2130349118e-001	 1.3445391266e+000	-2.2076964897e+000
 2.5019919707e-001	 1.3520448816e+000	-2.1072944512e+000
 2.3743846937e-001	 1.3543441118e+000	-2.0946648459e+000
 2.2469461324e-001	 1.3565166165e+000	-2.0825227588e+000
 2.1196933056e-001	 1.3585632127e+000	-2.0707670809e+000
 1.9926429742e-001	 1.3604847444e+000	-2.0592884713e+000
 1.8658116370e-001	 1.3622820814e+000	-2.0479692524e+000
 1.7392155273e-001	 1.3639561186e+000	-2.0366833326e+000
 1.6128706086e-001	 1.3655077752e+000	-2.0252961554e+000
 1.4867925715e-001	 1.3669379937e+000	-2.0136646758e+000
 1.3609968305e-001	 1.3682477394e+000	-2.0016373622e+000
 1.2354985212e-001	 1.3694379994e+000	-1.9890542241e+000
 2.5474827338e-001	 1.3766275158e+000	-1.9010978487e+000
 2.4175553244e-001	 1.3789685502e+000	-1.8872614538e+000
 2.2877996984e-001	 1.3811805550e+000	-1.8741461084e+000
 2.1582331839e-001	 1.3832643620e+000	-1.8616851507e+000
 2.0288728464e-001	 1.3852208307e+000	-1.8498027177e+000
 1.8997354850e-001	 1.3870508465e+000	-1.8384136031e+000
 1.7708376278e-001	 1.3887553208e+000	-1.8274231442e+000
 1.6421955287e-001	 1.3903351893e+000	-1.8167271401e+000
 1.5138251636e-001	 1.3917914117e+000	-1.8062117977e+000
 1.3857422274e-001	 1.3931249710e+000	-1.7957537077e+000
 1.2579621307e-001	 1.3943368721e+000	-1.7852198485e+000
 2.5929734969e-001	 1.4012101500e+000	-1.7020498157e+000
 2.4607259552e-001	 1.4035929886e+000	-1.6873768973e+000
 2.3286532645e-001	 1.4058444934e+000	-1.6736908473e+000
 2.1967730621e-001	 1.4079655113e+000	-1.6609602083e+000
 2.0651027186e-001	 1.4099569169e+000	-1.6491433086e+000
 1.9336593329e-001	 1.4118196117e+000	-1.6381880806e+000
 1.8024597283e-001	 1.4135545229e+000	-1.6280319132e+000
 1.6715204489e-001	 1.4151626033e+000	-1.6186015361e+000
 1.5408577558e-001	 1.4166448298e+000	-1.6098129369e+000
 1.4104876243e-001	 1.4180022026e+000	-1.6015713100e+000
 1.2804257402e-001	 1.4192357448e+000	-1.5937710364e+000
 2.6384642600e-001	 1.4257927842e+000	-1.5092776001e+000
 2.5038965860e-001	 1.4282174270e+000	-1.4940044895e+000
 2.3695068305e-001	 1.4305084319e+000	-1.4800161095e+000
 2.2353129404e-001	 1.4326666607e+000	-1.4673170438e+000
 2.1013325909e-001	 1.4346930032e+000	-1.4559006021e+000
 1.9675831808e-001	 1.4365883768e+000	-1.4457486000e+000
 1.8340818287e-001	 1.4383537251e+000	-1.4368311743e+000
 1.7008453690e-001	 1.4399900174e+000	-1.4291066344e+000
 1.5678903480e-001	 1.4414982479e+000	-1.4225213493e+000
 1.4352330212e-001	 1.4428794342e+000	-1.4170096684e+000
 1.3028893496e-001	 1.4441346175e+000	-1.4124938782e+000
 2.6839550231e-001	 1.4503754184e+000	-1.3220538455e+000
 2.5470672168e-001	 1.4528418654e+000	-1.3062873168e+000
 2.4103603965e-001	 1.4551723704e+000	-1.2921352213e+000
 2.2738528187e-001	 1.4573678100e+000	-1.2796390965e+000
 2.1375624631e-001	 1.4594290895e+000	-1.2688280999e+000
 2.0015070287e-001	 1.4613571419e+000	-1.2597187479e+000
 1.8657039292e-001	 1.4631529272e+000	-1.2523146947e+000
 1.7301702891e-001	 1.4648174315e+000	-1.2466065496e+000
 1.5949229402e-001	 1.4663516659e+000	-1.2425717326e+000
 1.4599784180e-001	 1.4677566659e+000	-1.2401743688e+000
 1.3253529590e-001	 1.4690334902e+000	-1.2393652190e+000
 2.7294457862e-001	 1.4749580526e+000	-1.1397844748e+000
 2.5902378476e-001	 1.4774663038e+000	-1.1235057579e+000
 2.4512139625e-001	 1.4798363089e+000	-1.1092028517e+000
 2.3123926969e-001	 1.4820689593e+000	-1.0969552351e+000
 2.1737923353e-001	 1.4841651757e+000	-1.0868288522e+000
 2.0354308766e-001	 1.4861259070e+000	-1.0788758106e+000
 1.8973260296e-001	 1.4879521294e+000	-1.0731341216e+000
 1.7594952092e-001	 1.4896448456e+000	-1.0696274836e+000
 1.6219555323e-001	 1.4912050840e+000	-1.0683651062e+000
 1.4847238149e-001	 1.4926338975e+000	-1.0693415759e+000
 1.3478165685e-001	 1.4939323629e+000	-1.0725367619e+000
 1.1231804739e-001	 1.2449436358e+000	-3.2319142172e+000
 1.0093749980e-001	 1.2459179833e+000	-3.2578444808e+000
 8.9586666357e-002	 1.2467855586e+000	-3.2796839106e+000
 7.8266845602e-002	 1.2475473141e+000	-3.2971385527e+000
 6.6979309880e-002	 1.2482042189e+000	-3.3099237841e+000
 5.5725305204e-002	 1.2487572584e+000	-3.3177644971e+000
 4.4506051122e-002	 1.2492074333e+000	-3.3203952639e+000
 3.3322740611e-002	 1.2495557590e+000	-3.3175604801e+000
 2.2176539990e-002	 1.2498032649e+000	-3.3090144894e+000
 1.1068588847e-002	 1.2499509936e+000	-3.2945216890e+000
 0.0000000000e+000	 1.2500000000e+000	-3.2738566152e+000
 1.1456440834e-001	 1.2698425085e+000	-2.9802492410e+000
 1.0295624979e-001	 1.2708363430e+000	-2.9847492038e+000
 9.1378399684e-002	 1.2717212698e+000	-2.9873277509e+000
 7.9832182514e-002	 1.2724982604e+000	-2.9876289415e+000
 6.8318896077e-002	 1.2731683033e+000	-2.9852940471e+000
 5.6839811307e-002	 1.2737324036e+000	-2.9799617930e+000
 4.5396172143e-002	 1.2741915820e+000	-2.9712686089e+000
 3.3989195423e-002	 1.2745468742e+000	-2.9588488882e+000
 2.2620070789e-002	 1.2747993302e+000	-2.9423352550e+000
 1.1289960624e-002	 1.2749500134e+000	-2.9213588379e+000
 0.0000000000e+000	 1.2750000000e+000	-2.8955495506e+000
 1.1681076929e-001	 1.2947413812e+000	-2.7002563227e+000
 1.0497499979e-001	 1.2957547027e+000	-2.6979566632e+000
 9.3170133010e-002	 1.2966569810e+000	-2.6941238376e+000
 8.1397519425e-002	 1.2974492067e+000	-2.6884343602e+000
 6.9658482273e-002	 1.2981323876e+000	-2.6805607126e+000
 5.7954317410e-002	 1.2987075487e+000	-2.6701715702e+000
 4.6286293165e-002	 1.2991757306e+000	-2.6569320398e+000
 3.4655650234e-002	 1.2995379894e+000	-2.6405039086e+000
 2.3063601588e-002	 1.2997953955e+000	-2.6205459037e+000
 1.1511332401e-002	 1.2999490333e+000	-2.5967139601e+000
 0.0000000000e+000	 1.3000000000e+000	-2.5686614987e+000
 1.1905713023e-001	 1.3196402539e+000	-2.4437970508e+000
 1.0699374978e-001	 1.3206730623e+000	-2.4367819472e+000
 9.4961866336e-002	 1.3215926922e+000	-2.4286560005e+000
 8.2962856336e-002	 1.3224001529e+000	-2.4191279114e+000
 7.0998068470e-002	 1.3230964720e+000	-2.4079010682e+000
 5.9068823513e-002	 1.3236826939e+000	-2.3946737579e+000
 4.7176414186e-002	 1.3241598793e+000	-2.3791393916e+000
 3.5322105045e-002	 1.3245291046e+000	-2.3609867445e+000
 2.3507132387e-002	 1.3247914608e+000	-2.3399002068e+000
 1.1732704177e-002	 1.3249480532e+000	-2.3155600484e+000
 0.0000000000e+000	 1.3250000000e+000	-2.2876426933e+000
 1.2130349118e-001	 1.3445391266e+000	-2.2076964897e+000
 1.0901249978e-001	 1.3455914220e+000	-2.1978504933e+000
 9.6753599662e-002	 1.3465284033e+000	-2.1873505443e+000
 8.4528193246e-002	 1.3473510992e+000	-2.1759373508e+000
 7.2337654666e-002	 1.3480605564e+000	-2.1633449915e+000
 6.0183329615e-002	 1.3486578391e+000	-2.1493011119e+000
 4.8066535207e-002	 1.3491440280e+000	-2.1335271384e+000
 3.5988559857e-002	 1.3495202198e+000	-2.1157385083e+000
 2.3950663186e-002	 1.3497875261e+000	-2.0956449148e+000
 1.1954075954e-002	 1.3499470731e+000	-2.0729505667e+000
 0.0000000000e+000	 1.3500000000e+000	-2.0473544617e+000
 1.2354985212e-001	 1.3694379994e+000	-1.9890542241e+000
 1.1103124977e-001	 1.3705097816e+000	-1.9780721364e+000
 9.8545332987e-002	 1.3714641145e+000	-1.9669280681e+000
 8.6093530156e-002	 1.3723020455e+000	-1.9553946416e+000
 7.3677240862e-002	 1.3730246408e+000	-1.9432364928e+000
 6.1297835718e-002	 1.3736329842e+000	-1.9302104546e+000
 4.8956656228e-002	 1.3741281766e+000	-1.9160657581e+000
 3.6655014668e-002	 1.3745113349e+000	-1.9005442548e+000
 2.4394193985e-002	 1.3747835914e+000	-1.8833806548e+000
 1.2175447730e-002	 1.3749460929e+000	-1.8643027835e+000
 0.0000000000e+000	 1.3750000000e+000	-1.8430318528e+000
 1.2579621307e-001	 1.3943368721e+000	-1.7852198485e+000
 1.1304999977e-001	 1.3954281413e+000	-1.7746157163e+000
 1.0033706631e-001	 1.3963998257e+000	-1.7643771897e+000
 8.7658867067e-002	 1.3972529918e+000	-1.7543087934e+000
 7.5016827058e-002	 1.3979887252e+000	-1.7442056683e+000
 6.2412341821e-002	 1.3986081294e+000	-1.7338537402e+000
 4.9846777250e-002	 1.3991123253e+000	-1.7230299111e+000
 3.7321469479e-002	 1.3995024501e+000	-1.7115022717e+000
 2.4837724784e-002	 1.3997796567e+000	-1.6990303350e+000
 1.2396819507e-002	 1.3999451128e+000	-1.6853652894e+000
 0.0000000000e+000	 1.4000000000e+000	-1.6702502694e+000
 1.2804257402e-001	 1.4192357448e+000	-1.5937710364e+000
 1.1506874976e-001	 1.4203465010e+000	-1.5848863579e+000
 1.0212879964e-001	 1.4213355368e+000	-1.5769310346e+000
 8.9224203976e-002	 1.4222039381e+000	-1.5697415603e+000
 7.6356413254e-002	 1.4229528095e+000	-1.5631436043e+000
 6.3526847923e-002	 1.4235832746e+000	-1.5569521664e+000
 5.0736898271e-002	 1.4240964740e+000	-1.5509717574e+000
 3.7987924290e-002	 1.4244935653e+000	-1.5449966032e+000
 2.5281255584e-002	 1.4247757220e+000	-1.5388108739e+000
 1.2618191283e-002	 1.4249441327e+000	-1.5321889337e+000
 0.0000000000e+000	 1.4250000000e+000	-1.5248956122e+000
 1.3028893496e-001	 1.4441346175e+000	-1.4124938782e+000
 1.1708749975e-001	 1.4452648606e+000	-1.4065051020e+000
 1.0392053296e-001	 1.4462712480e+000	-1.4020461580e+000
 9.0789540886e-002	 1.4471548843e+000	-1.3989856517e+000
 7.7695999449e-002	 1.4479168939e+000	-1.3971798781e+000
 6.4641354025e-002	 1.4485584197e+000	-1.3964729633e+000
 5.1627019292e-002	 1.4490806226e+000	-1.3966970342e+000
 3.8654379101e-002	 1.4494846805e+000	-1.3976724159e+000
 2.5724786383e-002	 1.4497717873e+000	-1.3992078548e+000
 1.2839563060e-002	 1.4499431525e+000	-1.4011007676e+000
 0.0000000000e+000	 1.4500000000e+000	-1.4031375128e+000
 1.3253529590e-001	 1.4690334902e+000	-1.2393652190e+000
 1.1910624974e-001	 1.4701832203e+000	-1.2372906068e+000
 1.0571226629e-001	 1.4712069592e+000	-1.2373836101e+000
 9.2354877796e-002	 1.4721058306e+000	-1.2395451608e+000
 7.9035585644e-002	 1.4728809783e+000	-1.2436623474e+000
 6.5755860127e-002	 1.4735335649e+000	-1.2496085434e+000
 5.2517140313e-002	 1.4740647713e+000	-1.2572435666e+000
 3.9320833912e-002	 1.4744757957e+000	-1.2664138694e+000
 2.6168317182e-002	 1.4747678526e+000	-1.2769527575e+000
 1.3060934837e-002	 1.4749421724e+000	-1.2886806374e+000
 0.0000000000e+000	 1.4750000000e+000	-1.3014052889e+000
 1.3478165685e-001	 1.4939323629e+000	-1.0725367619e+000
 1.2112499974e-001	 1.4951015800e+000	-1.0752426805e+000
 1.0750399961e-001	 1.4961426704e+000	-1.0807918949e+000
 9.3920214705e-002	 1.4970567769e+000	-1.0891179485e+000
 8.0375171839e-002	 1.4978450627e+000	-1.1001389596e+000
 6.6870366229e-002	 1.4985087101e+000	-1.1137577364e+000
 5.3407261333e-002	 1.4990489200e+000	-1.1298619266e+000
 3.9987288723e-002	 1.4994669109e+000	-1.1483242007e+000
 2.6611847981e-002	 1.4997639179e+000	-1.1690024671e+000
 1.3282306613e-002	 1.4999411923e+000	-1.1917401178e+000
 0.0000000000e+000	 1.5000000000e+000	-1.2163663038e+000
 1.5000000000e+000	 0.0000000000e+000	 3.8893360088e+000
 1.4999411923e+000	 1.3282306613e-002	 3.8935388884e+000
 1.4997639179e+000	 2.6611847981e-002	 3.8931090644e+000
 1.4994669109e+000	 3.9987288723e-002	 3.8879810769e+000
 1.4990489200e+000	 5.3407261333e-002	 3.8780884179e+000
 1.4985087101e+000	 6.6870366229e-002	 3.8633635130e+000
 1.4978450627e+000	 8.0375171839e-002	 3.8437377067e+000
 1.4970567769e+000	 9.3920214705e-002	 3.8191412485e+000
 1.4961426704e+000	 1.0750399961e-001	 3.7895032837e+000
 1.4951015800e+000	 1.2112499974e-001	 3.7547518462e+000
 1.4939323629e+000	 1.3478165685e-001	 3.7148138545e+000
 1.5250000000e+000	 0.0000000000e+000	 3.7885199504e+000
 1.5249402122e+000	 1.3503678390e-002	 3.7933266126e+000
 1.5247599832e+000	 2.7055378780e-002	 3.7935982899e+000
 1.5244580260e+000	 4.0653743534e-002	 3.7892705937e+000
 1.5240330686e+000	 5.4297382354e-002	 3.7802779740e+000
 1.5234838552e+000	 6.7984872331e-002	 3.7665536965e+000
 1.5228091470e+000	 8.1714758035e-002	 3.7480298221e+000
 1.5220077232e+000	 9.5485551614e-002	 3.7246371899e+000
 1.5210783815e+000	 1.0929573293e-001	 3.6963054017e+000
 1.5200199396e+000	 1.2314374973e-001	 3.6629628111e+000
 1.5188312356e+000	 1.3702801779e-001	 3.6245365152e+000
 1.5500000000e+000	 0.0000000000e+000	 3.6967191560e+000
 1.5499392320e+000	 1.3725050166e-002	 3.7018575066e+000
 1.5497560485e+000	 2.7498909579e-002	 3.7025693256e+000
 1.5494491412e+000	 4.1320198346e-002	 3.6987915385e+000
 1.5490172173e+000	 5.5187503375e-002	 3.6904597891e+000
 1.5484590004e+000	 6.9099378434e-002	 3.6775084118e+000
 1.5477732314e+000	 8.3054344230e-002	 3.6598704058e+000
 1.5469586695e+000	 9.7050888523e-002	 3.6374774123e+000
 1.5460140927e+000	 1.1108746626e-001	 3.6102596948e+000
 1.5449382993e+000	 1.2516249972e-001	 3.5781461225e+000
 1.5437301083e+000	 1.3927437874e-001	 3.5410641576e+000
 1.5750000000e+000	 0.0000000000e+000	 3.6134399858e+000
 1.5749382519e+000	 1.3946421943e-002	 3.6186396149e+000
 1.5747521138e+000	 2.7942440378e-002	 3.6195319035e+000
 1.5744402564e+000	 4.1986653157e-002	 3.6160553331e+000
 1.5740013660e+000	 5.6077624396e-002	 3.6081469774e+000
 1.5734341456e+000	 7.0213884536e-002	 3.5957424681e+000
 1.5727373158e+000	 8.4393930425e-002	 3.5787759630e+000
 1.5719096157e+000	 9.8616225433e-002	 3.5571801187e+000
 1.5709498039e+000	 1.1287919958e-001	 3.5308860641e+000
 1.5698566590e+000	 1.2718124971e-001	 3.4998233795e+000
 1.5686289811e+000	 1.4152073968e-001	 3.4639200783e+000
 1.6000000000e+000	 0.0000000000e+000	 3.5382196522e+000
 1.5999372718e+000	 1.4167793719e-002	 3.5432115865e+000
 1.5997481791e+000	 2.8385971177e-002	 3.5440261212e+000
 1.5994313716e+000	 4.2653107968e-002	 3.5406035370e+000
 1.5989855146e+000	 5.6967745417e-002	 3.5328825730e+000
 1.5984092907e+000	 7.1328390638e-002	 3.5208003862e+000
 1.5977014002e+000	 8.5733516621e-002	 3.5042925142e+000
 1.5968605620e+000	 1.0018156234e-001	 3.4832928407e+000
 1.5958855150e+000	 1.1467093291e-001	 3.4577335643e+000
 1.5947750186e+000	 1.2919999971e-001	 3.4275451711e+000
 1.5935278538e+000	 1.4376710062e-001	 3.3926564107e+000
 1.6250000000e+000	 0.0000000000e+000	 3.4706238470e+000
 1.6249362916e+000	 1.4389165496e-002	 3.4751403202e+000
 1.6247442444e+000	 2.8829501976e-002	 3.4756201068e+000
 1.6244224868e+000	 4.3319562779e-002	 3.4720055294e+000
 1.6239696633e+000	 5.7857866438e-002	 3.4642372282e+000
 1.6233844359e+000	 7.2442896741e-002	 3.4522541140e+000
 1.6226654846e+000	 8.7073102817e-002	 3.4359933245e+000
 1.6218115083e+000	 1.0174689925e-001	 3.4153901831e+000
 1.6208212262e+000	 1.1646266623e-001	 3.3903781615e+000
 1.6196933783e+000	 1.3121874970e-001	 3.3608888457e+000
 1.6184267265e+000	 1.4601346157e-001	 3.3268519066e+000
 1.6500000000e+000	 0.0000000000e+000	 3.4102445838e+000
 1.6499353115e+000	 1.4610537273e-002	 3.4140188253e+000
 1.6497403097e+000	 2.9273032775e-002	 3.4139078953e+000
 1.6494136019e+000	 4.3986017590e-002	 3.4098564015e+000
 1.6489538120e+000	 5.8747987459e-002	 3.4018071212e+000
 1.6483595811e+000	 7.3557402843e-002	 3.3897009480e+000
 1.6476295689e+000	 8.8412689013e-002	 3.3734768399e+000
 1.6467624546e+000	 1.0331223616e-001	 3.3530717725e+000
 1.6457569374e+000	 1.1825439956e-001	 3.3284206937e+000
 1.6446117380e+000	 1.3323749970e-001	 3.2994564840e+000
 1.6433255992e+000	 1.4825982252e-001	 3.2661099198e+000
 1.6750000000e+000	 0.0000000000e+000	 3.3566982333e+000
 1.6749343314e+000	 1.4831909049e-002	 3.3594642722e+000
 1.6747363750e+000	 2.9716563574e-002	 3.3585074948e+000
 1.6744047171e+000	 4.4652472402e-002	 3.3537750375e+000
 1.6739379606e+000	 5.9638108481e-002	 3.3452120516e+000
 1.6733347262e+000	 7.4671908946e-002	 3.3327616418e+000
 1.6725936533e+000	 8.9752275209e-002	 3.3163648080e+000
 1.6717134009e+000	 1.0487757307e-001	 3.2959603899e+000
 1.6706926486e+000	 1.2004613288e-001	 3.2714850154e+000
 1.6695300976e+000	 1.3525624969e-001	 3.2428730534e+000
 1.6682244719e+000	 1.5050618346e-001	 3.2100565703e+000
 1.7000000000e+000	 0.0000000000e+000	 3.3096237330e+000
 1.6999333513e+000	 1.5053280826e-002	 3.3111162166e+000
 1.6997324403e+000	 3.0160094373e-002	 3.3090591243e+000
 1.6993958323e+000	 4.5318927213e-002	 3.3034023656e+000
 1.6989221093e+000	 6.0528229502e-002	 3.2940937028e+000
 1.6983098714e+000	 7.5786415049e-002	 3.2810786816e+000
 1.6975577377e+000	 9.1091861406e-002	 3.2643005646e+000
 1.6966643472e+000	 1.0644290998e-001	 3.2437002684e+000
 1.6956283597e+000	 1.2183786621e-001	 3.2192163048e+000
 1.6944484573e+000	 1.3727499969e-001	 3.1907847250e+000
 1.6931233446e+000	 1.5275254441e-001	 3.1583390698e+000
 1.7250000000e+000	 0.0000000000e+000	 3.2686809513e+000
 1.7249323711e+000	 1.5274652602e-002	 3.2686349768e+000
 1.7247285056e+000	 3.0603625172e-002	 3.2652236038e+000
 1.7243869475e+000	 4.5985382024e-002	 3.2583997601e+000
 1.7239062580e+000	 6.1418350523e-002	 3.2481140569e+000
 1.7232850166e+000	 7.6900921152e-002	 3.2343147109e+000
 1.7225218221e+000	 9.2431447602e-002	 3.2169474692e+000
 1.7216152934e+000	 1.0800824690e-001	 3.1959555388e+000
 1.7205640709e+000	 1.2362959954e-001	 3.1712795187e+000
 1.7193668170e+000	 1.3929374968e-001	 3.1428573373e+000
 1.7180222173e+000	 1.5499890536e-001	 3.1106241940e+000
 1.7500000000e+000	 0.0000000000e+000	 3.2335491927e+000
 1.7499313910e+000	 1.5496024379e-002	 3.2317001510e+000
 1.7497245709e+000	 3.1047155971e-002	 3.2266808830e+000
 1.7493780627e+000	 4.6651836836e-002	 3.2184475812e+000
 1.7488904066e+000	 6.2308471545e-002	 3.2069539445e+000
 1.7482601617e+000	 7.8015427255e-002	 3.1921510910e+000
 1.7474859064e+000	 9.3771033799e-002	 3.1739874753e+000
 1.7465662397e+000	 1.0957358381e-001	 3.1524088079e+000
 1.7454997821e+000	 1.2542133286e-001	 3.1273579798e+000
 1.7442851766e+000	 1.4131249968e-001	 3.0987749912e+000
 1.7429210901e+000	 1.5724526631e-001	 3.0665968847e+000
 1.4939323629e+000	 1.3478165685e-001	 3.7148138545e+000
 1.4926338975e+000	 1.4847238149e-001	 3.6926261018e+000
 1.4912050840e+000	 1.6219555323e-001	 3.6654091195e+000
 1.4896448456e+000	 1.7594952092e-001	 3.6330886154e+000
 1.4879521294e+000	 1.8973260296e-001	 3.5955891724e+000
 1.4861259070e+000	 2.0354308766e-001	 3.5528342619e+000
 1.4841651757e+000	 2.1737923353e-001	 3.5047462626e+000
 1.4820689593e+000	 2.3123926969e-001	 3.4512464828e+000
 1.4798363089e+000	 2.4512139625e-001	 3.3922551881e+000
 1.4774663038e+000	 2.5902378476e-001	 3.3276916345e+000
 1.4749580526e+000	 2.7294457862e-001	 3.2574741062e+000
 1.5188312356e+000	 1.3702801779e-001	 3.6245365152e+000
 1.5175111291e+000	 1.5094692118e-001	 3.6039738102e+000
 1.5160585020e+000	 1.6489881245e-001	 3.5782975319e+000
 1.5144722597e+000	 1.7888201293e-001	 3.5474297789e+000
 1.5127513315e+000	 1.9289481301e-001	 3.5112914672e+000
 1.5108946721e+000	 2.0693547245e-001	 3.4698023456e+000
 1.5089012620e+000	 2.2100222075e-001	 3.4228810160e+000
 1.5067701086e+000	 2.3509325751e-001	 3.3704449585e+000
 1.5045002474e+000	 2.4920675285e-001	 3.3124105620e+000
 1.5020907422e+000	 2.6334084783e-001	 3.2486931594e+000
 1.4995406868e+000	 2.7749365493e-001	 3.1792070691e+000
 1.5437301083e+000	 1.3927437874e-001	 3.5410641576e+000
 1.5423883607e+000	 1.5342146087e-001	 3.5218679425e+000
 1.5409119201e+000	 1.6760207167e-001	 3.4974922974e+000
 1.5392996738e+000	 1.8181450494e-001	 3.4678559634e+000
 1.5375505337e+000	 1.9605702305e-001	 3.4328764284e+000
 1.5356634372e+000	 2.1032785724e-001	 3.3924699442e+000
 1.5336373482e+000	 2.2462520797e-001	 3.3465515479e+000
 1.5314712579e+000	 2.3894724534e-001	 3.2950350896e+000
 1.5291641858e+000	 2.5329210946e-001	 3.2378332642e+000
 1.5267151806e+000	 2.6765791091e-001	 3.1748576502e+000
 1.5241233210e+000	 2.8204273124e-001	 3.1060187529e+000
 1.5686289811e+000	 1.4152073968e-001	 3.4639200783e+000
 1.5672655924e+000	 1.5589600055e-001	 3.4458384352e+000
 1.5657653382e+000	 1.7030533088e-001	 3.4225297193e+000
 1.5641270879e+000	 1.8474699695e-001	 3.3939095599e+000
 1.5623497358e+000	 1.9921923310e-001	 3.3598922502e+000
 1.5604322023e+000	 2.1372024203e-001	 3.3203907647e+000
 1.5583734345e+000	 2.2824819520e-001	 3.2753167824e+000
 1.5561724073e+000	 2.4280123317e-001	 3.2245807150e+000
 1.5538281243e+000	 2.5737746606e-001	 3.1680917416e+000
 1.5513396190e+000	 2.7197497399e-001	 3.1057578482e+000
 1.5487059552e+000	 2.8659180755e-001	 3.0374858742e+000
 1.5935278538e+000	 1.4376710062e-001	 3.3926564107e+000
 1.5921428240e+000	 1.5837054024e-001	 3.3754436113e+000
 1.5906187562e+000	 1.7300859010e-001	 3.3529740653e+000
 1.5889545020e+000	 1.8767948897e-001	 3.3251605314e+000
 1.5871489380e+000	 2.0238144315e-001	 3.2919143355e+000
 1.5852009674e+000	 2.1711262682e-001	 3.2531453898e+000
 1.5831095208e+000	 2.3187118242e-001	 3.2087622158e+000
 1.5808735566e+000	 2.4665522099e-001	 3.1586719741e+000
 1.5784920628e+000	 2.6146282266e-001	 3.1027804999e+000
 1.5759640574e+000	 2.7629203707e-001	 3.0409923439e+000
 1.5732885894e+000	 2.9114088386e-001	 2.9732108214e+000
 1.6184267265e+000	 1.4601346157e-001	 3.3268519066e+000
 1.6170200556e+000	 1.6084507993e-001	 3.3102679965e+000
 1.6154721743e+000	 1.7571184932e-001	 3.2884154171e+000
 1.6137819161e+000	 1.9061198098e-001	 3.2612042919e+000
 1.6119481402e+000	 2.0554365319e-001	 3.2285432030e+000
 1.6099697326e+000	 2.2050501162e-001	 3.1903392098e+000
 1.6078456070e+000	 2.3549416964e-001	 3.1464978728e+000
 1.6055747059e+000	 2.5050920882e-001	 3.0969232832e+000
 1.6031560013e+000	 2.6554817926e-001	 3.0415180992e+000
 1.6005884958e+000	 2.8060910014e-001	 2.9801835889e+000
 1.5978712237e+000	 2.9568996017e-001	 2.9128196795e+000
 1.6433255992e+000	 1.4825982252e-001	 3.2661099198e+000
 1.6418972872e+000	 1.6331961962e-001	 3.2499203345e+000
 1.6403255924e+000	 1.7841510854e-001	 3.2284677142e+000
 1.6386093302e+000	 1.9354447299e-001	 3.2016597785e+000
 1.6367473423e+000	 2.0870586324e-001	 3.1694025845e+000
 1.6347384977e+000	 2.2389739641e-001	 3.1316005443e+000
 1.6325816933e+000	 2.3911715687e-001	 3.0881564485e+000
 1.6302758552e+000	 2.5436319665e-001	 3.0389714964e+000
 1.6278199398e+000	 2.6963353587e-001	 2.9839453319e+000
 1.6252129342e+000	 2.8492616322e-001	 2.9229760877e+000
 1.6224538579e+000	 3.0023903648e-001	 2.8559604350e+000
 1.6682244719e+000	 1.5050618346e-001	 3.2100565703e+000
 1.6667745188e+000	 1.6579415931e-001	 3.1940317794e+000
 1.6651790104e+000	 1.8111836776e-001	 3.1727669735e+000
 1.6634367443e+000	 1.9647696501e-001	 3.1461676957e+000
 1.6615465445e+000	 2.1186807329e-001	 3.1141376926e+000
 1.6595072628e+000	 2.2728978120e-001	 3.0765789300e+000
 1.6573177795e+000	 2.4274014409e-001	 3.0333916162e+000
 1.6549770045e+000	 2.5821718447e-001	 2.9844742312e+000
 1.6524838782e+000	 2.7371889247e-001	 2.9297235633e+000
 1.6498373726e+000	 2.8924322630e-001	 2.8690347524e+000
 1.6470364921e+000	 3.0478811279e-001	 2.8023013414e+000
 1.6931233446e+000	 1.5275254441e-001	 3.1583390698e+000
 1.6916517505e+000	 1.6826869900e-001	 3.1422542482e+000
 1.6900324285e+000	 1.8382162698e-001	 3.1209696664e+000
 1.6882641584e+000	 1.9940945702e-001	 3.0943889153e+000
 1.6863457466e+000	 2.1503028334e-001	 3.0624136413e+000
 1.6842760279e+000	 2.3068216600e-001	 3.0249435614e+000
 1.6820538658e+000	 2.4636313132e-001	 2.9818764850e+000
 1.6796781539e+000	 2.6207117230e-001	 2.9331083420e+000
 1.6771478167e+000	 2.7780424907e-001	 2.8785332188e+000
 1.6744618110e+000	 2.9356028938e-001	 2.8180434021e+000
 1.6716191263e+000	 3.0933718910e-001	 2.7515294292e+000
 1.7180222173e+000	 1.5499890536e-001	 3.1106241940e+000
 1.7165289821e+000	 1.7074323870e-001	 3.0942589157e+000
 1.7148858466e+000	 1.8652488620e-001	 3.0727512363e+000
 1.7130915724e+000	 2.0234194904e-001	 3.0460030143e+000
 1.7111449488e+000	 2.1819249339e-001	 3.0139140036e+000
 1.7090447930e+000	 2.3407455079e-001	 2.9763818660e+000
 1.7067899521e+000	 2.4998611855e-001	 2.9333021916e+000
 1.7043793032e+000	 2.6592516013e-001	 2.8845685256e+000
 1.7018117552e+000	 2.8188960568e-001	 2.8300724033e+000
 1.6990862494e+000	 2.9787735246e-001	 2.7697033926e+000
 1.6962017605e+000	 3.1388626541e-001	 2.7033491450e+000
 1.7429210901e+000	 1.5724526631e-001	 3.0665968847e+000
 1.7414062137e+000	 1.7321777839e-001	 3.0497348394e+000
 1.7397392646e+000	 1.8922814542e-001	 3.0278047432e+000
 1.7379189865e+000	 2.0527444106e-001	 3.0007069394e+000
 1.7359441509e+000	 2.2135470344e-001	 2.9683394932e+000
 1.7338135582e+000	 2.3746693559e-001	 2.9305982018e+000
 1.7315260383e+000	 2.5360910577e-001	 2.8873766124e+000
 1.7290804525e+000	 2.6977914796e-001	 2.8385660473e+000
 1.7264756937e+000	 2.8597496228e-001	 2.7840556375e+000
 1.7237106878e+000	 3.0219441554e-001	 2.7237323639e+000
 1.7207843947e+000	 3.1843534172e-001	 2.6574811078e+000
 1.4749580526e+000	 2.7294457862e-001	 3.2574741062e+000
 1.4723106938e+000	 2.8688189364e-001	 3.2133963303e+000
 1.4695233968e+000	 3.0083381848e-001	 3.1621769513e+000
 1.4665953626e+000	 3.1479841525e-001	 3.1037013494e+000
 1.4635258252e+000	 3.2877372006e-001	 3.0378550554e+000
 1.4603140515e+000	 3.4275774362e-001	 2.9645238644e+000
 1.4569593432e+000	 3.5674847188e-001	 2.8835939548e+000
 1.4534610367e+000	 3.7074386670e-001	 2.7949520143e+000
 1.4498185045e+000	 3.8474186652e-001	 2.6984853709e+000
 1.4460311558e+000	 3.9874038711e-001	 2.5940821302e+000
 1.4420984373e+000	 4.1273732227e-001	 2.4816313193e+000
 1.4995406868e+000	 2.7749365493e-001	 3.1792070691e+000
 1.4968492054e+000	 2.9166325853e-001	 3.1351127516e+000
 1.4940154534e+000	 3.0584771546e-001	 3.0843279207e+000
 1.4910386187e+000	 3.2004505551e-001	 3.0267397028e+000
 1.4879179223e+000	 3.3425328206e-001	 2.9622349444e+000
 1.4846526191e+000	 3.4847037268e-001	 2.8907003170e+000
 1.4812419989e+000	 3.6269427974e-001	 2.8120224291e+000
 1.4776853873e+000	 3.7692293114e-001	 2.7260879436e+000
 1.4739821463e+000	 3.9115423097e-001	 2.6327837036e+000
 1.4701316751e+000	 4.0538606023e-001	 2.5319968625e+000
 1.4661334112e+000	 4.1961627764e-001	 2.4236150228e+000
 1.5241233210e+000	 2.8204273124e-001	 3.1060187529e+000
 1.5213877169e+000	 2.9644462343e-001	 3.0619261096e+000
 1.5185075100e+000	 3.1086161243e-001	 3.0115960939e+000
 1.5154818747e+000	 3.2529169576e-001	 2.9549174969e+000
 1.5123100193e+000	 3.3973284406e-001	 2.8917783904e+000
 1.5089911866e+000	 3.5418300174e-001	 2.8220662234e+000
 1.5055246547e+000	 3.6864008761e-001	 2.7456679261e+000
 1.5019097379e+000	 3.8310199559e-001	 2.6624700203e+000
 1.4981457880e+000	 3.9756659541e-001	 2.5723587379e+000
 1.4942321944e+000	 4.1203173334e-001	 2.4752201456e+000
 1.4901683852e+000	 4.2649523301e-001	 2.3709402777e+000
 1.5487059552e+000	 2.8659180755e-001	 3.0374858742e+000
 1.5459262285e+000	 3.0122598832e-001	 2.9934128572e+000
 1.5429995666e+000	 3.1587550941e-001	 2.9435582021e+000
 1.5399251308e+000	 3.3053833602e-001	 2.8878122863e+000
 1.5367021164e+000	 3.4521240607e-001	 2.8260643191e+000
 1.5333297541e+000	 3.5989563080e-001	 2.7582024305e+000
 1.5298073104e+000	 3.7458589548e-001	 2.6841137663e+000
 1.5261340886e+000	 3.8928106004e-001	 2.6036845918e+000
 1.5223094298e+000	 4.0397895985e-001	 2.5168004030e+000
 1.5183327136e+000	 4.1867740646e-001	 2.4233460457e+000
 1.5142033591e+000	 4.3337418838e-001	 2.3232058427e+000
 1.5732885894e+000	 2.9114088386e-001	 2.9732108214e+000
 1.5704647400e+000	 3.0600735321e-001	 2.9291752180e+000
 1.5674916232e+000	 3.2088940638e-001	 2.8798168242e+000
 1.5643683868e+000	 3.3578497627e-001	 2.8250275280e+000
 1.5610942135e+000	 3.5069196807e-001	 2.7646975916e+000
 1.5576683217e+000	 3.6560825986e-001	 2.6987157307e+000
 1.5540899661e+000	 3.8053170334e-001	 2.6269692027e+000
 1.5503584392e+000	 3.9546012448e-001	 2.5493439021e+000
 1.5464730715e+000	 4.1039132430e-001	 2.4657244655e+000
 1.5424332329e+000	 4.2532307958e-001	 2.3759943842e+000
 1.5382383331e+000	 4.4025314375e-001	 2.2800361261e+000
 1.5978712237e+000	 2.9568996017e-001	 2.9128196795e+000
 1.5950032516e+000	 3.1078871811e-001	 2.8688392036e+000
 1.5919836798e+000	 3.2590330335e-001	 2.8199983983e+000
 1.5888116429e+000	 3.4103161652e-001	 2.7661905894e+000
 1.5854863106e+000	 3.5617153007e-001	 2.7073070087e+000
 1.5820068892e+000	 3.7132088892e-001	 2.6432368655e+000
 1.5783726218e+000	 3.8647751121e-001	 2.5738674255e+000
 1.5745827898e+000	 4.0163918893e-001	 2.4990840998e+000
 1.5706367133e+000	 4.1680368874e-001	 2.4187705423e+000
 1.5665337522e+000	 4.3196875270e-001	 2.3328087567e+000
 1.5622733070e+000	 4.4713209913e-001	 2.2410792125e+000
 1.6224538579e+000	 3.0023903648e-001	 2.8559604350e+000
 1.6195417632e+000	 3.1557008300e-001	 2.8120528117e+000
 1.6164757364e+000	 3.3091720033e-001	 2.7637514146e+000
 1.6132548989e+000	 3.4627825678e-001	 2.7109509364e+000
 1.6098784077e+000	 3.6165109207e-001	 2.6535434981e+000
 1.6063454567e+000	 3.7703351798e-001	 2.5914187113e+000
 1.6026552775e+000	 3.9242331907e-001	 2.5244637490e+000
 1.5988071404e+000	 4.0781825337e-001	 2.4525634266e+000
 1.5948003550e+000	 4.2321605318e-001	 2.3756002932e+000
 1.5906342714e+000	 4.3861442582e-001	 2.2934547316e+000
 1.5863082810e+000	 4.5401105450e-001	 2.2060050696e+000
 1.6470364921e+000	 3.0478811279e-001	 2.8023013414e+000
 1.6440802747e+000	 3.2035144789e-001	 2.7584843855e+000
 1.6409677930e+000	 3.3593109730e-001	 2.7107447693e+000
 1.6376981549e+000	 3.5152489703e-001	 2.6589784845e+000
 1.6342705048e+000	 3.6713065407e-001	 2.6030784627e+000
 1.6306840242e+000	 3.8274614704e-001	 2.5429346280e+000
 1.6269379333e+000	 3.9836912694e-001	 2.4784339605e+000
 1.6230314910e+000	 4.1399731782e-001	 2.4094605694e+000
 1.6189639967e+000	 4.2962841762e-001	 2.3358957764e+000
 1.6147347907e+000	 4.4526009894e-001	 2.2576182110e+000
 1.6103432550e+000	 4.6089000987e-001	 2.1745039150e+000
 1.6716191263e+000	 3.0933718910e-001	 2.7515294292e+000
 1.6686187863e+000	 3.2513281279e-001	 2.7078211173e+000
 1.6654598497e+000	 3.4094499428e-001	 2.6606662644e+000
 1.6621414110e+000	 3.5677153728e-001	 2.6099620953e+000
 1.6586626019e+000	 3.7261021607e-001	 2.5556022748e+000
 1.6550225918e+000	 3.8845877610e-001	 2.4974769521e+000
 1.6512205890e+000	 4.0431493480e-001	 2.4354728151e+000
 1.6472558416e+000	 4.2017638226e-001	 2.3694731561e+000
 1.6431276385e+000	 4.3604078206e-001	 2.2993579483e+000
 1.6388353100e+000	 4.5190577206e-001	 2.2250039347e+000
 1.6343782289e+000	 4.6776896524e-001	 2.1462847271e+000
 1.6962017605e+000	 3.1388626541e-001	 2.7033491450e+000
 1.6931572979e+000	 3.2991417768e-001	 2.6597676829e+000
 1.6899519063e+000	 3.4595889125e-001	 2.6132212378e+000
 1.6865846670e+000	 3.6201817754e-001	 2.5636082032e+000
 1.6830546990e+000	 3.7808977807e-001	 2.5108229023e+000
 1.6793611593e+000	 3.9417140516e-001	 2.4547556223e+000
 1.6755032447e+000	 4.1026074266e-001	 2.3952926609e+000
 1.6714801922e+000	 4.2635544671e-001	 2.3323163838e+000
 1.6672912802e+000	 4.4245314651e-001	 2.2657052944e+000
 1.6629358292e+000	 4.5855144518e-001	 2.1953341159e+000
 1.6584132029e+000	 4.7464792061e-001	 2.1210738856e+000
 1.7207843947e+000	 3.1843534172e-001	 2.6574811078e+000
 1.7176958094e+000	 3.3469554257e-001	 2.6140449928e+000
 1.7144439629e+000	 3.5097278822e-001	 2.5681313104e+000
 1.7110279231e+000	 3.6726481779e-001	 2.5196395607e+000
 1.7074467960e+000	 3.8356934007e-001	 2.4684646511e+000
 1.7036997268e+000	 3.9988403422e-001	 2.4144969217e+000
 1.6997859004e+000	 4.1620655053e-001	 2.3576221825e+000
 1.6957045429e+000	 4.3253451115e-001	 2.2977217633e+000
 1.6914549220e+000	 4.4886551095e-001	 2.2346725767e+000
 1.6870363485e+000	 4.6519711830e-001	 2.1683471928e+000
 1.6824481768e+000	 4.8152687598e-001	 2.0986139288e+000
 1.4420984373e+000	 4.1273732227e-001	 2.4816313193e+000
 1.4380198337e+000	 4.2673054465e-001	 2.4074474479e+000
 1.4337948692e+000	 4.4071790656e-001	 2.3309877306e+000
 1.4294231071e+000	 4.5469724075e-001	 2.2522033885e+000
 1.4249041518e+000	 4.6866636131e-001	 2.1710425395e+000
 1.4202376483e+000	 4.8262306456e-001	 2.0874502365e+000
 1.4154232836e+000	 4.9656512994e-001	 2.0013685140e+000
 1.4104607872e+000	 5.1049032095e-001	 1.9127364441e+000
 1.4053499316e+000	 5.2439638615e-001	 1.8214902015e+000
 1.4000905329e+000	 5.3828106007e-001	 1.7275631384e+000
 1.3946824516e+000	 5.5214206433e-001	 1.6308858678e+000
 1.4661334112e+000	 4.1961627764e-001	 2.4236150228e+000
 1.4619868310e+000	 4.3384272040e-001	 2.3543797295e+000
 1.4576914503e+000	 4.4806320500e-001	 2.2812426208e+000
 1.4532468256e+000	 4.6227552809e-001	 2.2041343221e+000
 1.4486525543e+000	 4.7647746733e-001	 2.1229834699e+000
 1.4439082757e+000	 4.9066678230e-001	 2.0377167889e+000
 1.4390136716e+000	 5.0484121544e-001	 1.9482591793e+000
 1.4339684670e+000	 5.1899849297e-001	 1.8545338112e+000
 1.4287724304e+000	 5.3313632591e-001	 1.7564622283e+000
 1.4234253751e+000	 5.4725241107e-001	 1.6539644604e+000
 1.4179271591e+000	 5.6134443207e-001	 1.5469591432e+000
 1.4901683852e+000	 4.2649523301e-001	 2.3709402777e+000
 1.4859538282e+000	 4.4095489614e-001	 2.3064490670e+000
 1.4815880315e+000	 4.5540850345e-001	 2.2364972322e+000
 1.4770705440e+000	 4.6985381544e-001	 2.1609951973e+000
 1.4724009568e+000	 4.8428857336e-001	 2.0798524678e+000
 1.4675789032e+000	 4.9871050005e-001	 1.9929777480e+000
 1.4626040597e+000	 5.1311730094e-001	 1.9002790668e+000
 1.4574761468e+000	 5.2750666498e-001	 1.8016639106e+000
 1.4521949293e+000	 5.4187626568e-001	 1.6970393646e+000
 1.4467602173e+000	 5.5622376207e-001	 1.5863122623e+000
 1.4411718666e+000	 5.7054679981e-001	 1.4693893417e+000
 1.5142033591e+000	 4.3337418838e-001	 2.3232058427e+000
 1.5099208254e+000	 4.4806707189e-001	 2.2632708235e+000
 1.5054846126e+000	 4.6275380189e-001	 2.1963809292e+000
 1.5008942625e+000	 4.7743210279e-001	 2.1224267480e+000
 1.4961493594e+000	 4.9209967938e-001	 2.0412989784e+000
 1.4912495307e+000	 5.0675421779e-001	 1.9528885864e+000
 1.4861944478e+000	 5.2139338644e-001	 1.8570869683e+000
 1.4809838265e+000	 5.3601483700e-001	 1.7537861218e+000
 1.4756174281e+000	 5.5061620545e-001	 1.6428788248e+000
 1.4700950595e+000	 5.6519511307e-001	 1.5242588202e+000
 1.4644165742e+000	 5.7974916755e-001	 1.3978210087e+000
 1.5382383331e+000	 4.4025314375e-001	 2.2800361261e+000
 1.5338878227e+000	 4.5517924763e-001	 2.2244851729e+000
 1.5293811938e+000	 4.7009910033e-001	 2.1605472216e+000
 1.5247179809e+000	 4.8501039013e-001	 2.0880933632e+000
 1.5198977619e+000	 4.9991078540e-001	 2.0069957888e+000
 1.5149201581e+000	 5.1479793553e-001	 1.9171279832e+000
 1.5097848358e+000	 5.2966947193e-001	 1.8183649261e+000
 1.5044915063e+000	 5.4452300902e-001	 1.7105833002e+000
 1.4990399270e+000	 5.5935614522e-001	 1.5936617058e+000
 1.4934299018e+000	 5.7416646408e-001	 1.4674808820e+000
 1.4876612817e+000	 5.8895153529e-001	 1.3319239344e+000
 1.5622733070e+000	 4.4713209913e-001	 2.2410792125e+000
 1.5578548199e+000	 4.6229142338e-001	 2.1897551912e+000
 1.5532777749e+000	 4.7744439878e-001	 2.1286719067e+000
 1.5485416994e+000	 4.9258867748e-001	 2.0576812677e+000
 1.5436461644e+000	 5.0772189142e-001	 1.9766372322e+000
 1.5385907856e+000	 5.2284165328e-001	 1.8853960390e+000
 1.5333752239e+000	 5.3794555743e-001	 1.7838164452e+000
 1.5279991861e+000	 5.5303118103e-001	 1.6717599710e+000
 1.5224624259e+000	 5.6809608499e-001	 1.5490911496e+000
 1.5167647440e+000	 5.8313781508e-001	 1.4156777847e+000
 1.5109059892e+000	 5.9815390303e-001	 1.2713912118e+000
 1.5863082810e+000	 4.5401105450e-001	 2.2060050696e+000
 1.5818218171e+000	 4.6940359912e-001	 2.1587651213e+000
 1.5771743561e+000	 4.8478969722e-001	 2.1004513815e+000
 1.5723654179e+000	 5.0016696483e-001	 2.0308968671e+000
 1.5673945670e+000	 5.1553299745e-001	 1.9499375558e+000
 1.5622614131e+000	 5.3088537102e-001	 1.8574126530e+000
 1.5569656119e+000	 5.4622164294e-001	 1.7531648668e+000
 1.5515068659e+000	 5.6153935305e-001	 1.6370406875e+000
 1.5458849247e+000	 5.7683602476e-001	 1.5088906737e+000
 1.5400995862e+000	 5.9210916608e-001	 1.3685697437e+000
 1.5341506967e+000	 6.0735627077e-001	 1.2159374719e+000
 1.6103432550e+000	 4.6089000987e-001	 2.1745039150e+000
 1.6057888143e+000	 4.7651577487e-001	 2.1312187936e+000
 1.6010709372e+000	 4.9213499566e-001	 2.0756011049e+000
 1.5961891363e+000	 5.0774525217e-001	 2.0074652428e+000
 1.5911429695e+000	 5.2334410347e-001	 1.9266294346e+000
 1.5859320406e+000	 5.3892908877e-001	 1.8329160457e+000
 1.5805560000e+000	 5.5449772844e-001	 1.7261518882e+000
 1.5750145457e+000	 5.7004752507e-001	 1.6061685369e+000
 1.5693074236e+000	 5.8557596453e-001	 1.4728026499e+000
 1.5634344284e+000	 6.0108051709e-001	 1.3258962942e+000
 1.5573954043e+000	 6.1655863851e-001	 1.1652972757e+000
 1.6343782289e+000	 4.6776896524e-001	 2.1462847271e+000
 1.6297558116e+000	 4.8362795061e-001	 2.1068381857e+000
 1.6249675184e+000	 4.9948029411e-001	 2.0538541967e+000
 1.6200128548e+000	 5.1532353952e-001	 1.9871287777e+000
 1.6148913720e+000	 5.3115520949e-001	 1.9064626167e+000
 1.6096026680e+000	 5.4697280651e-001	 1.8116614113e+000
 1.6041463881e+000	 5.6277381394e-001	 1.7025362130e+000
 1.5985222255e+000	 5.7855569709e-001	 1.5789037772e+000
 1.5927299224e+000	 5.9431590430e-001	 1.4405869186e+000
 1.5867692706e+000	 6.1005186809e-001	 1.2874148707e+000
 1.5806401118e+000	 6.2576100625e-001	 1.1238837356e+000
 1.6584132029e+000	 4.7464792061e-001	 2.1210738856e+000
 1.6537228088e+000	 4.9074012636e-001	 2.0853621074e+000
 1.6488640995e+000	 5.0682559255e-001	 2.0349601570e+000
 1.6438365732e+000	 5.2290182687e-001	 1.9696459033e+000
 1.6386397745e+000	 5.3896631552e-001	 1.8892026856e+000
 1.6332732955e+000	 5.5501652426e-001	 1.7934196883e+000
 1.6277367761e+000	 5.7104989944e-001	 1.6820923188e+000
 1.6220299053e+000	 5.8706386911e-001	 1.5550225927e+000
 1.6161524213e+000	 6.0305584408e-001	 1.4120195225e+000
 1.6101041128e+000	 6.1902321909e-001	 1.2528995103e+000
 1.6038848193e+000	 6.3496337399e-001	 1.1356943986e+000
 1.6824481768e+000	 4.8152687598e-001	 2.0986139288e+000
 1.6776898060e+000	 4.9785230211e-001	 2.0665449982e+000
 1.6727606807e+000	 5.1417089100e-001	 2.0186836970e+000
 1.6676602917e+000	 5.3048011422e-001	 1.9547899530e+000
 1.6623881771e+000	 5.4677742155e-001	 1.8746299296e+000
 1.6569439230e+000	 5.6306024200e-001	 1.7779764342e+000
 1.6513271642e+000	 5.7932598494e-001	 1.6646093305e+000
 1.6455375851e+000	 5.9557204113e-001	 1.5343159571e+000
 1.6395749202e+000	 6.1179578385e-001	 1.3868915494e+000
 1.6334389551e+000	 6.2799457010e-001	 1.2389029568e+000
 1.6271295268e+000	 6.4416574173e-001	 1.1463849810e+000
 1.3946824516e+000	 5.5214206433e-001	 1.6308858678e+000
 1.3891255928e+000	 5.6597710858e-001	 1.5771505083e+000
 1.3834199070e+000	 5.7978389160e-001	 1.5010321955e+000
 1.3775653904e+000	 5.9356010237e-001	 1.4023341615e+000
 1.3715620856e+000	 6.0730342120e-001	 1.2808752623e+000
 1.3654100816e+000	 6.2101152078e-001	 1.1364904530e+000
 1.3591095148e+000	 6.3468206740e-001	 1.0514539397e+000
 1.3526605688e+000	 6.4831272205e-001	 9.7824373330e-001
 1.3460634750e+000	 6.6190114160e-001	 8.8320925247e-001
 1.3393185129e+000	 6.7544498003e-001	 7.6645459182e-001
 1.3324260102e+000	 6.8894188956e-001	 6.2810627838e-001
 1.4179271591e+000	 5.6134443207e-001	 1.5469591432e+000
 1.4122776860e+000	 5.7541006039e-001	 1.4818712988e+000
 1.4064769054e+000	 5.8944695646e-001	 1.3960616748e+000
 1.4005248136e+000	 6.0345277075e-001	 1.2893444062e+000
 1.3944214536e+000	 6.1742514488e-001	 1.1615479302e+000
 1.3881669163e+000	 6.3136171280e-001	 1.0645282688e+000
 1.3817613401e+000	 6.4526010186e-001	 1.0087760523e+000
 1.3752049116e+000	 6.5911793409e-001	 9.3278024297e-001
 1.3684978662e+000	 6.7293282730e-001	 8.3663964443e-001
 1.3616404881e+000	 6.8670239636e-001	 7.2047432194e-001
 1.3546331104e+000	 7.0042425438e-001	 5.8442566015e-001
 1.4411718666e+000	 5.7054679981e-001	 1.4693893417e+000
 1.4354297792e+000	 5.8484301220e-001	 1.3934714948e+000
 1.4295339039e+000	 5.9911002132e-001	 1.2984513503e+000
 1.4234842367e+000	 6.1334543912e-001	 1.1841532512e+000
 1.4172808217e+000	 6.2754686857e-001	 1.0704076056e+000
 1.4109237510e+000	 6.4171190481e-001	 1.0289446215e+000
 1.4044131653e+000	 6.5583813632e-001	 9.6875437523e-001
 1.3977492544e+000	 6.6992314612e-001	 8.8993247993e-001
 1.3909322575e+000	 6.8396451299e-001	 7.9259470576e-001
 1.3839624633e+000	 6.9795981269e-001	 6.7687703561e-001
 1.3768402106e+000	 7.1190661921e-001	 5.4293569251e-001
 1.4644165742e+000	 5.7974916755e-001	 1.3978210087e+000
 1.4585818724e+000	 5.9427596401e-001	 1.3115830567e+000
 1.4525909023e+000	 6.0877308618e-001	 1.2078230468e+000
 1.4464436599e+000	 6.2323810749e-001	 1.0863748504e+000
 1.4401401898e+000	 6.3766859226e-001	 1.0429264018e+000
 1.4336805857e+000	 6.5206209682e-001	 9.9548034459e-001
 1.4270649905e+000	 6.6641617078e-001	 9.3085294107e-001
 1.4202935972e+000	 6.8072835815e-001	 8.4915768827e-001
 1.4133666487e+000	 6.9499619869e-001	 7.5052725460e-001
 1.4062844385e+000	 7.0921722903e-001	 6.3511350440e-001
 1.3990473107e+000	 7.2338898403e-001	 5.0308749520e-001
 1.4876612817e+000	 5.8895153529e-001	 1.3319239344e+000
 1.4817339656e+000	 6.0370891582e-001	 1.2358642748e+000
 1.4756479008e+000	 6.1843615104e-001	 1.1238258599e+000
 1.4694030831e+000	 6.3313077587e-001	 1.0546257615e+000
 1.4629995579e+000	 6.4779031595e-001	 1.0170289902e+000
 1.4564374204e+000	 6.6241228884e-001	 9.6363781751e-001
 1.4497168158e+000	 6.7699420523e-001	 8.9456534658e-001
 1.4428379400e+000	 6.9153357019e-001	 8.0994287654e-001
 1.4358010400e+000	 7.0602788438e-001	 7.0991992282e-001
 1.4286064137e+000	 7.2047464536e-001	 5.9466421095e-001
 1.4212544109e+000	 7.3487134886e-001	 4.6436164385e-001
 1.5109059892e+000	 5.9815390303e-001	 1.2713912118e+000
 1.5048860588e+000	 6.1314186763e-001	 1.1659977446e+000
 1.4987048992e+000	 6.2809921590e-001	 1.0676879777e+000
 1.4923625062e+000	 6.4302344424e-001	 1.0372072268e+000
 1.4858589260e+000	 6.5791203963e-001	 9.9225521372e-001
 1.4791942551e+000	 6.7276248085e-001	 9.3294638590e-001
 1.4723686410e+000	 6.8757223969e-001	 8.5941247843e-001
 1.4653822828e+000	 7.0233878223e-001	 7.7180252814e-001
 1.4582354312e+000	 7.1705957007e-001	 6.7028286261e-001
 1.4509283889e+000	 7.3173206170e-001	 5.5503706353e-001
 1.4434615111e+000	 7.4635371369e-001	 4.2626590418e-001
 1.5341506967e+000	 6.0735627077e-001	 1.2159374719e+000
 1.5280381520e+000	 6.2257481944e-001	 1.1016885249e+000
 1.5217618977e+000	 6.3776228076e-001	 1.0595705510e+000
 1.5153219294e+000	 6.5291611261e-001	 1.0204174359e+000
 1.5087182941e+000	 6.6803376332e-001	 9.6816941259e-001
 1.5019510898e+000	 6.8311267287e-001	 9.0296031895e-001
 1.4950204663e+000	 6.9815027415e-001	 8.2494044585e-001
 1.4879266257e+000	 7.1314399426e-001	 7.3427651991e-001
 1.4806698225e+000	 7.2809125577e-001	 6.3115166163e-001
 1.4732503641e+000	 7.4298947803e-001	 5.1576531835e-001
 1.4656686112e+000	 7.5783607852e-001	 3.8833317213e-001
 1.5573954043e+000	 6.1655863851e-001	 1.1652972757e+000
 1.5511902453e+000	 6.3200777125e-001	 1.0874342887e+000
 1.5448188961e+000	 6.4742534562e-001	 1.0515925720e+000
 1.5382813526e+000	 6.6280878099e-001	 1.0038548506e+000
 1.5315776622e+000	 6.7815548701e-001	 9.4435859586e-001
 1.5247079245e+000	 6.9346286488e-001	 8.7325694938e-001
 1.5176722915e+000	 7.0872830861e-001	 7.9071869832e-001
 1.5104709685e+000	 7.2394920630e-001	 6.9692822713e-001
 1.5031042137e+000	 7.3912294146e-001	 5.9208544482e-001
 1.4955723393e+000	 7.5424689437e-001	 4.7640568786e-001
 1.4878757114e+000	 7.6931844334e-001	 3.5011959847e-001
 1.5806401118e+000	 6.2576100625e-001	 1.1238837356e+000
 1.5743423385e+000	 6.4144072306e-001	 1.0890149198e+000
 1.5678758946e+000	 6.5708841048e-001	 1.0433856609e+000
 1.5612407758e+000	 6.7270144936e-001	 9.8713846103e-001
 1.5544370303e+000	 6.8827721070e-001	 9.2043077480e-001
 1.5474647592e+000	 7.0381305690e-001	 8.4343497757e-001
 1.5403241168e+000	 7.1930634307e-001	 7.5633830938e-001
 1.5330153113e+000	 7.3475441833e-001	 6.5934279562e-001
 1.5255386050e+000	 7.5015462716e-001	 5.5266514374e-001
 1.5178943146e+000	 7.6550431070e-001	 4.3653661612e-001
 1.5100828116e+000	 7.8080080817e-001	 3.1120287888e-001
 1.6038848193e+000	 6.3496337399e-001	 1.1356943986e+000
 1.5974944317e+000	 6.5087367487e-001	 1.0899170056e+000
 1.5909328930e+000	 6.6675147534e-001	 1.0345999392e+000
 1.5842001989e+000	 6.8259411774e-001	 9.6990629804e-001
 1.5772963984e+000	 6.9839893439e-001	 8.9601344094e-001
 1.5702215939e+000	 7.1416324891e-001	 8.1311292322e-001
 1.5629759420e+000	 7.2988437753e-001	 7.2141040967e-001
 1.5555596541e+000	 7.4555963037e-001	 6.2112556423e-001
 1.5479729962e+000	 7.6118631286e-001	 5.1249191638e-001
 1.5402162898e+000	 7.7676172704e-001	 3.9575670396e-001
 1.5322899118e+000	 7.9228317300e-001	 2.7118069276e-001
 1.6271295268e+000	 6.4416574173e-001	 1.1463849810e+000
 1.6206465249e+000	 6.6030662669e-001	 1.0898208800e+000
 1.6139898915e+000	 6.7641454021e-001	 1.0249027082e+000
 1.6071596221e+000	 6.9248678611e-001	 9.5181407312e-001
 1.6001557665e+000	 7.0852065808e-001	 8.7075217464e-001
 1.5929784285e+000	 7.2451344093e-001	 7.8192770969e-001
 1.5856277673e+000	 7.4046241198e-001	 6.8556475428e-001
 1.5781039969e+000	 7.5636484241e-001	 5.8190062246e-001
 1.5704073875e+000	 7.7221799855e-001	 4.7118570237e-001
 1.5625382650e+000	 7.8801914338e-001	 3.5368326928e-001
 1.5544970119e+000	 8.0376553783e-001	 2.2966927577e-001
 1.3324260102e+000	 6.8894188956e-001	 6.2810627838e-001
 1.3253863434e+000	 7.0238952194e-001	 5.1360716182e-001
 1.3181999376e+000	 7.1578552965e-001	 4.0277750487e-001
 1.3108672667e+000	 7.2912756712e-001	 2.9587602365e-001
 1.3033888536e+000	 7.4241329201e-001	 1.9316194002e-001
 1.2957652706e+000	 7.5564036645e-001	 9.4894655348e-002
 1.2879971388e+000	 7.6880645833e-001	 1.3334187868e-003
 1.2800851286e+000	 7.8190924254e-001	-8.7263009324e-002
 1.2720299594e+000	 7.9494640225e-001	-1.7063669839e-001
 1.2638323996e+000	 8.0791563023e-001	-2.4853089218e-001
 1.2554932668e+000	 8.2081463007e-001	-3.2069035643e-001
 1.3546331104e+000	 7.0042425438e-001	 5.8442566015e-001
 1.3474761158e+000	 7.1409601397e-001	 4.7217228306e-001
 1.3401699365e+000	 7.2771528847e-001	 3.6347450627e-001
 1.3327150544e+000	 7.4127969323e-001	 2.5859391132e-001
 1.3251120012e+000	 7.5478684687e-001	 1.5779281286e-001
 1.3173613584e+000	 7.6823437256e-001	 6.1333927875e-002
 1.3094637578e+000	 7.8161989930e-001	-3.0519961139e-002
 1.3014198807e+000	 7.9494106324e-001	-1.1750634823e-001
 1.2932304587e+000	 8.0819550895e-001	-1.9936335086e-001
 1.2848962730e+000	 8.2138089073e-001	-2.7583006076e-001
 1.2764181546e+000	 8.3449487390e-001	-3.4664689835e-001
 1.3768402106e+000	 7.1190661921e-001	 5.4293569251e-001
 1.3695658882e+000	 7.2580250600e-001	 4.3261910820e-001
 1.3621399355e+000	 7.3964504730e-001	 3.2575316575e-001
 1.3545628422e+000	 7.5343181935e-001	 2.2260266542e-001
 1.3468351487e+000	 7.6716040174e-001	 1.2343336652e-001
 1.3389574463e+000	 7.8082837866e-001	 2.8511651437e-002
 1.3309303768e+000	 7.9443334027e-001	-6.1895816595e-002
 1.3227546328e+000	 8.0797288395e-001	-1.4752244161e-001
 1.3144309580e+000	 8.2144461565e-001	-2.2810204809e-001
 1.3059601463e+000	 8.3484615123e-001	-3.0336923872e-001
 1.2973430424e+000	 8.4817511773e-001	-3.7305975590e-001
 1.3990473107e+000	 7.2338898403e-001	 5.0308749520e-001
 1.3916556606e+000	 7.3750899804e-001	 3.9440465595e-001
 1.3841099345e+000	 7.5157480613e-001	 2.8907598994e-001
 1.3764106300e+000	 7.6558394547e-001	 1.8736986794e-001
 1.3685582963e+000	 7.7953395660e-001	 8.9555844398e-002
 1.3605535341e+000	 7.9342238477e-001	-4.0956840145e-003
 1.3523969957e+000	 8.0724678124e-001	-9.3313826717e-002
 1.3440893850e+000	 8.2100470466e-001	-1.7782755373e-001
 1.3356314573e+000	 8.3469372236e-001	-2.5736605577e-001
 1.3270240196e+000	 8.4831141173e-001	-3.3165910923e-001
 1.3182679302e+000	 8.6185536157e-001	-4.0043744543e-001
 1.4212544109e+000	 7.3487134886e-001	 4.6436164385e-001
 1.4137454330e+000	 7.4921549007e-001	 3.5701479622e-001
 1.4060799334e+000	 7.6350456496e-001	 2.5293375531e-001
 1.3982584178e+000	 7.7773607159e-001	 1.5239081297e-001
 1.3902814439e+000	 7.9190751147e-001	 5.5659668447e-002
 1.3821496220e+000	 8.0601639088e-001	-3.6984919171e-002
 1.3738636147e+000	 8.2006022222e-001	-1.2526748569e-001
 1.3654241371e+000	 8.3403652537e-001	-2.0891222326e-001
 1.3568319566e+000	 8.4794282906e-001	-2.8764334784e-001
 1.3480878930e+000	 8.6177667223e-001	-3.6118547193e-001
 1.3391928179e+000	 8.7553560540e-001	-4.2926398202e-001
 1.4434615111e+000	 7.4635371369e-001	 4.2626590418e-001
 1.4358352054e+000	 7.6092198210e-001	 3.1996203075e-001
 1.4280499324e+000	 7.7543432378e-001	 2.1684333349e-001
 1.4201062055e+000	 7.8988819771e-001	 1.1718637505e-001
 1.4120045914e+000	 8.0428106634e-001	 2.1269348478e-002
 1.4037457098e+000	 8.1861039699e-001	-7.0628276856e-002
 1.3953302337e+000	 8.3287366319e-001	-1.5822611697e-001
 1.3867588893e+000	 8.4706834608e-001	-2.4124324210e-001
 1.3780324560e+000	 8.6119193577e-001	-3.1939855203e-001
 1.3691517663e+000	 8.7524193274e-001	-3.9241115709e-001
 1.3601177057e+000	 8.8921584923e-001	-4.6000076421e-001
 1.4656686112e+000	 7.5783607852e-001	 3.8833317213e-001
 1.4579249778e+000	 7.7262847414e-001	 2.8278347563e-001
 1.4500199313e+000	 7.8736408261e-001	 1.8034571442e-001
 1.4419539933e+000	 8.0204032383e-001	 8.1301071212e-002
 1.4337277390e+000	 8.1665462121e-001	-1.4067418418e-002
 1.4253417977e+000	 8.3120440310e-001	-1.0547522701e-001
 1.4167968527e+000	 8.4568710416e-001	-1.9263670440e-001
 1.4080936414e+000	 8.6010016679e-001	-2.7526545442e-001
 1.3992329553e+000	 8.7444104247e-001	-3.5307471855e-001
 1.3902156396e+000	 8.8870719324e-001	-4.2577776568e-001
 1.3810425935e+000	 9.0289609307e-001	-4.9308828734e-001
 1.4878757114e+000	 7.6931844334e-001	 3.5011959847e-001
 1.4800147502e+000	 7.8433496617e-001	 2.4503902433e-001
 1.4719899303e+000	 7.9929384144e-001	 1.4300420647e-001
 1.4638017811e+000	 8.1419244995e-001	 4.4301296647e-002
 1.4554508865e+000	 8.2902817608e-001	-5.0781478268e-002
 1.4469378855e+000	 8.4379840921e-001	-1.4195418468e-001
 1.4382634717e+000	 8.5850054514e-001	-2.2892555935e-001
 1.4294283936e+000	 8.7313198750e-001	-3.1140339451e-001
 1.4204334546e+000	 8.8769014918e-001	-3.8909493027e-001
 1.4112795129e+000	 9.0217245375e-001	-4.6170725366e-001
 1.4019674813e+000	 9.1657633690e-001	-5.2894770352e-001
 1.5100828116e+000	 7.8080080817e-001	 3.1120287888e-001
 1.5021045226e+000	 7.9604145821e-001	 2.0630967292e-001
 1.4939599293e+000	 8.1122360028e-001	 1.0440279536e-001
 1.4856495689e+000	 8.2634457607e-001	 5.7737160030e-003
 1.4771740341e+000	 8.4140173095e-001	-8.9283797929e-002
 1.4685339734e+000	 8.5639241532e-001	-1.8047405815e-001
 1.4597300906e+000	 8.7131398611e-001	-2.6749984077e-001
 1.4507631457e+000	 8.8616380821e-001	-3.5006278021e-001
 1.4416339539e+000	 9.0093925588e-001	-4.2786377099e-001
 1.4323433863e+000	 9.1563771425e-001	-5.0060337648e-001
 1.4228923691e+000	 9.3025658074e-001	-5.6798224393e-001
 1.5322899118e+000	 7.9228317300e-001	 2.7118069276e-001
 1.5241942950e+000	 8.0774795024e-001	 1.6619599094e-001
 1.5159299282e+000	 8.2315335911e-001	 6.4144645802e-002
 1.5074973567e+000	 8.3849670220e-001	-3.4676205412e-002
 1.4988971817e+000	 8.5377528582e-001	-1.2996690561e-001
 1.4901300612e+000	 8.6898642143e-001	-2.2142566251e-001
 1.4811967096e+000	 8.8412742709e-001	-3.0874894299e-001
 1.4720978979e+000	 8.9919562892e-001	-3.9163187636e-001
 1.4628344533e+000	 9.1418836259e-001	-4.6976866592e-001
 1.4534072596e+000	 9.2910297476e-001	-5.4285300794e-001
 1.4438172569e+000	 9.4393682457e-001	-6.1057851741e-001
 1.5544970119e+000	 8.0376553783e-001	 2.2966927577e-001
 1.5462840674e+000	 8.1945444228e-001	 1.2431672322e-001
 1.5378999272e+000	 8.3508311794e-001	 2.1850731601e-002
 1.5293451444e+000	 8.5064882832e-001	-7.7425544538e-002
 1.5206203292e+000	 8.6614884069e-001	-1.7320620791e-001
 1.5117261490e+000	 8.8158042754e-001	-2.6518301198e-001
 1.5026633286e+000	 8.9694086807e-001	-3.5304576468e-001
 1.4934326500e+000	 9.1222744964e-001	-4.3648274148e-001
 1.4840349526e+000	 9.2743746930e-001	-5.1518110726e-001
 1.4744711329e+000	 9.4256823526e-001	-5.8882734603e-001
 1.4647421446e+000	 9.5761706841e-001	-6.5710769780e-001
 1.2554932668e+000	 8.2081463007e-001	-3.2069035643e-001
 1.2470134270e+000	 8.3364111751e-001	-4.1006485182e-001
 1.2383937949e+000	 8.4639282171e-001	-5.3861170276e-001
 1.2296353336e+000	 8.5906748650e-001	-6.5935121073e-001
 1.2207390541e+000	 8.7166287168e-001	-7.7210327672e-001
 1.2117060152e+000	 8.8417675429e-001	-8.7670038129e-001
 1.2025373230e+000	 8.9660692987e-001	-9.7298801743e-001
 1.1932341309e+000	 9.0895121369e-001	-1.0608250978e+000
 1.1837976384e+000	 9.2120744201e-001	-1.1400843350e+000
 1.1742290915e+000	 9.3337347334e-001	-1.2106525944e+000
 1.1645297814e+000	 9.4544718961e-001	-1.2724312169e+000
 1.2764181546e+000	 8.3449487390e-001	-3.4664689835e-001
 1.2677969841e+000	 8.4753513614e-001	-4.1275538138e-001
 1.2590336915e+000	 8.6049936873e-001	-4.7173385244e-001
 1.2501292558e+000	 8.7338527793e-001	-5.2337491710e-001
 1.2410847050e+000	 8.8619058620e-001	-6.4286327972e-001
 1.2319011154e+000	 8.9891303353e-001	-7.5660098275e-001
 1.2225796118e+000	 9.1155037870e-001	-8.6332055133e-001
 1.2131213664e+000	 9.2410040058e-001	-9.6286216134e-001
 1.2035275991e+000	 9.3656089938e-001	-1.0550789016e+000
 1.1937995763e+000	 9.4892969790e-001	-1.1398371504e+000
 1.1839386111e+000	 9.6120464277e-001	-1.2170169230e+000
 1.2973430424e+000	 8.4817511773e-001	-3.7305975590e-001
 1.2885805413e+000	 8.6142915476e-001	-4.4102030996e-001
 1.2796735881e+000	 8.7460591576e-001	-5.0330602643e-001
 1.2706231781e+000	 8.8770306937e-001	-5.5969817602e-001
 1.2614303559e+000	 9.0071830073e-001	-6.0998096880e-001
 1.2520962157e+000	 9.1364931276e-001	-6.5394188462e-001
 1.2426219005e+000	 9.2649382753e-001	-7.5306060759e-001
 1.2330086019e+000	 9.3924958748e-001	-8.6376835264e-001
 1.2232575597e+000	 9.5191435675e-001	-9.6832345267e-001
 1.2133700612e+000	 9.6448592246e-001	-1.0665716974e+000
 1.2033474407e+000	 9.7696209593e-001	-1.1583717475e+000
 1.3182679302e+000	 8.6185536157e-001	-4.0043744543e-001
 1.3093640984e+000	 8.7532317338e-001	-4.6998152999e-001
 1.3003134847e+000	 8.8871246279e-001	-5.3524940064e-001
 1.2911171003e+000	 9.0202086081e-001	-5.9601078906e-001
 1.2817760068e+000	 9.1524601526e-001	-6.5203689201e-001
 1.2722913159e+000	 9.2838559200e-001	-7.0310071024e-001
 1.2626641892e+000	 9.4143727636e-001	-7.4897738821e-001
 1.2528958375e+000	 9.5439877437e-001	-7.8944455372e-001
 1.2429875204e+000	 9.6726781412e-001	-8.8189228124e-001
 1.2329405461e+000	 9.8004214701e-001	-9.9297809179e-001
 1.2227562704e+000	 9.9271954909e-001	-1.0986669341e+000
 1.3391928179e+000	 8.7553560540e-001	-4.2926398202e-001
 1.3301476555e+000	 8.8921719201e-001	-5.0014374399e-001
 1.3209533813e+000	 9.0281900981e-001	-5.6809184584e-001
 1.3116110225e+000	 9.1633865225e-001	-6.3286626932e-001
 1.3021216577e+000	 9.2977372978e-001	-6.9422502030e-001
 1.2924864162e+000	 9.4312187124e-001	-7.5192647688e-001
 1.2827064779e+000	 9.5638072519e-001	-8.0572974013e-001
 1.2727830730e+000	 9.6954796126e-001	-8.5539498690e-001
 1.2627174810e+000	 9.8262127148e-001	-9.0068382384e-001
 1.2525110309e+000	 9.9559837157e-001	-9.4135964192e-001
 1.2421651001e+000	 1.0084770023e+000	-1.0400306279e+000
 1.3601177057e+000	 8.8921584923e-001	-4.6000076421e-001
 1.3509312126e+000	 9.0311121063e-001	-5.3198800757e-001
 1.3415932779e+000	 9.1692555684e-001	-6.0233640229e-001
 1.3321049447e+000	 9.3065644369e-001	-6.7079196253e-001
 1.3224673086e+000	 9.4430144431e-001	-7.3709931761e-001
 1.3126815164e+000	 9.5785815047e-001	-8.0100206960e-001
 1.3027487666e+000	 9.7132417402e-001	-8.6224315580e-001
 1.2926703085e+000	 9.8469714816e-001	-9.2056521505e-001
 1.2824474417e+000	 9.9797472885e-001	-9.7571095726e-001
 1.2720815158e+000	 1.0111545961e+000	-1.0274235354e+000
 1.2615739298e+000	 1.0242344554e+000	-1.0754469192e+000
 1.3810425935e+000	 9.0289609307e-001	-4.9308828734e-001
 1.3717147697e+000	 9.1700522925e-001	-5.6597352086e-001
 1.3622331744e+000	 9.3103210387e-001	-6.3846316079e-001
 1.3525988670e+000	 9.4497423513e-001	-7.1029102952e-001
 1.3428129595e+000	 9.5882915883e-001	-7.8118818602e-001
 1.3328766167e+000	 9.7259442971e-001	-8.5088329366e-001
 1.3227910554e+000	 9.8626762285e-001	-9.1910299469e-001
 1.3125575440e+000	 9.9984633505e-001	-9.8557229058e-001
 1.3021774023e+000	 1.0133281862e+000	-1.0500149276e+000
 1.2916520006e+000	 1.0267108207e+000	-1.1121537864e+000
 1.2809827595e+000	 1.0399919086e+000	-1.1717112758e+000
 1.4019674813e+000	 9.1657633690e-001	-5.2894770352e-001
 1.3924983268e+000	 9.3089924788e-001	-6.0253925953e-001
 1.3828730710e+000	 9.4513865090e-001	-6.7693097536e-001
 1.3730927892e+000	 9.5929202657e-001	-7.5184425096e-001
 1.3631586104e+000	 9.7335687336e-001	-8.2699637341e-001
 1.3530717169e+000	 9.8733070895e-001	-9.0210089543e-001
 1.3428333441e+000	 1.0012110717e+000	-9.7686802245e-001
 1.3324447795e+000	 1.0149955219e+000	-1.0510050074e+000
 1.3219073629e+000	 1.0286816436e+000	-1.1242165528e+000
 1.3112224855e+000	 1.0422670452e+000	-1.1962052185e+000
 1.3003915892e+000	 1.0557493617e+000	-1.2666718351e+000
 1.4228923691e+000	 9.3025658074e-001	-5.6798224393e-001
 1.4132818840e+000	 9.4479326650e-001	-6.4210546186e-001
 1.4035129676e+000	 9.5924519792e-001	-7.1817902478e-001
 1.3935867114e+000	 9.7360981801e-001	-7.9591167306e-001
 1.3835042613e+000	 9.8788458789e-001	-8.7500671269e-001
 1.3732668172e+000	 1.0020669882e+000	-9.5516240490e-001
 1.3628756328e+000	 1.0161545205e+000	-1.0360723664e+000
 1.3523320150e+000	 1.0301447088e+000	-1.1174259790e+000
 1.3416373236e+000	 1.0440351009e+000	-1.1989088085e+000
 1.3307929704e+000	 1.0578232698e+000	-1.2802030314e+000
 1.3198004189e+000	 1.0715068149e+000	-1.3609878682e+000
 1.4438172569e+000	 9.4393682457e-001	-6.1057851741e-001
 1.4340654411e+000	 9.5868728513e-001	-6.8507498655e-001
 1.4241528642e+000	 9.7335174495e-001	-7.6262823827e-001
 1.4140806337e+000	 9.8792760946e-001	-8.4293411000e-001
 1.4038499122e+000	 1.0024123024e+000	-9.2568170985e-001
 1.3934619174e+000	 1.0168032674e+000	-1.0105538181e+000
 1.3829179215e+000	 1.0310979693e+000	-1.0972273007e+000
 1.3722192506e+000	 1.0452938957e+000	-1.1853735350e+000
 1.3613672842e+000	 1.0593885583e+000	-1.2746588450e+000
 1.3503634552e+000	 1.0733794943e+000	-1.3647449476e+000
 1.3392092486e+000	 1.0872642681e+000	-1.4552894070e+000
 1.4647421446e+000	 9.5761706841e-001	-6.5710769780e-001
 1.4548489982e+000	 9.7258130376e-001	-7.3183455409e-001
 1.4447927608e+000	 9.8745829198e-001	-8.1068259911e-001
 1.4345745559e+000	 1.0022454009e+000	-8.9333451767e-001
 1.4241955631e+000	 1.0169400169e+000	-9.7946499591e-001
 1.4136570177e+000	 1.0315395467e+000	-1.0687411351e+000
 1.4029602102e+000	 1.0460414182e+000	-1.1608228792e+000
 1.3921064861e+000	 1.0604430826e+000	-1.2553634563e+000
 1.3810972449e+000	 1.0747420157e+000	-1.3520098321e+000
 1.3699339401e+000	 1.0889357189e+000	-1.4504031751e+000
 1.3586180783e+000	 1.1030217212e+000	-1.5501793323e+000
 1.1645297814e+000	 9.4544718961e-001	-1.2724312169e+000
 1.1547010445e+000	 9.5742649739e-001	-1.3295532348e+000
 1.1447442616e+000	 9.6930932910e-001	-1.3855880572e+000
 1.1346608574e+000	 9.8109364418e-001	-1.4404182534e+000
 1.1244522996e+000	 9.9277743021e-001	-1.4939342549e+000
 1.1141200983e+000	 1.0043587041e+000	-1.5460345738e+000
 1.1036658055e+000	 1.0158355131e+000	-1.5966259985e+000
 1.0930910140e+000	 1.0272059361e+000	-1.6456237632e+000
 1.0823973566e+000	 1.0384680844e+000	-1.6929516946e+000
 1.0715865057e+000	 1.0496201031e+000	-1.7385423322e+000
 1.0606601718e+000	 1.0606601718e+000	-1.7823370231e+000
 1.1839386111e+000	 9.6120464277e-001	-1.2170169230e+000
 1.1739460619e+000	 9.7338360568e-001	-1.2865797736e+000
 1.1638233327e+000	 9.8546448459e-001	-1.3528980183e+000
 1.1535718717e+000	 9.9744520492e-001	-1.4158645275e+000
 1.1431931713e+000	 1.0093237207e+000	-1.4753825067e+000
 1.1326887666e+000	 1.0210980158e+000	-1.5313657119e+000
 1.1220602356e+000	 1.0327661050e+000	-1.5837386370e+000
 1.1113091975e+000	 1.0443260351e+000	-1.6324366731e+000
 1.1004373125e+000	 1.0557758859e+000	-1.6774062383e+000
 1.0894462808e+000	 1.0671137715e+000	-1.7186048794e+000
 1.0783378413e+000	 1.0783378413e+000	-1.7560013433e+000
 1.2033474407e+000	 9.7696209593e-001	-1.1583717475e+000
 1.1931910793e+000	 9.8934071397e-001	-1.2413277916e+000
 1.1829024037e+000	 1.0016196401e+000	-1.3189094968e+000
 1.1724828860e+000	 1.0137967657e+000	-1.3910194474e+000
 1.1619340429e+000	 1.0258700112e+000	-1.4575730387e+000
 1.1512574349e+000	 1.0378373276e+000	-1.5184986902e+000
 1.1404546657e+000	 1.0496966969e+000	-1.5737380255e+000
 1.1295273811e+000	 1.0614461340e+000	-1.6232460210e+000
 1.1184772685e+000	 1.0730836873e+000	-1.6669911216e+000
 1.1073060559e+000	 1.0846074399e+000	-1.7049553223e+000
 1.0960155108e+000	 1.0960155108e+000	-1.7371342176e+000
 1.2227562704e+000	 9.9271954909e-001	-1.0986669341e+000
 1.2124360967e+000	 1.0052978223e+000	-1.1959333364e+000
 1.2019814747e+000	 1.0177747956e+000	-1.2857199583e+000
 1.1913939003e+000	 1.0301483264e+000	-1.3679385222e+000
 1.1806749146e+000	 1.0424163017e+000	-1.4425160432e+000
 1.1698261033e+000	 1.0545766393e+000	-1.5093950400e+000
 1.1588490958e+000	 1.0666272888e+000	-1.5685337091e+000
 1.1477455647e+000	 1.0785662329e+000	-1.6199060632e+000
 1.1365172244e+000	 1.0903914887e+000	-1.6635020323e+000
 1.1251658309e+000	 1.1021011083e+000	-1.6993275275e+000
 1.1136931804e+000	 1.1136931804e+000	-1.7274044677e+000
 1.2421651001e+000	 1.0084770023e+000	-1.0400306279e+000
 1.2316811141e+000	 1.0212549306e+000	-1.1524919976e+000
 1.2210605457e+000	 1.0339299511e+000	-1.2553892134e+000
 1.2103049146e+000	 1.0464998871e+000	-1.3486425706e+000
 1.1994157862e+000	 1.0589625922e+000	-1.4321901466e+000
 1.1883947716e+000	 1.0713159510e+000	-1.5059880106e+000
 1.1772435259e+000	 1.0835578807e+000	-1.5700103925e+000
 1.1659637482e+000	 1.0956863319e+000	-1.6242498119e+000
 1.1545571804e+000	 1.1076992901e+000	-1.6687171654e+000
 1.1430256060e+000	 1.1195947767e+000	-1.7034417727e+000
 1.1313708499e+000	 1.1313708499e+000	-1.7284713811e+000
 1.2615739298e+000	 1.0242344554e+000	-1.0754469192e+000
 1.2509261315e+000	 1.0372120388e+000	-1.1202999277e+000
 1.2401396168e+000	 1.0500851065e+000	-1.2299423144e+000
 1.2292159289e+000	 1.0628514479e+000	-1.3351203897e+000
 1.2181566579e+000	 1.0755088827e+000	-1.4285448382e+000
 1.2069634399e+000	 1.0880552628e+000	-1.5101847449e+000
 1.1956379560e+000	 1.1004884726e+000	-1.5800298502e+000
 1.1841819318e+000	 1.1128064308e+000	-1.6380906698e+000
 1.1725971363e+000	 1.1250070915e+000	-1.6843985690e+000
 1.1608853811e+000	 1.1370884451e+000	-1.7190057918e+000
 1.1490485194e+000	 1.1490485194e+000	-1.7419854438e+000
 1.2809827595e+000	 1.0399919086e+000	-1.1717112758e+000
 1.2701711489e+000	 1.0531691471e+000	-1.2332925035e+000
 1.2592186878e+000	 1.0662402620e+000	-1.2811789160e+000
 1.2481269432e+000	 1.0792030086e+000	-1.3293311802e+000
 1.2368975296e+000	 1.0920551733e+000	-1.4335026769e+000
 1.2255321082e+000	 1.1047945745e+000	-1.5238682572e+000
 1.2140323861e+000	 1.1174190645e+000	-1.6004326639e+000
 1.2024001154e+000	 1.1299265297e+000	-1.6632239153e+000
 1.1906370923e+000	 1.1423148929e+000	-1.7122933675e+000
 1.1787451562e+000	 1.1545821135e+000	-1.7477157259e+000
 1.1667261890e+000	 1.1667261890e+000	-1.7695890079e+000
 1.3003915892e+000	 1.0557493617e+000	-1.2666718351e+000
 1.2894161663e+000	 1.0691262554e+000	-1.3457399845e+000
 1.2782977588e+000	 1.0823954175e+000	-1.4093813441e+000
 1.2670379575e+000	 1.0955545694e+000	-1.4574530654e+000
 1.2556384012e+000	 1.1086014638e+000	-1.4898257442e+000
 1.2441007765e+000	 1.1215338863e+000	-1.5488992339e+000
 1.2324268162e+000	 1.1343496563e+000	-1.6330398040e+000
 1.2206182989e+000	 1.1470466287e+000	-1.7014280556e+000
 1.2086770482e+000	 1.1596226943e+000	-1.7541348750e+000
 1.1966049313e+000	 1.1720757818e+000	-1.7912569874e+000
 1.1844038585e+000	 1.1844038585e+000	-1.8129168979e+000
 1.3198004189e+000	 1.0715068149e+000	-1.3609878682e+000
 1.3086611837e+000	 1.0850833637e+000	-1.4582743599e+000
 1.2973768299e+000	 1.0985505730e+000	-1.5384372604e+000
 1.2859489718e+000	 1.1119061301e+000	-1.6013378224e+000
 1.2743792729e+000	 1.1251477543e+000	-1.6468523925e+000
 1.2626694448e+000	 1.1382731980e+000	-1.6748726933e+000
 1.2508212463e+000	 1.1512802482e+000	-1.6853060848e+000
 1.2388364825e+000	 1.1641667276e+000	-1.7544660592e+000
 1.2267170042e+000	 1.1769304957e+000	-1.8116436115e+000
 1.2144647064e+000	 1.1895694502e+000	-1.8513050499e+000
 1.2020815280e+000	 1.2020815280e+000	-1.8735969647e+000
 1.3392092486e+000	 1.0872642681e+000	-1.4552894070e+000
 1.3279062012e+000	 1.1010404720e+000	-1.5715001710e+000
 1.3164559009e+000	 1.1147057285e+000	-1.6689238635e+000
 1.3048599860e+000	 1.1282576908e+000	-1.7474253212e+000
 1.2931201445e+000	 1.1416940448e+000	-1.8068861030e+000
 1.2812381131e+000	 1.1550125097e+000	-1.8472047755e+000
 1.2692156764e+000	 1.1682108401e+000	-1.8682971747e+000
 1.2570546661e+000	 1.1812868266e+000	-1.8700966444e+000
 1.2447569601e+000	 1.1942382971e+000	-1.8865282292e+000
 1.2323244815e+000	 1.2070631186e+000	-1.9295261678e+000
 1.2197591976e+000	 1.2197591976e+000	-1.9532505907e+000
 1.3586180783e+000	 1.1030217212e+000	-1.5501793323e+000
 1.3471512186e+000	 1.1169975803e+000	-1.6859964717e+000
 1.3355349719e+000	 1.1308608840e+000	-1.8013946309e+000
 1.3237710003e+000	 1.1446092516e+000	-1.8962417198e+000
 1.3118610162e+000	 1.1582403353e+000	-1.9704239798e+000
 1.2998067814e+000	 1.1717518215e+000	-2.0238462729e+000
 1.2876101065e+000	 1.1851414320e+000	-2.0564323440e+000
 1.2752728496e+000	 1.1984069255e+000	-2.0681250587e+000
 1.2627969161e+000	 1.2115460986e+000	-2.0588866138e+000
 1.2501842566e+000	 1.2245567870e+000	-2.0286987212e+000
 1.2374368671e+000	 1.2374368671e+000	-2.0534931518e+000
 1.0606601718e+000	 1.0606601718e+000	-1.7823370231e+000
 1.0496201031e+000	 1.0715865057e+000	-1.8506406889e+000
 1.0384680844e+000	 1.0823973566e+000	-1.9120941800e+000
 1.0272059361e+000	 1.0930910140e+000	-1.9667311226e+000
 1.0158355131e+000	 1.1036658055e+000	-2.0145996103e+000
 1.0043587041e+000	 1.1141200983e+000	-2.0557620870e+000
 9.9277743021e-001	 1.1244522996e+000	-2.0902951960e+000
 9.8109364418e-001	 1.1346608574e+000	-2.1182895976e+000
 9.6930932910e-001	 1.1447442616e+000	-2.1398497535e+000
 9.5742649739e-001	 1.1547010445e+000	-2.1550936805e+000
 9.4544718961e-001	 1.1645297814e+000	-2.1641526727e+000
 1.0783378413e+000	 1.0783378413e+000	-1.7560013433e+000
 1.0671137715e+000	 1.0894462808e+000	-1.8194287043e+000
 1.0557758859e+000	 1.1004373125e+000	-1.8755019238e+000
 1.0443260351e+000	 1.1113091975e+000	-1.9242710085e+000
 1.0327661050e+000	 1.1220602356e+000	-1.9658013828e+000
 1.0210980158e+000	 1.1326887666e+000	-2.0001737506e+000
 1.0093237207e+000	 1.1431931713e+000	-2.0274839214e+000
 9.9744520492e-001	 1.1535718717e+000	-2.0478426021e+000
 9.8546448459e-001	 1.1638233327e+000	-2.0613751545e+000
 9.7338360568e-001	 1.1739460619e+000	-2.0682213201e+000
 9.6120464277e-001	 1.1839386111e+000	-2.0685349118e+000
 1.0960155108e+000	 1.0960155108e+000	-1.7371342176e+000
 1.0846074399e+000	 1.1073060559e+000	-1.7960395564e+000
 1.0730836873e+000	 1.1184772685e+000	-1.8470622171e+000
 1.0614461340e+000	 1.1295273811e+000	-1.8902685010e+000
 1.0496966969e+000	 1.1404546657e+000	-1.9257411162e+000
 1.0378373276e+000	 1.1512574349e+000	-1.9535790172e+000
 1.0258700112e+000	 1.1619340429e+000	-1.9738972081e+000
 1.0137967657e+000	 1.1724828860e+000	-1.9868265084e+000
 1.0016196401e+000	 1.1829024037e+000	-1.9925132834e+000
 9.8934071397e-001	 1.1931910793e+000	-1.9911191398e+000
 9.7696209593e-001	 1.2033474407e+000	-1.9828205857e+000
 1.1136931804e+000	 1.1136931804e+000	-1.7274044677e+000
 1.1021011083e+000	 1.1251658309e+000	-1.7821142557e+000
 1.0903914887e+000	 1.1365172244e+000	-1.8283873192e+000
 1.0785662329e+000	 1.1477455647e+000	-1.8663061841e+000
 1.0666272888e+000	 1.1588490958e+000	-1.8959708108e+000
 1.0545766393e+000	 1.1698261033e+000	-1.9174984124e+000
 1.0424163017e+000	 1.1806749146e+000	-1.9310232338e+000
 1.0301483264e+000	 1.1913939003e+000	-1.9366962921e+000
 1.0177747956e+000	 1.2019814747e+000	-1.9346850795e+000
 1.0052978223e+000	 1.2124360967e+000	-1.9251732283e+000
 9.9271954909e-001	 1.2227562704e+000	-1.9083601402e+000
 1.1313708499e+000	 1.1313708499e+000	-1.7284713811e+000
 1.1195947767e+000	 1.1430256060e+000	-1.7792859544e+000
 1.1076992901e+000	 1.1545571804e+000	-1.8210833158e+000
 1.0956863319e+000	 1.1659637482e+000	-1.8539621598e+000
 1.0835578807e+000	 1.1772435259e+000	-1.8780396832e+000
 1.0713159510e+000	 1.1883947716e+000	-1.8934513814e+000
 1.0589625922e+000	 1.1994157862e+000	-1.9003508041e+000
 1.0464998871e+000	 1.2103049146e+000	-1.8989092691e+000
 1.0339299511e+000	 1.2210605457e+000	-1.8893155371e+000
 1.0212549306e+000	 1.2316811141e+000	-1.8717754472e+000
 1.0084770023e+000	 1.2421651001e+000	-1.8465115132e+000
 1.1490485194e+000	 1.1490485194e+000	-1.7419854438e+000
 1.1370884451e+000	 1.1608853811e+000	-1.7891805514e+000
 1.1250070915e+000	 1.1725971363e+000	-1.8267505942e+000
 1.1128064308e+000	 1.1841819318e+000	-1.8548103931e+000
 1.1004884726e+000	 1.1956379560e+000	-1.8734943799e+000
 1.0880552628e+000	 1.2069634399e+000	-1.8829563723e+000
 1.0755088827e+000	 1.2181566579e+000	-1.8833693044e+000
 1.0628514479e+000	 1.2292159289e+000	-1.8749249152e+000
 1.0500851065e+000	 1.2401396168e+000	-1.8578333943e+000
 1.0372120388e+000	 1.2509261315e+000	-1.8351909466e+000
 1.0242344554e+000	 1.2615739298e+000	-1.8334881329e+000
 1.1667261890e+000	 1.1667261890e+000	-1.7695890079e+000
 1.1545821135e+000	 1.1787451562e+000	-1.8134172414e+000
 1.1423148929e+000	 1.1906370923e+000	-1.8469842744e+000
 1.1299265297e+000	 1.2024001154e+000	-1.8704210251e+000
 1.1174190645e+000	 1.2140323861e+000	-1.8838791729e+000
 1.1047945745e+000	 1.2255321082e+000	-1.8875309117e+000
 1.0920551733e+000	 1.2368975296e+000	-1.8815686560e+000
 1.0792030086e+000	 1.2481269432e+000	-1.8662047030e+000
 1.0662402620e+000	 1.2592186878e+000	-1.8766666325e+000
 1.0531691471e+000	 1.2701711489e+000	-1.8834962176e+000
 1.0399919086e+000	 1.2809827595e+000	-1.8794181904e+000
 1.1844038585e+000	 1.1844038585e+000	-1.8129168979e+000
 1.1720757818e+000	 1.1966049313e+000	-1.8536090153e+000
 1.1596226943e+000	 1.2086770482e+000	-1.8833746029e+000
 1.1470466287e+000	 1.2206182989e+000	-1.9023606587e+000
 1.1343496563e+000	 1.2324268162e+000	-1.9107361360e+000
 1.1215338863e+000	 1.2441007765e+000	-1.9086916730e+000
 1.1086014638e+000	 1.2556384012e+000	-1.9216685129e+000
 1.0955545694e+000	 1.2670379575e+000	-1.9499070497e+000
 1.0823954175e+000	 1.2782977588e+000	-1.9667866161e+000
 1.0691262554e+000	 1.2894161663e+000	-1.9722285696e+000
 1.0557493617e+000	 1.3003915892e+000	-1.9661728327e+000
 1.2020815280e+000	 1.2020815280e+000	-1.8735969647e+000
 1.1895694502e+000	 1.2144647064e+000	-1.9113631167e+000
 1.1769304957e+000	 1.2267170042e+000	-1.9375073104e+000
 1.1641667276e+000	 1.2388364825e+000	-1.9521926188e+000
 1.1512802482e+000	 1.2508212463e+000	-1.9597480518e+000
 1.1382731980e+000	 1.2626694448e+000	-2.0118699978e+000
 1.1251477543e+000	 1.2743792729e+000	-2.0522260866e+000
 1.1119061301e+000	 1.2859489718e+000	-2.0807027819e+000
 1.0985505730e+000	 1.2973768299e+000	-2.0972054530e+000
 1.0850833637e+000	 1.3086611837e+000	-2.1016585843e+000
 1.0715068149e+000	 1.3198004189e+000	-2.0940059510e+000
 1.2197591976e+000	 1.2197591976e+000	-1.9532505907e+000
 1.2070631186e+000	 1.2323244815e+000	-1.9882814579e+000
 1.1942382971e+000	 1.2447569601e+000	-2.0109639396e+000
 1.1812868266e+000	 1.2570546661e+000	-2.0605388656e+000
 1.1682108401e+000	 1.2692156764e+000	-2.1268568336e+000
 1.1550125097e+000	 1.2812381131e+000	-2.1809052644e+000
 1.1416940448e+000	 1.2931201445e+000	-2.2225523932e+000
 1.1282576908e+000	 1.3048599860e+000	-2.2516858550e+000
 1.1147057285e+000	 1.3164559009e+000	-2.2682129307e+000
 1.1010404720e+000	 1.3279062012e+000	-2.2720607599e+000
 1.0872642681e+000	 1.3392092486e+000	-2.2631765187e+000
 1.2374368671e+000	 1.2374368671e+000	-2.0534931518e+000
 1.2245567870e+000	 1.2501842566e+000	-2.0870514751e+000
 1.2115460986e+000	 1.2627969161e+000	-2.1817545189e+000
 1.1984069255e+000	 1.2752728496e+000	-2.2638591023e+000
 1.1851414320e+000	 1.2876101065e+000	-2.3331939583e+000
 1.1717518215e+000	 1.2998067814e+000	-2.3896073666e+000
 1.1582403353e+000	 1.3118610162e+000	-2.4329674742e+000
 1.1446092516e+000	 1.3237710003e+000	-2.4631625808e+000
 1.1308608840e+000	 1.3355349719e+000	-2.4801013912e+000
 1.1169975803e+000	 1.3471512186e+000	-2.4837132313e+000
 1.1030217212e+000	 1.3586180783e+000	-2.4739482290e+000
 9.4544718961e-001	 1.1645297814e+000	-2.1641526727e+000
 9.3337347334e-001	 1.1742290915e+000	-2.2119482407e+000
 9.2120744201e-001	 1.1837976384e+000	-2.2508061469e+000
 9.0895121369e-001	 1.1932341309e+000	-2.2809609077e+000
 8.9660692987e-001	 1.2025373230e+000	-2.3026623536e+000
 8.8417675429e-001	 1.2117060152e+000	-2.3161751181e+000
 8.7166287168e-001	 1.2207390541e+000	-2.3217780977e+000
 8.5906748650e-001	 1.2296353336e+000	-2.3197638847e+000
 8.4639282171e-001	 1.2383937949e+000	-2.3104381740e+000
 8.3364111751e-001	 1.2470134270e+000	-2.2941191458e+000
 8.2081463007e-001	 1.2554932668e+000	-2.2577475554e+000
 9.6120464277e-001	 1.1839386111e+000	-2.0685349118e+000
 9.4892969790e-001	 1.1937995763e+000	-2.1104901742e+000
 9.3656089938e-001	 1.2035275991e+000	-2.1440911073e+000
 9.2410040058e-001	 1.2131213664e+000	-2.1695766434e+000
 9.1155037870e-001	 1.2225796118e+000	-2.1872009647e+000
 8.9891303353e-001	 1.2319011154e+000	-2.1972329794e+000
 8.8619058620e-001	 1.2410847050e+000	-2.1999557678e+000
 8.7338527793e-001	 1.2501292558e+000	-2.1955442910e+000
 8.6049936873e-001	 1.2590336915e+000	-2.1742465141e+000
 8.4753513614e-001	 1.2677969841e+000	-2.1427671823e+000
 8.3449487390e-001	 1.2764181546e+000	-2.1012260443e+000
 9.7696209593e-001	 1.2033474407e+000	-1.9828205857e+000
 9.6448592246e-001	 1.2133700612e+000	-2.0181152937e+000
 9.5191435675e-001	 1.2232575597e+000	-2.0455870668e+000
 9.3924958748e-001	 1.2330086019e+000	-2.0654800466e+000
 9.2649382753e-001	 1.2426219005e+000	-2.0780536109e+000
 9.1364931276e-001	 1.2520962157e+000	-2.0840362973e+000
 9.0071830073e-001	 1.2614303559e+000	-2.0827573981e+000
 8.8770306937e-001	 1.2706231781e+000	-2.0714188206e+000
 8.7460591576e-001	 1.2796735881e+000	-2.0500940493e+000
 8.6142915476e-001	 1.2885805413e+000	-2.0188739238e+000
 8.4817511773e-001	 1.2973430424e+000	-1.9778664878e+000
 9.9271954909e-001	 1.2227562704e+000	-1.9083601402e+000
 9.8004214701e-001	 1.2329405461e+000	-1.9361818951e+000
 9.6726781412e-001	 1.2429875204e+000	-1.9566607671e+000
 9.5439877437e-001	 1.2528958375e+000	-1.9737473759e+000
 9.4143727636e-001	 1.2626641892e+000	-1.9908917534e+000
 9.2838559200e-001	 1.2722913159e+000	-1.9981704961e+000
 9.1524601526e-001	 1.2817760068e+000	-1.9956106403e+000
 9.0202086081e-001	 1.2911171003e+000	-1.9832567688e+000
 8.8871246279e-001	 1.3003134847e+000	-1.9611709353e+000
 8.7532317338e-001	 1.3093640984e+000	-1.9294325578e+000
 8.6185536157e-001	 1.3182679302e+000	-1.8881382825e+000
 1.0084770023e+000	 1.2421651001e+000	-1.8465115132e+000
 9.9559837157e-001	 1.2525110309e+000	-1.8716760972e+000
 9.8262127148e-001	 1.2627174810e+000	-1.9056556531e+000
 9.6954796126e-001	 1.2727830730e+000	-1.9300359672e+000
 9.5638072519e-001	 1.2827064779e+000	-1.9447976475e+000
 9.4312187124e-001	 1.2924864162e+000	-1.9499388909e+000
 9.2977372978e-001	 1.3021216577e+000	-1.9454754833e+000
 9.1633865225e-001	 1.3116110225e+000	-1.9314407700e+000
 9.0281900981e-001	 1.3209533813e+000	-1.9078855950e+000
 8.8921719201e-001	 1.3301476555e+000	-1.8748782099e+000
 8.7553560540e-001	 1.3391928179e+000	-1.8325041534e+000
 1.0242344554e+000	 1.2615739298e+000	-1.8334881329e+000
 1.0111545961e+000	 1.2720815158e+000	-1.8734565221e+000
 9.9797472885e-001	 1.2824474417e+000	-1.9040988932e+000
 9.8469714816e-001	 1.2926703085e+000	-1.9253671412e+000
 9.7132417402e-001	 1.3027487666e+000	-1.9372307154e+000
 9.5785815047e-001	 1.3126815164e+000	-1.9396766681e+000
 9.4430144431e-001	 1.3224673086e+000	-1.9327096710e+000
 9.3065644369e-001	 1.3321049447e+000	-1.9163520017e+000
 9.1692555684e-001	 1.3415932779e+000	-1.8906434988e+000
 9.0311121063e-001	 1.3509312126e+000	-1.8556414861e+000
 8.8921584923e-001	 1.3601177057e+000	-1.8114206666e+000
 1.0399919086e+000	 1.2809827595e+000	-1.8794181904e+000
 1.0267108207e+000	 1.2916520006e+000	-1.9154423718e+000
 1.0133281862e+000	 1.3021774023e+000	-1.9423351095e+000
 9.9984633505e-001	 1.3125575440e+000	-1.9600371610e+000
 9.8626762285e-001	 1.3227910554e+000	-1.9685068693e+000
 9.7259442971e-001	 1.3328766167e+000	-1.9677202279e+000
 9.5882915883e-001	 1.3428129595e+000	-1.9576709148e+000
 9.4497423513e-001	 1.3525988670e+000	-1.9383702945e+000
 9.3103210387e-001	 1.3622331744e+000	-1.9098473884e+000
 9.1700522925e-001	 1.3717147697e+000	-1.8721488148e+000
 9.0289609307e-001	 1.3810425935e+000	-1.8253386965e+000
 1.0557493617e+000	 1.3003915892e+000	-1.9661728327e+000
 1.0422670452e+000	 1.3112224855e+000	-1.9978982752e+000
 1.0286816436e+000	 1.3219073629e+000	-2.0206459650e+000
 1.0149955219e+000	 1.3324447795e+000	-2.0343455261e+000
 1.0012110717e+000	 1.3428333441e+000	-2.0389442332e+000
 9.8733070895e-001	 1.3530717169e+000	-2.0344070932e+000
 9.7335687336e-001	 1.3631586104e+000	-2.0207168961e+000
 9.5929202657e-001	 1.3730927892e+000	-1.9978742326e+000
 9.4513865090e-001	 1.3828730710e+000	-1.9658974804e+000
 9.3089924788e-001	 1.3924983268e+000	-1.9248227585e+000
 9.1657633690e-001	 1.4019674813e+000	-1.8747038498e+000
 1.0715068149e+000	 1.3198004189e+000	-2.0940059510e+000
 1.0578232698e+000	 1.3307929704e+000	-2.1210935755e+000
 1.0440351009e+000	 1.3416373236e+000	-2.1393170092e+000
 1.0301447088e+000	 1.3523320150e+000	-2.1485947340e+000
 1.0161545205e+000	 1.3628756328e+000	-2.1488629804e+000
 1.0020669882e+000	 1.3732668172e+000	-2.1400758274e+000
 9.8788458789e-001	 1.3835042613e+000	-2.1222052683e+000
 9.7360981801e-001	 1.3935867114e+000	-2.0952412456e+000
 9.5924519792e-001	 1.4035129676e+000	-2.0591916518e+000
 9.4479326650e-001	 1.4132818840e+000	-2.0140822986e+000
 9.3025658074e-001	 1.4228923691e+000	-1.9599568536e+000
 1.0872642681e+000	 1.3392092486e+000	-2.2631765187e+000
 1.0733794943e+000	 1.3503634552e+000	-2.2853019881e+000
 1.0593885583e+000	 1.3613672842e+000	-2.2986373969e+000
 1.0452938957e+000	 1.3722192506e+000	-2.3030900630e+000
 1.0310979693e+000	 1.3829179215e+000	-2.2985851851e+000
 1.0168032674e+000	 1.3934619174e+000	-2.2850659587e+000
 1.0024123024e+000	 1.4038499122e+000	-2.2624936592e+000
 9.8792760946e-001	 1.4140806337e+000	-2.2308476922e+000
 9.7335174495e-001	 1.4241528642e+000	-2.1901256099e+000
 9.5868728513e-001	 1.4340654411e+000	-2.1403430944e+000
 9.4393682457e-001	 1.4438172569e+000	-2.0815339084e+000
 1.1030217212e+000	 1.3586180783e+000	-2.4739482290e+000
 1.0889357189e+000	 1.3699339401e+000	-2.4908012883e+000
 1.0747420157e+000	 1.3810972449e+000	-2.4988996298e+000
 1.0604430826e+000	 1.3921064861e+000	-2.4981393738e+000
 1.0460414182e+000	 1.4029602102e+000	-2.4884346862e+000
 1.0315395467e+000	 1.4136570177e+000	-2.4697179115e+000
 1.0169400169e+000	 1.4241955631e+000	-2.4419396726e+000
 1.0022454009e+000	 1.4345745559e+000	-2.4050689367e+000
 9.8745829198e-001	 1.4447927608e+000	-2.3590930470e+000
 9.7258130376e-001	 1.4548489982e+000	-2.3040177204e+000
 9.5761706841e-001	 1.4647421446e+000	-2.2398670118e+000
 8.2081463007e-001	 1.2554932668e+000	-2.2577475554e+000
 8.0791563023e-001	 1.2638323996e+000	-2.2768718144e+000
 7.9494640225e-001	 1.2720299594e+000	-2.2898124602e+000
 7.8190924254e-001	 1.2800851286e+000	-2.2967053147e+000
 7.6880645833e-001	 1.2879971388e+000	-2.2976998145e+000
 7.5564036645e-001	 1.2957652706e+000	-2.2929587572e+000
 7.4241329201e-001	 1.3033888536e+000	-2.2826580269e+000
 7.2912756712e-001	 1.3108672667e+000	-2.2669862976e+000
 7.1578552965e-001	 1.3181999376e+000	-2.2461447168e+000
 7.0238952194e-001	 1.3253863434e+000	-2.2203465695e+000
 6.8894188956e-001	 1.3324260102e+000	-2.1898169228e+000
 8.3449487390e-001	 1.2764181546e+000	-2.1012260443e+000
 8.2138089073e-001	 1.2848962730e+000	-2.1208428192e+000
 8.0819550895e-001	 1.2932304587e+000	-2.1344522719e+000
 7.9494106324e-001	 1.3014198807e+000	-2.1421726369e+000
 7.8161989930e-001	 1.3094637578e+000	-2.1441359050e+000
 7.6823437256e-001	 1.3173613584e+000	-2.1404875897e+000
 7.5478684687e-001	 1.3251120012e+000	-2.1313864696e+000
 7.4127969323e-001	 1.3327150544e+000	-2.1170043110e+000
 7.2771528847e-001	 1.3401699365e+000	-2.0975255673e+000
 7.1409601397e-001	 1.3474761158e+000	-2.0731470592e+000
 7.0042425438e-001	 1.3546331104e+000	-2.0440776355e+000
 8.4817511773e-001	 1.2973430424e+000	-1.9778664878e+000
 8.3484615123e-001	 1.3059601463e+000	-1.9967833185e+000
 8.2144461565e-001	 1.3144309580e+000	-2.0098299354e+000
 8.0797288395e-001	 1.3227546328e+000	-2.0171075397e+000
 7.9443334027e-001	 1.3309303768e+000	-2.0187312611e+000
 7.8082837866e-001	 1.3389574463e+000	-2.0148299419e+000
 7.6716040174e-001	 1.3468351487e+000	-2.0055458977e+000
 7.5343181935e-001	 1.3545628422e+000	-1.9910346561e+000
 7.3964504730e-001	 1.3621399355e+000	-1.9714646727e+000
 7.2580250600e-001	 1.3695658882e+000	-1.9470170265e+000
 7.1190661921e-001	 1.3768402106e+000	-1.9178850956e+000
 8.6185536157e-001	 1.3182679302e+000	-1.8881382825e+000
 8.4831141173e-001	 1.3270240196e+000	-1.9052072683e+000
 8.3469372236e-001	 1.3356314573e+000	-1.9165047028e+000
 8.2100470466e-001	 1.3440893850e+000	-1.9221152825e+000
 8.0724678124e-001	 1.3523969957e+000	-1.9221378335e+000
 7.9342238477e-001	 1.3605535341e+000	-1.9166851138e+000
 7.7953395660e-001	 1.3685582963e+000	-1.9058835906e+000
 7.6558394547e-001	 1.3764106300e+000	-1.8898731951e+000
 7.5157480613e-001	 1.3841099345e+000	-1.8688070543e+000
 7.3750899804e-001	 1.3916556606e+000	-1.8428512011e+000
 7.2338898403e-001	 1.3990473107e+000	-1.8121842629e+000
 8.7553560540e-001	 1.3391928179e+000	-1.8325041534e+000
 8.6177667223e-001	 1.3480878930e+000	-1.8466192113e+000
 8.4794282906e-001	 1.3568319566e+000	-1.8550236098e+000
 8.3403652537e-001	 1.3654241371e+000	-1.8577860435e+000
 8.2006022222e-001	 1.3738636147e+000	-1.8549895676e+000
 8.0601639088e-001	 1.3821496220e+000	-1.8467314170e+000
 7.9190751147e-001	 1.3902814439e+000	-1.8331228000e+000
 7.7773607159e-001	 1.3982584178e+000	-1.8142886687e+000
 7.6350456496e-001	 1.4060799334e+000	-1.7903674653e+000
 7.4921549007e-001	 1.4137454330e+000	-1.7615108459e+000
 7.3487134886e-001	 1.4212544109e+000	-1.7278833824e+000
 8.8921584923e-001	 1.3601177057e+000	-1.8114206666e+000
 8.7524193274e-001	 1.3691517663e+000	-1.8215150020e+000
 8.6119193577e-001	 1.3780324560e+000	-1.8259224156e+000
 8.4706834608e-001	 1.3867588893e+000	-1.8246960798e+000
 8.3287366319e-001	 1.3953302337e+000	-1.8179037879e+000
 8.1861039699e-001	 1.4037457098e+000	-1.8056277891e+000
 8.0428106634e-001	 1.4120045914e+000	-1.7879645988e+000
 7.8988819771e-001	 1.4201062055e+000	-1.7650247830e+000
 7.7543432378e-001	 1.4280499324e+000	-1.7369327187e+000
 7.6092198210e-001	 1.4358352054e+000	-1.7038263313e+000
 7.4635371369e-001	 1.4434615111e+000	-1.6658568086e+000
 9.0289609307e-001	 1.3810425935e+000	-1.8253386965e+000
 8.8870719324e-001	 1.3902156396e+000	-1.8303824643e+000
 8.7444104247e-001	 1.3992329553e+000	-1.8297264569e+000
 8.6010016679e-001	 1.4080936414e+000	-1.8234087820e+000
 8.4568710416e-001	 1.4167968527e+000	-1.8114824572e+000
 8.3120440310e-001	 1.4253417977e+000	-1.7940152616e+000
 8.1665462121e-001	 1.4337277390e+000	-1.7710895608e+000
 8.0204032383e-001	 1.4419539933e+000	-1.7428021051e+000
 7.8736408261e-001	 1.4500199313e+000	-1.7092638042e+000
 7.7262847414e-001	 1.4579249778e+000	-1.6705994760e+000
 7.5783607852e-001	 1.4656686112e+000	-1.6269475729e+000
 9.1657633690e-001	 1.4019674813e+000	-1.8747038498e+000
 9.0217245375e-001	 1.4112795129e+000	-1.8737019909e+000
 8.8769014918e-001	 1.4204334546e+000	-1.8669514259e+000
 8.7313198750e-001	 1.4294283936e+000	-1.8544756341e+000
 8.5850054514e-001	 1.4382634717e+000	-1.8363133232e+000
 8.4379840921e-001	 1.4469378855e+000	-1.8125182961e+000
 8.2902817608e-001	 1.4554508865e+000	-1.7831592905e+000
 8.1419244995e-001	 1.4638017811e+000	-1.7483197908e+000
 7.9929384144e-001	 1.4719899303e+000	-1.7080978155e+000
 7.8433496617e-001	 1.4800147502e+000	-1.6626056775e+000
 7.6931844334e-001	 1.4878757114e+000	-1.6119697210e+000
 9.3025658074e-001	 1.4228923691e+000	-1.9599568536e+000
 9.1563771425e-001	 1.4323433863e+000	-1.9519470897e+000
 9.0093925588e-001	 1.4416339539e+000	-1.9381040794e+000
 8.8616380821e-001	 1.4507631457e+000	-1.9184370897e+000
 8.7131398611e-001	 1.4597300906e+000	-1.8929709638e+000
 8.5639241532e-001	 1.4685339734e+000	-1.8617460027e+000
 8.4140173095e-001	 1.4771740341e+000	-1.8248178181e+000
 8.2634457607e-001	 1.4856495689e+000	-1.7822571586e+000
 8.1122360028e-001	 1.4939599293e+000	-1.7341497072e+000
 7.9604145821e-001	 1.5021045226e+000	-1.6805958545e+000
 7.8080080817e-001	 1.5100828116e+000	-1.6217104445e+000
 9.4393682457e-001	 1.4438172569e+000	-2.0815339084e+000
 9.2910297476e-001	 1.4534072596e+000	-2.0655848830e+000
 9.1418836259e-001	 1.4628344533e+000	-2.0436828862e+000
 8.9919562892e-001	 1.4720978979e+000	-2.0158233704e+000
 8.8412742709e-001	 1.4811967096e+000	-1.9820177411e+000
 8.6898642143e-001	 1.4901300612e+000	-1.9422932522e+000
 8.5377528582e-001	 1.4988971817e+000	-1.8966928732e+000
 8.3849670220e-001	 1.5074973567e+000	-1.8452751269e+000
 8.2315335911e-001	 1.5159299282e+000	-1.7881138990e+000
 8.0774795024e-001	 1.5241942950e+000	-1.7252982212e+000
 7.9228317300e-001	 1.5322899118e+000	-1.6569320267e+000
 9.5761706841e-001	 1.4647421446e+000	-2.2398670118e+000
 9.4256823526e-001	 1.4744711329e+000	-2.2150765632e+000
 9.2743746930e-001	 1.4840349526e+000	-2.1841786193e+000
 9.1222744964e-001	 1.4934326500e+000	-2.1471551975e+000
 8.9694086807e-001	 1.5026633286e+000	-2.1040046741e+000
 8.8158042754e-001	 1.5117261490e+000	-2.0547416936e+000
 8.6614884069e-001	 1.5206203292e+000	-1.9993970485e+000
 8.5064882832e-001	 1.5293451444e+000	-1.9380175287e+000
 8.3508311794e-001	 1.5378999272e+000	-1.8706657426e+000
 8.1945444228e-001	 1.5462840674e+000	-1.7974199090e+000
 8.0376553783e-001	 1.5544970119e+000	-1.7183736217e+000
 6.8894188956e-001	 1.3324260102e+000	-2.1898169228e+000
 6.7544498003e-001	 1.3393185129e+000	-2.0906578169e+000
 6.6190114160e-001	 1.3460634750e+000	-1.9647911417e+000
 6.4831272205e-001	 1.3526605688e+000	-1.8130264467e+000
 6.3468206740e-001	 1.3591095148e+000	-1.6361978609e+000
 6.2101152078e-001	 1.3654100816e+000	-1.5332522897e+000
 6.0730342120e-001	 1.3715620856e+000	-1.6469746583e+000
 5.9356010237e-001	 1.3775653904e+000	-1.7405578241e+000
 5.7978389160e-001	 1.3834199070e+000	-1.8147813439e+000
 5.6597710858e-001	 1.3891255928e+000	-1.8704420929e+000
 5.5214206433e-001	 1.3946824516e+000	-1.9083524071e+000
 7.0042425438e-001	 1.3546331104e+000	-2.0440776355e+000
 6.8670239636e-001	 1.3616404881e+000	-1.9690358126e+000
 6.7293282730e-001	 1.3684978662e+000	-1.8677740305e+000
 6.5911793409e-001	 1.3752049116e+000	-1.7410874556e+000
 6.4526010186e-001	 1.3817613401e+000	-1.5897958531e+000
 6.3136171280e-001	 1.3881669163e+000	-1.4147424274e+000
 6.1742514488e-001	 1.3944214536e+000	-1.4131850214e+000
 6.0345277075e-001	 1.4005248136e+000	-1.5566274235e+000
 5.8944695646e-001	 1.4064769054e+000	-1.6812617161e+000
 5.7541006039e-001	 1.4122776860e+000	-1.7878895486e+000
 5.6134443207e-001	 1.4179271591e+000	-1.8773280259e+000
 7.1190661921e-001	 1.3768402106e+000	-1.9178850956e+000
 6.9795981269e-001	 1.3839624633e+000	-1.8654137321e+000
 6.8396451299e-001	 1.3909322575e+000	-1.7871611479e+000
 6.6992314612e-001	 1.3977492544e+000	-1.6839090286e+000
 6.5583813632e-001	 1.4044131653e+000	-1.5564637097e+000
 6.4171190481e-001	 1.4109237510e+000	-1.4056550261e+000
 6.2754686857e-001	 1.4172808217e+000	-1.2323351405e+000
 6.1334543912e-001	 1.4234842367e+000	-1.3541011748e+000
 5.9911002132e-001	 1.4295339039e+000	-1.5266326188e+000
 5.8484301220e-001	 1.4354297792e+000	-1.6816627665e+000
 5.7054679981e-001	 1.4411718666e+000	-1.8200164214e+000
 7.2338898403e-001	 1.3990473107e+000	-1.8121842629e+000
 7.0921722903e-001	 1.4062844385e+000	-1.7807868275e+000
 6.9499619869e-001	 1.4133666487e+000	-1.7239992910e+000
 6.8072835815e-001	 1.4202935972e+000	-1.6425907296e+000
 6.6641617078e-001	 1.4270649905e+000	-1.5373549511e+000
 6.5206209682e-001	 1.4336805857e+000	-1.4091093531e+000
 6.3766859226e-001	 1.4401401898e+000	-1.2586937595e+000
 6.2323810749e-001	 1.4464436599e+000	-1.1368088389e+000
 6.0877308618e-001	 1.4525909023e+000	-1.3547232938e+000
 5.9427596401e-001	 1.4585818724e+000	-1.5555908375e+000
 5.7974916755e-001	 1.4644165742e+000	-1.7402469235e+000
 7.3487134886e-001	 1.4212544109e+000	-1.7278833824e+000
 7.2047464536e-001	 1.4286064137e+000	-1.7161103671e+000
 7.0602788438e-001	 1.4358010400e+000	-1.6792919087e+000
 6.9153357019e-001	 1.4428379400e+000	-1.6181853165e+000
 6.7699420523e-001	 1.4497168158e+000	-1.5335727432e+000
 6.6241228884e-001	 1.4564374204e+000	-1.4262600514e+000
 6.4779031595e-001	 1.4629995579e+000	-1.2970756561e+000
 6.3313077587e-001	 1.4694030831e+000	-1.1468693477e+000
 6.1843615104e-001	 1.4756479008e+000	-1.1692975636e+000
 6.0370891582e-001	 1.4817339656e+000	-1.4134334606e+000
 5.8895153529e-001	 1.4876612817e+000	-1.6417754194e+000
 7.4635371369e-001	 1.4434615111e+000	-1.6658568086e+000
 7.3173206170e-001	 1.4509283889e+000	-1.6723027110e+000
 7.1705957007e-001	 1.4582354312e+000	-1.6540024362e+000
 7.0233878223e-001	 1.4653822828e+000	-1.6117023419e+000
 6.8757223969e-001	 1.4723686410e+000	-1.5461737709e+000
 6.7276248085e-001	 1.4791942551e+000	-1.4582119246e+000
 6.5791203963e-001	 1.4858589260e+000	-1.3486347119e+000
 6.4302344424e-001	 1.4923625062e+000	-1.2182815771e+000
 6.2809921590e-001	 1.4987048992e+000	-1.0680123096e+000
 6.1314186763e-001	 1.5048860588e+000	-1.2588862806e+000
 5.9815390303e-001	 1.5109059892e+000	-1.5282900033e+000
 7.5783607852e-001	 1.4656686112e+000	-1.6269475729e+000
 7.4298947803e-001	 1.4732503641e+000	-1.6502481074e+000
 7.2809125577e-001	 1.4806698225e+000	-1.6490573267e+000
 7.1314399426e-001	 1.4879266257e+000	-1.6241114265e+000
 6.9815027415e-001	 1.4950204663e+000	-1.5761717592e+000
 6.8311267287e-001	 1.5019510898e+000	-1.5060237132e+000
 6.6803376332e-001	 1.5087182941e+000	-1.4144755671e+000
 6.5291611261e-001	 1.5153219294e+000	-1.3023573221e+000
 6.3776228076e-001	 1.5217618977e+000	-1.1705195150e+000
 6.2257481944e-001	 1.5280381520e+000	-1.0955857410e+000
 6.0735627077e-001	 1.5341506967e+000	-1.4034161118e+000
 7.6931844334e-001	 1.4878757114e+000	-1.6119697210e+000
 7.5424689437e-001	 1.4955723393e+000	-1.6507992378e+000
 7.3912294146e-001	 1.5031042137e+000	-1.6653488106e+000
 7.2394920630e-001	 1.5104709685e+000	-1.6563452385e+000
 7.0872830861e-001	 1.5176722915e+000	-1.6245406790e+000
 6.9346286488e-001	 1.5247079245e+000	-1.5707115314e+000
 6.7815548701e-001	 1.5315776622e+000	-1.4956572954e+000
 6.6280878099e-001	 1.5382813526e+000	-1.4001994068e+000
 6.4742534562e-001	 1.5448188961e+000	-1.2851800532e+000
 6.3200777125e-001	 1.5511902453e+000	-1.1514609721e+000
 6.1655863851e-001	 1.5573954043e+000	-1.2707212005e+000
 7.8080080817e-001	 1.5100828116e+000	-1.6217104445e+000
 7.6550431070e-001	 1.5178943146e+000	-1.6747795387e+000
 7.5015462716e-001	 1.5255386050e+000	-1.7037374124e+000
 7.3475441833e-001	 1.5330153113e+000	-1.7093022113e+000
 7.1930634307e-001	 1.5403241168e+000	-1.6922176707e+000
 7.0381305690e-001	 1.5474647592e+000	-1.6532520020e+000
 6.8827721070e-001	 1.5544370303e+000	-1.5931967542e+000
 6.7270144936e-001	 1.5612407758e+000	-1.5128656526e+000
 6.5708841048e-001	 1.5678758946e+000	-1.4130934156e+000
 6.4144072306e-001	 1.5743423385e+000	-1.2947345543e+000
 6.2576100625e-001	 1.5806401118e+000	-1.1586621557e+000
 7.9228317300e-001	 1.5322899118e+000	-1.6569320267e+000
 7.7676172704e-001	 1.5402162898e+000	-1.7229853203e+000
 7.6118631286e-001	 1.5479729962e+000	-1.7650542478e+000
 7.4555963037e-001	 1.5555596541e+000	-1.7838490239e+000
 7.2988437753e-001	 1.5629759420e+000	-1.7801057128e+000
 7.1416324891e-001	 1.5702215939e+000	-1.7545851176e+000
 6.9839893439e-001	 1.5772963984e+000	-1.7080716439e+000
 6.8259411774e-001	 1.5842001989e+000	-1.6413721394e+000
 6.6675147534e-001	 1.5909328930e+000	-1.5553147115e+000
 6.5087367487e-001	 1.5974944317e+000	-1.4507475273e+000
 6.3496337399e-001	 1.6038848193e+000	-1.3285375956e+000
 8.0376553783e-001	 1.5544970119e+000	-1.7183736217e+000
 7.8801914338e-001	 1.5625382650e+000	-1.7961877045e+000
 7.7221799855e-001	 1.5704073875e+000	-1.8501031250e+000
 7.5636484241e-001	 1.5781039969e+000	-1.8808228692e+000
 7.4046241198e-001	 1.5856277673e+000	-1.8890760619e+000
 7.2451344093e-001	 1.5929784285e+000	-1.8756168575e+000
 7.0852065808e-001	 1.6001557665e+000	-1.8412233048e+000
 6.9248678611e-001	 1.6071596221e+000	-1.7866961868e+000
 6.7641454021e-001	 1.6139898915e+000	-1.7128578381e+000
 6.6030662669e-001	 1.6206465249e+000	-1.6205509434e+000
 6.4416574173e-001	 1.6271295268e+000	-1.5106373183e+000
 5.5214206433e-001	 1.3946824516e+000	-1.9083524071e+000
 5.3828106007e-001	 1.4000905329e+000	-1.8010470770e+000
 5.2439638615e-001	 1.4053499316e+000	-1.7019397019e+000
 5.1049032095e-001	 1.4104607872e+000	-1.6109692689e+000
 4.9656512994e-001	 1.4154232836e+000	-1.5280712936e+000
 4.8262306456e-001	 1.4202376483e+000	-1.4531771498e+000
 4.6866636131e-001	 1.4249041518e+000	-1.3862134197e+000
 4.5469724075e-001	 1.4294231071e+000	-1.3271012661e+000
 4.4071790656e-001	 1.4337948692e+000	-1.2757558289e+000
 4.2673054465e-001	 1.4380198337e+000	-1.2320856467e+000
 4.1273732227e-001	 1.4420984373e+000	-1.1959921060e+000
 5.6134443207e-001	 1.4179271591e+000	-1.8773280259e+000
 5.4725241107e-001	 1.4234253751e+000	-1.7803837644e+000
 5.3313632591e-001	 1.4287724304e+000	-1.6878614770e+000
 5.1899849297e-001	 1.4339684670e+000	-1.5998387040e+000
 5.0484121544e-001	 1.4390136716e+000	-1.5163913354e+000
 4.9066678230e-001	 1.4439082757e+000	-1.4375927302e+000
 4.7647746733e-001	 1.4486525543e+000	-1.3635128583e+000
 4.6227552809e-001	 1.4532468256e+000	-1.2942174662e+000
 4.4806320500e-001	 1.4576914503e+000	-1.2297672691e+000
 4.3384272040e-001	 1.4619868310e+000	-1.1702171711e+000
 4.1961627764e-001	 1.4661334112e+000	-1.1156155152e+000
 5.7054679981e-001	 1.4411718666e+000	-1.8200164214e+000
 5.5622376207e-001	 1.4467602173e+000	-1.7367716605e+000
 5.4187626568e-001	 1.4521949293e+000	-1.6542619534e+000
 5.2750666498e-001	 1.4574761468e+000	-1.5727027980e+000
 5.1311730094e-001	 1.4626040597e+000	-1.4923098264e+000
 4.9871050005e-001	 1.4675789032e+000	-1.4132977147e+000
 4.8428857336e-001	 1.4724009568e+000	-1.3358791152e+000
 4.6985381544e-001	 1.4770705440e+000	-1.2602636151e+000
 4.5540850345e-001	 1.4815880315e+000	-1.1866567236e+000
 4.4095489614e-001	 1.4859538282e+000	-1.1152588902e+000
 4.2649523301e-001	 1.4901683852e+000	-1.0462645557e+000
 5.7974916755e-001	 1.4644165742e+000	-1.7402469235e+000
 5.6519511307e-001	 1.4700950595e+000	-1.6737551895e+000
 5.5061620545e-001	 1.4756174281e+000	-1.6043948277e+000
 5.3601483700e-001	 1.4809838265e+000	-1.5325188885e+000
 5.2139338644e-001	 1.4861944478e+000	-1.4584823080e+000
 5.0675421779e-001	 1.4912495307e+000	-1.3826406055e+000
 4.9209967938e-001	 1.4961493594e+000	-1.3053486061e+000
 4.7743210279e-001	 1.5008942625e+000	-1.2269591912e+000
 4.6275380189e-001	 1.5054846126e+000	-1.1478220808e+000
 4.4806707189e-001	 1.5099208254e+000	-1.0682826482e+000
 4.3337418838e-001	 1.5142033591e+000	-9.8868077225e-001
 5.8895153529e-001	 1.4876612817e+000	-1.6417754194e+000
 5.7416646408e-001	 1.4934299018e+000	-1.5948190538e+000
 5.5935614522e-001	 1.4990399270e+000	-1.5414681128e+000
 5.4452300902e-001	 1.5044915063e+000	-1.4822129777e+000
 5.2966947193e-001	 1.5097848358e+000	-1.4175476345e+000
 5.1479793553e-001	 1.5149201581e+000	-1.3479681580e+000
 4.9991078540e-001	 1.5198977619e+000	-1.2739712239e+000
 4.8501039013e-001	 1.5247179809e+000	-1.1960526501e+000
 4.7009910033e-001	 1.5293811938e+000	-1.1147059724e+000
 4.5517924763e-001	 1.5338878227e+000	-1.0304210565e+000
 4.4025314375e-001	 1.5382383331e+000	-9.4368274892e-001
 5.9815390303e-001	 1.5109059892e+000	-1.5282900033e+000
 5.8313781508e-001	 1.5167647440e+000	-1.5033928280e+000
 5.6809608499e-001	 1.5224624259e+000	-1.4686476521e+000
 5.5303118103e-001	 1.5279991861e+000	-1.4246821420e+000
 5.3794555743e-001	 1.5333752239e+000	-1.3721292560e+000
 5.2284165328e-001	 1.5385907856e+000	-1.3116255153e+000
 5.0772189142e-001	 1.5436461644e+000	-1.2438093029e+000
 4.9258867748e-001	 1.5485416994e+000	-1.1693191955e+000
 4.7744439878e-001	 1.5532777749e+000	-1.0887923317e+000
 4.6229142338e-001	 1.5578548199e+000	-1.0028628187e+000
 4.4713209913e-001	 1.5622733070e+000	-9.1216018302e-001
 6.0735627077e-001	 1.5341506967e+000	-1.4034161118e+000
 5.9210916608e-001	 1.5400995862e+000	-1.4028551352e+000
 5.7683602476e-001	 1.5458849247e+000	-1.3890603147e+000
 5.6153935305e-001	 1.5515068659e+000	-1.3627967236e+000
 5.4622164294e-001	 1.5569656119e+000	-1.3248363857e+000
 5.3088537102e-001	 1.5622614131e+000	-1.2759563298e+000
 5.1553299745e-001	 1.5673945670e+000	-1.2169366754e+000
 5.0016696483e-001	 1.5723654179e+000	-1.1485587533e+000
 4.8478969722e-001	 1.5771743561e+000	-1.0716032644e+000
 4.6940359912e-001	 1.5818218171e+000	-9.8684848164e-001
 4.5401105450e-001	 1.5863082810e+000	-8.9506849769e-001
 6.1655863851e-001	 1.5573954043e+000	-1.2707212005e+000
 6.0108051709e-001	 1.5634344284e+000	-1.2965374495e+000
 5.8557596453e-001	 1.5693074236e+000	-1.3057969032e+000
 5.7004752507e-001	 1.5750145457e+000	-1.2994023259e+000
 5.5449772844e-001	 1.5805560000e+000	-1.2782650624e+000
 5.3892908877e-001	 1.5859320406e+000	-1.2433028751e+000
 5.2334410347e-001	 1.5911429695e+000	-1.1954378144e+000
 5.0774525217e-001	 1.5961891363e+000	-1.1355941260e+000
 4.9213499566e-001	 1.6010709372e+000	-1.0646962002e+000
 4.7651577487e-001	 1.6057888143e+000	-9.8366656645e-001
 4.6089000987e-001	 1.6103432550e+000	-8.9342393700e-001
 6.2576100625e-001	 1.5806401118e+000	-1.1586621557e+000
 6.1005186809e-001	 1.5867692706e+000	-1.1877275626e+000
 5.9431590430e-001	 1.5927299224e+000	-1.2219148060e+000
 5.7855569709e-001	 1.5985222255e+000	-1.2373216320e+000
 5.6277381394e-001	 1.6041463881e+000	-1.2349991191e+000
 5.4697280651e-001	 1.6096026680e+000	-1.2160061471e+000
 5.3115520949e-001	 1.6148913720e+000	-1.1814070505e+000
 5.1532353952e-001	 1.6200128548e+000	-1.1322693110e+000
 4.9948029411e-001	 1.6249675184e+000	-1.0696612954e+000
 4.8362795061e-001	 1.6297558116e+000	-9.9465004085e-001
 4.6776896524e-001	 1.6343782289e+000	-9.0829909381e-001
 6.3496337399e-001	 1.6038848193e+000	-1.3285375956e+000
 6.1902321909e-001	 1.6101041128e+000	-1.0796727494e+000
 6.0305584408e-001	 1.6161524213e+000	-1.1404404187e+000
 5.8706386911e-001	 1.6220299053e+000	-1.1793560660e+000
 5.7104989944e-001	 1.6277367761e+000	-1.1976110674e+000
 5.5501652426e-001	 1.6332732955e+000	-1.1964059564e+000
 5.3896631552e-001	 1.6386397745e+000	-1.1769478580e+000
 5.2290182687e-001	 1.6438365732e+000	-1.1404479650e+000
 5.0682559255e-001	 1.6488640995e+000	-1.0881190614e+000
 4.9074012636e-001	 1.6537228088e+000	-1.0211730985e+000
 4.7464792061e-001	 1.6584132029e+000	-9.4081882657e-001
 6.4416574173e-001	 1.6271295268e+000	-1.5106373183e+000
 6.2799457010e-001	 1.6334389551e+000	-1.0773874320e+000
 6.1179578385e-001	 1.6395749202e+000	-1.0643713578e+000
 5.9557204113e-001	 1.6455375851e+000	-1.1282873112e+000
 5.7932598494e-001	 1.6513271642e+000	-1.1686629063e+000
 5.6306024200e-001	 1.6569439230e+000	-1.1868410134e+000
 5.4677742155e-001	 1.6623881771e+000	-1.1841722020e+000
 5.3048011422e-001	 1.6676602917e+000	-1.1620119989e+000
 5.1417089100e-001	 1.6727606807e+000	-1.1217181962e+000
 4.9785230211e-001	 1.6776898060e+000	-1.0646482143e+000
 4.8152687598e-001	 1.6824481768e+000	-9.9215652598e-001
 4.1273732227e-001	 1.4420984373e+000	-1.1959921060e+000
 3.9874038711e-001	 1.4460311558e+000	-1.1960368296e+000
 3.8474186652e-001	 1.4498185045e+000	-1.1940734577e+000
 3.7074386670e-001	 1.4534610367e+000	-1.1903978000e+000
 3.5674847188e-001	 1.4569593432e+000	-1.1852981209e+000
 3.4275774362e-001	 1.4603140515e+000	-1.1790542979e+000
 3.2877372006e-001	 1.4635258252e+000	-1.1719370225e+000
 3.1479841525e-001	 1.4665953626e+000	-1.1642070419e+000
 3.0083381848e-001	 1.4695233968e+000	-1.1561144443e+000
 2.8688189364e-001	 1.4723106938e+000	-1.1478979880e+000
 2.7294457862e-001	 1.4749580526e+000	-1.1397844748e+000
 4.1961627764e-001	 1.4661334112e+000	-1.1156155152e+000
 4.0538606023e-001	 1.4701316751e+000	-1.1138128582e+000
 3.9115423097e-001	 1.4739821463e+000	-1.1101532613e+000
 3.7692293114e-001	 1.4776853873e+000	-1.1049734010e+000
 3.6269427974e-001	 1.4812419989e+000	-1.0986017605e+000
 3.4847037268e-001	 1.4846526191e+000	-1.0913577220e+000
 3.3425328206e-001	 1.4879179223e+000	-1.0835507034e+000
 3.2004505551e-001	 1.4910386187e+000	-1.0754793393e+000
 3.0584771546e-001	 1.4940154534e+000	-1.0674307081e+000
 2.9166325853e-001	 1.4968492054e+000	-1.0596796063e+000
 2.7749365493e-001	 1.4995406868e+000	-1.0524878698e+000
 4.2649523301e-001	 1.4901683852e+000	-1.0462645557e+000
 4.1203173334e-001	 1.4942321944e+000	-1.0417182591e+000
 3.9756659541e-001	 1.4981457880e+000	-1.0354780341e+000
 3.8310199559e-001	 1.5019097379e+000	-1.0279231967e+000
 3.6864008761e-001	 1.5055246547e+000	-1.0194241889e+000
 3.5418300174e-001	 1.5089911866e+000	-1.0103416017e+000
 3.3973284406e-001	 1.5123100193e+000	-1.0010252453e+000
 3.2529169576e-001	 1.5154818747e+000	-9.9181326724e-001
 3.1086161243e-001	 1.5185075100e+000	-9.8303131985e-001
 2.9644462343e-001	 1.5213877169e+000	-9.7499177724e-001
 2.8204273124e-001	 1.5241233210e+000	-9.6799300344e-001
 4.3337418838e-001	 1.5142033591e+000	-9.8868077225e-001
 4.1867740646e-001	 1.5183327136e+000	-9.8040279543e-001
 4.0397895985e-001	 1.5223094298e+000	-9.7060521283e-001
 3.8928106004e-001	 1.5261340886e+000	-9.5971182165e-001
 3.7458589548e-001	 1.5298073104e+000	-9.4813682975e-001
 3.5989563080e-001	 1.5333297541e+000	-9.3628380757e-001
 3.4521240607e-001	 1.5367021164e+000	-9.2454468982e-001
 3.3053833602e-001	 1.5399251308e+000	-9.1329882831e-001
 3.1587550941e-001	 1.5429995666e+000	-9.0291209711e-001
 3.0122598832e-001	 1.5459262285e+000	-8.9373605104e-001
 2.8659180755e-001	 1.5487059552e+000	-8.8610713833e-001
 4.4025314375e-001	 1.5382383331e+000	-9.4368274892e-001
 4.2532307958e-001	 1.5424332329e+000	-9.3059462082e-001
 4.1039132430e-001	 1.5464730715e+000	-9.1617200051e-001
 3.9546012448e-001	 1.5503584392e+000	-9.0088507481e-001
 3.8053170334e-001	 1.5540899661e+000	-8.8519369163e-001
 3.6560825986e-001	 1.5576683217e+000	-8.6954623776e-001
 3.5069196807e-001	 1.5610942135e+000	-8.5437856978e-001
 3.3578497627e-001	 1.5643683868e+000	-8.4011299930e-001
 3.2088940638e-001	 1.5674916232e+000	-8.2715733393e-001
 3.0600735321e-001	 1.5704647400e+000	-8.1590397496e-001
 2.9114088386e-001	 1.5732885894e+000	-8.0672907267e-001
 4.4713209913e-001	 1.5622733070e+000	-9.1216018302e-001
 4.3196875270e-001	 1.5665337522e+000	-8.9309424972e-001
 4.1680368874e-001	 1.5706367133e+000	-8.7288923020e-001
 4.0163918893e-001	 1.5745827898e+000	-8.5206367626e-001
 3.8647751121e-001	 1.5783726218e+000	-8.3112501585e-001
 3.7132088892e-001	 1.5820068892e+000	-8.1056835443e-001
 3.5617153007e-001	 1.5854863106e+000	-7.9087533242e-001
 3.4103161652e-001	 1.5888116429e+000	-7.7251304066e-001
 3.2590330335e-001	 1.5919836798e+000	-7.5593299490e-001
 3.1078871811e-001	 1.5950032516e+000	-7.4157017063e-001
 2.9568996017e-001	 1.5978712237e+000	-7.2984209914e-001
 4.5401105450e-001	 1.5863082810e+000	-8.9506849769e-001
 4.3861442582e-001	 1.5906342714e+000	-8.6876907531e-001
 4.2321605318e-001	 1.5948003550e+000	-8.4153578714e-001
 4.0781825337e-001	 1.5988071404e+000	-8.1393759123e-001
 3.9242331907e-001	 1.6026552775e+000	-7.8653150107e-001
 3.7703351798e-001	 1.6063454567e+000	-7.5986130766e-001
 3.6165109207e-001	 1.6098784077e+000	-7.3445636124e-001
 3.4627825678e-001	 1.6132548989e+000	-7.1083041440e-001
 3.3091720033e-001	 1.6164757364e+000	-6.8948052790e-001
 3.1557008300e-001	 1.6195417632e+000	-6.7088604053e-001
 3.0023903648e-001	 1.6224538579e+000	-6.5550760377e-001
 4.6089000987e-001	 1.6103432550e+000	-8.9342393700e-001
 4.4526009894e-001	 1.6147347907e+000	-8.5854837859e-001
 4.2962841762e-001	 1.6189639967e+000	-8.2295353017e-001
 4.1399731782e-001	 1.6230314910e+000	-7.8726086265e-001
 3.9836912694e-001	 1.6269379333e+000	-7.5207904527e-001
 3.8274614704e-001	 1.6306840242e+000	-7.1800258560e-001
 3.6713065407e-001	 1.6342705048e+000	-6.8561053296e-001
 3.5152489703e-001	 1.6376981549e+000	-6.5546524671e-001
 3.3593109730e-001	 1.6409677930e+000	-6.2811123114e-001
 3.2035144789e-001	 1.6440802747e+000	-6.0407403804e-001
 3.0478811279e-001	 1.6470364921e+000	-5.8385923810e-001
 4.6776896524e-001	 1.6343782289e+000	-9.0829909381e-001
 4.5190577206e-001	 1.6388353100e+000	-8.6341877785e-001
 4.3604078206e-001	 1.6431276385e+000	-8.1804266130e-001
 4.2017638226e-001	 1.6472558416e+000	-7.7284689948e-001
 4.0431493480e-001	 1.6512205890e+000	-7.2849395173e-001
 3.8845877610e-001	 1.6550225918e+000	-6.8563113671e-001
 3.7261021607e-001	 1.6586626019e+000	-6.4488925480e-001
 3.5677153728e-001	 1.6621414110e+000	-6.0688127911e-001
 3.4094499428e-001	 1.6654598497e+000	-5.7220111700e-001
 3.2513281279e-001	 1.6686187863e+000	-5.4142244314e-001
 3.0933718910e-001	 1.6716191263e+000	-5.1509760551e-001
 4.7464792061e-001	 1.6584132029e+000	-9.4081882657e-001
 4.5855144518e-001	 1.6629358292e+000	-8.8442007372e-001
 4.4245314651e-001	 1.6672912802e+000	-8.2775749800e-001
 4.2635544671e-001	 1.6714801922e+000	-7.7156417487e-001
 4.1026074266e-001	 1.6755032447e+000	-7.1655855180e-001
 3.9417140516e-001	 1.6793611593e+000	-6.6344291605e-001
 3.7808977807e-001	 1.6830546990e+000	-6.1290193325e-001
 3.6201817754e-001	 1.6865846670e+000	-5.6560125864e-001
 3.4595889125e-001	 1.6899519063e+000	-5.2218622267e-001
 3.2991417768e-001	 1.6931572979e+000	-4.8328059238e-001
 3.1388626541e-001	 1.6962017605e+000	-4.4948540969e-001
 4.8152687598e-001	 1.6824481768e+000	-9.9215652598e-001
 4.6519711830e-001	 1.6870363485e+000	-9.2264145051e-001
 4.4886551095e-001	 1.6914549220e+000	-8.5310260777e-001
 4.3253451115e-001	 1.6957045429e+000	-7.8433229297e-001
 4.1620655053e-001	 1.6997859004e+000	-7.1710720293e-001
 3.9988403422e-001	 1.7036997268e+000	-6.5218681344e-001
 3.8356934007e-001	 1.7074467960e+000	-5.9031183132e-001
 3.6726481779e-001	 1.7110279231e+000	-5.3220272317e-001
 3.5097278822e-001	 1.7144439629e+000	-4.7855832263e-001
 3.3469554257e-001	 1.7176958094e+000	-4.3005451764e-001
 3.1843534172e-001	 1.7207843947e+000	-3.8734301885e-001
 2.7294457862e-001	 1.4749580526e+000	-1.1397844748e+000
 2.5902378476e-001	 1.4774663038e+000	-1.1235057579e+000
 2.4512139625e-001	 1.4798363089e+000	-1.1092028517e+000
 2.3123926969e-001	 1.4820689593e+000	-1.0969552351e+000
 2.1737923353e-001	 1.4841651757e+000	-1.0868288522e+000
 2.0354308766e-001	 1.4861259070e+000	-1.0788758106e+000
 1.8973260296e-001	 1.4879521294e+000	-1.0731341216e+000
 1.7594952092e-001	 1.4896448456e+000	-1.0696274836e+000
 1.6219555323e-001	 1.4912050840e+000	-1.0683651062e+000
 1.4847238149e-001	 1.4926338975e+000	-1.0693415759e+000
 1.3478165685e-001	 1.4939323629e+000	-1.0725367619e+000
 2.7749365493e-001	 1.4995406868e+000	-1.0524878698e+000
 2.6334084783e-001	 1.5020907422e+000	-1.0318068994e+000
 2.4920675285e-001	 1.5045002474e+000	-1.0127789775e+000
 2.3509325751e-001	 1.5067701086e+000	-9.9554246244e-001
 2.2100222075e-001	 1.5089012620e+000	-9.8022123247e-001
 2.0693547245e-001	 1.5108946721e+000	-9.6692431760e-001
 1.9289481301e-001	 1.5127513315e+000	-9.5574557726e-001
 1.7888201293e-001	 1.5144722597e+000	-9.4676342391e-001
 1.6489881245e-001	 1.5160585020e+000	-9.4004059212e-001
 1.5094692118e-001	 1.5175111291e+000	-9.3562395233e-001
 1.3702801779e-001	 1.5188312356e+000	-9.3354436874e-001
 2.8204273124e-001	 1.5241233210e+000	-9.6799300344e-001
 2.6765791091e-001	 1.5267151806e+000	-9.4340727805e-001
 2.5329210946e-001	 1.5291641858e+000	-9.2020413216e-001
 2.3894724534e-001	 1.5314712579e+000	-8.9858143012e-001
 2.2462520797e-001	 1.5336373482e+000	-8.7872155572e-001
 2.1032785724e-001	 1.5356634372e+000	-8.6079097683e-001
 1.9605702305e-001	 1.5375505337e+000	-8.4493985984e-001
 1.8181450494e-001	 1.5392996738e+000	-8.3130173391e-001
 1.6760207167e-001	 1.5409119201e+000	-8.1999320422e-001
 1.5342146087e-001	 1.5423883607e+000	-8.1111371388e-001
 1.3927437874e-001	 1.5437301083e+000	-8.0474535369e-001
 2.8659180755e-001	 1.5487059552e+000	-8.8610713833e-001
 2.7197497399e-001	 1.5513396190e+000	-8.5796277296e-001
 2.5737746606e-001	 1.5538281243e+000	-8.3098174809e-001
 2.4280123317e-001	 1.5561724073e+000	-8.0542215425e-001
 2.2824819520e-001	 1.5583734345e+000	-7.8152554448e-001
 2.1372024203e-001	 1.5604322023e+000	-7.5951643130e-001
 1.9921923310e-001	 1.5623497358e+000	-7.3960183750e-001
 1.8474699695e-001	 1.5641270879e+000	-7.2197090039e-001
 1.7030533088e-001	 1.5657653382e+000	-7.0679452918e-001
 1.5589600055e-001	 1.5672655924e+000	-6.9422511478e-001
 1.4152073968e-001	 1.5686289811e+000	-6.8439629130e-001
 2.9114088386e-001	 1.5732885894e+000	-8.0672907267e-001
 2.7629203707e-001	 1.5759640574e+000	-7.7522592532e-001
 2.6146282266e-001	 1.5784920628e+000	-7.4471713512e-001
 2.4665522099e-001	 1.5808735566e+000	-7.1552182946e-001
 2.3187118242e-001	 1.5831095208e+000	-6.8794148398e-001
 2.1711262682e-001	 1.5852009674e+000	-6.6225935119e-001
 2.0238144315e-001	 1.5871489380e+000	-6.3873994691e-001
 1.8767948897e-001	 1.5889545020e+000	-6.1762859426e-001
 1.7300859010e-001	 1.5906187562e+000	-5.9915102467e-001
 1.5837054024e-001	 1.5921428240e+000	-5.8351303540e-001
 1.4376710062e-001	 1.5935278538e+000	-5.7090020269e-001
 2.9568996017e-001	 1.5978712237e+000	-7.2984209914e-001
 2.8060910014e-001	 1.6005884958e+000	-6.9503850286e-001
 2.6554817926e-001	 1.6031560013e+000	-6.6110964364e-001
 2.5050920882e-001	 1.6055747059e+000	-6.2843658440e-001
 2.3549416964e-001	 1.6078456070e+000	-5.9738156358e-001
 2.2050501162e-001	 1.6099697326e+000	-5.6828735473e-001
 2.0554365319e-001	 1.6119481402e+000	-5.4147668802e-001
 1.9061198098e-001	 1.6137819161e+000	-5.1725173334e-001
 1.7571184932e-001	 1.6154721743e+000	-4.9589364464e-001
 1.6084507993e-001	 1.6170200556e+000	-4.7766216482e-001
 1.4601346157e-001	 1.6184267265e+000	-4.6279529042e-001
 3.0023903648e-001	 1.6224538579e+000	-6.5550760377e-001
 2.8492616322e-001	 1.6252129342e+000	-6.1732474020e-001
 2.6963353587e-001	 1.6278199398e+000	-5.7994554039e-001
 2.5436319665e-001	 1.6302758552e+000	-5.4381398678e-001
 2.3911715687e-001	 1.6325816933e+000	-5.0935400520e-001
 2.2389739641e-001	 1.6347384977e+000	-4.7696875461e-001
 2.0870586324e-001	 1.6367473423e+000	-4.4703998286e-001
 1.9354447299e-001	 1.6386093302e+000	-4.1992744847e-001
 1.7841510854e-001	 1.6403255924e+000	-3.9596840777e-001
 1.6331961962e-001	 1.6418972872e+000	-3.7547716684e-001
 1.4825982252e-001	 1.6433255992e+000	-3.5874469752e-001
 3.0478811279e-001	 1.6470364921e+000	-5.8385923810e-001
 2.8924322630e-001	 1.6498373726e+000	-5.4208518465e-001
 2.7371889247e-001	 1.6524838782e+000	-5.0109152209e-001
 2.5821718447e-001	 1.6549770045e+000	-4.6138621950e-001
 2.4274014409e-001	 1.6573177795e+000	-4.2345589676e-001
 2.2728978120e-001	 1.6595072628e+000	-3.8776504343e-001
 2.1186807329e-001	 1.6615465445e+000	-3.5475530823e-001
 1.9647696501e-001	 1.6634367443e+000	-3.2484485869e-001
 1.8111836776e-001	 1.6651790104e+000	-2.9842781059e-001
 1.6579415931e-001	 1.6667745188e+000	-2.7587372665e-001
 1.5050618346e-001	 1.6682244719e+000	-2.5752718351e-001
 3.0933718910e-001	 1.6716191263e+000	-5.1509760551e-001
 2.9356028938e-001	 1.6744618110e+000	-4.6939108498e-001
 2.7780424907e-001	 1.6771478167e+000	-4.2448880155e-001
 2.6207117230e-001	 1.6796781539e+000	-3.8096385903e-001
 2.4636313132e-001	 1.6820538658e+000	-3.3936665785e-001
 2.3068216600e-001	 1.6842760279e+000	-3.0022404227e-001
 2.1503028334e-001	 1.6863457466e+000	-2.6403852259e-001
 1.9940945702e-001	 1.6882641584e+000	-2.3128757207e-001
 1.8382162698e-001	 1.6900324285e+000	-2.0242299818e-001
 1.6826869900e-001	 1.6916517505e+000	-1.7787038746e-001
 1.5275254441e-001	 1.6931233446e+000	-1.5802862326e-001
 3.1388626541e-001	 1.6962017605e+000	-4.4948540969e-001
 2.9787735246e-001	 1.6990862494e+000	-3.9937926808e-001
 2.8188960568e-001	 1.7018117552e+000	-3.5014770788e-001
 2.6592516013e-001	 1.7043793032e+000	-3.0243019462e-001
 2.4998611855e-001	 1.7067899521e+000	-2.5684207373e-001
 2.3407455079e-001	 1.7090447930e+000	-2.1397364499e-001
 2.1819249339e-001	 1.7111449488e+000	-1.7438931660e-001
 2.0234194904e-001	 1.7130915724e+000	-1.3862683872e-001
 1.8652488620e-001	 1.7148858466e+000	-1.0719661575e-001
 1.7074323870e-001	 1.7165289821e+000	-8.0581097052e-002
 1.5499890536e-001	 1.7180222173e+000	-5.9234244932e-002
 3.1843534172e-001	 1.7207843947e+000	-3.8734301885e-001
 3.0219441554e-001	 1.7237106878e+000	-3.3224745489e-001
 2.8597496228e-001	 1.7264756937e+000	-2.7814274967e-001
 2.6977914796e-001	 1.7290804525e+000	-2.2573603462e-001
 2.5360910577e-001	 1.7315260383e+000	-1.7570884062e-001
 2.3746693559e-001	 1.7338135582e+000	-1.2871609872e-001
 2.2135470344e-001	 1.7359441509e+000	-8.5385225169e-002
 2.0527444106e-001	 1.7379189865e+000	-4.6315290607e-002
 1.8922814542e-001	 1.7397392646e+000	-1.2076272933e-002
 1.7321777839e-001	 1.7414062137e+000	 1.6791606843e-002
 1.5724526631e-001	 1.7429210901e+000	 3.9778466620e-002
 1.3478165685e-001	 1.4939323629e+000	-1.0725367619e+000
 1.2112499974e-001	 1.4951015800e+000	-1.0752426805e+000
 1.0750399961e-001	 1.4961426704e+000	-1.0807918949e+000
 9.3920214705e-002	 1.4970567769e+000	-1.0891179485e+000
 8.0375171839e-002	 1.4978450627e+000	-1.1001389596e+000
 6.6870366229e-002	 1.4985087101e+000	-1.1137577364e+000
 5.3407261333e-002	 1.4990489200e+000	-1.1298619266e+000
 3.9987288723e-002	 1.4994669109e+000	-1.1483242007e+000
 2.6611847981e-002	 1.4997639179e+000	-1.1690024671e+000
 1.3282306613e-002	 1.4999411923e+000	-1.1917401178e+000
 0.0000000000e+000	 1.5000000000e+000	-1.2163663038e+000
 1.3702801779e-001	 1.5188312356e+000	-9.3354436874e-001
 1.2314374973e-001	 1.5200199396e+000	-9.3096198758e-001
 1.0929573293e-001	 1.5210783815e+000	-9.3166126587e-001
 9.5485551614e-002	 1.5220077232e+000	-9.3559997465e-001
 8.1714758035e-002	 1.5228091470e+000	-9.4271928642e-001
 6.7984872331e-002	 1.5234838552e+000	-9.5294387486e-001
 5.4297382354e-002	 1.5240330686e+000	-9.6618205194e-001
 4.0653743534e-002	 1.5244580260e+000	-9.8232594112e-001
 2.7055378780e-002	 1.5247599832e+000	-1.0012516853e+000
 1.3503678390e-002	 1.5249402122e+000	-1.0228196879e+000
 0.0000000000e+000	 1.5250000000e+000	-1.0468748857e+000
 1.3927437874e-001	 1.5437301083e+000	-8.0474535369e-001
 1.2516249972e-001	 1.5449382993e+000	-7.9659565965e-001
 1.1108746626e-001	 1.5460140927e+000	-7.9221907272e-001
 9.7050888523e-002	 1.5469586695e+000	-7.9159819701e-001
 8.3054344230e-002	 1.5477732314e+000	-7.9469780159e-001
 6.9099378434e-002	 1.5484590004e+000	-8.0146490501e-001
 5.5187503375e-002	 1.5490172173e+000	-8.1182890013e-001
 4.1320198346e-002	 1.5494491412e+000	-8.2570171788e-001
 2.7498909579e-002	 1.5497560485e+000	-8.4297802833e-001
 1.3725050166e-002	 1.5499392320e+000	-8.6353547771e-001
 0.0000000000e+000	 1.5500000000e+000	-8.8723495970e-001
 1.4152073968e-001	 1.5686289811e+000	-6.8439629130e-001
 1.2718124971e-001	 1.5698566590e+000	-6.7030522849e-001
 1.1287919958e-001	 1.5709498039e+000	-6.6053176279e-001
 9.8616225433e-002	 1.5719096157e+000	-6.5508399151e-001
 8.4393930425e-002	 1.5727373158e+000	-6.5395087593e-001
 7.0213884536e-002	 1.5734341456e+000	-6.5710231089e-001
 5.6077624396e-002	 1.5740013660e+000	-6.6448923761e-001
 4.1986653157e-002	 1.5744402564e+000	-6.7604379831e-001
 2.7942440378e-002	 1.5747521138e+000	-6.9167953097e-001
 1.3946421943e-002	 1.5749382519e+000	-7.1129160276e-001
 0.0000000000e+000	 1.5750000000e+000	-7.3475708039e-001
 1.4376710062e-001	 1.5935278538e+000	-5.7090020269e-001
 1.2919999971e-001	 1.5947750186e+000	-5.5040062403e-001
 1.1467093291e-001	 1.5958855150e+000	-5.3481618398e-001
 1.0018156234e-001	 1.5968605620e+000	-5.2418118642e-001
 8.5733516621e-002	 1.5977014002e+000	-5.1850943257e-001
 7.1328390638e-002	 1.5984092907e+000	-5.1779427571e-001
 5.6967745417e-002	 1.5989855146e+000	-5.2200872231e-001
 4.2653107968e-002	 1.5994313716e+000	-5.3110557782e-001
 2.8385971177e-002	 1.5997481791e+000	-5.4501763558e-001
 1.4167793719e-002	 1.5999372718e+000	-5.6365790723e-001
 0.0000000000e+000	 1.6000000000e+000	-5.8691989273e-001
 1.4601346157e-001	 1.6184267265e+000	-4.6279529042e-001
 1.3121874970e-001	 1.6196933783e+000	-4.3532875913e-001
 1.1646266623e-001	 1.6208212262e+000	-4.1342801542e-001
 1.0174689925e-001	 1.6218115083e+000	-3.9715433526e-001
 8.7073102817e-002	 1.6226654846e+000	-3.8654705831e-001
 7.2442896741e-002	 1.6233844359e+000	-3.8162362804e-001
 5.7857866438e-002	 1.6239696633e+000	-3.8237968126e-001
 4.3319562779e-002	 1.6244224868e+000	-3.8878918547e-001
 2.8829501976e-002	 1.6247442444e+000	-4.0080462240e-001
 1.4389165496e-002	 1.6249362916e+000	-4.1835721583e-001
 0.0000000000e+000	 1.6250000000e+000	-4.4135720197e-001
 1.4825982252e-001	 1.6433255992e+000	-3.5874469752e-001
 1.3323749970e-001	 1.6446117380e+000	-3.2366315211e-001
 1.1825439956e-001	 1.6457569374e+000	-2.9485125001e-001
 1.0331223616e-001	 1.6467624546e+000	-2.7239805575e-001
 8.8412689013e-002	 1.6476295689e+000	-2.5636919576e-001
 7.3557402843e-002	 1.6483595811e+000	-2.4680688381e-001
 5.8747987459e-002	 1.6489538120e+000	-2.4372999926e-001
 4.3986017590e-002	 1.6494136019e+000	-2.4713421630e-001
 2.9273032775e-002	 1.6497403097e+000	-2.5699218243e-001
 1.4610537273e-002	 1.6499353115e+000	-2.7325374432e-001
 0.0000000000e+000	 1.6500000000e+000	-2.9584621912e-001
 1.5050618346e-001	 1.6682244719e+000	-2.5752718351e-001
 1.3525624969e-001	 1.6695300976e+000	-2.1409447856e-001
 1.2004613288e-001	 1.6706926486e+000	-1.7768861871e-001
 1.0487757307e-001	 1.6717134009e+000	-1.4842732360e-001
 8.9752275209e-002	 1.6725936533e+000	-1.2640330337e-001
 7.4671908946e-002	 1.6733347262e+000	-1.1168426965e-001
 5.9638108481e-002	 1.6739379606e+000	-1.0431300267e-001
 4.4652472402e-002	 1.6744047171e+000	-1.0430747264e-001
 2.9716563574e-002	 1.6747363750e+000	-1.1166101362e-001
 1.4831909049e-002	 1.6749343314e+000	-1.2634254794e-001
 0.0000000000e+000	 1.6750000000e+000	-1.4829685900e-001
 1.5275254441e-001	 1.6931233446e+000	-1.5802862326e-001
 1.3727499969e-001	 1.6944484573e+000	-1.0542195682e-001
 1.2183786621e-001	 1.6956283597e+000	-6.0652859853e-002
 1.0644290998e-001	 1.6966643472e+000	-2.3868622589e-002
 9.1091861406e-002	 1.6975577377e+000	 4.8101163507e-003
 7.5786415049e-002	 1.6983098714e+000	 2.5289373467e-002
 6.0528229502e-002	 1.6989221093e+000	 3.7501764260e-002
 4.5318927213e-002	 1.6993958323e+000	 4.1406389364e-002
 3.0160094373e-002	 1.6997324403e+000	 3.6988664906e-002
 1.5053280826e-002	 1.6999333513e+000	 2.4260099124e-002
 0.0000000000e+000	 1.7000000000e+000	 3.2580173739e-003
 1.5499890536e-001	 1.7180222173e+000	-5.9234244932e-002
 1.3929374968e-001	 1.7193668170e+000	 3.4545173700e-003
 1.2362959954e-001	 1.7205640709e+000	 5.7441252439e-002
 1.0800824690e-001	 1.7216152934e+000	 1.0254813569e-001
 9.2431447602e-002	 1.7225218221e+000	 1.3862570841e-001
 7.6900921152e-002	 1.7232850166e+000	 1.6555289566e-001
 6.1418350523e-002	 1.7239062580e+000	 1.8323696098e-001
 4.5985382024e-002	 1.7243869475e+000	 1.9161339985e-001
 3.0603625172e-002	 1.7247285056e+000	 1.9064577383e-001
 1.5274652602e-002	 1.7249323711e+000	 1.8032548775e-001
 0.0000000000e+000	 1.7250000000e+000	 1.6067151195e-001
 1.5724526631e-001	 1.7429210901e+000	 3.9778466620e-002
 1.4131249968e-001	 1.7442851766e+000	 1.1354156220e-001
 1.2542133286e-001	 1.7454997821e+000	 1.7768419651e-001
 1.0957358381e-001	 1.7465662397e+000	 2.3199699956e-001
 9.3771033799e-002	 1.7474859064e+000	 2.7630075481e-001
 7.8015427255e-002	 1.7482601617e+000	 3.1044643157e-001
 6.2308471545e-002	 1.7488904066e+000	 3.3431515037e-001
 4.6651836836e-002	 1.7493780627e+000	 3.4781808340e-001
 3.1047155971e-002	 1.7497245709e+000	 3.5089629222e-001
 1.5496024379e-002	 1.7499313910e+000	 3.4352050492e-001
 0.0000000000e+000	 1.7500000000e+000	 3.2569083514e-001
 1.7500000000e+000	 0.0000000000e+000	 3.2335491927e+000
 1.7499313910e+000	 1.5496024379e-002	 3.2317001510e+000
 1.7497245709e+000	 3.1047155971e-002	 3.2266808830e+000
 1.7493780627e+000	 4.6651836836e-002	 3.2184475812e+000
 1.7488904066e+000	 6.2308471545e-002	 3.2069539445e+000
 1.7482601617e+000	 7.8015427255e-002	 3.1921510910e+000
 1.7474859064e+000	 9.3771033799e-002	 3.1739874753e+000
 1.7465662397e+000	 1.0957358381e-001	 3.1524088079e+000
 1.7454997821e+000	 1.2542133286e-001	 3.1273579798e+000
 1.7442851766e+000	 1.4131249968e-001	 3.0987749912e+000
 1.7429210901e+000	 1.5724526631e-001	 3.0665968847e+000
 1.7750000000e+000	 0.0000000000e+000	 3.2389971723e+000
 1.7749304109e+000	 1.5717396155e-002	 3.2397555512e+000
 1.7747206362e+000	 3.1490686771e-002	 3.2370425424e+000
 1.7743691778e+000	 4.7318291647e-002	 3.2308086506e+000
 1.7738745553e+000	 6.3198592567e-002	 3.2210019425e+000
 1.7732353069e+000	 7.9129933358e-002	 3.2075679642e+000
 1.7724499908e+000	 9.5110619996e-002	 3.1904496630e+000
 1.7715171860e+000	 1.1113892072e-001	 3.1695873125e+000
 1.7704354933e+000	 1.2721306619e-001	 3.1449184421e+000
 1.7692035363e+000	 1.4333124967e-001	 3.1163777705e+000
 1.7678199628e+000	 1.5949162725e-001	 3.0838971454e+000
 1.8000000000e+000	 0.0000000000e+000	 3.2488222661e+000
 1.7999294307e+000	 1.5938767932e-002	 3.2517309182e+000
 1.7997167015e+000	 3.1934217570e-002	 3.2508917606e+000
 1.7993602930e+000	 4.7984746459e-002	 3.2462500748e+000
 1.7988587040e+000	 6.4088713588e-002	 3.2377487476e+000
 1.7982104521e+000	 8.0244439462e-002	 3.2253281936e+000
 1.7974140752e+000	 9.6450206192e-002	 3.2089262806e+000
 1.7964681323e+000	 1.1270425763e-001	 3.1884782589e+000
 1.7953712044e+000	 1.2900479952e-001	 3.1639166955e+000
 1.7941218960e+000	 1.4534999967e-001	 3.1351714125e+000
 1.7927188355e+000	 1.6173798820e-001	 3.1021694310e+000
 1.8250000000e+000	 0.0000000000e+000	 3.2627890649e+000
 1.8249284506e+000	 1.6160139709e-002	 3.2673986491e+000
 1.8247127668e+000	 3.2377748369e-002	 3.2680082560e+000
 1.8243514082e+000	 4.8651201270e-002	 3.2645584001e+000
 1.8238428526e+000	 6.4978834610e-002	 3.2569872338e+000
 1.8231855972e+000	 8.1358945565e-002	 3.2452304730e+000
 1.8223781596e+000	 9.7789792389e-002	 3.2292213261e+000
 1.8214190786e+000	 1.1426959454e-001	 3.2088904267e+000
 1.8203069156e+000	 1.3079653284e-001	 3.1841657717e+000
 1.8190402556e+000	 1.4736874966e-001	 3.1549726635e+000
 1.8176177082e+000	 1.6398434915e-001	 3.1212336585e+000
 1.8500000000e+000	 0.0000000000e+000	 3.2806748845e+000
 1.8499274705e+000	 1.6381511485e-002	 3.2865433204e+000
 1.8497088321e+000	 3.2821279168e-002	 3.2881834153e+000
 1.8493425234e+000	 4.9317656081e-002	 3.2855313662e+000
 1.8488270013e+000	 6.5868955631e-002	 3.2785210294e+000
 1.8481607424e+000	 8.2473451668e-002	 3.2670838480e+000
 1.8473422440e+000	 9.9129378586e-002	 3.2511487841e+000
 1.8463700248e+000	 1.1583493145e-001	 3.2306422545e+000
 1.8452426268e+000	 1.3258826617e-001	 3.2054880713e+000
 1.8439586153e+000	 1.4938749966e-001	 3.1756073881e+000
 1.8425165809e+000	 1.6623071010e-001	 3.1409186512e+000
 1.8750000000e+000	 0.0000000000e+000	 3.3022689170e+000
 1.8749264904e+000	 1.6602883262e-002	 3.3089608761e+000
 1.8747048974e+000	 3.3264809967e-002	 3.3112195164e+000
 1.8743336386e+000	 4.9984110893e-002	 3.3089771605e+000
 1.8738111500e+000	 6.6759076653e-002	 3.3021638003e+000
 1.8731358876e+000	 8.3587957771e-002	 3.2907070258e+000
 1.8723063283e+000	 1.0046896478e-001	 3.2745319598e+000
 1.8713209711e+000	 1.1740026836e-001	 3.2535611954e+000
 1.8701783379e+000	 1.3437999950e-001	 3.2277147394e+000
 1.8688769750e+000	 1.5140624966e-001	 3.1969099608e+000
 1.8674154536e+000	 1.6847707105e-001	 3.1610615451e+000
 1.9000000000e+000	 0.0000000000e+000	 3.1763006901e+000
 1.8999255102e+000	 1.6824255038e-002	 3.1819823962e+000
 1.8997009627e+000	 3.3708340767e-002	 3.1842947616e+000
 1.8993247537e+000	 5.0650565704e-002	 3.1831984384e+000
 1.8987952986e+000	 6.7649197674e-002	 3.1786403971e+000
 1.8981110327e+000	 8.4702463874e-002	 3.1705535255e+000
 1.8972704127e+000	 1.0180855098e-001	 3.1588562470e+000
 1.8962719174e+000	 1.1896560528e-001	 3.1434521590e+000
 1.8951140491e+000	 1.3617173282e-001	 3.1242296932e+000
 1.8937953346e+000	 1.5342499965e-001	 3.1010618005e+000
 1.8923143264e+000	 1.7072343199e-001	 3.0738056609e+000
 1.9250000000e+000	 0.0000000000e+000	 3.0536845177e+000
 1.9249245301e+000	 1.7045626815e-002	 3.0575747380e+000
 1.9246970280e+000	 3.4151871566e-002	 3.0582741015e+000
 1.9243158689e+000	 5.1317020516e-002	 3.0557417521e+000
 1.9237794473e+000	 6.8539318696e-002	 3.0499225099e+000
 1.9230861779e+000	 8.5816969978e-002	 3.0407464542e+000
 1.9222344971e+000	 1.0314813718e-001	 3.0281285260e+000
 1.9212228637e+000	 1.2053094219e-001	 3.0119681518e+000
 1.9200497603e+000	 1.3796346615e-001	 2.9921488911e+000
 1.9187136943e+000	 1.5544374965e-001	 2.9685381083e+000
 1.9172131991e+000	 1.7296979294e-001	 2.9409866717e+000
 1.9500000000e+000	 0.0000000000e+000	 2.9342407713e+000
 1.9499235500e+000	 1.7266998592e-002	 2.9360190290e+000
 1.9496930933e+000	 3.4595402365e-002	 2.9348245810e+000
 1.9493069841e+000	 5.1983475327e-002	 2.9306155198e+000
 1.9487635960e+000	 6.9429439717e-002	 2.9233349387e+000
 1.9480613231e+000	 8.6931476081e-002	 2.9129104975e+000
 1.9471985815e+000	 1.0448772337e-001	 2.8992540087e+000
 1.9461738100e+000	 1.2209627910e-001	 2.8822610456e+000
 1.9449854715e+000	 1.3975519948e-001	 2.8618105752e+000
 1.9436320540e+000	 1.5746249964e-001	 2.8377646168e+000
 1.9421120718e+000	 1.7521615389e-001	 2.8099679283e+000
 1.9750000000e+000	 0.0000000000e+000	 2.8177989178e+000
 1.9749225698e+000	 1.7488370368e-002	 2.8171552469e+000
 1.9746891586e+000	 3.5038933164e-002	 2.8137967284e+000
 1.9742980993e+000	 5.2649930139e-002	 2.8076808547e+000
 1.9737477446e+000	 7.0319560739e-002	 2.7987494109e+000
 1.9730364682e+000	 8.8045982184e-002	 2.7869280214e+000
 1.9721626658e+000	 1.0582730957e-001	 2.7721257184e+000
 1.9711247563e+000	 1.2366161601e-001	 2.7542345338e+000
 1.9699211826e+000	 1.4154693280e-001	 2.7331291155e+000
 1.9685504136e+000	 1.5948124964e-001	 2.7086663719e+000
 1.9670109445e+000	 1.7746251484e-001	 2.6806851448e+000
 2.0000000000e+000	 0.0000000000e+000	 2.7041969505e+000
 1.9999215897e+000	 1.7709742145e-002	 2.7008315308e+000
 1.9996852239e+000	 3.5482463963e-002	 2.6950488907e+000
 1.9992892145e+000	 5.3316384950e-002	 2.6868063703e+000
 1.9987318933e+000	 7.1209681760e-002	 2.6760448602e+000
 1.9980116134e+000	 8.9160488287e-002	 2.6626883286e+000
 1.9971267502e+000	 1.0716689577e-001	 2.6466433706e+000
 1.9960757025e+000	 1.2522695292e-001	 2.6277987822e+000
 1.9948568938e+000	 1.4333866613e-001	 2.6060251599e+000
 1.9934687733e+000	 1.6149999964e-001	 2.5811745291e+000
 1.9919098172e+000	 1.7970887579e-001	 2.5530800030e+000
 1.7429210901e+000	 1.5724526631e-001	 3.0665968847e+000
 1.7414062137e+000	 1.7321777839e-001	 3.0497348394e+000
 1.7397392646e+000	 1.8922814542e-001	 3.0278047432e+000
 1.7379189865e+000	 2.0527444106e-001	 3.0007069394e+000
 1.7359441509e+000	 2.2135470344e-001	 2.9683394932e+000
 1.7338135582e+000	 2.3746693559e-001	 2.9305982018e+000
 1.7315260383e+000	 2.5360910577e-001	 2.8873766124e+000
 1.7290804525e+000	 2.6977914796e-001	 2.8385660473e+000
 1.7264756937e+000	 2.8597496228e-001	 2.7840556375e+000
 1.7237106878e+000	 3.0219441554e-001	 2.7237323639e+000
 1.7207843947e+000	 3.1843534172e-001	 2.6574811078e+000
 1.7678199628e+000	 1.5949162725e-001	 3.0838971454e+000
 1.7662834454e+000	 1.7569231808e-001	 3.0657801608e+000
 1.7645926827e+000	 1.9193140464e-001	 3.0424055161e+000
 1.7627464006e+000	 2.0820693307e-001	 3.0136718389e+000
 1.7607433531e+000	 2.2451691349e-001	 2.9794755171e+000
 1.7585823233e+000	 2.4085932039e-001	 2.9397107118e+000
 1.7562621246e+000	 2.5723209300e-001	 2.8942693772e+000
 1.7537816018e+000	 2.7363313579e-001	 2.8430412881e+000
 1.7511396322e+000	 2.9006031889e-001	 2.7859140764e+000
 1.7483351262e+000	 3.0651147862e-001	 2.7227732749e+000
 1.7453670289e+000	 3.2298441803e-001	 2.6535023710e+000
 1.7927188355e+000	 1.6173798820e-001	 3.1021694310e+000
 1.7911606770e+000	 1.7816685777e-001	 3.0827014882e+000
 1.7894461008e+000	 1.9463466387e-001	 3.0578107293e+000
 1.7875738147e+000	 2.1113942509e-001	 3.0273943046e+000
 1.7855425553e+000	 2.2767912354e-001	 2.9913471464e+000
 1.7833510884e+000	 2.4425170518e-001	 2.9495619834e+000
 1.7809982109e+000	 2.6085508023e-001	 2.9019293623e+000
 1.7784827512e+000	 2.7748712362e-001	 2.8483376771e+000
 1.7758035707e+000	 2.9414567549e-001	 2.7886732075e+000
 1.7729595646e+000	 3.1082854170e-001	 2.7228201656e+000
 1.7699496631e+000	 3.2753349434e-001	 2.6506607513e+000
 1.8176177082e+000	 1.6398434915e-001	 3.1212336585e+000
 1.8160379086e+000	 1.8064139747e-001	 3.1003174798e+000
 1.8142995188e+000	 1.9733792309e-001	 3.0738374017e+000
 1.8124012288e+000	 2.1407191711e-001	 3.0416893326e+000
 1.8103417574e+000	 2.3084133360e-001	 3.0037669673e+000
 1.8081198535e+000	 2.4764408998e-001	 2.9599618026e+000
 1.8057342971e+000	 2.6447806745e-001	 2.9101631596e+000
 1.8031839005e+000	 2.8134111145e-001	 2.8542582148e+000
 1.8004675091e+000	 2.9823103210e-001	 2.7921320399e+000
 1.7975840030e+000	 3.1514560478e-001	 2.7236676501e+000
 1.7945322974e+000	 3.3208257065e-001	 2.6487460619e+000
 1.8425165809e+000	 1.6623071010e-001	 3.1409186512e+000
 1.8409151402e+000	 1.8311593716e-001	 3.1184557375e+000
 1.8391529369e+000	 2.0004118231e-001	 3.0903115643e+000
 1.8372286429e+000	 2.1700440913e-001	 3.0563810299e+000
 1.8351409596e+000	 2.3400354365e-001	 3.0165568067e+000
 1.8328886186e+000	 2.5103647477e-001	 2.9707293568e+000
 1.8304703834e+000	 2.6810105468e-001	 2.9187869547e+000
 1.8278850498e+000	 2.8519509928e-001	 2.8606157200e+000
 1.8251314476e+000	 3.0231638870e-001	 2.7960996570e+000
 1.8222084414e+000	 3.1946266786e-001	 2.7251207057e+000
 1.8191149316e+000	 3.3663164696e-001	 2.6475587999e+000
 1.8674154536e+000	 1.6847707105e-001	 3.1610615451e+000
 1.8657923719e+000	 1.8559047685e-001	 3.1369522109e+000
 1.8640063550e+000	 2.0274444153e-001	 3.1070676589e+000
 1.8620560570e+000	 2.1993690114e-001	 3.0713020066e+000
 1.8599401617e+000	 2.3716575370e-001	 3.0295471158e+000
 1.8576573837e+000	 2.5442885957e-001	 2.9816926081e+000
 1.8552064696e+000	 2.7172404191e-001	 2.9276258881e+000
 1.8525861991e+000	 2.8904908711e-001	 2.8672321753e+000
 1.8497953861e+000	 3.0640174531e-001	 2.8003945457e+000
 1.8468328798e+000	 3.2377973094e-001	 2.7269939818e+000
 1.8436975658e+000	 3.4118072327e-001	 2.6469094335e+000
 1.8923143264e+000	 1.7072343199e-001	 3.0738056609e+000
 1.8906696035e+000	 1.8806501655e-001	 3.0590058189e+000
 1.8888597730e+000	 2.0544770075e-001	 3.0393764018e+000
 1.8868834711e+000	 2.2286939316e-001	 3.0147163348e+000
 1.8847393639e+000	 2.4032796375e-001	 2.9848083811e+000
 1.8824261489e+000	 2.5782124437e-001	 2.9494190249e+000
 1.8799425559e+000	 2.7534702914e-001	 2.9082983912e+000
 1.8772873485e+000	 2.9290307494e-001	 2.8611802011e+000
 1.8744593246e+000	 3.1048710192e-001	 2.8048439768e+000
 1.8714573182e+000	 3.2809679402e-001	 2.7291111636e+000
 1.8682802000e+000	 3.4572979958e-001	 2.6466177464e+000
 1.9172131991e+000	 1.7296979294e-001	 2.9409866717e+000
 1.9155468351e+000	 1.9053955624e-001	 2.9259416663e+000
 1.9137131911e+000	 2.0815095998e-001	 2.9063417101e+000
 1.9117108852e+000	 2.2580188518e-001	 2.8819799459e+000
 1.9095385661e+000	 2.4349017380e-001	 2.8526325323e+000
 1.9071949140e+000	 2.6121362916e-001	 2.8180585190e+000
 1.9046786422e+000	 2.7897001637e-001	 2.7779997587e+000
 1.9019884978e+000	 2.9675706277e-001	 2.7321808580e+000
 1.8991232631e+000	 3.1457245852e-001	 2.6803091666e+000
 1.8960817566e+000	 3.3241385710e-001	 2.6220748096e+000
 1.8928628342e+000	 3.5027887589e-001	 2.5571507602e+000
 1.9421120718e+000	 1.7521615389e-001	 2.8099679283e+000
 1.9404240667e+000	 1.9301409593e-001	 2.7948442820e+000
 1.9385666092e+000	 2.1085421920e-001	 2.7754795282e+000
 1.9365382993e+000	 2.2873437719e-001	 2.7516610414e+000
 1.9343377682e+000	 2.4665238385e-001	 2.7231583476e+000
 1.9319636791e+000	 2.6460601396e-001	 2.6897229897e+000
 1.9294147284e+000	 2.8259300359e-001	 2.6510884321e+000
 1.9266896471e+000	 3.0061105060e-001	 2.6069700053e+000
 1.9237872016e+000	 3.1865781513e-001	 2.5570648909e+000
 1.9207061950e+000	 3.3673092018e-001	 2.5010521508e+000
 1.9174454684e+000	 3.5482795221e-001	 2.4385927995e+000
 1.9670109445e+000	 1.7746251484e-001	 2.6806851448e+000
 1.9653012984e+000	 1.9548863562e-001	 2.6656572235e+000
 1.9634200273e+000	 2.1355747842e-001	 2.6467413630e+000
 1.9613657134e+000	 2.3166686921e-001	 2.6237191781e+000
 1.9591369704e+000	 2.4981459391e-001	 2.5963535269e+000
 1.9567324442e+000	 2.6799839876e-001	 2.5643883671e+000
 1.9541508147e+000	 2.8621599082e-001	 2.5275486516e+000
 1.9513907964e+000	 3.0446503843e-001	 2.4855402657e+000
 1.9484511400e+000	 3.2274317174e-001	 2.4380500082e+000
 1.9453306334e+000	 3.4104798327e-001	 2.3847456163e+000
 1.9420281026e+000	 3.5937702852e-001	 2.3252758374e+000
 1.9919098172e+000	 1.7970887579e-001	 2.5530800030e+000
 1.9901785300e+000	 1.9796317532e-001	 2.5383300417e+000
 1.9882734453e+000	 2.1626073764e-001	 2.5200847606e+000
 1.9861931275e+000	 2.3459936123e-001	 2.4981200175e+000
 1.9839361725e+000	 2.5297680396e-001	 2.4721919621e+000
 1.9815012093e+000	 2.7139078356e-001	 2.4420368814e+000
 1.9788869010e+000	 2.8983897805e-001	 2.4073710861e+000
 1.9760919458e+000	 3.0831902626e-001	 2.3678908408e+000
 1.9731150785e+000	 3.2682852835e-001	 2.3232723383e+000
 1.9699550718e+000	 3.4536504635e-001	 2.2731717217e+000
 1.9666107368e+000	 3.6392610484e-001	 2.2172251538e+000
 1.7207843947e+000	 3.1843534172e-001	 2.6574811078e+000
 1.7176958094e+000	 3.3469554257e-001	 2.6140449928e+000
 1.7144439629e+000	 3.5097278822e-001	 2.5681313104e+000
 1.7110279231e+000	 3.6726481779e-001	 2.5196395607e+000
 1.7074467960e+000	 3.8356934007e-001	 2.4684646511e+000
 1.7036997268e+000	 3.9988403422e-001	 2.4144969217e+000
 1.6997859004e+000	 4.1620655053e-001	 2.3576221825e+000
 1.6957045429e+000	 4.3253451115e-001	 2.2977217633e+000
 1.6914549220e+000	 4.4886551095e-001	 2.2346725767e+000
 1.6870363485e+000	 4.6519711830e-001	 2.1683471928e+000
 1.6824481768e+000	 4.8152687598e-001	 2.0986139288e+000
 1.7453670289e+000	 3.2298441803e-001	 2.6535023710e+000
 1.7422343210e+000	 3.3947690746e-001	 2.6066860960e+000
 1.7389360195e+000	 3.5598668519e-001	 2.5572921639e+000
 1.7354711791e+000	 3.7251145804e-001	 2.5052191601e+000
 1.7318388931e+000	 3.8904890206e-001	 2.4503610298e+000
 1.7280382943e+000	 4.0559666328e-001	 2.3926071045e+000
 1.7240685561e+000	 4.2215235839e-001	 2.3318421414e+000
 1.7199288935e+000	 4.3871357559e-001	 2.2679463754e+000
 1.7156185637e+000	 4.5527787539e-001	 2.2007955839e+000
 1.7111368678e+000	 4.7184279141e-001	 2.1302611659e+000
 1.7064831508e+000	 4.8840583136e-001	 2.0562102333e+000
 1.7699496631e+000	 3.2753349434e-001	 2.6506607513e+000
 1.7667728326e+000	 3.4425827236e-001	 2.6005977755e+000
 1.7634280761e+000	 3.6100058217e-001	 2.5478800595e+000
 1.7599144352e+000	 3.7775809829e-001	 2.4924053021e+000
 1.7562309902e+000	 3.9452846406e-001	 2.4340664931e+000
 1.7523768619e+000	 4.1130929234e-001	 2.3727519419e+000
 1.7483512119e+000	 4.2809816625e-001	 2.3083453175e+000
 1.7441532441e+000	 4.4489264004e-001	 2.2407257030e+000
 1.7397822055e+000	 4.6169023983e-001	 2.1697676624e+000
 1.7352373870e+000	 4.7848846453e-001	 2.0953413221e+000
 1.7305181247e+000	 4.9528478673e-001	 2.0173124656e+000
 1.7945322974e+000	 3.3208257065e-001	 2.6487460619e+000
 1.7913113441e+000	 3.4903963725e-001	 2.5955656050e+000
 1.7879201327e+000	 3.6601447914e-001	 2.5396760426e+000
 1.7843576912e+000	 3.8300473855e-001	 2.4809742124e+000
 1.7806230873e+000	 4.0000802606e-001	 2.4193521544e+000
 1.7767154294e+000	 4.1702192139e-001	 2.3546971396e+000
 1.7726338676e+000	 4.3404397412e-001	 2.2868917120e+000
 1.7683775947e+000	 4.5107170448e-001	 2.2158137439e+000
 1.7639458472e+000	 4.6810260427e-001	 2.1413365054e+000
 1.7593379063e+000	 4.8513413765e-001	 2.0633287475e+000
 1.7545530987e+000	 5.0216374210e-001	 1.9816548003e+000
 1.8191149316e+000	 3.3663164696e-001	 2.6475587999e+000
 1.8158498557e+000	 3.5382100214e-001	 2.5913861425e+000
 1.8124121893e+000	 3.7102837612e-001	 2.5324724691e+000
 1.8088009473e+000	 3.8825137880e-001	 2.4707137801e+000
 1.8050151844e+000	 4.0548758806e-001	 2.4060011687e+000
 1.8010539969e+000	 4.2273455045e-001	 2.3382208500e+000
 1.7969165233e+000	 4.3998978198e-001	 2.2672542037e+000
 1.7926019453e+000	 4.5725076893e-001	 2.1929778307e+000
 1.7881094890e+000	 4.7451496871e-001	 2.1152636245e+000
 1.7834384256e+000	 4.9177981077e-001	 2.0339788564e+000
 1.7785880727e+000	 5.0904269747e-001	 1.9489862760e+000
 1.8436975658e+000	 3.4118072327e-001	 2.6469094335e+000
 1.8403883673e+000	 3.5860236704e-001	 2.5878661979e+000
 1.8369042460e+000	 3.7604227309e-001	 2.5260722517e+000
 1.8332442033e+000	 3.9349801906e-001	 2.4614227801e+000
 1.8294072815e+000	 4.1096715007e-001	 2.3938079306e+000
 1.8253925645e+000	 4.2844717952e-001	 2.3231128425e+000
 1.8211991790e+000	 4.4593558984e-001	 2.2492176905e+000
 1.8168262959e+000	 4.6342983337e-001	 2.1719977416e+000
 1.8122731307e+000	 4.8092733315e-001	 2.0913234283e+000
 1.8075389448e+000	 4.9842548389e-001	 2.0070604356e+000
 1.8026230466e+000	 5.1592165284e-001	 1.9190698040e+000
 1.8682802000e+000	 3.4572979958e-001	 2.6466177464e+000
 1.8649268788e+000	 3.6338373194e-001	 2.5848221585e+000
 1.8613963026e+000	 3.8105617007e-001	 2.5202881653e+000
 1.8576874594e+000	 3.9874465931e-001	 2.4529101566e+000
 1.8537993786e+000	 4.1644671207e-001	 2.3825773338e+000
 1.8497311320e+000	 4.3415980858e-001	 2.3091737391e+000
 1.8454818348e+000	 4.5188139771e-001	 2.2325782988e+000
 1.8410506465e+000	 4.6960889782e-001	 2.1526648819e+000
 1.8364367724e+000	 4.8733969760e-001	 2.0693023737e+000
 1.8316394641e+000	 5.0507115701e-001	 1.9823547646e+000
 1.8266580206e+000	 5.2280060822e-001	 1.8916812556e+000
 1.8928628342e+000	 3.5027887589e-001	 2.5571507602e+000
 1.8894653904e+000	 3.6816509683e-001	 2.5124901568e+000
 1.8858883592e+000	 3.8607006704e-001	 2.4647952884e+000
 1.8821307154e+000	 4.0399129957e-001	 2.4137108751e+000
 1.8781914757e+000	 4.2192627407e-001	 2.3588616636e+000
 1.8740696995e+000	 4.3987243764e-001	 2.2962143095e+000
 1.8697644905e+000	 4.5782720558e-001	 2.2171426541e+000
 1.8652749971e+000	 4.7578796226e-001	 2.1347815289e+000
 1.8606004142e+000	 4.9375206204e-001	 2.0489981838e+000
 1.8557399833e+000	 5.1171683013e-001	 1.9596548048e+000
 1.8506929945e+000	 5.2967956359e-001	 1.8666086206e+000
 1.9174454684e+000	 3.5482795221e-001	 2.4385927995e+000
 1.9140039020e+000	 3.7294646173e-001	 2.3963234279e+000
 1.9103804158e+000	 3.9108396402e-001	 2.3513223264e+000
 1.9065739715e+000	 4.0923793982e-001	 2.3032197884e+000
 1.9025835728e+000	 4.2740583607e-001	 2.2516251480e+000
 1.8984082670e+000	 4.4558506670e-001	 2.1961270012e+000
 1.8940471462e+000	 4.6377301344e-001	 2.1362934812e+000
 1.8894993478e+000	 4.8196702671e-001	 2.0716725885e+000
 1.8847640559e+000	 5.0016442648e-001	 2.0017925763e+000
 1.8798405026e+000	 5.1836250325e-001	 1.9261623932e+000
 1.8747279685e+000	 5.3655851896e-001	 1.8436512304e+000
 1.9420281026e+000	 3.5937702852e-001	 2.3252758374e+000
 1.9385424135e+000	 3.7772782663e-001	 2.2859425492e+000
 1.9348724724e+000	 3.9609786100e-001	 2.2442151912e+000
 1.9310172275e+000	 4.1448458008e-001	 2.1997091666e+000
 1.9269756698e+000	 4.3288539808e-001	 2.1520178860e+000
 1.9227468346e+000	 4.5129769576e-001	 2.1007129952e+000
 1.9183298019e+000	 4.6971882131e-001	 2.0453446595e+000
 1.9137236984e+000	 4.8814609116e-001	 1.9854419047e+000
 1.9089276977e+000	 5.0657679093e-001	 1.9205130162e+000
 1.9039410219e+000	 5.2500817637e-001	 1.8500459977e+000
 1.8987629424e+000	 5.4343747433e-001	 1.7735090878e+000
 1.9666107368e+000	 3.6392610484e-001	 2.2172251538e+000
 1.9630809251e+000	 3.8250919152e-001	 2.1813822926e+000
 1.9593645290e+000	 4.0111175798e-001	 2.1435182810e+000
 1.9554604835e+000	 4.1973122034e-001	 2.1032331590e+000
 1.9513677669e+000	 4.3836496008e-001	 2.0601038931e+000
 1.9470854021e+000	 4.5701032483e-001	 2.0136846101e+000
 1.9426124576e+000	 4.7566462918e-001	 1.9635068905e+000
 1.9379480490e+000	 4.9432515561e-001	 1.9090801206e+000
 1.9330913394e+000	 5.1298915537e-001	 1.8498919058e+000
 1.9280415411e+000	 5.3165384949e-001	 1.7854085447e+000
 1.9227979164e+000	 5.5031642970e-001	 1.7150755651e+000
 1.6824481768e+000	 4.8152687598e-001	 2.0986139288e+000
 1.6776898060e+000	 4.9785230211e-001	 2.0665449982e+000
 1.6727606807e+000	 5.1417089100e-001	 2.0186836970e+000
 1.6676602917e+000	 5.3048011422e-001	 1.9547899530e+000
 1.6623881771e+000	 5.4677742155e-001	 1.8746299296e+000
 1.6569439230e+000	 5.6306024200e-001	 1.7779764342e+000
 1.6513271642e+000	 5.7932598494e-001	 1.6646093305e+000
 1.6455375851e+000	 5.9557204113e-001	 1.5343159571e+000
 1.6395749202e+000	 6.1179578385e-001	 1.3868915494e+000
 1.6334389551e+000	 6.2799457010e-001	 1.2389029568e+000
 1.6271295268e+000	 6.4416574173e-001	 1.1463849810e+000
 1.7064831508e+000	 4.8840583136e-001	 2.0562102333e+000
 1.7016568033e+000	 5.0496447785e-001	 2.0193780127e+000
 1.6966572618e+000	 5.2151618944e-001	 1.9674530056e+000
 1.6914840101e+000	 5.3805840157e-001	 1.9001961697e+000
 1.6861365796e+000	 5.5458852757e-001	 1.8173740720e+000
 1.6806145504e+000	 5.7110395975e-001	 1.7187592901e+000
 1.6749175522e+000	 5.8760207045e-001	 1.6041308210e+000
 1.6690452648e+000	 6.0408021315e-001	 1.4732744951e+000
 1.6629974190e+000	 6.2053572362e-001	 1.3259833957e+000
 1.6567737973e+000	 6.3696592110e-001	 1.2256885207e+000
 1.6503742344e+000	 6.5336810947e-001	 1.1307909713e+000
 1.7305181247e+000	 4.9528478673e-001	 2.0173124656e+000
 1.7256238005e+000	 5.1207665360e-001	 1.9759309199e+000
 1.7205538430e+000	 5.2886148789e-001	 1.9201555488e+000
 1.7153077286e+000	 5.4563668892e-001	 1.8497480547e+000
 1.7098849821e+000	 5.6239963360e-001	 1.7644751122e+000
 1.7042851779e+000	 5.7914767750e-001	 1.6641087639e+000
 1.6985079403e+000	 5.9587815595e-001	 1.5484268250e+000
 1.6925529446e+000	 6.1258838517e-001	 1.4172132928e+000
 1.6864199179e+000	 6.2927566340e-001	 1.2920499495e+000
 1.6801086395e+000	 6.4593727211e-001	 1.2127641900e+000
 1.6736189419e+000	 6.6257047722e-001	 1.1153527946e+000
 1.7545530987e+000	 5.0216374210e-001	 1.9816548003e+000
 1.7495907977e+000	 5.1918882934e-001	 1.9359367700e+000
 1.7444504242e+000	 5.3620678633e-001	 1.8765238873e+000
 1.7391314470e+000	 5.5321497627e-001	 1.8031783162e+000
 1.7336333847e+000	 5.7021073962e-001	 1.7156665448e+000
 1.7279558054e+000	 5.8719139524e-001	 1.6137597772e+000
 1.7220983284e+000	 6.0415424145e-001	 1.4972343316e+000
 1.7160606244e+000	 6.2109655719e-001	 1.3658720486e+000
 1.7098424168e+000	 6.3801560317e-001	 1.2821750495e+000
 1.7034434817e+000	 6.5490862311e-001	 1.1997934769e+000
 1.6968636494e+000	 6.7177284496e-001	 1.0997308585e+000
 1.7785880727e+000	 5.0904269747e-001	 1.9489862760e+000
 1.7735577950e+000	 5.2630100509e-001	 1.8991437095e+000
 1.7683470053e+000	 5.4355208478e-001	 1.8363058859e+000
 1.7629551655e+000	 5.6079326361e-001	 1.7602351490e+000
 1.7573817872e+000	 5.7802184564e-001	 1.6706975089e+000
 1.7516264329e+000	 5.9523511299e-001	 1.5674630272e+000
 1.7456887164e+000	 6.1243032695e-001	 1.4503062121e+000
 1.7395683042e+000	 6.2960472920e-001	 1.3402927588e+000
 1.7332649156e+000	 6.4675554294e-001	 1.2720604131e+000
 1.7267783239e+000	 6.6387997412e-001	 1.1864559363e+000
 1.7201083570e+000	 6.8097521270e-001	 1.0836016131e+000
 1.8026230466e+000	 5.1592165284e-001	 1.9190698040e+000
 1.7975247922e+000	 5.3341318083e-001	 1.8653139751e+000
 1.7922435865e+000	 5.5089738322e-001	 1.7992636932e+000
 1.7867788839e+000	 5.6837155096e-001	 1.7206812028e+000
 1.7811301897e+000	 5.8583295167e-001	 1.6293317446e+000
 1.7752970603e+000	 6.0327883073e-001	 1.5249839356e+000
 1.7692791045e+000	 6.2070641246e-001	 1.4074101606e+000
 1.7630759840e+000	 6.3811290122e-001	 1.3333968914e+000
 1.7566874145e+000	 6.5549548271e-001	 1.2614040308e+000
 1.7501131661e+000	 6.7285132512e-001	 1.1724460957e+000
 1.7433530645e+000	 6.9017758044e-001	 1.0666564820e+000
 1.8266580206e+000	 5.2280060822e-001	 1.8916812556e+000
 1.8214917894e+000	 5.4052535658e-001	 1.8342229661e+000
 1.8161401676e+000	 5.5824268167e-001	 1.7651728021e+000
 1.8106026024e+000	 5.7594983831e-001	 1.6842926306e+000
 1.8048785923e+000	 5.9364405769e-001	 1.5913466329e+000
 1.7989676878e+000	 6.1132254848e-001	 1.4861016798e+000
 1.7928694926e+000	 6.2898249796e-001	 1.3849724031e+000
 1.7865836638e+000	 6.4662107324e-001	 1.3257923899e+000
 1.7801099133e+000	 6.6423542248e-001	 1.2499178574e+000
 1.7734480084e+000	 6.8182267612e-001	 1.1574724708e+000
 1.7665977720e+000	 6.9937994818e-001	 1.0486008771e+000
 1.8506929945e+000	 5.2967956359e-001	 1.8666086206e+000
 1.8454587867e+000	 5.4763753232e-001	 1.8056583903e+000
 1.8400367488e+000	 5.6558798011e-001	 1.7338211831e+000
 1.8344263209e+000	 5.8352812565e-001	 1.6508582120e+000
 1.8286269948e+000	 6.0145516371e-001	 1.5565323096e+000
 1.8226383153e+000	 6.1936626622e-001	 1.4506082993e+000
 1.8164598806e+000	 6.3725858345e-001	 1.3807649390e+000
 1.8100913436e+000	 6.5512924526e-001	 1.3172079920e+000
 1.8035324122e+000	 6.7297536225e-001	 1.2373269054e+000
 1.7967828506e+000	 6.9079402712e-001	 1.1412566566e+000
 1.7898424795e+000	 7.0858231592e-001	 1.0291532900e+000
 1.8747279685e+000	 5.3655851896e-001	 1.8436512304e+000
 1.8694257839e+000	 5.5474970807e-001	 1.7794194744e+000
 1.8639333299e+000	 5.7293327855e-001	 1.7050084845e+000
 1.8582500393e+000	 5.9110641300e-001	 1.6201785438e+000
 1.8523753973e+000	 6.0926626974e-001	 1.5246908479e+000
 1.8463089428e+000	 6.2740998396e-001	 1.4273932694e+000
 1.8400502687e+000	 6.4553466895e-001	 1.3754346843e+000
 1.8335990234e+000	 6.6363741727e-001	 1.3073846151e+000
 1.8269549111e+000	 6.8171530202e-001	 1.2233684074e+000
 1.8201176928e+000	 6.9976537812e-001	 1.1235324893e+000
 1.8130871871e+000	 7.1778468366e-001	 1.0080444537e+000
 1.8987629424e+000	 5.4343747433e-001	 1.7735090878e+000
 1.8933927811e+000	 5.6186188381e-001	 1.7236729660e+000
 1.8878299111e+000	 5.8027857699e-001	 1.6610814406e+000
 1.8820737578e+000	 5.9868470035e-001	 1.5850685922e+000
 1.8761237999e+000	 6.1707737576e-001	 1.4949563346e+000
 1.8699795702e+000	 6.3545370170e-001	 1.4256440958e+000
 1.8636406567e+000	 6.5381075445e-001	 1.3687378748e+000
 1.8571067031e+000	 6.7214558929e-001	 1.2960745850e+000
 1.8503774099e+000	 6.9045524179e-001	 1.2077910431e+000
 1.8434525350e+000	 7.0873672912e-001	 1.1040452714e+000
 1.8363318946e+000	 7.2698705140e-001	 9.8501656819e-001
 1.9227979164e+000	 5.5031642970e-001	 1.7150755651e+000
 1.9173597783e+000	 5.6897405956e-001	 1.6701640460e+000
 1.9117264922e+000	 5.8762387544e-001	 1.6133033428e+000
 1.9058974762e+000	 6.0626298769e-001	 1.5438035350e+000
 1.8998722024e+000	 6.2488848178e-001	 1.4609611186e+000
 1.8936501977e+000	 6.4349741945e-001	 1.4236787715e+000
 1.8872310448e+000	 6.6208683995e-001	 1.3660743750e+000
 1.8806143829e+000	 6.8065376130e-001	 1.2877919226e+000
 1.8737999088e+000	 6.9919518155e-001	 1.1903542241e+000
 1.8667873772e+000	 7.1770808012e-001	 1.0825510553e+000
 1.8595766021e+000	 7.3618941913e-001	 9.5982258308e-001
 1.6271295268e+000	 6.4416574173e-001	 1.1463849810e+000
 1.6206465249e+000	 6.6030662669e-001	 1.0898208800e+000
 1.6139898915e+000	 6.7641454021e-001	 1.0249027082e+000
 1.6071596221e+000	 6.9248678611e-001	 9.5181407312e-001
 1.6001557665e+000	 7.0852065808e-001	 8.7075217464e-001
 1.5929784285e+000	 7.2451344093e-001	 7.8192770969e-001
 1.5856277673e+000	 7.4046241198e-001	 6.8556475428e-001
 1.5781039969e+000	 7.5636484241e-001	 5.8190062246e-001
 1.5704073875e+000	 7.7221799855e-001	 4.7118570237e-001
 1.5625382650e+000	 7.8801914338e-001	 3.5368326928e-001
 1.5544970119e+000	 8.0376553783e-001	 2.2966927577e-001
 1.6503742344e+000	 6.5336810947e-001	 1.1307909713e+000
 1.6437986181e+000	 6.6973957850e-001	 1.0723587271e+000
 1.6370468899e+000	 6.8607760507e-001	 1.0066146815e+000
 1.6301190453e+000	 7.0237945449e-001	 9.3375355974e-001
 1.6230151346e+000	 7.1864238176e-001	 8.5398305731e-001
 1.6157352632e+000	 7.3486363294e-001	 7.6752372339e-001
 1.6082795925e+000	 7.5104044644e-001	 6.7460882115e-001
 1.6006483397e+000	 7.6717005444e-001	 5.7548416579e-001
 1.5928417787e+000	 7.8324968425e-001	 4.7040793996e-001
 1.5848602402e+000	 7.9927655972e-001	 3.5965048668e-001
 1.5767041121e+000	 8.1524790266e-001	 2.4349407990e-001
 1.6736189419e+000	 6.6257047722e-001	 1.1153527946e+000
 1.6669507113e+000	 6.7917253031e-001	 1.0548059759e+000
 1.6601038884e+000	 6.9574066993e-001	 9.8796025778e-001
 1.6530784685e+000	 7.1227212286e-001	 9.1502159917e-001
 1.6458745027e+000	 7.2876410545e-001	 8.3620833043e-001
 1.6384920979e+000	 7.4521382496e-001	 7.5175101455e-001
 1.6309314178e+000	 7.6161848090e-001	 6.6189228632e-001
 1.6231926825e+000	 7.7797526648e-001	 5.6688666922e-001
 1.6152761700e+000	 7.9428136994e-001	 4.6700037015e-001
 1.6071822154e+000	 8.1053397605e-001	 3.6251105215e-001
 1.5989112123e+000	 8.2673026749e-001	 2.5370758516e-001
 1.6968636494e+000	 6.7177284496e-001	 1.0997308585e+000
 1.6901028046e+000	 6.8860548212e-001	 1.0368243772e+000
 1.6831608868e+000	 7.0540373479e-001	 9.6860358875e-001
 1.6760378917e+000	 7.2216479124e-001	 8.9528580970e-001
 1.6687338708e+000	 7.3888582914e-001	 8.1710015106e-001
 1.6612489326e+000	 7.5556401697e-001	 7.3428735789e-001
 1.6535832430e+000	 7.7219651536e-001	 6.4709962694e-001
 1.6457370254e+000	 7.8878047852e-001	 5.5580040243e-001
 1.6377105612e+000	 8.0531305564e-001	 4.6066415002e-001
 1.6295041906e+000	 8.2179139239e-001	 3.6197610917e-001
 1.6211183125e+000	 8.3821263232e-001	 2.6003202395e-001
 1.7201083570e+000	 6.8097521270e-001	 1.0836016131e+000
 1.7132548978e+000	 6.9803843393e-001	 1.0180914802e+000
 1.7062178853e+000	 7.1506679966e-001	 9.4822431912e-001
 1.6989973148e+000	 7.3205745961e-001	 8.7422893522e-001
 1.6915932389e+000	 7.4900755283e-001	 7.9634537297e-001
 1.6840057673e+000	 7.6591420899e-001	 7.1482473400e-001
 1.6762350683e+000	 7.8277454982e-001	 6.2992897318e-001
 1.6682813682e+000	 7.9958569055e-001	 5.4193067322e-001
 1.6601449525e+000	 8.1634474134e-001	 4.5111279776e-001
 1.6518261659e+000	 8.3304880872e-001	 3.5776842316e-001
 1.6433254126e+000	 8.4969499715e-001	 2.6220044935e-001
 1.7433530645e+000	 6.9017758044e-001	 1.0666564820e+000
 1.7364069910e+000	 7.0747138575e-001	 9.9829957932e-001
 1.7292748837e+000	 7.2472986452e-001	 9.2651655353e-001
 1.7219567380e+000	 7.4195012799e-001	 8.5154783686e-001
 1.7144526070e+000	 7.5912927652e-001	 7.7364456683e-001
 1.7067626020e+000	 7.7626440100e-001	 6.9306838229e-001
 1.6988868935e+000	 7.9335258428e-001	 6.1009119810e-001
 1.6908257110e+000	 8.1039090259e-001	 5.2499495836e-001
 1.6825793437e+000	 8.2737642703e-001	 4.3807136854e-001
 1.6741481411e+000	 8.4430622506e-001	 3.4962160664e-001
 1.6655325128e+000	 8.6117736198e-001	 2.5995601368e-001
 1.7665977720e+000	 6.9937994818e-001	 1.0486008771e+000
 1.7595590842e+000	 7.1690433756e-001	 9.7715474433e-001
 1.7523318822e+000	 7.3439292938e-001	 9.0318790527e-001
 1.7449161612e+000	 7.5184279636e-001	 8.2695256426e-001
 1.7373119751e+000	 7.6925100021e-001	 7.4871111778e-001
 1.7295194367e+000	 7.8661459301e-001	 6.6873592868e-001
 1.7215387188e+000	 8.0393061874e-001	 5.8730907922e-001
 1.7133700538e+000	 8.2119611462e-001	 5.0472210292e-001
 1.7050137350e+000	 8.3840811273e-001	 4.2127569559e-001
 1.6964701163e+000	 8.5556364139e-001	 3.3727940563e-001
 1.6877396130e+000	 8.7265972680e-001	 2.5305130413e-001
 1.7898424795e+000	 7.0858231592e-001	 1.0291532900e+000
 1.7827111774e+000	 7.2633728937e-001	 9.5437592552e-001
 1.7753888806e+000	 7.4405599424e-001	 8.7795861910e-001
 1.7678755844e+000	 7.6173546473e-001	 8.0016549913e-001
 1.7601713431e+000	 7.7937272389e-001	 7.2127039337e-001
 1.7522762714e+000	 7.9696478503e-001	 6.4155658131e-001
 1.7441905440e+000	 8.1450865319e-001	 5.6131652555e-001
 1.7359143966e+000	 8.3200132666e-001	 4.8085158212e-001
 1.7274481262e+000	 8.4943979842e-001	 4.0047169024e-001
 1.7187920915e+000	 8.6682105773e-001	 3.2049504165e-001
 1.7099467131e+000	 8.8414209163e-001	 2.4124773007e-001
 1.8130871871e+000	 7.1778468366e-001	 1.0080444537e+000
 1.8058632706e+000	 7.3577024118e-001	 9.2969412822e-001
 1.7984458791e+000	 7.5371905910e-001	 8.5056076155e-001
 1.7908350075e+000	 7.7162813311e-001	 7.7092056475e-001
 1.7830307112e+000	 7.8949444758e-001	 6.9105897539e-001
 1.7750331061e+000	 8.0731497704e-001	 6.1127038807e-001
 1.7668423693e+000	 8.2508668765e-001	 5.3185786404e-001
 1.7584587394e+000	 8.4280653869e-001	 4.5313281989e-001
 1.7498825175e+000	 8.6047148411e-001	 3.7541469592e-001
 1.7411140667e+000	 8.7807847406e-001	 2.9903060427e-001
 1.7321538133e+000	 8.9562445646e-001	 2.2431495753e-001
 1.8363318946e+000	 7.2698705140e-001	 9.8501656819e-001
 1.8290153638e+000	 7.4520319299e-001	 9.0285164975e-001
 1.8215028775e+000	 7.6338212396e-001	 8.2073747268e-001
 1.8137944307e+000	 7.8152080148e-001	 7.3896249550e-001
 1.8058900793e+000	 7.9961617127e-001	 6.5782395016e-001
 1.7977899408e+000	 8.1766516906e-001	 5.7762755054e-001
 1.7894941945e+000	 8.3566472211e-001	 4.9868718018e-001
 1.7810030823e+000	 8.5361175073e-001	 4.2132455923e-001
 1.7723169087e+000	 8.7150316981e-001	 3.4586889122e-001
 1.7634360419e+000	 8.8933589040e-001	 2.7265648989e-001
 1.7543609135e+000	 9.0710682128e-001	 2.0203038665e-001
 1.8595766021e+000	 7.3618941913e-001	 9.5982258308e-001
 1.8521674571e+000	 7.5463614479e-001	 8.7360137372e-001
 1.8445598760e+000	 7.7304518882e-001	 7.8824227400e-001
 1.8367538539e+000	 7.9141346985e-001	 7.0404616115e-001
 1.8287494474e+000	 8.0973789495e-001	 6.2132225197e-001
 1.8205467755e+000	 8.2801536107e-001	 5.4038778940e-001
 1.8121460198e+000	 8.4624275656e-001	 4.6156770812e-001
 1.8035474251e+000	 8.6441696276e-001	 3.8519427972e-001
 1.7947513000e+000	 8.8253485550e-001	 3.1160673763e-001
 1.7857580172e+000	 9.0059330673e-001	 2.4115088251e-001
 1.7765680137e+000	 9.1858918611e-001	 1.7417866828e-001
 1.5544970119e+000	 8.0376553783e-001	 2.2966927577e-001
 1.5462840674e+000	 8.1945444228e-001	 1.2431672322e-001
 1.5378999272e+000	 8.3508311794e-001	 2.1850731601e-002
 1.5293451444e+000	 8.5064882832e-001	-7.7425544538e-002
 1.5206203292e+000	 8.6614884069e-001	-1.7320620791e-001
 1.5117261490e+000	 8.8158042754e-001	-2.6518301198e-001
 1.5026633286e+000	 8.9694086807e-001	-3.5304576468e-001
 1.4934326500e+000	 9.1222744964e-001	-4.3648274148e-001
 1.4840349526e+000	 9.2743746930e-001	-5.1518110726e-001
 1.4744711329e+000	 9.4256823526e-001	-5.8882734603e-001
 1.4647421446e+000	 9.5761706841e-001	-6.5710769780e-001
 1.5767041121e+000	 8.1524790266e-001	 2.4349407990e-001
 1.5683738397e+000	 8.3116093432e-001	 1.4428540551e-001
 1.5598699262e+000	 8.4701287677e-001	 4.6544301873e-002
 1.5511929322e+000	 8.6280095444e-001	-4.9429097006e-002
 1.5423434768e+000	 8.7852239556e-001	-1.4333045649e-001
 1.5333222369e+000	 8.9417443366e-001	-2.3485162395e-001
 1.5241299476e+000	 9.0975430904e-001	-3.2368102348e-001
 1.5147674021e+000	 9.2525927035e-001	-4.0950406206e-001
 1.5052354519e+000	 9.4068657601e-001	-4.9200354641e-001
 1.4955350063e+000	 9.5603349577e-001	-5.7086010983e-001
 1.4856670324e+000	 9.7129731225e-001	-6.4575264815e-001
 1.5989112123e+000	 8.2673026749e-001	 2.5370758516e-001
 1.5904636121e+000	 8.4286742635e-001	 1.6022808940e-001
 1.5818399251e+000	 8.5894263560e-001	 6.6840674829e-002
 1.5730407200e+000	 8.7495308057e-001	-2.6156974559e-002
 1.5640666244e+000	 8.9089595043e-001	-1.1846153793e-001
 1.5549183247e+000	 9.0676843977e-001	-2.0976443016e-001
 1.5455965666e+000	 9.2256775002e-001	-2.9975218849e-001
 1.5361021543e+000	 9.3829109106e-001	-3.8810687243e-001
 1.5264359512e+000	 9.5393568271e-001	-4.7450647654e-001
 1.5165988796e+000	 9.6949875628e-001	-5.5862535506e-001
 1.5065919202e+000	 9.8497755608e-001	-6.4013465773e-001
 1.6211183125e+000	 8.3821263232e-001	 2.6003202395e-001
 1.6125533845e+000	 8.5457391839e-001	 1.7187437482e-001
 1.6038099241e+000	 8.7087239443e-001	 8.2475020662e-002
 1.5948885078e+000	 8.8710520669e-001	-7.8702418630e-003
 1.5857897719e+000	 9.0326950530e-001	-9.8858563573e-002
 1.5765144126e+000	 9.1936244588e-001	-1.9018040610e-001
 1.5670631856e+000	 9.3538119099e-001	-2.8151992119e-001
 1.5574369064e+000	 9.5132291177e-001	-3.7255534530e-001
 1.5476364506e+000	 9.6718478942e-001	-4.6295940893e-001
 1.5376627529e+000	 9.8296401678e-001	-5.5239975988e-001
 1.5275168080e+000	 9.9865779992e-001	-6.4053939972e-001
 1.6433254126e+000	 8.4969499715e-001	 2.6220044935e-001
 1.6346431569e+000	 8.6628041042e-001	 1.7896407998e-001
 1.6257799230e+000	 8.8280215326e-001	 9.3192220555e-002
 1.6167362956e+000	 8.9925733281e-001	 5.1793359149e-003
 1.6075129195e+000	 9.1564306017e-001	-8.4771660395e-002
 1.5981105004e+000	 9.3195645199e-001	-1.7634976102e-001
 1.5885298045e+000	 9.4819463197e-001	-2.6923623759e-001
 1.5787716586e+000	 9.6435473249e-001	-3.6310503074e-001
 1.5688369499e+000	 9.8043389613e-001	-4.5762315681e-001
 1.5587266262e+000	 9.9642927729e-001	-5.5245113050e-001
 1.5484416958e+000	 1.0123380438e+000	-6.4724340261e-001
 1.6655325128e+000	 8.6117736198e-001	 2.5995601368e-001
 1.6567329293e+000	 8.7798690246e-001	 1.8124656012e-001
 1.6477499220e+000	 8.9473191209e-001	 9.8746219280e-002
 1.6385840833e+000	 9.1140945893e-001	 1.2748673136e-002
 1.6292360671e+000	 9.2801661504e-001	-7.6442569927e-002
 1.6197065883e+000	 9.4455045810e-001	-1.6851452237e-001
 1.6099964235e+000	 9.6100807294e-001	-2.6314508456e-001
 1.6001064107e+000	 9.7738655320e-001	-3.6000343104e-001
 1.5900374492e+000	 9.9368300283e-001	-4.5875041532e-001
 1.5797904996e+000	 1.0098945378e+000	-5.5903899265e-001
 1.5693665835e+000	 1.0260182876e+000	-6.6051465985e-001
 1.6877396130e+000	 8.7265972680e-001	 2.5305130413e-001
 1.6788227017e+000	 8.8969339449e-001	 1.7848008009e-001
 1.6697199210e+000	 9.0666167092e-001	 9.8899428910e-002
 1.6604318711e+000	 9.2356158505e-001	 1.4602792668e-002
 1.6509592146e+000	 9.4039016991e-001	-7.4105199945e-002
 1.6413026761e+000	 9.5714446421e-001	-1.6690907405e-001
 1.6314630425e+000	 9.7382151392e-001	-2.6348287072e-001
 1.6214411629e+000	 9.9041837391e-001	-3.6349053016e-001
 1.6112379485e+000	 1.0069321095e+000	-4.6658629550e-001
 1.6008543729e+000	 1.0233597983e+000	-5.7241513631e-001
 1.5902914713e+000	 1.0396985314e+000	-6.8061319132e-001
 1.7099467131e+000	 8.8414209163e-001	 2.4124773007e-001
 1.7009124741e+000	 9.0139988653e-001	 1.7043123580e-001
 1.6916899199e+000	 9.1859142975e-001	 9.3422178993e-002
 1.6822796589e+000	 9.3571371117e-001	 1.0514299364e-002
 1.6726823622e+000	 9.5276372478e-001	-7.7986133153e-002
 1.6628987640e+000	 9.6973847032e-001	-1.7176065279e-001
 1.6529296615e+000	 9.8663495489e-001	-2.7047895591e-001
 1.6427759150e+000	 1.0034501946e+000	-3.7379928195e-001
 1.6324384478e+000	 1.0201812162e+000	-4.8136881683e-001
 1.6219182462e+000	 1.0368250588e+000	-5.9282411809e-001
 1.6112163591e+000	 1.0533787753e+000	-7.0779156112e-001
 1.7321538133e+000	 8.9562445646e-001	 2.2431495753e-001
 1.7230022465e+000	 9.1310637856e-001	 1.5687442018e-001
 1.7136599189e+000	 9.3052118858e-001	 8.2092209024e-002
 1.7041274467e+000	 9.4786583729e-001	 2.6289402878e-004
 1.6944055097e+000	 9.6513727965e-001	-8.8305096739e-002
 1.6844948518e+000	 9.8233247643e-001	-1.8328980625e-001
 1.6743962805e+000	 9.9944839587e-001	-2.8435610306e-001
 1.6641106671e+000	 1.0164820153e+000	-3.9115606076e-001
 1.6536389472e+000	 1.0334303230e+000	-5.0332936178e-001
 1.6429821195e+000	 1.0502903193e+000	-6.2050372487e-001
 1.6321412469e+000	 1.0670590191e+000	-7.4229535551e-001
 1.7543609135e+000	 9.0710682128e-001	 2.0203038665e-001
 1.7450920189e+000	 9.2481287059e-001	 1.3759132970e-001
 1.7356299178e+000	 9.4245094741e-001	 6.4694199457e-002
 1.7259752344e+000	 9.6001796341e-001	-1.6365075683e-002
 1.7161286573e+000	 9.7751083451e-001	-1.0527539627e-001
 1.7060909396e+000	 9.9492648253e-001	-2.0171081640e-001
 1.6958628994e+000	 1.0122618368e+000	-3.0533089569e-001
 1.6854454193e+000	 1.0295138360e+000	-4.1578107790e-001
 1.6748394465e+000	 1.0466794297e+000	-5.3269309592e-001
 1.6640459929e+000	 1.0637555798e+000	-6.5568540228e-001
 1.6530661346e+000	 1.0807392629e+000	-7.8436362455e-001
 1.7765680137e+000	 9.1858918611e-001	 1.7417866828e-001
 1.7671817913e+000	 9.3651936262e-001	 1.1237050788e-001
 1.7575999168e+000	 9.5438070623e-001	 4.1019337901e-002
 1.7478230222e+000	 9.7217008953e-001	-3.9577030700e-002
 1.7378518049e+000	 9.8988438938e-001	-1.2910431702e-001
 1.7276870275e+000	 1.0075204886e+000	-2.2723209115e-001
 1.7173295184e+000	 1.0250752778e+000	-3.3361412416e-001
 1.7067801714e+000	 1.0425456567e+000	-4.4788876682e-001
 1.6960399458e+000	 1.0599285364e+000	-5.6967935641e-001
 1.6851098662e+000	 1.0772208403e+000	-6.9859465101e-001
 1.6739910224e+000	 1.0944195068e+000	-8.3422929058e-001
 1.4647421446e+000	 9.5761706841e-001	-6.5710769780e-001
 1.4548489982e+000	 9.7258130376e-001	-7.3183455409e-001
 1.4447927608e+000	 9.8745829198e-001	-8.1068259911e-001
 1.4345745559e+000	 1.0022454009e+000	-8.9333451767e-001
 1.4241955631e+000	 1.0169400169e+000	-9.7946499591e-001
 1.4136570177e+000	 1.0315395467e+000	-1.0687411351e+000
 1.4029602102e+000	 1.0460414182e+000	-1.1608228792e+000
 1.3921064861e+000	 1.0604430826e+000	-1.2553634563e+000
 1.3810972449e+000	 1.0747420157e+000	-1.3520098321e+000
 1.3699339401e+000	 1.0889357189e+000	-1.4504031751e+000
 1.3586180783e+000	 1.1030217212e+000	-1.5501793323e+000
 1.4856670324e+000	 9.7129731225e-001	-6.4575264815e-001
 1.4756325553e+000	 9.8647532238e-001	-7.2565699226e-001
 1.4654326574e+000	 1.0015648390e+000	-8.0667446754e-001
 1.4550684781e+000	 1.0165631923e+000	-8.8848496774e-001
 1.4445412140e+000	 1.0314677315e+000	-9.7076309819e-001
 1.4338521179e+000	 1.0462758259e+000	-1.0531786117e+000
 1.4230024989e+000	 1.0609848670e+000	-1.1353968554e+000
 1.4119937216e+000	 1.0755922695e+000	-1.2170792268e+000
 1.4008272055e+000	 1.0900954730e+000	-1.2978836393e+000
 1.3895044249e+000	 1.1044919435e+000	-1.3774649960e+000
 1.3780269080e+000	 1.1187791744e+000	-1.4554756690e+000
 1.5065919202e+000	 9.8497755608e-001	-6.4013465773e-001
 1.4964161124e+000	 1.0003693410e+000	-7.2597835303e-001
 1.4860725539e+000	 1.0156713860e+000	-8.1000186084e-001
 1.4755624003e+000	 1.0308809838e+000	-8.9188188659e-001
 1.4648868649e+000	 1.0459954460e+000	-9.7129250803e-001
 1.4540472182e+000	 1.0610121051e+000	-1.0479056337e+000
 1.4430447877e+000	 1.0759283158e+000	-1.1213914686e+000
 1.4318809571e+000	 1.0907414564e+000	-1.1914189868e+000
 1.4205571661e+000	 1.1054489304e+000	-1.2576564084e+000
 1.4090749098e+000	 1.1200481680e+000	-1.3197716824e+000
 1.3974357376e+000	 1.1345366275e+000	-1.3774329714e+000
 1.5275168080e+000	 9.9865779992e-001	-6.4053939972e-001
 1.5171996695e+000	 1.0142633596e+000	-7.3306204625e-001
 1.5067124505e+000	 1.0297779331e+000	-8.2090270011e-001
 1.4960563226e+000	 1.0451987752e+000	-9.0373448077e-001
 1.4852325158e+000	 1.0605231605e+000	-9.8123049317e-001
 1.4742423185e+000	 1.0757483844e+000	-1.0530643091e+000
 1.4630870764e+000	 1.0908717647e+000	-1.1189104527e+000
 1.4517681926e+000	 1.1058906433e+000	-1.1784448887e+000
 1.4402871268e+000	 1.1208023878e+000	-1.2313455130e+000
 1.4286453946e+000	 1.1356043926e+000	-1.2772926439e+000
 1.4168445673e+000	 1.1502940807e+000	-1.3159695135e+000
 1.5484416958e+000	 1.0123380438e+000	-6.4724340261e-001
 1.5379832267e+000	 1.0281573783e+000	-7.4716375364e-001
 1.5273523471e+000	 1.0438844801e+000	-8.3960876882e-001
 1.5165502448e+000	 1.0595165667e+000	-9.2424758320e-001
 1.5055781667e+000	 1.0750508751e+000	-1.0007518849e+000
 1.4944374187e+000	 1.0904846636e+000	-1.0687964200e+000
 1.4831293651e+000	 1.1058152135e+000	-1.1280594973e+000
 1.4716554281e+000	 1.1210398302e+000	-1.1782234942e+000
 1.4600170874e+000	 1.1361558451e+000	-1.2189753601e+000
 1.4482158795e+000	 1.1511606171e+000	-1.2500071174e+000
 1.4362533970e+000	 1.1660515338e+000	-1.2710163596e+000
 1.5693665835e+000	 1.0260182876e+000	-6.6051465985e-001
 1.5587667838e+000	 1.0420513969e+000	-7.6853194409e-001
 1.5479922437e+000	 1.0579910271e+000	-8.6634612197e-001
 1.5370441670e+000	 1.0738343581e+000	-9.5362194474e-001
 1.5259238176e+000	 1.0895785896e+000	-1.0300292407e+000
 1.5146325190e+000	 1.1052209428e+000	-1.0952434432e+000
 1.5031716538e+000	 1.1207586623e+000	-1.1489461170e+000
 1.4915426636e+000	 1.1361890171e+000	-1.1908254801e+000
 1.4797470481e+000	 1.1515093025e+000	-1.2205769213e+000
 1.4677863643e+000	 1.1667168417e+000	-1.2379035122e+000
 1.4556622267e+000	 1.1818089870e+000	-1.2425165117e+000
 1.5902914713e+000	 1.0396985314e+000	-6.8061319132e-001
 1.5795503409e+000	 1.0559454155e+000	-7.9740834810e-001
 1.5686321403e+000	 1.0720975742e+000	-9.0133546294e-001
 1.5575380892e+000	 1.0881521496e+000	-9.9205450270e-001
 1.5462694685e+000	 1.1041063041e+000	-1.0692329932e+000
 1.5348276192e+000	 1.1199572221e+000	-1.1325465714e+000
 1.5232139425e+000	 1.1357021112e+000	-1.1816795321e+000
 1.5114298991e+000	 1.1513382040e+000	-1.2163253678e+000
 1.4994770087e+000	 1.1668627599e+000	-1.2361873010e+000
 1.4873568492e+000	 1.1822730662e+000	-1.2409788064e+000
 1.4750710564e+000	 1.1975664402e+000	-1.2304241236e+000
 1.6112163591e+000	 1.0533787753e+000	-7.0779156112e-001
 1.6003338980e+000	 1.0698394341e+000	-8.3402839542e-001
 1.5892720368e+000	 1.0862041212e+000	-9.4479249103e-001
 1.5780320114e+000	 1.1024699410e+000	-1.0397386285e+000
 1.5666151194e+000	 1.1186340186e+000	-1.1185315890e+000
 1.5550227194e+000	 1.1346935013e+000	-1.1808467307e+000
 1.5432562312e+000	 1.1506455600e+000	-1.2263705567e+000
 1.5313171347e+000	 1.1664873909e+000	-1.2548012737e+000
 1.5192069693e+000	 1.1822162172e+000	-1.2658493379e+000
 1.5069273341e+000	 1.1978292908e+000	-1.2592379905e+000
 1.4944798861e+000	 1.2133238933e+000	-1.2347037774e+000
 1.6321412469e+000	 1.0670590191e+000	-7.4229535551e-001
 1.6211174551e+000	 1.0837334528e+000	-8.7862161886e-001
 1.6099119334e+000	 1.1003106682e+000	-9.9692822223e-001
 1.5985259337e+000	 1.1167877324e+000	-1.0968643564e+000
 1.5869607703e+000	 1.1331617332e+000	-1.1780916155e+000
 1.5752178197e+000	 1.1494297806e+000	-1.2402845982e+000
 1.5632985200e+000	 1.1655890088e+000	-1.2831314978e+000
 1.5512043702e+000	 1.1816365778e+000	-1.3063346784e+000
 1.5389369300e+000	 1.1975696746e+000	-1.3096112379e+000
 1.5264978189e+000	 1.2133855153e+000	-1.2926935542e+000
 1.5138887158e+000	 1.2290813465e+000	-1.2553298147e+000
 1.6530661346e+000	 1.0807392629e+000	-7.8436362455e-001
 1.6419010122e+000	 1.0976274714e+000	-9.3141202758e-001
 1.6305518300e+000	 1.1144172153e+000	-1.0579492856e+000
 1.6190198559e+000	 1.1311055239e+000	-1.1636185944e+000
 1.6073064212e+000	 1.1476894477e+000	-1.2480779185e+000
 1.5954129199e+000	 1.1641660598e+000	-1.3110006178e+000
 1.5833408087e+000	 1.1805324577e+000	-1.3520760597e+000
 1.5710916057e+000	 1.1967857647e+000	-1.3710102143e+000
 1.5586668906e+000	 1.2129231320e+000	-1.3675262338e+000
 1.5460683038e+000	 1.2289417399e+000	-1.3413650110e+000
 1.5332975455e+000	 1.2448387997e+000	-1.2922857189e+000
 1.6739910224e+000	 1.0944195068e+000	-8.3422929058e-001
 1.6626845693e+000	 1.1115214900e+000	-9.9261845231e-001
 1.6511917266e+000	 1.1285237623e+000	-1.1280581975e+000
 1.6395137781e+000	 1.1454233153e+000	-1.2401853198e+000
 1.6276520721e+000	 1.1622171622e+000	-1.3286537112e+000
 1.6156080202e+000	 1.1789023391e+000	-1.3931350145e+000
 1.6033830974e+000	 1.1954759065e+000	-1.4333192573e+000
 1.5909788412e+000	 1.2119349516e+000	-1.4489154683e+000
 1.5783968513e+000	 1.2282765894e+000	-1.4396522715e+000
 1.5656387886e+000	 1.2444979645e+000	-1.4052784598e+000
 1.5527063751e+000	 1.2605962528e+000	-1.4292678113e+000
 1.3586180783e+000	 1.1030217212e+000	-1.5501793323e+000
 1.3471512186e+000	 1.1169975803e+000	-1.6859964717e+000
 1.3355349719e+000	 1.1308608840e+000	-1.8013946309e+000
 1.3237710003e+000	 1.1446092516e+000	-1.8962417198e+000
 1.3118610162e+000	 1.1582403353e+000	-1.9704239798e+000
 1.2998067814e+000	 1.1717518215e+000	-2.0238462729e+000
 1.2876101065e+000	 1.1851414320e+000	-2.0564323440e+000
 1.2752728496e+000	 1.1984069255e+000	-2.0681250587e+000
 1.2627969161e+000	 1.2115460986e+000	-2.0588866138e+000
 1.2501842566e+000	 1.2245567870e+000	-2.0286987212e+000
 1.2374368671e+000	 1.2374368671e+000	-2.0534931518e+000
 1.3780269080e+000	 1.1187791744e+000	-1.4554756690e+000
 1.3663962360e+000	 1.1329546886e+000	-1.5786536536e+000
 1.3546140429e+000	 1.1470160395e+000	-1.6821591351e+000
 1.3426820146e+000	 1.1609608123e+000	-1.7658375102e+000
 1.3306018879e+000	 1.1747866258e+000	-1.8295518498e+000
 1.3183754497e+000	 1.1884911332e+000	-1.8731832164e+000
 1.3060045366e+000	 1.2020720239e+000	-1.8966309581e+000
 1.2934910332e+000	 1.2155270244e+000	-1.8998129772e+000
 1.2808368720e+000	 1.2288539000e+000	-1.8826659729e+000
 1.2680440317e+000	 1.2420504554e+000	-1.8451456579e+000
 1.2551145366e+000	 1.2551145366e+000	-1.8193154311e+000
 1.3974357376e+000	 1.1345366275e+000	-1.3774329714e+000
 1.3856412534e+000	 1.1489117969e+000	-1.4872457386e+000
 1.3736931140e+000	 1.1631711949e+000	-1.5780981219e+000
 1.3615930289e+000	 1.1773123730e+000	-1.6498131075e+000
 1.3493427595e+000	 1.1913329163e+000	-1.7022307220e+000
 1.3369441180e+000	 1.2052304449e+000	-1.7352083796e+000
 1.3243989666e+000	 1.2190026158e+000	-1.7486212063e+000
 1.3117092168e+000	 1.2326471234e+000	-1.7423623403e+000
 1.2988768279e+000	 1.2461617014e+000	-1.7163432066e+000
 1.2859038068e+000	 1.2595441238e+000	-1.7333747105e+000
 1.2727922062e+000	 1.2727922062e+000	-1.7568818568e+000
 1.4168445673e+000	 1.1502940807e+000	-1.3159695135e+000
 1.4048862708e+000	 1.1648689052e+000	-1.4117275972e+000
 1.3927721850e+000	 1.1793263504e+000	-1.4892041518e+000
 1.3805040432e+000	 1.1936639338e+000	-1.5481998363e+000
 1.3680836312e+000	 1.2078792068e+000	-1.5885317392e+000
 1.3555127863e+000	 1.2219697567e+000	-1.6100337559e+000
 1.3427933967e+000	 1.2359332077e+000	-1.6125569436e+000
 1.3299274003e+000	 1.2497672223e+000	-1.5959698530e+000
 1.3169167839e+000	 1.2634695028e+000	-1.6527245564e+000
 1.3037635819e+000	 1.2770377922e+000	-1.6933348602e+000
 1.2904698757e+000	 1.2904698757e+000	-1.7160780542e+000
 1.4362533970e+000	 1.1660515338e+000	-1.2710163596e+000
 1.4241312882e+000	 1.1808260135e+000	-1.3520651075e+000
 1.4118512560e+000	 1.1954815059e+000	-1.4154789482e+000
 1.3994150575e+000	 1.2100154945e+000	-1.4610362779e+000
 1.3868245028e+000	 1.2244254973e+000	-1.4885313336e+000
 1.3740814546e+000	 1.2387090684e+000	-1.4977746013e+000
 1.3611878268e+000	 1.2528637995e+000	-1.5087174308e+000
 1.3481455839e+000	 1.2668873212e+000	-1.5811637234e+000
 1.3349567398e+000	 1.2807773042e+000	-1.6366912669e+000
 1.3216233570e+000	 1.2945314606e+000	-1.6751203575e+000
 1.3081475452e+000	 1.3081475452e+000	-1.6962813029e+000
 1.4556622267e+000	 1.1818089870e+000	-1.2425165117e+000
 1.4433763056e+000	 1.1967831217e+000	-1.3082344213e+000
 1.4309303270e+000	 1.2116366614e+000	-1.3569327865e+000
 1.4183260718e+000	 1.2263670552e+000	-1.3883677862e+000
 1.4055653745e+000	 1.2409717878e+000	-1.4023108740e+000
 1.3926501229e+000	 1.2554483801e+000	-1.4380213154e+000
 1.3795822569e+000	 1.2697943914e+000	-1.5223515389e+000
 1.3663637675e+000	 1.2840074202e+000	-1.5906085832e+000
 1.3529966958e+000	 1.2980851056e+000	-1.6425801231e+000
 1.3394831321e+000	 1.3120251289e+000	-1.6780626452e+000
 1.3258252148e+000	 1.3258252148e+000	-1.6968616629e+000
 1.4750710564e+000	 1.1975664402e+000	-1.2304241236e+000
 1.4626213230e+000	 1.2127402300e+000	-1.2802212888e+000
 1.4500093981e+000	 1.2277918169e+000	-1.3135839316e+000
 1.4372370861e+000	 1.2427186160e+000	-1.3302460425e+000
 1.4243062462e+000	 1.2575180783e+000	-1.3858376804e+000
 1.4112187912e+000	 1.2721876919e+000	-1.4798226240e+000
 1.3979766870e+000	 1.2867249833e+000	-1.5586187129e+000
 1.3845819510e+000	 1.3011275191e+000	-1.6219836009e+000
 1.3710366517e+000	 1.3153929070e+000	-1.6696825042e+000
 1.3573429072e+000	 1.3295187973e+000	-1.7014884368e+000
 1.3435028843e+000	 1.3435028843e+000	-1.7171824486e+000
 1.4944798861e+000	 1.2133238933e+000	-1.2347037774e+000
 1.4818663404e+000	 1.2286973383e+000	-1.2680204345e+000
 1.4690884691e+000	 1.2439469724e+000	-1.2854581189e+000
 1.4561481004e+000	 1.2590701767e+000	-1.3555899059e+000
 1.4430471178e+000	 1.2740643688e+000	-1.4570002165e+000
 1.4297874596e+000	 1.2889270036e+000	-1.5441416470e+000
 1.4163711171e+000	 1.3036555752e+000	-1.6167444924e+000
 1.4028001346e+000	 1.3182476180e+000	-1.6745453173e+000
 1.3890766077e+000	 1.3327007084e+000	-1.7172872067e+000
 1.3752026823e+000	 1.3470124657e+000	-1.7447200228e+000
 1.3611805538e+000	 1.3611805538e+000	-1.7566006678e+000
 1.5138887158e+000	 1.2290813465e+000	-1.2553298147e+000
 1.5011113578e+000	 1.2446544466e+000	-1.2716349826e+000
 1.4881675401e+000	 1.2601021278e+000	-1.3506020822e+000
 1.4750591147e+000	 1.2754217375e+000	-1.4572081870e+000
 1.4617879895e+000	 1.2906106593e+000	-1.5504978349e+000
 1.4483561279e+000	 1.3056663153e+000	-1.6301766796e+000
 1.4347655472e+000	 1.3205861671e+000	-1.6959553146e+000
 1.4210183182e+000	 1.3353677170e+000	-1.7475495357e+000
 1.4071165636e+000	 1.3500085098e+000	-1.7846806099e+000
 1.3930624574e+000	 1.3645061341e+000	-1.8070755549e+000
 1.3788582233e+000	 1.3788582233e+000	-1.8144674252e+000
 1.5332975455e+000	 1.2448387997e+000	-1.2922857189e+000
 1.5203563752e+000	 1.2606115549e+000	-1.3741094673e+000
 1.5072466111e+000	 1.2762572833e+000	-1.4836818347e+000
 1.4939701289e+000	 1.2917732982e+000	-1.5809193212e+000
 1.4805288611e+000	 1.3071569498e+000	-1.6655057058e+000
 1.4669247962e+000	 1.3224056271e+000	-1.7371283488e+000
 1.4531599773e+000	 1.3375167590e+000	-1.7954784579e+000
 1.4392365017e+000	 1.3524878159e+000	-1.8402513678e+000
 1.4251565195e+000	 1.3673163112e+000	-1.8711468289e+000
 1.4109222325e+000	 1.3819998025e+000	-1.8878693076e+000
 1.3965358929e+000	 1.3965358929e+000	-1.8901282963e+000
 1.5527063751e+000	 1.2605962528e+000	-1.4292678113e+000
 1.5396013926e+000	 1.2765686632e+000	-1.5395775362e+000
 1.5263256822e+000	 1.2924124388e+000	-1.6385597236e+000
 1.5128811432e+000	 1.3081248589e+000	-1.7258790884e+000
 1.4992697328e+000	 1.3237032403e+000	-1.8012025435e+000
 1.4854934645e+000	 1.3391449388e+000	-1.8641994679e+000
 1.4715544074e+000	 1.3544473509e+000	-1.9145419889e+000
 1.4574546853e+000	 1.3696079148e+000	-1.9519052773e+000
 1.4431964755e+000	 1.3846241126e+000	-1.9759678560e+000
 1.4287820076e+000	 1.3994934709e+000	-1.9864119206e+000
 1.4142135624e+000	 1.4142135624e+000	-1.9829236731e+000
 1.2374368671e+000	 1.2374368671e+000	-2.0534931518e+000
 1.2245567870e+000	 1.2501842566e+000	-2.0870514751e+000
 1.2115460986e+000	 1.2627969161e+000	-2.1817545189e+000
 1.1984069255e+000	 1.2752728496e+000	-2.2638591023e+000
 1.1851414320e+000	 1.2876101065e+000	-2.3331939583e+000
 1.1717518215e+000	 1.2998067814e+000	-2.3896073666e+000
 1.1582403353e+000	 1.3118610162e+000	-2.4329674742e+000
 1.1446092516e+000	 1.3237710003e+000	-2.4631625808e+000
 1.1308608840e+000	 1.3355349719e+000	-2.4801013912e+000
 1.1169975803e+000	 1.3471512186e+000	-2.4837132313e+000
 1.1030217212e+000	 1.3586180783e+000	-2.4739482290e+000
 1.2551145366e+000	 1.2551145366e+000	-1.8193154311e+000
 1.2420504554e+000	 1.2680440317e+000	-1.8926814342e+000
 1.2288539000e+000	 1.2808368720e+000	-1.9836841410e+000
 1.2155270244e+000	 1.2934910332e+000	-2.0632119268e+000
 1.2020720239e+000	 1.3060045366e+000	-2.1310720547e+000
 1.1884911332e+000	 1.3183754497e+000	-2.1870904078e+000
 1.1747866258e+000	 1.3306018879e+000	-2.2311118418e+000
 1.1609608123e+000	 1.3426820146e+000	-2.2630005065e+000
 1.1470160395e+000	 1.3546140429e+000	-2.2826401321e+000
 1.1329546886e+000	 1.3663962360e+000	-2.2899342824e+000
 1.1187791744e+000	 1.3780269080e+000	-2.2848065714e+000
 1.2727922062e+000	 1.2727922062e+000	-1.7568818568e+000
 1.2595441238e+000	 1.2859038068e+000	-1.7841335371e+000
 1.2461617014e+000	 1.2988768279e+000	-1.8216584184e+000
 1.2326471234e+000	 1.3117092168e+000	-1.8982118959e+000
 1.2190026158e+000	 1.3243989666e+000	-1.9641353189e+000
 1.2052304449e+000	 1.3369441180e+000	-2.0192320921e+000
 1.1913329163e+000	 1.3493427595e+000	-2.0633237471e+000
 1.1773123730e+000	 1.3615930289e+000	-2.0962502982e+000
 1.1631711949e+000	 1.3736931140e+000	-2.1178705646e+000
 1.1489117969e+000	 1.3856412534e+000	-2.1280624591e+000
 1.1345366275e+000	 1.3974357376e+000	-2.1267232425e+000
 1.2904698757e+000	 1.2904698757e+000	-1.7160780542e+000
 1.2770377922e+000	 1.3037635819e+000	-1.7415543209e+000
 1.2634695028e+000	 1.3169167839e+000	-1.7590167848e+000
 1.2497672223e+000	 1.3299274003e+000	-1.7693691828e+000
 1.2359332077e+000	 1.3427933967e+000	-1.8329204253e+000
 1.2219697567e+000	 1.3555127863e+000	-1.8865973319e+000
 1.2078792068e+000	 1.3680836312e+000	-1.9301980575e+000
 1.1936639338e+000	 1.3805040432e+000	-1.9635384751e+000
 1.1793263504e+000	 1.3927721850e+000	-1.9864525345e+000
 1.1648689052e+000	 1.4048862708e+000	-1.9987925869e+000
 1.1502940807e+000	 1.4168445673e+000	-2.0004296762e+000
 1.3081475452e+000	 1.3081475452e+000	-1.6962813029e+000
 1.2945314606e+000	 1.3216233570e+000	-1.7197697989e+000
 1.2807773042e+000	 1.3349567398e+000	-1.7365867850e+000
 1.2668873212e+000	 1.3481455839e+000	-1.7465511150e+000
 1.2528637995e+000	 1.3611878268e+000	-1.7494824732e+000
 1.2387090684e+000	 1.3740814546e+000	-1.7897379254e+000
 1.2244254973e+000	 1.3868245028e+000	-1.8323151378e+000
 1.2100154945e+000	 1.3994150575e+000	-1.8654755627e+000
 1.1954815059e+000	 1.4118512560e+000	-1.8890283012e+000
 1.1808260135e+000	 1.4241312882e+000	-1.9028002107e+000
 1.1660515338e+000	 1.4362533970e+000	-1.9066362325e+000
 1.3258252148e+000	 1.3258252148e+000	-1.6968616629e+000
 1.3120251289e+000	 1.3394831321e+000	-1.7181650952e+000
 1.2980851056e+000	 1.3529966958e+000	-1.7341045181e+000
 1.2840074202e+000	 1.3663637675e+000	-1.7444840721e+000
 1.2697943914e+000	 1.3795822569e+000	-1.7491070060e+000
 1.2554483801e+000	 1.3926501229e+000	-1.7477759462e+000
 1.2409717878e+000	 1.4055653745e+000	-1.7702418171e+000
 1.2263670552e+000	 1.4183260718e+000	-1.8026571590e+000
 1.2116366614e+000	 1.4309303270e+000	-1.8262237102e+000
 1.1967831217e+000	 1.4433763056e+000	-1.8407428808e+000
 1.1818089870e+000	 1.4556622267e+000	-1.8460336024e+000
 1.3435028843e+000	 1.3435028843e+000	-1.7171824486e+000
 1.3295187973e+000	 1.3573429072e+000	-1.7361178345e+000
 1.3153929070e+000	 1.3710366517e+000	-1.7509639841e+000
 1.3011275191e+000	 1.3845819510e+000	-1.7615103779e+000
 1.2867249833e+000	 1.3979766870e+000	-1.7675438902e+000
 1.2721876919e+000	 1.4112187912e+000	-1.7688490790e+000
 1.2575180783e+000	 1.4243062462e+000	-1.7652084931e+000
 1.2427186160e+000	 1.4372370861e+000	-1.7756649170e+000
 1.2277918169e+000	 1.4500093981e+000	-1.7986492726e+000
 1.2127402300e+000	 1.4626213230e+000	-1.8132613363e+000
 1.1975664402e+000	 1.4750710564e+000	-1.8192941021e+000
 1.3611805538e+000	 1.3611805538e+000	-1.7566006678e+000
 1.3470124657e+000	 1.3752026823e+000	-1.7729986289e+000
 1.3327007084e+000	 1.3890766077e+000	-1.7865513788e+000
 1.3182476180e+000	 1.4028001346e+000	-1.7970337825e+000
 1.3036555752e+000	 1.4163711171e+000	-1.8042163897e+000
 1.2889270036e+000	 1.4297874596e+000	-1.8078657471e+000
 1.2740643688e+000	 1.4430471178e+000	-1.8077447286e+000
 1.2590701767e+000	 1.4561481004e+000	-1.8036128857e+000
 1.2439469724e+000	 1.4690884691e+000	-1.8069011613e+000
 1.2286973383e+000	 1.4818663404e+000	-1.8209805972e+000
 1.2133238933e+000	 1.4944798861e+000	-1.8270728657e+000
 1.3788582233e+000	 1.3788582233e+000	-1.8144674252e+000
 1.3645061341e+000	 1.3930624574e+000	-1.8281715276e+000
 1.3500085098e+000	 1.4071165636e+000	-1.8402455943e+000
 1.3353677170e+000	 1.4210183182e+000	-1.8504499107e+000
 1.3205861671e+000	 1.4347655472e+000	-1.8585387428e+000
 1.3056663153e+000	 1.4483561279e+000	-1.8642606706e+000
 1.2906106593e+000	 1.4617879895e+000	-1.8673589434e+000
 1.2754217375e+000	 1.4750591147e+000	-1.8675718569e+000
 1.2601021278e+000	 1.4881675401e+000	-1.8646331511e+000
 1.2446544466e+000	 1.5011113578e+000	-1.8645109714e+000
 1.2290813465e+000	 1.5138887158e+000	-1.8700089470e+000
 1.3965358929e+000	 1.3965358929e+000	-1.8901282963e+000
 1.3819998025e+000	 1.4109222325e+000	-1.9009944322e+000
 1.3673163112e+000	 1.4251565195e+000	-1.9114186809e+000
 1.3524878159e+000	 1.4392365017e+000	-1.9211467765e+000
 1.3375167590e+000	 1.4531599773e+000	-1.9299167324e+000
 1.3224056271e+000	 1.4669247962e+000	-1.9374591964e+000
 1.3071569498e+000	 1.4805288611e+000	-1.9434978308e+000
 1.2917732982e+000	 1.4939701289e+000	-1.9477497165e+000
 1.2762572833e+000	 1.5072466111e+000	-1.9499257816e+000
 1.2606115549e+000	 1.5203563752e+000	-1.9497312514e+000
 1.2448387997e+000	 1.5332975455e+000	-1.9487263373e+000
 1.4142135624e+000	 1.4142135624e+000	-1.9829236731e+000
 1.3994934709e+000	 1.4287820076e+000	-1.9908194808e+000
 1.3846241126e+000	 1.4431964755e+000	-1.9994362751e+000
 1.3696079148e+000	 1.4574546853e+000	-2.0085052587e+000
 1.3544473509e+000	 1.4715544074e+000	-2.0177482150e+000
 1.3391449388e+000	 1.4854934645e+000	-2.0268778835e+000
 1.3237032403e+000	 1.4992697328e+000	-2.0355983658e+000
 1.3081248589e+000	 1.5128811432e+000	-2.0436055563e+000
 1.2924124388e+000	 1.5263256822e+000	-2.0505876014e+000
 1.2765686632e+000	 1.5396013926e+000	-2.0562253826e+000
 1.2605962528e+000	 1.5527063751e+000	-2.0601930239e+000
 1.1030217212e+000	 1.3586180783e+000	-2.4739482290e+000
 1.0889357189e+000	 1.3699339401e+000	-2.4908012883e+000
 1.0747420157e+000	 1.3810972449e+000	-2.4988996298e+000
 1.0604430826e+000	 1.3921064861e+000	-2.4981393738e+000
 1.0460414182e+000	 1.4029602102e+000	-2.4884346862e+000
 1.0315395467e+000	 1.4136570177e+000	-2.4697179115e+000
 1.0169400169e+000	 1.4241955631e+000	-2.4419396726e+000
 1.0022454009e+000	 1.4345745559e+000	-2.4050689367e+000
 9.8745829198e-001	 1.4447927608e+000	-2.3590930470e+000
 9.7258130376e-001	 1.4548489982e+000	-2.3040177204e+000
 9.5761706841e-001	 1.4647421446e+000	-2.2398670118e+000
 1.1187791744e+000	 1.3780269080e+000	-2.2848065714e+000
 1.1044919435e+000	 1.3895044249e+000	-2.3030402607e+000
 1.0900954730e+000	 1.4008272055e+000	-2.3135322327e+000
 1.0755922695e+000	 1.4119937216e+000	-2.3161561543e+000
 1.0609848670e+000	 1.4230024989e+000	-2.3108029746e+000
 1.0462758259e+000	 1.4338521179e+000	-2.2973810923e+000
 1.0314677315e+000	 1.4445412140e+000	-2.2758164896e+000
 1.0165631923e+000	 1.4550684781e+000	-2.2460528328e+000
 1.0015648390e+000	 1.4654326574e+000	-2.2080515387e+000
 9.8647532238e-001	 1.4756325553e+000	-2.1617918085e+000
 9.7129731225e-001	 1.4856670324e+000	-2.1072706267e+000
 1.1345366275e+000	 1.3974357376e+000	-2.1267232425e+000
 1.1200481680e+000	 1.4090749098e+000	-2.1457344867e+000
 1.1054489304e+000	 1.4205571661e+000	-2.1579500319e+000
 1.0907414564e+000	 1.4318809571e+000	-2.1632212554e+000
 1.0759283158e+000	 1.4430447877e+000	-2.1614161043e+000
 1.0610121051e+000	 1.4540472182e+000	-2.1524192967e+000
 1.0459954460e+000	 1.4648868649e+000	-2.1361324890e+000
 1.0308809838e+000	 1.4755624003e+000	-2.1124744114e+000
 1.0156713860e+000	 1.4860725539e+000	-2.0813809692e+000
 1.0003693410e+000	 1.4964161124e+000	-2.0428053105e+000
 9.8497755608e-001	 1.5065919202e+000	-1.9967178614e+000
 1.1502940807e+000	 1.4168445673e+000	-2.0004296762e+000
 1.1356043926e+000	 1.4286453946e+000	-2.0196408848e+000
 1.1208023878e+000	 1.4402871268e+000	-2.0329371424e+000
 1.1058906433e+000	 1.4517681926e+000	-2.0401476807e+000
 1.0908717647e+000	 1.4630870764e+000	-2.0411176386e+000
 1.0757483844e+000	 1.4742423185e+000	-2.0357082963e+000
 1.0605231605e+000	 1.4852325158e+000	-2.0237972772e+000
 1.0451987752e+000	 1.4960563226e+000	-2.0052787167e+000
 1.0297779331e+000	 1.5067124505e+000	-1.9800633981e+000
 1.0142633596e+000	 1.5171996695e+000	-1.9480788549e+000
 9.9865779992e-001	 1.5275168080e+000	-1.9092694402e+000
 1.1660515338e+000	 1.4362533970e+000	-1.9066362325e+000
 1.1511606171e+000	 1.4482158795e+000	-1.9254940949e+000
 1.1361558451e+000	 1.4600170874e+000	-1.9392540910e+000
 1.1210398302e+000	 1.4716554281e+000	-1.9477234318e+000
 1.1058152135e+000	 1.4831293651e+000	-1.9507246213e+000
 1.0904846636e+000	 1.4944374187e+000	-1.9480957242e+000
 1.0750508751e+000	 1.5055781667e+000	-1.9396906013e+000
 1.0595165667e+000	 1.5165502448e+000	-1.9253791120e+000
 1.0438844801e+000	 1.5273523471e+000	-1.9050472844e+000
 1.0281573783e+000	 1.5379832267e+000	-1.8785974513e+000
 1.0123380438e+000	 1.5484416958e+000	-1.8459483539e+000
 1.1818089870e+000	 1.4556622267e+000	-1.8460336024e+000
 1.1667168417e+000	 1.4677863643e+000	-1.8640079636e+000
 1.1515093025e+000	 1.4797470481e+000	-1.8776393891e+000
 1.1361890171e+000	 1.4915426636e+000	-1.8867131753e+000
 1.1207586623e+000	 1.5031716538e+000	-1.8910293455e+000
 1.1052209428e+000	 1.5146325190e+000	-1.8904029510e+000
 1.0895785896e+000	 1.5259238176e+000	-1.8846643397e+000
 1.0738343581e+000	 1.5370441670e+000	-1.8736593924e+000
 1.0579910271e+000	 1.5479922437e+000	-1.8572497263e+000
 1.0420513969e+000	 1.5587667838e+000	-1.8353128648e+000
 1.0260182876e+000	 1.5693665835e+000	-1.8077423747e+000
 1.1975664402e+000	 1.4750710564e+000	-1.8192941021e+000
 1.1822730662e+000	 1.4873568492e+000	-1.8358769123e+000
 1.1668627599e+000	 1.4994770087e+000	-1.8488109808e+000
 1.1513382040e+000	 1.5114298991e+000	-1.8578597777e+000
 1.1357021112e+000	 1.5232139425e+000	-1.8628009813e+000
 1.1199572221e+000	 1.5348276192e+000	-1.8634268123e+000
 1.1041063041e+000	 1.5462694685e+000	-1.8595443355e+000
 1.0881521496e+000	 1.5575380892e+000	-1.8509757299e+000
 1.0720975742e+000	 1.5686321403e+000	-1.8375585247e+000
 1.0559454155e+000	 1.5795503409e+000	-1.8191458034e+000
 1.0396985314e+000	 1.5902914713e+000	-1.7956063735e+000
 1.2133238933e+000	 1.4944798861e+000	-1.8270728657e+000
 1.1978292908e+000	 1.5069273341e+000	-1.8417771983e+000
 1.1822162172e+000	 1.5192069693e+000	-1.8534675786e+000
 1.1664873909e+000	 1.5313171347e+000	-1.8618857214e+000
 1.1506455600e+000	 1.5432562312e+000	-1.8667870778e+000
 1.1346935013e+000	 1.5550227194e+000	-1.8679412022e+000
 1.1186340186e+000	 1.5666151194e+000	-1.8651320873e+000
 1.1024699410e+000	 1.5780320114e+000	-1.8581584668e+000
 1.0862041212e+000	 1.5892720368e+000	-1.8468340852e+000
 1.0698394341e+000	 1.6003338980e+000	-1.8309879346e+000
 1.0533787753e+000	 1.6112163591e+000	-1.8104644565e+000
 1.2290813465e+000	 1.5138887158e+000	-1.8700089470e+000
 1.2133855153e+000	 1.5264978189e+000	-1.8823680794e+000
 1.1975696746e+000	 1.5389369300e+000	-1.8922898959e+000
 1.1816365778e+000	 1.5512043702e+000	-1.8994944108e+000
 1.1655890088e+000	 1.5632985200e+000	-1.9037149486e+000
 1.1494297806e+000	 1.5752178197e+000	-1.9046985438e+000
 1.1331617332e+000	 1.5869607703e+000	-1.9022063093e+000
 1.1167877324e+000	 1.5985259337e+000	-1.8960137719e+000
 1.1003106682e+000	 1.6099119334e+000	-1.8859111747e+000
 1.0837334528e+000	 1.6211174551e+000	-1.8717037466e+000
 1.0670590191e+000	 1.6321412469e+000	-1.8532119369e+000
 1.2448387997e+000	 1.5332975455e+000	-1.9487263373e+000
 1.2289417399e+000	 1.5460683038e+000	-1.9582928899e+000
 1.2129231320e+000	 1.5586668906e+000	-1.9659417868e+000
 1.1967857647e+000	 1.5710916057e+000	-1.9713713804e+000
 1.1805324577e+000	 1.5833408087e+000	-1.9742929527e+000
 1.1641660598e+000	 1.5954129199e+000	-1.9744311479e+000
 1.1476894477e+000	 1.6073064212e+000	-1.9715243739e+000
 1.1311055239e+000	 1.6190198559e+000	-1.9653251702e+000
 1.1144172153e+000	 1.6305518300e+000	-1.9556005437e+000
 1.0976274714e+000	 1.6419010122e+000	-1.9421322693e+000
 1.0807392629e+000	 1.6530661346e+000	-1.9247171576e+000
 1.2605962528e+000	 1.5527063751e+000	-2.0601930239e+000
 1.2444979645e+000	 1.5656387886e+000	-2.0701800355e+000
 1.2282765894e+000	 1.5783968513e+000	-2.0750712991e+000
 1.2119349516e+000	 1.5909788412e+000	-2.0781854112e+000
 1.1954759065e+000	 1.6033830974e+000	-2.0792116793e+000
 1.1789023391e+000	 1.6156080202e+000	-2.0778524704e+000
 1.1622171622e+000	 1.6276520721e+000	-2.0738236451e+000
 1.1454233153e+000	 1.6395137781e+000	-2.0668549584e+000
 1.1285237623e+000	 1.6511917266e+000	-2.0566904275e+000
 1.1115214900e+000	 1.6626845693e+000	-2.0430886647e+000
 1.0944195068e+000	 1.6739910224e+000	-2.0258231769e+000
 9.5761706841e-001	 1.4647421446e+000	-2.2398670118e+000
 9.4256823526e-001	 1.4744711329e+000	-2.2150765632e+000
 9.2743746930e-001	 1.4840349526e+000	-2.1841786193e+000
 9.1222744964e-001	 1.4934326500e+000	-2.1471551975e+000
 8.9694086807e-001	 1.5026633286e+000	-2.1040046741e+000
 8.8158042754e-001	 1.5117261490e+000	-2.0547416936e+000
 8.6614884069e-001	 1.5206203292e+000	-1.9993970485e+000
 8.5064882832e-001	 1.5293451444e+000	-1.9380175287e+000
 8.3508311794e-001	 1.5378999272e+000	-1.8706657426e+000
 8.1945444228e-001	 1.5462840674e+000	-1.7974199090e+000
 8.0376553783e-001	 1.5544970119e+000	-1.7183736217e+000
 9.7129731225e-001	 1.4856670324e+000	-2.1072706267e+000
 9.5603349577e-001	 1.4955350063e+000	-2.0892411023e+000
 9.4068657601e-001	 1.5052354519e+000	-2.0628029396e+000
 9.2525927035e-001	 1.5147674021e+000	-2.0279846760e+000
 9.0975430904e-001	 1.5241299476e+000	-1.9848331380e+000
 8.9417443366e-001	 1.5333222369e+000	-1.9334132872e+000
 8.7852239556e-001	 1.5423434768e+000	-1.8738080335e+000
 8.6280095444e-001	 1.5511929322e+000	-1.8061180174e+000
 8.4701287677e-001	 1.5598699262e+000	-1.7304613601e+000
 8.3116093432e-001	 1.5683738397e+000	-1.6469733847e+000
 8.1524790266e-001	 1.5767041121e+000	-1.5558063070e+000
 9.8497755608e-001	 1.5065919202e+000	-1.9967178614e+000
 9.6949875628e-001	 1.5165988796e+000	-1.9869534685e+000
 9.5393568271e-001	 1.5264359512e+000	-1.9664987865e+000
 9.3829109106e-001	 1.5361021543e+000	-1.9354279010e+000
 9.2256775002e-001	 1.5455965666e+000	-1.8938351202e+000
 9.0676843977e-001	 1.5549183247e+000	-1.8418347579e+000
 8.9089595043e-001	 1.5640666244e+000	-1.7795608821e+000
 8.7495308057e-001	 1.5730407200e+000	-1.7071670298e+000
 8.5894263560e-001	 1.5818399251e+000	-1.6248258885e+000
 8.4286742635e-001	 1.5904636121e+000	-1.5327289458e+000
 8.2673026749e-001	 1.5989112123e+000	-1.4310861081e+000
 9.9865779992e-001	 1.5275168080e+000	-1.9092694402e+000
 9.8296401678e-001	 1.5376627529e+000	-1.9092024054e+000
 9.6718478942e-001	 1.5476364506e+000	-1.8961810020e+000
 9.5132291177e-001	 1.5574369064e+000	-1.8703239306e+000
 9.3538119099e-001	 1.5670631856e+000	-1.8317720521e+000
 9.1936244588e-001	 1.5765144126e+000	-1.7806881091e+000
 9.0326950530e-001	 1.5857897719e+000	-1.7172564102e+000
 8.8710520669e-001	 1.5948885078e+000	-1.6416824782e+000
 8.7087239443e-001	 1.6038099241e+000	-1.5541926638e+000
 8.5457391839e-001	 1.6125533845e+000	-1.4550337245e+000
 8.3821263232e-001	 1.6211183125e+000	-1.3444723715e+000
 1.0123380438e+000	 1.5484416958e+000	-1.8459483539e+000
 9.9642927729e-001	 1.5587266262e+000	-1.8569428521e+000
 9.8043389613e-001	 1.5688369499e+000	-1.8527346416e+000
 9.6435473249e-001	 1.5787716586e+000	-1.8334861416e+000
 9.4819463197e-001	 1.5885298045e+000	-1.7993838746e+000
 9.3195645199e-001	 1.5981105004e+000	-1.7506381271e+000
 9.1564306017e-001	 1.6075129195e+000	-1.6874825704e+000
 8.9925733281e-001	 1.6167362956e+000	-1.6101738431e+000
 8.8280215326e-001	 1.6257799230e+000	-1.5189910975e+000
 8.6628041042e-001	 1.6346431569e+000	-1.4142355087e+000
 8.4969499715e-001	 1.6433254126e+000	-1.2962297508e+000
 1.0260182876e+000	 1.5693665835e+000	-1.8077423747e+000
 1.0098945378e+000	 1.5797904996e+000	-1.8310981960e+000
 9.9368300283e-001	 1.5900374492e+000	-1.8370169599e+000
 9.7738655320e-001	 1.6001064107e+000	-1.8257039420e+000
 9.6100807294e-001	 1.6099964235e+000	-1.7973904709e+000
 9.4455045810e-001	 1.6197065883e+000	-1.7523335288e+000
 9.2801661504e-001	 1.6292360671e+000	-1.6908153091e+000
 9.1140945893e-001	 1.6385840833e+000	-1.6131427350e+000
 8.9473191209e-001	 1.6477499220e+000	-1.5196469378e+000
 8.7798690246e-001	 1.6567329293e+000	-1.4106826985e+000
 8.6117736198e-001	 1.6655325128e+000	-1.2866278523e+000
 1.0396985314e+000	 1.5902914713e+000	-1.7956063735e+000
 1.0233597983e+000	 1.6008543729e+000	-1.8325623493e+000
 1.0069321095e+000	 1.6112379485e+000	-1.8498592398e+000
 9.9041837391e-001	 1.6214411629e+000	-1.8477443477e+000
 9.7382151392e-001	 1.6314630425e+000	-1.8264929862e+000
 9.5714446421e-001	 1.6413026761e+000	-1.7864080188e+000
 9.4039016991e-001	 1.6509592146e+000	-1.7278193569e+000
 9.2356158505e-001	 1.6604318711e+000	-1.6510834123e+000
 9.0666167092e-001	 1.6697199210e+000	-1.5565825111e+000
 8.8969339449e-001	 1.6788227017e+000	-1.4447242656e+000
 8.7265972680e-001	 1.6877396130e+000	-1.3159409100e+000
 1.0533787753e+000	 1.6112163591e+000	-1.8104644565e+000
 1.0368250588e+000	 1.6219182462e+000	-1.8622016623e+000
 1.0201812162e+000	 1.6324384478e+000	-1.8920684787e+000
 1.0034501946e+000	 1.6427759150e+000	-1.9003534369e+000
 9.8663495489e-001	 1.6529296615e+000	-1.8873750440e+000
 9.6973847032e-001	 1.6628987640e+000	-1.8534812647e+000
 9.5276372478e-001	 1.6726823622e+000	-1.7990489562e+000
 9.3571371117e-001	 1.6822796589e+000	-1.7244832590e+000
 9.1859142975e-001	 1.6916899199e+000	-1.6302169438e+000
 9.0139988653e-001	 1.7009124741e+000	-1.5167097165e+000
 8.8414209163e-001	 1.7099467131e+000	-1.3844474841e+000
 1.0670590191e+000	 1.6321412469e+000	-1.8532119369e+000
 1.0502903193e+000	 1.6429821195e+000	-1.9208566909e+000
 1.0334303230e+000	 1.6536389472e+000	-1.9644289457e+000
 1.0164820153e+000	 1.6641106671e+000	-1.9842576917e+000
 9.9944839587e-001	 1.6743962805e+000	-1.9807038700e+000
 9.8233247643e-001	 1.6844948518e+000	-1.9541597961e+000
 9.6513727965e-001	 1.6944055097e+000	-1.9050485342e+000
 9.4786583729e-001	 1.7041274467e+000	-1.8338232250e+000
 9.3052118858e-001	 1.7136599189e+000	-1.7409663675e+000
 9.1310637856e-001	 1.7230022465e+000	-1.6269890576e+000
 8.9562445646e-001	 1.7321538133e+000	-1.4924301845e+000
 1.0807392629e+000	 1.6530661346e+000	-1.9247171576e+000
 1.0637555798e+000	 1.6640459929e+000	-2.0093438285e+000
 1.0466794297e+000	 1.6748394465e+000	-2.0677036195e+000
 1.0295138360e+000	 1.6854454193e+000	-2.1001652386e+000
 1.0122618368e+000	 1.6958628994e+000	-2.1071313292e+000
 9.9492648253e-001	 1.7060909396e+000	-2.0890378369e+000
 9.7751083451e-001	 1.7161286573e+000	-2.0463533237e+000
 9.6001796341e-001	 1.7259752344e+000	-1.9795782333e+000
 9.4245094741e-001	 1.7356299178e+000	-1.8892441087e+000
 9.2481287059e-001	 1.7450920189e+000	-1.7759127645e+000
 9.0710682128e-001	 1.7543609135e+000	-1.6401754142e+000
 1.0944195068e+000	 1.6739910224e+000	-2.0258231769e+000
 1.0772208403e+000	 1.6851098662e+000	-2.1284568165e+000
 1.0599285364e+000	 1.6960399458e+000	-2.2026355197e+000
 1.0425456567e+000	 1.7067801714e+000	-2.2487669959e+000
 1.0250752778e+000	 1.7173295184e+000	-2.2672948865e+000
 1.0075204886e+000	 1.7276870275e+000	-2.2586980741e+000
 9.8988438938e-001	 1.7378518049e+000	-2.2234899379e+000
 9.7217008953e-001	 1.7478230222e+000	-2.1622175570e+000
 9.5438070623e-001	 1.7575999168e+000	-2.0754608642e+000
 9.3651936262e-001	 1.7671817913e+000	-1.9638317519e+000
 9.1858918611e-001	 1.7765680137e+000	-1.8279731321e+000
 8.0376553783e-001	 1.5544970119e+000	-1.7183736217e+000
 7.8801914338e-001	 1.5625382650e+000	-1.7961877045e+000
 7.7221799855e-001	 1.5704073875e+000	-1.8501031250e+000
 7.5636484241e-001	 1.5781039969e+000	-1.8808228692e+000
 7.4046241198e-001	 1.5856277673e+000	-1.8890760619e+000
 7.2451344093e-001	 1.5929784285e+000	-1.8756168575e+000
 7.0852065808e-001	 1.6001557665e+000	-1.8412233048e+000
 6.9248678611e-001	 1.6071596221e+000	-1.7866961868e+000
 6.7641454021e-001	 1.6139898915e+000	-1.7128578381e+000
 6.6030662669e-001	 1.6206465249e+000	-1.6205509434e+000
 6.4416574173e-001	 1.6271295268e+000	-1.5106373183e+000
 8.1524790266e-001	 1.5767041121e+000	-1.5558063070e+000
 7.9927655972e-001	 1.5848602402e+000	-1.6416120618e+000
 7.8324968425e-001	 1.5928417787e+000	-1.7044198188e+000
 7.6717005444e-001	 1.6006483397e+000	-1.7448990433e+000
 7.5104044644e-001	 1.6082795925e+000	-1.7637452030e+000
 7.3486363294e-001	 1.6157352632e+000	-1.7616786941e+000
 7.1864238176e-001	 1.6230151346e+000	-1.7394437391e+000
 7.0237945449e-001	 1.6301190453e+000	-1.6978072586e+000
 6.8607760507e-001	 1.6370468899e+000	-1.6375577219e+000
 6.6973957850e-001	 1.6437986181e+000	-1.5595039764e+000
 6.5336810947e-001	 1.6503742344e+000	-1.4644740583e+000
 8.2673026749e-001	 1.5989112123e+000	-1.4310861081e+000
 8.1053397605e-001	 1.6071822154e+000	-1.5226945062e+000
 7.9428136994e-001	 1.6152761700e+000	-1.5921463335e+000
 7.7797526648e-001	 1.6231926825e+000	-1.6400787762e+000
 7.6161848090e-001	 1.6309314178e+000	-1.6671549239e+000
 7.4521382496e-001	 1.6384920979e+000	-1.6740627273e+000
 7.2876410545e-001	 1.6458745027e+000	-1.6615139280e+000
 7.1227212286e-001	 1.6530784685e+000	-1.6302429624e+000
 6.9574066993e-001	 1.6601038884e+000	-1.5810058415e+000
 6.7917253031e-001	 1.6669507113e+000	-1.5145790108e+000
 6.6257047722e-001	 1.6736189419e+000	-1.4317581897e+000
 8.3821263232e-001	 1.6211183125e+000	-1.3444723715e+000
 8.2179139239e-001	 1.6295041906e+000	-1.4397630768e+000
 8.0531305564e-001	 1.6377105612e+000	-1.5136807583e+000
 7.8878047852e-001	 1.6457370254e+000	-1.5668315257e+000
 7.7219651536e-001	 1.6535832430e+000	-1.5998473280e+000
 7.5556401697e-001	 1.6612489326e+000	-1.6133849426e+000
 7.3888582914e-001	 1.6687338708e+000	-1.6081249352e+000
 7.2216479124e-001	 1.6760378917e+000	-1.5847705935e+000
 7.0540373479e-001	 1.6831608868e+000	-1.5440468363e+000
 6.8860548212e-001	 1.6901028046e+000	-1.4866991006e+000
 6.7177284496e-001	 1.6968636494e+000	-1.4134922096e+000
 8.4969499715e-001	 1.6433254126e+000	-1.2962297508e+000
 8.3304880872e-001	 1.6518261659e+000	-1.3931472973e+000
 8.1634474134e-001	 1.6601449525e+000	-1.4694187575e+000
 7.9958569055e-001	 1.6682813682e+000	-1.5256203286e+000
 7.8277454982e-001	 1.6762350683e+000	-1.5623540186e+000
 7.6591420899e-001	 1.6840057673e+000	-1.5802466648e+000
 7.4900755283e-001	 1.6915932389e+000	-1.5799489233e+000
 7.3205745961e-001	 1.6989973148e+000	-1.5621342300e+000
 7.1506679966e-001	 1.7062178853e+000	-1.5274977378e+000
 6.9803843393e-001	 1.7132548978e+000	-1.4767552299e+000
 6.8097521270e-001	 1.7201083570e+000	-1.4106420133e+000
 8.6117736198e-001	 1.6655325128e+000	-1.2866278523e+000
 8.4430622506e-001	 1.6741481411e+000	-1.3831780776e+000
 8.2737642703e-001	 1.6825793437e+000	-1.4597537321e+000
 8.1039090259e-001	 1.6908257110e+000	-1.5169022289e+000
 7.9335258428e-001	 1.6988868935e+000	-1.5551967984e+000
 7.7626440100e-001	 1.7067626020e+000	-1.5752355351e+000
 7.5912927652e-001	 1.7144526070e+000	-1.5776404144e+000
 7.4195012799e-001	 1.7219567380e+000	-1.5630562809e+000
 7.2472986452e-001	 1.7292748837e+000	-1.5321498108e+000
 7.0747138575e-001	 1.7364069910e+000	-1.4856084507e+000
 6.9017758044e-001	 1.7433530645e+000	-1.4241393350e+000
 8.7265972680e-001	 1.6877396130e+000	-1.3159409100e+000
 8.5556364139e-001	 1.6964701163e+000	-1.4101876223e+000
 8.3840811273e-001	 1.7050137350e+000	-1.4850769685e+000
 8.2119611462e-001	 1.7133700538e+000	-1.5411286720e+000
 8.0393061874e-001	 1.7215387188e+000	-1.5788883147e+000
 7.8661459301e-001	 1.7295194367e+000	-1.5989264109e+000
 7.6925100021e-001	 1.7373119751e+000	-1.6018374503e+000
 7.5184279636e-001	 1.7449161612e+000	-1.5882389112e+000
 7.3439292938e-001	 1.7523318822e+000	-1.5587702478e+000
 7.1690433756e-001	 1.7595590842e+000	-1.5140918521e+000
 6.9937994818e-001	 1.7665977720e+000	-1.4548839946e+000
 8.8414209163e-001	 1.7099467131e+000	-1.3844474841e+000
 8.6682105773e-001	 1.7187920915e+000	-1.4745093469e+000
 8.4943979842e-001	 1.7274481262e+000	-1.5457777763e+000
 8.3200132666e-001	 1.7359143966e+000	-1.5987458685e+000
 8.1450865319e-001	 1.7441905440e+000	-1.6339326538e+000
 7.9696478503e-001	 1.7522762714e+000	-1.6518821966e+000
 7.7937272389e-001	 1.7601713431e+000	-1.6531626628e+000
 7.6173546473e-001	 1.7678755844e+000	-1.6383653569e+000
 7.4405599424e-001	 1.7753888806e+000	-1.6081037327e+000
 7.2633728937e-001	 1.7827111774e+000	-1.5630123766e+000
 7.0858231592e-001	 1.7898424795e+000	-1.5037459702e+000
 8.9562445646e-001	 1.7321538133e+000	-1.4924301845e+000
 8.7807847406e-001	 1.7411140667e+000	-1.5764777998e+000
 8.6047148411e-001	 1.7498825175e+000	-1.6422436145e+000
 8.4280653869e-001	 1.7584587394e+000	-1.6901951294e+000
 8.2508668765e-001	 1.7668423693e+000	-1.7208258898e+000
 8.0731497704e-001	 1.7750331061e+000	-1.7346546094e+000
 7.8949444758e-001	 1.7830307112e+000	-1.7322242615e+000
 7.7162813311e-001	 1.7908350075e+000	-1.7141011383e+000
 7.5371905910e-001	 1.7984458791e+000	-1.6808738833e+000
 7.3577024118e-001	 1.8058632706e+000	-1.6331524955e+000
 7.1778468366e-001	 1.8130871871e+000	-1.5715673113e+000
 9.0710682128e-001	 1.7543609135e+000	-1.6401754142e+000
 8.8933589040e-001	 1.7634360419e+000	-1.7164285909e+000
 8.7150316981e-001	 1.7723169087e+000	-1.7748602087e+000
 8.5361175073e-001	 1.7810030823e+000	-1.8159131764e+000
 8.3566472211e-001	 1.7894941945e+000	-1.8400565915e+000
 8.1766516906e-001	 1.7977899408e+000	-1.8477848875e+000
 7.9961617127e-001	 1.8058900793e+000	-1.8396169466e+000
 7.8152080148e-001	 1.8137944307e+000	-1.8160951811e+000
 7.6338212396e-001	 1.8215028775e+000	-1.7777845849e+000
 7.4520319299e-001	 1.8290153638e+000	-1.7252717582e+000
 7.2698705140e-001	 1.8363318946e+000	-1.6591639064e+000
 9.1858918611e-001	 1.7765680137e+000	-1.8279731321e+000
 9.0059330673e-001	 1.7857580172e+000	-1.8946983252e+000
 8.8253485550e-001	 1.7947513000e+000	-1.9440116599e+000
 8.6441696276e-001	 1.8035474251e+000	-1.9763324289e+000
 8.4624275656e-001	 1.8121460198e+000	-1.9921062919e+000
 8.2801536107e-001	 1.8205467755e+000	-1.9918044448e+000
 8.0973789495e-001	 1.8287494474e+000	-1.9759227532e+000
 7.9141346985e-001	 1.8367538539e+000	-1.9449808535e+000
 7.7304518882e-001	 1.8445598760e+000	-1.8995212235e+000
 7.5463614479e-001	 1.8521674571e+000	-1.8401082244e+000
 7.3618941913e-001	 1.8595766021e+000	-1.7673271176e+000
 6.4416574173e-001	 1.6271295268e+000	-1.5106373183e+000
 6.2799457010e-001	 1.6334389551e+000	-1.0773874320e+000
 6.1179578385e-001	 1.6395749202e+000	-1.0643713578e+000
 5.9557204113e-001	 1.6455375851e+000	-1.1282873112e+000
 5.7932598494e-001	 1.6513271642e+000	-1.1686629063e+000
 5.6306024200e-001	 1.6569439230e+000	-1.1868410134e+000
 5.4677742155e-001	 1.6623881771e+000	-1.1841722020e+000
 5.3048011422e-001	 1.6676602917e+000	-1.1620119989e+000
 5.1417089100e-001	 1.6727606807e+000	-1.1217181962e+000
 4.9785230211e-001	 1.6776898060e+000	-1.0646482143e+000
 4.8152687598e-001	 1.6824481768e+000	-9.9215652598e-001
 6.5336810947e-001	 1.6503742344e+000	-1.4644740583e+000
 6.3696592110e-001	 1.6567737973e+000	-1.0546453928e+000
 6.2053572362e-001	 1.6629974190e+000	-7.6763293370e-001
 6.0408021315e-001	 1.6690452648e+000	-8.6659852443e-001
 5.8760207045e-001	 1.6749175522e+000	-9.4082652162e-001
 5.7110395975e-001	 1.6806145504e+000	-9.9176664074e-001
 5.5458852757e-001	 1.6861365796e+000	-1.0208763671e+000
 5.3805840157e-001	 1.6914840101e+000	-1.0296180453e+000
 5.2151618944e-001	 1.6966572618e+000	-1.0194560220e+000
 5.0496447785e-001	 1.7016568033e+000	-9.9185384835e-001
 4.8840583136e-001	 1.7064831508e+000	-9.4827154536e-001
 6.6257047722e-001	 1.6736189419e+000	-1.4317581897e+000
 6.4593727211e-001	 1.6801086395e+000	-1.0466221522e+000
 6.2927566340e-001	 1.6864199179e+000	-6.2856806815e-001
 6.1258838517e-001	 1.6925529446e+000	-6.1335058549e-001
 5.9587815595e-001	 1.6985079403e+000	-7.2142561099e-001
 5.7914767750e-001	 1.7042851779e+000	-8.0512499475e-001
 5.6239963360e-001	 1.7098849821e+000	-8.6601488312e-001
 5.4563668892e-001	 1.7153077286e+000	-9.0566617068e-001
 5.2886148789e-001	 1.7205538430e+000	-9.2565147487e-001
 5.1207665360e-001	 1.7256238005e+000	-9.2754217349e-001
 4.9528478673e-001	 1.7305181247e+000	-9.1290551024e-001
 6.7177284496e-001	 1.6968636494e+000	-1.4134922096e+000
 6.5490862311e-001	 1.7034434817e+000	-1.0542365450e+000
 6.3801560317e-001	 1.7098424168e+000	-6.6049857313e-001
 6.2109655719e-001	 1.7160606244e+000	-3.7143681266e-001
 6.0415424145e-001	 1.7220983284e+000	-5.1320441651e-001
 5.8719139524e-001	 1.7279558054e+000	-6.2950988064e-001
 5.7021073962e-001	 1.7336333847e+000	-7.2202985825e-001
 5.5321497627e-001	 1.7391314470e+000	-7.9244562627e-001
 5.3620678633e-001	 1.7444504242e+000	-8.4243988862e-001
 5.1918882934e-001	 1.7495907977e+000	-8.7369364591e-001
 5.0216374210e-001	 1.7545530987e+000	-8.8788313751e-001
 6.8097521270e-001	 1.7201083570e+000	-1.4106420133e+000
 6.6387997412e-001	 1.7267783239e+000	-1.0783750756e+000
 6.4675554294e-001	 1.7332649156e+000	-7.1006529080e-001
 6.2960472920e-001	 1.7395683042e+000	-3.0718059401e-001
 6.1243032695e-001	 1.7456887164e+000	-3.1888795314e-001
 5.9523511299e-001	 1.7516264329e+000	-4.6750033325e-001
 5.7802184564e-001	 1.7573817872e+000	-5.9135312763e-001
 5.6079326361e-001	 1.7629551655e+000	-6.9223992601e-001
 5.4355208478e-001	 1.7683470053e+000	-7.7195543217e-001
 5.2630100509e-001	 1.7735577950e+000	-8.3229216281e-001
 5.0904269747e-001	 1.7785880727e+000	-8.7503722276e-001
 6.9017758044e-001	 1.7433530645e+000	-1.4241393350e+000
 6.7285132512e-001	 1.7501131661e+000	-1.1198940734e+000
 6.5549548271e-001	 1.7566874145e+000	-7.7804807480e-001
 6.3811290122e-001	 1.7630759840e+000	-4.0013451504e-001
 6.2070641246e-001	 1.7692791045e+000	-1.4118329052e-001
 6.0327883073e-001	 1.7752970603e+000	-3.2166160168e-001
 5.8583295167e-001	 1.7811301897e+000	-4.7640693834e-001
 5.6837155096e-001	 1.7867788839e+000	-6.0732722923e-001
 5.5089738322e-001	 1.7922435865e+000	-7.1633118707e-001
 5.3341318083e-001	 1.7975247922e+000	-8.0532483299e-001
 5.1592165284e-001	 1.8026230466e+000	-8.7620810179e-001
 6.9937994818e-001	 1.7665977720e+000	-1.4548839946e+000
 6.8182267612e-001	 1.7734480084e+000	-1.1796216780e+000
 6.6423542248e-001	 1.7801099133e+000	-8.6520235659e-001
 6.4662107324e-001	 1.7865836638e+000	-5.1322401620e-001
 6.2898249796e-001	 1.7928694926e+000	-1.2531114080e-001
 6.1132254848e-001	 1.7989676878e+000	-1.9454605627e-001
 5.9364405769e-001	 1.8048785923e+000	-3.7960458008e-001
 5.7594983831e-001	 1.8106026024e+000	-5.3998069294e-001
 5.5824268167e-001	 1.8161401676e+000	-6.7769921904e-001
 5.4052535658e-001	 1.8214917894e+000	-7.9478176556e-001
 5.2280060822e-001	 1.8266580206e+000	-8.9324315449e-001
 7.0858231592e-001	 1.7898424795e+000	-1.5037459702e+000
 6.9079402712e-001	 1.7967828506e+000	-1.2583596697e+000
 6.7297536225e-001	 1.8035324122e+000	-9.7226073132e-001
 6.5512924526e-001	 1.8100913436e+000	-6.4711155743e-001
 6.3725858345e-001	 1.8164598806e+000	-2.8460198704e-001
 6.1936626622e-001	 1.8226383153e+000	-8.8694024896e-002
 6.0145516371e-001	 1.8286269948e+000	-3.0335096692e-001
 5.8352812565e-001	 1.8344263209e+000	-4.9246879658e-001
 5.6558798011e-001	 1.8400367488e+000	-6.5819064394e-001
 5.4763753232e-001	 1.8454587867e+000	-8.0265587516e-001
 5.2967956359e-001	 1.8506929945e+000	-9.2799634742e-001
 7.1778468366e-001	 1.8130871871e+000	-1.5715673113e+000
 6.9976537812e-001	 1.8201176928e+000	-1.3568851594e+000
 6.8171530202e-001	 1.8269549111e+000	-1.0999344217e+000
 6.6363741727e-001	 1.8335990234e+000	-8.0244155955e-001
 6.4553466895e-001	 1.8400502687e+000	-4.6616142240e-001
 6.2740998396e-001	 1.8463089428e+000	-9.2874916485e-002
 6.0926626974e-001	 1.8523753973e+000	-2.5004317410e-001
 5.9110641300e-001	 1.8582500393e+000	-4.6705564193e-001
 5.7293327855e-001	 1.8639333299e+000	-6.5993568867e-001
 5.5474970807e-001	 1.8694257839e+000	-8.3094270205e-001
 5.3655851896e-001	 1.8747279685e+000	-9.8232781164e-001
 7.2698705140e-001	 1.8363318946e+000	-1.6591639064e+000
 7.0873672912e-001	 1.8434525350e+000	-1.4759521495e+000
 6.9045524179e-001	 1.8503774099e+000	-1.2489146306e+000
 6.7214558929e-001	 1.8571067031e+000	-9.7984154604e-001
 6.5381075445e-001	 1.8636406567e+000	-6.7055244532e-001
 6.3545370170e-001	 1.8699795702e+000	-3.2289381277e-001
 6.1707737576e-001	 1.8761237999e+000	-2.2925350581e-001
 5.9868470035e-001	 1.8820737578e+000	-5.0770818931e-001
 5.8027857699e-001	 1.8878299111e+000	-7.5406705212e-001
 5.6186188381e-001	 1.8933927811e+000	-9.7062902932e-001
 5.4343747433e-001	 1.8987629424e+000	-1.1597095828e+000
 7.3618941913e-001	 1.8595766021e+000	-1.7673271176e+000
 7.1770808012e-001	 1.8667873772e+000	-1.6162929787e+000
 6.9919518155e-001	 1.8737999088e+000	-1.4198737926e+000
 6.8065376130e-001	 1.8806143829e+000	-1.2268558762e+000
 6.6208683995e-001	 1.8872310448e+000	-9.9558922402e-001
 6.4349741945e-001	 1.8936501977e+000	-7.1731024593e-001
 6.2488848178e-001	 1.8998722024e+000	-3.9774399357e-001
 6.0626298769e-001	 1.9058974762e+000	-6.9493555991e-001
 5.8762387544e-001	 1.9117264922e+000	-9.5857125554e-001
 5.6897405956e-001	 1.9173597783e+000	-1.1910632090e+000
 5.5031642970e-001	 1.9227979164e+000	-1.3948404748e+000
 4.8152687598e-001	 1.6824481768e+000	-9.9215652598e-001
 4.6519711830e-001	 1.6870363485e+000	-9.2264145051e-001
 4.4886551095e-001	 1.6914549220e+000	-8.5310260777e-001
 4.3253451115e-001	 1.6957045429e+000	-7.8433229297e-001
 4.1620655053e-001	 1.6997859004e+000	-7.1710720293e-001
 3.9988403422e-001	 1.7036997268e+000	-6.5218681344e-001
 3.8356934007e-001	 1.7074467960e+000	-5.9031183132e-001
 3.6726481779e-001	 1.7110279231e+000	-5.3220272317e-001
 3.5097278822e-001	 1.7144439629e+000	-4.7855832263e-001
 3.3469554257e-001	 1.7176958094e+000	-4.3005451764e-001
 3.1843534172e-001	 1.7207843947e+000	-3.8734301885e-001
 4.8840583136e-001	 1.7064831508e+000	-9.4827154536e-001
 4.7184279141e-001	 1.7111368678e+000	-8.8461541473e-001
 4.5527787539e-001	 1.7156185637e+000	-8.2091759445e-001
 4.3871357559e-001	 1.7199288935e+000	-7.5802995625e-001
 4.2215235839e-001	 1.7240685561e+000	-6.9678794461e-001
 4.0559666328e-001	 1.7280382943e+000	-6.3800885867e-001
 3.8904890206e-001	 1.7318388931e+000	-5.8249021273e-001
 3.7251145804e-001	 1.7354711791e+000	-5.3100817748e-001
 3.5598668519e-001	 1.7389360195e+000	-4.8431610398e-001
 3.3947690746e-001	 1.7422343210e+000	-4.4314313169e-001
 3.2298441803e-001	 1.7453670289e+000	-4.0819288209e-001
 4.9528478673e-001	 1.7305181247e+000	-9.1290551024e-001
 4.7848846453e-001	 1.7352373870e+000	-8.5329100984e-001
 4.6169023983e-001	 1.7397822055e+000	-7.9362803932e-001
 4.4489264004e-001	 1.7441532441e+000	-7.3483046438e-001
 4.2809816625e-001	 1.7483512119e+000	-6.7779485286e-001
 4.1130929234e-001	 1.7523768619e+000	-6.2339865813e-001
 3.9452846406e-001	 1.7562309902e+000	-5.7249848524e-001
 3.7775809829e-001	 1.7599144352e+000	-5.2592844195e-001
 3.6100058217e-001	 1.7634280761e+000	-4.8449857669e-001
 3.4425827236e-001	 1.7667728326e+000	-4.4899340513e-001
 3.2753349434e-001	 1.7699496631e+000	-4.2017052662e-001
 5.0216374210e-001	 1.7545530987e+000	-8.8788313751e-001
 4.8513413765e-001	 1.7593379063e+000	-8.3041315192e-001
 4.6810260427e-001	 1.7639458472e+000	-7.7289852851e-001
 4.5107170448e-001	 1.7683775947e+000	-7.1631760731e-001
 4.3404397412e-001	 1.7726338676e+000	-6.6163051748e-001
 4.1702192139e-001	 1.7767154294e+000	-6.0977725928e-001
 4.0000802606e-001	 1.7806230873e+000	-5.6167587278e-001
 3.8300473855e-001	 1.7843576912e+000	-5.1822069604e-001
 3.6601447914e-001	 1.7879201327e+000	-4.8028071439e-001
 3.4903963725e-001	 1.7913113441e+000	-4.4869800301e-001
 3.3208257065e-001	 1.7945322974e+000	-4.2428626388e-001
 5.0904269747e-001	 1.7785880727e+000	-8.7503722276e-001
 4.9177981077e-001	 1.7834384256e+000	-8.1773535694e-001
 4.7451496871e-001	 1.7881094890e+000	-7.6040278909e-001
 4.5725076893e-001	 1.7926019453e+000	-7.0408487638e-001
 4.3998978198e-001	 1.7969165233e+000	-6.4980780927e-001
 4.2273455045e-001	 1.8010539969e+000	-5.9857658877e-001
 4.0548758806e-001	 1.8050151844e+000	-5.5137309500e-001
 3.8825137880e-001	 1.8088009473e+000	-5.0915424935e-001
 3.7102837612e-001	 1.8124121893e+000	-4.7285027270e-001
 3.5382100214e-001	 1.8158498557e+000	-4.4336304122e-001
 3.3663164696e-001	 1.8191149316e+000	-4.2156454165e-001
 5.1592165284e-001	 1.8026230466e+000	-8.7620810179e-001
 4.9842548389e-001	 1.8075389448e+000	-8.1701916747e-001
 4.8092733315e-001	 1.8122731307e+000	-7.5782307966e-001
 4.6342983337e-001	 1.8168262959e+000	-6.9973481761e-001
 4.4593558984e-001	 1.8211991790e+000	-6.4384919457e-001
 4.2844717952e-001	 1.8253925645e+000	-5.9123872723e-001
 4.1096715007e-001	 1.8294072815e+000	-5.4295160088e-001
 3.9349801906e-001	 1.8332442033e+000	-5.0000973294e-001
 3.7604227309e-001	 1.8369042460e+000	-4.6340693705e-001
 3.5860236704e-001	 1.8403883673e+000	-4.3410718978e-001
 3.4118072327e-001	 1.8436975658e+000	-4.1304300156e-001
 5.2280060822e-001	 1.8266580206e+000	-8.9324315449e-001
 5.0507115701e-001	 1.8316394641e+000	-8.3003362459e-001
 4.8733969760e-001	 1.8364367724e+000	-7.6684962905e-001
 4.6960889782e-001	 1.8410506465e+000	-7.0487843594e-001
 4.5188139771e-001	 1.8454818348e+000	-6.4528610403e-001
 4.3415980858e-001	 1.8497311320e+000	-5.8921524116e-001
 4.1644671207e-001	 1.8537993786e+000	-5.3778286292e-001
 3.9874465931e-001	 1.8576874594e+000	-4.9207835447e-001
 3.8105617007e-001	 1.8613963026e+000	-4.5316153785e-001
 3.6338373194e-001	 1.8649268788e+000	-4.2206084686e-001
 3.4572979958e-001	 1.8682802000e+000	-3.9977161114e-001
 5.2967956359e-001	 1.8506929945e+000	-9.2799634742e-001
 5.1171683013e-001	 1.8557399833e+000	-8.5855478098e-001
 4.9375206204e-001	 1.8606004142e+000	-7.8918011880e-001
 4.7578796226e-001	 1.8652749971e+000	-7.2113464597e-001
 4.5782720558e-001	 1.8697644905e+000	-6.5565835048e-001
 4.3987243764e-001	 1.8740696995e+000	-5.9396656703e-001
 4.2192627407e-001	 1.8781914757e+000	-5.3412268671e-001
 4.0399129957e-001	 1.8821307154e+000	-4.7458012200e-001
 3.8607006704e-001	 1.8858883592e+000	-4.1687629099e-001
 3.6816509683e-001	 1.8894653904e+000	-3.6227210890e-001
 3.5027887589e-001	 1.8928628342e+000	-3.1201492086e-001
 5.3655851896e-001	 1.8747279685e+000	-9.8232781164e-001
 5.1836250325e-001	 1.8798405026e+000	-9.1883041632e-001
 5.0016442648e-001	 1.8847640559e+000	-8.4975592322e-001
 4.8196702671e-001	 1.8894993478e+000	-7.7549745464e-001
 4.6377301344e-001	 1.8940471462e+000	-6.9742138398e-001
 4.4558506670e-001	 1.8984082670e+000	-6.1689212691e-001
 4.2740583607e-001	 1.9025835728e+000	-5.3526954424e-001
 4.0923793982e-001	 1.9065739715e+000	-4.5390641296e-001
 3.9108396402e-001	 1.9103804158e+000	-3.7414596934e-001
 3.7294646173e-001	 1.9140039020e+000	-2.9731952806e-001
 3.5482795221e-001	 1.9174454684e+000	-2.2474418060e-001
 5.4343747433e-001	 1.8987629424e+000	-1.1597095828e+000
 5.2500817637e-001	 1.9039410219e+000	-1.0760774566e+000
 5.0657679093e-001	 1.9089276977e+000	-9.8521330423e-001
 4.8814609116e-001	 1.9137236984e+000	-8.8855718644e-001
 4.6971882131e-001	 1.9183298019e+000	-7.8754987277e-001
 4.5129769576e-001	 1.9227468346e+000	-6.8363005851e-001
 4.3288539808e-001	 1.9269756698e+000	-5.7823164816e-001
 4.1448458008e-001	 1.9310172275e+000	-4.7278111009e-001
 3.9609786100e-001	 1.9348724724e+000	-3.6869490659e-001
 3.7772782663e-001	 1.9385424135e+000	-2.6737700320e-001
 3.5937702852e-001	 1.9420281026e+000	-1.7021646108e-001
 5.5031642970e-001	 1.9227979164e+000	-1.3948404748e+000
 5.3165384949e-001	 1.9280415411e+000	-1.2878363414e+000
 5.1298915537e-001	 1.9330913394e+000	-1.1729008515e+000
 4.9432515561e-001	 1.9379480490e+000	-1.0515508624e+000
 4.7566462918e-001	 1.9426124576e+000	-9.2530393618e-001
 4.5701032483e-001	 1.9470854021e+000	-7.9567543074e-001
 4.3836496008e-001	 1.9513677669e+000	-6.6417566062e-001
 4.1973122034e-001	 1.9554604835e+000	-5.3230713225e-001
 4.0111175798e-001	 1.9593645290e+000	-4.0156185777e-001
 3.8250919152e-001	 1.9630809251e+000	-2.7341875187e-001
 3.6392610484e-001	 1.9666107368e+000	-1.4934111512e-001
 3.1843534172e-001	 1.7207843947e+000	-3.8734301885e-001
 3.0219441554e-001	 1.7237106878e+000	-3.3224745489e-001
 2.8597496228e-001	 1.7264756937e+000	-2.7814274967e-001
 2.6977914796e-001	 1.7290804525e+000	-2.2573603462e-001
 2.5360910577e-001	 1.7315260383e+000	-1.7570884062e-001
 2.3746693559e-001	 1.7338135582e+000	-1.2871609872e-001
 2.2135470344e-001	 1.7359441509e+000	-8.5385225169e-002
 2.0527444106e-001	 1.7379189865e+000	-4.6315290607e-002
 1.8922814542e-001	 1.7397392646e+000	-1.2076272933e-002
 1.7321777839e-001	 1.7414062137e+000	 1.6791606843e-002
 1.5724526631e-001	 1.7429210901e+000	 3.9778466620e-002
 3.2298441803e-001	 1.7453670289e+000	-4.0819288209e-001
 3.0651147862e-001	 1.7483351262e+000	-3.6565863021e-001
 2.9006031889e-001	 1.7511396322e+000	-3.2414165647e-001
 2.7363313579e-001	 1.7537816018e+000	-2.8442603864e-001
 2.5723209300e-001	 1.7562621246e+000	-2.4726858669e-001
 2.4085932039e-001	 1.7585823233e+000	-2.1339776326e-001
 2.2451691349e-001	 1.7607433531e+000	-1.8351269355e-001
 2.0820693307e-001	 1.7627464006e+000	-1.5828226465e-001
 1.9193140464e-001	 1.7645926827e+000	-1.3834431369e-001
 1.7569231808e-001	 1.7662834454e+000	-1.2430490410e-001
 1.5949162725e-001	 1.7678199628e+000	-1.1673768931e-001
 3.2753349434e-001	 1.7699496631e+000	-4.2017052662e-001
 3.1082854170e-001	 1.7729595646e+000	-3.8986022085e-001
 2.9414567549e-001	 1.7758035707e+000	-3.6063684023e-001
 2.7748712362e-001	 1.7784827512e+000	-3.3336267820e-001
 2.6085508023e-001	 1.7809982109e+000	-3.0887103106e-001
 2.4425170518e-001	 1.7833510884e+000	-2.8796503693e-001
 2.2767912354e-001	 1.7855425553e+000	-2.7141660971e-001
 2.1113942509e-001	 1.7875738147e+000	-2.5996546759e-001
 1.9463466387e-001	 1.7894461008e+000	-2.5431825581e-001
 1.7816685777e-001	 1.7911606770e+000	-2.5514776289e-001
 1.6173798820e-001	 1.7927188355e+000	-2.6309222936e-001
 3.3208257065e-001	 1.7945322974e+000	-4.2428626388e-001
 3.1514560478e-001	 1.7975840030e+000	-4.0572819568e-001
 2.9823103210e-001	 1.8004675091e+000	-3.8836957881e-001
 2.8134111145e-001	 1.8031839005e+000	-3.7315227163e-001
 2.6447806745e-001	 1.8057342971e+000	-3.6098734257e-001
 2.4764408998e-001	 1.8081198535e+000	-3.5275382661e-001
 2.3084133360e-001	 1.8103417574e+000	-3.4929758205e-001
 2.1407191711e-001	 1.8124012288e+000	-3.5143024746e-001
 1.9733792309e-001	 1.8142995188e+000	-3.5992829833e-001
 1.8064139747e-001	 1.8160379086e+000	-3.7553220250e-001
 1.6398434915e-001	 1.8176177082e+000	-3.9894567368e-001
 3.3663164696e-001	 1.8191149316e+000	-4.2156454165e-001
 3.1946266786e-001	 1.8222084414e+000	-4.1415617237e-001
 3.0231638870e-001	 1.8251314476e+000	-4.0810234961e-001
 2.8519509928e-001	 1.8278850498e+000	-4.0442592394e-001
 2.6810105468e-001	 1.8304703834e+000	-4.0411709865e-001
 2.5103647477e-001	 1.8328886186e+000	-4.0813210242e-001
 2.3400354365e-001	 1.8351409596e+000	-4.1739196794e-001
 2.1700440913e-001	 1.8372286429e+000	-4.3278141636e-001
 2.0004118231e-001	 1.8391529369e+000	-4.5514784689e-001
 1.8311593716e-001	 1.8409151402e+000	-4.8530043100e-001
 1.6623071010e-001	 1.8425165809e+000	-5.2400931000e-001
 3.4118072327e-001	 1.8436975658e+000	-4.1304300156e-001
 3.2377973094e-001	 1.8468328798e+000	-4.1605424085e-001
 3.0640174531e-001	 1.8497953861e+000	-4.2061741630e-001
 2.8904908711e-001	 1.8525861991e+000	-4.2783787445e-001
 2.7172404191e-001	 1.8552064696e+000	-4.3878639133e-001
 2.5442885957e-001	 1.8576573837e+000	-4.5449776011e-001
 2.3716575370e-001	 1.8599401617e+000	-4.7596949048e-001
 2.1993690114e-001	 1.8620560570e+000	-5.0416061947e-001
 2.0274444153e-001	 1.8640063550e+000	-5.3999063340e-001
 1.8559047685e-001	 1.8657923719e+000	-5.8433849987e-001
 1.6847707105e-001	 1.8674154536e+000	-6.3804180907e-001
 3.4572979958e-001	 1.8682802000e+000	-3.9977161114e-001
 3.2809679402e-001	 1.8714573182e+000	-4.1234787955e-001
 3.1048710192e-001	 1.8744593246e+000	-4.2671552708e-001
 2.9290307494e-001	 1.8772873485e+000	-4.2780818758e-001
 2.7534702914e-001	 1.8799425559e+000	-4.2620693933e-001
 2.5782124437e-001	 1.8824261489e+000	-4.2669699271e-001
 2.4032796375e-001	 1.8847393639e+000	-4.3064924355e-001
 2.2286939316e-001	 1.8868834711e+000	-4.3941048078e-001
 2.0544770075e-001	 1.8888597730e+000	-4.5430162425e-001
 1.8806501655e-001	 1.8906696035e+000	-4.7661605750e-001
 1.7072343199e-001	 1.8923143264e+000	-5.0761805612e-001
 3.5027887589e-001	 1.8928628342e+000	-3.1201492086e-001
 3.3241385710e-001	 1.8960817566e+000	-3.0361454676e-001
 3.1457245852e-001	 1.8991232631e+000	-2.9265303344e-001
 2.9675706277e-001	 1.9019884978e+000	-2.8065335705e-001
 2.7897001637e-001	 1.9046786422e+000	-2.6911918461e-001
 2.6121362916e-001	 1.9071949140e+000	-2.5953272710e-001
 2.4349017380e-001	 1.9095385661e+000	-2.5335268820e-001
 2.2580188518e-001	 1.9117108852e+000	-2.5201231025e-001
 2.0815095998e-001	 1.9137131911e+000	-2.5691751881e-001
 1.9053955624e-001	 1.9155468351e+000	-2.6944516697e-001
 1.7296979294e-001	 1.9172131991e+000	-2.9094137998e-001
 3.5482795221e-001	 1.9174454684e+000	-2.2474418060e-001
 3.3673092018e-001	 1.9207061950e+000	-2.0617545127e-001
 3.1865781513e-001	 1.9237872016e+000	-1.8464615008e-001
 3.0061105060e-001	 1.9266896471e+000	-1.6177211522e-001
 2.8259300359e-001	 1.9294147284e+000	-1.3914879439e-001
 2.6460601396e-001	 1.9319636791e+000	-1.1834898877e-001
 2.4665238385e-001	 1.9343377682e+000	-1.0092069725e-001
 2.2873437719e-001	 1.9365382993e+000	-8.8385062744e-002
 2.1085421920e-001	 1.9385666092e+000	-8.2234421970e-002
 1.9301409593e-001	 1.9404240667e+000	-8.3930459808e-002
 1.7521615389e-001	 1.9421120718e+000	-9.4902469079e-002
 3.5937702852e-001	 1.9420281026e+000	-1.7021646108e-001
 3.4104798327e-001	 1.9453306334e+000	-1.4017100713e-001
 3.2274317174e-001	 1.9484511400e+000	-1.0677970123e-001
 3.0446503843e-001	 1.9513907964e+000	-7.1752905073e-002
 2.8621599082e-001	 1.9541508147e+000	-3.6779472841e-002
 2.6799839876e-001	 1.9567324442e+000	-3.5243840713e-003
 2.4981459391e-001	 1.9591369704e+000	 2.6373518331e-002
 2.3166686921e-001	 1.9613657134e+000	 5.1303683115e-002
 2.1355747842e-001	 1.9634200273e+000	 6.9685897258e-002
 1.9548863562e-001	 1.9653012984e+000	 7.9972222930e-002
 1.7746251484e-001	 1.9670109445e+000	 8.0648823996e-002
 3.6392610484e-001	 1.9666107368e+000	-1.4934111512e-001
 3.4536504635e-001	 1.9699550718e+000	-1.0640963478e-001
 3.2682852835e-001	 1.9731150785e+000	-5.9760652962e-002
 3.0831902626e-001	 1.9760919458e+000	-1.1200778714e-002
 2.8983897805e-001	 1.9788869010e+000	 3.7486039848e-002
 2.7139078356e-001	 1.9815012093e+000	 8.4540995682e-002
 2.5297680396e-001	 1.9839361725e+000	 1.2823279286e-001
 2.3459936123e-001	 1.9861931275e+000	 1.6685990461e-001
 2.1626073764e-001	 1.9882734453e+000	 1.9875271787e-001
 1.9796317532e-001	 1.9901785300e+000	 2.2227556307e-001
 1.7970887579e-001	 1.9919098172e+000	 2.3582862826e-001
 1.5724526631e-001	 1.7429210901e+000	 3.9778466620e-002
 1.4131249968e-001	 1.7442851766e+000	 1.1354156220e-001
 1.2542133286e-001	 1.7454997821e+000	 1.7768419651e-001
 1.0957358381e-001	 1.7465662397e+000	 2.3199699956e-001
 9.3771033799e-002	 1.7474859064e+000	 2.7630075481e-001
 7.8015427255e-002	 1.7482601617e+000	 3.1044643157e-001
 6.2308471545e-002	 1.7488904066e+000	 3.3431515037e-001
 4.6651836836e-002	 1.7493780627e+000	 3.4781808340e-001
 3.1047155971e-002	 1.7497245709e+000	 3.5089629222e-001
 1.5496024379e-002	 1.7499313910e+000	 3.4352050492e-001
 0.0000000000e+000	 1.7500000000e+000	 3.2569083514e-001
 1.5949162725e-001	 1.7678199628e+000	-1.1673768931e-001
 1.4333124967e-001	 1.7692035363e+000	-4.8915984183e-002
 1.2721306619e-001	 1.7704354933e+000	 9.2595734790e-003
 1.1113892072e-001	 1.7715171860e+000	 5.7485651181e-002
 9.5110619996e-002	 1.7724499908e+000	 9.5491484136e-002
 7.9129933358e-002	 1.7732353069e+000	 1.2303896660e-001
 6.3198592567e-002	 1.7738745553e+000	 1.3992267055e-001
 4.7318291647e-002	 1.7743691778e+000	 1.4596979379e-001
 3.1490686771e-002	 1.7747206362e+000	 1.4104003981e-001
 1.5717396155e-002	 1.7749304109e+000	 1.2502543170e-001
 0.0000000000e+000	 1.7750000000e+000	 9.7850062528e-002
 1.6173798820e-001	 1.7927188355e+000	-2.6309222936e-001
 1.4534999967e-001	 1.7941218960e+000	-2.0306355776e-001
 1.2900479952e-001	 1.7953712044e+000	-1.5277427858e-001
 1.1270425763e-001	 1.7964681323e+000	-1.1262148616e-001
 9.6450206192e-002	 1.7974140752e+000	-8.2967230837e-002
 8.0244439462e-002	 1.7982104521e+000	-6.4138369336e-002
 6.4088713588e-002	 1.7988587040e+000	-5.6426493567e-002
 4.7984746459e-002	 1.7993602930e+000	-6.0087935716e-002
 3.1934217570e-002	 1.7997167015e+000	-7.5343847221e-002
 1.5938767932e-002	 1.7999294307e+000	-1.0238034917e-001
 0.0000000000e+000	 1.8000000000e+000	-1.4134875158e-001
 1.6398434915e-001	 1.8176177082e+000	-3.9894567368e-001
 1.4736874966e-001	 1.8190402556e+000	-3.4835712599e-001
 1.3079653284e-001	 1.8203069156e+000	-3.0766856571e-001
 1.1426959454e-001	 1.8214190786e+000	-2.7737074727e-001
 9.7789792389e-002	 1.8223781596e+000	-2.5791684085e-001
 8.1358945565e-002	 1.8231855972e+000	-2.4972222510e-001
 6.4978834610e-002	 1.8238428526e+000	-2.5316436422e-001
 4.8651201270e-002	 1.8243514082e+000	-2.6858276708e-001
 3.2377748369e-002	 1.8247127668e+000	-2.9627902591e-001
 1.6160139709e-002	 1.8249284506e+000	-3.3651693206e-001
 0.0000000000e+000	 1.8250000000e+000	-3.8952266600e-001
 1.6623071010e-001	 1.8425165809e+000	-5.2400931000e-001
 1.4938749966e-001	 1.8439586153e+000	-4.8431103117e-001
 1.3258826617e-001	 1.8452426268e+000	-4.5474052907e-001
 1.1583493145e-001	 1.8463700248e+000	-4.3588221175e-001
 9.9129378586e-002	 1.8473422440e+000	-4.2828029701e-001
 8.2473451668e-002	 1.8481607424e+000	-4.3243854798e-001
 6.5868955631e-002	 1.8488270013e+000	-4.4882009924e-001
 4.9317656081e-002	 1.8493425234e+000	-4.7784737066e-001
 3.2821279168e-002	 1.8497088321e+000	-5.1990206684e-001
 1.6381511485e-002	 1.8499274705e+000	-5.7532525904e-001
 0.0000000000e+000	 1.8500000000e+000	-6.4441754715e-001
 1.6847707105e-001	 1.8674154536e+000	-6.3804180907e-001
 1.5140624966e-001	 1.8688769750e+000	-6.1049409885e-001
 1.3437999950e-001	 1.8701783379e+000	-5.9336904261e-001
 1.1740026836e-001	 1.8713209711e+000	-5.8734478768e-001
 1.0046896478e-001	 1.8723063283e+000	-5.9305661745e-001
 8.3587957771e-002	 1.8731358876e+000	-6.1109663052e-001
 6.6759076653e-002	 1.8738111500e+000	-6.4201351633e-001
 4.9984110893e-002	 1.8743336386e+000	-6.8631242467e-001
 3.3264809967e-002	 1.8747048974e+000	-7.4445492655e-001
 1.6602883262e-002	 1.8749264904e+000	-8.1685906341e-001
 0.0000000000e+000	 1.8750000000e+000	-9.0389948192e-001
 1.7072343199e-001	 1.8923143264e+000	-5.0761805612e-001
 1.5342499965e-001	 1.8937953346e+000	-4.5487971302e-001
 1.3617173282e-001	 1.8951140491e+000	-4.1216382217e-001
 1.1896560528e-001	 1.8962719174e+000	-3.8064056196e-001
 1.0180855098e-001	 1.8972704127e+000	-3.6144641274e-001
 8.4702463874e-002	 1.8981110327e+000	-3.5568305473e-001
 6.7649197674e-002	 1.8987952986e+000	-3.6441636005e-001
 5.0650565704e-002	 1.8993247537e+000	-3.8867547808e-001
 3.3708340767e-002	 1.8997009627e+000	-4.2945201305e-001
 1.6824255038e-002	 1.8999255102e+000	-4.8769929252e-001
 0.0000000000e+000	 1.9000000000e+000	-5.6433172543e-001
 1.7296979294e-001	 1.9172131991e+000	-2.9094137998e-001
 1.5544374965e-001	 1.9187136943e+000	-2.2819068127e-001
 1.3796346615e-001	 1.9200497603e+000	-1.7529422235e-001
 1.2053094219e-001	 1.9212228637e+000	-1.3353097754e-001
 1.0314813718e-001	 1.9222344971e+000	-1.0414416956e-001
 8.5816969978e-002	 1.9230861779e+000	-8.8340081495e-002
 6.8539318696e-002	 1.9237794473e+000	-8.7286968547e-002
 5.1317020516e-002	 1.9243158689e+000	-1.0211406874e-001
 3.4151871566e-002	 1.9246970280e+000	-1.3391071146e-001
 1.7045626815e-002	 1.9249245301e+000	-1.8372552248e-001
 0.0000000000e+000	 1.9250000000e+000	-2.5256572399e-001
 1.7521615389e-001	 1.9421120718e+000	-9.4902469079e-002
 1.5746249964e-001	 1.9436320540e+000	-2.2487093800e-002
 1.3975519948e-001	 1.9449854715e+000	 4.0201951609e-002
 1.2209627910e-001	 1.9461738100e+000	 9.1776357832e-002
 1.0448772337e-001	 1.9471985815e+000	 1.3088566509e-001
 8.6931476081e-002	 1.9480613231e+000	 1.5621853757e-001
 6.9429439717e-002	 1.9487635960e+000	 1.6650393220e-001
 5.1983475327e-002	 1.9493069841e+000	 1.6051216274e-001
 3.4595402365e-002	 1.9496930933e+000	 1.3705586044e-001
 1.7266998592e-002	 1.9499235500e+000	 9.4990832424e-002
 0.0000000000e+000	 1.9500000000e+000	 3.3216819680e-002
 1.7746251484e-001	 1.9670109445e+000	 8.0648823996e-002
 1.5948124964e-001	 1.9685504136e+000	 1.6253801480e-001
 1.4154693280e-001	 1.9699211826e+000	 2.3478886366e-001
 1.2366161601e-001	 1.9711247563e+000	 2.9590310802e-001
 1.0582730957e-001	 1.9721626658e+000	 3.4442247857e-001
 8.8045982184e-002	 1.9730364682e+000	 3.7893006032e-001
 7.0319560739e-002	 1.9737477446e+000	 3.9805154230e-001
 5.2649930139e-002	 1.9742980993e+000	 4.0045635670e-001
 3.5038933164e-002	 1.9746891586e+000	 3.8485870871e-001
 1.7488370368e-002	 1.9749225698e+000	 3.5001849852e-001
 0.0000000000e+000	 1.9750000000e+000	 2.9474213717e-001
 1.7970887579e-001	 1.9919098172e+000	 2.3582862826e-001
 1.6149999964e-001	 1.9934687733e+000	 3.2715249404e-001
 1.4333866613e-001	 1.9948568938e+000	 4.0888642884e-001
 1.2522695292e-001	 1.9960757025e+000	 4.7942152191e-001
 1.0716689577e-001	 1.9971267502e+000	 5.3719104635e-001
 8.9160488287e-002	 1.9980116134e+000	 5.8067190737e-001
 7.1209681760e-002	 1.9987318933e+000	 6.0838597316e-001
 5.3316384950e-002	 1.9992892145e+000	 6.1890128932e-001
 3.5482463963e-002	 1.9996852239e+000	 6.1083317815e-001
 1.7709742145e-002	 1.9999215897e+000	 5.8284522432e-001
 0.0000000000e+000	 2.0000000000e+000	 5.3365014848e-001
 2.0000000000e+000	 0.0000000000e+000	 2.7041969505e+000
 1.9999215897e+000	 1.7709742145e-002	 2.7008315308e+000
 1.9996852239e+000	 3.5482463963e-002	 2.6950488907e+000
 1.9992892145e+000	 5.3316384950e-002	 2.6868063703e+000
 1.9987318933e+000	 7.1209681760e-002	 2.6760448602e+000
 1.9980116134e+000	 8.9160488287e-002	 2.6626883286e+000
 1.9971267502e+000	 1.0716689577e-001	 2.6466433706e+000
 1.9960757025e+000	 1.2522695292e-001	 2.6277987822e+000
 1.9948568938e+000	 1.4333866613e-001	 2.6060251599e+000
 1.9934687733e+000	 1.6149999964e-001	 2.5811745291e+000
 1.9919098172e+000	 1.7970887579e-001	 2.5530800030e+000
 2.0250000000e+000	 0.0000000000e+000	 2.6659754978e+000
 2.0249206096e+000	 1.7931113921e-002	 2.6644681129e+000
 2.0246812892e+000	 3.5925994762e-002	 2.6602308983e+000
 2.0242803297e+000	 5.3982839761e-002	 2.6532141329e+000
 2.0237160419e+000	 7.2099802782e-002	 2.6433512637e+000
 2.0229867586e+000	 9.0274994390e-002	 2.6305584281e+000
 2.0220908346e+000	 1.0850648196e-001	 2.6147339979e+000
 2.0210266488e+000	 1.2679228983e-001	 2.5957581504e+000
 2.0197926050e+000	 1.4513039946e-001	 2.5734924654e+000
 2.0183871330e+000	 1.6351874963e-001	 2.5477795523e+000
 2.0168086899e+000	 1.8195523674e-001	 2.5184427083e+000
 2.0500000000e+000	 0.0000000000e+000	 2.6281020990e+000
 2.0499196295e+000	 1.8152485698e-002	 2.6281724741e+000
 2.0496773545e+000	 3.6369525562e-002	 2.6252561566e+000
 2.0492714448e+000	 5.4649294573e-002	 2.6192969704e+000
 2.0487001906e+000	 7.2989923804e-002	 2.6102214850e+000
 2.0479619037e+000	 9.1389500493e-002	 2.5979385308e+000
 2.0470549190e+000	 1.0984606816e-001	 2.5823387377e+000
 2.0459775951e+000	 1.2835762674e-001	 2.5632941006e+000
 2.0447283162e+000	 1.4692213278e-001	 2.5406575732e+000
 2.0433054926e+000	 1.6553749963e-001	 2.5142626919e+000
 2.0417075627e+000	 1.8420159768e-001	 2.4839232324e+000
 2.0750000000e+000	 0.0000000000e+000	 2.5905165251e+000
 2.0749186493e+000	 1.8373857475e-002	 2.5918935536e+000
 2.0746734198e+000	 3.6813056361e-002	 2.5900823271e+000
 2.0742625600e+000	 5.5315749384e-002	 2.5850208112e+000
 2.0736843393e+000	 7.3880044825e-002	 2.5766292545e+000
 2.0729370489e+000	 9.2504006597e-002	 2.5648096950e+000
 2.0720190034e+000	 1.1118565436e-001	 2.5494454920e+000
 2.0709285414e+000	 1.2992296366e-001	 2.5304008849e+000
 2.0696640273e+000	 1.4871386611e-001	 2.5075205817e+000
 2.0682238523e+000	 1.6755624962e-001	 2.4806293789e+000
 2.0666064354e+000	 1.8644795863e-001	 2.4495318148e+000
 2.1000000000e+000	 0.0000000000e+000	 2.5531614151e+000
 2.0999176692e+000	 1.8595229251e-002	 2.5555828749e+000
 2.0996694851e+000	 3.7256587160e-002	 2.5546694167e+000
 2.0992536752e+000	 5.5982204196e-002	 2.5503537362e+000
 2.0986684879e+000	 7.4770165847e-002	 2.5425503086e+000
 2.0979121941e+000	 9.3618512700e-002	 2.5311548856e+000
 2.0969830877e+000	 1.1252524055e-001	 2.5160440179e+000
 2.0958794877e+000	 1.3148830057e-001	 2.4970746070e+000
 2.0945997385e+000	 1.5050559944e-001	 2.4740834860e+000
 2.0931422120e+000	 1.6957499962e-001	 2.4468870350e+000
 2.0915053081e+000	 1.8869431958e-001	 2.4152808297e+000
 2.1250000000e+000	 0.0000000000e+000	 2.5159821075e+000
 2.1249166891e+000	 1.8816601028e-002	 2.5191943930e+000
 2.1246655504e+000	 3.7700117959e-002	 2.5189796390e+000
 2.1242447904e+000	 5.6648659007e-002	 2.5152658515e+000
 2.1236526366e+000	 7.5660286868e-002	 2.5079622716e+000
 2.1228873393e+000	 9.4733018803e-002	 2.4969588620e+000
 2.1219471721e+000	 1.1386482675e-001	 2.4821258185e+000
 2.1208304339e+000	 1.3305363748e-001	 2.4633131130e+000
 2.1195354497e+000	 1.5229733276e-001	 2.4403500664e+000
 2.1180605716e+000	 1.7159374962e-001	 2.4130449563e+000
 2.1164041808e+000	 1.9094068053e-001	 2.3811846607e+000
 2.1500000000e+000	 0.0000000000e+000	 2.4789264829e+000
 2.1499157090e+000	 1.9037972804e-002	 2.4826843537e+000
 2.1496616157e+000	 3.8143648758e-002	 2.4829772869e+000
 2.1492359056e+000	 5.7315113819e-002	 2.4797291713e+000
 2.1486367853e+000	 7.6550407890e-002	 2.4728445460e+000
 2.1478624844e+000	 9.5847524906e-002	 2.4622080737e+000
 2.1469112565e+000	 1.1520441295e-001	 2.4476840412e+000
 2.1457813802e+000	 1.3461897439e-001	 2.4291158907e+000
 2.1444711609e+000	 1.5408906609e-001	 2.4063257845e+000
 2.1429789313e+000	 1.7361249961e-001	 2.3791142035e+000
 2.1413030535e+000	 1.9318704148e-001	 2.3472595842e+000
 2.1750000000e+000	 0.0000000000e+000	 2.4419448184e+000
 2.1749147288e+000	 1.9259344581e-002	 2.4460111613e+000
 2.1746576810e+000	 3.8587179558e-002	 2.4466286121e+000
 2.1742270207e+000	 5.7981568630e-002	 2.4437175079e+000
 2.1736209339e+000	 7.7440528911e-002	 2.4371782102e+000
 2.1728376296e+000	 9.6962031009e-002	 2.4268905636e+000
 2.1718753409e+000	 1.1654399914e-001	 2.4127133833e+000
 2.1707323265e+000	 1.3618431130e-001	 2.3944839748e+000
 2.1694068720e+000	 1.5588079942e-001	 2.3720176869e+000
 2.1678972910e+000	 1.7563124961e-001	 2.3451075011e+000
 2.1662019262e+000	 1.9543340243e-001	 2.3135236601e+000
 2.2000000000e+000	 0.0000000000e+000	 2.4049896512e+000
 2.1999137487e+000	 1.9480716358e-002	 2.4091352566e+000
 2.1996537463e+000	 3.9030710357e-002	 2.4099017147e+000
 2.1992181359e+000	 5.8648023441e-002	 2.4072063698e+000
 2.1986050826e+000	 7.8330649933e-002	 2.4009459233e+000
 2.1978127748e+000	 9.8076537113e-002	 2.3909958766e+000
 2.1968394252e+000	 1.1788358534e-001	 2.3772100041e+000
 2.1956832728e+000	 1.3774964821e-001	 2.3594198591e+000
 2.1943425832e+000	 1.5767253274e-001	 2.3374343148e+000
 2.1928156506e+000	 1.7764999960e-001	 2.3110391426e+000
 2.1911007990e+000	 1.9767976337e-001	 2.2799966309e+000
 2.2250000000e+000	 0.0000000000e+000	 2.3680156516e+000
 2.2249127686e+000	 1.9702088134e-002	 2.3720190020e+000
 2.2246498116e+000	 3.9474241156e-002	 2.3727664387e+000
 2.2242092511e+000	 5.9314478253e-002	 2.3701728660e+000
 2.2235892313e+000	 7.9220770954e-002	 2.3641318364e+000
 2.2227879199e+000	 9.9191043216e-002	 2.3545149761e+000
 2.2218035096e+000	 1.1922317154e-001	 2.3411714426e+000
 2.2206342191e+000	 1.3931498512e-001	 2.3239274146e+000
 2.2192782944e+000	 1.5946426607e-001	 2.3025856202e+000
 2.2177340103e+000	 1.7966874960e-001	 2.2769249024e+000
 2.2159996717e+000	 1.9992612432e-001	 2.2466998270e+000
 2.2500000000e+000	 0.0000000000e+000	 2.3309795046e+000
 2.2499117884e+000	 1.9923459911e-002	 2.3346265751e+000
 2.2496458769e+000	 3.9917771955e-002	 2.3351942756e+000
 2.2492003663e+000	 5.9980933064e-002	 2.3325956175e+000
 2.2485733799e+000	 8.0110891976e-002	 2.3267215095e+000
 2.2477630651e+000	 1.0030554932e-001	 2.3174401648e+000
 2.2467675940e+000	 1.2056275773e-001	 2.3045965408e+000
 2.2455851654e+000	 1.4088032204e-001	 2.2880118130e+000
 2.2442140055e+000	 1.6125599940e-001	 2.2674828875e+000
 2.2426523700e+000	 1.8168749959e-001	 2.2427819535e+000
 2.2408985444e+000	 2.0217248527e-001	 2.2136560784e+000
 1.9919098172e+000	 1.7970887579e-001	 2.5530800030e+000
 1.9901785300e+000	 1.9796317532e-001	 2.5383300417e+000
 1.9882734453e+000	 2.1626073764e-001	 2.5200847606e+000
 1.9861931275e+000	 2.3459936123e-001	 2.4981200175e+000
 1.9839361725e+000	 2.5297680396e-001	 2.4721919621e+000
 1.9815012093e+000	 2.7139078356e-001	 2.4420368814e+000
 1.9788869010e+000	 2.8983897805e-001	 2.4073710861e+000
 1.9760919458e+000	 3.0831902626e-001	 2.3678908408e+000
 1.9731150785e+000	 3.2682852835e-001	 2.3232723383e+000
 1.9699550718e+000	 3.4536504635e-001	 2.2731717217e+000
 1.9666107368e+000	 3.6392610484e-001	 2.2172251538e+000
 2.0168086899e+000	 1.8195523674e-001	 2.5184427083e+000
 2.0150557616e+000	 2.0043771501e-001	 2.5022811463e+000
 2.0131268634e+000	 2.1896399687e-001	 2.4826671461e+000
 2.0110205416e+000	 2.3753185325e-001	 2.4593656752e+000
 2.0087353747e+000	 2.5613901401e-001	 2.4321212245e+000
 2.0062699745e+000	 2.7478316835e-001	 2.4006576509e+000
 2.0036229872e+000	 2.9346196528e-001	 2.3646780636e+000
 2.0007930951e+000	 3.1217301410e-001	 2.3238647552e+000
 1.9977790170e+000	 3.3091388495e-001	 2.2778791798e+000
 1.9945795102e+000	 3.4968210943e-001	 2.2263619795e+000
 1.9911933711e+000	 3.6847518115e-001	 2.1689330612e+000
 2.0417075627e+000	 1.8420159768e-001	 2.4839232324e+000
 2.0399329932e+000	 2.0291225470e-001	 2.4664621876e+000
 2.0379802815e+000	 2.2166725609e-001	 2.4456399590e+000
 2.0358479557e+000	 2.4046434526e-001	 2.4212107315e+000
 2.0335345769e+000	 2.5930122406e-001	 2.3929073968e+000
 2.0310387396e+000	 2.7817555315e-001	 2.3604413927e+000
 2.0283590735e+000	 2.9708495251e-001	 2.3235025885e+000
 2.0254942444e+000	 3.1602700193e-001	 2.2817592161e+000
 2.0224429555e+000	 3.3499924156e-001	 2.2348578511e+000
 2.0192039486e+000	 3.5399917252e-001	 2.1824234428e+000
 2.0157760053e+000	 3.7302425746e-001	 2.1240593978e+000
 2.0666064354e+000	 1.8644795863e-001	 2.4495318148e+000
 2.0648102249e+000	 2.0538679439e-001	 2.4308944459e+000
 2.0628336995e+000	 2.2437051531e-001	 2.4090353898e+000
 2.0606753698e+000	 2.4339683728e-001	 2.3836981467e+000
 2.0583337790e+000	 2.6246343411e-001	 2.3546040590e+000
 2.0558075047e+000	 2.8156793795e-001	 2.3214521466e+000
 2.0530951598e+000	 3.0070793974e-001	 2.2839189898e+000
 2.0501953937e+000	 3.1988098976e-001	 2.2416586608e+000
 2.0471068940e+000	 3.3908459817e-001	 2.1943027053e+000
 2.0438283870e+000	 3.5831623560e-001	 2.1414601770e+000
 2.0403586395e+000	 3.7757333378e-001	 2.0827177261e+000
 2.0915053081e+000	 1.8869431958e-001	 2.4152808297e+000
 2.0896874565e+000	 2.0786133409e-001	 2.3956012081e+000
 2.0876871176e+000	 2.2707377453e-001	 2.3728875380e+000
 2.0855027839e+000	 2.4632932930e-001	 2.3468727237e+000
 2.0831329812e+000	 2.6562564417e-001	 2.3172665988e+000
 2.0805762698e+000	 2.8496032274e-001	 2.2837557566e+000
 2.0778312460e+000	 3.0433092696e-001	 2.2460034297e+000
 2.0748965430e+000	 3.2373497759e-001	 2.2036494203e+000
 2.0717708325e+000	 3.4316995478e-001	 2.1563100830e+000
 2.0684528254e+000	 3.6263329868e-001	 2.1035783614e+000
 2.0649412737e+000	 3.8212241009e-001	 2.0450238821e+000
 2.1164041808e+000	 1.9094068053e-001	 2.3811846607e+000
 2.1145646881e+000	 2.1033587378e-001	 2.3606076500e+000
 2.1125405357e+000	 2.2977703375e-001	 2.3372323000e+000
 2.1103301980e+000	 2.4926182132e-001	 2.3107809996e+000
 2.1079321833e+000	 2.6878785422e-001	 2.2809521050e+000
 2.1053450349e+000	 2.8835270754e-001	 2.2474197646e+000
 2.1025673323e+000	 3.0795391419e-001	 2.2098337949e+000
 2.0995976924e+000	 3.2758896542e-001	 2.1678196081e+000
 2.0964347709e+000	 3.4725531138e-001	 2.1209781951e+000
 2.0930772638e+000	 3.6695036176e-001	 2.0688861646e+000
 2.0895239079e+000	 3.8667148640e-001	 2.0110958409e+000
 2.1413030535e+000	 1.9318704148e-001	 2.3472595842e+000
 2.1394419197e+000	 2.1281041347e-001	 2.3259407258e+000
 2.1373939537e+000	 2.3248029298e-001	 2.3021072644e+000
 2.1351576121e+000	 2.5219431333e-001	 2.2754711448e+000
 2.1327313855e+000	 2.7195006427e-001	 2.2457192686e+000
 2.1301138000e+000	 2.9174509234e-001	 2.2125133120e+000
 2.1273034185e+000	 3.1157690142e-001	 2.1754895970e+000
 2.1242988417e+000	 3.3144295325e-001	 2.1342590160e+000
 2.1210987094e+000	 3.5134066799e-001	 2.0884070139e+000
 2.1177017022e+000	 3.7126742484e-001	 2.0374936287e+000
 2.1141065421e+000	 3.9122056271e-001	 1.9810535928e+000
 2.1662019262e+000	 1.9543340243e-001	 2.3135236601e+000
 2.1643191514e+000	 2.1528495317e-001	 2.2916290666e+000
 2.1622473718e+000	 2.3518355220e-001	 2.2675516149e+000
 2.1599850262e+000	 2.5512680535e-001	 2.2409928692e+000
 2.1575305876e+000	 2.7511227432e-001	 2.2116282907e+000
 2.1548825652e+000	 2.9513747713e-001	 2.1791070473e+000
 2.1520395048e+000	 3.1519988865e-001	 2.1430518789e+000
 2.1489999910e+000	 3.3529694108e-001	 2.1030590185e+000
 2.1457626479e+000	 3.5542602459e-001	 2.0586981725e+000
 2.1423261406e+000	 3.7558448792e-001	 2.0095125620e+000
 2.1386891763e+000	 3.9576963903e-001	 1.9550190274e+000
 2.1911007990e+000	 1.9767976337e-001	 2.2799966309e+000
 2.1891963830e+000	 2.1775949286e-001	 2.2577028847e+000
 2.1871007899e+000	 2.3788681142e-001	 2.2336060395e+000
 2.1848124402e+000	 2.5805929737e-001	 2.2073973348e+000
 2.1823297898e+000	 2.7827448437e-001	 2.1787407969e+000
 2.1796513303e+000	 2.9852986193e-001	 2.1472730407e+000
 2.1767755911e+000	 3.1882287587e-001	 2.1126031276e+000
 2.1737011403e+000	 3.3915092891e-001	 2.0743124820e+000
 2.1704265864e+000	 3.5951138120e-001	 2.0319548696e+000
 2.1669505789e+000	 3.7990155100e-001	 1.9850564383e+000
 2.1632718105e+000	 4.0031871534e-001	 1.9331158254e+000
 2.2159996717e+000	 1.9992612432e-001	 2.2466998270e+000
 2.2140736146e+000	 2.2023403255e-001	 2.2241938850e+000
 2.2119542079e+000	 2.4059007064e-001	 2.2003126464e+000
 2.2096398543e+000	 2.6099178938e-001	 2.1747370738e+000
 2.2071289919e+000	 2.8143669442e-001	 2.1471197570e+000
 2.2044200954e+000	 3.0192224673e-001	 2.1170847044e+000
 2.2015116773e+000	 3.2244586310e-001	 2.0842271934e+000
 2.1984022896e+000	 3.4300491674e-001	 2.0481136817e+000
 2.1950905249e+000	 3.6359673781e-001	 2.0082817822e+000
 2.1915750173e+000	 3.8421861408e-001	 1.9642403035e+000
 2.1878544447e+000	 4.0486779165e-001	 1.9154693584e+000
 2.2408985444e+000	 2.0217248527e-001	 2.2136560784e+000
 2.2389508462e+000	 2.2270857224e-001	 2.1911351817e+000
 2.2368076260e+000	 2.4329332986e-001	 2.1677148844e+000
 2.2344672684e+000	 2.6392428140e-001	 2.1430659130e+000
 2.2319281941e+000	 2.8459890447e-001	 2.1168294106e+000
 2.2291888605e+000	 3.0531463152e-001	 2.0886167178e+000
 2.2262477636e+000	 3.2606885033e-001	 2.0580092139e+000
 2.2231034390e+000	 3.4685890457e-001	 2.0245582228e+000
 2.2197544633e+000	 3.6768209441e-001	 1.9877849833e+000
 2.2161994557e+000	 3.8853567716e-001	 1.9471806884e+000
 2.2124370789e+000	 4.0941686796e-001	 1.9022065948e+000
 1.9666107368e+000	 3.6392610484e-001	 2.2172251538e+000
 1.9630809251e+000	 3.8250919152e-001	 2.1813822926e+000
 1.9593645290e+000	 4.0111175798e-001	 2.1435182810e+000
 1.9554604835e+000	 4.1973122034e-001	 2.1032331590e+000
 1.9513677669e+000	 4.3836496008e-001	 2.0601038931e+000
 1.9470854021e+000	 4.5701032483e-001	 2.0136846101e+000
 1.9426124576e+000	 4.7566462918e-001	 1.9635068905e+000
 1.9379480490e+000	 4.9432515561e-001	 1.9090801206e+000
 1.9330913394e+000	 5.1298915537e-001	 1.8498919058e+000
 1.9280415411e+000	 5.3165384949e-001	 1.7854085447e+000
 1.9227979164e+000	 5.5031642970e-001	 1.7150755651e+000
 1.9911933711e+000	 3.6847518115e-001	 2.1689330612e+000
 1.9876194366e+000	 3.8729055642e-001	 2.1310048632e+000
 1.9838565856e+000	 4.0612565496e-001	 2.0907117431e+000
 1.9799037396e+000	 4.2497786060e-001	 2.0476327934e+000
 1.9757598640e+000	 4.4384452209e-001	 2.0013234662e+000
 1.9714239696e+000	 4.6272295389e-001	 1.9513158300e+000
 1.9668951134e+000	 4.8161043705e-001	 1.8971188860e+000
 1.9621723996e+000	 5.0050422005e-001	 1.8382189473e+000
 1.9572549812e+000	 5.1940151982e-001	 1.7740800795e+000
 1.9521420604e+000	 5.3829952261e-001	 1.7041446055e+000
 1.9468328903e+000	 5.5719538508e-001	 1.6278336739e+000
 2.0157760053e+000	 3.7302425746e-001	 2.1240593978e+000
 2.0121579482e+000	 3.9207192132e-001	 2.0846196290e+000
 2.0083486423e+000	 4.1113955194e-001	 2.0425241963e+000
 2.0043469956e+000	 4.3022450086e-001	 1.9973308960e+000
 2.0001519611e+000	 4.4932408409e-001	 1.9485732607e+000
 1.9957625371e+000	 4.6843558295e-001	 1.8957608374e+000
 1.9911777691e+000	 4.8755624491e-001	 1.8383795277e+000
 1.9863967502e+000	 5.0668328450e-001	 1.7758919923e+000
 1.9814186229e+000	 5.2581388426e-001	 1.7077381205e+000
 1.9762425797e+000	 5.4494519573e-001	 1.6333355645e+000
 1.9708678643e+000	 5.6407434045e-001	 1.5520803405e+000
 2.0403586395e+000	 3.7757333378e-001	 2.0827177261e+000
 2.0366964598e+000	 3.9685328622e-001	 2.0423501818e+000
 2.0328406989e+000	 4.1615344891e-001	 1.9990888112e+000
 2.0287902517e+000	 4.3547114111e-001	 1.9524697516e+000
 2.0245440582e+000	 4.5480364609e-001	 1.9020041958e+000
 2.0201011047e+000	 4.7414821202e-001	 1.8471786913e+000
 2.0154604248e+000	 4.9350205278e-001	 1.7874555041e+000
 2.0106211008e+000	 5.1286234895e-001	 1.7222730488e+000
 2.0055822646e+000	 5.3222624870e-001	 1.6510463859e+000
 2.0003430989e+000	 5.5159086884e-001	 1.5731677864e+000
 1.9949028382e+000	 5.7095329582e-001	 1.4880073657e+000
 2.0649412737e+000	 3.8212241009e-001	 2.0450238821e+000
 2.0612349713e+000	 4.0163465111e-001	 2.0043225434e+000
 2.0573327555e+000	 4.2116734589e-001	 1.9605413888e+000
 2.0532335077e+000	 4.4071778137e-001	 1.9131945192e+000
 2.0489361553e+000	 4.6028320810e-001	 1.8617703529e+000
 2.0444396722e+000	 4.7986084108e-001	 1.8057319453e+000
 2.0397430805e+000	 4.9944786064e-001	 1.7445173760e+000
 2.0348454514e+000	 5.1904141339e-001	 1.6775402042e+000
 2.0297459064e+000	 5.3863861314e-001	 1.6041899939e+000
 2.0244436182e+000	 5.5823654196e-001	 1.5238329094e+000
 2.0189378122e+000	 5.7783225119e-001	 1.4358123806e+000
 2.0895239079e+000	 3.8667148640e-001	 2.0110958409e+000
 2.0857734829e+000	 4.0641601601e-001	 1.9706650222e+000
 2.0818248121e+000	 4.2618124287e-001	 1.9270202050e+000
 2.0776767638e+000	 4.4596442162e-001	 1.8796530627e+000
 2.0733282524e+000	 4.6576277010e-001	 1.8280287899e+000
 2.0687782397e+000	 4.8557347014e-001	 1.7715864426e+000
 2.0640257362e+000	 5.0539366851e-001	 1.7097393484e+000
 2.0590698020e+000	 5.2522047784e-001	 1.6418755871e+000
 2.0539095481e+000	 5.4505097759e-001	 1.5673585438e+000
 2.0485441375e+000	 5.6488221508e-001	 1.4855275344e+000
 2.0429727862e+000	 5.8471120656e-001	 1.3956985042e+000
 2.1141065421e+000	 3.9122056271e-001	 1.9810535928e+000
 2.1103119945e+000	 4.1119738090e-001	 1.9415080805e+000
 2.1063168687e+000	 4.3119513984e-001	 1.8986658674e+000
 2.1021200198e+000	 4.5121106188e-001	 1.8519957939e+000
 2.0977203495e+000	 4.7124233210e-001	 1.8009393678e+000
 2.0931168073e+000	 4.9128609920e-001	 1.7449111243e+000
 2.0883083920e+000	 5.1133947637e-001	 1.6832990587e+000
 2.0832941527e+000	 5.3139954228e-001	 1.6154651329e+000
 2.0780731899e+000	 5.5146334203e-001	 1.5407458553e+000
 2.0726446567e+000	 5.7152788820e-001	 1.4584529371e+000
 2.0670077601e+000	 5.9159016193e-001	 1.3678740238e+000
 2.1386891763e+000	 3.9576963903e-001	 1.9550190274e+000
 2.1348505060e+000	 4.1597874580e-001	 1.9169842110e+000
 2.1308089253e+000	 4.3620903682e-001	 1.8756211808e+000
 2.1265632759e+000	 4.5645770213e-001	 1.8303755258e+000
 2.1221124465e+000	 4.7672189410e-001	 1.7806645897e+000
 2.1174553748e+000	 4.9699872826e-001	 1.7258778514e+000
 2.1125910477e+000	 5.1728528424e-001	 1.6653773798e+000
 2.1075185033e+000	 5.3757860672e-001	 1.5984983648e+000
 2.1022368316e+000	 5.5787570647e-001	 1.5245497261e+000
 2.0967451760e+000	 5.7817356131e-001	 1.4428147988e+000
 2.0910427341e+000	 5.9846911730e-001	 1.3525520986e+000
 2.1632718105e+000	 4.0031871534e-001	 1.9331158254e+000
 2.1593890176e+000	 4.2076011069e-001	 1.8972278210e+000
 2.1553009819e+000	 4.4122293379e-001	 1.8580310228e+000
 2.1510065319e+000	 4.6170434238e-001	 1.8149473363e+000
 2.1465045436e+000	 4.8220145610e-001	 1.7673694509e+000
 2.1417939423e+000	 5.0271135732e-001	 1.7146612394e+000
 2.1368737034e+000	 5.2323109210e-001	 1.6561582354e+000
 2.1317428539e+000	 5.4375767117e-001	 1.5911681897e+000
 2.1264004734e+000	 5.6428807091e-001	 1.5189717057e+000
 2.1208456953e+000	 5.8481923443e-001	 1.4388229564e+000
 2.1150777080e+000	 6.0534807266e-001	 1.3499504823e+000
 2.1878544447e+000	 4.0486779165e-001	 1.9154693584e+000
 2.1839275292e+000	 4.2554147558e-001	 1.8823751250e+000
 2.1797930386e+000	 4.4623683076e-001	 1.8460422270e+000
 2.1754497879e+000	 4.6695098264e-001	 1.8058684412e+000
 2.1708966407e+000	 4.8768101810e-001	 1.7612212986e+000
 2.1661325098e+000	 5.0842398637e-001	 1.7114385027e+000
 2.1611563591e+000	 5.2917689996e-001	 1.6558284297e+000
 2.1559672045e+000	 5.4993673561e-001	 1.5936707085e+000
 2.1505641151e+000	 5.7070043534e-001	 1.5242168850e+000
 2.1449462145e+000	 5.9146490754e-001	 1.4466911689e+000
 2.1391126820e+000	 6.1222702803e-001	 1.3602912653e+000
 2.2124370789e+000	 4.0941686796e-001	 1.9022065948e+000
 2.2084660407e+000	 4.3032284048e-001	 1.8725640443e+000
 2.2042850952e+000	 4.5125072774e-001	 1.8398034743e+000
 2.1998930440e+000	 4.7219762289e-001	 1.8032980750e+000
 2.1952887378e+000	 4.9316058010e-001	 1.7623897013e+000
 2.1904710774e+000	 5.1413661543e-001	 1.7163893112e+000
 2.1854390149e+000	 5.3512270782e-001	 1.6645774864e+000
 2.1801915551e+000	 5.5611580005e-001	 1.6062050384e+000
 2.1747277568e+000	 5.7711279978e-001	 1.5404936991e+000
 2.1690467338e+000	 5.9811058066e-001	 1.4666368994e+000
 2.1631476559e+000	 6.1910598340e-001	 1.3838006337e+000
 1.9227979164e+000	 5.5031642970e-001	 1.7150755651e+000
 1.9173597783e+000	 5.6897405956e-001	 1.6701640460e+000
 1.9117264922e+000	 5.8762387544e-001	 1.6133033428e+000
 1.9058974762e+000	 6.0626298769e-001	 1.5438035350e+000
 1.8998722024e+000	 6.2488848178e-001	 1.4609611186e+000
 1.8936501977e+000	 6.4349741945e-001	 1.4236787715e+000
 1.8872310448e+000	 6.6208683995e-001	 1.3660743750e+000
 1.8806143829e+000	 6.8065376130e-001	 1.2877919226e+000
 1.8737999088e+000	 6.9919518155e-001	 1.1903542241e+000
 1.8667873772e+000	 7.1770808012e-001	 1.0825510553e+000
 1.8595766021e+000	 7.3618941913e-001	 9.5982258308e-001
 1.9468328903e+000	 5.5719538508e-001	 1.6278336739e+000
 1.9413267756e+000	 5.7608623530e-001	 1.5761850108e+000
 1.9356230734e+000	 5.9496917388e-001	 1.5152371437e+000
 1.9297211947e+000	 6.1384127504e-001	 1.4442960873e+000
 1.9236206049e+000	 6.3269958780e-001	 1.3866084011e+000
 1.9173208252e+000	 6.5154113719e-001	 1.3470872002e+000
 1.9108214328e+000	 6.7036292545e-001	 1.2887543859e+000
 1.9041220627e+000	 6.8916193331e-001	 1.2116576567e+000
 1.8972224076e+000	 7.0793512132e-001	 1.1158737824e+000
 1.8901222194e+000	 7.2667943112e-001	 1.0015087727e+000
 1.8828213097e+000	 7.4539178687e-001	 8.6869799808e-001
 1.9708678643e+000	 5.6407434045e-001	 1.5520803405e+000
 1.9652937728e+000	 5.8319841105e-001	 1.4947898212e+000
 1.9595196545e+000	 6.0231447232e-001	 1.4308183640e+000
 1.9535449131e+000	 6.2141956238e-001	 1.3594664423e+000
 1.9473690074e+000	 6.4051069382e-001	 1.3235915281e+000
 1.9409914526e+000	 6.5958485493e-001	 1.2815493292e+000
 1.9344118209e+000	 6.7863901094e-001	 1.2225177831e+000
 1.9276297425e+000	 6.9767010533e-001	 1.1465697416e+000
 1.9206449065e+000	 7.1667506109e-001	 1.0538061441e+000
 1.9134570617e+000	 7.3565078212e-001	 9.4435613923e-001
 1.9060660172e+000	 7.5459415461e-001	 8.1837715949e-001
 1.9949028382e+000	 5.7095329582e-001	 1.4880073657e+000
 1.9892607700e+000	 5.9031058679e-001	 1.4261746268e+000
 1.9834162357e+000	 6.0965977076e-001	 1.3602497418e+000
 1.9773686316e+000	 6.2899784972e-001	 1.3004606891e+000
 1.9711174100e+000	 6.4832179984e-001	 1.2712847956e+000
 1.9646620801e+000	 6.6762857267e-001	 1.2268061277e+000
 1.9580022090e+000	 6.8691509644e-001	 1.1670955589e+000
 1.9511374223e+000	 7.0617827734e-001	 1.0922509931e+000
 1.9440674054e+000	 7.2541500086e-001	 1.0023974861e+000
 1.9367919039e+000	 7.4462213312e-001	 8.9768732105e-001
 1.9293107247e+000	 7.6379652235e-001	 7.7830003591e-001
 2.0189378122e+000	 5.7783225119e-001	 1.4358123806e+000
 2.0132277673e+000	 5.9742276253e-001	 1.3705420343e+000
 2.0073128168e+000	 6.1700506920e-001	 1.3037410093e+000
 2.0011923500e+000	 6.3657613707e-001	 1.2626565515e+000
 1.9948658125e+000	 6.5613290586e-001	 1.2294487235e+000
 1.9883327076e+000	 6.7567229041e-001	 1.1826066202e+000
 1.9815925970e+000	 6.9519118194e-001	 1.1222269288e+000
 1.9746451021e+000	 7.1468644936e-001	 1.0484325244e+000
 1.9674899042e+000	 7.3415494062e-001	 9.6137254581e-001
 1.9601267461e+000	 7.5359348412e-001	 8.6122242418e-001
 1.9525554322e+000	 7.7299889008e-001	 7.4818386471e-001
 2.0429727862e+000	 5.8471120656e-001	 1.3956985042e+000
 2.0371947645e+000	 6.0453493827e-001	 1.3281007277e+000
 2.0312093980e+000	 6.2435036764e-001	 1.2615084806e+000
 2.0250160685e+000	 6.4415442441e-001	 1.2349677178e+000
 2.0186142150e+000	 6.6394401188e-001	 1.1978511669e+000
 2.0120033350e+000	 6.8371600815e-001	 1.1487074125e+000
 2.0051829851e+000	 7.0346726743e-001	 1.0876588481e+000
 1.9981527819e+000	 7.2319462137e-001	 1.0148532588e+000
 1.9909124031e+000	 7.4289488039e-001	 9.3046385122e-001
 1.9834615883e+000	 7.6256483512e-001	 8.3468923658e-001
 1.9758001398e+000	 7.8220125782e-001	 7.2775336635e-001
 2.0670077601e+000	 5.9159016193e-001	 1.3678740238e+000
 2.0611617617e+000	 6.1164711402e-001	 1.2990651151e+000
 2.0551059791e+000	 6.3169566608e-001	 1.2474925771e+000
 2.0488397869e+000	 6.5173271175e-001	 1.2171814658e+000
 2.0423626176e+000	 6.7175511790e-001	 1.1762668896e+000
 2.0356739625e+000	 6.9175972589e-001	 1.1248722510e+000
 2.0287733731e+000	 7.1174335293e-001	 1.0631455620e+000
 2.0216604616e+000	 7.3170279338e-001	 9.9125947511e-001
 2.0143349019e+000	 7.5163482016e-001	 9.0941126804e-001
 2.0067964305e+000	 7.7153618612e-001	 8.1782278153e-001
 1.9990448473e+000	 7.9140362556e-001	 7.1674030923e-001
 2.0910427341e+000	 5.9846911730e-001	 1.3525520986e+000
 2.0851287589e+000	 6.1875928976e-001	 1.2836549994e+000
 2.0790025603e+000	 6.3904096452e-001	 1.2445643654e+000
 2.0726635054e+000	 6.5931099910e-001	 1.2090912892e+000
 2.0661110201e+000	 6.7956622392e-001	 1.1644771669e+000
 2.0593445900e+000	 6.9980344363e-001	 1.1108716122e+000
 2.0523637612e+000	 7.2001943843e-001	 1.0484481865e+000
 2.0451681414e+000	 7.4021096540e-001	 9.7740438511e-001
 2.0377574008e+000	 7.6037475992e-001	 8.9796157799e-001
 2.0301312727e+000	 7.8050753712e-001	 8.1036490181e-001
 2.0222895548e+000	 8.0060599330e-001	 7.1488310473e-001
 2.1150777080e+000	 6.0534807266e-001	 1.3499504823e+000
 2.1090957562e+000	 6.2587146550e-001	 1.2835913203e+000
 2.1028991414e+000	 6.4638626296e-001	 1.2509879755e+000
 2.0964872238e+000	 6.6688928644e-001	 1.2104965441e+000
 2.0898594226e+000	 6.8737732993e-001	 1.1622694159e+000
 2.0830152175e+000	 7.0784716137e-001	 1.1064823206e+000
 2.0759541493e+000	 7.2829552392e-001	 1.0433343179e+000
 2.0686758212e+000	 7.4871913741e-001	 9.7304773968e-001
 2.0611798997e+000	 7.6911469969e-001	 8.9586808587e-001
 2.0534661149e+000	 7.8947888812e-001	 8.1206387221e-001
 2.0455342623e+000	 8.0980836103e-001	 7.2192642970e-001
 2.1391126820e+000	 6.1222702803e-001	 1.3602912653e+000
 2.1330627534e+000	 6.3298364124e-001	 1.3053952261e+000
 2.1267957226e+000	 6.5373156140e-001	 1.2665812323e+000
 2.1203109423e+000	 6.7446757378e-001	 1.2212021203e+000
 2.1136078252e+000	 6.9518843595e-001	 1.1694368503e+000
 2.1066858449e+000	 7.1589087911e-001	 1.1114871918e+000
 2.0995445373e+000	 7.3657160942e-001	 1.0475776691e+000
 2.0921835010e+000	 7.5722730942e-001	 9.7795546130e-001
 2.0846023985e+000	 7.7785463946e-001	 9.0289025302e-001
 2.0768009572e+000	 7.9845023912e-001	 8.2267403821e-001
 2.0687789699e+000	 8.1901072877e-001	 7.3762087452e-001
 2.1631476559e+000	 6.1910598340e-001	 1.3838006337e+000
 2.1570297506e+000	 6.4009581698e-001	 1.3360189515e+000
 2.1506923038e+000	 6.6107685984e-001	 1.2911668738e+000
 2.1441346607e+000	 6.8204586113e-001	 1.2410181330e+000
 2.1373562277e+000	 7.0299954197e-001	 1.1857781584e+000
 2.1303564724e+000	 7.2393459685e-001	 1.1256746995e+000
 2.1231349254e+000	 7.4484769492e-001	 1.0609577295e+000
 2.1156911808e+000	 7.6573548144e-001	 9.9189930131e-001
 2.1080248974e+000	 7.8659457923e-001	 9.1879335539e-001
 2.1001357994e+000	 8.0742159012e-001	 8.4195547869e-001
 2.0920236774e+000	 8.2821309651e-001	 7.6172261453e-001
 1.8595766021e+000	 7.3618941913e-001	 9.5982258308e-001
 1.8521674571e+000	 7.5463614479e-001	 8.7360137372e-001
 1.8445598760e+000	 7.7304518882e-001	 7.8824227400e-001
 1.8367538539e+000	 7.9141346985e-001	 7.0404616115e-001
 1.8287494474e+000	 8.0973789495e-001	 6.2132225197e-001
 1.8205467755e+000	 8.2801536107e-001	 5.4038778940e-001
 1.8121460198e+000	 8.4624275656e-001	 4.6156770812e-001
 1.8035474251e+000	 8.6441696276e-001	 3.8519427972e-001
 1.7947513000e+000	 8.8253485550e-001	 3.1160673763e-001
 1.7857580172e+000	 9.0059330673e-001	 2.4115088251e-001
 1.7765680137e+000	 9.1858918611e-001	 1.7417866828e-001
 1.8828213097e+000	 7.4539178687e-001	 8.6869799808e-001
 1.8753195503e+000	 7.6406909660e-001	 7.6687963831e-001
 1.8676168744e+000	 7.8270825368e-001	 6.8223102051e-001
 1.8597132771e+000	 8.0130613823e-001	 5.9995344507e-001
 1.8516088155e+000	 8.1985961864e-001	 5.1952949080e-001
 1.8433036102e+000	 8.3836555308e-001	 4.4128439160e-001
 1.8347978450e+000	 8.5682079102e-001	 3.6555099153e-001
 1.8260917679e+000	 8.7522217479e-001	 2.9266937587e-001
 1.8171856912e+000	 8.9356654119e-001	 2.2298648168e-001
 1.8080799924e+000	 9.1185072306e-001	 1.5685568850e-001
 1.7987751138e+000	 9.3007155093e-001	 9.4636389580e-002
 1.9060660172e+000	 7.5459415461e-001	 8.1837715949e-001
 1.8984716435e+000	 7.7350204841e-001	 7.2342847364e-001
 1.8906738729e+000	 7.9237131854e-001	 6.2378363829e-001
 1.8826727002e+000	 8.1119880660e-001	 5.1971200574e-001
 1.8744681836e+000	 8.2998134233e-001	 4.1359940083e-001
 1.8660604449e+000	 8.4871574509e-001	 3.3770316844e-001
 1.8574496703e+000	 8.6739882548e-001	 2.6470660774e-001
 1.8486361107e+000	 8.8602738683e-001	 1.9495793590e-001
 1.8396200825e+000	 9.0459822689e-001	 1.2881212364e-001
 1.8304019676e+000	 9.2310813940e-001	 6.6630470863e-002
 1.8209822140e+000	 9.4155391576e-001	 8.7801627330e-003
 1.9293107247e+000	 7.6379652235e-001	 7.7830003591e-001
 1.9216237367e+000	 7.8293500022e-001	 6.8996114295e-001
 1.9137308713e+000	 8.0203438340e-001	 5.9693564525e-001
 1.9056321234e+000	 8.2109147497e-001	 4.9950280384e-001
 1.8973275517e+000	 8.4010306601e-001	 3.9796063797e-001
 1.8888172796e+000	 8.5906593711e-001	 2.9262558899e-001
 1.8801014955e+000	 8.7797685993e-001	 1.8383214270e-001
 1.8711804535e+000	 8.9683259886e-001	 9.1865877674e-002
 1.8620544737e+000	 9.1562991258e-001	 2.8892709816e-002
 1.8527239428e+000	 9.3436555573e-001	-2.9712366195e-002
 1.8431893142e+000	 9.5303628058e-001	-8.3574018417e-002
 1.9525554322e+000	 7.7299889008e-001	 7.4818386471e-001
 1.9447758299e+000	 7.9236795203e-001	 6.6619218539e-001
 1.9367878698e+000	 8.1169744825e-001	 5.7950538607e-001
 1.9285915466e+000	 8.3098414334e-001	 4.8841307103e-001
 1.9201869198e+000	 8.5022478970e-001	 3.9322399903e-001
 1.9115741143e+000	 8.6941612912e-001	 2.9426572955e-001
 1.9027533208e+000	 8.8855489439e-001	 1.9188422642e-001
 1.8937247963e+000	 9.0763781090e-001	 8.6443419014e-002
 1.8844888650e+000	 9.2666159827e-001	-2.1675278333e-002
 1.8750459180e+000	 9.4562297206e-001	-1.3207348842e-001
 1.8653964143e+000	 9.6451864541e-001	-1.8260509238e-001
 1.9758001398e+000	 7.8220125782e-001	 7.2775336635e-001
 1.9679279231e+000	 8.0180090384e-001	 6.5184340936e-001
 1.9598448682e+000	 8.2136051311e-001	 5.7121187932e-001
 1.9515509698e+000	 8.4087681172e-001	 4.8615916528e-001
 1.9430462879e+000	 8.6034651339e-001	 3.9700522992e-001
 1.9343309490e+000	 8.7976632113e-001	 3.0408923774e-001
 1.9254051460e+000	 8.9913292885e-001	 2.0776913934e-001
 1.9162691391e+000	 9.1844302293e-001	 1.0842121222e-001
 1.9069232562e+000	 9.3769328397e-001	 6.4395584098e-003
 1.8973678932e+000	 9.5688038840e-001	-9.7764440398e-002
 1.8876035145e+000	 9.7600101023e-001	-2.0376270951e-001
 1.9990448473e+000	 7.9140362556e-001	 7.1674030923e-001
 1.9910800163e+000	 8.1123385565e-001	 6.4664346990e-001
 1.9829018667e+000	 8.3102357797e-001	 5.7178077672e-001
 1.9745103929e+000	 8.5076948009e-001	 4.9246385206e-001
 1.9659056560e+000	 8.7046823707e-001	 4.0902433405e-001
 1.9570877837e+000	 8.9011651315e-001	 3.2181348626e-001
 1.9480569713e+000	 9.0971096330e-001	 2.3120176216e-001
 1.9388134820e+000	 9.2924823496e-001	 1.3757832484e-001
 1.9293576475e+000	 9.4872496966e-001	 4.1350522369e-002
 1.9196898685e+000	 9.6813780473e-001	-5.7056680514e-002
 1.9098106147e+000	 9.8748337506e-001	-1.5720131374e-001
 2.0222895548e+000	 8.0060599330e-001	 7.1488310473e-001
 2.0142321096e+000	 8.2066680746e-001	 6.5032747520e-001
 2.0059588651e+000	 8.4068664283e-001	 5.8094398190e-001
 1.9974698161e+000	 8.6066214846e-001	 5.0705593609e-001
 1.9887650241e+000	 8.8058996076e-001	 4.2900713004e-001
 1.9798446184e+000	 9.0046670516e-001	 3.4716142764e-001
 1.9707087965e+000	 9.2028899776e-001	 2.6190230860e-001
 1.9613578248e+000	 9.4005344700e-001	 1.7363236649e-001
 1.9517920388e+000	 9.5975665535e-001	 8.2772761187e-002
 1.9420118437e+000	 9.7939522106e-001	-1.0237373523e-002
 1.9320177149e+000	 9.9896573988e-001	-1.0494156665e-001
 2.0455342623e+000	 8.0980836103e-001	 7.2192642970e-001
 2.0373842028e+000	 8.3009975926e-001	 6.6263661995e-001
 2.0290158636e+000	 8.5034970769e-001	 5.9843929518e-001
 2.0204292393e+000	 8.7055481683e-001	 5.2966991820e-001
 2.0116243922e+000	 8.9071168444e-001	 4.5668492125e-001
 2.0026014531e+000	 9.1081689717e-001	 3.7986127711e-001
 1.9933606218e+000	 9.3086703222e-001	 2.9959602240e-001
 1.9839021676e+000	 9.5085865903e-001	 2.1630573346e-001
 1.9742264300e+000	 9.7078834105e-001	 1.3042595527e-001
 1.9643338189e+000	 9.9065263740e-001	 4.2410584172e-002
 1.9542248150e+000	 1.0104481047e+000	-4.7268794784e-002
 2.0687789699e+000	 8.1901072877e-001	 7.3762087452e-001
 2.0605362960e+000	 8.3953271107e-001	 6.8331784340e-001
 2.0520728620e+000	 8.6001277255e-001	 6.2401008231e-001
 2.0433886625e+000	 8.8044748521e-001	 5.6004567535e-001
 2.0344837603e+000	 9.0083340813e-001	 4.9179418773e-001
 2.0253582878e+000	 9.2116708919e-001	 4.1964621697e-001
 2.0160124470e+000	 9.4144506667e-001	 3.4401289471e-001
 2.0064465104e+000	 9.6166387107e-001	 2.6532533982e-001
 1.9966608213e+000	 9.8182002674e-001	 1.8403406313e-001
 1.9866557941e+000	 1.0019100537e+000	 1.0060832472e-001
 1.9764319152e+000	 1.0219304695e+000	 1.5535444445e-002
 2.0920236774e+000	 8.2821309651e-001	 7.6172261453e-001
 2.0836883892e+000	 8.4896566288e-001	 7.1212351021e-001
 2.0751298605e+000	 8.6967583741e-001	 6.5740496526e-001
 2.0663480856e+000	 8.9034015358e-001	 5.9792816189e-001
 2.0573431284e+000	 9.1095513182e-001	 5.3407629857e-001
 2.0481151225e+000	 9.3151728120e-001	 4.6625412067e-001
 2.0386642723e+000	 9.5202310113e-001	 3.9488740039e-001
 2.0289908532e+000	 9.7246908310e-001	 3.2042236638e-001
 2.0190952125e+000	 9.9285171243e-001	 2.4332508372e-001
 2.0089777693e+000	 1.0131674701e+000	 1.6408078501e-001
 1.9986390154e+000	 1.0334128344e+000	 8.3193153383e-002
 1.7765680137e+000	 9.1858918611e-001	 1.7417866828e-001
 1.7671817913e+000	 9.3651936262e-001	 1.1237050788e-001
 1.7575999168e+000	 9.5438070623e-001	 4.1019337901e-002
 1.7478230222e+000	 9.7217008953e-001	-3.9577030700e-002
 1.7378518049e+000	 9.8988438938e-001	-1.2910431702e-001
 1.7276870275e+000	 1.0075204886e+000	-2.2723209115e-001
 1.7173295184e+000	 1.0250752778e+000	-3.3361412416e-001
 1.7067801714e+000	 1.0425456567e+000	-4.4788876682e-001
 1.6960399458e+000	 1.0599285364e+000	-5.6967935641e-001
 1.6851098662e+000	 1.0772208403e+000	-6.9859465101e-001
 1.6739910224e+000	 1.0944195068e+000	-8.3422929058e-001
 1.7987751138e+000	 9.3007155093e-001	 9.4636389580e-002
 1.7892715637e+000	 9.4822585465e-001	 3.7951023160e-002
 1.7795699158e+000	 9.6631046506e-001	-2.6095944003e-002
 1.7696708100e+000	 9.8432221564e-001	-9.7195479417e-002
 1.7595749524e+000	 1.0022579442e+000	-1.7502380028e-001
 1.7492831153e+000	 1.0201144947e+000	-2.5924272738e-001
 1.7387961374e+000	 1.0378887188e+000	-3.4950006639e-001
 1.7281149236e+000	 1.0555774775e+000	-4.4543001593e-001
 1.7172404451e+000	 1.0731776431e+000	-5.4665360183e-001
 1.7061737395e+000	 1.0906861008e+000	-6.5277913690e-001
 1.6949159102e+000	 1.1080997506e+000	-7.6340270538e-001
 1.8209822140e+000	 9.4155391576e-001	 8.7801627330e-003
 1.8113613361e+000	 9.5993234668e-001	-4.3254518498e-002
 1.8015399147e+000	 9.7824022389e-001	-1.0051922419e-001
 1.7915185978e+000	 9.9647434176e-001	-1.6269345071e-001
 1.7812981000e+000	 1.0146314991e+000	-2.2944362826e-001
 1.7708792032e+000	 1.0327085009e+000	-3.0042350797e-001
 1.7602627564e+000	 1.0507021598e+000	-3.7527457460e-001
 1.7494496757e+000	 1.0686092982e+000	-4.5362648423e-001
 1.7384409444e+000	 1.0864267498e+000	-5.3509752635e-001
 1.7272376128e+000	 1.1041513613e+000	-6.1929510931e-001
 1.7158407980e+000	 1.1217799944e+000	-7.0581626858e-001
 1.8431893142e+000	 9.5303628058e-001	-8.3574018417e-002
 1.8334511084e+000	 9.7163883872e-001	-1.3142338840e-001
 1.8235099137e+000	 9.9016998271e-001	-1.8241926451e-001
 1.8133663856e+000	 1.0086264679e+000	-2.3622941551e-001
 1.8030212475e+000	 1.0270050540e+000	-2.9251019373e-001
 1.7924752910e+000	 1.0453025070e+000	-3.5090695548e-001
 1.7817293753e+000	 1.0635156007e+000	-4.1105450546e-001
 1.7707844278e+000	 1.0816411189e+000	-4.7257756430e-001
 1.7596414438e+000	 1.0996758565e+000	-5.3509125868e-001
 1.7483014862e+000	 1.1176166218e+000	-5.9820163298e-001
 1.7367656858e+000	 1.1354602383e+000	-6.6150618161e-001
 1.8653964143e+000	 9.6451864541e-001	-1.8260509238e-001
 1.8555408808e+000	 9.8334533075e-001	-2.2672829075e-001
 1.8454799126e+000	 1.0020997415e+000	-2.7196084657e-001
 1.8352141733e+000	 1.0207785940e+000	-3.1795853776e-001
 1.8247443951e+000	 1.0393786088e+000	-3.6436734216e-001
 1.8140713789e+000	 1.0578965131e+000	-4.1082389142e-001
 1.8031959943e+000	 1.0763290417e+000	-4.5695594725e-001
 1.7921191800e+000	 1.0946729396e+000	-5.0238289923e-001
 1.7808419431e+000	 1.1129249632e+000	-5.4671628320e-001
 1.7693653595e+000	 1.1310818823e+000	-5.8956031942e-001
 1.7576905735e+000	 1.1491404821e+000	-6.3051246950e-001
 1.8876035145e+000	 9.7600101023e-001	-2.0376270951e-001
 1.8776306532e+000	 9.9505182278e-001	-3.1089168599e-001
 1.8674499116e+000	 1.0140295004e+000	-3.6930500583e-001
 1.8570619611e+000	 1.0329307201e+000	-4.0803286894e-001
 1.8464675427e+000	 1.0517521637e+000	-4.4515652163e-001
 1.8356674667e+000	 1.0704905192e+000	-4.8030353629e-001
 1.8246626133e+000	 1.0891424827e+000	-5.1309426503e-001
 1.8134539321e+000	 1.1077047603e+000	-5.4314236794e-001
 1.8020424424e+000	 1.1261740699e+000	-5.7005536020e-001
 1.7904292328e+000	 1.1445471428e+000	-5.9343517709e-001
 1.7786154613e+000	 1.1628207260e+000	-6.1287875587e-001
 1.9098106147e+000	 9.8748337506e-001	-1.5720131374e-001
 1.8997204256e+000	 1.0067583148e+000	-2.5884584831e-001
 1.8894199106e+000	 1.0259592592e+000	-3.6521664635e-001
 1.8789097489e+000	 1.0450828462e+000	-4.7587090536e-001
 1.8681906902e+000	 1.0641257186e+000	-5.3501692214e-001
 1.8572635545e+000	 1.0830845253e+000	-5.5947360267e-001
 1.8461292323e+000	 1.1019559236e+000	-5.7958414266e-001
 1.8347886843e+000	 1.1207365810e+000	-5.9495607145e-001
 1.8232429417e+000	 1.1394231766e+000	-6.0519245178e-001
 1.8114931061e+000	 1.1580124033e+000	-6.0989247209e-001
 1.7995403491e+000	 1.1765009698e+000	-6.0865205379e-001
 1.9320177149e+000	 9.9896573988e-001	-1.0494156665e-001
 1.9218101980e+000	 1.0184648068e+000	-2.0159499470e-001
 1.9113899095e+000	 1.0378890180e+000	-3.0139599125e-001
 1.9007575367e+000	 1.0572349723e+000	-4.0388286381e-001
 1.8899138378e+000	 1.0764992734e+000	-5.0857751612e-001
 1.8788596424e+000	 1.0956785314e+000	-6.1498622588e-001
 1.8675958513e+000	 1.1147693646e+000	-6.5653962202e-001
 1.8561234364e+000	 1.1337684017e+000	-6.5792432010e-001
 1.8444434411e+000	 1.1526722833e+000	-6.5221265268e-001
 1.8325569795e+000	 1.1714776638e+000	-6.3900059837e-001
 1.8204652369e+000	 1.1901812136e+000	-6.1788257093e-001
 1.9542248150e+000	 1.0104481047e+000	-4.7268794784e-002
 1.9438999704e+000	 1.0301712989e+000	-1.3942443340e-001
 1.9333599085e+000	 1.0498187768e+000	-2.3319533742e-001
 1.9226053244e+000	 1.0693870985e+000	-3.2810036529e-001
 1.9116369853e+000	 1.0888728283e+000	-4.2364309106e-001
 1.9004557302e+000	 1.1082725375e+000	-5.1931262892e-001
 1.8890624702e+000	 1.1275828056e+000	-6.1458449591e-001
 1.8774581886e+000	 1.1468002224e+000	-7.0892151092e-001
 1.8656439404e+000	 1.1659213900e+000	-7.1120212601e-001
 1.8536208528e+000	 1.1849429244e+000	-6.8082995681e-001
 1.8413901247e+000	 1.2038614575e+000	-6.4062352808e-001
 1.9764319152e+000	 1.0219304695e+000	 1.5535444445e-002
 1.9659897428e+000	 1.0418777909e+000	-7.2616075819e-002
 1.9553299075e+000	 1.0617485357e+000	-1.6089564007e-001
 1.9444531122e+000	 1.0815392246e+000	-2.4880208732e-001
 1.9333601329e+000	 1.1012463832e+000	-3.3582005488e-001
 1.9220518181e+000	 1.1208665436e+000	-4.2142085055e-001
 1.9105290892e+000	 1.1403962465e+000	-5.0506336231e-001
 1.8987929407e+000	 1.1598320431e+000	-5.8619500341e-001
 1.8868444397e+000	 1.1791704967e+000	-6.6425269120e-001
 1.8746847261e+000	 1.1984081849e+000	-7.3545284256e-001
 1.8623150124e+000	 1.2175417013e+000	-6.7693098988e-001
 1.9986390154e+000	 1.0334128344e+000	 8.3193153383e-002
 1.9880795152e+000	 1.0535842829e+000	-1.4486251894e-003
 1.9772999064e+000	 1.0736782945e+000	-8.4775058505e-002
 1.9663009000e+000	 1.0936913507e+000	-1.6626438441e-001
 1.9550832805e+000	 1.1136199380e+000	-2.4538168583e-001
 1.9436479059e+000	 1.1334605497e+000	-3.2157981139e-001
 1.9319957082e+000	 1.1532096875e+000	-3.9430033268e-001
 1.9201276929e+000	 1.1728638638e+000	-4.6297453641e-001
 1.9080449390e+000	 1.1924196034e+000	-5.2702444938e-001
 1.8957485995e+000	 1.2118734454e+000	-5.8586389403e-001
 1.8832399002e+000	 1.2312219451e+000	-6.3889957238e-001
 1.6739910224e+000	 1.0944195068e+000	-8.3422929058e-001
 1.6626845693e+000	 1.1115214900e+000	-9.9261845231e-001
 1.6511917266e+000	 1.1285237623e+000	-1.1280581975e+000
 1.6395137781e+000	 1.1454233153e+000	-1.2401853198e+000
 1.6276520721e+000	 1.1622171622e+000	-1.3286537112e+000
 1.6156080202e+000	 1.1789023391e+000	-1.3931350145e+000
 1.6033830974e+000	 1.1954759065e+000	-1.4333192573e+000
 1.5909788412e+000	 1.2119349516e+000	-1.4489154683e+000
 1.5783968513e+000	 1.2282765894e+000	-1.4396522715e+000
 1.5656387886e+000	 1.2444979645e+000	-1.4052784598e+000
 1.5527063751e+000	 1.2605962528e+000	-1.4292678113e+000
 1.6949159102e+000	 1.1080997506e+000	-7.6340270538e-001
 1.6834681265e+000	 1.1254155087e+000	-9.0131745048e-001
 1.6718316232e+000	 1.1426303093e+000	-1.0175557631e+000
 1.6600077003e+000	 1.1597411068e+000	-1.1117516119e+000
 1.6479977230e+000	 1.1767448768e+000	-1.1835548638e+000
 1.6358031204e+000	 1.1936386183e+000	-1.2326319418e+000
 1.6234253861e+000	 1.2104193553e+000	-1.2586664677e+000
 1.6108660767e+000	 1.2270841385e+000	-1.2613598863e+000
 1.5981268119e+000	 1.2436300467e+000	-1.2404320714e+000
 1.5852092735e+000	 1.2600541890e+000	-1.2755211297e+000
 1.5721152048e+000	 1.2763537060e+000	-1.3395058065e+000
 1.7158407980e+000	 1.1217799944e+000	-7.0581626858e-001
 1.7042516836e+000	 1.1393095273e+000	-8.2350145352e-001
 1.6924715197e+000	 1.1567368563e+000	-9.2074326486e-001
 1.6805016226e+000	 1.1740588982e+000	-9.9717238019e-001
 1.6683433739e+000	 1.1912725913e+000	-1.0524341984e+000
 1.6559982207e+000	 1.2083748975e+000	-1.0861895044e+000
 1.6434676748e+000	 1.2253628042e+000	-1.0981151197e+000
 1.6307533122e+000	 1.2422333254e+000	-1.0879045372e+000
 1.6178567725e+000	 1.2589835041e+000	-1.1268464282e+000
 1.6047797583e+000	 1.2756104136e+000	-1.2073468676e+000
 1.5915240345e+000	 1.2921111591e+000	-1.2683324730e+000
 1.7367656858e+000	 1.1354602383e+000	-6.6150618161e-001
 1.7250352407e+000	 1.1532035459e+000	-7.5920766962e-001
 1.7131114163e+000	 1.1708434034e+000	-8.3766022071e-001
 1.7009955448e+000	 1.1883766897e+000	-8.9649075492e-001
 1.6886890248e+000	 1.2058003058e+000	-9.3533975917e-001
 1.6761933210e+000	 1.2231111768e+000	-9.5386195950e-001
 1.6635099635e+000	 1.2403062530e+000	-9.5172698059e-001
 1.6506405477e+000	 1.2573825123e+000	-9.8740366931e-001
 1.6375867332e+000	 1.2743369615e+000	-1.0812607503e+000
 1.6243502432e+000	 1.2911666381e+000	-1.1571736227e+000
 1.6109328642e+000	 1.3078686123e+000	-1.2149544949e+000
 1.7576905735e+000	 1.1491404821e+000	-6.3051246950e-001
 1.7458187978e+000	 1.1670975645e+000	-7.0847727043e-001
 1.7337513129e+000	 1.1849499504e+000	-7.6835018941e-001
 1.7214894670e+000	 1.2026944811e+000	-8.0975392189e-001
 1.7090346757e+000	 1.2203280204e+000	-8.3232359752e-001
 1.6963884212e+000	 1.2378474560e+000	-8.3570746054e-001
 1.6835522522e+000	 1.2552497018e+000	-8.6120849321e-001
 1.6705277832e+000	 1.2725316992e+000	-9.6532744236e-001
 1.6573166938e+000	 1.2896904188e+000	-1.0530579389e+000
 1.6439207281e+000	 1.3067228627e+000	-1.1242056179e+000
 1.6303416939e+000	 1.3236260655e+000	-1.1785809468e+000
 1.7786154613e+000	 1.1628207260e+000	-6.1287875587e-001
 1.7666023549e+000	 1.1809915832e+000	-6.7135515789e-001
 1.7543912095e+000	 1.1990564974e+000	-7.1286053281e-001
 1.7419833892e+000	 1.2170122725e+000	-7.3701288373e-001
 1.7293803266e+000	 1.2348557349e+000	-7.4344153616e-001
 1.7165835215e+000	 1.2525837353e+000	-7.5213961112e-001
 1.7035945410e+000	 1.2701931507e+000	-8.6349120564e-001
 1.6904150188e+000	 1.2876808861e+000	-9.5999110294e-001
 1.6770466545e+000	 1.3050438762e+000	-1.0414420121e+000
 1.6634912129e+000	 1.3222790873e+000	-1.1076497288e+000
 1.6497505236e+000	 1.3393835186e+000	-1.1584231539e+000
 1.7995403491e+000	 1.1765009698e+000	-6.0865205379e-001
 1.7873859120e+000	 1.1948856018e+000	-6.4788974732e-001
 1.7750311061e+000	 1.2131630445e+000	-6.7124219474e-001
 1.7624773115e+000	 1.2313300640e+000	-6.7832223802e-001
 1.7497259775e+000	 1.2493834494e+000	-6.6875294995e-001
 1.7367786217e+000	 1.2673200145e+000	-7.7956728017e-001
 1.7236368297e+000	 1.2851365995e+000	-8.8185123315e-001
 1.7103022543e+000	 1.3028300730e+000	-9.7060048901e-001
 1.6967766151e+000	 1.3203973336e+000	-1.0456198094e+000
 1.6830616978e+000	 1.3378353118e+000	-1.1067153290e+000
 1.6691593533e+000	 1.3551409718e+000	-1.1536945603e+000
 1.8204652369e+000	 1.1901812136e+000	-6.1788257093e-001
 1.8081694692e+000	 1.2087796204e+000	-6.3813276557e-001
 1.7956710026e+000	 1.2272695915e+000	-6.4354949518e-001
 1.7829712337e+000	 1.2456478554e+000	-6.3373997068e-001
 1.7700716284e+000	 1.2639111639e+000	-7.1724768802e-001
 1.7569737220e+000	 1.2820562937e+000	-8.2239493350e-001
 1.7436791184e+000	 1.3000800483e+000	-9.1549805019e-001
 1.7301894898e+000	 1.3179792599e+000	-9.9636434901e-001
 1.7165065757e+000	 1.3357507909e+000	-1.0648008289e+000
 1.7026321826e+000	 1.3533915364e+000	-1.1206141471e+000
 1.6885681830e+000	 1.3708984249e+000	-1.1636106081e+000
 1.8413901247e+000	 1.2038614575e+000	-6.4062352808e-001
 1.8289530263e+000	 1.2226736390e+000	-6.4213906279e-001
 1.8163108992e+000	 1.2413761385e+000	-6.2983993839e-001
 1.8034651559e+000	 1.2599656469e+000	-6.8010619812e-001
 1.7904172793e+000	 1.2784388785e+000	-7.8526248352e-001
 1.7771688222e+000	 1.2967925730e+000	-8.7983731208e-001
 1.7637214071e+000	 1.3150234972e+000	-9.6364406372e-001
 1.7500767253e+000	 1.3331284468e+000	-1.0364941765e+000
 1.7362365364e+000	 1.3511042483e+000	-1.0981970770e+000
 1.7222026675e+000	 1.3689477609e+000	-1.1485601321e+000
 1.7079770127e+000	 1.3866558781e+000	-1.1873886231e+000
 1.8623150124e+000	 1.2175417013e+000	-6.7693098988e-001
 1.8497365834e+000	 1.2365676577e+000	-6.5996643704e-001
 1.8369507958e+000	 1.2554826855e+000	-6.7160250951e-001
 1.8239590782e+000	 1.2742834383e+000	-7.7398222683e-001
 1.8107629302e+000	 1.2929665930e+000	-8.6721110971e-001
 1.7973639225e+000	 1.3115288522e+000	-9.5111205441e-001
 1.7837636958e+000	 1.3299669460e+000	-1.0255044484e+000
 1.7699639608e+000	 1.3482776336e+000	-1.0902040559e+000
 1.7559664970e+000	 1.3664577057e+000	-1.1450229267e+000
 1.7417731524e+000	 1.3845039855e+000	-1.1897693294e+000
 1.7273858424e+000	 1.4024133313e+000	-1.2242477095e+000
 1.8832399002e+000	 1.2312219451e+000	-6.3889957238e-001
 1.8705201405e+000	 1.2504616763e+000	-6.9508570692e-001
 1.8575906924e+000	 1.2695892326e+000	-7.9197421276e-001
 1.8444530004e+000	 1.2886012298e+000	-8.8110633457e-001
 1.8311085811e+000	 1.3074943075e+000	-9.6231785093e-001
 1.8175590227e+000	 1.3262651314e+000	-1.0354395356e+000
 1.8038059846e+000	 1.3449103948e+000	-1.1002969929e+000
 1.7898511964e+000	 1.3634268205e+000	-1.1567105187e+000
 1.7756964577e+000	 1.3818111630e+000	-1.2044949870e+000
 1.7613436372e+000	 1.4000602100e+000	-1.2434597641e+000
 1.7467946721e+000	 1.4181707844e+000	-1.2734086509e+000
 1.5527063751e+000	 1.2605962528e+000	-1.4292678113e+000
 1.5396013926e+000	 1.2765686632e+000	-1.5395775362e+000
 1.5263256822e+000	 1.2924124388e+000	-1.6385597236e+000
 1.5128811432e+000	 1.3081248589e+000	-1.7258790884e+000
 1.4992697328e+000	 1.3237032403e+000	-1.8012025435e+000
 1.4854934645e+000	 1.3391449388e+000	-1.8641994679e+000
 1.4715544074e+000	 1.3544473509e+000	-1.9145419889e+000
 1.4574546853e+000	 1.3696079148e+000	-1.9519052773e+000
 1.4431964755e+000	 1.3846241126e+000	-1.9759678560e+000
 1.4287820076e+000	 1.3994934709e+000	-1.9864119206e+000
 1.4142135624e+000	 1.4142135624e+000	-1.9829236731e+000
 1.5721152048e+000	 1.2763537060e+000	-1.3395058065e+000
 1.5588464100e+000	 1.2925257715e+000	-1.4415166814e+000
 1.5454047532e+000	 1.3085675943e+000	-1.5334886476e+000
 1.5317921575e+000	 1.3244764197e+000	-1.6150924797e+000
 1.5180106045e+000	 1.3402495308e+000	-1.6859994749e+000
 1.5040621328e+000	 1.3558842505e+000	-1.7458817092e+000
 1.4899488375e+000	 1.3713779427e+000	-1.7944123099e+000
 1.4756728689e+000	 1.3867280138e+000	-1.8312657449e+000
 1.4612364314e+000	 1.4019319140e+000	-1.8561181274e+000
 1.4466417827e+000	 1.4169871393e+000	-1.8686475366e+000
 1.4318912319e+000	 1.4318912319e+000	-1.8685343528e+000
 1.5915240345e+000	 1.2921111591e+000	-1.2683324730e+000
 1.5780914275e+000	 1.3084828798e+000	-1.3623710934e+000
 1.5644838242e+000	 1.3247227498e+000	-1.4476368123e+000
 1.5507031718e+000	 1.3408279804e+000	-1.5238063705e+000
 1.5367514761e+000	 1.3567958213e+000	-1.5905553562e+000
 1.5226308011e+000	 1.3726235623e+000	-1.6475584488e+000
 1.5083432676e+000	 1.3883085346e+000	-1.6944896824e+000
 1.4938910524e+000	 1.4038481127e+000	-1.7310227283e+000
 1.4792763874e+000	 1.4192397154e+000	-1.7568311963e+000
 1.4645015578e+000	 1.4344808076e+000	-1.7715889554e+000
 1.4495689015e+000	 1.4495689015e+000	-1.7749704710e+000
 1.6109328642e+000	 1.3078686123e+000	-1.2149544949e+000
 1.5973364449e+000	 1.3244399881e+000	-1.3013340696e+000
 1.5835628953e+000	 1.3408779053e+000	-1.3801857154e+000
 1.5696141861e+000	 1.3571795411e+000	-1.4511920553e+000
 1.5554923478e+000	 1.3733421118e+000	-1.5140328828e+000
 1.5411994694e+000	 1.3893628740e+000	-1.5683853937e+000
 1.5267376977e+000	 1.4052391265e+000	-1.6139244405e+000
 1.5121092360e+000	 1.4209682117e+000	-1.6503228083e+000
 1.4973163433e+000	 1.4365475169e+000	-1.6772515131e+000
 1.4823613329e+000	 1.4519744760e+000	-1.6943801214e+000
 1.4672465710e+000	 1.4672465710e+000	-1.7013770904e+000
 1.6303416939e+000	 1.3236260655e+000	-1.1785809468e+000
 1.6165814623e+000	 1.3403970964e+000	-1.2576017779e+000
 1.6026419663e+000	 1.3570330608e+000	-1.3303201491e+000
 1.5885252004e+000	 1.3735311019e+000	-1.3964244895e+000
 1.5742332195e+000	 1.3898884023e+000	-1.4555987198e+000
 1.5597681377e+000	 1.4061021858e+000	-1.5075224717e+000
 1.5451321278e+000	 1.4221697184e+000	-1.5518713329e+000
 1.5303274196e+000	 1.4380883106e+000	-1.5883171168e+000
 1.5153562993e+000	 1.4538553183e+000	-1.6165281574e+000
 1.5002211079e+000	 1.4694681444e+000	-1.6361696281e+000
 1.4849242405e+000	 1.4849242405e+000	-1.6469038855e+000
 1.6497505236e+000	 1.3393835186e+000	-1.1584231539e+000
 1.6358264797e+000	 1.3563542047e+000	-1.2303730886e+000
 1.6217210373e+000	 1.3731882162e+000	-1.2972280059e+000
 1.6074362147e+000	 1.3898826626e+000	-1.3586820736e+000
 1.5929740911e+000	 1.4064346928e+000	-1.4144232684e+000
 1.5783368060e+000	 1.4228414975e+000	-1.4641335835e+000
 1.5635265579e+000	 1.4391003103e+000	-1.5074892636e+000
 1.5485456031e+000	 1.4552084095e+000	-1.5441610687e+000
 1.5333962552e+000	 1.4711631197e+000	-1.5738145653e+000
 1.5180808830e+000	 1.4869618128e+000	-1.5961104449e+000
 1.5026019100e+000	 1.5026019100e+000	-1.6107048707e+000
 1.6691593533e+000	 1.3551409718e+000	-1.1536945603e+000
 1.6550714971e+000	 1.3723113129e+000	-1.2188494168e+000
 1.6408001083e+000	 1.3893433717e+000	-1.2801000986e+000
 1.6263472290e+000	 1.4062342233e+000	-1.3371464529e+000
 1.6117149628e+000	 1.4229809833e+000	-1.3896804486e+000
 1.5969054743e+000	 1.4395808092e+000	-1.4373863716e+000
 1.5819209879e+000	 1.4560309022e+000	-1.4799410504e+000
 1.5667637867e+000	 1.4723285085e+000	-1.5170141134e+000
 1.5514362112e+000	 1.4884709211e+000	-1.5482682766e+000
 1.5359406581e+000	 1.5044554812e+000	-1.5733596624e+000
 1.5202795796e+000	 1.5202795796e+000	-1.5919381485e+000
 1.6885681830e+000	 1.3708984249e+000	-1.1636106081e+000
 1.6743165145e+000	 1.3882684212e+000	-1.2222345762e+000
 1.6598791794e+000	 1.4054985272e+000	-1.2781299923e+000
 1.6452582433e+000	 1.4225857841e+000	-1.3310023312e+000
 1.6304558344e+000	 1.4395272738e+000	-1.3805474970e+000
 1.6154741426e+000	 1.4563201210e+000	-1.4264520053e+000
 1.6003154180e+000	 1.4729614941e+000	-1.4683931997e+000
 1.5849819703e+000	 1.4894486074e+000	-1.5060395023e+000
 1.5694761671e+000	 1.5057787225e+000	-1.5390506987e+000
 1.5538004332e+000	 1.5219491496e+000	-1.5670782559e+000
 1.5379572491e+000	 1.5379572491e+000	-1.5897656741e+000
 1.7079770127e+000	 1.3866558781e+000	-1.1873886231e+000
 1.6935615319e+000	 1.4042255295e+000	-1.2397346431e+000
 1.6789582504e+000	 1.4216536827e+000	-1.2905138482e+000
 1.6641692576e+000	 1.4389373448e+000	-1.3394372971e+000
 1.6491967061e+000	 1.4560735643e+000	-1.3862047785e+000
 1.6340428109e+000	 1.4730594327e+000	-1.4305049802e+000
 1.6187098481e+000	 1.4898920859e+000	-1.4720156969e+000
 1.6032001538e+000	 1.5065687063e+000	-1.5104040735e+000
 1.5875161230e+000	 1.5230865239e+000	-1.5453268870e+000
 1.5716602083e+000	 1.5394428180e+000	-1.5764308643e+000
 1.5556349186e+000	 1.5556349186e+000	-1.6033530368e+000
 1.7273858424e+000	 1.4024133313e+000	-1.2242477095e+000
 1.7128065493e+000	 1.4201826378e+000	-1.2705578289e+000
 1.6980373214e+000	 1.4378088382e+000	-1.3164502776e+000
 1.6830802719e+000	 1.4552889056e+000	-1.3616416617e+000
 1.6679375778e+000	 1.4726198548e+000	-1.4058356102e+000
 1.6526114792e+000	 1.4897987444e+000	-1.4487229316e+000
 1.6371042782e+000	 1.5068226778e+000	-1.4899818113e+000
 1.6214183374e+000	 1.5236888053e+000	-1.5292780498e+000
 1.6055560790e+000	 1.5403943253e+000	-1.5662653398e+000
 1.5895199834e+000	 1.5569364863e+000	-1.6005855847e+000
 1.5733125882e+000	 1.5733125882e+000	-1.6318692556e+000
 1.7467946721e+000	 1.4181707844e+000	-1.2734086509e+000
 1.7320515667e+000	 1.4361397461e+000	-1.3139143618e+000
 1.7171163925e+000	 1.4539639937e+000	-1.3551402059e+000
 1.7019912862e+000	 1.4716404663e+000	-1.3968083075e+000
 1.6866784494e+000	 1.4891661453e+000	-1.4386260979e+000
 1.6711801475e+000	 1.5065380562e+000	-1.4802864595e+000
 1.6554987083e+000	 1.5237532697e+000	-1.5214679134e+000
 1.6396365210e+000	 1.5408089042e+000	-1.5618348507e+000
 1.6235960349e+000	 1.5577021267e+000	-1.6010378070e+000
 1.6073797585e+000	 1.5744301547e+000	-1.6387137797e+000
 1.5909902577e+000	 1.5909902577e+000	-1.6744865891e+000
 1.4142135624e+000	 1.4142135624e+000	-1.9829236731e+000
 1.3994934709e+000	 1.4287820076e+000	-1.9908194808e+000
 1.3846241126e+000	 1.4431964755e+000	-1.9994362751e+000
 1.3696079148e+000	 1.4574546853e+000	-2.0085052587e+000
 1.3544473509e+000	 1.4715544074e+000	-2.0177482150e+000
 1.3391449388e+000	 1.4854934645e+000	-2.0268778835e+000
 1.3237032403e+000	 1.4992697328e+000	-2.0355983658e+000
 1.3081248589e+000	 1.5128811432e+000	-2.0436055563e+000
 1.2924124388e+000	 1.5263256822e+000	-2.0505876014e+000
 1.2765686632e+000	 1.5396013926e+000	-2.0562253826e+000
 1.2605962528e+000	 1.5527063751e+000	-2.0601930239e+000
 1.4318912319e+000	 1.4318912319e+000	-1.8685343528e+000
 1.4169871393e+000	 1.4466417827e+000	-1.8819104488e+000
 1.4019319140e+000	 1.4612364314e+000	-1.8953401457e+000
 1.3867280138e+000	 1.4756728689e+000	-1.9085266236e+000
 1.3713779427e+000	 1.4899488375e+000	-1.9211637528e+000
 1.3558842505e+000	 1.5040621328e+000	-1.9329365028e+000
 1.3402495308e+000	 1.5180106045e+000	-1.9435213796e+000
 1.3244764197e+000	 1.5317921575e+000	-1.9525868907e+000
 1.3085675943e+000	 1.5454047532e+000	-1.9597940368e+000
 1.2925257715e+000	 1.5588464100e+000	-1.9647968291e+000
 1.2763537060e+000	 1.5721152048e+000	-1.9672428306e+000
 1.4495689015e+000	 1.4495689015e+000	-1.7749704710e+000
 1.4344808076e+000	 1.4645015578e+000	-1.7931864031e+000
 1.4192397154e+000	 1.4792763874e+000	-1.8108122122e+000
 1.4038481127e+000	 1.4938910524e+000	-1.8275232838e+000
 1.3883085346e+000	 1.5083432676e+000	-1.8429857737e+000
 1.3726235623e+000	 1.5226308011e+000	-1.8568570492e+000
 1.3567958213e+000	 1.5367514761e+000	-1.8687861586e+000
 1.3408279804e+000	 1.5507031718e+000	-1.8784143297e+000
 1.3247227498e+000	 1.5644838242e+000	-1.8853754950e+000
 1.3084828798e+000	 1.5780914275e+000	-1.8892968430e+000
 1.2921111591e+000	 1.5915240345e+000	-1.8897993931e+000
 1.4672465710e+000	 1.4672465710e+000	-1.7013770904e+000
 1.4519744760e+000	 1.4823613329e+000	-1.7238217741e+000
 1.4365475169e+000	 1.4973163433e+000	-1.7450561875e+000
 1.4209682117e+000	 1.5121092360e+000	-1.7647281352e+000
 1.4052391265e+000	 1.5267376977e+000	-1.7824762419e+000
 1.3893628740e+000	 1.5411994694e+000	-1.7979304252e+000
 1.3733421118e+000	 1.5554923478e+000	-1.8107123985e+000
 1.3571795411e+000	 1.5696141861e+000	-1.8204362021e+000
 1.3408779053e+000	 1.5835628953e+000	-1.8267087625e+000
 1.3244399881e+000	 1.5973364449e+000	-1.8291304774e+000
 1.3078686123e+000	 1.6109328642e+000	-1.8272958252e+000
 1.4849242405e+000	 1.4849242405e+000	-1.6469038855e+000
 1.4694681444e+000	 1.5002211079e+000	-1.6729942400e+000
 1.4538553183e+000	 1.5153562993e+000	-1.6972776921e+000
 1.4380883106e+000	 1.5303274196e+000	-1.7193746649e+000
 1.4221697184e+000	 1.5451321278e+000	-1.7388964208e+000
 1.4061021858e+000	 1.5597681377e+000	-1.7554455662e+000
 1.3898884023e+000	 1.5742332195e+000	-1.7686165874e+000
 1.3735311019e+000	 1.5885252004e+000	-1.7779964149e+000
 1.3570330608e+000	 1.6026419663e+000	-1.7831650167e+000
 1.3403970964e+000	 1.6165814623e+000	-1.7836960167e+000
 1.3236260655e+000	 1.6303416939e+000	-1.7791573398e+000
 1.5026019100e+000	 1.5026019100e+000	-1.6107048707e+000
 1.4869618128e+000	 1.5180808830e+000	-1.6398845356e+000
 1.4711631197e+000	 1.5333962552e+000	-1.6666841418e+000
 1.4552084095e+000	 1.5485456031e+000	-1.6906969165e+000
 1.4391003103e+000	 1.5635265579e+000	-1.7115069148e+000
 1.4228414975e+000	 1.5783368060e+000	-1.7286895564e+000
 1.4064346928e+000	 1.5929740911e+000	-1.7418121945e+000
 1.3898826626e+000	 1.6074362147e+000	-1.7504347134e+000
 1.3731882162e+000	 1.6217210373e+000	-1.7541101553e+000
 1.3563542047e+000	 1.6358264797e+000	-1.7523853739e+000
 1.3393835186e+000	 1.6497505236e+000	-1.7448017135e+000
 1.5202795796e+000	 1.5202795796e+000	-1.5919381485e+000
 1.5044554812e+000	 1.5359406581e+000	-1.6236762749e+000
 1.4884709211e+000	 1.5514362112e+000	-1.6524846433e+000
 1.4723285085e+000	 1.5667637867e+000	-1.6779294575e+000
 1.4560309022e+000	 1.5819209879e+000	-1.6995677070e+000
 1.4395808092e+000	 1.5969054743e+000	-1.7169477363e+000
 1.4229809833e+000	 1.6117149628e+000	-1.7296098456e+000
 1.4062342233e+000	 1.6263472290e+000	-1.7370869228e+000
 1.3893433717e+000	 1.6408001083e+000	-1.7389051040e+000
 1.3723113129e+000	 1.6550714971e+000	-1.7345844617e+000
 1.3551409718e+000	 1.6691593533e+000	-1.7236397192e+000
 1.5379572491e+000	 1.5379572491e+000	-1.5897656741e+000
 1.5219491496e+000	 1.5538004332e+000	-1.6235557854e+000
 1.5057787225e+000	 1.5694761671e+000	-1.6538898971e+000
 1.4894486074e+000	 1.5849819703e+000	-1.6803073494e+000
 1.4729614941e+000	 1.6003154180e+000	-1.7023381956e+000
 1.4563201210e+000	 1.6154741426e+000	-1.7195038028e+000
 1.4395272738e+000	 1.6304558344e+000	-1.7313174862e+000
 1.4225857841e+000	 1.6452582433e+000	-1.7372851738e+000
 1.4054985272e+000	 1.6598791794e+000	-1.7369061017e+000
 1.3882684212e+000	 1.6743165145e+000	-1.7296735372e+000
 1.3708984249e+000	 1.6885681830e+000	-1.7150755282e+000
 1.5556349186e+000	 1.5556349186e+000	-1.6033530368e+000
 1.5394428180e+000	 1.5716602083e+000	-1.6387119541e+000
 1.5230865239e+000	 1.5875161230e+000	-1.6701121067e+000
 1.5065687063e+000	 1.6032001538e+000	-1.6970661195e+000
 1.4898920859e+000	 1.6187098481e+000	-1.7190772264e+000
 1.4730594327e+000	 1.6340428109e+000	-1.7356399030e+000
 1.4560735643e+000	 1.6491967061e+000	-1.7462405342e+000
 1.4389373448e+000	 1.6641692576e+000	-1.7503581124e+000
 1.4216536827e+000	 1.6789582504e+000	-1.7474649670e+000
 1.4042255295e+000	 1.6935615319e+000	-1.7370275229e+000
 1.3866558781e+000	 1.7079770127e+000	-1.7185070857e+000
 1.5733125882e+000	 1.5733125882e+000	-1.6318692556e+000
 1.5569364863e+000	 1.5895199834e+000	-1.6683360834e+000
 1.5403943253e+000	 1.6055560790e+000	-1.7003648945e+000
 1.5236888053e+000	 1.6214183374e+000	-1.7274417349e+000
 1.5068226778e+000	 1.6371042782e+000	-1.7490431242e+000
 1.4897987444e+000	 1.6526114792e+000	-1.7646367208e+000
 1.4726198548e+000	 1.6679375778e+000	-1.7736820218e+000
 1.4552889056e+000	 1.6830802719e+000	-1.7756310957e+000
 1.4378088382e+000	 1.6980373214e+000	-1.7699293465e+000
 1.4201826378e+000	 1.7128065493e+000	-1.7560163069e+000
 1.4024133313e+000	 1.7273858424e+000	-1.7333264603e+000
 1.5909902577e+000	 1.5909902577e+000	-1.6744865891e+000
 1.5744301547e+000	 1.6073797585e+000	-1.7116217572e+000
 1.5577021267e+000	 1.6235960349e+000	-1.7438632227e+000
 1.5408089042e+000	 1.6396365210e+000	-1.7706705779e+000
 1.5237532697e+000	 1.6554987083e+000	-1.7914937221e+000
 1.5065380562e+000	 1.6711801475e+000	-1.8057735585e+000
 1.4891661453e+000	 1.6866784494e+000	-1.8129427279e+000
 1.4716404663e+000	 1.7019912862e+000	-1.8124263748e+000
 1.4539639937e+000	 1.7171163925e+000	-1.8036429465e+000
 1.4361397461e+000	 1.7320515667e+000	-1.7860050223e+000
 1.4181707844e+000	 1.7467946721e+000	-1.7589201709e+000
 1.2605962528e+000	 1.5527063751e+000	-2.0601930239e+000
 1.2444979645e+000	 1.5656387886e+000	-2.0701800355e+000
 1.2282765894e+000	 1.5783968513e+000	-2.0750712991e+000
 1.2119349516e+000	 1.5909788412e+000	-2.0781854112e+000
 1.1954759065e+000	 1.6033830974e+000	-2.0792116793e+000
 1.1789023391e+000	 1.6156080202e+000	-2.0778524704e+000
 1.1622171622e+000	 1.6276520721e+000	-2.0738236451e+000
 1.1454233153e+000	 1.6395137781e+000	-2.0668549584e+000
 1.1285237623e+000	 1.6511917266e+000	-2.0566904275e+000
 1.1115214900e+000	 1.6626845693e+000	-2.0430886647e+000
 1.0944195068e+000	 1.6739910224e+000	-2.0258231769e+000
 1.2763537060e+000	 1.5721152048e+000	-1.9672428306e+000
 1.2600541890e+000	 1.5852092735e+000	-1.9765920313e+000
 1.2436300467e+000	 1.5981268119e+000	-1.9791010203e+000
 1.2270841385e+000	 1.6108660767e+000	-1.9655750014e+000
 1.2104193553e+000	 1.6234253861e+000	-1.9481093183e+000
 1.1936386183e+000	 1.6358031204e+000	-1.9264419549e+000
 1.1767448768e+000	 1.6479977230e+000	-1.9003260635e+000
 1.1597411068e+000	 1.6600077003e+000	-1.8695303269e+000
 1.1426303093e+000	 1.6718316232e+000	-1.8338392839e+000
 1.1254155087e+000	 1.6834681265e+000	-1.7930536187e+000
 1.1080997506e+000	 1.6949159102e+000	-1.7469904132e+000
 1.2921111591e+000	 1.5915240345e+000	-1.8897993931e+000
 1.2756104136e+000	 1.6047797583e+000	-1.8974395060e+000
 1.2589835041e+000	 1.6178567725e+000	-1.9057932850e+000
 1.2422333254e+000	 1.6307533122e+000	-1.8964203741e+000
 1.2253628042e+000	 1.6434676748e+000	-1.8618287086e+000
 1.2083748975e+000	 1.6559982207e+000	-1.8212196282e+000
 1.1912725913e+000	 1.6683433739e+000	-1.7743826341e+000
 1.1740588982e+000	 1.6805016226e+000	-1.7211244078e+000
 1.1567368563e+000	 1.6924715197e+000	-1.6612690954e+000
 1.1393095273e+000	 1.7042516836e+000	-1.5946585541e+000
 1.1217799944e+000	 1.7158407980e+000	-1.5211525594e+000
 1.3078686123e+000	 1.6109328642e+000	-1.8272958252e+000
 1.2911666381e+000	 1.6243502432e+000	-1.8348128178e+000
 1.2743369615e+000	 1.6375867332e+000	-1.8417894005e+000
 1.2573825123e+000	 1.6506405477e+000	-1.8479030791e+000
 1.2403062530e+000	 1.6635099635e+000	-1.8206827153e+000
 1.2231111768e+000	 1.6761933210e+000	-1.7624469384e+000
 1.2058003058e+000	 1.6886890248e+000	-1.6962023293e+000
 1.1883766897e+000	 1.7009955448e+000	-1.6217926628e+000
 1.1708434034e+000	 1.7131114163e+000	-1.5390808034e+000
 1.1532035459e+000	 1.7250352407e+000	-1.4479489082e+000
 1.1354602383e+000	 1.7367656858e+000	-1.3482985904e+000
 1.3236260655e+000	 1.6303416939e+000	-1.7791573398e+000
 1.3067228627e+000	 1.6439207281e+000	-1.7880940828e+000
 1.2896904188e+000	 1.6573166938e+000	-1.7952684278e+000
 1.2725316992e+000	 1.6705277832e+000	-1.8003832610e+000
 1.2552497018e+000	 1.6835522522e+000	-1.8031342789e+000
 1.2378474560e+000	 1.6963884212e+000	-1.7503897985e+000
 1.2203280204e+000	 1.7090346757e+000	-1.6660011801e+000
 1.2026944811e+000	 1.7214894670e+000	-1.5717002441e+000
 1.1849499504e+000	 1.7337513129e+000	-1.4673877069e+000
 1.1670975645e+000	 1.7458187978e+000	-1.3529851772e+000
 1.1491404821e+000	 1.7576905735e+000	-1.2284352749e+000
 1.3393835186e+000	 1.6497505236e+000	-1.7448017135e+000
 1.3222790873e+000	 1.6634912129e+000	-1.7566602287e+000
 1.3050438762e+000	 1.6770466545e+000	-1.7655659845e+000
 1.2876808861e+000	 1.6904150188e+000	-1.7712462440e+000
 1.2701931507e+000	 1.7035945410e+000	-1.7734214985e+000
 1.2525837353e+000	 1.7165835215e+000	-1.7718060568e+000
 1.2348557349e+000	 1.7293803266e+000	-1.6840018613e+000
 1.2170122725e+000	 1.7419833892e+000	-1.5710214236e+000
 1.1990564974e+000	 1.7543912095e+000	-1.4463147353e+000
 1.1809915832e+000	 1.7666023549e+000	-1.3098420306e+000
 1.1628207260e+000	 1.7786154613e+000	-1.1615861288e+000
 1.3551409718e+000	 1.6691593533e+000	-1.7236397192e+000
 1.3378353118e+000	 1.6830616978e+000	-1.7398832965e+000
 1.3203973336e+000	 1.6967766151e+000	-1.7520149577e+000
 1.3028300730e+000	 1.7103022543e+000	-1.7597853560e+000
 1.2851365995e+000	 1.7236368297e+000	-1.7629387606e+000
 1.2673200145e+000	 1.7367786217e+000	-1.7612136293e+000
 1.2493834494e+000	 1.7497259775e+000	-1.7504333051e+000
 1.2313300640e+000	 1.7624773115e+000	-1.6199390635e+000
 1.2131630445e+000	 1.7750311061e+000	-1.4759977724e+000
 1.1948856018e+000	 1.7873859120e+000	-1.3186074873e+000
 1.1765009698e+000	 1.7995403491e+000	-1.1477904416e+000
 1.3708984249e+000	 1.6885681830e+000	-1.7150755282e+000
 1.3533915364e+000	 1.7026321826e+000	-1.7371307212e+000
 1.3357507909e+000	 1.7165065757e+000	-1.7539456603e+000
 1.3179792599e+000	 1.7301894898e+000	-1.7652934181e+000
 1.3000800483e+000	 1.7436791184e+000	-1.7709410411e+000
 1.2820562937e+000	 1.7569737220e+000	-1.7706501063e+000
 1.2639111639e+000	 1.7700716284e+000	-1.7641772997e+000
 1.2456478554e+000	 1.7829712337e+000	-1.7186441220e+000
 1.2272695915e+000	 1.7956710026e+000	-1.5565830264e+000
 1.2087796204e+000	 1.8081694692e+000	-1.3793821478e+000
 1.1901812136e+000	 1.8204652369e+000	-1.1871023699e+000
 1.3866558781e+000	 1.7079770127e+000	-1.7185070857e+000
 1.3689477609e+000	 1.7222026675e+000	-1.7477655935e+000
 1.3511042483e+000	 1.7362365364e+000	-1.7706859776e+000
 1.3331284468e+000	 1.7500767253e+000	-1.7870627738e+000
 1.3150234972e+000	 1.7637214071e+000	-1.7966848204e+000
 1.2967925730e+000	 1.7771688222e+000	-1.7993357993e+000
 1.2784388785e+000	 1.7904172793e+000	-1.7947948003e+000
 1.2599656469e+000	 1.8034651559e+000	-1.7828369055e+000
 1.2413761385e+000	 1.8163108992e+000	-1.6882264439e+000
 1.2226736390e+000	 1.8289530263e+000	-1.4922784801e+000
 1.2038614575e+000	 1.8413901247e+000	-1.2795900925e+000
 1.4024133313e+000	 1.7273858424e+000	-1.7333264603e+000
 1.3845039855e+000	 1.7417731524e+000	-1.7711469042e+000
 1.3664577057e+000	 1.7559664970e+000	-1.8015615035e+000
 1.3482776336e+000	 1.7699639608e+000	-1.8243853158e+000
 1.3299669460e+000	 1.7837636958e+000	-1.8394279993e+000
 1.3115288522e+000	 1.7973639225e+000	-1.8464943405e+000
 1.2929665930e+000	 1.8107629302e+000	-1.8453848055e+000
 1.2742834383e+000	 1.8239590782e+000	-1.8358961113e+000
 1.2554826855e+000	 1.8369507958e+000	-1.8178218173e+000
 1.2365676577e+000	 1.8497365834e+000	-1.6574201526e+000
 1.2175417013e+000	 1.8623150124e+000	-1.4253350227e+000
 1.4181707844e+000	 1.7467946721e+000	-1.7589201709e+000
 1.4000602100e+000	 1.7613436372e+000	-1.8066297715e+000
 1.3818111630e+000	 1.7756964577e+000	-1.8458956679e+000
 1.3634268205e+000	 1.7898511964e+000	-1.8765525107e+000
 1.3449103948e+000	 1.8038059846e+000	-1.8984298195e+000
 1.3262651314e+000	 1.8175590227e+000	-1.9113524984e+000
 1.3074943075e+000	 1.8311085811e+000	-1.9151413750e+000
 1.2886012298e+000	 1.8444530004e+000	-1.9096137607e+000
 1.2695892326e+000	 1.8575906924e+000	-1.8945840310e+000
 1.2504616763e+000	 1.8705201405e+000	-1.8698642229e+000
 1.2312219451e+000	 1.8832399002e+000	-1.7132033273e+000
 1.0944195068e+000	 1.6739910224e+000	-2.0258231769e+000
 1.0772208403e+000	 1.6851098662e+000	-2.1284568165e+000
 1.0599285364e+000	 1.6960399458e+000	-2.2026355197e+000
 1.0425456567e+000	 1.7067801714e+000	-2.2487669959e+000
 1.0250752778e+000	 1.7173295184e+000	-2.2672948865e+000
 1.0075204886e+000	 1.7276870275e+000	-2.2586980741e+000
 9.8988438938e-001	 1.7378518049e+000	-2.2234899379e+000
 9.7217008953e-001	 1.7478230222e+000	-2.1622175570e+000
 9.5438070623e-001	 1.7575999168e+000	-2.0754608642e+000
 9.3651936262e-001	 1.7671817913e+000	-1.9638317519e+000
 9.1858918611e-001	 1.7765680137e+000	-1.8279731321e+000
 1.1080997506e+000	 1.6949159102e+000	-1.7469904132e+000
 1.0906861008e+000	 1.7061737395e+000	-1.8388505588e+000
 1.0731776431e+000	 1.7172404451e+000	-1.9022338481e+000
 1.0555774775e+000	 1.7281149236e+000	-1.9375436364e+000
 1.0378887188e+000	 1.7387961374e+000	-1.9452196595e+000
 1.0201144947e+000	 1.7492831153e+000	-1.9257373473e+000
 1.0022579442e+000	 1.7595749524e+000	-1.8796070818e+000
 9.8432221564e-001	 1.7696708100e+000	-1.8073734030e+000
 9.6631046506e-001	 1.7795699158e+000	-1.7096141632e+000
 9.4822585465e-001	 1.7892715637e+000	-1.5869396326e+000
 9.3007155093e-001	 1.7987751138e+000	-1.4399915576e+000
 1.1217799944e+000	 1.7158407980e+000	-1.5211525594e+000
 1.1041513613e+000	 1.7272376128e+000	-1.6016830277e+000
 1.0864267498e+000	 1.7384409444e+000	-1.6536736010e+000
 1.0686092982e+000	 1.7494496757e+000	-1.6775234897e+000
 1.0507021598e+000	 1.7602627564e+000	-1.6736687693e+000
 1.0327085009e+000	 1.7708792032e+000	-1.6425816972e+000
 1.0146314991e+000	 1.7812981000e+000	-1.5847699741e+000
 9.9647434176e-001	 1.7915185978e+000	-1.5007759507e+000
 9.7824022389e-001	 1.8015399147e+000	-1.3911757826e+000
 9.5993234668e-001	 1.8113613361e+000	-1.2565785347e+000
 9.4155391576e-001	 1.8209822140e+000	-1.0976252383e+000
 1.1354602383e+000	 1.7367656858e+000	-1.3482985904e+000
 1.1176166218e+000	 1.7483014862e+000	-1.4169547014e+000
 1.0996758565e+000	 1.7596414438e+000	-1.4569671323e+000
 1.0816411189e+000	 1.7707844278e+000	-1.4687311487e+000
 1.0635156007e+000	 1.7817293753e+000	-1.4526794010e+000
 1.0453025070e+000	 1.7924752910e+000	-1.4092812453e+000
 1.0270050540e+000	 1.8030212475e+000	-1.3390420068e+000
 1.0086264679e+000	 1.8133663856e+000	-1.2425021871e+000
 9.9016998271e-001	 1.8235099137e+000	-1.1202366194e+000
 9.7163883872e-001	 1.8334511084e+000	-9.7285357116e-001
 9.5303628058e-001	 1.8431893142e+000	-8.0099379847e-001
 1.1491404821e+000	 1.7576905735e+000	-1.2284352749e+000
 1.1310818823e+000	 1.7693653595e+000	-1.2846833378e+000
 1.1129249632e+000	 1.7808419431e+000	-1.3121435313e+000
 1.0946729396e+000	 1.7921191800e+000	-1.3112073666e+000
 1.0763290417e+000	 1.8031959943e+000	-1.2823042957e+000
 1.0578965131e+000	 1.8140713789e+000	-1.2259010352e+000
 1.0393786088e+000	 1.8247443951e+000	-1.1425008311e+000
 1.0207785940e+000	 1.8352141733e+000	-1.0326426675e+000
 1.0020997415e+000	 1.8454799126e+000	-8.9690042000e-001
 9.8334533075e-001	 1.8555408808e+000	-7.3588195716e-001
 9.6451864541e-001	 1.8653964143e+000	-5.5022819111e-001
 1.1628207260e+000	 1.7786154613e+000	-1.1615861288e+000
 1.1445471428e+000	 1.7904292328e+000	-1.2049029582e+000
 1.1261740699e+000	 1.8020424424e+000	-1.2192476377e+000
 1.1077047603e+000	 1.8134539321e+000	-1.2050081063e+000
 1.0891424827e+000	 1.8246626133e+000	-1.1626108353e+000
 1.0704905192e+000	 1.8356674667e+000	-1.0925201546e+000
 1.0517521637e+000	 1.8464675427e+000	-9.9523751909e-001
 1.0329307201e+000	 1.8570619611e+000	-8.7130071740e-001
 1.0140295004e+000	 1.8674499116e+000	-7.2128302412e-001
 9.9505182278e-001	 1.8776306532e+000	-5.7945626779e-001
 9.7600101023e-001	 1.8876035145e+000	-5.0654497700e-001
 1.1765009698e+000	 1.7995403491e+000	-1.1477904416e+000
 1.1580124033e+000	 1.8114931061e+000	-1.1776629013e+000
 1.1394231766e+000	 1.8232429417e+000	-1.1783391261e+000
 1.1207365810e+000	 1.8347886843e+000	-1.1502036563e+000
 1.1019559236e+000	 1.8461292323e+000	-1.0936801915e+000
 1.0830845253e+000	 1.8572635545e+000	-1.0092309193e+000
 1.0641257186e+000	 1.8681906902e+000	-8.9735578313e-001
 1.0450828462e+000	 1.8789097489e+000	-8.0848231294e-001
 1.0259592592e+000	 1.8894199106e+000	-7.7810277905e-001
 1.0067583148e+000	 1.8997204256e+000	-7.1987512917e-001
 9.8748337506e-001	 1.9098106147e+000	-6.3401146301e-001
 1.1901812136e+000	 1.8204652369e+000	-1.1871023699e+000
 1.1714776638e+000	 1.8325569795e+000	-1.2030269435e+000
 1.1526722833e+000	 1.8444434411e+000	-1.1894916536e+000
 1.1337684017e+000	 1.8561234364e+000	-1.1468778071e+000
 1.1147693646e+000	 1.8675958513e+000	-1.0756065327e+000
 1.0956785314e+000	 1.8788596424e+000	-1.0244335900e+000
 1.0764992734e+000	 1.8899138378e+000	-1.0370086823e+000
 1.0572349723e+000	 1.9007575367e+000	-1.0215839738e+000
 1.0378890180e+000	 1.9113899095e+000	-9.7829590771e-001
 1.0184648068e+000	 1.9218101980e+000	-9.0729612764e-001
 9.9896573988e-001	 1.9320177149e+000	-8.0875274839e-001
 1.2038614575e+000	 1.8413901247e+000	-1.2795900925e+000
 1.1849429244e+000	 1.8536208528e+000	-1.2810724781e+000
 1.1659213900e+000	 1.8656439404e+000	-1.2527920651e+000
 1.1468002224e+000	 1.8774581886e+000	-1.2247642083e+000
 1.1275828056e+000	 1.8890624702e+000	-1.2801109612e+000
 1.1082725375e+000	 1.9004557302e+000	-1.3075391319e+000
 1.0888728283e+000	 1.9116369853e+000	-1.3071158780e+000
 1.0693870985e+000	 1.9226053244e+000	-1.2789200970e+000
 1.0498187768e+000	 1.9333599085e+000	-1.2230438364e+000
 1.0301712989e+000	 1.9438999704e+000	-1.1395936925e+000
 1.0104481047e+000	 1.9542248150e+000	-1.0286921938e+000
 1.2175417013e+000	 1.8623150124e+000	-1.4253350227e+000
 1.1984081849e+000	 1.8746847261e+000	-1.4118897506e+000
 1.1791704967e+000	 1.8868444397e+000	-1.5056256452e+000
 1.1598320431e+000	 1.8987929407e+000	-1.5753388731e+000
 1.1403962465e+000	 1.9105290892e+000	-1.6174426826e+000
 1.1208665436e+000	 1.9220518181e+000	-1.6319505787e+000
 1.1012463832e+000	 1.9333601329e+000	-1.6188853823e+000
 1.0815392246e+000	 1.9444531122e+000	-1.5782807595e+000
 1.0617485357e+000	 1.9553299075e+000	-1.5101827446e+000
 1.0418777909e+000	 1.9659897428e+000	-1.4146512544e+000
 1.0219304695e+000	 1.9764319152e+000	-1.2917615856e+000
 1.2312219451e+000	 1.8832399002e+000	-1.7132033273e+000
 1.2118734454e+000	 1.8957485995e+000	-1.8240202705e+000
 1.1924196034e+000	 1.9080449390e+000	-1.9076867933e+000
 1.1728638638e+000	 1.9201276929e+000	-1.9641598353e+000
 1.1532096875e+000	 1.9319957082e+000	-1.9934013422e+000
 1.1334605497e+000	 1.9436479059e+000	-1.9953799001e+000
 1.1136199380e+000	 1.9550832805e+000	-1.9700723774e+000
 1.0936913507e+000	 1.9663009000e+000	-1.9174655690e+000
 1.0736782945e+000	 1.9772999064e+000	-1.8375578378e+000
 1.0535842829e+000	 1.9880795152e+000	-1.7303607453e+000
 1.0334128344e+000	 1.9986390154e+000	-1.5959006680e+000
 9.1858918611e-001	 1.7765680137e+000	-1.8279731321e+000
 9.0059330673e-001	 1.7857580172e+000	-1.8946983252e+000
 8.8253485550e-001	 1.7947513000e+000	-1.9440116599e+000
 8.6441696276e-001	 1.8035474251e+000	-1.9763324289e+000
 8.4624275656e-001	 1.8121460198e+000	-1.9921062919e+000
 8.2801536107e-001	 1.8205467755e+000	-1.9918044448e+000
 8.0973789495e-001	 1.8287494474e+000	-1.9759227532e+000
 7.9141346985e-001	 1.8367538539e+000	-1.9449808535e+000
 7.7304518882e-001	 1.8445598760e+000	-1.8995212235e+000
 7.5463614479e-001	 1.8521674571e+000	-1.8401082244e+000
 7.3618941913e-001	 1.8595766021e+000	-1.7673271176e+000
 9.3007155093e-001	 1.7987751138e+000	-1.4399915576e+000
 9.1185072306e-001	 1.8080799924e+000	-1.4862420579e+000
 8.9356654119e-001	 1.8171856912e+000	-1.5156549797e+000
 8.7522217479e-001	 1.8260917679e+000	-1.5286654398e+000
 8.5682079102e-001	 1.8347978450e+000	-1.5257346078e+000
 8.3836555308e-001	 1.8433036102e+000	-1.5073488626e+000
 8.1985961864e-001	 1.8516088155e+000	-1.4740189132e+000
 8.0130613823e-001	 1.8597132771e+000	-1.4262788878e+000
 7.8270825368e-001	 1.8676168744e+000	-1.3646853914e+000
 7.6406909660e-001	 1.8753195503e+000	-1.2930971228e+000
 7.4539178687e-001	 1.8828213097e+000	-1.2802186307e+000
 9.4155391576e-001	 1.8209822140e+000	-1.0976252383e+000
 9.2310813940e-001	 1.8304019676e+000	-1.1232760293e+000
 9.0459822689e-001	 1.8396200825e+000	-1.1326100918e+000
 8.8602738683e-001	 1.8486361107e+000	-1.1260786141e+000
 8.6739882548e-001	 1.8574496703e+000	-1.1041585661e+000
 8.4871574509e-001	 1.8660604449e+000	-1.0673518412e+000
 8.2998134233e-001	 1.8744681836e+000	-1.0161843645e+000
 8.1119880660e-001	 1.8826727002e+000	-1.0372148990e+000
 7.9237131854e-001	 1.8906738729e+000	-1.0450054078e+000
 7.7350204841e-001	 1.8984716435e+000	-1.0337652352e+000
 7.5459415461e-001	 1.9060660172e+000	-1.0038051986e+000
 9.5303628058e-001	 1.8431893142e+000	-8.0099379847e-001
 9.3436555573e-001	 1.8527239428e+000	-8.0590470746e-001
 9.1562991258e-001	 1.8620544737e+000	-7.9496716078e-001
 8.9683259886e-001	 1.8711804535e+000	-7.6864866816e-001
 8.7797685993e-001	 1.8801014955e+000	-7.8913326909e-001
 8.5906593711e-001	 1.8888172796e+000	-8.3683616859e-001
 8.4010306601e-001	 1.8973275517e+000	-8.6523615187e-001
 8.2109147497e-001	 1.9056321234e+000	-8.7454568436e-001
 8.0203438340e-001	 1.9137308713e+000	-8.6499994060e-001
 7.8293500022e-001	 1.9216237367e+000	-8.3685762411e-001
 7.6379652235e-001	 1.9293107247e+000	-7.9040173586e-001
 9.6451864541e-001	 1.8653964143e+000	-5.5022819111e-001
 9.4562297206e-001	 1.8750459180e+000	-5.3482400278e-001
 9.2666159827e-001	 1.8844888650e+000	-6.2185833443e-001
 9.0763781090e-001	 1.8937247963e+000	-6.8964705025e-001
 8.8855489439e-001	 1.9027533208e+000	-7.3831350513e-001
 8.6941612912e-001	 1.9115741143e+000	-7.6800029769e-001
 8.5022478970e-001	 1.9201869198e+000	-7.7887031825e-001
 8.3098414334e-001	 1.9285915466e+000	-7.7110775395e-001
 8.1169744825e-001	 1.9367878698e+000	-7.4491904776e-001
 7.9236795203e-001	 1.9447758299e+000	-7.0053380809e-001
 7.7299889008e-001	 1.9525554322e+000	-6.3820566595e-001
 9.7600101023e-001	 1.8876035145e+000	-5.0654497700e-001
 9.5688038840e-001	 1.8973678932e+000	-5.9360981471e-001
 9.3769328397e-001	 1.9069232562e+000	-6.6189586912e-001
 9.1844302293e-001	 1.9162691391e+000	-7.1148103806e-001
 8.9913292885e-001	 1.9254051460e+000	-7.4246057068e-001
 8.7976632113e-001	 1.9343309490e+000	-7.5494824923e-001
 8.6034651339e-001	 1.9430462879e+000	-7.4907753135e-001
 8.4087681172e-001	 1.9515509698e+000	-7.2500264930e-001
 8.2136051311e-001	 1.9598448682e+000	-6.8289966217e-001
 8.0180090384e-001	 1.9679279231e+000	-6.2296745797e-001
 7.8220125782e-001	 1.9758001398e+000	-5.4542870208e-001
 9.8748337506e-001	 1.9098106147e+000	-6.3401146301e-001
 9.6813780473e-001	 1.9196898685e+000	-7.0269229615e-001
 9.4872496966e-001	 1.9293576475e+000	-7.5314707790e-001
 9.2924823496e-001	 1.9388134820e+000	-7.8542462274e-001
 9.0971096330e-001	 1.9480569713e+000	-7.9959030328e-001
 8.9011651315e-001	 1.9570877837e+000	-7.9572732958e-001
 8.7046823707e-001	 1.9659056560e+000	-7.7393798885e-001
 8.5076948009e-001	 1.9745103929e+000	-7.3434484149e-001
 8.3102357797e-001	 1.9829018667e+000	-6.7709186951e-001
 8.1123385565e-001	 1.9910800163e+000	-6.0234557379e-001
 7.9140362556e-001	 1.9990448473e+000	-5.1029601648e-001
 9.9896573988e-001	 1.9320177149e+000	-8.0875274839e-001
 9.7939522106e-001	 1.9420118437e+000	-8.6001179355e-001
 9.5975665535e-001	 1.9517920388e+000	-8.9357975198e-001
 9.4005344700e-001	 1.9613578248e+000	-9.0947453468e-001
 9.2028899776e-001	 1.9707087965e+000	-9.0772982877e-001
 9.0046670516e-001	 1.9798446184e+000	-8.8839647743e-001
 8.8058996076e-001	 1.9887650241e+000	-8.5154382006e-001
 8.6066214846e-001	 1.9974698161e+000	-7.9726098807e-001
 8.4068664283e-001	 2.0059588651e+000	-7.2565815243e-001
 8.2066680746e-001	 2.0142321096e+000	-6.3686771881e-001
 8.0060599330e-001	 2.0222895548e+000	-5.3104546682e-001
 1.0104481047e+000	 1.9542248150e+000	-1.0286921938e+000
 9.9065263740e-001	 1.9643338189e+000	-1.0635180739e+000
 9.7078834105e-001	 1.9742264300e+000	-1.0811715542e+000
 9.5085865903e-001	 1.9839021676e+000	-1.0816377847e+000
 9.3086703222e-001	 1.9933606218e+000	-1.0649169199e+000
 9.1081689717e-001	 2.0026014531e+000	-1.0310256028e+000
 8.9071168444e-001	 2.0116243922e+000	-9.7999840795e-001
 8.7055481683e-001	 2.0204292393e+000	-9.1188924065e-001
 8.5034970769e-001	 2.0290158636e+000	-8.2677268612e-001
 8.3009975926e-001	 2.0373842028e+000	-7.2474530569e-001
 8.0980836103e-001	 2.0455342623e+000	-6.0592687551e-001
 1.0219304695e+000	 1.9764319152e+000	-1.2917615856e+000
 1.0019100537e+000	 1.9866557941e+000	-1.3111697955e+000
 9.8182002674e-001	 1.9966608213e+000	-1.3139094643e+000
 9.6166387107e-001	 2.0064465104e+000	-1.2999310862e+000
 9.4144506667e-001	 2.0160124470e+000	-1.2691993983e+000
 9.2116708919e-001	 2.0253582878e+000	-1.2216949706e+000
 9.0083340813e-001	 2.0344837603e+000	-1.1574157570e+000
 8.8044748521e-001	 2.0433886625e+000	-1.0763785992e+000
 8.6001277255e-001	 2.0520728620e+000	-9.7862068150e-001
 8.3953271107e-001	 2.0605362960e+000	-8.6420093081e-001
 8.1901072877e-001	 2.0687789699e+000	-7.3320135747e-001
 1.0334128344e+000	 1.9986390154e+000	-1.5959006680e+000
 1.0131674701e+000	 2.0089777693e+000	-1.6009340141e+000
 9.9285171243e-001	 2.0190952125e+000	-1.5897892615e+000
 9.7246908310e-001	 2.0289908532e+000	-1.5623803168e+000
 9.5202310113e-001	 2.0386642723e+000	-1.5186345759e+000
 9.3151728120e-001	 2.0481151225e+000	-1.4584946256e+000
 9.1095513182e-001	 2.0573431284e+000	-1.3819199030e+000
 8.9034015358e-001	 2.0663480856e+000	-1.2888883091e+000
 8.6967583741e-001	 2.0751298605e+000	-1.1793977720e+000
 8.4896566288e-001	 2.0836883892e+000	-1.0534677529e+000
 8.2821309651e-001	 2.0920236774e+000	-9.1114069280e-001
 7.3618941913e-001	 1.8595766021e+000	-1.7673271176e+000
 7.1770808012e-001	 1.8667873772e+000	-1.6162929787e+000
 6.9919518155e-001	 1.8737999088e+000	-1.4198737926e+000
 6.8065376130e-001	 1.8806143829e+000	-1.2268558762e+000
 6.6208683995e-001	 1.8872310448e+000	-9.9558922402e-001
 6.4349741945e-001	 1.8936501977e+000	-7.1731024593e-001
 6.2488848178e-001	 1.8998722024e+000	-3.9774399357e-001
 6.0626298769e-001	 1.9058974762e+000	-6.9493555991e-001
 5.8762387544e-001	 1.9117264922e+000	-9.5857125554e-001
 5.6897405956e-001	 1.9173597783e+000	-1.1910632090e+000
 5.5031642970e-001	 1.9227979164e+000	-1.3948404748e+000
 7.4539178687e-001	 1.8828213097e+000	-1.2802186307e+000
 7.2667943112e-001	 1.8901222194e+000	-1.2235497362e+000
 7.0793512132e-001	 1.8972224076e+000	-1.1189854662e+000
 6.8916193331e-001	 1.9041220627e+000	-9.6801915904e-001
 6.7036292545e-001	 1.9108214328e+000	-7.7218301113e-001
 6.5154113719e-001	 1.9173208252e+000	-5.3304712527e-001
 6.3269958780e-001	 1.9236206049e+000	-2.5221850718e-001
 6.1384127504e-001	 1.9297211947e+000	-3.2447941063e-001
 5.9496917388e-001	 1.9356230734e+000	-6.3636345262e-001
 5.7608623530e-001	 1.9413267756e+000	-9.2043235215e-001
 5.5719538508e-001	 1.9468328903e+000	-1.1790303356e+000
 7.5459415461e-001	 1.9060660172e+000	-1.0038051986e+000
 7.3565078212e-001	 1.9134570617e+000	-9.6629611914e-001
 7.1667506109e-001	 1.9206449065e+000	-8.8495955946e-001
 6.9767010533e-001	 1.9276297425e+000	-7.6113122917e-001
 6.7863901094e-001	 1.9344118209e+000	-5.9618418546e-001
 6.5958485493e-001	 1.9409914526e+000	-3.9152811025e-001
 6.4051069382e-001	 1.9473690074e+000	-1.4860853220e-001
 6.2141956238e-001	 1.9535449131e+000	 6.9457968363e-003
 6.0231447232e-001	 1.9595196545e+000	-3.4536780812e-001
 5.8319841105e-001	 1.9652937728e+000	-6.7306824829e-001
 5.6407434045e-001	 1.9708678643e+000	-9.7842060413e-001
 7.6379652235e-001	 1.9293107247e+000	-7.9040173586e-001
 7.4462213312e-001	 1.9367919039e+000	-7.6809315258e-001
 7.2541500086e-001	 1.9440674054e+000	-7.0590339051e-001
 7.0617827734e-001	 1.9511374223e+000	-6.0501169231e-001
 6.8691509644e-001	 1.9580022090e+000	-4.6663320035e-001
 6.6762857267e-001	 1.9646620801e+000	-2.9201846181e-001
 6.4832179984e-001	 1.9711174100e+000	-8.2452875791e-002
 6.2899784972e-001	 1.9773686316e+000	 1.6074391733e-001
 6.0965977076e-001	 1.9834162357e+000	-8.8458393727e-002
 5.9031058679e-001	 1.9892607700e+000	-4.5198975925e-001
 5.7095329582e-001	 1.9949028382e+000	-7.9617769418e-001
 7.7299889008e-001	 1.9525554322e+000	-6.3820566595e-001
 7.5359348412e-001	 1.9601267461e+000	-6.2733842448e-001
 7.3415494062e-001	 1.9674899042e+000	-5.8041889744e-001
 7.1468644936e-001	 1.9746451021e+000	-4.9847088726e-001
 6.9519118194e-001	 1.9815925970e+000	-3.8255270941e-001
 6.7567229041e-001	 1.9883327076e+000	-2.3375692515e-001
 6.5613290586e-001	 1.9948658125e+000	-5.3210013425e-002
 6.3657613707e-001	 2.0011923500e+000	 1.5792801822e-001
 6.1700506920e-001	 2.0073128168e+000	 1.3154443025e-001
 5.9742276253e-001	 2.0132277673e+000	-2.6015263832e-001
 5.7783225119e-001	 2.0189378122e+000	-6.3539535640e-001
 7.8220125782e-001	 1.9758001398e+000	-5.4542870208e-001
 7.6256483512e-001	 1.9834615883e+000	-5.4243632685e-001
 7.4289488039e-001	 1.9909124031e+000	-5.0710715041e-001
 7.2319462137e-001	 1.9981527819e+000	-4.4031043107e-001
 7.0346726743e-001	 2.0051829851e+000	-3.4294861359e-001
 6.8371600815e-001	 2.0120033350e+000	-2.1595728952e-001
 6.6394401188e-001	 2.0186142150e+000	-6.0305093719e-002
 6.4415442441e-001	 2.0250160685e+000	 1.2300646353e-001
 6.2435036764e-001	 2.0312093980e+000	 3.1187085546e-001
 6.0453493827e-001	 2.0371947645e+000	-1.0045324244e-001
 5.8471120656e-001	 2.0429727862e+000	-4.9909895280e-001
 7.9140362556e-001	 1.9990448473e+000	-5.1029601648e-001
 7.7153618612e-001	 2.0067964305e+000	-5.1179766024e-001
 7.5163482016e-001	 2.0143349019e+000	-4.8456840214e-001
 7.3170279338e-001	 2.0216604616e+000	-4.2932372611e-001
 7.1174335293e-001	 2.0287733731e+000	-3.4681103512e-001
 6.9175972589e-001	 2.0356739625e+000	-2.3780983911e-001
 6.7175511790e-001	 2.0423626176e+000	-1.0313187606e-001
 6.5173271175e-001	 2.0488397869e+000	 5.6378834828e-002
 6.3169566608e-001	 2.0551059791e+000	 2.3984600847e-001
 6.1164711402e-001	 2.0611617617e+000	 2.4268014461e-002
 5.9159016193e-001	 2.0670077601e+000	-3.9024943277e-001
 8.0060599330e-001	 2.0222895548e+000	-5.3104546682e-001
 7.8050753712e-001	 2.0301312727e+000	-5.3383926539e-001
 7.6037475992e-001	 2.0377574008e+000	-5.1140213483e-001
 7.4021096540e-001	 2.0451681414e+000	-4.6429643218e-001
 7.2001943843e-001	 2.0523637612e+000	-3.9311522438e-001
 6.9980344363e-001	 2.0593445900e+000	-2.9848270394e-001
 6.7956622392e-001	 2.0661110201e+000	-1.8105453459e-001
 6.5931099910e-001	 2.0726635054e+000	-4.1518125498e-002
 6.3904096452e-001	 2.0790025603e+000	 1.1940716687e-001
 6.1875928976e-001	 2.0851287589e+000	 1.1122344641e-001
 5.9846911730e-001	 2.0910427341e+000	-3.1174703496e-001
 8.0980836103e-001	 2.0455342623e+000	-6.0592687551e-001
 7.8947888812e-001	 2.0534661149e+000	-6.0698368010e-001
 7.6911469969e-001	 2.0611798997e+000	-5.8620710396e-001
 7.4871913741e-001	 2.0686758212e+000	-5.4400690641e-001
 7.2829552392e-001	 2.0759541493e+000	-4.8082240487e-001
 7.0784716137e-001	 2.0830152175e+000	-3.9712311861e-001
 6.8737732993e-001	 2.0898594226e+000	-2.9340933916e-001
 6.6688928644e-001	 2.0964872238e+000	-1.7021262567e-001
 6.4638626296e-001	 2.1028991414e+000	-2.8096223948e-002
 6.2587146550e-001	 2.1090957562e+000	 1.3234459205e-001
 6.0534807266e-001	 2.1150777080e+000	-2.6643473673e-001
 8.1901072877e-001	 2.0687789699e+000	-7.3320135747e-001
 7.9845023912e-001	 2.0768009572e+000	-7.2965881912e-001
 7.7785463946e-001	 2.0846023985e+000	-7.0758137915e-001
 7.5722730942e-001	 2.0921835010e+000	-6.6722661356e-001
 7.3657160942e-001	 2.0995445373e+000	-6.0888056124e-001
 7.1589087911e-001	 2.1066858449e+000	-5.3285859621e-001
 6.9518843595e-001	 2.1136078252e+000	-4.3950622302e-001
 6.7446757378e-001	 2.1203109423e+000	-3.2919979360e-001
 6.5373156140e-001	 2.1267957226e+000	-2.0234714348e-001
 6.3298364124e-001	 2.1330627534e+000	-5.9388146274e-002
 6.1222702803e-001	 2.1391126820e+000	-2.5710147113e-001
 8.2821309651e-001	 2.0920236774e+000	-9.1114069280e-001
 8.0742159012e-001	 2.1001357994e+000	-9.0029767544e-001
 7.8659457923e-001	 2.1080248974e+000	-8.7412238221e-001
 7.6573548144e-001	 2.1156911808e+000	-8.3272050889e-001
 7.4484769492e-001	 2.1231349254e+000	-7.7622517480e-001
 7.2393459685e-001	 2.1303564724e+000	-7.0479802394e-001
 7.0299954197e-001	 2.1373562277e+000	-6.1863024595e-001
 6.8204586113e-001	 2.1441346607e+000	-5.1794351465e-001
 6.6107685984e-001	 2.1506923038e+000	-4.0299084183e-001
 6.4009581698e-001	 2.1570297506e+000	-2.7405734471e-001
 6.1910598340e-001	 2.1631476559e+000	-2.8648512931e-001
 5.5031642970e-001	 1.9227979164e+000	-1.3948404748e+000
 5.3165384949e-001	 1.9280415411e+000	-1.2878363414e+000
 5.1298915537e-001	 1.9330913394e+000	-1.1729008515e+000
 4.9432515561e-001	 1.9379480490e+000	-1.0515508624e+000
 4.7566462918e-001	 1.9426124576e+000	-9.2530393618e-001
 4.5701032483e-001	 1.9470854021e+000	-7.9567543074e-001
 4.3836496008e-001	 1.9513677669e+000	-6.6417566062e-001
 4.1973122034e-001	 1.9554604835e+000	-5.3230713225e-001
 4.0111175798e-001	 1.9593645290e+000	-4.0156185777e-001
 3.8250919152e-001	 1.9630809251e+000	-2.7341875187e-001
 3.6392610484e-001	 1.9666107368e+000	-1.4934111512e-001
 5.5719538508e-001	 1.9468328903e+000	-1.1790303356e+000
 5.3829952261e-001	 1.9521420604e+000	-1.0932929505e+000
 5.1940151982e-001	 1.9572549812e+000	-9.9685246835e-001
 5.0050422005e-001	 1.9621723996e+000	-8.9136532672e-001
 4.8161043705e-001	 1.9668951134e+000	-7.7848925610e-001
 4.6272295389e-001	 1.9714239696e+000	-6.5988017051e-001
 4.4384452209e-001	 1.9757598640e+000	-5.3718913128e-001
 4.2497786060e-001	 1.9799037396e+000	-4.1205938951e-001
 4.0612565496e-001	 1.9838565856e+000	-2.8612351162e-001
 3.8729055642e-001	 1.9876194366e+000	-1.6100059259e-001
 3.6847518115e-001	 1.9911933711e+000	-3.8293560603e-002
 5.6407434045e-001	 1.9708678643e+000	-9.7842060413e-001
 5.4494519573e-001	 1.9762425797e+000	-9.1375367553e-001
 5.2581388426e-001	 1.9814186229e+000	-8.3562814553e-001
 5.0668328450e-001	 1.9863967502e+000	-7.4584131398e-001
 4.8755624491e-001	 1.9911777691e+000	-6.4619234700e-001
 4.6843558295e-001	 1.9957625371e+000	-5.3847896425e-001
 4.4932408409e-001	 2.0001519611e+000	-4.2449420357e-001
 4.3022450086e-001	 2.0043469956e+000	-3.0602326847e-001
 4.1113955194e-001	 2.0083486423e+000	-1.8484046336e-001
 3.9207192132e-001	 2.0121579482e+000	-6.2706221087e-002
 3.7302425746e-001	 2.0157760053e+000	 5.8635772945e-002
 5.7095329582e-001	 1.9949028382e+000	-7.9617769418e-001
 5.5159086884e-001	 2.0003430989e+000	-7.5224655078e-001
 5.3222624870e-001	 2.0055822646e+000	-6.9211561720e-001
 5.1286234895e-001	 2.0106211008e+000	-6.1772442931e-001
 4.9350205278e-001	 2.0154604248e+000	-5.3101494739e-001
 4.7414821202e-001	 2.0201011047e+000	-4.3392803776e-001
 4.5480364609e-001	 2.0245440582e+000	-3.2840003596e-001
 4.3547114111e-001	 2.0287902517e+000	-2.1635939693e-001
 4.1615344891e-001	 2.0328406989e+000	-9.9723437734e-002
 3.9685328622e-001	 2.0366964598e+000	 1.9604822674e-002
 3.7757333378e-001	 2.0403586395e+000	 1.3973972185e-001
 5.7783225119e-001	 2.0189378122e+000	-6.3539535640e-001
 5.5823654196e-001	 2.0244436182e+000	-6.1173098510e-001
 5.3863861314e-001	 2.0297459064e+000	-5.6913809983e-001
 5.1904141339e-001	 2.0348454514e+000	-5.0969993523e-001
 4.9944786064e-001	 2.0397430805e+000	-4.3550269349e-001
 4.7986084108e-001	 2.0444396722e+000	-3.4863181786e-001
 4.6028320810e-001	 2.0489361553e+000	-2.5116835180e-001
 4.4071778137e-001	 2.0532335077e+000	-1.4518538966e-001
 4.2116734589e-001	 2.0573327555e+000	-3.2744624445e-002
 4.0163465111e-001	 2.0612349713e+000	 8.4107002189e-002
 3.8212241009e-001	 2.0649412737e+000	 2.0334054309e-001
 5.8471120656e-001	 2.0429727862e+000	-4.9909895280e-001
 5.6488221508e-001	 2.0485441375e+000	-4.9510179889e-001
 5.4505097759e-001	 2.0539095481e+000	-4.6945808733e-001
 5.2522047784e-001	 2.0590698020e+000	-4.2439630122e-001
 5.0539366851e-001	 2.0640257362e+000	-3.6214841944e-001
 4.8557347014e-001	 2.0687782397e+000	-2.8494597938e-001
 4.6576277010e-001	 2.0733282524e+000	-1.9501622962e-001
 4.4596442162e-001	 2.0776767638e+000	-9.4578378544e-002
 4.2618124287e-001	 2.0818248121e+000	 1.4160055058e-002
 4.0641601601e-001	 2.0857734829e+000	 1.2900678421e-001
 3.8667148640e-001	 2.0895239079e+000	 2.4778818368e-001
 5.9159016193e-001	 2.0670077601e+000	-3.9024943277e-001
 5.7152788820e-001	 2.0726446567e+000	-4.0519297918e-001
 5.5146334203e-001	 2.0780731899e+000	-3.9578088142e-001
 5.3139954228e-001	 2.0832941527e+000	-3.6438850565e-001
 5.1133947637e-001	 2.0883083920e+000	-3.1339522712e-001
 4.9128609920e-001	 2.0931168073e+000	-2.4518027958e-001
 4.7124233210e-001	 2.0977203495e+000	-1.6211869871e-001
 4.5121106188e-001	 2.1021200198e+000	-6.6577366291e-002
 4.3119513984e-001	 2.1063168687e+000	 3.9088838975e-002
 4.1119738090e-001	 2.1103119945e+000	 1.5254077809e-001
 3.9122056271e-001	 2.1141065421e+000	 2.7145867081e-001
 5.9846911730e-001	 2.0910427341e+000	-3.1174703496e-001
 5.7817356131e-001	 2.0967451760e+000	-3.4478117581e-001
 5.5787570647e-001	 2.1022368316e+000	-3.5075787858e-001
 5.3757860672e-001	 2.1075185033e+000	-3.3220110996e-001
 5.1728528424e-001	 2.1125910477e+000	-2.9163934436e-001
 4.9699872826e-001	 2.1174553748e+000	-2.3160119708e-001
 4.7672189410e-001	 2.1221124465e+000	-1.5461115582e-001
 4.5645770213e-001	 2.1265632759e+000	-6.3185417722e-002
 4.3620903682e-001	 2.1308089253e+000	 4.0172161953e-002
 4.1597874580e-001	 2.1348505060e+000	 1.5297400344e-001
 3.9576963903e-001	 2.1386891763e+000	 2.7275261291e-001
 6.0534807266e-001	 2.1150777080e+000	-2.6643473673e-001
 5.8481923443e-001	 2.1208456953e+000	-3.1658895925e-001
 5.6428807091e-001	 2.1264004734e+000	-3.3698963279e-001
 5.4375767117e-001	 2.1317428539e+000	-3.3031112328e-001
 5.2323109210e-001	 2.1368737034e+000	-2.9923278826e-001
 5.0271135732e-001	 2.1417939423e+000	-2.4643439090e-001
 4.8220145610e-001	 2.1465045436e+000	-1.7459161692e-001
 4.6170434238e-001	 2.1510065319e+000	-8.6371701711e-002
 4.4122293379e-001	 2.1553009819e+000	 1.5570825744e-002
 4.2076011069e-001	 2.1593890176e+000	 1.2859827593e-001
 4.0031871534e-001	 2.1632718105e+000	 2.5009380307e-001
 6.1222702803e-001	 2.1391126820e+000	-2.5710147113e-001
 5.9146490754e-001	 2.1449462145e+000	-3.2328785873e-001
 5.7070043534e-001	 2.1505641151e+000	-3.5702871190e-001
 5.4993673561e-001	 2.1559672045e+000	-3.6115067391e-001
 5.2917689996e-001	 2.1611563591e+000	-3.3848584888e-001
 5.0842398637e-001	 2.1661325098e+000	-2.9186699367e-001
 4.8768101810e-001	 2.1708966407e+000	-2.2412281731e-001
 4.6695098264e-001	 2.1754497879e+000	-1.3807339545e-001
 4.4623683076e-001	 2.1797930386e+000	-3.6525706813e-002
 4.2554147558e-001	 2.1839275292e+000	 7.7730701887e-002
 4.0486779165e-001	 2.1878544447e+000	 2.0192791648e-001
 6.1910598340e-001	 2.1631476559e+000	-2.8648512931e-001
 5.9811058066e-001	 2.1690467338e+000	-3.6750119791e-001
 5.7711279978e-001	 2.1747277568e+000	-4.1338236350e-001
 5.5611580005e-001	 2.1801915551e+000	-4.2710950268e-001
 5.3512270782e-001	 2.1854390149e+000	-4.1166940746e-001
 5.1413661543e-001	 2.1904710774e+000	-3.7004975201e-001
 4.9316058010e-001	 2.1952887378e+000	-3.0523417165e-001
 4.7219762289e-001	 2.1998930440e+000	-2.2019746178e-001
 4.5125072774e-001	 2.2042850952e+000	-1.1790090408e-001
 4.3032284048e-001	 2.2084660407e+000	-1.2877267659e-003
 4.0941686796e-001	 2.2124370789e+000	 1.2672129479e-001
 3.6392610484e-001	 1.9666107368e+000	-1.4934111512e-001
 3.4536504635e-001	 1.9699550718e+000	-1.0640963478e-001
 3.2682852835e-001	 1.9731150785e+000	-5.9760652962e-002
 3.0831902626e-001	 1.9760919458e+000	-1.1200778714e-002
 2.8983897805e-001	 1.9788869010e+000	 3.7486039848e-002
 2.7139078356e-001	 1.9815012093e+000	 8.4540995682e-002
 2.5297680396e-001	 1.9839361725e+000	 1.2823279286e-001
 2.3459936123e-001	 1.9861931275e+000	 1.6685990461e-001
 2.1626073764e-001	 1.9882734453e+000	 1.9875271787e-001
 1.9796317532e-001	 1.9901785300e+000	 2.2227556307e-001
 1.7970887579e-001	 1.9919098172e+000	 2.3582862826e-001
 3.6847518115e-001	 1.9911933711e+000	-3.8293560603e-002
 3.4968210943e-001	 1.9945795102e+000	-9.5026079768e-003
 3.3091388495e-001	 1.9977790170e+000	 2.3839380080e-002
 3.1217301410e-001	 2.0007930951e+000	 5.9822641568e-002
 2.9346196528e-001	 2.0036229872e+000	 9.6561095209e-002
 2.7478316835e-001	 2.0062699745e+000	 1.3219494454e-001
 2.5613901401e-001	 2.0087353747e+000	 1.6489316681e-001
 2.3753185325e-001	 2.0110205416e+000	 1.9285588467e-001
 2.1896399687e-001	 2.0131268634e+000	 2.1431661913e-001
 2.0043771501e-001	 2.0150557616e+000	 2.2754442235e-001
 1.8195523674e-001	 2.0168086899e+000	 2.3084588947e-001
 3.7302425746e-001	 2.0157760053e+000	 5.8635772945e-002
 3.5399917252e-001	 2.0192039486e+000	 7.4668736547e-002
 3.3499924156e-001	 2.0224429555e+000	 9.6068361044e-002
 3.1602700193e-001	 2.0254942444e+000	 1.2082002635e-001
 2.9708495251e-001	 2.0283590735e+000	 1.4693385151e-001
 2.7817555315e-001	 2.0310387396e+000	 1.7244742468e-001
 2.5930122406e-001	 2.0335345769e+000	 1.9542841267e-001
 2.4046434526e-001	 2.0358479557e+000	 2.1397704795e-001
 2.2166725609e-001	 2.0379802815e+000	 2.2622849155e-001
 2.0291225470e-001	 2.0399329932e+000	 2.3035507040e-001
 1.8420159768e-001	 2.0417075627e+000	 2.2456838813e-001
 3.7757333378e-001	 2.0403586395e+000	 1.3973972185e-001
 3.5831623560e-001	 2.0438283870e+000	 1.4449996569e-001
 3.3908459817e-001	 2.0471068940e+000	 1.5542523133e-001
 3.1988098976e-001	 2.0501953937e+000	 1.7039427125e-001
 3.0070793974e-001	 2.0530951598e+000	 1.8731167473e-001
 2.8156793795e-001	 2.0558075047e+000	 2.0411072565e-001
 2.6246343411e-001	 2.0583337790e+000	 2.1875613451e-001
 2.4339683728e-001	 2.0606753698e+000	 2.2924664256e-001
 2.2437051531e-001	 2.0628336995e+000	 2.3361749623e-001
 2.0538679439e-001	 2.0648102249e+000	 2.2994279042e-001
 1.8644795863e-001	 2.0666064354e+000	 2.1633767980e-001
 3.8212241009e-001	 2.0649412737e+000	 2.0334054309e-001
 3.6263329868e-001	 2.0684528254e+000	 1.9841385187e-001
 3.4316995478e-001	 2.0717708325e+000	 2.0043389374e-001
 3.2373497759e-001	 2.0748965430e+000	 2.0717096138e-001
 3.0433092696e-001	 2.0778312460e+000	 2.1642232177e-001
 2.8496032274e-001	 2.0805762698e+000	 2.2601520387e-001
 2.6562564417e-001	 2.0831329812e+000	 2.3380965500e-001
 2.4632932930e-001	 2.0855027839e+000	 2.3770126384e-001
 2.2707377453e-001	 2.0876871176e+000	 2.3562374808e-001
 2.0786133409e-001	 2.0896874565e+000	 2.2555140529e-001
 1.8869431958e-001	 2.0915053081e+000	 2.0550142597e-001
 3.8667148640e-001	 2.0895239079e+000	 2.4778818368e-001
 3.6695036176e-001	 2.0930772638e+000	 2.3485877271e-001
 3.4725531138e-001	 2.0964347709e+000	 2.2964174417e-001
 3.2758896542e-001	 2.0995976924e+000	 2.2979703664e-001
 3.0795391419e-001	 2.1025673323e+000	 2.3301274098e-001
 2.8835270754e-001	 2.1053450349e+000	 2.3700821991e-001
 2.6878785422e-001	 2.1079321833e+000	 2.3953709076e-001
 2.4926182132e-001	 2.1103301980e+000	 2.3839006914e-001
 2.2977703375e-001	 2.1125405357e+000	 2.3139767152e-001
 2.1033587378e-001	 2.1145646881e+000	 2.1643277525e-001
 1.9094068053e-001	 2.1164041808e+000	 1.9141303486e-001
 3.9122056271e-001	 2.1141065421e+000	 2.7145867081e-001
 3.7126742484e-001	 2.1177017022e+000	 2.5230722237e-001
 3.5134066799e-001	 2.1210987094e+000	 2.4161830572e-001
 3.3144295325e-001	 2.1242988417e+000	 2.3693955018e-001
 3.1157690142e-001	 2.1273034185e+000	 2.3584795638e-001
 2.9174509234e-001	 2.1301138000e+000	 2.3595314988e-001
 2.7195006427e-001	 2.1327313855e+000	 2.3490049231e-001
 2.5219431333e-001	 2.1351576121e+000	 2.3037404755e-001
 2.3248029298e-001	 2.1373939537e+000	 2.2009940105e-001
 2.1281041347e-001	 2.1394419197e+000	 2.0184633057e-001
 1.9318704148e-001	 2.1413030535e+000	 1.7343132732e-001
 3.9576963903e-001	 2.1386891763e+000	 2.7275261291e-001
 3.7558448792e-001	 2.1423261406e+000	 2.4925442551e-001
 3.5542602459e-001	 2.1457626479e+000	 2.3495395703e-001
 3.3529694108e-001	 2.1489999910e+000	 2.2728451245e-001
 3.1519988865e-001	 2.1520395048e+000	 2.2371002880e-001
 2.9513747713e-001	 2.1548825652e+000	 2.2172846496e-001
 2.7511227432e-001	 2.1575305876e+000	 2.1887504320e-001
 2.5512680535e-001	 2.1599850262e+000	 2.1272533987e-001
 2.3518355220e-001	 2.1622473718e+000	 2.0089822322e-001
 2.1528495317e-001	 2.1643191514e+000	 1.8105863656e-001
 1.9543340243e-001	 2.1662019262e+000	 1.5092022575e-001
 4.0031871534e-001	 2.1632718105e+000	 2.5009380307e-001
 3.7990155100e-001	 2.1669505789e+000	 2.2421704581e-001
 3.5951138120e-001	 2.1704265864e+000	 2.0825874729e-001
 3.3915092891e-001	 2.1737011403e+000	 1.9953581411e-001
 3.1882287587e-001	 2.1767755911e+000	 1.9539708795e-001
 2.9852986193e-001	 2.1796513303e+000	 1.9322687377e-001
 2.7827448437e-001	 2.1823297898e+000	 1.9044831386e-001
 2.5805929737e-001	 2.1848124402e+000	 1.8452660500e-001
 2.3788681142e-001	 2.1871007899e+000	 1.7297205661e-001
 2.1775949286e-001	 2.1891963830e+000	 1.5334298811e-001
 1.9767976337e-001	 2.1911007990e+000	 1.2324846427e-001
 4.0486779165e-001	 2.1878544447e+000	 2.0192791648e-001
 3.8421861408e-001	 2.1915750173e+000	 1.7573198154e-001
 3.6359673781e-001	 2.1950905249e+000	 1.6016129115e-001
 3.4300491674e-001	 2.1984022896e+000	 1.5241422147e-001
 3.2244586310e-001	 2.2015116773e+000	 1.4972242959e-001
 3.0192224673e-001	 2.2044200954e+000	 1.4935452247e-001
 2.8143669442e-001	 2.2071289919e+000	 1.4861956569e-001
 2.6099178938e-001	 2.2096398543e+000	 1.4487042904e-001
 2.4059007064e-001	 2.2119542079e+000	 1.3550696693e-001
 2.2023403255e-001	 2.2140736146e+000	 1.1797903166e-001
 1.9992612432e-001	 2.2159996717e+000	 8.9789318361e-002
 4.0941686796e-001	 2.2124370789e+000	 1.2672129479e-001
 3.8853567716e-001	 2.2161994557e+000	 1.0235524138e-001
 3.6768209441e-001	 2.2197544633e+000	 8.9307737345e-002
 3.4685890457e-001	 2.2231034390e+000	 8.4656439019e-002
 3.2606885033e-001	 2.2262477636e+000	 8.5513673018e-002
 3.0531463152e-001	 2.2291888605e+000	 8.9030248272e-002
 2.8459890447e-001	 2.2319281941e+000	 9.2399101573e-002
 2.6392428140e-001	 2.2344672684e+000	 9.2858773775e-002
 2.4329332986e-001	 2.2368076260e+000	 8.7696714333e-002
 2.2270857224e-001	 2.2389508462e+000	 7.4252412318e-002
 2.0217248527e-001	 2.2408985444e+000	 4.9920352580e-002
 1.7970887579e-001	 1.9919098172e+000	 2.3582862826e-001
 1.6149999964e-001	 1.9934687733e+000	 3.2715249404e-001
 1.4333866613e-001	 1.9948568938e+000	 4.0888642884e-001
 1.2522695292e-001	 1.9960757025e+000	 4.7942152191e-001
 1.0716689577e-001	 1.9971267502e+000	 5.3719104635e-001
 8.9160488287e-002	 1.9980116134e+000	 5.8067190737e-001
 7.1209681760e-002	 1.9987318933e+000	 6.0838597316e-001
 5.3316384950e-002	 1.9992892145e+000	 6.1890128932e-001
 3.5482463963e-002	 1.9996852239e+000	 6.1083317815e-001
 1.7709742145e-002	 1.9999215897e+000	 5.8284522432e-001
 0.0000000000e+000	 2.0000000000e+000	 5.3365014848e-001
 1.8195523674e-001	 2.0168086899e+000	 2.3084588947e-001
 1.6351874963e-001	 2.0183871330e+000	 3.0888902929e-001
 1.4513039946e-001	 2.0197926050e+000	 3.7778843452e-001
 1.2679228983e-001	 2.0210266488e+000	 4.3586521430e-001
 1.0850648196e-001	 2.0220908346e+000	 4.8148380796e-001
 9.0274994390e-002	 2.0229867586e+000	 5.1305350779e-001
 7.2099802782e-002	 2.0237160419e+000	 5.2902985994e-001
 5.3982839761e-002	 2.0242803297e+000	 5.2791594438e-001
 3.5925994762e-002	 2.0246812892e+000	 5.0826353532e-001
 1.7931113921e-002	 2.0249206096e+000	 4.6867414355e-001
 0.0000000000e+000	 2.0250000000e+000	 4.0779994247e-001
 1.8420159768e-001	 2.0417075627e+000	 2.2456838813e-001
 1.6553749963e-001	 2.0433054926e+000	 2.9168271309e-001
 1.4692213278e-001	 2.0447283162e+000	 3.5004857356e-001
 1.2835762674e-001	 2.0459775951e+000	 3.9791556530e-001
 1.0984606816e-001	 2.0470549190e+000	 4.3357782769e-001
 9.1389500493e-002	 2.0479619037e+000	 4.5537564167e-001
 7.2989923804e-002	 2.0487001906e+000	 4.6169690117e-001
 5.4649294573e-002	 2.0492714448e+000	 4.5097845913e-001
 3.6369525562e-002	 2.0496773545e+000	 4.2170734937e-001
 1.8152485698e-002	 2.0499196295e+000	 3.7242188585e-001
 0.0000000000e+000	 2.0500000000e+000	 3.0171264119e-001
 1.8644795863e-001	 2.0666064354e+000	 2.1633767980e-001
 1.6755624962e-001	 2.0682238523e+000	 2.7493736286e-001
 1.4871386611e-001	 2.0696640273e+000	 3.2513360798e-001
 1.2992296366e-001	 2.0709285414e+000	 3.6510291882e-001
 1.1118565436e-001	 2.0720190034e+000	 3.9306762361e-001
 9.2504006597e-002	 2.0729370489e+000	 4.0729754905e-001
 7.3880044825e-002	 2.0736843393e+000	 4.0611156287e-001
 5.5315749384e-002	 2.0742625600e+000	 3.8787898643e-001
 3.6813056361e-002	 2.0746734198e+000	 3.5102087832e-001
 1.8373857475e-002	 2.0749186493e+000	 2.9401119090e-001
 0.0000000000e+000	 2.0750000000e+000	 2.1537780136e-001
 1.8869431958e-001	 2.0915053081e+000	 2.0550142597e-001
 1.6957499962e-001	 2.0931422120e+000	 2.5806254979e-001
 1.5050559944e-001	 2.0945997385e+000	 3.0251565332e-001
 1.3148830057e-001	 2.0958794877e+000	 3.3696252447e-001
 1.1252524055e-001	 2.0969830877e+000	 3.5955212481e-001
 9.3618512700e-002	 2.0979121941e+000	 3.6848234013e-001
 7.4770165847e-002	 2.0986684879e+000	 3.6200159488e-001
 5.5982204196e-002	 2.0992536752e+000	 3.3841033174e-001
 3.7256587160e-002	 2.0996694851e+000	 2.9606235748e-001
 1.8595229251e-002	 2.0999176692e+000	 2.3336605697e-001
 0.0000000000e+000	 2.1000000000e+000	 1.4878547700e-001
 1.9094068053e-001	 2.1164041808e+000	 1.9141303486e-001
 1.7159374962e-001	 2.1180605716e+000	 2.4047326041e-001
 1.5229733276e-001	 2.1195354497e+000	 2.8167186374e-001
 1.3305363748e-001	 2.1208304339e+000	 3.1303424904e-001
 1.1386482675e-001	 2.1219471721e+000	 3.3263441196e-001
 9.4733018803e-002	 2.1228873393e+000	 3.3859676762e-001
 7.5660286868e-002	 2.1236526366e+000	 3.2909783761e-001
 5.6648659007e-002	 2.1242447904e+000	 3.0236779704e-001
 3.7700117959e-002	 2.1246655504e+000	 2.5669188313e-001
 1.8816601028e-002	 2.1249166891e+000	 1.9041166694e-001
 0.0000000000e+000	 2.1250000000e+000	 1.0192619019e-001
 1.9318704148e-001	 2.1413030535e+000	 1.7343132732e-001
 1.7361249961e-001	 2.1429789313e+000	 2.2158958177e-001
 1.5408906609e-001	 2.1444711609e+000	 2.6208413905e-001
 1.3461897439e-001	 2.1457813802e+000	 2.9286230798e-001
 1.1520441295e-001	 2.1469112565e+000	 3.1192147590e-001
 9.5847524906e-002	 2.1478624844e+000	 3.1731101499e-001
 7.6550407890e-002	 2.1486367853e+000	 3.0713404244e-001
 5.7315113819e-002	 2.1492359056e+000	 2.7954903575e-001
 3.8143648758e-002	 2.1496616157e+000	 2.3277130433e-001
 1.9037972804e-002	 2.1499157090e+000	 1.6507431936e-001
 0.0000000000e+000	 2.1500000000e+000	 7.4790903828e-002
 1.9543340243e-001	 2.1662019262e+000	 1.5092022575e-001
 1.7563124961e-001	 2.1678972910e+000	 2.0083640825e-001
 1.5588079942e-001	 2.1694068720e+000	 2.4323885198e-001
 1.3618431130e-001	 2.1707323265e+000	 2.7599501555e-001
 1.1654399914e-001	 2.1718753409e+000	 2.9702399297e-001
 9.6962031009e-002	 2.1728376296e+000	 3.0429849923e-001
 7.7440528911e-002	 2.1736209339e+000	 2.9584670436e-001
 5.7981568630e-002	 2.1742270207e+000	 2.6975391752e-001
 3.8587179558e-002	 2.1746576810e+000	 2.2416412217e-001
 1.9259344581e-002	 2.1749147288e+000	 1.5728136439e-001
 0.0000000000e+000	 2.1750000000e+000	 6.7370996322e-002
 1.9767976337e-001	 2.1911007990e+000	 1.2324846427e-001
 1.7764999960e-001	 2.1928156506e+000	 1.7764316846e-001
 1.5767253274e-001	 2.1943425832e+000	 2.2462659407e-001
 1.3774964821e-001	 2.1956832728e+000	 2.6198455189e-001
 1.1788358534e-001	 2.1968394252e+000	 2.8755611557e-001
 9.8076537113e-002	 2.1978127748e+000	 2.9923568720e-001
 7.8330649933e-002	 2.1986050826e+000	 2.9497490612e-001
 5.8648023441e-002	 2.1992181359e+000	 2.7278440236e-001
 3.9030710357e-002	 2.1996537463e+000	 2.3073539594e-001
 1.9480716358e-002	 2.1999137487e+000	 1.6696114401e-001
 0.0000000000e+000	 2.2000000000e+000	 7.9658237965e-002
 1.9992612432e-001	 2.2159996717e+000	 8.9789318361e-002
 1.7966874960e-001	 2.2177340103e+000	 1.5144357052e-001
 1.5946426607e-001	 2.2192782944e+000	 2.0574193859e-001
 1.3931498512e-001	 2.2206342191e+000	 2.5038674584e-001
 1.1922317154e-001	 2.2218035096e+000	 2.8313527688e-001
 9.9191043216e-002	 2.2227879199e+000	 3.0180192426e-001
 7.9220770954e-002	 2.2235892313e+000	 3.0426017283e-001
 5.9314478253e-002	 2.2242092511e+000	 2.8844442318e-001
 3.9474241156e-002	 2.2246498116e+000	 2.5235165556e-001
 1.9702088134e-002	 2.2249127686e+000	 1.9404293633e-001
 0.0000000000e+000	 2.2250000000e+000	 1.1164476893e-001
 2.0217248527e-001	 2.2408985444e+000	 4.9920352580e-002
 1.8168749959e-001	 2.2426523700e+000	 1.2167536424e-001
 1.6125599940e-001	 2.2442140055e+000	 1.8608321940e-001
 1.4088032204e-001	 2.2455851654e+000	 2.4076087226e-001
 1.2056275773e-001	 2.2467675940e+000	 2.8338200860e-001
 1.0030554932e-001	 2.2477630651e+000	 3.1167927435e-001
 8.0110891976e-002	 2.2485733799e+000	 3.2344633629e-001
 5.9980933064e-002	 2.2492003663e+000	 3.1653977617e-001
 3.9917771955e-002	 2.2496458769e+000	 2.8888081990e-001
 1.9923459911e-002	 2.2499117884e+000	 2.3845690356e-001
 0.0000000000e+000	 2.2500000000e+000	 1.6332307870e-001
 2.2500000000e+000	 0.0000000000e+000	 2.3309795046e+000
 2.2499117884e+000	 1.9923459911e-002	 2.3346265751e+000
 2.2496458769e+000	 3.9917771955e-002	 2.3351942756e+000
 2.2492003663e+000	 5.9980933064e-002	 2.3325956175e+000
 2.2485733799e+000	 8.0110891976e-002	 2.3267215095e+000
 2.2477630651e+000	 1.0030554932e-001	 2.3174401648e+000
 2.2467675940e+000	 1.2056275773e-001	 2.3045965408e+000
 2.2455851654e+000	 1.4088032204e-001	 2.2880118130e+000
 2.2442140055e+000	 1.6125599940e-001	 2.2674828875e+000
 2.2426523700e+000	 1.8168749959e-001	 2.2427819535e+000
 2.2408985444e+000	 2.0217248527e-001	 2.2136560784e+000
 2.2750000000e+000	 0.0000000000e+000	 2.2963637726e+000
 2.2749108083e+000	 2.0144831687e-002	 2.3001614319e+000
 2.2746419422e+000	 4.0361302754e-002	 2.3012145436e+000
 2.2741914815e+000	 6.0647387876e-002	 2.2994197349e+000
 2.2735575286e+000	 8.1001012998e-002	 2.2946503504e+000
 2.2727382103e+000	 1.0142005542e-001	 2.2867558442e+000
 2.2717316784e+000	 1.2190234393e-001	 2.2755612062e+000
 2.2705361116e+000	 1.4244565895e-001	 2.2608664251e+000
 2.2691497167e+000	 1.6304773272e-001	 2.2424459908e+000
 2.2675707296e+000	 1.8370624959e-001	 2.2200484393e+000
 2.2657974171e+000	 2.0441884622e-001	 2.1933959431e+000
 2.3000000000e+000	 0.0000000000e+000	 2.2670066255e+000
 2.2999098282e+000	 2.0366203464e-002	 2.2700304539e+000
 2.2996380075e+000	 4.0804833554e-002	 2.2706934793e+000
 2.2991825966e+000	 6.1313842688e-002	 2.2688767111e+000
 2.2985416773e+000	 8.1891134020e-002	 2.2644366601e+000
 2.2977133554e+000	 1.0253456153e-001	 2.2572047136e+000
 2.2966957628e+000	 1.2324193013e-001	 2.2469865471e+000
 2.2954870579e+000	 1.4401099586e-001	 2.2335615743e+000
 2.2940854279e+000	 1.6483946605e-001	 2.2166824384e+000
 2.2924890893e+000	 1.8572499959e-001	 2.1960745483e+000
 2.2906962898e+000	 2.0666520717e-001	 2.1714356617e+000
 2.3250000000e+000	 0.0000000000e+000	 2.2426959064e+000
 2.3249088481e+000	 2.0587575241e-002	 2.2440518223e+000
 2.3246340728e+000	 4.1248364354e-002	 2.2434796416e+000
 2.3241737118e+000	 6.1980297500e-002	 2.2408455108e+000
 2.3235258259e+000	 8.2781255043e-002	 2.2359898241e+000
 2.3226885006e+000	 1.0364906763e-001	 2.2287265817e+000
 2.3216598471e+000	 1.2458151633e-001	 2.2188427840e+000
 2.3204380042e+000	 1.4557633277e-001	 2.2060978678e+000
 2.3190211390e+000	 1.6663119938e-001	 2.1902231849e+000
 2.3174074490e+000	 1.8774374958e-001	 2.1709215276e+000
 2.3155951625e+000	 2.0891156812e-001	 2.1478667042e+000
 2.3500000000e+000	 0.0000000000e+000	 2.2232284862e+000
 2.3499078679e+000	 2.0808947019e-002	 2.2220515911e+000
 2.3496301381e+000	 4.1691895154e-002	 2.2194283278e+000
 2.3491648270e+000	 6.2646752313e-002	 2.2152107223e+000
 2.3485099746e+000	 8.3671376066e-002	 2.2092237586e+000
 2.3476636458e+000	 1.0476357374e-001	 2.2012647163e+000
 2.3466239315e+000	 1.2592110253e-001	 2.1911025477e+000
 2.3453889505e+000	 1.4714166968e-001	 2.1784772971e+000
 2.3439568502e+000	 1.6842293271e-001	 2.1630995665e+000
 2.3423258086e+000	 1.8976249958e-001	 2.1446500284e+000
 2.3404940352e+000	 2.1115792906e-001	 2.1227789918e+000
 2.3750000000e+000	 0.0000000000e+000	 2.2084097885e+000
 2.3749068878e+000	 2.1030318796e-002	 2.2038632734e+000
 2.3746262034e+000	 4.2135425955e-002	 2.1984012185e+000
 2.3741559422e+000	 6.3313207127e-002	 2.1918622620e+000
 2.3734941233e+000	 8.4561497090e-002	 2.1840566719e+000
 2.3726387909e+000	 1.0587807984e-001	 2.1747656624e+000
 2.3715880159e+000	 1.2726068872e-001	 2.1637407520e+000
 2.3703398968e+000	 1.4870700660e-001	 2.1507031651e+000
 2.3688925614e+000	 1.7021466604e-001	 2.1353432816e+000
 2.3672441683e+000	 1.9178124958e-001	 2.1173201374e+000
 2.3653929079e+000	 2.1340429001e-001	 2.0962609783e+000
 2.4000000000e+000	 0.0000000000e+000	 2.1980533446e+000
 2.3999059077e+000	 2.1251690574e-002	 2.1893274525e+000
 2.3996222687e+000	 4.2578956756e-002	 2.1802660458e+000
 2.3991470574e+000	 6.3979661940e-002	 2.1706950966e+000
 2.3984782719e+000	 8.5451618114e-002	 2.1604108407e+000
 2.3976139361e+000	 1.0699258595e-001	 2.1491790712e+000
 2.3965521003e+000	 1.2860027492e-001	 2.1367344754e+000
 2.3952908430e+000	 1.5027234351e-001	 2.1227800175e+000
 2.3938282726e+000	 1.7200639936e-001	 2.1069863714e+000
 2.3921625279e+000	 1.9379999957e-001	 2.0889914060e+000
 2.3902917807e+000	 2.1565065096e-001	 2.0683997269e+000
 2.4250000000e+000	 0.0000000000e+000	 2.1919803749e+000
 2.4249049275e+000	 2.1473062351e-002	 2.1782914175e+000
 2.4246183340e+000	 4.3022487557e-002	 2.1648962807e+000
 2.4241381725e+000	 6.4646116755e-002	 2.1516089828e+000
 2.4234624206e+000	 8.6341739139e-002	 2.1382124008e+000
 2.4225890813e+000	 1.0810709205e-001	 2.1244575403e+000
 2.4215161846e+000	 1.2993986112e-001	 2.1100628489e+000
 2.4202417893e+000	 1.5183768043e-001	 2.0947135792e+000
 2.4187639837e+000	 1.7379813269e-001	 2.0780612026e+000
 2.4170808876e+000	 1.9581874957e-001	 2.0597228783e+000
 2.4151906534e+000	 2.1789701191e-001	 2.0392809814e+000
 2.4500000000e+000	 0.0000000000e+000	 2.1900193971e+000
 2.4499039474e+000	 2.1694434129e-002	 2.1706088215e+000
 2.4496143993e+000	 4.3466018359e-002	 2.1521708409e+000
 2.4491292877e+000	 6.5312571569e-002	 2.1345082229e+000
 2.4484465693e+000	 8.7231860164e-002	 2.1173911500e+000
 2.4475642264e+000	 1.0922159816e-001	 2.1005564632e+000
 2.4464802690e+000	 1.3127944732e-001	 2.0837069518e+000
 2.4451927356e+000	 1.5340301734e-001	 2.0665106939e+000
 2.4436996949e+000	 1.7558986602e-001	 2.0486004505e+000
 2.4419992473e+000	 1.9783749957e-001	 2.0295731166e+000
 2.4400895261e+000	 2.2014337286e-001	 2.0089892339e+000
 2.4750000000e+000	 0.0000000000e+000	 2.1920058573e+000
 2.4749029673e+000	 2.1915805907e-002	 2.1661393595e+000
 2.4746104646e+000	 4.3909549161e-002	 2.1419738151e+000
 2.4741204029e+000	 6.5979026384e-002	 2.1193014353e+000
 2.4734307179e+000	 8.8121981189e-002	 2.0978803629e+000
 2.4725393716e+000	 1.1033610427e-001	 2.0774338881e+000
 2.4714443534e+000	 1.3261903353e-001	 2.0576497128e+000
 2.4701436819e+000	 1.5496835426e-001	 2.0381792675e+000
 2.4686354061e+000	 1.7738159935e-001	 2.0186370836e+000
 2.4669176069e+000	 1.9985624957e-001	 1.9986002259e+000
 2.4649883988e+000	 2.2238973381e-001	 1.9776077879e+000
 2.5000000000e+000	 0.0000000000e+000	 2.1977817841e+000
 2.4999019872e+000	 2.2137177686e-002	 2.1647484672e+000
 2.4996065299e+000	 4.4353079963e-002	 2.1341942050e+000
 2.4991115181e+000	 6.6645481200e-002	 2.1059013387e+000
 2.4984148666e+000	 8.9012102215e-002	 2.0796166175e+000
 2.4975145168e+000	 1.1145061038e-001	 2.0550503852e+000
 2.4964084378e+000	 1.3395861973e-001	 2.0318758179e+000
 2.4950946282e+000	 1.5653369117e-001	 2.0097282150e+000
 2.4935711173e+000	 1.7917333268e-001	 1.9882043489e+000
 2.4918359666e+000	 2.0187499956e-001	 1.9668618769e+000
 2.4898872715e+000	 2.2463609475e-001	 1.9452188177e+000
 2.2408985444e+000	 2.0217248527e-001	 2.2136560784e+000
 2.2389508462e+000	 2.2270857224e-001	 2.1911351817e+000
 2.2368076260e+000	 2.4329332986e-001	 2.1677148844e+000
 2.2344672684e+000	 2.6392428140e-001	 2.1430659130e+000
 2.2319281941e+000	 2.8459890447e-001	 2.1168294106e+000
 2.2291888605e+000	 3.0531463152e-001	 2.0886167178e+000
 2.2262477636e+000	 3.2606885033e-001	 2.0580092139e+000
 2.2231034390e+000	 3.4685890457e-001	 2.0245582228e+000
 2.2197544633e+000	 3.6768209441e-001	 1.9877849833e+000
 2.2161994557e+000	 3.8853567716e-001	 1.9471806884e+000
 2.2124370789e+000	 4.0941686796e-001	 1.9022065948e+000
 2.2657974171e+000	 2.0441884622e-001	 2.1933959431e+000
 2.2638280779e+000	 2.2518311194e-001	 2.1720385921e+000
 2.2616610440e+000	 2.4599658909e-001	 2.1491641597e+000
 2.2592946825e+000	 2.6685677342e-001	 2.1244268395e+000
 2.2567273962e+000	 2.8776111452e-001	 2.0974508455e+000
 2.2539576256e+000	 3.0870701632e-001	 2.0678302044e+000
 2.2509838498e+000	 3.2969183756e-001	 2.0351286125e+000
 2.2478045883e+000	 3.5071289240e-001	 1.9988793559e+000
 2.2444184018e+000	 3.7176745101e-001	 1.9585852996e+000
 2.2408238941e+000	 3.9285274024e-001	 1.9137189463e+000
 2.2370197131e+000	 4.1396594427e-001	 1.8637225673e+000
 2.2906962898e+000	 2.0666520717e-001	 2.1714356617e+000
 2.2887053095e+000	 2.2765765163e-001	 2.1516407896e+000
 2.2865144621e+000	 2.4869984831e-001	 2.1297845585e+000
 2.2841220966e+000	 2.6978926543e-001	 2.1055048208e+000
 2.2815265984e+000	 2.9092332457e-001	 2.0784089894e+000
 2.2787263907e+000	 3.1209940111e-001	 2.0480738415e+000
 2.2757199361e+000	 3.3331482478e-001	 2.0140453877e+000
 2.2725057376e+000	 3.5456688023e-001	 1.9758388075e+000
 2.2690823403e+000	 3.7585280762e-001	 1.9329384553e+000
 2.2654483325e+000	 3.9716980332e-001	 1.8847979369e+000
 2.2616023474e+000	 4.1851502058e-001	 1.8308402622e+000
 2.3155951625e+000	 2.0891156812e-001	 2.1478667042e+000
 2.3135825411e+000	 2.3013219132e-001	 2.1300374358e+000
 2.3113678802e+000	 2.5140310753e-001	 2.1096752310e+000
 2.3089495107e+000	 2.7272175745e-001	 2.0864017807e+000
 2.3063258005e+000	 2.9408553462e-001	 2.0598078128e+000
 2.3034951558e+000	 3.1549178591e-001	 2.0294529066e+000
 2.3004560224e+000	 3.3693781201e-001	 1.9948653728e+000
 2.2972068869e+000	 3.5842086805e-001	 1.9555422035e+000
 2.2937462788e+000	 3.7993816422e-001	 1.9109490924e+000
 2.2900727709e+000	 4.0148686640e-001	 1.8605205307e+000
 2.2861849816e+000	 4.2306409689e-001	 1.8036599781e+000
 2.3404940352e+000	 2.1115792906e-001	 2.1227789918e+000
 2.3384597727e+000	 2.3260673101e-001	 2.1073228200e+000
 2.3362212982e+000	 2.5410636675e-001	 2.0889341839e+000
 2.3337769248e+000	 2.7565424947e-001	 2.0672187803e+000
 2.3311250027e+000	 2.9724774467e-001	 2.0417507568e+000
 2.3282639210e+000	 3.1888417070e-001	 2.0120725346e+000
 2.3251921086e+000	 3.4056079923e-001	 1.9776946987e+000
 2.3219080362e+000	 3.6227485588e-001	 1.9380959600e+000
 2.3184102172e+000	 3.8402352083e-001	 1.8927231913e+000
 2.3146972093e+000	 4.0580392948e-001	 1.8409915380e+000
 2.3107676158e+000	 4.2761317319e-001	 1.7822846095e+000
 2.3653929079e+000	 2.1340429001e-001	 2.0962609783e+000
 2.3633370043e+000	 2.3508127071e-001	 2.0835899321e+000
 2.3610747163e+000	 2.5680962597e-001	 2.0676583407e+000
 2.3586043389e+000	 2.7858674148e-001	 2.0480560636e+000
 2.3559242049e+000	 3.0040995472e-001	 2.0243407615e+000
 2.3530326861e+000	 3.2227655550e-001	 1.9960377254e+000
 2.3499281949e+000	 3.4418378646e-001	 1.9626397773e+000
 2.3466091856e+000	 3.6612884371e-001	 1.9236072426e+000
 2.3430741557e+000	 3.8810887743e-001	 1.8783679996e+000
 2.3393216477e+000	 4.1012099256e-001	 1.8263176065e+000
 2.3353502500e+000	 4.3216224950e-001	 1.7668195099e+000
 2.3902917807e+000	 2.1565065096e-001	 2.0683997269e+000
 2.3882142360e+000	 2.3755581040e-001	 2.0589305298e+000
 2.3859281344e+000	 2.5951288519e-001	 2.0459435983e+000
 2.3834317530e+000	 2.8151923350e-001	 2.0290131003e+000
 2.3807234070e+000	 3.0357216477e-001	 2.0076802916e+000
 2.3778014512e+000	 3.2566894029e-001	 1.9814533508e+000
 2.3746642811e+000	 3.4780677368e-001	 1.9498072877e+000
 2.3713103349e+000	 3.6998283154e-001	 1.9121839265e+000
 2.3677380942e+000	 3.9219423403e-001	 1.8679919668e+000
 2.3639460861e+000	 4.1443805563e-001	 1.8166071258e+000
 2.3599328842e+000	 4.3671132581e-001	 1.7573723638e+000
 2.4151906534e+000	 2.1789701191e-001	 2.0392809814e+000
 2.4130914676e+000	 2.4003035009e-001	 2.0334352021e+000
 2.4107815524e+000	 2.6221614441e-001	 2.0238848794e+000
 2.4082591671e+000	 2.8445172551e-001	 2.0101886251e+000
 2.4055226092e+000	 3.0673437482e-001	 1.9918713613e+000
 2.4025702163e+000	 3.2906132508e-001	 1.9684241610e+000
 2.3994003674e+000	 3.5142976091e-001	 1.9393041622e+000
 2.3960114842e+000	 3.7383681936e-001	 1.9039345605e+000
 2.3924020327e+000	 3.9627959064e-001	 1.8617046817e+000
 2.3885705245e+000	 4.1875511871e-001	 1.8119701376e+000
 2.3845155184e+000	 4.4126040212e-001	 1.7540530669e+000
 2.4400895261e+000	 2.2014337286e-001	 2.0089892339e+000
 2.4379686992e+000	 2.4250488978e-001	 2.0071934292e+000
 2.4356349705e+000	 2.6491940363e-001	 2.0015761830e+000
 2.4330865812e+000	 2.8738421752e-001	 1.9916806757e+000
 2.4303218113e+000	 3.0989658487e-001	 1.9770155574e+000
 2.4273389814e+000	 3.3245370987e-001	 1.9570547911e+000
 2.4241364537e+000	 3.5505274813e-001	 1.9312375729e+000
 2.4207126335e+000	 3.7769080719e-001	 1.8989683324e+000
 2.4170659712e+000	 4.0036494724e-001	 1.8596168151e+000
 2.4131949629e+000	 4.2307218179e-001	 1.8125182513e+000
 2.4090981526e+000	 4.4580947843e-001	 1.7569736125e+000
 2.4649883988e+000	 2.2238973381e-001	 1.9776077879e+000
 2.4628459308e+000	 2.4497942947e-001	 1.9802936384e+000
 2.4604883886e+000	 2.6762266285e-001	 1.9791106302e+000
 2.4579139953e+000	 2.9031670954e-001	 1.9735866278e+000
 2.4551210135e+000	 3.1305879491e-001	 1.9632140603e+000
 2.4521077465e+000	 3.3584609467e-001	 1.9474497665e+000
 2.4488725399e+000	 3.5867573535e-001	 1.9257149203e+000
 2.4454137828e+000	 3.8154479501e-001	 1.8973950366e+000
 2.4417299097e+000	 4.0445030384e-001	 1.8618400642e+000
 2.4378194013e+000	 4.2738924487e-001	 1.8183645652e+000
 2.4336807868e+000	 4.5035855474e-001	 1.7662479865e+000
 2.4898872715e+000	 2.2463609475e-001	 1.9452188177e+000
 2.4877231625e+000	 2.4745396916e-001	 1.9528232565e+000
 2.4853418066e+000	 2.7032592207e-001	 1.9565805087e+000
 2.4827414094e+000	 2.9324920155e-001	 1.9560032283e+000
 2.4799202156e+000	 3.1622100496e-001	 1.9505676647e+000
 2.4768765117e+000	 3.3923847946e-001	 1.9397135090e+000
 2.4736086262e+000	 3.6229872257e-001	 1.9228438215e+000
 2.4701149322e+000	 3.8539878284e-001	 1.8993250444e+000
 2.4663938481e+000	 4.0853566044e-001	 1.8684871019e+000
 2.4624438397e+000	 4.3170630795e-001	 1.8296235913e+000
 2.4582634210e+000	 4.5490763105e-001	 1.7819920672e+000
 2.2124370789e+000	 4.0941686796e-001	 1.9022065948e+000
 2.2084660407e+000	 4.3032284048e-001	 1.8725640443e+000
 2.2042850952e+000	 4.5125072774e-001	 1.8398034743e+000
 2.1998930440e+000	 4.7219762289e-001	 1.8032980750e+000
 2.1952887378e+000	 4.9316058010e-001	 1.7623897013e+000
 2.1904710774e+000	 5.1413661543e-001	 1.7163893112e+000
 2.1854390149e+000	 5.3512270782e-001	 1.6645774864e+000
 2.1801915551e+000	 5.5611580005e-001	 1.6062050384e+000
 2.1747277568e+000	 5.7711279978e-001	 1.5404936991e+000
 2.1690467338e+000	 5.9811058066e-001	 1.4666368994e+000
 2.1631476559e+000	 6.1910598340e-001	 1.3838006337e+000
 2.2370197131e+000	 4.1396594427e-001	 1.8637225673e+000
 2.2330045523e+000	 4.3510420537e-001	 1.8285590561e+000
 2.2287771518e+000	 4.5626462471e-001	 1.7916204853e+000
 2.2243363000e+000	 4.7744426314e-001	 1.7522670982e+000
 2.2196808349e+000	 4.9864014209e-001	 1.7098257911e+000
 2.2148096449e+000	 5.1984924449e-001	 1.6635905427e+000
 2.2097216706e+000	 5.4106851568e-001	 1.6128229296e+000
 2.2044159057e+000	 5.6229486449e-001	 1.5567527310e+000
 2.1988913986e+000	 5.8352516422e-001	 1.4945786217e+000
 2.1931472531e+000	 6.0475625377e-001	 1.4254689565e+000
 2.1871826299e+000	 6.2598493877e-001	 1.3495969074e+000
 2.2616023474e+000	 4.1851502058e-001	 1.8308402622e+000
 2.2575430638e+000	 4.3988557026e-001	 1.7908900690e+000
 2.2532692084e+000	 4.6127852168e-001	 1.7505323241e+000
 2.2487795561e+000	 4.8269090339e-001	 1.7091136067e+000
 2.2440729320e+000	 5.0411970409e-001	 1.6659450892e+000
 2.2391482124e+000	 5.2556187355e-001	 1.6203029578e+000
 2.2340043263e+000	 5.4701432354e-001	 1.5714289239e+000
 2.2286402563e+000	 5.6847392893e-001	 1.5185308265e+000
 2.2230550403e+000	 5.8993752866e-001	 1.4607833288e+000
 2.2172477723e+000	 6.1140192689e-001	 1.3973287081e+000
 2.2112176038e+000	 6.3286389413e-001	 1.3324305149e+000
 2.2861849816e+000	 4.2306409689e-001	 1.8036599781e+000
 2.2820815754e+000	 4.4466693515e-001	 1.7596668832e+000
 2.2777612650e+000	 4.6629241865e-001	 1.7166590092e+000
 2.2732228121e+000	 4.8793754364e-001	 1.6739685491e+000
 2.2684650291e+000	 5.0959926609e-001	 1.6308901808e+000
 2.2634867799e+000	 5.3127450260e-001	 1.5866814788e+000
 2.2582869820e+000	 5.5296013141e-001	 1.5405634214e+000
 2.2528646070e+000	 5.7465299337e-001	 1.4917209922e+000
 2.2472186821e+000	 5.9634989310e-001	 1.4393038793e+000
 2.2413482916e+000	 6.1804760000e-001	 1.3824272724e+000
 2.2352525778e+000	 6.3974284950e-001	 1.3237442737e+000
 2.3107676158e+000	 4.2761317319e-001	 1.7822846095e+000
 2.3066200870e+000	 4.4944830005e-001	 1.7350020569e+000
 2.3022533216e+000	 4.7130631563e-001	 1.6901234688e+000
 2.2976660682e+000	 4.9318418390e-001	 1.6469659250e+000
 2.2928571261e+000	 5.1507882809e-001	 1.6048068319e+000
 2.2878253475e+000	 5.3698713166e-001	 1.5628843270e+000
 2.2825696377e+000	 5.5890593927e-001	 1.5203977807e+000
 2.2770889576e+000	 5.8083205782e-001	 1.4765083975e+000
 2.2713823238e+000	 6.0276225754e-001	 1.4303399187e+000
 2.2654488109e+000	 6.2469327312e-001	 1.3809794264e+000
 2.2592875518e+000	 6.4662180487e-001	 1.3233940480e+000
 2.3353502500e+000	 4.3216224950e-001	 1.7668195099e+000
 2.3311585985e+000	 4.5422966494e-001	 1.7170107616e+000
 2.3267453782e+000	 4.7632021260e-001	 1.6710513882e+000
 2.3221093242e+000	 4.9843082415e-001	 1.6282426238e+000
 2.3172492232e+000	 5.2055839009e-001	 1.5878438215e+000
 2.3121639150e+000	 5.4269976072e-001	 1.5490728492e+000
 2.3068522935e+000	 5.6485174713e-001	 1.5111065873e+000
 2.3013133082e+000	 5.8701112226e-001	 1.4730815297e+000
 2.2955459656e+000	 6.0917462198e-001	 1.4340944900e+000
 2.2895493301e+000	 6.3133894624e-001	 1.3930751939e+000
 2.2833225257e+000	 6.5350076025e-001	 1.3312392256e+000
 2.3599328842e+000	 4.3671132581e-001	 1.7573723638e+000
 2.3556971101e+000	 4.5901102983e-001	 1.7058106454e+000
 2.3512374348e+000	 4.8133410958e-001	 1.6595710654e+000
 2.3465525803e+000	 5.0367746441e-001	 1.6179382749e+000
 2.3416413203e+000	 5.2603795209e-001	 1.5801527849e+000
 2.3365024825e+000	 5.4841238978e-001	 1.5454113549e+000
 2.3311349492e+000	 5.7079755500e-001	 1.5128674858e+000
 2.3255376588e+000	 5.9319018671e-001	 1.4816320212e+000
 2.3197096073e+000	 6.1558698643e-001	 1.4507738571e+000
 2.3136498494e+000	 6.3798461936e-001	 1.4133768796e+000
 2.3073574997e+000	 6.6037971562e-001	 1.3471425347e+000
 2.3845155184e+000	 4.4126040212e-001	 1.7540530669e+000
 2.3802356217e+000	 4.6379239473e-001	 1.7015217061e+000
 2.3757294915e+000	 4.8634800655e-001	 1.6558132774e+000
 2.3709958363e+000	 5.0892410466e-001	 1.6161951058e+000
 2.3660334174e+000	 5.3151751410e-001	 1.5818880662e+000
 2.3608410500e+000	 5.5412501884e-001	 1.5520669636e+000
 2.3554176049e+000	 5.7674336287e-001	 1.5258610223e+000
 2.3497620094e+000	 5.9936925116e-001	 1.5023544873e+000
 2.3438732491e+000	 6.2199935087e-001	 1.4805873386e+000
 2.3377503686e+000	 6.4463029248e-001	 1.4416342925e+000
 2.3313924736e+000	 6.6725867099e-001	 1.3709698715e+000
 2.4090981526e+000	 4.4580947843e-001	 1.7569736125e+000
 2.4047741332e+000	 4.6857375962e-001	 1.7042661705e+000
 2.4002215481e+000	 4.9136190353e-001	 1.6599111527e+000
 2.3954390923e+000	 5.1417074492e-001	 1.6231578100e+000
 2.3904255145e+000	 5.3699707610e-001	 1.5932065804e+000
 2.3851796176e+000	 5.5983764791e-001	 1.5692094614e+000
 2.3797002606e+000	 5.8268917073e-001	 1.5502704961e+000
 2.3739863600e+000	 6.0554831560e-001	 1.5354463742e+000
 2.3680368908e+000	 6.2841171532e-001	 1.5214945057e+000
 2.3618508879e+000	 6.5127596560e-001	 1.4777227793e+000
 2.3554274476e+000	 6.7413762637e-001	 1.4025901388e+000
 2.4336807868e+000	 4.5035855474e-001	 1.7662479865e+000
 2.4293126448e+000	 4.7335512452e-001	 1.7141683823e+000
 2.4247136047e+000	 4.9637580050e-001	 1.6720000535e+000
 2.4198823484e+000	 5.1941738517e-001	 1.6389734224e+000
 2.4148176116e+000	 5.4247663810e-001	 1.6142676832e+000
 2.4095181851e+000	 5.6555027697e-001	 1.5970111664e+000
 2.4039829163e+000	 5.8863497860e-001	 1.5862818208e+000
 2.3982107106e+000	 6.1172738005e-001	 1.5811078158e+000
 2.3922005325e+000	 6.3482407976e-001	 1.5694750100e+000
 2.3859514072e+000	 6.5792163873e-001	 1.5215204947e+000
 2.3794624215e+000	 6.8101658174e-001	 1.4418750937e+000
 2.4582634210e+000	 4.5490763105e-001	 1.7819920672e+000
 2.4538511564e+000	 4.7813648941e-001	 1.7313546963e+000
 2.4492056613e+000	 5.0138969748e-001	 1.6922174632e+000
 2.4443256044e+000	 5.2466402543e-001	 1.6637912020e+000
 2.4392097087e+000	 5.4795620010e-001	 1.6452330496e+000
 2.4338567526e+000	 5.7126290603e-001	 1.6356468020e+000
 2.4282655721e+000	 5.9458078647e-001	 1.6340833935e+000
 2.4224350612e+000	 6.1790644450e-001	 1.6395414994e+000
 2.4163641743e+000	 6.4123644421e-001	 1.6250722692e+000
 2.4100519264e+000	 6.6456731185e-001	 1.5729082614e+000
 2.4034973955e+000	 6.8789553712e-001	 1.4886992054e+000
 2.1631476559e+000	 6.1910598340e-001	 1.3838006337e+000
 2.1570297506e+000	 6.4009581698e-001	 1.3360189515e+000
 2.1506923038e+000	 6.6107685984e-001	 1.2911668738e+000
 2.1441346607e+000	 6.8204586113e-001	 1.2410181330e+000
 2.1373562277e+000	 7.0299954197e-001	 1.1857781584e+000
 2.1303564724e+000	 7.2393459685e-001	 1.1256746995e+000
 2.1231349254e+000	 7.4484769492e-001	 1.0609577295e+000
 2.1156911808e+000	 7.6573548144e-001	 9.9189930131e-001
 2.1080248974e+000	 7.8659457923e-001	 9.1879335539e-001
 2.1001357994e+000	 8.0742159012e-001	 8.4195547869e-001
 2.0920236774e+000	 8.2821309651e-001	 7.6172261453e-001
 2.1871826299e+000	 6.2598493877e-001	 1.3495969074e+000
 2.1809967479e+000	 6.4720799272e-001	 1.3047722097e+000
 2.1745888849e+000	 6.6842215828e-001	 1.2554851186e+000
 2.1679583792e+000	 6.8962414847e-001	 1.2019288143e+000
 2.1611046302e+000	 7.1081064799e-001	 1.1443183721e+000
 2.1540270999e+000	 7.3197831459e-001	 1.0828906870e+000
 2.1467253135e+000	 7.5312378041e-001	 1.0179043520e+000
 2.1391988606e+000	 7.7424365345e-001	 9.4963948730e-001
 2.1314473962e+000	 7.9533451899e-001	 8.7839752138e-001
 2.1234706416e+000	 8.1639294112e-001	 8.0450092339e-001
 2.1152683849e+000	 8.3741546425e-001	 7.2829288576e-001
 2.2112176038e+000	 6.3286389413e-001	 1.3324305149e+000
 2.2049637451e+000	 6.5432016846e-001	 1.2817744641e+000
 2.1984854661e+000	 6.7576745672e-001	 1.2276235945e+000
 2.1917820976e+000	 6.9720243581e-001	 1.1701813673e+000
 2.1848530328e+000	 7.1862175401e-001	 1.1096727070e+000
 2.1776977274e+000	 7.4002203233e-001	 1.0463439012e+000
 2.1703157015e+000	 7.6139986591e-001	 9.8046245217e-001
 2.1627065404e+000	 7.8275182547e-001	 9.1231688028e-001
 2.1548698951e+000	 8.0407445876e-001	 8.4221647875e-001
 2.1468054838e+000	 8.2536429212e-001	 7.7049101878e-001
 2.1385130925e+000	 8.4661783199e-001	 6.9749040511e-001
 2.2352525778e+000	 6.3974284950e-001	 1.3237442737e+000
 2.2289307423e+000	 6.6143234421e-001	 1.2668827033e+000
 2.2223820472e+000	 6.8311275516e-001	 1.2074450433e+000
 2.2156058161e+000	 7.0478072316e-001	 1.1456452047e+000
 2.2086014353e+000	 7.2643286003e-001	 1.0817181724e+000
 2.2013683548e+000	 7.4806575007e-001	 1.0159198798e+000
 2.1939060896e+000	 7.6967595141e-001	 9.4852703528e-001
 2.1862142202e+000	 7.9125999748e-001	 8.7983689901e-001
 2.1782923940e+000	 8.1281439853e-001	 8.1016701142e-001
 2.1701403260e+000	 8.3433564312e-001	 7.3985487132e-001
 2.1617578000e+000	 8.5582019972e-001	 6.6925756425e-001
 2.2592875518e+000	 6.4662180487e-001	 1.3233940480e+000
 2.2528977396e+000	 6.6854451995e-001	 1.2599571950e+000
 2.2462786284e+000	 6.9045805361e-001	 1.1948149992e+000
 2.2394295346e+000	 7.1235901050e-001	 1.1281919973e+000
 2.2323498378e+000	 7.3424396605e-001	 1.0603334531e+000
 2.2250389823e+000	 7.5610946781e-001	 9.9150520684e-001
 2.2174964776e+000	 7.7795203691e-001	 9.2199347611e-001
 2.2097219000e+000	 7.9976816950e-001	 8.5210460703e-001
 2.2017148928e+000	 8.2155433830e-001	 7.8216477586e-001
 2.1934751683e+000	 8.4330699412e-001	 7.1251964027e-001
 2.1850025075e+000	 8.6502256746e-001	 6.4353394038e-001
 2.2833225257e+000	 6.5350076025e-001	 1.3312392256e+000
 2.2768647368e+000	 6.7565669569e-001	 1.2608613142e+000
 2.2701752095e+000	 6.9780335205e-001	 1.1896016418e+000
 2.2632532530e+000	 7.1993729785e-001	 1.1176955549e+000
 2.2560982403e+000	 7.4205507208e-001	 1.0453988218e+000
 2.2487096098e+000	 7.6415318556e-001	 9.7298745761e-001
 2.2410868657e+000	 7.8622812241e-001	 9.0075749933e-001
 2.2332295797e+000	 8.0827634151e-001	 8.2902473132e-001
 2.2251373917e+000	 8.3029427807e-001	 7.5812436042e-001
 2.2168100105e+000	 8.5227834513e-001	 6.8841064019e-001
 2.2082472150e+000	 8.7422493520e-001	 6.2025644442e-001
 2.3073574997e+000	 6.6037971562e-001	 1.3471425347e+000
 2.3008317340e+000	 6.8276887144e-001	 1.2694613810e+000
 2.2940717907e+000	 7.0514865049e-001	 1.1916756583e+000
 2.2870769715e+000	 7.2751558520e-001	 1.1140317147e+000
 2.2798466429e+000	 7.4986617810e-001	 1.0367960561e+000
 2.2723802372e+000	 7.7219690330e-001	 9.6025514723e-001
 2.2646772538e+000	 7.9450420791e-001	 8.8471516132e-001
 2.2567372595e+000	 8.1678451353e-001	 8.1050167984e-001
 2.2485598905e+000	 8.3903421784e-001	 7.3795934101e-001
 2.2401448527e+000	 8.6124969613e-001	 6.6745143699e-001
 2.2314919226e+000	 8.8342730294e-001	 5.9935945982e-001
 2.3313924736e+000	 6.6725867099e-001	 1.3709698715e+000
 2.3247987313e+000	 6.8988104719e-001	 1.2856265085e+000
 2.3179683718e+000	 7.1249394894e-001	 1.2009101143e+000
 2.3109006899e+000	 7.3509387254e-001	 1.1170782371e+000
 2.3035950454e+000	 7.5767728412e-001	 1.0344083610e+000
 2.2960508647e+000	 7.8024062105e-001	 9.5319768200e-001
 2.2882676418e+000	 8.0278029341e-001	 8.7376283308e-001
 2.2802449393e+000	 8.2529268555e-001	 7.9643955799e-001
 2.2719823894e+000	 8.4777415761e-001	 7.2158233321e-001
 2.2634796949e+000	 8.7022104713e-001	 6.4956393808e-001
 2.2547366301e+000	 8.9262967068e-001	 5.8077497288e-001
 2.3554274476e+000	 6.7413762637e-001	 1.4025901388e+000
 2.3487657285e+000	 6.9699322293e-001	 1.3092284608e+000
 2.3418649530e+000	 7.1983924738e-001	 1.2171803323e+000
 2.3347244084e+000	 7.4267215989e-001	 1.1267147076e+000
 2.3273434479e+000	 7.6548839015e-001	 1.0381202962e+000
 2.3197214922e+000	 7.8828433879e-001	 9.5170531407e-001
 2.3118580299e+000	 8.1105637891e-001	 8.6779718417e-001
 2.3037526191e+000	 8.3380085757e-001	 7.8674218400e-001
 2.2954048883e+000	 8.5651409738e-001	 7.0890504133e-001
 2.2868145371e+000	 8.7919239814e-001	 6.3466847698e-001
 2.2779813376e+000	 9.0183203843e-001	 5.6443269506e-001
 2.3794624215e+000	 6.8101658174e-001	 1.4418750937e+000
 2.3727327257e+000	 7.0410539868e-001	 1.3401415190e+000
 2.3657615341e+000	 7.2718454583e-001	 1.2403637778e+000
 2.3585481268e+000	 7.5025044724e-001	 1.1428224442e+000
 2.3510918505e+000	 7.7329949618e-001	 1.0478177072e+000
 2.3433921197e+000	 7.9632805654e-001	 9.5566909862e-001
 2.3354484179e+000	 8.1933246442e-001	 8.6671516763e-001
 2.3272602989e+000	 8.4230902959e-001	 7.8131310351e-001
 2.3188273871e+000	 8.6525403716e-001	 6.9983830441e-001
 2.3101493793e+000	 8.8816374914e-001	 6.2268389282e-001
 2.3012260451e+000	 9.1103440617e-001	 5.5026017783e-001
 2.4034973955e+000	 6.8789553712e-001	 1.4886992054e+000
 2.3966997229e+000	 7.1121757443e-001	 1.3782423551e+000
 2.3896581153e+000	 7.3452984428e-001	 1.2703399522e+000
 2.3823718453e+000	 7.5782873460e-001	 1.1652844111e+000
 2.3748402530e+000	 7.8111060220e-001	 1.0633876619e+000
 2.3670627471e+000	 8.0437177429e-001	 9.6498085377e-001
 2.3590388060e+000	 8.2760854992e-001	 8.7041400580e-001
 2.3507679787e+000	 8.5081720161e-001	 7.8005560314e-001
 2.3422498860e+000	 8.7399397693e-001	 6.9429213947e-001
 2.3334842215e+000	 8.9713510015e-001	 6.1352760507e-001
 2.3244707527e+000	 9.2023677391e-001	 5.3818292070e-001
 2.0920236774e+000	 8.2821309651e-001	 7.6172261453e-001
 2.0836883892e+000	 8.4896566288e-001	 7.1212351021e-001
 2.0751298605e+000	 8.6967583741e-001	 6.5740496526e-001
 2.0663480856e+000	 8.9034015358e-001	 5.9792816189e-001
 2.0573431284e+000	 9.1095513182e-001	 5.3407629857e-001
 2.0481151225e+000	 9.3151728120e-001	 4.6625412067e-001
 2.0386642723e+000	 9.5202310113e-001	 3.9488740039e-001
 2.0289908532e+000	 9.7246908310e-001	 3.2042236638e-001
 2.0190952125e+000	 9.9285171243e-001	 2.4332508372e-001
 2.0089777693e+000	 1.0131674701e+000	 1.6408078501e-001
 1.9986390154e+000	 1.0334128344e+000	 8.3193153383e-002
 2.1152683849e+000	 8.3741546425e-001	 7.2829288576e-001
 2.1068404824e+000	 8.5839861469e-001	 6.8246179690e-001
 2.0981868589e+000	 8.7933890227e-001	 6.3082113443e-001
 2.0893075088e+000	 9.0023282195e-001	 5.7374503126e-001
 2.0802024965e+000	 9.2107685550e-001	 5.1163068423e-001
 2.0708719572e+000	 9.4186747321e-001	 4.4489787020e-001
 2.0613160975e+000	 9.6260113559e-001	 3.7398840939e-001
 2.0515351960e+000	 9.8327429514e-001	 2.9936557636e-001
 2.0415296038e+000	 1.0038833981e+000	 2.2151345930e-001
 2.0312997445e+000	 1.0244248864e+000	 1.4093626845e-001
 2.0208461156e+000	 1.0448951992e+000	 5.8157594486e-002
 2.1385130925e+000	 8.4661783199e-001	 6.9749040511e-001
 2.1299925756e+000	 8.6783156650e-001	 6.5521612571e-001
 2.1212438574e+000	 8.8900196713e-001	 6.0643610501e-001
 2.1122669320e+000	 9.1012549032e-001	 5.5153794423e-001
 2.1030618646e+000	 9.3119857919e-001	 4.9093337305e-001
 2.0936287919e+000	 9.5221766522e-001	 4.2505775057e-001
 2.0839679228e+000	 9.7317917004e-001	 3.5436951131e-001
 2.0740795389e+000	 9.9407950717e-001	 2.7934955694e-001
 2.0639639950e+000	 1.0149150838e+000	 2.0050059414e-001
 2.0536217198e+000	 1.0356823027e+000	 1.1834641955e-001
 2.0430532157e+000	 1.0563775640e+000	 3.3431152659e-002
 2.1617578000e+000	 8.5582019972e-001	 6.6925756425e-001
 2.1531446689e+000	 8.7726451831e-001	 6.3032207796e-001
 2.1443008558e+000	 8.9866503199e-001	 5.8417832394e-001
 2.1352263552e+000	 9.2001815870e-001	 5.3122789562e-001
 2.1259212327e+000	 9.4132030288e-001	 4.7189759666e-001
 2.1163856266e+000	 9.6256785724e-001	 4.0663892607e-001
 2.1066197480e+000	 9.8375720450e-001	 3.3592750636e-001
 2.0966238817e+000	 1.0048847192e+000	 2.6026245519e-001
 2.0863983863e+000	 1.0259467695e+000	 1.8016570106e-001
 2.0759436950e+000	 1.0469397191e+000	 9.6181244047e-002
 2.0652603159e+000	 1.0678599288e+000	 8.8743623693e-003
 2.1850025075e+000	 8.6502256746e-001	 6.4353394038e-001
 2.1762967621e+000	 8.8669747012e-001	 6.0771240220e-001
 2.1673578543e+000	 9.0832809685e-001	 5.6397339493e-001
 2.1581857783e+000	 9.2991082707e-001	 5.1273303450e-001
 2.1487806008e+000	 9.5144202657e-001	 4.5443374633e-001
 2.1391424613e+000	 9.7291804925e-001	 3.8954373414e-001
 2.1292715733e+000	 9.9433523896e-001	 3.1855638943e-001
 2.1191682245e+000	 1.0156899312e+000	 2.4198964242e-001
 2.1088327775e+000	 1.0369784552e+000	 1.6038525480e-001
 2.0982656702e+000	 1.0581971354e+000	 7.4308055454e-002
 2.0874674161e+000	 1.0793422937e+000	-1.5654880108e-002
 2.2082472150e+000	 8.7422493520e-001	 6.2025644442e-001
 2.1994488553e+000	 8.9613042193e-001	 5.8731716329e-001
 2.1904148527e+000	 9.1799116171e-001	 5.4574422810e-001
 2.1811452015e+000	 9.3980349544e-001	 4.9596881391e-001
 2.1716399689e+000	 9.6156375025e-001	 4.3844952250e-001
 2.1618992960e+000	 9.8326824127e-001	 3.7367183411e-001
 2.1519233985e+000	 1.0049132734e+000	 3.0214749767e-001
 2.1417125673e+000	 1.0264951433e+000	 2.2441386024e-001
 2.1312671688e+000	 1.0480101409e+000	 1.4103313615e-001
 2.1205876454e+000	 1.0694545517e+000	 5.2591616789e-002
 2.1096745162e+000	 1.0908246585e+000	-4.0301177838e-002
 2.2314919226e+000	 8.8342730294e-001	 5.9935945982e-001
 2.2226009485e+000	 9.0556337374e-001	 5.6906388219e-001
 2.2134718512e+000	 9.2765422657e-001	 5.2941118027e-001
 2.2041046247e+000	 9.4969616382e-001	 4.8084813135e-001
 2.1944993369e+000	 9.7168547394e-001	 4.2385007493e-001
 2.1846561306e+000	 9.9361843328e-001	 3.5892034670e-001
 2.1745752237e+000	 1.0154913079e+000	 2.8658964893e-001
 2.1642569101e+000	 1.0373003553e+000	 2.0741535757e-001
 2.1537015600e+000	 1.0590418266e+000	 1.2198076705e-001
 2.1429096206e+000	 1.0807119681e+000	 3.0894273394e-002
 2.1318816164e+000	 1.1023070233e+000	-6.5211503049e-002
 2.2547366301e+000	 8.9262967068e-001	 5.8077497288e-001
 2.2457530417e+000	 9.1499632555e-001	 5.5287766709e-001
 2.2365288496e+000	 9.3731729143e-001	 5.1489218657e-001
 2.2270640479e+000	 9.5958883219e-001	 4.6728146046e-001
 2.2173587050e+000	 9.8180719763e-001	 4.1053813414e-001
 2.2074129653e+000	 1.0039686253e+000	 3.4518398489e-001
 2.1972270490e+000	 1.0260693423e+000	 2.7176927163e-001
 2.1868012529e+000	 1.0481055673e+000	 1.9087201907e-001
 2.1761359513e+000	 1.0700735123e+000	 1.0309723733e-001
 2.1652315958e+000	 1.0919693844e+000	 9.0760775616e-003
 2.1540887166e+000	 1.1137893881e+000	-9.0535075016e-002
 2.2779813376e+000	 9.0183203843e-001	 5.6443269506e-001
 2.2689051349e+000	 9.2442927736e-001	 5.3868133650e-001
 2.2595858481e+000	 9.4698035630e-001	 5.0210288400e-001
 2.2500234710e+000	 9.6948150057e-001	 4.5517697469e-001
 2.2402180731e+000	 9.9192892132e-001	 3.9841413488e-001
 2.2301698000e+000	 1.0143188173e+000	 3.3235517673e-001
 2.2198788742e+000	 1.0366473768e+000	 2.5757052666e-001
 2.2093455957e+000	 1.0589107794e+000	 1.7465948584e-001
 2.1985703425e+000	 1.0811051980e+000	 8.4249423730e-002
 2.1875535710e+000	 1.1032268007e+000	-1.3005094471e-002
 2.1762958168e+000	 1.1252717530e+000	-1.1642324541e-001
 2.3012260451e+000	 9.1103440617e-001	 5.5026017783e-001
 2.2920572281e+000	 9.3386222918e-001	 5.2639553488e-001
 2.2826428465e+000	 9.5664342116e-001	 4.9095672749e-001
 2.2729828942e+000	 9.7937416894e-001	 4.4444066349e-001
 2.2630774412e+000	 1.0020506450e+000	 3.8737633206e-001
 2.2529266347e+000	 1.0246690093e+000	 3.2032418078e-001
 2.2425306995e+000	 1.0472254113e+000	 2.4387542193e-001
 2.2318899385e+000	 1.0697159914e+000	 1.5865126864e-001
 2.2210047338e+000	 1.0921368837e+000	 6.5302101608e-002
 2.2098755463e+000	 1.1144842171e+000	-3.5493432621e-002
 2.1985029169e+000	 1.1367541178e+000	-1.4302939060e-001
 2.3244707527e+000	 9.2023677391e-001	 5.3818292070e-001
 2.3152093213e+000	 9.4329518099e-001	 5.1593884137e-001
 2.3056998450e+000	 9.6630648602e-001	 4.8136509901e-001
 2.2959423174e+000	 9.8926683732e-001	 4.3497644150e-001
 2.2859368093e+000	 1.0121723687e+000	 3.7732090976e-001
 2.2756834694e+000	 1.0350192013e+000	 3.0897919453e-001
 2.2651825247e+000	 1.0578034457e+000	 2.3056391996e-001
 2.2544342814e+000	 1.0805212035e+000	 1.4271885450e-001
 2.2434391250e+000	 1.1031685694e+000	 4.6118050062e-002
 2.2321975215e+000	 1.1257416334e+000	-5.8535089653e-002
 2.2207100171e+000	 1.1482364826e+000	-1.7050881044e-001
 1.9986390154e+000	 1.0334128344e+000	 8.3193153383e-002
 1.9880795152e+000	 1.0535842829e+000	-1.4486251894e-003
 1.9772999064e+000	 1.0736782945e+000	-8.4775058505e-002
 1.9663009000e+000	 1.0936913507e+000	-1.6626438441e-001
 1.9550832805e+000	 1.1136199380e+000	-2.4538168583e-001
 1.9436479059e+000	 1.1334605497e+000	-3.2157981139e-001
 1.9319957082e+000	 1.1532096875e+000	-3.9430033268e-001
 1.9201276929e+000	 1.1728638638e+000	-4.6297453641e-001
 1.9080449390e+000	 1.1924196034e+000	-5.2702444938e-001
 1.8957485995e+000	 1.2118734454e+000	-5.8586389403e-001
 1.8832399002e+000	 1.2312219451e+000	-6.3889957238e-001
 2.0208461156e+000	 1.0448951992e+000	 5.8157594486e-002
 2.0101692876e+000	 1.0652907750e+000	-2.8528749470e-002
 1.9992699054e+000	 1.0856080533e+000	-1.1065206167e-001
 1.9881486878e+000	 1.1058434768e+000	-1.8765994470e-001
 1.9768064280e+000	 1.1259934929e+000	-2.5898956257e-001
 1.9652439938e+000	 1.1460545558e+000	-3.2406863508e-001
 1.9534623272e+000	 1.1660231285e+000	-3.8231646620e-001
 1.9414624450e+000	 1.1858956845e+000	-4.3314500464e-001
 1.9292454384e+000	 1.2056687101e+000	-4.7595993423e-001
 1.9168124728e+000	 1.2253387059e+000	-5.1016179184e-001
 1.9041647880e+000	 1.2449021889e+000	-5.3514711039e-001
 2.0430532157e+000	 1.0563775640e+000	 3.3431152659e-002
 2.0322590600e+000	 1.0769972670e+000	-5.5733624075e-002
 2.0212399043e+000	 1.0975378121e+000	-1.3717000083e-001
 2.0099964756e+000	 1.1179956029e+000	-2.1029453465e-001
 1.9985295756e+000	 1.1383670478e+000	-2.7451600121e-001
 1.9868400816e+000	 1.1586485619e+000	-3.2923646318e-001
 1.9749289462e+000	 1.1788365695e+000	-3.7385237035e-001
 1.9627971972e+000	 1.1989275052e+000	-4.0775568902e-001
 1.9504459377e+000	 1.2189178168e+000	-4.3033505850e-001
 1.9378763461e+000	 1.2388039664e+000	-4.4097697210e-001
 1.9250896758e+000	 1.2585824328e+000	-5.0042466031e-001
 2.0652603159e+000	 1.0678599288e+000	 8.8743623693e-003
 2.0543488324e+000	 1.0887037590e+000	-8.3206392986e-002
 2.0432099033e+000	 1.1094675710e+000	-1.6447329494e-001
 2.0318442634e+000	 1.1301477291e+000	-2.3431142741e-001
 2.0202527232e+000	 1.1507406026e+000	-2.9210069227e-001
 2.0084361695e+000	 1.1712425680e+000	-3.3721695226e-001
 1.9963955652e+000	 1.1916500104e+000	-3.6903320317e-001
 1.9841319493e+000	 1.2119593259e+000	-3.8692077277e-001
 1.9716464370e+000	 1.2321669235e+000	-3.9025054406e-001
 1.9589402195e+000	 1.2522692269e+000	-3.9423261924e-001
 1.9460145636e+000	 1.2722626766e+000	-5.0834019742e-001
 2.0874674161e+000	 1.0793422937e+000	-1.5654880108e-002
 2.0764386048e+000	 1.1004102511e+000	-1.1109303356e-001
 2.0651799023e+000	 1.1213973298e+000	-1.9270949608e-001
 2.0536920511e+000	 1.1422998552e+000	-2.5985743386e-001
 2.0419758707e+000	 1.1631141575e+000	-3.1188737384e-001
 2.0300322573e+000	 1.1838365741e+000	-3.4814842158e-001
 2.0178621842e+000	 1.2044634514e+000	-3.6798950606e-001
 2.0054667014e+000	 1.2249911467e+000	-3.7076064874e-001
 1.9928469363e+000	 1.2454160302e+000	-3.5581425418e-001
 1.9800040928e+000	 1.2657344874e+000	-4.3116964475e-001
 1.9669394514e+000	 1.2859429204e+000	-5.2181039446e-001
 2.1096745162e+000	 1.0908246585e+000	-4.0301177838e-002
 2.0985283772e+000	 1.1121167431e+000	-1.3954220739e-001
 2.0871499012e+000	 1.1333270886e+000	-2.2202912452e-001
 2.0755398389e+000	 1.1544519813e+000	-2.8708271644e-001
 2.0636990183e+000	 1.1754877124e+000	-3.3402361853e-001
 2.0516283452e+000	 1.1964305802e+000	-3.6217360773e-001
 2.0393288031e+000	 1.2172768924e+000	-3.7085692047e-001
 2.0268014536e+000	 1.2380229674e+000	-3.5940159251e-001
 2.0140474357e+000	 1.2586651369e+000	-3.8561262635e-001
 2.0010679661e+000	 1.2791997479e+000	-4.7263244835e-001
 1.9878643392e+000	 1.2996231643e+000	-5.4050912924e-001
 2.1318816164e+000	 1.1023070233e+000	-6.5211503049e-002
 2.1206181496e+000	 1.1238232351e+000	-1.6870512052e-001
 2.1091199002e+000	 1.1452568475e+000	-2.5258551419e-001
 2.0973876267e+000	 1.1666041074e+000	-3.1614061458e-001
 2.0854221659e+000	 1.1878612672e+000	-3.5866063373e-001
 2.0732244330e+000	 1.2090245863e+000	-3.7943943449e-001
 2.0607954221e+000	 1.2300903333e+000	-3.7777592224e-001
 2.0481362057e+000	 1.2510547881e+000	-3.5994414313e-001
 2.0352479350e+000	 1.2719142436e+000	-4.5032504131e-001
 2.0221318395e+000	 1.2926650084e+000	-5.1833089057e-001
 2.0087892269e+000	 1.3133034081e+000	-5.6411865043e-001
 2.1540887166e+000	 1.1137893881e+000	-9.0535075016e-002
 2.1427079219e+000	 1.1355297272e+000	-1.9873539227e-001
 2.1310898991e+000	 1.1571866063e+000	-2.8453466756e-001
 2.1192354145e+000	 1.1787562335e+000	-3.4718748094e-001
 2.1071453134e+000	 1.2002348221e+000	-3.8595307430e-001
 2.0948205209e+000	 1.2216185925e+000	-4.0009679709e-001
 2.0822620411e+000	 1.2429037743e+000	-3.8889157243e-001
 2.0694709579e+000	 1.2640866088e+000	-4.4342521394e-001
 2.0564484343e+000	 1.2851633503e+000	-5.1840712659e-001
 2.0431957128e+000	 1.3061302689e+000	-5.6798179805e-001
 2.0297141147e+000	 1.3269836519e+000	-5.9232914610e-001
 2.1762958168e+000	 1.1252717530e+000	-1.1642324541e-001
 2.1647976943e+000	 1.1472362192e+000	-2.2978893212e-001
 2.1530598981e+000	 1.1691163651e+000	-3.1803511955e-001
 2.1410832022e+000	 1.1909083597e+000	-3.8038252767e-001
 2.1288684610e+000	 1.2126083770e+000	-4.1605886663e-001
 2.1164166087e+000	 1.2342125986e+000	-4.2430035950e-001
 2.1037286601e+000	 1.2557172153e+000	-4.4089888539e-001
 2.0908057100e+000	 1.2771184295e+000	-5.2952750187e-001
 2.0776489336e+000	 1.2984124570e+000	-5.8960603757e-001
 2.0642595861e+000	 1.3195955294e+000	-6.2130860813e-001
 2.0506390025e+000	 1.3406638958e+000	-6.2483833863e-001
 2.1985029169e+000	 1.1367541178e+000	-1.4302939060e-001
 2.1868874667e+000	 1.1589427112e+000	-2.6202382405e-001
 2.1750298971e+000	 1.1810461240e+000	-3.5324780962e-001
 2.1629309900e+000	 1.2030604858e+000	-4.1588768201e-001
 2.1505916085e+000	 1.2249819318e+000	-4.4913904345e-001
 2.1380126965e+000	 1.2468066047e+000	-4.5220836412e-001
 2.1251952790e+000	 1.2685306563e+000	-5.4089732081e-001
 2.1121404622e+000	 1.2901502502e+000	-6.1802464159e-001
 2.0988494330e+000	 1.3116615637e+000	-6.6367441034e-001
 2.0853234594e+000	 1.3330607899e+000	-6.7804103498e-001
 2.0715638903e+000	 1.3543441396e+000	-6.6135110421e-001
 2.2207100171e+000	 1.1482364826e+000	-1.7050881044e-001
 2.2089772391e+000	 1.1706492033e+000	-2.9560021779e-001
 2.1969998960e+000	 1.1929758828e+000	-3.9033596154e-001
 2.1847787778e+000	 1.2152126119e+000	-4.5386745050e-001
 2.1723147561e+000	 1.2373554867e+000	-4.8535758849e-001
 2.1596087844e+000	 1.2594006108e+000	-5.4212797465e-001
 2.1466618980e+000	 1.2813440973e+000	-6.4267387914e-001
 2.1334752143e+000	 1.3031820709e+000	-7.0869479510e-001
 2.1200499323e+000	 1.3249106704e+000	-7.4037008771e-001
 2.1063873328e+000	 1.3465260504e+000	-7.3791475574e-001
 2.0924887780e+000	 1.3680243835e+000	-7.0157911512e-001
 1.8832399002e+000	 1.2312219451e+000	-6.3889957238e-001
 1.8705201405e+000	 1.2504616763e+000	-6.9508570692e-001
 1.8575906924e+000	 1.2695892326e+000	-7.9197421276e-001
 1.8444530004e+000	 1.2886012298e+000	-8.8110633457e-001
 1.8311085811e+000	 1.3074943075e+000	-9.6231785093e-001
 1.8175590227e+000	 1.3262651314e+000	-1.0354395356e+000
 1.8038059846e+000	 1.3449103948e+000	-1.1002969929e+000
 1.7898511964e+000	 1.3634268205e+000	-1.1567105187e+000
 1.7756964577e+000	 1.3818111630e+000	-1.2044949870e+000
 1.7613436372e+000	 1.4000602100e+000	-1.2434597641e+000
 1.7467946721e+000	 1.4181707844e+000	-1.2734086509e+000
 1.9041647880e+000	 1.2449021889e+000	-5.3514711039e-001
 1.8913036977e+000	 1.2643556949e+000	-7.1198288775e-001
 1.8782305890e+000	 1.2836957796e+000	-9.2663016542e-001
 1.8649469226e+000	 1.3029190212e+000	-1.0262511066e+000
 1.8514542320e+000	 1.3220220220e+000	-1.0824779600e+000
 1.8377541230e+000	 1.3410014107e+000	-1.1318234674e+000
 1.8238482733e+000	 1.3598538436e+000	-1.1741281993e+000
 1.8097384319e+000	 1.3785760074e+000	-1.2092258052e+000
 1.7954264183e+000	 1.3971646204e+000	-1.2369428707e+000
 1.7809141221e+000	 1.4156164346e+000	-1.2570988037e+000
 1.7662035017e+000	 1.4339282376e+000	-1.2695057524e+000
 1.9250896758e+000	 1.2585824328e+000	-5.0042466031e-001
 1.9120872548e+000	 1.2782497135e+000	-6.8660416569e-001
 1.8988704856e+000	 1.2978023266e+000	-8.7501470937e-001
 1.8854408449e+000	 1.3172368126e+000	-1.0657171143e+000
 1.8717998829e+000	 1.3365497366e+000	-1.2203450814e+000
 1.8579492232e+000	 1.3557376899e+000	-1.2460222790e+000
 1.8438905620e+000	 1.3747972925e+000	-1.2658709374e+000
 1.8296256674e+000	 1.3937251943e+000	-1.2797381749e+000
 1.8151563790e+000	 1.4125180778e+000	-1.2874623956e+000
 1.8004846069e+000	 1.4311726591e+000	-1.2888731485e+000
 1.7856123314e+000	 1.4496856907e+000	-1.2837910204e+000
 1.9460145636e+000	 1.2722626766e+000	-5.0834019742e-001
 1.9328708119e+000	 1.2921437321e+000	-6.6733414561e-001
 1.9195103822e+000	 1.3119088736e+000	-8.2970497906e-001
 1.9059347671e+000	 1.3315546041e+000	-9.9553665697e-001
 1.8921455338e+000	 1.3510774511e+000	-1.1649109719e+000
 1.8781443235e+000	 1.3704739692e+000	-1.3379071277e+000
 1.8639328507e+000	 1.3897407413e+000	-1.3745391576e+000
 1.8495129029e+000	 1.4088743812e+000	-1.3672526431e+000
 1.8348863396e+000	 1.4278715351e+000	-1.3550508169e+000
 1.8200550918e+000	 1.4467288837e+000	-1.3377734762e+000
 1.8050211611e+000	 1.4654431439e+000	-1.3152497444e+000
 1.9669394514e+000	 1.2859429204e+000	-5.2181039446e-001
 1.9536543690e+000	 1.3060377508e+000	-6.5382548204e-001
 1.9401502787e+000	 1.3260154207e+000	-7.9034198481e-001
 1.9264286893e+000	 1.3458723955e+000	-9.3146713516e-001
 1.9124911847e+000	 1.3656051656e+000	-1.0773050576e+000
 1.8983394238e+000	 1.3852102484e+000	-1.2279563095e+000
 1.8839751394e+000	 1.4046841901e+000	-1.3835174212e+000
 1.8694001384e+000	 1.4240235681e+000	-1.4707854645e+000
 1.8546163002e+000	 1.4432249925e+000	-1.4387167694e+000
 1.8396255767e+000	 1.4622851082e+000	-1.4028019501e+000
 1.8244299908e+000	 1.4812005971e+000	-1.3628787714e+000
 1.9878643392e+000	 1.2996231643e+000	-5.4050912924e-001
 1.9744379261e+000	 1.3199317694e+000	-6.4574001363e-001
 1.9607901753e+000	 1.3401219677e+000	-7.5657624359e-001
 1.9469226115e+000	 1.3601901869e+000	-8.7314847215e-001
 1.9328368356e+000	 1.3801328802e+000	-9.9558331735e-001
 1.9185345240e+000	 1.3999465276e+000	-1.1240028647e+000
 1.9040174282e+000	 1.4196276390e+000	-1.2585241712e+000
 1.8892873739e+000	 1.4391727550e+000	-1.3992587714e+000
 1.8743462609e+000	 1.4585784499e+000	-1.5374796681e+000
 1.8591960615e+000	 1.4778413328e+000	-1.4829716143e+000
 1.8438388205e+000	 1.4969580502e+000	-1.4256858978e+000
 2.0087892269e+000	 1.3133034081e+000	-5.6411865043e-001
 1.9952214832e+000	 1.3338257880e+000	-6.4274828491e-001
 1.9814300719e+000	 1.3542285147e+000	-7.2806728390e-001
 1.9674165338e+000	 1.3745079784e+000	-8.2022987894e-001
 1.9531824865e+000	 1.3946605947e+000	-9.1938535293e-001
 1.9387296243e+000	 1.4146828069e+000	-1.0256775044e+000
 1.9240597169e+000	 1.4345710878e+000	-1.1392441139e+000
 1.9091746095e+000	 1.4543219419e+000	-1.2602164146e+000
 1.8940762215e+000	 1.4739319072e+000	-1.3887185673e+000
 1.8787665464e+000	 1.4933975573e+000	-1.5248671431e+000
 1.8632476502e+000	 1.5127155034e+000	-1.5026892987e+000
 2.0297141147e+000	 1.3269836519e+000	-5.9232914610e-001
 2.0160050404e+000	 1.3477198066e+000	-6.4452909747e-001
 2.0020699685e+000	 1.3683350618e+000	-7.0448318122e-001
 1.9879104560e+000	 1.3888257698e+000	-7.7236937544e-001
 1.9735281374e+000	 1.4091883092e+000	-8.4835980906e-001
 1.9589247245e+000	 1.4294190861e+000	-9.3262018750e-001
 1.9441020056e+000	 1.4495145366e+000	-1.0253092215e+000
 1.9290618450e+000	 1.4694711288e+000	-1.1265780609e+000
 1.9138061822e+000	 1.4892853646e+000	-1.2365697343e+000
 1.8983370312e+000	 1.5089537819e+000	-1.3554185977e+000
 1.8826564799e+000	 1.5284729565e+000	-1.4832497913e+000
 2.0506390025e+000	 1.3406638958e+000	-6.2483833863e-001
 2.0367885975e+000	 1.3616138253e+000	-6.5076908869e-001
 2.0227098651e+000	 1.3824416088e+000	-6.8550012197e-001
 2.0084043782e+000	 1.4031435613e+000	-7.2923334107e-001
 1.9938737883e+000	 1.4237160237e+000	-7.8216391170e-001
 1.9791198248e+000	 1.4441553653e+000	-8.4447964936e-001
 1.9641442943e+000	 1.4644579854e+000	-9.1636041011e-001
 1.9489490805e+000	 1.4846203157e+000	-9.9797748725e-001
 1.9335361428e+000	 1.5046388219e+000	-1.0894930154e+000
 1.9179075161e+000	 1.5245100065e+000	-1.1910593837e+000
 1.9020653096e+000	 1.5442304097e+000	-1.3028186602e+000
 2.0715638903e+000	 1.3543441396e+000	-6.6135110421e-001
 2.0575721546e+000	 1.3755078439e+000	-6.6116233602e-001
 2.0433497617e+000	 1.3965481558e+000	-6.7080199388e-001
 2.0288983004e+000	 1.4174613527e+000	-6.9049609257e-001
 2.0142194392e+000	 1.4382437383e+000	-7.2046303476e-001
 1.9993149250e+000	 1.4588916446e+000	-7.6091295821e-001
 1.9841865830e+000	 1.4794014343e+000	-8.1204708816e-001
 1.9688363160e+000	 1.4997695026e+000	-8.7405709649e-001
 1.9532661034e+000	 1.5199922793e+000	-9.4712446949e-001
 1.9374780009e+000	 1.5400662310e+000	-1.0314198860e+000
 1.9214741392e+000	 1.5599878628e+000	-1.1271026075e+000
 2.0924887780e+000	 1.3680243835e+000	-7.0157911512e-001
 2.0783557117e+000	 1.3894018625e+000	-6.7540998496e-001
 2.0639896582e+000	 1.4106547028e+000	-6.6008000087e-001
 2.0493922227e+000	 1.4317791441e+000	-6.5583948711e-001
 2.0345650901e+000	 1.4527714528e+000	-6.6293029265e-001
 2.0195100253e+000	 1.4736279238e+000	-6.8158509861e-001
 2.0042288717e+000	 1.4943448831e+000	-7.1202673174e-001
 1.9887235515e+000	 1.5149186895e+000	-7.5446748576e-001
 1.9729960641e+000	 1.5353457367e+000	-8.0910845223e-001
 1.9570484858e+000	 1.5556224556e+000	-8.7613886311e-001
 1.9408829689e+000	 1.5757453160e+000	-9.5573544648e-001
 1.7467946721e+000	 1.4181707844e+000	-1.2734086509e+000
 1.7320515667e+000	 1.4361397461e+000	-1.3139143618e+000
 1.7171163925e+000	 1.4539639937e+000	-1.3551402059e+000
 1.7019912862e+000	 1.4716404663e+000	-1.3968083075e+000
 1.6866784494e+000	 1.4891661453e+000	-1.4386260979e+000
 1.6711801475e+000	 1.5065380562e+000	-1.4802864595e+000
 1.6554987083e+000	 1.5237532697e+000	-1.5214679134e+000
 1.6396365210e+000	 1.5408089042e+000	-1.5618348507e+000
 1.6235960349e+000	 1.5577021267e+000	-1.6010378070e+000
 1.6073797585e+000	 1.5744301547e+000	-1.6387137797e+000
 1.5909902577e+000	 1.5909902577e+000	-1.6744865891e+000
 1.7662035017e+000	 1.4339282376e+000	-1.2695057524e+000
 1.7512965841e+000	 1.4520968544e+000	-1.2917100793e+000
 1.7361954635e+000	 1.4701191492e+000	-1.3175705222e+000
 1.7209023004e+000	 1.4879920270e+000	-1.3467766070e+000
 1.7054193211e+000	 1.5057124358e+000	-1.3789996612e+000
 1.6897488158e+000	 1.5232773679e+000	-1.4138929835e+000
 1.6738931384e+000	 1.5406838616e+000	-1.4510920637e+000
 1.6578547045e+000	 1.5579290031e+000	-1.4902148505e+000
 1.6416359909e+000	 1.5750099281e+000	-1.5308620684e+000
 1.6252395336e+000	 1.5919238231e+000	-1.5726175836e+000
 1.6086679272e+000	 1.6086679272e+000	-1.6150488176e+000
 1.7856123314e+000	 1.4496856907e+000	-1.2837910204e+000
 1.7705416015e+000	 1.4680539627e+000	-1.2865173385e+000
 1.7552745345e+000	 1.4862743046e+000	-1.2957881895e+000
 1.7398133147e+000	 1.5043435878e+000	-1.3112611193e+000
 1.7241601927e+000	 1.5222587263e+000	-1.3325719849e+000
 1.7083174841e+000	 1.5400166796e+000	-1.3593351501e+000
 1.6922875685e+000	 1.5576144535e+000	-1.3911437350e+000
 1.6760728881e+000	 1.5750491021e+000	-1.4275699210e+000
 1.6596759468e+000	 1.5923177295e+000	-1.4681653094e+000
 1.6430993087e+000	 1.6094174915e+000	-1.5124613347e+000
 1.6263455968e+000	 1.6263455968e+000	-1.5599697306e+000
 1.8050211611e+000	 1.4654431439e+000	-1.3152497444e+000
 1.7897866190e+000	 1.4840110710e+000	-1.2973565512e+000
 1.7743536055e+000	 1.5024294601e+000	-1.2888511333e+000
 1.7587243290e+000	 1.5206951485e+000	-1.2893596611e+000
 1.7429010644e+000	 1.5388050168e+000	-1.2984831397e+000
 1.7268861525e+000	 1.5567559914e+000	-1.3157976283e+000
 1.7106819986e+000	 1.5745450454e+000	-1.3408545207e+000
 1.6942910717e+000	 1.5921692010e+000	-1.3731808855e+000
 1.6777159028e+000	 1.6096255309e+000	-1.4122798663e+000
 1.6609590838e+000	 1.6269111599e+000	-1.4576311414e+000
 1.6440232663e+000	 1.6440232663e+000	-1.5086914421e+000
 1.8244299908e+000	 1.4812005971e+000	-1.3628787714e+000
 1.8090316364e+000	 1.4999681792e+000	-1.3232580517e+000
 1.7934326766e+000	 1.5185846156e+000	-1.2958254814e+000
 1.7776353433e+000	 1.5370467092e+000	-1.2801764474e+000
 1.7616419361e+000	 1.5553513073e+000	-1.2758777060e+000
 1.7454548208e+000	 1.5734953031e+000	-1.2824676266e+000
 1.7290764287e+000	 1.5914756372e+000	-1.2994565017e+000
 1.7125092552e+000	 1.6092892999e+000	-1.3263269218e+000
 1.6957558587e+000	 1.6269333323e+000	-1.3625342171e+000
 1.6788188589e+000	 1.6444048283e+000	-1.4075069620e+000
 1.6617009358e+000	 1.6617009358e+000	-1.4606475466e+000
 1.8438388205e+000	 1.4969580502e+000	-1.4256858978e+000
 1.8282766538e+000	 1.5159252875e+000	-1.3632615742e+000
 1.8125117476e+000	 1.5347397711e+000	-1.3157851321e+000
 1.7965463576e+000	 1.5533982700e+000	-1.2828217540e+000
 1.7803828077e+000	 1.5718975978e+000	-1.2639045370e+000
 1.7640234891e+000	 1.5902346148e+000	-1.2585347596e+000
 1.7474708588e+000	 1.6084062291e+000	-1.2661822206e+000
 1.7307274388e+000	 1.6264093989e+000	-1.2862856488e+000
 1.7137958146e+000	 1.6442411337e+000	-1.3182531841e+000
 1.6966786340e+000	 1.6618984966e+000	-1.3614629285e+000
 1.6793786053e+000	 1.6793786053e+000	-1.4152635674e+000
 1.8632476502e+000	 1.5127155034e+000	-1.5026892987e+000
 1.8475216712e+000	 1.5318823958e+000	-1.4164157636e+000
 1.8315908186e+000	 1.5508949266e+000	-1.3478113494e+000
 1.8154573719e+000	 1.5697498307e+000	-1.2964116023e+000
 1.7991236794e+000	 1.5884438884e+000	-1.2617165360e+000
 1.7825921574e+000	 1.6069739266e+000	-1.2431909224e+000
 1.7658652889e+000	 1.6253368210e+000	-1.2402646578e+000
 1.7489456224e+000	 1.6435294978e+000	-1.2523332074e+000
 1.7318357706e+000	 1.6615489351e+000	-1.2787581250e+000
 1.7145384091e+000	 1.6793921650e+000	-1.3188676495e+000
 1.6970562749e+000	 1.6970562749e+000	-1.3719573768e+000
 1.8826564799e+000	 1.5284729565e+000	-1.4832497913e+000
 1.8667666886e+000	 1.5478395041e+000	-1.4817777157e+000
 1.8506698896e+000	 1.5670500821e+000	-1.3909923836e+000
 1.8343683862e+000	 1.5861013914e+000	-1.3200674628e+000
 1.8178645510e+000	 1.6049901789e+000	-1.2684704478e+000
 1.8011608257e+000	 1.6237132383e+000	-1.2356301732e+000
 1.7842597190e+000	 1.6422674129e+000	-1.2209372088e+000
 1.7671638059e+000	 1.6606495967e+000	-1.2237443368e+000
 1.7498757265e+000	 1.6788567365e+000	-1.2433671105e+000
 1.7323981842e+000	 1.6968858334e+000	-1.2790844955e+000
 1.7147339444e+000	 1.7147339444e+000	-1.3301395907e+000
 1.9020653096e+000	 1.5442304097e+000	-1.3028186602e+000
 1.8860117060e+000	 1.5637966124e+000	-1.3963765408e+000
 1.8697489607e+000	 1.5832052375e+000	-1.4444231144e+000
 1.8532794005e+000	 1.6024529522e+000	-1.3529159776e+000
 1.8366054227e+000	 1.6215364694e+000	-1.2833266624e+000
 1.8197294940e+000	 1.6404525500e+000	-1.2350486229e+000
 1.8026541490e+000	 1.6591980048e+000	-1.2074336630e+000
 1.7853819895e+000	 1.6777696957e+000	-1.1997924462e+000
 1.7679156825e+000	 1.6961645380e+000	-1.2113950930e+000
 1.7502579593e+000	 1.7143795018e+000	-1.2414718658e+000
 1.7324116139e+000	 1.7324116139e+000	-1.2892139390e+000
 1.9214741392e+000	 1.5599878628e+000	-1.1271026075e+000
 1.9052567234e+000	 1.5797537207e+000	-1.1950242863e+000
 1.8888280317e+000	 1.5993603930e+000	-1.2984431873e+000
 1.8721904147e+000	 1.6188045129e+000	-1.3940886985e+000
 1.8553462943e+000	 1.6380827599e+000	-1.3054490311e+000
 1.8382981623e+000	 1.6571918618e+000	-1.2406443315e+000
 1.8210485791e+000	 1.6761285967e+000	-1.1989881838e+000
 1.8036001731e+000	 1.6948897946e+000	-1.1797496818e+000
 1.7859556384e+000	 1.7134723394e+000	-1.1821540635e+000
 1.7681177343e+000	 1.7318731702e+000	-1.2053834397e+000
 1.7500892834e+000	 1.7500892834e+000	-1.2485776129e+000
 1.9408829689e+000	 1.5757453160e+000	-9.5573544648e-001
 1.9245017408e+000	 1.5957108290e+000	-9.9704957104e-001
 1.9079071027e+000	 1.6155155485e+000	-1.0764355345e+000
 1.8911014290e+000	 1.6351560736e+000	-1.1936294004e+000
 1.8740871660e+000	 1.6546290504e+000	-1.3340046936e+000
 1.8568668306e+000	 1.6739311735e+000	-1.2516172104e+000
 1.8394430092e+000	 1.6930591885e+000	-1.1948352901e+000
 1.8218183566e+000	 1.7120098935e+000	-1.1628869899e+000
 1.8039955943e+000	 1.7307801408e+000	-1.1549531997e+000
 1.7859775094e+000	 1.7493668386e+000	-1.1701684124e+000
 1.7677669530e+000	 1.7677669530e+000	-1.2076215920e+000
 1.5909902577e+000	 1.5909902577e+000	-1.6744865891e+000
 1.5744301547e+000	 1.6073797585e+000	-1.7116217572e+000
 1.5577021267e+000	 1.6235960349e+000	-1.7438632227e+000
 1.5408089042e+000	 1.6396365210e+000	-1.7706705779e+000
 1.5237532697e+000	 1.6554987083e+000	-1.7914937221e+000
 1.5065380562e+000	 1.6711801475e+000	-1.8057735585e+000
 1.4891661453e+000	 1.6866784494e+000	-1.8129427279e+000
 1.4716404663e+000	 1.7019912862e+000	-1.8124263748e+000
 1.4539639937e+000	 1.7171163925e+000	-1.8036429465e+000
 1.4361397461e+000	 1.7320515667e+000	-1.7860050223e+000
 1.4181707844e+000	 1.7467946721e+000	-1.7589201709e+000
 1.6086679272e+000	 1.6086679272e+000	-1.6150488176e+000
 1.5919238231e+000	 1.6252395336e+000	-1.6559081145e+000
 1.5750099281e+000	 1.6416359909e+000	-1.6884487741e+000
 1.5579290031e+000	 1.6578547045e+000	-1.7121869493e+000
 1.5406838616e+000	 1.6738931384e+000	-1.7266316558e+000
 1.5232773679e+000	 1.6897488158e+000	-1.7312854082e+000
 1.5057124358e+000	 1.7054193211e+000	-1.7256448884e+000
 1.4879920270e+000	 1.7209023004e+000	-1.7092016459e+000
 1.4701191492e+000	 1.7361954635e+000	-1.6814428274e+000
 1.4520968544e+000	 1.7512965841e+000	-1.6418519355e+000
 1.4339282376e+000	 1.7662035017e+000	-1.5899096133e+000
 1.6263455968e+000	 1.6263455968e+000	-1.5599697306e+000
 1.6094174915e+000	 1.6430993087e+000	-1.6068544134e+000
 1.5923177295e+000	 1.6596759468e+000	-1.6420832417e+000
 1.5750491021e+000	 1.6760728881e+000	-1.6652276839e+000
 1.5576144535e+000	 1.6922875685e+000	-1.6758545560e+000
 1.5400166796e+000	 1.7083174841e+000	-1.6735265972e+000
 1.5222587263e+000	 1.7241601927e+000	-1.6578030756e+000
 1.5043435878e+000	 1.7398133147e+000	-1.6282404228e+000
 1.4862743046e+000	 1.7552745345e+000	-1.5843928971e+000
 1.4680539627e+000	 1.7705416015e+000	-1.5258132725e+000
 1.4496856907e+000	 1.7856123314e+000	-1.4520535525e+000
 1.6440232663e+000	 1.6440232663e+000	-1.5086914421e+000
 1.6269111599e+000	 1.6609590838e+000	-1.5638343982e+000
 1.6096255309e+000	 1.6777159028e+000	-1.6040700323e+000
 1.5921692010e+000	 1.6942910717e+000	-1.6290239169e+000
 1.5745450454e+000	 1.7106819986e+000	-1.6383193870e+000
 1.5567559914e+000	 1.7268861525e+000	-1.6315780555e+000
 1.5388050168e+000	 1.7429010644e+000	-1.6084203577e+000
 1.5206951485e+000	 1.7587243290e+000	-1.5684661229e+000
 1.5024294601e+000	 1.7743536055e+000	-1.5113351711e+000
 1.4840110710e+000	 1.7897866190e+000	-1.4366479356e+000
 1.4654431439e+000	 1.8050211611e+000	-1.3440261063e+000
 1.6617009358e+000	 1.6617009358e+000	-1.4606475466e+000
 1.6444048283e+000	 1.6788188589e+000	-1.5262162340e+000
 1.6269333323e+000	 1.6957558587e+000	-1.5737100149e+000
 1.6092892999e+000	 1.7125092552e+000	-1.6028073870e+000
 1.5914756372e+000	 1.7290764287e+000	-1.6131869555e+000
 1.5734953031e+000	 1.7454548208e+000	-1.6045278902e+000
 1.5553513073e+000	 1.7616419361e+000	-1.5765104102e+000
 1.5370467092e+000	 1.7776353433e+000	-1.5288162933e+000
 1.5185846156e+000	 1.7934326766e+000	-1.4611294089e+000
 1.4999681792e+000	 1.8090316364e+000	-1.3731362739e+000
 1.4812005971e+000	 1.8244299908e+000	-1.2645266299e+000
 1.6793786053e+000	 1.6793786053e+000	-1.4152635674e+000
 1.6618984966e+000	 1.6966786340e+000	-1.4933628004e+000
 1.6442411337e+000	 1.7137958146e+000	-1.5503016543e+000
 1.6264093989e+000	 1.7307274388e+000	-1.5858104040e+000
 1.6084062291e+000	 1.7474708588e+000	-1.5996217077e+000
 1.5902346148e+000	 1.7640234891e+000	-1.5914710079e+000
 1.5718975978e+000	 1.7803828077e+000	-1.5610969573e+000
 1.5533982700e+000	 1.7965463576e+000	-1.5082418675e+000
 1.5347397711e+000	 1.8125117476e+000	-1.4326521792e+000
 1.5159252875e+000	 1.8282766538e+000	-1.3340789545e+000
 1.4969580502e+000	 1.8438388205e+000	-1.2122783874e+000
 1.6970562749e+000	 1.6970562749e+000	-1.3719573768e+000
 1.6793921650e+000	 1.7145384091e+000	-1.4646319666e+000
 1.6615489351e+000	 1.7318357706e+000	-1.5331411367e+000
 1.6435294978e+000	 1.7489456224e+000	-1.5772658197e+000
 1.6253368210e+000	 1.7658652889e+000	-1.5967915402e+000
 1.6069739266e+000	 1.7825921574e+000	-1.5915087606e+000
 1.5884438884e+000	 1.7991236794e+000	-1.5612132487e+000
 1.5697498307e+000	 1.8154573719e+000	-1.5057064677e+000
 1.5508949266e+000	 1.8315908186e+000	-1.4247959856e+000
 1.5318823958e+000	 1.8475216712e+000	-1.3182959042e+000
 1.5127155034e+000	 1.8632476502e+000	-1.1860273065e+000
 1.7147339444e+000	 1.7147339444e+000	-1.3301395907e+000
 1.6968858334e+000	 1.7323981842e+000	-1.4393768501e+000
 1.6788567365e+000	 1.7498757265e+000	-1.5215224864e+000
 1.6606495967e+000	 1.7671638059e+000	-1.5764069993e+000
 1.6422674129e+000	 1.7842597190e+000	-1.6038676221e+000
 1.6237132383e+000	 1.8011608257e+000	-1.6037486134e+000
 1.6049901789e+000	 1.8178645510e+000	-1.5759015685e+000
 1.5861013914e+000	 1.8343683862e+000	-1.5201857511e+000
 1.5670500821e+000	 1.8506698896e+000	-1.4364684441e+000
 1.5478395041e+000	 1.8667666886e+000	-1.3246253170e+000
 1.5284729565e+000	 1.8826564799e+000	-1.2309006694e+000
 1.7324116139e+000	 1.7324116139e+000	-1.2892139390e+000
 1.7143795018e+000	 1.7502579593e+000	-1.4169460588e+000
 1.6961645380e+000	 1.7679156825e+000	-1.5147376768e+000
 1.6777696957e+000	 1.7853819895e+000	-1.5824677959e+000
 1.6591980048e+000	 1.8026541490e+000	-1.6200242280e+000
 1.6404525500e+000	 1.8197294940e+000	-1.6273038328e+000
 1.6215364694e+000	 1.8366054227e+000	-1.6042127742e+000
 1.6024529522e+000	 1.8532794005e+000	-1.5506667957e+000
 1.5832052375e+000	 1.8697489607e+000	-1.4665915129e+000
 1.5637966124e+000	 1.8860117060e+000	-1.4137895444e+000
 1.5442304097e+000	 1.9020653096e+000	-1.3601312433e+000
 1.7500892834e+000	 1.7500892834e+000	-1.2485776129e+000
 1.7318731702e+000	 1.7681177343e+000	-1.3966839186e+000
 1.7134723394e+000	 1.7859556384e+000	-1.5120767335e+000
 1.6948897946e+000	 1.8036001731e+000	-1.5946825253e+000
 1.6761285967e+000	 1.8210485791e+000	-1.6444385810e+000
 1.6571918618e+000	 1.8382981623e+000	-1.6612931933e+000
 1.6380827599e+000	 1.8553462943e+000	-1.6452058639e+000
 1.6188045129e+000	 1.8721904147e+000	-1.5961475235e+000
 1.5993603930e+000	 1.8888280317e+000	-1.5862635753e+000
 1.5797537207e+000	 1.9052567234e+000	-1.5578956375e+000
 1.5599878628e+000	 1.9214741392e+000	-1.4971508350e+000
 1.7677669530e+000	 1.7677669530e+000	-1.2076215920e+000
 1.7493668386e+000	 1.7859775094e+000	-1.3779306879e+000
 1.7307801408e+000	 1.8039955943e+000	-1.5128278321e+000
 1.7120098935e+000	 1.8218183566e+000	-1.6122859434e+000
 1.6930591885e+000	 1.8394430092e+000	-1.6762907055e+000
 1.6739311735e+000	 1.8568668306e+000	-1.7048407024e+000
 1.6546290504e+000	 1.8740871660e+000	-1.6979475693e+000
 1.6351560736e+000	 1.8911014290e+000	-1.7338375568e+000
 1.6155155485e+000	 1.9079071027e+000	-1.7380173950e+000
 1.5957108290e+000	 1.9245017408e+000	-1.7068469433e+000
 1.5757453160e+000	 1.9408829689e+000	-1.6411376902e+000
 1.4181707844e+000	 1.7467946721e+000	-1.7589201709e+000
 1.4000602100e+000	 1.7613436372e+000	-1.8066297715e+000
 1.3818111630e+000	 1.7756964577e+000	-1.8458956679e+000
 1.3634268205e+000	 1.7898511964e+000	-1.8765525107e+000
 1.3449103948e+000	 1.8038059846e+000	-1.8984298195e+000
 1.3262651314e+000	 1.8175590227e+000	-1.9113524984e+000
 1.3074943075e+000	 1.8311085811e+000	-1.9151413750e+000
 1.2886012298e+000	 1.8444530004e+000	-1.9096137607e+000
 1.2695892326e+000	 1.8575906924e+000	-1.8945840310e+000
 1.2504616763e+000	 1.8705201405e+000	-1.8698642229e+000
 1.2312219451e+000	 1.8832399002e+000	-1.7132033273e+000
 1.4339282376e+000	 1.7662035017e+000	-1.5899096133e+000
 1.4156164346e+000	 1.7809141221e+000	-1.6249784632e+000
 1.3971646204e+000	 1.7954264183e+000	-1.6500097743e+000
 1.3785760074e+000	 1.8097384319e+000	-1.6648321354e+000
 1.3598538436e+000	 1.8238482733e+000	-1.6692700822e+000
 1.3410014107e+000	 1.8377541230e+000	-1.6631446261e+000
 1.3220220220e+000	 1.8514542320e+000	-1.6462738044e+000
 1.3029190212e+000	 1.8649469226e+000	-1.6184732512e+000
 1.2836957796e+000	 1.8782305890e+000	-1.6112938020e+000
 1.2643556949e+000	 1.8913036977e+000	-1.6933254213e+000
 1.2449021889e+000	 1.9041647880e+000	-1.7055909562e+000
 1.4496856907e+000	 1.7856123314e+000	-1.4520535525e+000
 1.4311726591e+000	 1.8004846069e+000	-1.4747251466e+000
 1.4125180778e+000	 1.8151563790e+000	-1.4858133653e+000
 1.3937251943e+000	 1.8296256674e+000	-1.4851402790e+000
 1.3747972925e+000	 1.8438905620e+000	-1.4725249399e+000
 1.3557376899e+000	 1.8579492232e+000	-1.4477839242e+000
 1.3365497366e+000	 1.8717998829e+000	-1.4107318945e+000
 1.3172368126e+000	 1.8854408449e+000	-1.4566619187e+000
 1.2978023266e+000	 1.8988704856e+000	-1.5223594113e+000
 1.2782497135e+000	 1.9120872548e+000	-1.5794749116e+000
 1.2585824328e+000	 1.9250896758e+000	-1.6282726862e+000
 1.4654431439e+000	 1.8050211611e+000	-1.3440261063e+000
 1.4467288837e+000	 1.8200550918e+000	-1.3545501264e+000
 1.4278715351e+000	 1.8348863396e+000	-1.3519921258e+000
 1.4088743812e+000	 1.8495129029e+000	-1.3361671966e+000
 1.3897407413e+000	 1.8639328507e+000	-1.3068884047e+000
 1.3704739692e+000	 1.8781443235e+000	-1.2901192043e+000
 1.3510774511e+000	 1.8921455338e+000	-1.3528829650e+000
 1.3315546041e+000	 1.9059347671e+000	-1.4052657610e+000
 1.3119088736e+000	 1.9195103822e+000	-1.4475775626e+000
 1.2921437321e+000	 1.9328708119e+000	-1.4801165776e+000
 1.2722626766e+000	 1.9460145636e+000	-1.5031688818e+000
 1.4812005971e+000	 1.8244299908e+000	-1.2645266299e+000
 1.4622851082e+000	 1.8396255767e+000	-1.2631588799e+000
 1.4432249925e+000	 1.8546163002e+000	-1.2472568988e+000
 1.4240235681e+000	 1.8694001384e+000	-1.2166283372e+000
 1.4046841901e+000	 1.8839751394e+000	-1.2403735861e+000
 1.3852102484e+000	 1.8983394238e+000	-1.2942955999e+000
 1.3656051656e+000	 1.9124911847e+000	-1.3363099084e+000
 1.3458723955e+000	 1.9264286893e+000	-1.3667575563e+000
 1.3260154207e+000	 1.9401502787e+000	-1.3859689339e+000
 1.3060377508e+000	 1.9536543690e+000	-1.3942633381e+000
 1.2859429204e+000	 1.9669394514e+000	-1.3919485734e+000
 1.4969580502e+000	 1.8438388205e+000	-1.2122783874e+000
 1.4778413328e+000	 1.8591960615e+000	-1.1992807322e+000
 1.4585784499e+000	 1.8743462609e+000	-1.1703423618e+000
 1.4391727550e+000	 1.8892873739e+000	-1.2275164536e+000
 1.4196276390e+000	 1.9040174282e+000	-1.2754732151e+000
 1.3999465276e+000	 1.9185345240e+000	-1.3099923330e+000
 1.3801328802e+000	 1.9328368356e+000	-1.3314441154e+000
 1.3601901869e+000	 1.9469226115e+000	-1.3401893798e+000
 1.3401219677e+000	 1.9607901753e+000	-1.3365789464e+000
 1.3199317694e+000	 1.9744379261e+000	-1.3209531700e+000
 1.2996231643e+000	 1.9878643392e+000	-1.2936415116e+000
 1.5127155034e+000	 1.8632476502e+000	-1.1860273065e+000
 1.4933975573e+000	 1.8787665464e+000	-1.1862548638e+000
 1.4739319072e+000	 1.8940762215e+000	-1.2464233875e+000
 1.4543219419e+000	 1.9091746095e+000	-1.2912172792e+000
 1.4345710878e+000	 1.9240597169e+000	-1.3210419647e+000
 1.4146828069e+000	 1.9387296243e+000	-1.3362952092e+000
 1.3946605947e+000	 1.9531824865e+000	-1.3373665068e+000
 1.3745079784e+000	 1.9674165338e+000	-1.3246365062e+000
 1.3542285147e+000	 1.9814300719e+000	-1.2984764752e+000
 1.3338257880e+000	 1.9952214832e+000	-1.2592478028e+000
 1.3133034081e+000	 2.0087892269e+000	-1.2073015418e+000
 1.5284729565e+000	 1.8826564799e+000	-1.2309006694e+000
 1.5089537819e+000	 1.8983370312e+000	-1.2921911170e+000
 1.4892853646e+000	 1.9138061822e+000	-1.3365509282e+000
 1.4694711288e+000	 1.9290618450e+000	-1.3644098452e+000
 1.4495145366e+000	 1.9441020056e+000	-1.3761912881e+000
 1.4294190861e+000	 1.9589247245e+000	-1.3723116802e+000
 1.4091883092e+000	 1.9735281374e+000	-1.3531798071e+000
 1.3888257698e+000	 1.9879104560e+000	-1.3191962142e+000
 1.3683350618e+000	 2.0020699685e+000	-1.2707526409e+000
 1.3477198066e+000	 2.0160050404e+000	-1.2082314945e+000
 1.3269836519e+000	 2.0297141147e+000	-1.1320053624e+000
 1.5442304097e+000	 1.9020653096e+000	-1.3601312433e+000
 1.5245100065e+000	 1.9179075161e+000	-1.4067127657e+000
 1.5046388219e+000	 1.9335361428e+000	-1.4352630050e+000
 1.4846203157e+000	 1.9489490805e+000	-1.4462292378e+000
 1.4644579854e+000	 1.9641442943e+000	-1.4400530718e+000
 1.4441553653e+000	 1.9791198248e+000	-1.4171697402e+000
 1.4237160237e+000	 1.9938737883e+000	-1.3780074330e+000
 1.4031435613e+000	 2.0084043782e+000	-1.3229866635e+000
 1.3824416088e+000	 2.0227098651e+000	-1.2525196744e+000
 1.3616138253e+000	 2.0367885975e+000	-1.1670098819e+000
 1.3406638958e+000	 2.0506390025e+000	-1.0668513588e+000
 1.5599878628e+000	 1.9214741392e+000	-1.4971508350e+000
 1.5400662310e+000	 1.9374780009e+000	-1.5289785162e+000
 1.5199922793e+000	 1.9532661034e+000	-1.5417165143e+000
 1.4997695026e+000	 1.9688363160e+000	-1.5358298787e+000
 1.4794014343e+000	 1.9841865830e+000	-1.5117786026e+000
 1.4588916446e+000	 1.9993149250e+000	-1.4700168882e+000
 1.4382437383e+000	 2.0142194392e+000	-1.4109924474e+000
 1.4174613527e+000	 2.0288983004e+000	-1.3351458404e+000
 1.3965481558e+000	 2.0433497617e+000	-1.2429098508e+000
 1.3755078439e+000	 2.0575721546e+000	-1.1347089012e+000
 1.3543441396e+000	 2.0715638903e+000	-1.0109585079e+000
 1.5757453160e+000	 1.9408829689e+000	-1.6411376902e+000
 1.5556224556e+000	 1.9570484858e+000	-1.6581654277e+000
 1.5353457367e+000	 1.9729960641e+000	-1.6550866950e+000
 1.5149186895e+000	 1.9887235515e+000	-1.6323845578e+000
 1.4943448831e+000	 2.0042288717e+000	-1.5905375986e+000
 1.4736279238e+000	 2.0195100253e+000	-1.5300191524e+000
 1.4527714528e+000	 2.0345650901e+000	-1.4512965781e+000
 1.4317791441e+000	 2.0493922227e+000	-1.3548305664e+000
 1.4106547028e+000	 2.0639896582e+000	-1.2410744868e+000
 1.3894018625e+000	 2.0783557117e+000	-1.1104737729e+000
 1.3680243835e+000	 2.0924887780e+000	-9.6346534867e-001
 1.2312219451e+000	 1.8832399002e+000	-1.7132033273e+000
 1.2118734454e+000	 1.8957485995e+000	-1.8240202705e+000
 1.1924196034e+000	 1.9080449390e+000	-1.9076867933e+000
 1.1728638638e+000	 1.9201276929e+000	-1.9641598353e+000
 1.1532096875e+000	 1.9319957082e+000	-1.9934013422e+000
 1.1334605497e+000	 1.9436479059e+000	-1.9953799001e+000
 1.1136199380e+000	 1.9550832805e+000	-1.9700723774e+000
 1.0936913507e+000	 1.9663009000e+000	-1.9174655690e+000
 1.0736782945e+000	 1.9772999064e+000	-1.8375578378e+000
 1.0535842829e+000	 1.9880795152e+000	-1.7303607453e+000
 1.0334128344e+000	 1.9986390154e+000	-1.5959006680e+000
 1.2449021889e+000	 1.9041647880e+000	-1.7055909562e+000
 1.2253387059e+000	 1.9168124728e+000	-1.7743077812e+000
 1.2056687101e+000	 1.9292454384e+000	-1.8226041927e+000
 1.1858956845e+000	 1.9414624450e+000	-1.8502767548e+000
 1.1660231285e+000	 1.9534623272e+000	-1.8571207984e+000
 1.1460545558e+000	 1.9652439938e+000	-1.8429323395e+000
 1.1259934929e+000	 1.9768064280e+000	-1.8075100120e+000
 1.1058434768e+000	 1.9881486878e+000	-1.7506570078e+000
 1.0856080533e+000	 1.9992699054e+000	-1.6721830196e+000
 1.0652907750e+000	 2.0101692876e+000	-1.5719061782e+000
 1.0448951992e+000	 2.0208461156e+000	-1.4496549773e+000
 1.2585824328e+000	 1.9250896758e+000	-1.6282726862e+000
 1.2388039664e+000	 1.9378763461e+000	-1.7662412921e+000
 1.2189178168e+000	 1.9504459377e+000	-1.7761993710e+000
 1.1989275052e+000	 1.9627971972e+000	-1.7719929199e+000
 1.1788365695e+000	 1.9749289462e+000	-1.7532511288e+000
 1.1586485619e+000	 1.9868400816e+000	-1.7195979526e+000
 1.1383670478e+000	 1.9985295756e+000	-1.6706543357e+000
 1.1179956029e+000	 2.0099964756e+000	-1.6060404493e+000
 1.0975378121e+000	 2.0212399043e+000	-1.5253779365e+000
 1.0769972670e+000	 2.0322590600e+000	-1.4282921559e+000
 1.0563775640e+000	 2.0430532157e+000	-1.3144144176e+000
 1.2722626766e+000	 1.9460145636e+000	-1.5031688818e+000
 1.2522692269e+000	 1.9589402195e+000	-1.7641502041e+000
 1.2321669235e+000	 1.9716464370e+000	-1.7659136667e+000
 1.2119593259e+000	 1.9841319493e+000	-1.7269016168e+000
 1.1916500104e+000	 1.9963955652e+000	-1.6795428565e+000
 1.1712425680e+000	 2.0084361695e+000	-1.6232896799e+000
 1.1507406026e+000	 2.0202527232e+000	-1.5575857750e+000
 1.1301477291e+000	 2.0318442634e+000	-1.4818687603e+000
 1.1094675710e+000	 2.0432099033e+000	-1.3955727318e+000
 1.0887037590e+000	 2.0543488324e+000	-1.2981308155e+000
 1.0678599288e+000	 2.0652603159e+000	-1.1889777137e+000
 1.2859429204e+000	 1.9669394514e+000	-1.3919485734e+000
 1.2657344874e+000	 1.9800040928e+000	-1.6210605715e+000
 1.2454160302e+000	 1.9928469363e+000	-1.7892055003e+000
 1.2249911467e+000	 2.0054667014e+000	-1.7126080519e+000
 1.2044634514e+000	 2.0178621842e+000	-1.6337530758e+000
 1.1838365741e+000	 2.0300322573e+000	-1.5519214997e+000
 1.1631141575e+000	 2.0419758707e+000	-1.4663800805e+000
 1.1422998552e+000	 2.0536920511e+000	-1.3763842397e+000
 1.1213973298e+000	 2.0651799023e+000	-1.2811809159e+000
 1.1004102511e+000	 2.0764386048e+000	-1.1800114248e+000
 1.0793422937e+000	 2.0874674161e+000	-1.0721143189e+000
 1.2996231643e+000	 1.9878643392e+000	-1.2936415116e+000
 1.2791997479e+000	 2.0010679661e+000	-1.4878584590e+000
 1.2586651369e+000	 2.0140474357e+000	-1.6996852162e+000
 1.2380229674e+000	 2.0268014536e+000	-1.7267287243e+000
 1.2172768924e+000	 2.0393288031e+000	-1.6136451062e+000
 1.1964305802e+000	 2.0516283452e+000	-1.5034083739e+000
 1.1754877124e+000	 2.0636990183e+000	-1.3951085725e+000
 1.1544519813e+000	 2.0755398389e+000	-1.2878191751e+000
 1.1333270886e+000	 2.0871499012e+000	-1.1806002410e+000
 1.1121167431e+000	 2.0985283772e+000	-1.0725015859e+000
 1.0908246585e+000	 2.1096745162e+000	-9.6256595485e-001
 1.3133034081e+000	 2.0087892269e+000	-1.2073015418e+000
 1.2926650084e+000	 2.0221318395e+000	-1.3636966459e+000
 1.2719142436e+000	 2.0352479350e+000	-1.5441299658e+000
 1.2510547881e+000	 2.0481362057e+000	-1.7481991424e+000
 1.2300903333e+000	 2.0607954221e+000	-1.6169881684e+000
 1.2090245863e+000	 2.0732244330e+000	-1.4756661964e+000
 1.1878612672e+000	 2.0854221659e+000	-1.3418383721e+000
 1.1666041074e+000	 2.0973876267e+000	-1.2143963637e+000
 1.1452568475e+000	 2.1091199002e+000	-1.0922135224e+000
 1.1238232351e+000	 2.1206181496e+000	-9.7414836385e-001
 1.1023070233e+000	 2.1318816164e+000	-8.5904805650e-001
 1.3269836519e+000	 2.0297141147e+000	-1.1320053624e+000
 1.3061302689e+000	 2.0431957128e+000	-1.2477466949e+000
 1.2851633503e+000	 2.0564484343e+000	-1.3938489430e+000
 1.2640866088e+000	 2.0694709579e+000	-1.5698022397e+000
 1.2429037743e+000	 2.0822620411e+000	-1.6415570800e+000
 1.2216185925e+000	 2.0948205209e+000	-1.4666117450e+000
 1.2002348221e+000	 2.1071453134e+000	-1.3046326175e+000
 1.1787562335e+000	 2.1192354145e+000	-1.1543296019e+000
 1.1571866063e+000	 2.1310898991e+000	-1.0143894079e+000
 1.1355297272e+000	 2.1427079219e+000	-8.8347934498e-001
 1.1137893881e+000	 2.1540887166e+000	-7.6025112667e-001
 1.3406638958e+000	 2.0506390025e+000	-1.0668513588e+000
 1.3195955294e+000	 2.0642595861e+000	-1.1391979939e+000
 1.2984124570e+000	 2.0776489336e+000	-1.2481264815e+000
 1.2771184295e+000	 2.0908057100e+000	-1.3930213188e+000
 1.2557172153e+000	 2.1037286601e+000	-1.5732175273e+000
 1.2342125986e+000	 2.1164166087e+000	-1.4741626366e+000
 1.2126083770e+000	 2.1288684610e+000	-1.2815506672e+000
 1.1909083597e+000	 2.1410832022e+000	-1.1058241444e+000
 1.1691163651e+000	 2.1530598981e+000	-9.4548310133e-001
 1.1472362192e+000	 2.1647976943e+000	-7.9900363092e-001
 1.1252717530e+000	 2.1762958168e+000	-6.6484200826e-001
 1.3543441396e+000	 2.0715638903e+000	-1.0109585079e+000
 1.3330607899e+000	 2.0853234594e+000	-1.0372568559e+000
 1.3116615637e+000	 2.0988494330e+000	-1.1062600247e+000
 1.2901502502e+000	 2.1121404622e+000	-1.2172486937e+000
 1.2685306563e+000	 2.1251952790e+000	-1.3694484112e+000
 1.2468066047e+000	 2.1380126965e+000	-1.4962372848e+000
 1.2249819318e+000	 2.1505916085e+000	-1.2706482912e+000
 1.2030604858e+000	 2.1629309900e+000	-1.0670771355e+000
 1.1810461240e+000	 2.1750298971e+000	-8.8383704079e-001
 1.1589427112e+000	 2.1868874667e+000	-7.1921277210e-001
 1.1367541178e+000	 2.1985029169e+000	-5.7146507920e-001
 1.3680243835e+000	 2.0924887780e+000	-9.6346534867e-001
 1.3465260504e+000	 2.1063873328e+000	-9.4114567249e-001
 1.3249106704e+000	 2.1200499323e+000	-9.6755947002e-001
 1.3031820709e+000	 2.1334752143e+000	-1.0418853698e+000
 1.2813440973e+000	 2.1466618980e+000	-1.1632412486e+000
 1.2594006108e+000	 2.1596087844e+000	-1.3306855873e+000
 1.2373554867e+000	 2.1723147561e+000	-1.2699778498e+000
 1.2152126119e+000	 2.1847787778e+000	-1.0362780149e+000
 1.1929758828e+000	 2.1969998960e+000	-8.2778153747e-001
 1.1706492033e+000	 2.2089772391e+000	-6.4258164530e-001
 1.1482364826e+000	 2.2207100171e+000	-4.7874337568e-001
 1.0334128344e+000	 1.9986390154e+000	-1.5959006680e+000
 1.0131674701e+000	 2.0089777693e+000	-1.6009340141e+000
 9.9285171243e-001	 2.0190952125e+000	-1.5897892615e+000
 9.7246908310e-001	 2.0289908532e+000	-1.5623803168e+000
 9.5202310113e-001	 2.0386642723e+000	-1.5186345759e+000
 9.3151728120e-001	 2.0481151225e+000	-1.4584946256e+000
 9.1095513182e-001	 2.0573431284e+000	-1.3819199030e+000
 8.9034015358e-001	 2.0663480856e+000	-1.2888883091e+000
 8.6967583741e-001	 2.0751298605e+000	-1.1793977720e+000
 8.4896566288e-001	 2.0836883892e+000	-1.0534677529e+000
 8.2821309651e-001	 2.0920236774e+000	-9.1114069280e-001
 1.0448951992e+000	 2.0208461156e+000	-1.4496549773e+000
 1.0244248864e+000	 2.0312997445e+000	-1.4683177876e+000
 1.0038833981e+000	 2.0415296038e+000	-1.4695452113e+000
 9.8327429514e-001	 2.0515351960e+000	-1.4532014373e+000
 9.6260113559e-001	 2.0613160975e+000	-1.4191649814e+000
 9.4186747321e-001	 2.0708719572e+000	-1.3673304919e+000
 9.2107685550e-001	 2.0802024965e+000	-1.2976105121e+000
 9.0023282195e-001	 2.0893075088e+000	-1.2099371933e+000
 8.7933890227e-001	 2.0981868589e+000	-1.1042639547e+000
 8.5839861469e-001	 2.1068404824e+000	-9.8056708334e-001
 8.3741546425e-001	 2.1152683849e+000	-8.3884727154e-001
 1.0563775640e+000	 2.0430532157e+000	-1.3144144176e+000
 1.0356823027e+000	 2.0536217198e+000	-1.3472123102e+000
 1.0149150838e+000	 2.0639639950e+000	-1.3613401014e+000
 9.9407950717e-001	 2.0740795389e+000	-1.3566103497e+000
 9.7317917004e-001	 2.0839679228e+000	-1.3328507641e+000
 9.5221766522e-001	 2.0936287919e+000	-1.2899061179e+000
 9.3119857919e-001	 2.1030618646e+000	-1.2276401165e+000
 9.1012549032e-001	 2.1122669320e+000	-1.1459372141e+000
 8.8900196713e-001	 2.1212438574e+000	-1.0447043734e+000
 8.6783156650e-001	 2.1299925756e+000	-9.2387276322e-001
 8.4661783199e-001	 2.1385130925e+000	-7.8339938946e-001
 1.0678599288e+000	 2.0652603159e+000	-1.1889777137e+000
 1.0469397191e+000	 2.0759436950e+000	-1.2364639290e+000
 1.0259467695e+000	 2.0863983863e+000	-1.2640681385e+000
 1.0048847192e+000	 2.0966238817e+000	-1.2715493176e+000
 9.8375720450e-001	 2.1066197480e+000	-1.2586824019e+000
 9.6256785724e-001	 2.1163856266e+000	-1.2252603121e+000
 9.4132030288e-001	 2.1259212327e+000	-1.1710959318e+000
 9.2001815870e-001	 2.1352263552e+000	-1.0960240309e+000
 8.9866503199e-001	 2.1443008558e+000	-9.9990312833e-001
 8.7726451831e-001	 2.1531446689e+000	-8.8261729100e-001
 8.5582019972e-001	 2.1617578000e+000	-7.4407786151e-001
 1.0793422937e+000	 2.0874674161e+000	-1.0721143189e+000
 1.0581971354e+000	 2.0982656702e+000	-1.1348892570e+000
 1.0369784552e+000	 2.1088327775e+000	-1.1765933487e+000
 1.0156899312e+000	 2.1191682245e+000	-1.1969299935e+000
 9.9433523896e-001	 2.1292715733e+000	-1.1956193458e+000
 9.7291804925e-001	 2.1391424613e+000	-1.1724004570e+000
 9.5144202657e-001	 2.1487806008e+000	-1.1270333648e+000
 9.2991082707e-001	 2.1581857783e+000	-1.0593011272e+000
 9.0832809685e-001	 2.1673578543e+000	-9.6901179287e-001
 8.8669747012e-001	 2.1762967621e+000	-8.5600030347e-001
 8.6502256746e-001	 2.1850025075e+000	-7.2013032244e-001
 1.0908246585e+000	 2.1096745162e+000	-9.6256595485e-001
 1.0694545517e+000	 2.1205876454e+000	-1.0412767382e+000
 1.0480101409e+000	 2.1312671688e+000	-1.0977511665e+000
 1.0264951433e+000	 2.1417125673e+000	-1.1316350294e+000
 1.0049132734e+000	 2.1519233985e+000	-1.1425916538e+000
 9.8326824127e-001	 2.1618992960e+000	-1.1303041639e+000
 9.6156375025e-001	 2.1716399689e+000	-1.0944776877e+000
 9.3980349544e-001	 2.1811452015e+000	-1.0348415043e+000
 9.1799116171e-001	 2.1904148527e+000	-9.5115112548e-001
 8.9613042193e-001	 2.1994488553e+000	-8.4319030535e-001
 8.7422493520e-001	 2.2082472150e+000	-7.1077297318e-001
 1.1023070233e+000	 2.1318816164e+000	-8.5904805650e-001
 1.0807119681e+000	 2.1429096206e+000	-9.5438811491e-001
 1.0590418266e+000	 2.1537015600e+000	-1.0263499230e+000
 1.0373003553e+000	 2.1642569101e+000	-1.0745195878e+000
 1.0154913079e+000	 2.1745752237e+000	-1.0985015212e+000
 9.9361843328e-001	 2.1846561306e+000	-1.0979208231e+000
 9.7168547394e-001	 2.1944993369e+000	-1.0724256076e+000
 9.4969616382e-001	 2.2041046247e+000	-1.0216892686e+000
 9.2765422657e-001	 2.2134718512e+000	-9.4541267466e-001
 9.0556337374e-001	 2.2226009485e+000	-8.4332629076e-001
 8.8342730294e-001	 2.2314919226e+000	-7.1519221803e-001
 1.1137893881e+000	 2.1540887166e+000	-7.6025112667e-001
 1.0919693844e+000	 2.1652315958e+000	-8.7295980376e-001
 1.0700735123e+000	 2.1761359513e+000	-9.6117224386e-001
 1.0481055673e+000	 2.1868012529e+000	-1.0244127583e+000
 1.0260693423e+000	 2.1972270490e+000	-1.0622247172e+000
 1.0039686253e+000	 2.2074129653e+000	-1.0741730584e+000
 9.8180719763e-001	 2.2173587050e+000	-1.0598467391e+000
 9.5958883219e-001	 2.2270640479e+000	-1.0188611210e+000
 9.3731729143e-001	 2.2365288496e+000	-9.5086028459e-001
 9.1499632555e-001	 2.2457530417e+000	-8.5551926437e-001
 8.9262967068e-001	 2.2547366301e+000	-7.3254620052e-001
 1.1252717530e+000	 2.1762958168e+000	-6.6484200826e-001
 1.1032268007e+000	 2.1875535710e+000	-7.9570418804e-001
 1.0811051980e+000	 2.1985703425e+000	-9.0097636045e-001
 1.0589107794e+000	 2.2093455957e+000	-9.8011888824e-001
 1.0366473768e+000	 2.2198788742e+000	-1.0326119327e+000
 1.0143188173e+000	 2.2301698000e+000	-1.0579580933e+000
 9.9192892132e-001	 2.2402180731e+000	-1.0556849863e+000
 9.6948150057e-001	 2.2500234710e+000	-1.0253477557e+000
 9.4698035630e-001	 2.2595858481e+000	-9.6653150866e-001
 9.2442927736e-001	 2.2689051349e+000	-8.7885366944e-001
 9.0183203843e-001	 2.2779813376e+000	-7.6196624534e-001
 1.1367541178e+000	 2.1985029169e+000	-5.7146507920e-001
 1.1144842171e+000	 2.2098755463e+000	-7.2131083151e-001
 1.0921368837e+000	 2.2210047338e+000	-8.4449734180e-001
 1.0697159914e+000	 2.2318899385e+000	-9.4041883179e-001
 1.0472254113e+000	 2.2425306995e+000	-1.0084900475e+000
 1.0246690093e+000	 2.2529266347e+000	-1.0481490331e+000
 1.0020506450e+000	 2.2630774412e+000	-1.0588598413e+000
 9.7937416894e-001	 2.2729828942e+000	-1.0401151728e+000
 9.5664342116e-001	 2.2826428465e+000	-9.9143893724e-001
 9.3386222918e-001	 2.2920572281e+000	-9.1238872928e-001
 9.1103440617e-001	 2.3012260451e+000	-8.0255821278e-001
 1.1482364826e+000	 2.2207100171e+000	-4.7874337568e-001
 1.1257416334e+000	 2.2321975215e+000	-6.4844761929e-001
 1.1031685694e+000	 2.2434391250e+000	-7.9044825287e-001
 1.0805212035e+000	 2.2544342814e+000	-9.0407112504e-001
 1.0578034457e+000	 2.2651825247e+000	-9.8866332043e-001
 1.0350192013e+000	 2.2756834694e+000	-1.0435960717e+000
 1.0121723687e+000	 2.2859368093e+000	-1.0682676053e+000
 9.8926683732e-001	 2.2959423174e+000	-1.0621059138e+000
 9.6630648602e-001	 2.3056998450e+000	-1.0245714459e+000
 9.4329518099e-001	 2.3152093213e+000	-9.5515970829e-001
 9.2023677391e-001	 2.3244707527e+000	-8.5340377198e-001
 8.2821309651e-001	 2.0920236774e+000	-9.1114069280e-001
 8.0742159012e-001	 2.1001357994e+000	-9.0029767544e-001
 7.8659457923e-001	 2.1080248974e+000	-8.7412238221e-001
 7.6573548144e-001	 2.1156911808e+000	-8.3272050889e-001
 7.4484769492e-001	 2.1231349254e+000	-7.7622517480e-001
 7.2393459685e-001	 2.1303564724e+000	-7.0479802394e-001
 7.0299954197e-001	 2.1373562277e+000	-6.1863024595e-001
 6.8204586113e-001	 2.1441346607e+000	-5.1794351465e-001
 6.6107685984e-001	 2.1506923038e+000	-4.0299084183e-001
 6.4009581698e-001	 2.1570297506e+000	-2.7405734471e-001
 6.1910598340e-001	 2.1631476559e+000	-2.8648512931e-001
 8.3741546425e-001	 2.1152683849e+000	-8.3884727154e-001
 8.1639294112e-001	 2.1234706416e+000	-8.2908632343e-001
 7.9533451899e-001	 2.1314473962e+000	-8.0619915479e-001
 7.7424365345e-001	 2.1391988606e+000	-7.7020314701e-001
 7.5312378041e-001	 2.1467253135e+000	-7.2114193866e-001
 7.3197831459e-001	 2.1540270999e+000	-6.5908669489e-001
 7.1081064799e-001	 2.1611046302e+000	-5.8413729464e-001
 6.8962414847e-001	 2.1679583792e+000	-4.9642343266e-001
 6.6842215828e-001	 2.1745888849e+000	-3.9610563423e-001
 6.4720799272e-001	 2.1809967479e+000	-2.8337618032e-001
 6.2598493877e-001	 2.1871826299e+000	-1.5845994155e-001
 8.4661783199e-001	 2.1385130925e+000	-7.8339938946e-001
 8.2536429212e-001	 2.1468054838e+000	-7.7449945308e-001
 8.0407445876e-001	 2.1548698951e+000	-7.5459911195e-001
 7.8275182547e-001	 2.1627065404e+000	-7.2362648834e-001
 7.6139986591e-001	 2.1703157015e+000	-6.8153485487e-001
 7.4002203233e-001	 2.1776977274e+000	-6.2830407379e-001
 7.1862175401e-001	 2.1848530328e+000	-5.6394195178e-001
 6.9720243581e-001	 2.1917820976e+000	-4.8848550691e-001
 6.7576745672e-001	 2.1984854661e+000	-4.0200214541e-001
 6.5432016846e-001	 2.2049637451e+000	-3.0459074568e-001
 6.3286389413e-001	 2.2112176038e+000	-1.9638264766e-001
 8.5582019972e-001	 2.1617578000e+000	-7.4407786151e-001
 8.3433564312e-001	 2.1701403260e+000	-7.3589399130e-001
 8.1281439853e-001	 2.1782923940e+000	-7.1875782640e-001
 7.9125999748e-001	 2.1862142202e+000	-6.9250721655e-001
 7.6967595141e-001	 2.1939060896e+000	-6.5700411372e-001
 7.4806575007e-001	 2.2013683548e+000	-6.1213618303e-001
 7.2643286003e-001	 2.2086014353e+000	-5.5781832653e-001
 7.0478072316e-001	 2.2156058161e+000	-4.9399411663e-001
 6.8311275516e-001	 2.2223820472e+000	-4.2063713616e-001
 6.6143234421e-001	 2.2289307423e+000	-3.3775222241e-001
 6.3974284950e-001	 2.2352525778e+000	-2.4537661294e-001
 8.6502256746e-001	 2.1850025075e+000	-7.2013032244e-001
 8.4330699412e-001	 2.1934751683e+000	-7.1259219469e-001
 8.2155433830e-001	 2.2017148928e+000	-6.9807461218e-001
 7.9976816950e-001	 2.2097219000e+000	-6.7632407135e-001
 7.7795203691e-001	 2.2174964776e+000	-6.4711018078e-001
 7.5610946781e-001	 2.2250389823e+000	-6.1022744538e-001
 7.3424396605e-001	 2.2323498378e+000	-5.6549696089e-001
 7.1235901050e-001	 2.2394295346e+000	-5.1276801521e-001
 6.9045805361e-001	 2.2462786284e+000	-4.5191959312e-001
 6.6854451995e-001	 2.2528977396e+000	-3.8286178164e-001
 6.4662180487e-001	 2.2592875518e+000	-3.0553707339e-001
 8.7422493520e-001	 2.2082472150e+000	-7.1077297318e-001
 8.5227834513e-001	 2.2168100105e+000	-7.0388347435e-001
 8.3029427807e-001	 2.2251373917e+000	-6.9191443305e-001
 8.0827634151e-001	 2.2332295797e+000	-6.7451984560e-001
 7.8622812241e-001	 2.2410868657e+000	-6.5137588764e-001
 7.6415318556e-001	 2.2487096098e+000	-6.2218287340e-001
 7.4205507208e-001	 2.2560982403e+000	-5.8666712266e-001
 7.1993729785e-001	 2.2632532530e+000	-5.4458273150e-001
 6.9780335205e-001	 2.2701752095e+000	-4.9571324319e-001
 6.7565669569e-001	 2.2768647368e+000	-4.3987321619e-001
 6.5350076025e-001	 2.2833225257e+000	-3.7690968626e-001
 8.8342730294e-001	 2.2314919226e+000	-7.1519221803e-001
 8.6124969613e-001	 2.2401448527e+000	-7.0902610654e-001
 8.3903421784e-001	 2.2485598905e+000	-6.9960969155e-001
 8.1678451353e-001	 2.2567372595e+000	-6.8650325753e-001
 7.9450420791e-001	 2.2646772538e+000	-6.6928839205e-001
 7.7219690330e-001	 2.2723802372e+000	-6.4757012210e-001
 7.4986617810e-001	 2.2798466429e+000	-6.2097895515e-001
 7.2751558520e-001	 2.2870769715e+000	-5.8917282109e-001
 7.0514865049e-001	 2.2940717907e+000	-5.5183891081e-001
 6.8276887144e-001	 2.3008317340e+000	-5.0869540817e-001
 6.6037971562e-001	 2.3073574997e+000	-4.5949311224e-001
 8.9262967068e-001	 2.2547366301e+000	-7.3254620052e-001
 8.7022104713e-001	 2.2634796949e+000	-7.2724883760e-001
 8.4777415761e-001	 2.2719823894e+000	-7.2046190740e-001
 8.2529268555e-001	 2.2802449393e+000	-7.1165070711e-001
 8.0278029341e-001	 2.2882676418e+000	-7.0030101677e-001
 7.8024062105e-001	 2.2960508647e+000	-6.8592141454e-001
 7.5767728412e-001	 2.3035950454e+000	-6.6804549390e-001
 7.3509387254e-001	 2.3109006899e+000	-6.4623397838e-001
 7.1249394894e-001	 2.3179683718e+000	-6.2007672943e-001
 6.8988104719e-001	 2.3247987313e+000	-5.8919464396e-001
 6.6725867099e-001	 2.3313924736e+000	-5.5324143796e-001
 9.0183203843e-001	 2.2779813376e+000	-7.6196624534e-001
 8.7919239814e-001	 2.2868145371e+000	-7.5775239053e-001
 8.5651409738e-001	 2.2954048883e+000	-7.5374329317e-001
 8.3380085757e-001	 2.3037526191e+000	-7.4930792501e-001
 8.1105637891e-001	 2.3118580299e+000	-7.4383497582e-001
 7.8828433879e-001	 2.3197214922e+000	-7.3673534962e-001
 7.6548839015e-001	 2.3273434479e+000	-7.2744455997e-001
 7.4267215989e-001	 2.3347244084e+000	-7.1542501924e-001
 7.1983924738e-001	 2.3418649530e+000	-7.0016821758e-001
 6.9699322293e-001	 2.3487657285e+000	-6.8119678748e-001
 6.7413762637e-001	 2.3554274476e+000	-6.5806645023e-001
 9.1103440617e-001	 2.3012260451e+000	-8.0255821278e-001
 8.8816374914e-001	 2.3101493793e+000	-7.9971088037e-001
 8.6525403716e-001	 2.3188273871e+000	-7.9869823443e-001
 8.4230902959e-001	 2.3272602989e+000	-7.9879152152e-001
 8.1933246442e-001	 2.3354484179e+000	-7.9928099616e-001
 7.9632805654e-001	 2.3433921197e+000	-7.9947860027e-001
 7.7329949618e-001	 2.3510918505e+000	-7.9872053840e-001
 7.5025044724e-001	 2.3585481268e+000	-7.9636974359e-001
 7.2718454583e-001	 2.3657615341e+000	-7.9181822912e-001
 7.0410539868e-001	 2.3727327257e+000	-7.8448932169e-001
 6.8101658174e-001	 2.3794624215e+000	-7.7383977230e-001
 9.2023677391e-001	 2.3244707527e+000	-8.5340377198e-001
 8.9713510015e-001	 2.3334842215e+000	-8.5227314457e-001
 8.7399397693e-001	 2.3422498860e+000	-8.5454468112e-001
 8.5081720161e-001	 2.3507679787e+000	-8.5939044256e-001
 8.2760854992e-001	 2.3590388060e+000	-8.6600084205e-001
 8.0437177429e-001	 2.3670627471e+000	-8.7358750971e-001
 7.8111060220e-001	 2.3748402530e+000	-8.8138605003e-001
 7.5782873460e-001	 2.3823718453e+000	-8.8865868621e-001
 7.3452984428e-001	 2.3896581153e+000	-8.9469678647e-001
 7.1121757443e-001	 2.3966997229e+000	-8.9882326769e-001
 6.8789553712e-001	 2.4034973955e+000	-9.0039487216e-001
 6.1910598340e-001	 2.1631476559e+000	-2.8648512931e-001
 5.9811058066e-001	 2.1690467338e+000	-3.6750119791e-001
 5.7711279978e-001	 2.1747277568e+000	-4.1338236350e-001
 5.5611580005e-001	 2.1801915551e+000	-4.2710950268e-001
 5.3512270782e-001	 2.1854390149e+000	-4.1166940746e-001
 5.1413661543e-001	 2.1904710774e+000	-3.7004975201e-001
 4.9316058010e-001	 2.1952887378e+000	-3.0523417165e-001
 4.7219762289e-001	 2.1998930440e+000	-2.2019746178e-001
 4.5125072774e-001	 2.2042850952e+000	-1.1790090408e-001
 4.3032284048e-001	 2.2084660407e+000	-1.2877267659e-003
 4.0941686796e-001	 2.2124370789e+000	 1.2672129479e-001
 6.2598493877e-001	 2.1871826299e+000	-1.5845994155e-001
 6.0475625377e-001	 2.1931472531e+000	-2.3296658218e-001
 5.8352516422e-001	 2.1988913986e+000	-2.9537398581e-001
 5.6229486449e-001	 2.2044159057e+000	-3.2458279529e-001
 5.4106851568e-001	 2.2097216706e+000	-3.2370559291e-001
 5.1984924449e-001	 2.2148096449e+000	-2.9585518274e-001
 4.9864014209e-001	 2.2196808349e+000	-2.4413949276e-001
 4.7744426314e-001	 2.2243363000e+000	-1.7165660207e-001
 4.5626462471e-001	 2.2287771518e+000	-8.1489900858e-002
 4.3510420537e-001	 2.2330045523e+000	 2.3296610023e-002
 4.1396594427e-001	 2.2370197131e+000	 1.3966287328e-001
 6.3286389413e-001	 2.2112176038e+000	-1.9638264766e-001
 6.1140192689e-001	 2.2172477723e+000	-1.3206332147e-001
 5.8993752866e-001	 2.2230550403e+000	-2.0889739312e-001
 5.6847392893e-001	 2.2286402563e+000	-2.5145784420e-001
 5.4701432354e-001	 2.2340043263e+000	-2.6298569507e-001
 5.2556187355e-001	 2.2391482124e+000	-2.4672152156e-001
 5.0411970409e-001	 2.2440729320e+000	-2.0590017645e-001
 4.8269090339e-001	 2.2487795561e+000	-1.4374564137e-001
 4.6127852168e-001	 2.2532692084e+000	-6.3466016889e-002
 4.3988557026e-001	 2.2575430638e+000	 3.1751341984e-002
 4.1851502058e-001	 2.2616023474e+000	 1.3874453824e-001
 6.3974284950e-001	 2.2352525778e+000	-2.4537661294e-001
 6.1804760000e-001	 2.2413482916e+000	-6.7575515252e-002
 5.9634989310e-001	 2.2472186821e+000	-1.5665014726e-001
 5.7465299337e-001	 2.2528646070e+000	-2.1034541227e-001
 5.5296013141e-001	 2.2582869820e+000	-2.3203347208e-001
 5.3127450260e-001	 2.2634867799e+000	-2.2508537129e-001
 5.0959926609e-001	 2.2684650291e+000	-1.9286557429e-001
 4.8793754364e-001	 2.2732228121e+000	-1.3872663812e-001
 4.6629241865e-001	 2.2777612650e+000	-6.6004029086e-002
 4.4466693515e-001	 2.2820815754e+000	 2.1988909339e-002
 4.2306409689e-001	 2.2861849816e+000	 1.2196583052e-001
 6.4662180487e-001	 2.2592875518e+000	-3.0553707339e-001
 6.2469327312e-001	 2.2654488109e+000	-4.2236318495e-002
 6.0276225754e-001	 2.2713823238e+000	-1.4128024838e-001
 5.8083205782e-001	 2.2770889576e+000	-2.0380807715e-001
 5.5890593927e-001	 2.2825696377e+000	-2.3332586649e-001
 5.3698713166e-001	 2.2878253475e+000	-2.3333788135e-001
 5.1507882809e-001	 2.2928571261e+000	-2.0734093869e-001
 4.9318418390e-001	 2.2976660682e+000	-1.5881889740e-001
 4.7130631563e-001	 2.3022533216e+000	-9.1237297864e-002
 4.4944830005e-001	 2.3066200870e+000	-8.0381586559e-003
 4.2761317319e-001	 2.3107676158e+000	 8.7365062465e-002
 6.5350076025e-001	 2.2833225257e+000	-3.7690968626e-001
 6.3133894624e-001	 2.2895493301e+000	-1.6485735300e-001
 6.0917462198e-001	 2.2955459656e+000	-1.6538874347e-001
 5.8701112226e-001	 2.3013133082e+000	-2.3436276737e-001
 5.6485174713e-001	 2.3068522935e+000	-2.6929546920e-001
 5.4269976072e-001	 2.3121639150e+000	-2.7382714001e-001
 5.2055839009e-001	 2.3172492232e+000	-2.5158974386e-001
 4.9843082415e-001	 2.3221093242e+000	-2.0620122108e-001
 4.7632021260e-001	 2.3267453782e+000	-1.4125994695e-001
 4.5422966494e-001	 2.3311585985e+000	-6.0339353654e-002
 4.3216224950e-001	 2.3353502500e+000	 3.3017277239e-002
 6.6037971562e-001	 2.3073574997e+000	-4.5949311224e-001
 6.3798461936e-001	 2.3136498494e+000	-3.0626337016e-001
 6.1558698643e-001	 2.3197096073e+000	-2.3153217180e-001
 5.9319018671e-001	 2.3255376588e+000	-3.0448313986e-001
 5.7079755500e-001	 2.3311349492e+000	-3.4233282946e-001
 5.4841238978e-001	 2.3365024825e+000	-3.4886041714e-001
 5.2603795209e-001	 2.3416413203e+000	-3.2783586180e-001
 5.0367746441e-001	 2.3465525803e+000	-2.8301401738e-001
 4.8133410958e-001	 2.3512374348e+000	-2.1812890698e-001
 4.5901102983e-001	 2.3556971101e+000	-1.3688816630e-001
 4.3671132581e-001	 2.3599328842e+000	-4.2967664184e-002
 6.6725867099e-001	 2.3313924736e+000	-5.5324143796e-001
 6.4463029248e-001	 2.3377503686e+000	-4.6059975323e-001
 6.2199935087e-001	 2.3438732491e+000	-3.4222485914e-001
 5.9936925116e-001	 2.3497620094e+000	-4.1660181046e-001
 5.7674336287e-001	 2.3554176049e+000	-4.5478862197e-001
 5.5412501884e-001	 2.3608410500e+000	-4.6070626829e-001
 5.3151751410e-001	 2.3660334174e+000	-4.3826560360e-001
 5.0892410466e-001	 2.3709958363e+000	-3.9136127991e-001
 4.8634800655e-001	 2.3757294915e+000	-3.2386583262e-001
 4.6379239473e-001	 2.3802356217e+000	-2.3962394195e-001
 4.4126040212e-001	 2.3845155184e+000	-1.4244687778e-001
 6.7413762637e-001	 2.3554274476e+000	-6.5806645023e-001
 6.5127596560e-001	 2.3618508879e+000	-6.2779361918e-001
 6.2841171532e-001	 2.3680368908e+000	-5.3297353423e-001
 6.0554831560e-001	 2.3739863600e+000	-5.7311244785e-001
 5.8268917073e-001	 2.3797002606e+000	-6.0897568128e-001
 5.5983764791e-001	 2.3851796176e+000	-6.1159650987e-001
 5.3699707610e-001	 2.3904255145e+000	-5.8502963588e-001
 5.1417074492e-001	 2.3954390923e+000	-5.3331244555e-001
 4.9136190353e-001	 2.4002215481e+000	-4.6045890241e-001
 4.6857375962e-001	 2.4047741332e+000	-3.7045362277e-001
 4.4580947843e-001	 2.4090981526e+000	-2.6724614131e-001
 6.8101658174e-001	 2.3794624215e+000	-7.7383977230e-001
 6.5792163873e-001	 2.3859514072e+000	-8.0773298720e-001
 6.3482407976e-001	 2.3922005325e+000	-7.7516108596e-001
 6.1172738005e-001	 2.3982107106e+000	-7.7637174060e-001
 5.8863497860e-001	 2.4039829163e+000	-8.0717091293e-001
 5.6555027697e-001	 2.4095181851e+000	-8.0372807471e-001
 5.4247663810e-001	 2.4148176116e+000	-7.7024478095e-001
 5.1941738517e-001	 2.4198823484e+000	-7.1090413977e-001
 4.9637580050e-001	 2.4247136047e+000	-6.2986450947e-001
 4.7335512452e-001	 2.4293126448e+000	-5.3125338428e-001
 4.5035855474e-001	 2.4336807868e+000	-4.1916147707e-001
 6.8789553712e-001	 2.4034973955e+000	-9.0039487216e-001
 6.6456731185e-001	 2.4100519264e+000	-1.0002687336e+000
 6.4123644421e-001	 2.4163641743e+000	-1.0317289595e+000
 6.1790644450e-001	 2.4224350612e+000	-1.0287012461e+000
 5.9458078647e-001	 2.4282655721e+000	-1.0516170899e+000
 5.7126290603e-001	 2.4338567526e+000	-1.0392647562e+000
 5.4795620010e-001	 2.4392097087e+000	-9.9599570906e-001
 5.2466402543e-001	 2.4443256044e+000	-9.2614181718e-001
 5.0138969748e-001	 2.4492056613e+000	-8.3400885075e-001
 4.7813648941e-001	 2.4538511564e+000	-7.2387017368e-001
 4.5490763105e-001	 2.4582634210e+000	-5.9996063965e-001
 4.0941686796e-001	 2.2124370789e+000	 1.2672129479e-001
 3.8853567716e-001	 2.2161994557e+000	 1.0235524138e-001
 3.6768209441e-001	 2.2197544633e+000	 8.9307737345e-002
 3.4685890457e-001	 2.2231034390e+000	 8.4656439019e-002
 3.2606885033e-001	 2.2262477636e+000	 8.5513673018e-002
 3.0531463152e-001	 2.2291888605e+000	 8.9030248272e-002
 2.8459890447e-001	 2.2319281941e+000	 9.2399101573e-002
 2.6392428140e-001	 2.2344672684e+000	 9.2858773775e-002
 2.4329332986e-001	 2.2368076260e+000	 8.7696714333e-002
 2.2270857224e-001	 2.2389508462e+000	 7.4252412318e-002
 2.0217248527e-001	 2.2408985444e+000	 4.9920352580e-002
 4.1396594427e-001	 2.2370197131e+000	 1.3966287328e-001
 3.9285274024e-001	 2.2408238941e+000	 1.0248105738e-001
 3.7176745101e-001	 2.2444184018e+000	 7.9192131070e-002
 3.5071289240e-001	 2.2478045883e+000	 6.6731923716e-002
 3.2969183756e-001	 2.2509838498e+000	 6.2071174805e-002
 3.0870701632e-001	 2.2539576256e+000	 6.2219534562e-002
 2.8776111452e-001	 2.2567273962e+000	 6.4229392126e-002
 2.6685677342e-001	 2.2592946825e+000	 6.5199528258e-002
 2.4599658909e-001	 2.2616610440e+000	 6.2278590092e-002
 2.2518311194e-001	 2.2638280779e+000	 5.2668385957e-002
 2.0441884622e-001	 2.2657974171e+000	 3.3626998787e-002
 4.1851502058e-001	 2.2616023474e+000	 1.3874453824e-001
 3.9716980332e-001	 2.2654483325e+000	 9.0939844897e-002
 3.7585280762e-001	 2.2690823403e+000	 5.9552791635e-002
 3.5456688023e-001	 2.2725057376e+000	 4.1375478895e-002
 3.3331482478e-001	 2.2757199361e+000	 3.3235217064e-002
 3.1209940111e-001	 2.2787263907e+000	 3.1998717508e-002
 2.9092332457e-001	 2.2815265984e+000	 3.4576105074e-002
 2.6978926543e-001	 2.2841220966e+000	 3.7924748854e-002
 2.4869984831e-001	 2.2865144621e+000	 3.9052908567e-002
 2.2765765163e-001	 2.2887053095e+000	 3.5023194456e-002
 2.0666520717e-001	 2.2906962898e+000	 2.2955839098e-002
 4.2306409689e-001	 2.2861849816e+000	 1.2196583052e-001
 4.0148686640e-001	 2.2900727709e+000	 6.5820866395e-002
 3.7993816422e-001	 2.2937462788e+000	 2.8570314922e-002
 3.5842086805e-001	 2.2972068869e+000	 6.8605777307e-003
 3.3693781201e-001	 2.3004560224e+000	-2.6263736809e-003
 3.1549178591e-001	 2.3034951558e+000	-3.1686145938e-003
 2.9408553462e-001	 2.3063258005e+000	 1.9999315103e-003
 2.7272175745e-001	 2.3089495107e+000	 9.6935033895e-003
 2.5140310753e-001	 2.3113678802e+000	 1.6778321535e-002
 2.3013219132e-001	 2.3135825411e+000	 2.0176214475e-002
 2.0891156812e-001	 2.3155951625e+000	 1.6868050185e-002
 4.2761317319e-001	 2.3107676158e+000	 8.7365062465e-002
 4.0580392948e-001	 2.3146972093e+000	 2.5250729897e-002
 3.8402352083e-001	 2.3184102172e+000	-1.5538850633e-002
 3.6227485588e-001	 2.3219080362e+000	-3.8505012926e-002
 3.4056079923e-001	 2.3251921086e+000	-4.7113100748e-002
 3.1888417070e-001	 2.3282639210e+000	-4.4787890209e-002
 2.9724774467e-001	 2.3311250027e+000	-3.4909203280e-002
 2.7565424947e-001	 2.3337769248e+000	-2.0807716002e-002
 2.5410636675e-001	 2.3362212982e+000	-5.7609643430e-003
 2.3260673101e-001	 2.3384597727e+000	 7.0104499062e-003
 2.1115792906e-001	 2.3404940352e+000	 1.4346451399e-002
 4.3216224950e-001	 2.3353502500e+000	 3.3017277239e-002
 4.1012099256e-001	 2.3393216477e+000	-3.2608576584e-002
 3.8810887743e-001	 2.3430741557e+000	-7.4524291019e-002
 3.6612884371e-001	 2.3466091856e+000	-9.6381037476e-002
 3.4418378646e-001	 2.3499281949e+000	-1.0179351678e-001
 3.2227655550e-001	 2.3530326861e+000	-9.4335185262e-002
 3.0040995472e-001	 2.3559242049e+000	-7.7533678459e-002
 2.7858674148e-001	 2.3586043389e+000	-5.4866436263e-002
 2.5680962597e-001	 2.3610747163e+000	-2.9756532519e-002
 2.3508127071e-001	 2.3633370043e+000	-5.5687116649e-003
 2.1340429001e-001	 2.3653929079e+000	 1.4394365692e-002
 4.3671132581e-001	 2.3599328842e+000	-4.2967664184e-002
 4.1443805563e-001	 2.3639460861e+000	-1.0956152774e-001
 3.9219423403e-001	 2.3677380942e+000	-1.5010339569e-001
 3.6998283154e-001	 2.3713103349e+000	-1.6839644370e-001
 3.4780677368e-001	 2.3746642811e+000	-1.6820683577e-001
 3.2566894029e-001	 2.3778014512e+000	-1.5325875192e-001
 3.0357216477e-001	 2.3807234070e+000	-1.2722962012e-001
 2.8151923350e-001	 2.3834317530e+000	-9.3745556590e-002
 2.5951288519e-001	 2.3859281344e+000	-5.6377017489e-002
 2.3755581040e-001	 2.3882142360e+000	-1.8634664778e-002
 2.1565065096e-001	 2.3902917807e+000	 1.6034551712e-002
 4.4126040212e-001	 2.3845155184e+000	-1.4244687778e-001
 4.1875511871e-001	 2.3885705245e+000	-2.0738078972e-001
 3.9627959064e-001	 2.3924020327e+000	-2.4396301717e-001
 3.7383681936e-001	 2.3960114842e+000	-2.5615097019e-001
 3.5142976091e-001	 2.3994003674e+000	-2.4786444535e-001
 3.2906132508e-001	 2.4025702163e+000	-2.2298045278e-001
 3.0673437482e-001	 2.4055226092e+000	-1.8532825452e-001
 2.8445172551e-001	 2.4082591671e+000	-1.3868461790e-001
 2.6221614441e-001	 2.4107815524e+000	-8.6769287727e-002
 2.4003035009e-001	 2.4130914676e+000	-3.3240679801e-002
 2.1789701191e-001	 2.4151906534e+000	 1.8308201971e-002
 4.4580947843e-001	 2.4090981526e+000	-2.6724614131e-001
 4.2307218179e-001	 2.4131949629e+000	-3.2780884298e-001
 4.0036494724e-001	 2.4170659712e+000	-3.5776102908e-001
 3.7769080719e-001	 2.4207126335e+000	-3.6121663666e-001
 3.5505274813e-001	 2.4241364537e+000	-3.4225132649e-001
 3.3245370987e-001	 2.4273389814e+000	-3.0489710734e-001
 3.0989658487e-001	 2.4303218113e+000	-2.5313717850e-001
 2.8738421752e-001	 2.4330865812e+000	-1.9090099457e-001
 2.6491940363e-001	 2.4356349705e+000	-1.2205955620e-001
 2.4250488978e-001	 2.4379686992e+000	-5.0420929676e-002
 2.2014337286e-001	 2.4400895261e+000	 2.0274002335e-002
 4.5035855474e-001	 2.4336807868e+000	-4.1916147707e-001
 4.2738924487e-001	 2.4378194013e+000	-4.7255950683e-001
 4.0445030384e-001	 2.4417299097e+000	-4.9312778970e-001
 3.8154479501e-001	 2.4454137828e+000	-4.8513914385e-001
 3.5867573535e-001	 2.4488725399e+000	-4.5282738721e-001
 3.3584609467e-001	 2.4521077465e+000	-4.0038175671e-001
 3.1305879491e-001	 2.4551210135e+000	-3.3194155289e-001
 2.9031670954e-001	 2.4579139953e+000	-2.5159101400e-001
 2.6762266285e-001	 2.4604883886e+000	-1.6335442357e-001
 2.4497942947e-001	 2.4628459308e+000	-7.1191454433e-002
 2.2238973381e-001	 2.4649883988e+000	 2.1007248525e-002
 4.5490763105e-001	 2.4582634210e+000	-5.9996063965e-001
 4.3170630795e-001	 2.4624438397e+000	-6.4331937251e-001
 4.0853566044e-001	 2.4663938481e+000	-6.5166751774e-001
 3.8539878284e-001	 2.4701149322e+000	-6.2943918948e-001
 3.6229872257e-001	 2.4736086262e+000	-5.8102871618e-001
 3.3923847946e-001	 2.4768765117e+000	-5.1078485262e-001
 3.1622100496e-001	 2.4799202156e+000	-4.2300522430e-001
 2.9324920155e-001	 2.4827414094e+000	-3.2193100890e-001
 2.7032592207e-001	 2.4853418066e+000	-2.1174185882e-001
 2.4745396916e-001	 2.4877231625e+000	-9.6551067837e-002
 2.2463609475e-001	 2.4898872715e+000	 1.9599015624e-002
 2.0217248527e-001	 2.2408985444e+000	 4.9920352580e-002
 1.8168749959e-001	 2.2426523700e+000	 1.2167536424e-001
 1.6125599940e-001	 2.2442140055e+000	 1.8608321940e-001
 1.4088032204e-001	 2.2455851654e+000	 2.4076087226e-001
 1.2056275773e-001	 2.2467675940e+000	 2.8338200860e-001
 1.0030554932e-001	 2.2477630651e+000	 3.1167927435e-001
 8.0110891976e-002	 2.2485733799e+000	 3.2344633629e-001
 5.9980933064e-002	 2.2492003663e+000	 3.1653977617e-001
 3.9917771955e-002	 2.2496458769e+000	 2.8888081990e-001
 1.9923459911e-002	 2.2499117884e+000	 2.3845690356e-001
 0.0000000000e+000	 2.2500000000e+000	 1.6332307870e-001
 2.0441884622e-001	 2.2657974171e+000	 3.3626998787e-002
 1.8370624959e-001	 2.2675707296e+000	 1.1535947538e-001
 1.6304773272e-001	 2.2691497167e+000	 1.9009105780e-001
 1.4244565895e-001	 2.2705361116e+000	 2.5518052095e-001
 1.2190234393e-001	 2.2717316784e+000	 3.0804847495e-001
 1.0142005542e-001	 2.2727382103e+000	 3.4617975943e-001
 8.1001012998e-002	 2.2735575286e+000	 3.6712565832e-001
 6.0647387876e-002	 2.2741914815e+000	 3.6850593640e-001
 4.0361302754e-002	 2.2746419422e+000	 3.4801069929e-001
 2.0144831687e-002	 2.2749108083e+000	 3.0340207898e-001
 0.0000000000e+000	 2.2750000000e+000	 2.3251574727e-001
 2.0666520717e-001	 2.2906962898e+000	 2.2955839098e-002
 1.8572499959e-001	 2.2924890893e+000	 1.1029978714e-001
 1.6483946605e-001	 2.2940854279e+000	 1.9096049989e-001
 1.4401099586e-001	 2.2954870579e+000	 2.6203927270e-001
 1.2324193013e-001	 2.2966957628e+000	 3.2070436029e-001
 1.0253456153e-001	 2.2977133554e+000	 3.6419353683e-001
 8.1891134020e-002	 2.2985416773e+000	 3.8981646483e-001
 6.1313842688e-002	 2.2991825966e+000	 3.9495687391e-001
 4.0804833554e-002	 2.2996380075e+000	 3.7707455161e-001
 2.0366203464e-002	 2.2999098282e+000	 3.3370714811e-001
 0.0000000000e+000	 2.3000000000e+000	 2.6247179767e-001
 2.0891156812e-001	 2.3155951625e+000	 1.6868050185e-002
 1.8774374958e-001	 2.3174074490e+000	 1.0575334870e-001
 1.6663119938e-001	 2.3190211390e+000	 1.8824421526e-001
 1.4557633277e-001	 2.3204380042e+000	 2.6118503896e-001
 1.2458151633e-001	 2.3216598471e+000	 3.2149231525e-001
 1.0364906763e-001	 2.3226885006e+000	 3.6615737202e-001
 8.2781255043e-002	 2.3235258259e+000	 3.9224889246e-001
 6.1980297500e-002	 2.3241737118e+000	 3.9691523624e-001
 4.1248364354e-002	 2.3246340728e+000	 3.7738656084e-001
 2.0587575241e-002	 2.3249088481e+000	 3.3097674543e-001
 0.0000000000e+000	 2.3250000000e+000	 2.5508512001e-001
 2.1115792906e-001	 2.3404940352e+000	 1.4346451399e-002
 1.8976249958e-001	 2.3423258086e+000	 1.0098859637e-001
 1.6842293271e-001	 2.3439568502e+000	 1.8149600187e-001
 1.4714166968e-001	 2.3453889505e+000	 2.5245660151e-001
 1.2592110253e-001	 2.3466239315e+000	 3.1053560748e-001
 1.0476357374e-001	 2.3476636458e+000	 3.5247840269e-001
 8.3671376066e-002	 2.3485099746e+000	 3.7511321782e-001
 6.2646752313e-002	 2.3491648270e+000	 3.7535359475e-001
 4.1691895154e-002	 2.3496301381e+000	 3.5020063850e-001
 2.0808947019e-002	 2.3499078679e+000	 2.9674506012e-001
 0.0000000000e+000	 2.3500000000e+000	 2.1216901334e-001
 2.1340429001e-001	 2.3653929079e+000	 1.4394365692e-002
 1.9178124958e-001	 2.3672441683e+000	 9.5284754318e-002
 1.7021466604e-001	 2.3688925614e+000	 1.7027072662e-001
 1.4870700660e-001	 2.3703398968e+000	 2.3568409294e-001
 1.2726068872e-001	 2.3715880159e+000	 2.8793914174e-001
 1.0587807984e-001	 2.3726387909e+000	 3.2353569818e-001
 8.4561497090e-002	 2.3734941233e+000	 3.3906195536e-001
 6.3313207127e-002	 2.3741559422e+000	 3.3119708019e-001
 4.2135425955e-002	 2.3746262034e+000	 2.9671359588e-001
 2.1030318796e-002	 2.3749068878e+000	 2.3247954375e-001
 0.0000000000e+000	 2.3750000000e+000	 1.3546042729e-001
 2.1565065096e-001	 2.3902917807e+000	 1.6034551712e-002
 1.9379999957e-001	 2.3921625279e+000	 8.7931272640e-002
 1.7200639936e-001	 2.3938282726e+000	 1.5412426974e-001
 1.5027234351e-001	 2.3952908430e+000	 2.1068944715e-001
 1.2860027492e-001	 2.3965521003e+000	 2.5379041636e-001
 1.0699258595e-001	 2.3976139361e+000	 2.7968172130e-001
 8.5451618114e-002	 2.3984782719e+000	 2.8471182413e-001
 6.3979661940e-002	 2.3991470574e+000	 2.6532585357e-001
 4.2578956756e-002	 2.3996222687e+000	 2.1806811800e-001
 2.1251690574e-002	 2.3999059077e+000	 1.3958438617e-001
 0.0000000000e+000	 2.4000000000e+000	 2.6623938561e-002
 2.1789701191e-001	 2.4151906534e+000	 1.8308201971e-002
 1.9581874957e-001	 2.4170808876e+000	 7.8227300294e-002
 1.7379813269e-001	 2.4187639837e+000	 1.3261347248e-001
 1.5183768043e-001	 2.4202417893e+000	 1.7728682197e-001
 1.2993986112e-001	 2.4215161846e+000	 2.0816042045e-001
 1.0810709205e-001	 2.4225890813e+000	 2.2124369987e-001
 8.6341739139e-002	 2.4234624206e+000	 2.1264559297e-001
 6.4646116755e-002	 2.4241381725e+000	 1.7857742421e-001
 4.3022487557e-002	 2.4246183340e+000	 1.1535555365e-001
 2.1473062351e-002	 2.4249049275e+000	 1.9403776459e-002
 0.0000000000e+000	 2.4250000000e+000	-1.1274451845e-001
 2.2014337286e-001	 2.4400895261e+000	 2.0274002335e-002
 1.9783749957e-001	 2.4419992473e+000	 6.5481190244e-002
 1.7558986602e-001	 2.4436996949e+000	 1.0529608815e-001
 1.5340301734e-001	 2.4451927356e+000	 1.3528299587e-001
 1.3127944732e-001	 2.4464802690e+000	 1.5110447620e-001
 1.0922159816e-001	 2.4475642264e+000	 1.4852491417e-001
 8.7231860164e-002	 2.4484465693e+000	 1.2341381257e-001
 6.5312571569e-002	 2.4491292877e+000	 7.1748825823e-002
 4.3466018359e-002	 2.4496143993e+000	-1.0381465440e-002
 2.1694434129e-002	 2.4499039474e+000	-1.2677503586e-001
 0.0000000000e+000	 2.4500000000e+000	-2.8111414953e-001
 2.2238973381e-001	 2.4649883988e+000	 2.1007248525e-002
 1.9985624957e-001	 2.4669176069e+000	 4.9010034614e-002
 1.7738159935e-001	 2.4686354061e+000	 7.1730735986e-002
 1.5496835426e-001	 2.4701436819e+000	 8.4477740670e-002
 1.3261903353e-001	 2.4714443534e+000	 8.2663030166e-002
 1.1033610427e-001	 2.4725393716e+000	 6.1805906424e-002
 8.8121981189e-002	 2.4734307179e+000	 1.7536442753e-002
 6.5979026384e-002	 2.4741204029e+000	-5.4401339260e-002
 4.3909549161e-002	 2.4746104646e+000	-1.5814656414e-001
 2.1915805907e-002	 2.4749029673e+000	-2.9771886504e-001
 0.0000000000e+000	 2.4750000000e+000	-4.7701601075e-001
 2.2463609475e-001	 2.4898872715e+000	 1.9599015624e-002
 2.0187499956e-001	 2.4918359666e+000	 2.8139227730e-002
 1.7917333268e-001	 2.4935711173e+000	 3.1476857926e-002
 1.5653369117e-001	 2.4950946282e+000	 2.4664171878e-002
 1.3395861973e-001	 2.4964084378e+000	 2.8623970182e-003
 1.1145061038e-001	 2.4975145168e+000	-3.8654382282e-002
 8.9012102215e-002	 2.4984148666e+000	-1.0449561807e-001
 6.6645481200e-002	 2.4991115181e+000	-1.9915097851e-001
 4.4353079963e-002	 2.4996065299e+000	-3.2698731107e-001
 2.2137177686e-002	 2.4999019872e+000	-4.9224588596e-001
 0.0000000000e+000	 2.5000000000e+000	-6.9903991592e-001
 2.5000000000e+000	 0.0000000000e+000	 2.1977817841e+000
 2.4999019872e+000	 2.2137177686e-002	 2.1647484672e+000
 2.4996065299e+000	 4.4353079963e-002	 2.1341942050e+000
 2.4991115181e+000	 6.6645481200e-002	 2.1059013387e+000
 2.4984148666e+000	 8.9012102215e-002	 2.0796166175e+000
 2.4975145168e+000	 1.1145061038e-001	 2.0550503852e+000
 2.4964084378e+000	 1.3395861973e-001	 2.0318758179e+000
 2.4950946282e+000	 1.5653369117e-001	 2.0097282150e+000
 2.4935711173e+000	 1.7917333268e-001	 1.9882043489e+000
 2.4918359666e+000	 2.0187499956e-001	 1.9668618769e+000
 2.4898872715e+000	 2.2463609475e-001	 1.9452188177e+000
 2.5250000000e+000	 0.0000000000e+000	 2.0834269594e+000
 2.5249010070e+000	 2.2358549464e-002	 2.0479814318e+000
 2.5246025952e+000	 4.4796610765e-002	 2.0248535249e+000
 2.5241026333e+000	 6.7311936015e-002	 2.0107479462e+000
 2.5233990153e+000	 8.9902223242e-002	 2.0025601211e+000
 2.5224896619e+000	 1.1256511648e-001	 1.9973863736e+000
 2.5213725222e+000	 1.3529820593e-001	 1.9925339626e+000
 2.5200455744e+000	 1.5809902809e-001	 1.9855309511e+000
 2.5185068284e+000	 1.8096506601e-001	 1.9741358752e+000
 2.5167543263e+000	 2.0389374956e-001	 1.9563471892e+000
 2.5147861442e+000	 2.2688245570e-001	 1.9304124548e+000
 2.5500000000e+000	 0.0000000000e+000	 1.9593972149e+000
 2.5499000269e+000	 2.2579921242e-002	 1.9210263117e+000
 2.5495986605e+000	 4.5240141567e-002	 1.8948898570e+000
 2.5490937484e+000	 6.7978390830e-002	 1.8777029968e+000
 2.5483831639e+000	 9.0792344267e-002	 1.8663783988e+000
 2.5474648071e+000	 1.1367962259e-001	 1.8580366421e+000
 2.5463366065e+000	 1.3663779213e-001	 1.8500164556e+000
 2.5449965207e+000	 1.5966436500e-001	 1.8398847795e+000
 2.5434425396e+000	 1.8275679934e-001	 1.8254466182e+000
 2.5416726859e+000	 2.0591249956e-001	 1.8047546580e+000
 2.5396850170e+000	 2.2912881665e-001	 1.7761186181e+000
 2.5750000000e+000	 0.0000000000e+000	 1.8261993306e+000
 2.5748990468e+000	 2.2801293020e-002	 1.7902036678e+000
 2.5745947258e+000	 4.5683672368e-002	 1.7660765529e+000
 2.5740848636e+000	 6.8644845644e-002	 1.7505389609e+000
 2.5733673126e+000	 9.1682465292e-002	 1.7405164231e+000
 2.5724399523e+000	 1.1479412870e-001	 1.7331496360e+000
 2.5713006909e+000	 1.3797737833e-001	 1.7258049119e+000
 2.5699474670e+000	 1.6122970192e-001	 1.7160844426e+000
 2.5683782508e+000	 1.8454853267e-001	 1.7018363453e+000
 2.5665910456e+000	 2.0793124956e-001	 1.6811644630e+000
 2.5645838897e+000	 2.3137517760e-001	 1.6524378870e+000
 2.6000000000e+000	 0.0000000000e+000	 1.6843205952e+000
 2.5998980666e+000	 2.3022664798e-002	 1.6559143290e+000
 2.5995907911e+000	 4.6127203170e-002	 1.6387273799e+000
 2.5990759788e+000	 6.9311300459e-002	 1.6294819721e+000
 2.5983514613e+000	 9.2572586317e-002	 1.6251121541e+000
 2.5974150974e+000	 1.1590863480e-001	 1.6227746366e+000
 2.5962647753e+000	 1.3931696453e-001	 1.6198594656e+000
 2.5948984133e+000	 1.6279503883e-001	 1.6140004976e+000
 2.5933139620e+000	 1.8634026600e-001	 1.6030856496e+000
 2.5915094053e+000	 2.0994999955e-001	 1.5852668902e+000
 2.5894827624e+000	 2.3362153855e-001	 1.5589699434e+000
 2.6250000000e+000	 0.0000000000e+000	 1.5342297339e+000
 2.6248970865e+000	 2.3244036575e-002	 1.5185435786e+000
 2.6245868564e+000	 4.6570733970e-002	 1.5131434833e+000
 2.6240670940e+000	 6.9977755272e-002	 1.5147483693e+000
 2.6233356099e+000	 9.3462707341e-002	 1.5202964854e+000
 2.6223902426e+000	 1.1702314091e-001	 1.5269564861e+000
 2.6212288597e+000	 1.4065655073e-001	 1.5321383357e+000
 2.6198493596e+000	 1.6436037574e-001	 1.5335040067e+000
 2.6182496731e+000	 1.8813199933e-001	 1.5289779416e+000
 2.6164277650e+000	 2.1196874955e-001	 1.5167572461e+000
 2.6143816351e+000	 2.3586789950e-001	 1.4953215824e+000
 2.6500000000e+000	 0.0000000000e+000	 1.3763777842e+000
 2.6498961064e+000	 2.3465408353e-002	 1.3784618883e+000
 2.6495829217e+000	 4.7014264771e-002	 1.3896139823e+000
 2.6490582092e+000	 7.0644210086e-002	 1.4065451585e+000
 2.6483197586e+000	 9.4352828365e-002	 1.4261935774e+000
 2.6473653878e+000	 1.1813764702e-001	 1.4457357967e+000
 2.6461929440e+000	 1.4199613693e-001	 1.4625979171e+000
 2.6448003059e+000	 1.6592571266e-001	 1.4744665129e+000
 2.6431853843e+000	 1.8992373266e-001	 1.4792993161e+000
 2.6413461246e+000	 2.1398749955e-001	 1.4753356210e+000
 2.6392805078e+000	 2.3811426044e-001	 1.4611063764e+000
 2.6750000000e+000	 0.0000000000e+000	 1.2111989224e+000
 2.6748951263e+000	 2.3686780130e-002	 1.2360256094e+000
 2.6745789870e+000	 4.7457795571e-002	 1.2684165316e+000
 2.6740493244e+000	 7.1310664899e-002	 1.3050704491e+000
 2.6733039073e+000	 9.5242949388e-002	 1.3429211717e+000
 2.6723405329e+000	 1.1925215312e-001	 1.3791491486e+000
 2.6711570284e+000	 1.4333572313e-001	 1.4111928653e+000
 2.6697512521e+000	 1.6749104957e-001	 1.4367600174e+000
 2.6681210955e+000	 1.9171546598e-001	 1.4538384264e+000
 2.6662644843e+000	 2.1600624954e-001	 1.4607066653e+000
 2.6641793805e+000	 2.4036062139e-001	 1.4559443591e+000
 2.7000000000e+000	 0.0000000000e+000	 1.0391112441e+000
 2.6998941461e+000	 2.3908151907e-002	 1.0915776275e+000
 2.6995750523e+000	 4.7901326371e-002	 1.1498178523e+000
 2.6990404395e+000	 7.1977119711e-002	 1.2105138656e+000
 2.6982880559e+000	 9.6133070411e-002	 1.2705908886e+000
 2.6973156781e+000	 1.2036665923e-001	 1.3272292762e+000
 2.6961211128e+000	 1.4467530933e-001	 1.3778761770e+000
 2.6947021984e+000	 1.6905638648e-001	 1.4202569588e+000
 2.6930568066e+000	 1.9350719931e-001	 1.4523863666e+000
 2.6911828440e+000	 2.1802499954e-001	 1.4725793789e+000
 2.6890782533e+000	 2.4260698234e-001	 1.4794617257e+000
 2.7250000000e+000	 0.0000000000e+000	 8.6051750213e-001
 2.7248931660e+000	 2.4129523684e-002	 9.4544797944e-001
 2.7245711176e+000	 4.8344857171e-002	 1.0340742332e+000
 2.7240315547e+000	 7.2643574523e-002	 1.1230569371e+000
 2.7232722046e+000	 9.7023191433e-002	 1.2093085075e+000
 2.7222908233e+000	 1.2148116533e-001	 1.2900052451e+000
 2.7210851972e+000	 1.4601489552e-001	 1.3625992664e+000
 2.7196531447e+000	 1.7062172340e-001	 1.4248301926e+000
 2.7179925178e+000	 1.9529893264e-001	 1.4747365589e+000
 2.7161012036e+000	 2.2004374954e-001	 1.5106669109e+000
 2.7139771260e+000	 2.4485334329e-001	 1.5312905506e+000
 2.7500000000e+000	 0.0000000000e+000	 6.7580580358e-001
 2.7498921859e+000	 2.4350895461e-002	 7.9795443763e-001
 2.7495671829e+000	 4.8788387970e-002	 9.2143200552e-001
 2.7490226699e+000	 7.3310029335e-002	 1.0428734649e+000
 2.7482563533e+000	 9.7913312455e-002	 1.1591742328e+000
 2.7472659684e+000	 1.2259567143e-001	 1.2675026183e+000
 2.7460492816e+000	 1.4735448172e-001	 1.3653120371e+000
 2.7446040910e+000	 1.7218706031e-001	 1.4503529728e+000
 2.7429282290e+000	 1.9709066597e-001	 1.5206846482e+000
 2.7410195633e+000	 2.2206249953e-001	 1.5746863716e+000
 2.7388759987e+000	 2.4709970424e-001	 1.6110685200e+000
 2.4898872715e+000	 2.2463609475e-001	 1.9452188177e+000
 2.4877231625e+000	 2.4745396916e-001	 1.9528232565e+000
 2.4853418066e+000	 2.7032592207e-001	 1.9565805087e+000
 2.4827414094e+000	 2.9324920155e-001	 1.9560032283e+000
 2.4799202156e+000	 3.1622100496e-001	 1.9505676647e+000
 2.4768765117e+000	 3.3923847946e-001	 1.9397135090e+000
 2.4736086262e+000	 3.6229872257e-001	 1.9228438215e+000
 2.4701149322e+000	 3.8539878284e-001	 1.8993250444e+000
 2.4663938481e+000	 4.0853566044e-001	 1.8684871019e+000
 2.4624438397e+000	 4.3170630795e-001	 1.8296235913e+000
 2.4582634210e+000	 4.5490763105e-001	 1.7819920672e+000
 2.5147861442e+000	 2.2688245570e-001	 1.9304124548e+000
 2.5126003941e+000	 2.4992850885e-001	 1.9302002522e+000
 2.5101952247e+000	 2.7302918129e-001	 1.9178041092e+000
 2.5075688234e+000	 2.9618169356e-001	 1.8923553580e+000
 2.5047194178e+000	 3.1938321501e-001	 1.8532710810e+000
 2.5016452768e+000	 3.4263086425e-001	 1.8002615679e+000
 2.4983447125e+000	 3.6592170980e-001	 1.7362959977e+000
 2.4948160815e+000	 3.8925277066e-001	 1.6731600808e+000
 2.4910577866e+000	 4.1262101704e-001	 1.6112227486e+000
 2.4870682781e+000	 4.3602337102e-001	 1.5498113306e+000
 2.4828460553e+000	 4.5945670736e-001	 1.4882094654e+000
 2.5396850170e+000	 2.2912881665e-001	 1.7761186181e+000
 2.5374776257e+000	 2.5240304855e-001	 1.7771355708e+000
 2.5350486428e+000	 2.7573244051e-001	 1.7674378010e+000
 2.5323962375e+000	 2.9911418558e-001	 1.7462121413e+000
 2.5295186200e+000	 3.2254542506e-001	 1.7129380705e+000
 2.5264140419e+000	 3.4602324904e-001	 1.6673952622e+000
 2.5230807987e+000	 3.6954469702e-001	 1.6096706847e+000
 2.5195172308e+000	 3.9310675849e-001	 1.5401652210e+000
 2.5157217251e+000	 4.1670637365e-001	 1.4595997798e+000
 2.5116927165e+000	 4.4034043410e-001	 1.3690208672e+000
 2.5074286895e+000	 4.6400578367e-001	 1.2698055921e+000
 2.5645838897e+000	 2.3137517760e-001	 1.6524378870e+000
 2.5623548573e+000	 2.5487758824e-001	 1.6553927128e+000
 2.5599020608e+000	 2.7843569973e-001	 1.6487578219e+000
 2.5572236516e+000	 3.0204667759e-001	 1.6317740609e+000
 2.5543178221e+000	 3.2570763510e-001	 1.6039821624e+000
 2.5511828070e+000	 3.4941563383e-001	 1.5652303944e+000
 2.5478168850e+000	 3.7316768424e-001	 1.5156817456e+000
 2.5442183801e+000	 3.9696074632e-001	 1.4558206167e+000
 2.5403856636e+000	 4.2079173025e-001	 1.3864589860e+000
 2.5363171549e+000	 4.4465749718e-001	 1.3087420205e+000
 2.5320113237e+000	 4.6855485998e-001	 1.2241531024e+000
 2.5894827624e+000	 2.3362153855e-001	 1.5589699434e+000
 2.5872320890e+000	 2.5735212793e-001	 1.5645262872e+000
 2.5847554789e+000	 2.8113895895e-001	 1.5612742901e+000
 2.5820510657e+000	 3.0497916961e-001	 1.5485073698e+000
 2.5791170243e+000	 3.2886984515e-001	 1.5258264161e+000
 2.5759515721e+000	 3.5280801863e-001	 1.4931475490e+000
 2.5725529713e+000	 3.7679067147e-001	 1.4507093974e+000
 2.5689195295e+000	 4.0081473414e-001	 1.3990798685e+000
 2.5650496021e+000	 4.2487708685e-001	 1.3391623751e+000
 2.5609415933e+000	 4.4897456026e-001	 1.2722014917e+000
 2.5565939579e+000	 4.7310393629e-001	 1.1997880084e+000
 2.6143816351e+000	 2.3586789950e-001	 1.4953215824e+000
 2.6121093206e+000	 2.5982666762e-001	 1.5040982515e+000
 2.6096088970e+000	 2.8384221817e-001	 1.5045047638e+000
 2.6068784798e+000	 3.0791166162e-001	 1.4958857066e+000
 2.6039162264e+000	 3.3203205520e-001	 1.4779010743e+000
 2.6007203373e+000	 3.5620040342e-001	 1.4505341430e+000
 2.5972890575e+000	 3.8041365869e-001	 1.4140988499e+000
 2.5936206788e+000	 4.0466872197e-001	 1.3692466475e+000
 2.5897135406e+000	 4.2896244345e-001	 1.3169728003e+000
 2.5855660317e+000	 4.5329162333e-001	 1.2586220914e+000
 2.5811765921e+000	 4.7765301260e-001	 1.1958939098e+000
 2.6392805078e+000	 2.3811426044e-001	 1.4611063764e+000
 2.6369865522e+000	 2.6230120731e-001	 1.4736775656e+000
 2.6344623150e+000	 2.8654547739e-001	 1.4779738903e+000
 2.6317058939e+000	 3.1084415364e-001	 1.4733897467e+000
 2.6287154286e+000	 3.3519426525e-001	 1.4596432244e+000
 2.6254891024e+000	 3.5959278821e-001	 1.4367841042e+000
 2.6220251438e+000	 3.8403664592e-001	 1.4052013463e+000
 2.6183218281e+000	 4.0852270980e-001	 1.3656300373e+000
 2.6143774790e+000	 4.3304780006e-001	 1.3191577614e+000
 2.6101904701e+000	 4.5760868641e-001	 1.2672303648e+000
 2.6057592263e+000	 4.8220208891e-001	 1.2116570817e+000
 2.6641793805e+000	 2.4036062139e-001	 1.4559443591e+000
 2.6618637839e+000	 2.6477574700e-001	 1.4728398643e+000
 2.6593157331e+000	 2.8924873661e-001	 1.4812130744e+000
 2.6565333080e+000	 3.1377664565e-001	 1.4805068737e+000
 2.6535146308e+000	 3.3835647530e-001	 1.4704964782e+000
 2.6502578675e+000	 3.6298517301e-001	 1.4512975660e+000
 2.6467612300e+000	 3.8765963314e-001	 1.4233738813e+000
 2.6430229774e+000	 4.1237669763e-001	 1.3875442811e+000
 2.6390414175e+000	 4.3713315666e-001	 1.3449891875e+000
 2.6348149085e+000	 4.6192574949e-001	 1.2972564170e+000
 2.6303418605e+000	 4.8675116522e-001	 1.2462663501e+000
 2.6890782533e+000	 2.4260698234e-001	 1.4794617257e+000
 2.6867410155e+000	 2.6725028670e-001	 1.5011671482e+000
 2.6841691512e+000	 2.9195199583e-001	 1.5137601662e+000
 2.6813607221e+000	 3.1670913767e-001	 1.5167308686e+000
 2.6783138329e+000	 3.4151868535e-001	 1.5099106702e+000
 2.6750266326e+000	 3.6637755780e-001	 1.4934805810e+000
 2.6714973163e+000	 3.9128262037e-001	 1.4679789351e+000
 2.6677241268e+000	 4.1623068545e-001	 1.4343085428e+000
 2.6637053560e+000	 4.4121851326e-001	 1.3937432324e+000
 2.6594393469e+000	 4.6624281257e-001	 1.3479337485e+000
 2.6549244947e+000	 4.9130024153e-001	 1.2989129730e+000
 2.7139771260e+000	 2.4485334329e-001	 1.5312905506e+000
 2.7116182471e+000	 2.6972482639e-001	 1.5582474920e+000
 2.7090225692e+000	 2.9465525505e-001	 1.5751591648e+000
 2.7061881362e+000	 3.1964162968e-001	 1.5815616167e+000
 2.7031130351e+000	 3.4468089540e-001	 1.5773415718e+000
 2.6997953977e+000	 3.6976994260e-001	 1.5627448491e+000
 2.6962334026e+000	 3.9490560759e-001	 1.5383842213e+000
 2.6924252761e+000	 4.2008467328e-001	 1.5052466815e+000
 2.6883692945e+000	 4.4530386987e-001	 1.4647000801e+000
 2.6840637853e+000	 4.7055987565e-001	 1.4184990993e+000
 2.6795071290e+000	 4.9584931784e-001	 1.3687905295e+000
 2.7388759987e+000	 2.4709970424e-001	 1.6110685200e+000
 2.7364954787e+000	 2.7219936608e-001	 1.6436747679e+000
 2.7338759873e+000	 2.9735851428e-001	 1.6649599392e+000
 2.7310155503e+000	 3.2257412170e-001	 1.6745048296e+000
 2.7279122372e+000	 3.4784310545e-001	 1.6722506221e+000
 2.7245641628e+000	 3.7316232739e-001	 1.6585074607e+000
 2.7209694888e+000	 3.9852859482e-001	 1.6339624492e+000
 2.7171264254e+000	 4.2393866111e-001	 1.5996870378e+000
 2.7130332330e+000	 4.4938922647e-001	 1.5571437625e+000
 2.7086882237e+000	 4.7487693873e-001	 1.5081923016e+000
 2.7040897632e+000	 5.0039839415e-001	 1.4550948141e+000
 2.4582634210e+000	 4.5490763105e-001	 1.7819920672e+000
 2.4538511564e+000	 4.7813648941e-001	 1.7313546963e+000
 2.4492056613e+000	 5.0138969748e-001	 1.6922174632e+000
 2.4443256044e+000	 5.2466402543e-001	 1.6637912020e+000
 2.4392097087e+000	 5.4795620010e-001	 1.6452330496e+000
 2.4338567526e+000	 5.7126290603e-001	 1.6356468020e+000
 2.4282655721e+000	 5.9458078647e-001	 1.6340833935e+000
 2.4224350612e+000	 6.1790644450e-001	 1.6395414994e+000
 2.4163641743e+000	 6.4123644421e-001	 1.6250722692e+000
 2.4100519264e+000	 6.6456731185e-001	 1.5729082614e+000
 2.4034973955e+000	 6.8789553712e-001	 1.4886992054e+000
 2.4828460553e+000	 4.5945670736e-001	 1.4882094654e+000
 2.4783896679e+000	 4.8291785430e-001	 1.4277013219e+000
 2.4736977179e+000	 5.0640359445e-001	 1.3849364142e+000
 2.4687688605e+000	 5.2991066568e-001	 1.3591420697e+000
 2.4636018058e+000	 5.5343576211e-001	 1.3494858665e+000
 2.4581953202e+000	 5.7697553510e-001	 1.3550758825e+000
 2.4525482278e+000	 6.0052659434e-001	 1.3749610734e+000
 2.4466594119e+000	 6.2408550895e-001	 1.4081317815e+000
 2.4405278160e+000	 6.4764880865e-001	 1.4062291005e+000
 2.4341524457e+000	 6.7121298497e-001	 1.3755005107e+000
 2.4275323694e+000	 6.9477449249e-001	 1.3171626511e+000
 2.5074286895e+000	 4.6400578367e-001	 1.2698055921e+000
 2.5029281795e+000	 4.8769921920e-001	 1.1624242276e+000
 2.4981897745e+000	 5.1141749143e-001	 1.0870961637e+000
 2.4932121165e+000	 5.3515730594e-001	 1.0645856551e+000
 2.4879939028e+000	 5.5891532411e-001	 1.0644208791e+000
 2.4825338877e+000	 5.8268816416e-001	 1.0857126822e+000
 2.4768308835e+000	 6.0647240220e-001	 1.1275065192e+000
 2.4708837625e+000	 6.3026457340e-001	 1.1796987846e+000
 2.4646914578e+000	 6.5406117310e-001	 1.1929482907e+000
 2.4582529650e+000	 6.7785865809e-001	 1.1828089305e+000
 2.4515673434e+000	 7.0165344787e-001	 1.1493766568e+000
 2.5320113237e+000	 4.6855485998e-001	 1.2241531024e+000
 2.5274666911e+000	 4.9248058409e-001	 1.1311656987e+000
 2.5226818311e+000	 5.1643138840e-001	 1.0502231341e+000
 2.5176553726e+000	 5.4040394619e-001	 9.8394871140e-001
 2.5123859999e+000	 5.6439488611e-001	 9.3530441559e-001
 2.5068724552e+000	 5.8840079322e-001	 9.0759224974e-001
 2.5011135392e+000	 6.1241821007e-001	 9.0445483810e-001
 2.4951081131e+000	 6.3644363785e-001	 9.5634619914e-001
 2.4888550995e+000	 6.6047353755e-001	 9.8517759065e-001
 2.4823534842e+000	 6.8450433122e-001	 9.9479856526e-001
 2.4756023173e+000	 7.0853240324e-001	 9.8532630919e-001
 2.5565939579e+000	 4.7310393629e-001	 1.1997880084e+000
 2.5520052026e+000	 4.9726194898e-001	 1.1195413732e+000
 2.5471738878e+000	 5.2144528538e-001	 1.0507798131e+000
 2.5420986286e+000	 5.4565058645e-001	 9.9627205120e-001
 2.5367780970e+000	 5.6987444812e-001	 9.5913553688e-001
 2.5312110227e+000	 5.9411342228e-001	 9.4283773589e-001
 2.5253961950e+000	 6.1836401794e-001	 9.5119666477e-001
 2.5193324637e+000	 6.4262270229e-001	 9.4191812794e-001
 2.5130187412e+000	 6.6688590199e-001	 9.1128283802e-001
 2.5064540035e+000	 6.9115000434e-001	 8.7127456971e-001
 2.4996372913e+000	 7.1541135862e-001	 8.2499494391e-001
 2.5811765921e+000	 4.7765301260e-001	 1.1958939098e+000
 2.5765437142e+000	 5.0204331388e-001	 1.1266639228e+000
 2.5716659444e+000	 5.2645918235e-001	 1.0680642003e+000
 2.5665418847e+000	 5.5089722670e-001	 1.0230111867e+000
 2.5611701941e+000	 5.7535401012e-001	 9.9478047605e-001
 2.5555495903e+000	 5.9982605134e-001	 9.8700805925e-001
 2.5496788507e+000	 6.2430982580e-001	 1.0036907918e+000
 2.5435568143e+000	 6.4880176674e-001	 9.7845236015e-001
 2.5371823830e+000	 6.7329826643e-001	 9.4717022488e-001
 2.5305545228e+000	 6.9779567746e-001	 9.1137699582e-001
 2.5236722653e+000	 7.2229031399e-001	 8.7102662051e-001
 2.6057592263e+000	 4.8220208891e-001	 1.2116570817e+000
 2.6010822257e+000	 5.0682467877e-001	 1.1516487180e+000
 2.5961580010e+000	 5.3147307933e-001	 1.1011202730e+000
 2.5909851407e+000	 5.5614386696e-001	 1.0631382772e+000
 2.5855622912e+000	 5.8083357212e-001	 1.0411392167e+000
 2.5798881578e+000	 6.0553868040e-001	 1.0389307401e+000
 2.5739615064e+000	 6.3025563367e-001	 1.0467980367e+000
 2.5677811649e+000	 6.5498083118e-001	 1.0138534669e+000
 2.5613460247e+000	 6.7971063087e-001	 9.8119295257e-001
 2.5546550420e+000	 7.0444135058e-001	 9.4880524447e-001
 2.5477072392e+000	 7.2916926936e-001	 9.1665612290e-001
 2.6303418605e+000	 4.8675116522e-001	 1.2462663501e+000
 2.6256207373e+000	 5.1160604366e-001	 1.1936137025e+000
 2.6206500576e+000	 5.3648697630e-001	 1.1489945104e+000
 2.6154283968e+000	 5.6139050721e-001	 1.1156278185e+000
 2.6099543883e+000	 5.8631313412e-001	 1.0971138190e+000
 2.6042267253e+000	 6.1125130946e-001	 1.0974350194e+000
 2.5982441621e+000	 6.3620144153e-001	 1.0877875366e+000
 2.5920055155e+000	 6.6115989563e-001	 1.0480581701e+000
 2.5855096665e+000	 6.8612299532e-001	 1.0133054833e+000
 2.5787555613e+000	 7.1108702369e-001	 9.8353424424e-001
 2.5717422132e+000	 7.3604822473e-001	 9.5872162177e-001
 2.6549244947e+000	 4.9130024153e-001	 1.2989129730e+000
 2.6501592489e+000	 5.1638740856e-001	 1.2516792739e+000
 2.6451421142e+000	 5.4150087327e-001	 1.2107357777e+000
 2.6398716528e+000	 5.6663714746e-001	 1.1794565352e+000
 2.6343464854e+000	 5.9179269612e-001	 1.1616083234e+000
 2.6285652928e+000	 6.1696393852e-001	 1.1613517787e+000
 2.6225268178e+000	 6.4214724939e-001	 1.1281425437e+000
 2.6162298662e+000	 6.6733896007e-001	 1.0810038774e+000
 2.6096733082e+000	 6.9253535976e-001	 1.0434623485e+000
 2.6028560806e+000	 7.1773269681e-001	 1.0155382828e+000
 2.5957771871e+000	 7.4292718010e-001	 9.9721980366e-001
 2.6795071290e+000	 4.9584931784e-001	 1.3687905295e+000
 2.6746977604e+000	 5.2116877345e-001	 1.3249681709e+000
 2.6696341708e+000	 5.4651477025e-001	 1.2853952172e+000
 2.6643149089e+000	 5.7188378771e-001	 1.2536032780e+000
 2.6587385825e+000	 5.9727225811e-001	 1.2335286596e+000
 2.6529038604e+000	 6.2267656758e-001	 1.2295134655e+000
 2.6468094736e+000	 6.4809305726e-001	 1.1677871172e+000
 2.6404542168e+000	 6.7351802451e-001	 1.1126286510e+000
 2.6338369500e+000	 6.9894772419e-001	 1.0716181456e+000
 2.6269565998e+000	 7.2437836993e-001	 1.0447910363e+000
 2.6198121611e+000	 7.4980613547e-001	 1.0321459766e+000
 2.7040897632e+000	 5.0039839415e-001	 1.4550948141e+000
 2.6992362720e+000	 5.2595013834e-001	 1.4126053671e+000
 2.6941262274e+000	 5.5152866722e-001	 1.3720261439e+000
 2.6887581649e+000	 5.7713042797e-001	 1.3370489272e+000
 2.6831306796e+000	 6.0275182011e-001	 1.3117825612e+000
 2.6772424279e+000	 6.2838919664e-001	 1.2889625765e+000
 2.6710921293e+000	 6.5403886512e-001	 1.2066464179e+000
 2.6646785674e+000	 6.7969708895e-001	 1.1428711775e+000
 2.6580005917e+000	 7.0536008863e-001	 1.0977275349e+000
 2.6510571191e+000	 7.3102404304e-001	 1.0712655973e+000
 2.6438471350e+000	 7.5668509084e-001	 1.0634941326e+000
 2.4034973955e+000	 6.8789553712e-001	 1.4886992054e+000
 2.3966997229e+000	 7.1121757443e-001	 1.3782423551e+000
 2.3896581153e+000	 7.3452984428e-001	 1.2703399522e+000
 2.3823718453e+000	 7.5782873460e-001	 1.1652844111e+000
 2.3748402530e+000	 7.8111060220e-001	 1.0633876619e+000
 2.3670627471e+000	 8.0437177429e-001	 9.6498085377e-001
 2.3590388060e+000	 8.2760854992e-001	 8.7041400580e-001
 2.3507679787e+000	 8.5081720161e-001	 7.8005560314e-001
 2.3422498860e+000	 8.7399397693e-001	 6.9429213947e-001
 2.3334842215e+000	 8.9713510015e-001	 6.1352760507e-001
 2.3244707527e+000	 9.2023677391e-001	 5.3818292070e-001
 2.4275323694e+000	 6.9477449249e-001	 1.3171626511e+000
 2.4206667202e+000	 7.1832975018e-001	 1.2296010235e+000
 2.4135546964e+000	 7.4187514273e-001	 1.1420406516e+000
 2.4061955637e+000	 7.6540702195e-001	 1.0547689747e+000
 2.3985886555e+000	 7.8892170823e-001	 9.6809556114e-001
 2.3907333746e+000	 8.1241549204e-001	 8.8235184381e-001
 2.3826291940e+000	 8.3588463542e-001	 7.9789080009e-001
 2.3742756584e+000	 8.5932537363e-001	 7.1508657341e-001
 2.3656723848e+000	 8.8273391670e-001	 6.3433403732e-001
 2.3568190637e+000	 9.0610645115e-001	 5.5604830145e-001
 2.3477154602e+000	 9.2943914165e-001	 4.8066415937e-001
 2.4515673434e+000	 7.0165344787e-001	 1.1493766568e+000
 2.4446337174e+000	 7.2544192593e-001	 1.0846488657e+000
 2.4374512776e+000	 7.4922044118e-001	 1.0173895722e+000
 2.4300192822e+000	 7.7298530930e-001	 9.4788178569e-001
 2.4223370580e+000	 7.9673281426e-001	 8.7643326347e-001
 2.4144040021e+000	 8.2045920978e-001	 8.0337627852e-001
 2.4062195821e+000	 8.4416072093e-001	 7.2906732732e-001
 2.3977833382e+000	 8.6783354565e-001	 6.5388677632e-001
 2.3890948837e+000	 8.9147385648e-001	 5.7823844698e-001
 2.3801539060e+000	 9.1507780216e-001	 5.0254913884e-001
 2.3709601677e+000	 9.3864150939e-001	 4.2726809058e-001
 2.4756023173e+000	 7.0853240324e-001	 9.8532630919e-001
 2.4686007146e+000	 7.3255410168e-001	 9.4336395647e-001
 2.4613478587e+000	 7.5656573962e-001	 8.9635647622e-001
 2.4538430006e+000	 7.8056359665e-001	 8.4458299104e-001
 2.4460854606e+000	 8.0454392028e-001	 7.8834999689e-001
 2.4380746295e+000	 8.2850292753e-001	 7.2799116251e-001
 2.4298099702e+000	 8.5243680643e-001	 6.6386706478e-001
 2.4212910180e+000	 8.7634171767e-001	 5.9636485936e-001
 2.4125173825e+000	 9.0021379625e-001	 5.2589788594e-001
 2.4034887482e+000	 9.2404915316e-001	 4.5290520773e-001
 2.3942048752e+000	 9.4784387714e-001	 3.7785108503e-001
 2.4996372913e+000	 7.1541135862e-001	 8.2499494391e-001
 2.4925677118e+000	 7.3966627743e-001	 8.0572267744e-001
 2.4852444399e+000	 7.6391103807e-001	 7.7890953352e-001
 2.4776667191e+000	 7.8814188400e-001	 7.4483128878e-001
 2.4698338631e+000	 8.1235502631e-001	 7.0379372648e-001
 2.4617452570e+000	 8.3654664528e-001	 6.5613246665e-001
 2.4534003582e+000	 8.6071289193e-001	 6.0221272856e-001
 2.4447986978e+000	 8.8484988969e-001	 5.4242902476e-001
 2.4359398814e+000	 9.0895373602e-001	 4.7720478594e-001
 2.4268235904e+000	 9.3302050416e-001	 4.0699191618e-001
 2.4174495828e+000	 9.5704624488e-001	 3.3227027811e-001
 2.5236722653e+000	 7.2229031399e-001	 8.7102662051e-001
 2.5165347091e+000	 7.4677845317e-001	 8.0454300743e-001
 2.5091410210e+000	 7.7125633651e-001	 7.3394444824e-001
 2.5014904375e+000	 7.9572017134e-001	 6.5913719699e-001
 2.4935822656e+000	 8.2016613233e-001	 6.2271121457e-001
 2.4854158845e+000	 8.4459036302e-001	 5.8773517738e-001
 2.4769907463e+000	 8.6898897743e-001	 5.4402630978e-001
 2.4683063776e+000	 8.9335806171e-001	 4.9198705067e-001
 2.4593623803e+000	 9.1769367579e-001	 4.3205149713e-001
 2.4501584326e+000	 9.4199185517e-001	 3.6468497469e-001
 2.4406942903e+000	 9.6624861262e-001	 2.9038353349e-001
 2.5477072392e+000	 7.2916926936e-001	 9.1665612290e-001
 2.5405017063e+000	 7.5389062892e-001	 8.6057824708e-001
 2.5330376022e+000	 7.7860163495e-001	 7.9882868855e-001
 2.5253141560e+000	 8.0329845869e-001	 7.3129647858e-001
 2.5173306682e+000	 8.2797723835e-001	 6.5784966051e-001
 2.5090865119e+000	 8.5263408076e-001	 5.7833517813e-001
 2.5005811343e+000	 8.7726506293e-001	 4.9257881406e-001
 2.4918140574e+000	 9.0186623372e-001	 4.4494631119e-001
 2.4827848791e+000	 9.2643361556e-001	 3.9033029184e-001
 2.4734932748e+000	 9.5096320617e-001	 3.2586038195e-001
 2.4639389978e+000	 9.7545098036e-001	 2.5204940872e-001
 2.5717422132e+000	 7.3604822473e-001	 9.5872162177e-001
 2.5644687035e+000	 7.6100280466e-001	 9.1299424179e-001
 2.5569341833e+000	 7.8594693340e-001	 8.6008309460e-001
 2.5491378744e+000	 8.1087674604e-001	 7.9986008165e-001
 2.5410790707e+000	 8.3578834438e-001	 7.3217668959e-001
 2.5327571394e+000	 8.6067779851e-001	 6.5686390769e-001
 2.5241715224e+000	 8.8554114843e-001	 5.7373219581e-001
 2.5153217372e+000	 9.1037440574e-001	 4.8257150377e-001
 2.5062073780e+000	 9.3517355533e-001	 3.8315134378e-001
 2.4968281170e+000	 9.5993455717e-001	 2.9039441136e-001
 2.4871837053e+000	 9.8465334810e-001	 2.1712712286e-001
 2.5957771871e+000	 7.4292718010e-001	 9.9721980366e-001
 2.5884357008e+000	 7.6811498040e-001	 9.6178812707e-001
 2.5808307645e+000	 7.9329223184e-001	 9.1770454316e-001
 2.5729615929e+000	 8.1845503338e-001	 8.6482390915e-001
 2.5648274732e+000	 8.4359945040e-001	 8.0298120255e-001
 2.5564277669e+000	 8.6872151625e-001	 7.3199146723e-001
 2.5477619105e+000	 8.9381723393e-001	 6.5164981035e-001
 2.5388294169e+000	 9.1888257776e-001	 5.6173145137e-001
 2.5296298768e+000	 9.4391349510e-001	 4.6199182431e-001
 2.5201629592e+000	 9.6890590817e-001	 3.5216673429e-001
 2.5104284129e+000	 9.9385571584e-001	 2.3197256921e-001
 2.6198121611e+000	 7.4980613547e-001	 1.0321459766e+000
 2.6124026980e+000	 7.7522715614e-001	 1.0069557058e+000
 2.6047273457e+000	 8.0063753028e-001	 9.7168865758e-001
 2.5967853113e+000	 8.2603332072e-001	 9.2618272338e-001
 2.5885758757e+000	 8.5141055642e-001	 8.7025641218e-001
 2.5800983944e+000	 8.7676523399e-001	 8.0370882480e-001
 2.5713522985e+000	 9.0209331943e-001	 7.2631967935e-001
 2.5623370967e+000	 9.2739074977e-001	 6.3784938944e-001
 2.5530523757e+000	 9.5265343487e-001	 5.3803919601e-001
 2.5434978015e+000	 9.7787725917e-001	 4.2661135394e-001
 2.5336731204e+000	 1.0030580836e+000	 3.0326937421e-001
 2.6438471350e+000	 7.5668509084e-001	 1.0634941326e+000
 2.6363696952e+000	 7.8233933189e-001	 1.0484915087e+000
 2.6286239268e+000	 8.0798282872e-001	 1.0220298648e+000
 2.6206090298e+000	 8.3361160807e-001	 9.8393019787e-001
 2.6123242783e+000	 8.5922166244e-001	 9.3399458235e-001
 2.6037690218e+000	 8.8480895173e-001	 8.7200617177e-001
 2.5949426866e+000	 9.1036940492e-001	 7.9772925253e-001
 2.5858447765e+000	 9.3589892178e-001	 7.1090935077e-001
 2.5764748746e+000	 9.6139337463e-001	 6.1127339357e-001
 2.5668326437e+000	 9.8684861017e-001	 4.9852992532e-001
 2.5569178279e+000	 1.0122604513e+000	 3.7236938014e-001
 2.3244707527e+000	 9.2023677391e-001	 5.3818292070e-001
 2.3152093213e+000	 9.4329518099e-001	 5.1593884137e-001
 2.3056998450e+000	 9.6630648602e-001	 4.8136509901e-001
 2.2959423174e+000	 9.8926683732e-001	 4.3497644150e-001
 2.2859368093e+000	 1.0121723687e+000	 3.7732090976e-001
 2.2756834694e+000	 1.0350192013e+000	 3.0897919453e-001
 2.2651825247e+000	 1.0578034457e+000	 2.3056391996e-001
 2.2544342814e+000	 1.0805212035e+000	 1.4271885450e-001
 2.2434391250e+000	 1.1031685694e+000	 4.6118050062e-002
 2.2321975215e+000	 1.1257416334e+000	-5.8535089653e-002
 2.2207100171e+000	 1.1482364826e+000	-1.7050881044e-001
 2.3477154602e+000	 9.2943914165e-001	 4.8066415937e-001
 2.3383614145e+000	 9.5272813280e-001	 4.6235371490e-001
 2.3287568434e+000	 9.7596955088e-001	 4.3338071436e-001
 2.3189017405e+000	 9.9915950569e-001	 3.9427795789e-001
 2.3087961774e+000	 1.0222940924e+000	 3.4561050864e-001
 2.2984403041e+000	 1.0453693934e+000	 2.8797500145e-001
 2.2878343500e+000	 1.0683814802e+000	 2.2199887830e-001
 2.2769786242e+000	 1.0913264155e+000	 1.4833955138e-001
 2.2658735162e+000	 1.1142002551e+000	 6.7683494609e-002
 2.2545194967e+000	 1.1369990498e+000	-1.9254735212e-002
 2.2429171172e+000	 1.1597188475e+000	-1.1173354639e-001
 2.3709601677e+000	 9.3864150939e-001	 4.2726809058e-001
 2.3615135077e+000	 9.6216108461e-001	 4.1219808592e-001
 2.3518138419e+000	 9.8563261575e-001	 3.8807570682e-001
 2.3418611637e+000	 1.0090521741e+000	 3.5545231102e-001
 2.3316555455e+000	 1.0324158161e+000	 3.1491053846e-001
 2.3211971388e+000	 1.0557195854e+000	 2.6706357145e-001
 2.3104861752e+000	 1.0789595146e+000	 2.1255432170e-001
 2.2995229670e+000	 1.1021316275e+000	 1.5205454506e-001
 2.2883079075e+000	 1.1252319408e+000	 8.6263884902e-002
 2.2768414719e+000	 1.1482564661e+000	 1.5908845425e-002
 2.2651242174e+000	 1.1712012123e+000	-5.8258303703e-002
 2.3942048752e+000	 9.4784387714e-001	 3.7785108503e-001
 2.3846656010e+000	 9.7159403643e-001	 3.6533340240e-001
 2.3748708403e+000	 9.9529568061e-001	 3.4531773732e-001
 2.3648205869e+000	 1.0189448424e+000	 3.1837451944e-001
 2.3545149136e+000	 1.0425375398e+000	 2.8510452844e-001
 2.3439539735e+000	 1.0660697774e+000	 2.4613810540e-001
 2.3331380004e+000	 1.0895375491e+000	 2.0213429101e-001
 2.3220673098e+000	 1.1129368396e+000	 1.5377989143e-001
 2.3107422987e+000	 1.1362636265e+000	 1.0178847306e-001
 2.2991634471e+000	 1.1595138824e+000	 4.6899287340e-002
 2.2873313176e+000	 1.1826835771e+000	-1.0123872658e-002
 2.4174495828e+000	 9.5704624488e-001	 3.3227027811e-001
 2.4078176942e+000	 9.8102698824e-001	 3.2162140320e-001
 2.3979278388e+000	 1.0049587455e+000	 3.0497423485e-001
 2.3877800100e+000	 1.0288375108e+000	 2.8291879784e-001
 2.3773742817e+000	 1.0526592634e+000	 2.5607458296e-001
 2.3667108082e+000	 1.0764199694e+000	 2.2508970926e-001
 2.3557898257e+000	 1.1001155835e+000	 1.9064001297e-001
 2.3446116526e+000	 1.1237420516e+000	 1.5342806408e-001
 2.3331766900e+000	 1.1472953122e+000	 1.1418211181e-001
 2.3214854223e+000	 1.1707712988e+000	 7.3654960380e-002
 2.3095384178e+000	 1.1941659420e+000	 3.2622776722e-002
 2.4406942903e+000	 9.6624861262e-001	 2.9038353349e-001
 2.4309697874e+000	 9.9045994005e-001	 2.8092410425e-001
 2.4209848372e+000	 1.0146218103e+000	 2.6691240754e-001
 2.4107394332e+000	 1.0387301792e+000	 2.4895859538e-001
 2.4002336497e+000	 1.0627809871e+000	 2.2770144944e-001
 2.3894676429e+000	 1.0867701614e+000	 2.0380749382e-001
 2.3784416509e+000	 1.1106936180e+000	 1.7797003425e-001
 2.3671559954e+000	 1.1345472636e+000	 1.5090812492e-001
 2.3556110812e+000	 1.1583269979e+000	 1.2336546403e-001
 2.3438073975e+000	 1.1820287151e+000	 9.6109219880e-002
 2.3317455179e+000	 1.2056483068e+000	 6.9928788971e-002
 2.4639389978e+000	 9.7545098036e-001	 2.5204940872e-001
 2.4541218806e+000	 9.9989289186e-001	 2.4310378540e-001
 2.4440418357e+000	 1.0242848752e+000	 2.3099925305e-001
 2.4336988564e+000	 1.0486228476e+000	 2.1636663181e-001
 2.4230930178e+000	 1.0729027108e+000	 1.9986458234e-001
 2.4122244775e+000	 1.0971203534e+000	 1.8217866878e-001
 2.4010934762e+000	 1.1212716525e+000	 1.6402034780e-001
 2.3897003382e+000	 1.1453524757e+000	 1.4612588506e-001
 2.3780454725e+000	 1.1693586836e+000	 1.2925520034e-001
 2.3661293727e+000	 1.1932861314e+000	 1.1419064320e-001
 2.3539526181e+000	 1.2171306716e+000	 1.0173570079e-001
 2.4871837053e+000	 9.8465334810e-001	 2.1712712286e-001
 2.4772739738e+000	 1.0093258437e+000	 2.0802297817e-001
 2.4670988341e+000	 1.0339479401e+000	 1.9710156842e-001
 2.4566582796e+000	 1.0585155159e+000	 1.8501493150e-001
 2.4459523859e+000	 1.0830244345e+000	 1.7244220355e-001
 2.4349813122e+000	 1.1074705454e+000	 1.6008863164e-001
 2.4237453014e+000	 1.1318496869e+000	 1.4868451224e-001
 2.4122446810e+000	 1.1561576877e+000	 1.3898405675e-001
 2.4004798637e+000	 1.1803903692e+000	 1.3176418565e-001
 2.3884513479e+000	 1.2045435478e+000	 1.2782325297e-001
 2.3761597183e+000	 1.2286130364e+000	 1.2797970310e-001
 2.5104284129e+000	 9.9385571584e-001	 2.3197256921e-001
 2.5004260670e+000	 1.0187587955e+000	 1.7737272045e-001
 2.4901558326e+000	 1.0436110049e+000	 1.6508595933e-001
 2.4796177027e+000	 1.0684081843e+000	 1.5477485568e-001
 2.4688117540e+000	 1.0931461582e+000	 1.4531135949e-001
 2.4577381469e+000	 1.1178207375e+000	 1.3742105157e-001
 2.4463971267e+000	 1.1424277214e+000	 1.3185376454e-001
 2.4347890238e+000	 1.1669628997e+000	 1.2938239686e-001
 2.4229142550e+000	 1.1914220549e+000	 1.3080165541e-001
 2.4107733232e+000	 1.2158009641e+000	 1.3692672802e-001
 2.3983668184e+000	 1.2400954013e+000	 1.4859188852e-001
 2.5336731204e+000	 1.0030580836e+000	 3.0326937421e-001
 2.5235781602e+000	 1.0281917473e+000	 2.4420066910e-001
 2.5132128310e+000	 1.0532740698e+000	 1.8847822542e-001
 2.5025771259e+000	 1.0783008527e+000	 1.3575891863e-001
 2.4916711221e+000	 1.1032678819e+000	 1.1834797502e-001
 2.4804949816e+000	 1.1281709295e+000	 1.1405794870e-001
 2.4690489519e+000	 1.1530057558e+000	 1.1341712649e-001
 2.4573333667e+000	 1.1777681118e+000	 1.1721784241e-001
 2.4453486462e+000	 1.2024537406e+000	 1.2627338202e-001
 2.4330952984e+000	 1.2270583804e+000	 1.4141660255e-001
 2.4205739186e+000	 1.2515777661e+000	 1.5475933980e-001
 2.5569178279e+000	 1.0122604513e+000	 3.7236938014e-001
 2.5467302535e+000	 1.0376246991e+000	 3.0851777263e-001
 2.5362698295e+000	 1.0629371346e+000	 2.4996747022e-001
 2.5255365491e+000	 1.0881935211e+000	 1.9635969138e-001
 2.5145304902e+000	 1.1133896056e+000	 1.4730249652e-001
 2.5032518163e+000	 1.1385211215e+000	 1.0237114391e-001
 2.4917007772e+000	 1.1635837903e+000	 9.3261505467e-002
 2.4798777095e+000	 1.1885733238e+000	 1.0238463876e-001
 2.4677830375e+000	 1.2134854263e+000	 1.1808183231e-001
 2.4554172736e+000	 1.2383157968e+000	 1.4120445461e-001
 2.4427810188e+000	 1.2630601309e+000	 1.0209606691e-001
 2.2207100171e+000	 1.1482364826e+000	-1.7050881044e-001
 2.2089772391e+000	 1.1706492033e+000	-2.9560021779e-001
 2.1969998960e+000	 1.1929758828e+000	-3.9033596154e-001
 2.1847787778e+000	 1.2152126119e+000	-4.5386745050e-001
 2.1723147561e+000	 1.2373554867e+000	-4.8535758849e-001
 2.1596087844e+000	 1.2594006108e+000	-5.4212797465e-001
 2.1466618980e+000	 1.2813440973e+000	-6.4267387914e-001
 2.1334752143e+000	 1.3031820709e+000	-7.0869479510e-001
 2.1200499323e+000	 1.3249106704e+000	-7.4037008771e-001
 2.1063873328e+000	 1.3465260504e+000	-7.3791475574e-001
 2.0924887780e+000	 1.3680243835e+000	-7.0157911512e-001
 2.2429171172e+000	 1.1597188475e+000	-1.1173354639e-001
 2.2310670115e+000	 1.1823556953e+000	-2.2038366209e-001
 2.2189698950e+000	 1.2049056416e+000	-3.0198248275e-001
 2.2066265656e+000	 1.2273647380e+000	-3.5566724096e-001
 2.1940379036e+000	 1.2497290416e+000	-3.8058347626e-001
 2.1812048722e+000	 1.2719946169e+000	-5.0948341232e-001
 2.1681285170e+000	 1.2941575382e+000	-6.0840349863e-001
 2.1548099664e+000	 1.3162138916e+000	-6.7584813122e-001
 2.1412504316e+000	 1.3381597771e+000	-7.1200832219e-001
 2.1274512061e+000	 1.3599913109e+000	-7.1710818705e-001
 2.1134136658e+000	 1.3817046273e+000	-6.9140458801e-001
 2.2651242174e+000	 1.1712012123e+000	-5.8258303703e-002
 2.2531567839e+000	 1.1940621873e+000	-1.5081951049e-001
 2.2409398939e+000	 1.2168354005e+000	-2.1958213012e-001
 2.2284743533e+000	 1.2395168641e+000	-2.6366824750e-001
 2.2157610512e+000	 1.2621025965e+000	-3.5469746360e-001
 2.2028009601e+000	 1.2845886230e+000	-4.8025397917e-001
 2.1895951360e+000	 1.3069709792e+000	-5.7715279389e-001
 2.1761447186e+000	 1.3292457123e+000	-6.4556590043e-001
 2.1624509309e+000	 1.3514088839e+000	-6.8569625410e-001
 2.1485150794e+000	 1.3734565714e+000	-6.9777742459e-001
 2.1343385536e+000	 1.3953848711e+000	-6.8207319862e-001
 2.2873313176e+000	 1.1826835771e+000	-1.0123872658e-002
 2.2752465563e+000	 1.2057686794e+000	-8.6957457697e-002
 2.2629098929e+000	 1.2287651593e+000	-1.4319525582e-001
 2.2503221411e+000	 1.2516689903e+000	-1.8783972180e-001
 2.2374841988e+000	 1.2744761513e+000	-3.3396611312e-001
 2.2243970479e+000	 1.2971826291e+000	-4.5419407847e-001
 2.2110617550e+000	 1.3197844202e+000	-5.4868135965e-001
 2.1974794707e+000	 1.3422775331e+000	-6.1761460048e-001
 2.1836514302e+000	 1.3646579906e+000	-6.6120900200e-001
 2.1695789527e+000	 1.3869218319e+000	-6.7970793061e-001
 2.1552634414e+000	 1.4090651150e+000	-6.7338247974e-001
 2.3095384178e+000	 1.1941659420e+000	 3.2622776722e-002
 2.2973363287e+000	 1.2174751714e+000	-2.8853353569e-002
 2.2848798918e+000	 1.2406949181e+000	-7.2888277267e-002
 2.2721699289e+000	 1.2638211164e+000	-1.7886677781e-001
 2.2592073463e+000	 1.2868497062e+000	-3.1649282167e-001
 2.2459931357e+000	 1.3097766352e+000	-4.3106351438e-001
 2.2325283739e+000	 1.3325978612e+000	-5.2275383802e-001
 2.2188142229e+000	 1.3553093538e+000	-5.9176535684e-001
 2.2048519296e+000	 1.3779070973e+000	-6.3832582620e-001
 2.1906428261e+000	 1.4003870924e+000	-6.6268875681e-001
 2.1761883292e+000	 1.4227453588e+000	-6.6513293521e-001
 2.3317455179e+000	 1.2056483068e+000	 6.9928788971e-002
 2.3194261010e+000	 1.2291816635e+000	 2.3431090013e-002
 2.3068498908e+000	 1.2526246769e+000	-2.3893678554e-002
 2.2940177167e+000	 1.2759732425e+000	-1.7318434727e-001
 2.2809304939e+000	 1.2992232611e+000	-3.0203961116e-001
 2.2675892236e+000	 1.3223706413e+000	-4.1062723478e-001
 2.2539949929e+000	 1.3454113021e+000	-4.9913967816e-001
 2.2401489750e+000	 1.3683411745e+000	-5.6779370229e-001
 2.2260524289e+000	 1.3911562040e+000	-6.1682993147e-001
 2.2117066994e+000	 1.4138523529e+000	-6.4651237346e-001
 2.1971132169e+000	 1.4364256026e+000	-6.5712789835e-001
 2.3539526181e+000	 1.2171306716e+000	 1.0173570079e-001
 2.3415158734e+000	 1.2408881555e+000	 6.9828575645e-002
 2.3288198898e+000	 1.2645544358e+000	-3.3021778894e-002
 2.3158655044e+000	 1.2881253686e+000	-1.7055845629e-001
 2.3026536414e+000	 1.3115968159e+000	-2.9037366536e-001
 2.2891853114e+000	 1.3349646475e+000	-3.9265508862e-001
 2.2754616119e+000	 1.3582247431e+000	-4.7761290955e-001
 2.2614837271e+000	 1.3813729952e+000	-5.4547936906e-001
 2.2472529282e+000	 1.4044053107e+000	-5.9650828105e-001
 2.2327705727e+000	 1.4273176134e+000	-6.3097450813e-001
 2.2180381047e+000	 1.4501058465e+000	-6.4917339856e-001
 2.3761597183e+000	 1.2286130364e+000	 1.2797970310e-001
 2.3636056458e+000	 1.2525946475e+000	 9.5620929767e-002
 2.3507898887e+000	 1.2764841946e+000	-4.5193243615e-002
 2.3377132922e+000	 1.3002774948e+000	-1.7076024312e-001
 2.3243767890e+000	 1.3239703708e+000	-2.8126708868e-001
 2.3107813993e+000	 1.3475586536e+000	-3.7692159691e-001
 2.2969282309e+000	 1.3710381841e+000	-4.5795192792e-001
 2.2828184793e+000	 1.3944048159e+000	-5.2460609258e-001
 2.2684534275e+000	 1.4176544174e+000	-5.7715142098e-001
 2.2538344460e+000	 1.4407828739e+000	-6.1587399347e-001
 2.2389629925e+000	 1.4637860903e+000	-6.4107803531e-001
 2.3983668184e+000	 1.2400954013e+000	 1.4859188852e-001
 2.3856954182e+000	 1.2643011396e+000	 6.5855862750e-002
 2.3727598877e+000	 1.2884139534e+000	-6.0184690539e-002
 2.3595610800e+000	 1.3124296209e+000	-1.7356572150e-001
 2.3460999366e+000	 1.3363439257e+000	-2.7449667839e-001
 2.3323774871e+000	 1.3601526597e+000	-3.6320573642e-001
 2.3183948499e+000	 1.3838516251e+000	-4.3993929314e-001
 2.3041532314e+000	 1.4074366366e+000	-5.0496142613e-001
 2.2896539269e+000	 1.4309035241e+000	-5.5855331423e-001
 2.2748983194e+000	 1.4542481344e+000	-6.0101262348e-001
 2.2598878803e+000	 1.4774663341e+000	-6.3265285915e-001
 2.4205739186e+000	 1.2515777661e+000	 1.5475933980e-001
 2.4077851906e+000	 1.2760076316e+000	 3.3322500074e-002
 2.3947298867e+000	 1.3003437123e+000	-7.7777511762e-002
 2.3814088678e+000	 1.3245817470e+000	-1.7875555698e-001
 2.3678230841e+000	 1.3487174805e+000	-2.6984370929e-001
 2.3539735750e+000	 1.3727466658e+000	-3.5129073529e-001
 2.3398614688e+000	 1.3966650660e+000	-4.2336153817e-001
 2.3254879836e+000	 1.4204684573e+000	-4.8633656573e-001
 2.3108544262e+000	 1.4441526308e+000	-5.4051118397e-001
 2.2959621927e+000	 1.4677133949e+000	-5.8619501764e-001
 2.2808127681e+000	 1.4911465780e+000	-6.2371125929e-001
 2.4427810188e+000	 1.2630601309e+000	 1.0209606691e-001
 2.4298749630e+000	 1.2877141236e+000	-1.7672285350e-003
 2.4166998856e+000	 1.3122734711e+000	-9.7757656641e-002
 2.4032566556e+000	 1.3367338731e+000	-1.8611485551e-001
 2.3895462317e+000	 1.3610910354e+000	-2.6709373026e-001
 2.3755696628e+000	 1.3853406719e+000	-3.4096387978e-001
 2.3613280878e+000	 1.4094785070e+000	-4.0800898852e-001
 2.3468227357e+000	 1.4335002780e+000	-4.6852618459e-001
 2.3320549255e+000	 1.4574017375e+000	-5.2282536539e-001
 2.3170260660e+000	 1.4811786555e+000	-5.7122849251e-001
 2.3017376559e+000	 1.5048268218e+000	-6.1406885729e-001
 2.0924887780e+000	 1.3680243835e+000	-7.0157911512e-001
 2.0783557117e+000	 1.3894018625e+000	-6.7540998496e-001
 2.0639896582e+000	 1.4106547028e+000	-6.6008000087e-001
 2.0493922227e+000	 1.4317791441e+000	-6.5583948711e-001
 2.0345650901e+000	 1.4527714528e+000	-6.6293029265e-001
 2.0195100253e+000	 1.4736279238e+000	-6.8158509861e-001
 2.0042288717e+000	 1.4943448831e+000	-7.1202673174e-001
 1.9887235515e+000	 1.5149186895e+000	-7.5446748576e-001
 1.9729960641e+000	 1.5353457367e+000	-8.0910845223e-001
 1.9570484858e+000	 1.5556224556e+000	-8.7613886311e-001
 1.9408829689e+000	 1.5757453160e+000	-9.5573544648e-001
 2.1134136658e+000	 1.3817046273e+000	-6.9140458801e-001
 2.0991392688e+000	 1.4032958811e+000	-6.7164808843e-001
 2.0846295548e+000	 1.4247612499e+000	-6.6240440924e-001
 2.0698861449e+000	 1.4460969356e+000	-6.6391862577e-001
 2.0549107410e+000	 1.4672991673e+000	-6.7642761662e-001
 2.0397051255e+000	 1.4883642030e+000	-7.0015936594e-001
 2.0242711605e+000	 1.5092883319e+000	-7.3533227140e-001
 2.0086107870e+000	 1.5300678764e+000	-7.8215445941e-001
 1.9927260247e+000	 1.5506991940e+000	-8.4082310976e-001
 1.9766189706e+000	 1.5711786801e+000	-9.1152379132e-001
 1.9602917986e+000	 1.5915027692e+000	-9.9442981081e-001
 2.1343385536e+000	 1.3953848711e+000	-6.8207319862e-001
 2.1199228259e+000	 1.4171898998e+000	-6.6817750643e-001
 2.1052694514e+000	 1.4388677969e+000	-6.6447724491e-001
 2.0903800671e+000	 1.4604147270e+000	-6.7121283809e-001
 2.0752563919e+000	 1.4818268818e+000	-6.8861678859e-001
 2.0599002258e+000	 1.5031004823e+000	-7.1691297404e-001
 2.0443134492e+000	 1.5242317808e+000	-7.5631594853e-001
 2.0284980225e+000	 1.5452170632e+000	-8.0703025111e-001
 2.0124559853e+000	 1.5660526514e+000	-8.6924972312e-001
 1.9961894555e+000	 1.5867349047e+000	-9.4315683642e-001
 1.9797006283e+000	 1.6072602223e+000	-1.0289220342e+000
 2.1552634414e+000	 1.4090651150e+000	-6.7338247974e-001
 2.1407063830e+000	 1.4310839184e+000	-6.6480551775e-001
 2.1259093480e+000	 1.4529743439e+000	-6.6611531783e-001
 2.1108739893e+000	 1.4747325185e+000	-6.7754824820e-001
 2.0956020428e+000	 1.4963545964e+000	-6.9933302802e-001
 2.0800953260e+000	 1.5178367615e+000	-7.3169001696e-001
 2.0643557379e+000	 1.5391752296e+000	-7.7483050945e-001
 2.0483852580e+000	 1.5603662501e+000	-8.2895603548e-001
 2.0321859460e+000	 1.5814061088e+000	-8.9425766994e-001
 2.0157599404e+000	 1.6022911292e+000	-9.7091535239e-001
 1.9991094580e+000	 1.6230176755e+000	-1.0590972192e+000
 2.1761883292e+000	 1.4227453588e+000	-6.6513293521e-001
 2.1614899402e+000	 1.4449779370e+000	-6.6134184351e-001
 2.1465492446e+000	 1.4670808910e+000	-6.6713736038e-001
 2.1313679116e+000	 1.4890503099e+000	-6.8275239193e-001
 2.1159476937e+000	 1.5108823109e+000	-7.0841246465e-001
 2.1002904263e+000	 1.5325730408e+000	-7.4433500733e-001
 2.0843980266e+000	 1.5541186784e+000	-7.9072863717e-001
 2.0682724935e+000	 1.5755154370e+000	-8.4779245218e-001
 2.0519159066e+000	 1.5967595661e+000	-9.1571533155e-001
 2.0353304252e+000	 1.6178473538e+000	-9.9467524624e-001
 2.0185182877e+000	 1.6387751286e+000	-1.0848385816e+000
 2.1971132169e+000	 1.4364256026e+000	-6.5712789835e-001
 2.1822734973e+000	 1.4588719557e+000	-6.5759853084e-001
 2.1671891411e+000	 1.4811874380e+000	-6.6736393583e-001
 2.1518618338e+000	 1.5033681014e+000	-6.8665414954e-001
 2.1362933446e+000	 1.5254100254e+000	-7.1569209517e-001
 2.1204855265e+000	 1.5473093200e+000	-7.5469285636e-001
 2.1044403153e+000	 1.5690621273e+000	-8.0386295442e-001
 2.0881597291e+000	 1.5906646239e+000	-8.6339963132e-001
 2.0716458673e+000	 1.6121130235e+000	-9.3349014041e-001
 2.0549009101e+000	 1.6334035783e+000	-1.0143110469e+000
 2.0379271174e+000	 1.6545325818e+000	-1.1060275403e+000
 2.2180381047e+000	 1.4501058465e+000	-6.4917339856e-001
 2.2030570544e+000	 1.4727659743e+000	-6.5338984313e-001
 2.1878290377e+000	 1.4952939850e+000	-6.6661735198e-001
 2.1723557560e+000	 1.5176858928e+000	-6.8908368233e-001
 2.1566389955e+000	 1.5399377400e+000	-7.2100974230e-001
 2.1406806268e+000	 1.5620455992e+000	-7.6260885510e-001
 2.1244826040e+000	 1.5840055761e+000	-8.1408602647e-001
 2.1080469646e+000	 1.6058138108e+000	-8.7563721752e-001
 2.0913758279e+000	 1.6274664809e+000	-9.4744862490e-001
 2.0744713949e+000	 1.6489598029e+000	-1.0296959704e+000
 2.0573359470e+000	 1.6702900350e+000	-1.1225438019e+000
 2.2389629925e+000	 1.4637860903e+000	-6.4107803531e-001
 2.2238406115e+000	 1.4866599929e+000	-6.4853215650e-001
 2.2084689343e+000	 1.5094005321e+000	-6.6472157966e-001
 2.1928496783e+000	 1.5320036842e+000	-6.8987237280e-001
 2.1769846464e+000	 1.5544654545e+000	-7.2420401625e-001
 2.1608757270e+000	 1.5767818785e+000	-7.6792865665e-001
 2.1445248928e+000	 1.5989490249e+000	-8.2125036384e-001
 2.1279342001e+000	 1.6209629977e+000	-8.8436439260e-001
 2.1111057885e+000	 1.6428199382e+000	-9.5745645152e-001
 2.0940418798e+000	 1.6645160274e+000	-1.0407019808e+000
 2.0767447767e+000	 1.6860474881e+000	-1.1342654413e+000
 2.2598878803e+000	 1.4774663341e+000	-6.3265285915e-001
 2.2446241686e+000	 1.5005540115e+000	-6.4284386200e-001
 2.2291088309e+000	 1.5235070791e+000	-6.6150217568e-001
 2.2133436005e+000	 1.5463214757e+000	-6.8885276804e-001
 2.1973302973e+000	 1.5689931690e+000	-7.2511427817e-001
 2.1810708273e+000	 1.5915181577e+000	-7.7049825941e-001
 2.1645671815e+000	 1.6138924738e+000	-8.2520842480e-001
 2.1478214356e+000	 1.6361121846e+000	-8.8943989700e-001
 2.1308357492e+000	 1.6581733956e+000	-9.6337846482e-001
 2.1136123646e+000	 1.6800722520e+000	-1.0471998486e+000
 2.0961536064e+000	 1.7018049413e+000	-1.1410689762e+000
 2.2808127681e+000	 1.4911465780e+000	-6.2371125929e-001
 2.2654077258e+000	 1.5144480302e+000	-6.3614527314e-001
 2.2497487275e+000	 1.5376136261e+000	-6.5678621016e-001
 2.2338375227e+000	 1.5606392671e+000	-6.8585852641e-001
 2.2176759482e+000	 1.5835208835e+000	-7.2358060580e-001
 2.2012659275e+000	 1.6062544370e+000	-7.7016399125e-001
 2.1846094702e+000	 1.6288359226e+000	-8.2581261783e-001
 2.1677086711e+000	 1.6512613715e+000	-8.9072205001e-001
 2.1505657098e+000	 1.6735268530e+000	-9.6507872512e-001
 2.1331828495e+000	 1.6956284766e+000	-1.0490592053e+000
 2.1155624361e+000	 1.7175623944e+000	-1.1428294398e+000
 2.3017376559e+000	 1.5048268218e+000	-6.1406885729e-001
 2.2861912829e+000	 1.5283420488e+000	-6.2825853853e-001
 2.2703886241e+000	 1.5517201731e+000	-6.5040219765e-001
 2.2543314449e+000	 1.5749570586e+000	-6.8072436694e-001
 2.2380215991e+000	 1.5980485981e+000	-7.1944376084e-001
 2.2214610278e+000	 1.6209907162e+000	-7.6677249451e-001
 2.2046517589e+000	 1.6437793714e+000	-8.2291530379e-001
 2.1875959066e+000	 1.6664105584e+000	-8.8806876894e-001
 2.1702956705e+000	 1.6888803104e+000	-9.6242054412e-001
 2.1527533344e+000	 1.7111847011e+000	-1.0461485951e+000
 2.1349712658e+000	 1.7333198476e+000	-1.1394204471e+000
 1.9408829689e+000	 1.5757453160e+000	-9.5573544648e-001
 1.9245017408e+000	 1.5957108290e+000	-9.9704957104e-001
 1.9079071027e+000	 1.6155155485e+000	-1.0764355345e+000
 1.8911014290e+000	 1.6351560736e+000	-1.1936294004e+000
 1.8740871660e+000	 1.6546290504e+000	-1.3340046936e+000
 1.8568668306e+000	 1.6739311735e+000	-1.2516172104e+000
 1.8394430092e+000	 1.6930591885e+000	-1.1948352901e+000
 1.8218183566e+000	 1.7120098935e+000	-1.1628869899e+000
 1.8039955943e+000	 1.7307801408e+000	-1.1549531997e+000
 1.7859775094e+000	 1.7493668386e+000	-1.1701684124e+000
 1.7677669530e+000	 1.7677669530e+000	-1.2076215920e+000
 1.9602917986e+000	 1.5915027692e+000	-9.9442981081e-001
 1.9437467582e+000	 1.6116679373e+000	-1.0244360031e+000
 1.9269861737e+000	 1.6316707040e+000	-1.0865256249e+000
 1.9100124433e+000	 1.6515076344e+000	-1.1805222260e+000
 1.8928280376e+000	 1.6711753409e+000	-1.3062144991e+000
 1.8754354989e+000	 1.6906704852e+000	-1.4633560211e+000
 1.8578374393e+000	 1.7099897804e+000	-1.3721572306e+000
 1.8400365402e+000	 1.7291299925e+000	-1.2932710922e+000
 1.8220355503e+000	 1.7480879422e+000	-1.2329728817e+000
 1.8038372845e+000	 1.7668605069e+000	-1.1905027448e+000
 1.7854446225e+000	 1.7854446225e+000	-1.1650597122e+000
 1.9797006283e+000	 1.6072602223e+000	-1.0289220342e+000
 1.9629917756e+000	 1.6276250456e+000	-1.0500868037e+000
 1.9460652448e+000	 1.6478258595e+000	-1.0974733292e+000
 1.9289234576e+000	 1.6678591951e+000	-1.1709918776e+000
 1.9115689093e+000	 1.6877216314e+000	-1.2705234329e+000
 1.8940041672e+000	 1.7074097970e+000	-1.3959193439e+000
 1.8762318694e+000	 1.7269203723e+000	-1.5470010156e+000
 1.8582547237e+000	 1.7462500914e+000	-1.4447305501e+000
 1.8400755062e+000	 1.7653957436e+000	-1.3355282824e+000
 1.8216970596e+000	 1.7843541753e+000	-1.2389645019e+000
 1.8031222920e+000	 1.8031222920e+000	-1.1543465809e+000
 1.9991094580e+000	 1.6230176755e+000	-1.0590972192e+000
 1.9822367930e+000	 1.6435821538e+000	-1.0738100522e+000
 1.9651443158e+000	 1.6639810150e+000	-1.1090062099e+000
 1.9478344719e+000	 1.6842107558e+000	-1.1646819437e+000
 1.9303097810e+000	 1.7042679219e+000	-1.2408097138e+000
 1.9125728355e+000	 1.7241491087e+000	-1.3373377429e+000
 1.8946262995e+000	 1.7438509642e+000	-1.4541896073e+000
 1.8764729073e+000	 1.7633701903e+000	-1.5912638647e+000
 1.8581154622e+000	 1.7827035450e+000	-1.4612252614e+000
 1.8395568347e+000	 1.8018478437e+000	-1.3140586237e+000
 1.8207999616e+000	 1.8207999616e+000	-1.1738833878e+000
 2.0185182877e+000	 1.6387751286e+000	-1.0848385816e+000
 2.0014818104e+000	 1.6595392621e+000	-1.0954147642e+000
 1.9842233868e+000	 1.6801361704e+000	-1.1208557254e+000
 1.9667454862e+000	 1.7005623166e+000	-1.1612430044e+000
 1.9490506526e+000	 1.7208142124e+000	-1.2166397603e+000
 1.9311415038e+000	 1.7408884204e+000	-1.2870902321e+000
 1.9130207296e+000	 1.7607815561e+000	-1.3726192290e+000
 1.8946910909e+000	 1.7804902893e+000	-1.4732316509e+000
 1.8761554181e+000	 1.8000113464e+000	-1.5889120423e+000
 1.8574166098e+000	 1.8193415121e+000	-1.4143183823e+000
 1.8384776311e+000	 1.8384776311e+000	-1.2221036578e+000
 2.0379271174e+000	 1.6545325818e+000	-1.1060275403e+000
 2.0207268278e+000	 1.6754963704e+000	-1.1147108471e+000
 2.0033024578e+000	 1.6962913259e+000	-1.1327570448e+000
 1.9856565005e+000	 1.7169138773e+000	-1.1603322986e+000
 1.9677915243e+000	 1.7373605029e+000	-1.1975897257e+000
 1.9497101721e+000	 1.7576277322e+000	-1.2446687624e+000
 1.9314151596e+000	 1.7777121480e+000	-1.3016945536e+000
 1.9129092744e+000	 1.7976103882e+000	-1.3687773666e+000
 1.8941953740e+000	 1.8173191478e+000	-1.4460120303e+000
 1.8752763849e+000	 1.8368351805e+000	-1.5334774027e+000
 1.8561553006e+000	 1.8561553006e+000	-1.2974717112e+000
 2.0573359470e+000	 1.6702900350e+000	-1.1225438019e+000
 2.0399718452e+000	 1.6914534787e+000	-1.1315090577e+000
 2.0223815288e+000	 1.7124464814e+000	-1.1444488727e+000
 2.0045675147e+000	 1.7332654380e+000	-1.1616134096e+000
 1.9865323959e+000	 1.7539067934e+000	-1.1832450386e+000
 1.9682788404e+000	 1.7743670439e+000	-1.2095776116e+000
 1.9498095897e+000	 1.7946427398e+000	-1.2408357517e+000
 1.9311274580e+000	 1.8147304871e+000	-1.2772341597e+000
 1.9122353300e+000	 1.8346269492e+000	-1.3189769402e+000
 1.8931361600e+000	 1.8543288489e+000	-1.3662569483e+000
 1.8738329701e+000	 1.8738329701e+000	-1.3984812109e+000
 2.0767447767e+000	 1.6860474881e+000	-1.1342654413e+000
 2.0592168626e+000	 1.7074105870e+000	-1.1456209627e+000
 2.0414605999e+000	 1.7286016369e+000	-1.1556732839e+000
 2.0234785290e+000	 1.7496169988e+000	-1.1647559687e+000
 2.0052732676e+000	 1.7704530839e+000	-1.1731999695e+000
 1.9868475087e+000	 1.7911063556e+000	-1.1813328086e+000
 1.9682040198e+000	 1.8115733317e+000	-1.1894777674e+000
 1.9493456416e+000	 1.8318505861e+000	-1.1979530867e+000
 1.9302752859e+000	 1.8519347506e+000	-1.2070711793e+000
 1.9109959351e+000	 1.8718225172e+000	-1.2171378575e+000
 1.8915106397e+000	 1.8915106397e+000	-1.2854461636e+000
 2.0961536064e+000	 1.7018049413e+000	-1.1410689762e+000
 2.0784618800e+000	 1.7233676953e+000	-1.1568589013e+000
 2.0605396709e+000	 1.7447567924e+000	-1.1661755675e+000
 2.0423895433e+000	 1.7659685595e+000	-1.1694353753e+000
 2.0240141392e+000	 1.7869993744e+000	-1.1670572217e+000
 2.0054161770e+000	 1.8078456674e+000	-1.1594615889e+000
 1.9865984499e+000	 1.8285039236e+000	-1.1470696340e+000
 1.9675638251e+000	 1.8489706850e+000	-1.1303022828e+000
 1.9483152419e+000	 1.8692425520e+000	-1.1095793295e+000
 1.9288557102e+000	 1.8893161856e+000	-1.1339217102e+000
 1.9091883092e+000	 1.9091883092e+000	-1.1682712003e+000
 2.1155624361e+000	 1.7175623944e+000	-1.1428294398e+000
 2.0977068974e+000	 1.7393248036e+000	-1.1650359495e+000
 2.0796187419e+000	 1.7609119479e+000	-1.1757040796e+000
 2.0613005576e+000	 1.7823201203e+000	-1.1753325324e+000
 2.0427550109e+000	 1.8035456649e+000	-1.1644275443e+000
 2.0239848453e+000	 1.8245849791e+000	-1.1435018811e+000
 2.0049928800e+000	 1.8454345155e+000	-1.1130738284e+000
 1.9857820087e+000	 1.8660907839e+000	-1.0736661793e+000
 1.9663551978e+000	 1.8865503534e+000	-1.0644997824e+000
 1.9467154853e+000	 1.9068098540e+000	-1.0710985683e+000
 1.9268659787e+000	 1.9268659787e+000	-1.0627802547e+000
 2.1349712658e+000	 1.7333198476e+000	-1.1394204471e+000
 2.1169519149e+000	 1.7552819119e+000	-1.1699658870e+000
 2.0986978130e+000	 1.7770671034e+000	-1.1840101035e+000
 2.0802115719e+000	 1.7986716810e+000	-1.1821335962e+000
 2.0614958826e+000	 1.8200919554e+000	-1.1649293664e+000
 2.0425535136e+000	 1.8413242908e+000	-1.1330018202e+000
 2.0233873101e+000	 1.8623651074e+000	-1.0869656592e+000
 2.0040001923e+000	 1.8832108829e+000	-1.0546815533e+000
 1.9843951538e+000	 1.9038581548e+000	-1.0456858360e+000
 1.9645752604e+000	 1.9243035224e+000	-1.0166292924e+000
 1.9445436483e+000	 1.9445436482e+000	-9.6834301707e-001
 1.7677669530e+000	 1.7677669530e+000	-1.2076215920e+000
 1.7493668386e+000	 1.7859775094e+000	-1.3779306879e+000
 1.7307801408e+000	 1.8039955943e+000	-1.5128278321e+000
 1.7120098935e+000	 1.8218183566e+000	-1.6122859434e+000
 1.6930591885e+000	 1.8394430092e+000	-1.6762907055e+000
 1.6739311735e+000	 1.8568668306e+000	-1.7048407024e+000
 1.6546290504e+000	 1.8740871660e+000	-1.6979475693e+000
 1.6351560736e+000	 1.8911014290e+000	-1.7338375568e+000
 1.6155155485e+000	 1.9079071027e+000	-1.7380173950e+000
 1.5957108290e+000	 1.9245017408e+000	-1.7068469433e+000
 1.5757453160e+000	 1.9408829689e+000	-1.6411376902e+000
 1.7854446225e+000	 1.7854446225e+000	-1.1650597122e+000
 1.7668605069e+000	 1.8038372845e+000	-1.2998887973e+000
 1.7480879422e+000	 1.8220355503e+000	-1.4060524327e+000
 1.7291299925e+000	 1.8400365402e+000	-1.4834361401e+000
 1.7099897804e+000	 1.8578374393e+000	-1.5319314253e+000
 1.6906704852e+000	 1.8754354989e+000	-1.5534239737e+000
 1.6711753409e+000	 1.8928280376e+000	-1.6226822949e+000
 1.6515076344e+000	 1.9100124433e+000	-1.6612695255e+000
 1.6316707040e+000	 1.9269861737e+000	-1.6698817236e+000
 1.6116679373e+000	 1.9437467582e+000	-1.6492217223e+000
 1.5915027692e+000	 1.9602917986e+000	-1.5999979612e+000
 1.8031222920e+000	 1.8031222920e+000	-1.1543465809e+000
 1.7843541753e+000	 1.8216970596e+000	-1.2513998429e+000
 1.7653957436e+000	 1.8400755062e+000	-1.3264292030e+000
 1.7462500914e+000	 1.8582547237e+000	-1.3792338907e+000
 1.7269203723e+000	 1.8762318694e+000	-1.4149158742e+000
 1.7074097970e+000	 1.8940041672e+000	-1.4981364099e+000
 1.6877216314e+000	 1.9115689093e+000	-1.5562432340e+000
 1.6678591951e+000	 1.9289234576e+000	-1.5898413336e+000
 1.6478258595e+000	 1.9460652448e+000	-1.5995376288e+000
 1.6276250456e+000	 1.9629917756e+000	-1.5859398840e+000
 1.6072602223e+000	 1.9797006283e+000	-1.5496556433e+000
 1.8207999616e+000	 1.8207999616e+000	-1.1738833878e+000
 1.8018478437e+000	 1.8395568347e+000	-1.2309374615e+000
 1.7827035450e+000	 1.8581154622e+000	-1.2725082198e+000
 1.7633701903e+000	 1.8764729073e+000	-1.3043284588e+000
 1.7438509642e+000	 1.8946262995e+000	-1.3866956686e+000
 1.7241491087e+000	 1.9125728355e+000	-1.4495653364e+000
 1.7042679219e+000	 1.9303097810e+000	-1.4934643174e+000
 1.6842107558e+000	 1.9478344719e+000	-1.5189164489e+000
 1.6639810150e+000	 1.9651443158e+000	-1.5264415246e+000
 1.6435821538e+000	 1.9822367930e+000	-1.5165542994e+000
 1.6230176755e+000	 1.9991094580e+000	-1.4897635284e+000
 1.8384776311e+000	 1.8384776311e+000	-1.2221036578e+000
 1.8193415121e+000	 1.8574166098e+000	-1.2370048668e+000
 1.8000113464e+000	 1.8761554181e+000	-1.2473825396e+000
 1.7804902893e+000	 1.8946910909e+000	-1.3142484705e+000
 1.7607815561e+000	 1.9130207296e+000	-1.3672724675e+000
 1.7408884204e+000	 1.9311415038e+000	-1.4069162205e+000
 1.7208142124e+000	 1.9490506526e+000	-1.4336333690e+000
 1.7005623166e+000	 1.9667454862e+000	-1.4478685221e+000
 1.6801361704e+000	 1.9842233868e+000	-1.4500563164e+000
 1.6595392621e+000	 2.0014818104e+000	-1.4406205140e+000
 1.6387751286e+000	 2.0185182877e+000	-1.4199731414e+000
 1.8561553006e+000	 1.8561553006e+000	-1.2974717112e+000
 1.8368351805e+000	 1.8752763849e+000	-1.2691763361e+000
 1.8173191478e+000	 1.8941953740e+000	-1.3060780333e+000
 1.7976103882e+000	 1.9129092744e+000	-1.3348135575e+000
 1.7777121480e+000	 1.9314151596e+000	-1.3557923940e+000
 1.7576277322e+000	 1.9497101721e+000	-1.3694108899e+000
 1.7373605029e+000	 1.9677915243e+000	-1.3760513041e+000
 1.7169138773e+000	 1.9856565005e+000	-1.3760809015e+000
 1.6962913259e+000	 2.0033024578e+000	-1.3698510923e+000
 1.6754963704e+000	 2.0207268278e+000	-1.3576966202e+000
 1.6545325818e+000	 2.0379271174e+000	-1.3399348002e+000
 1.8738329701e+000	 1.8738329701e+000	-1.3984812109e+000
 1.8543288489e+000	 1.8931361600e+000	-1.3868629080e+000
 1.8346269492e+000	 1.9122353300e+000	-1.3770505824e+000
 1.8147304871e+000	 1.9311274580e+000	-1.3651190159e+000
 1.7946427398e+000	 1.9498095897e+000	-1.3514201563e+000
 1.7743670439e+000	 1.9682788404e+000	-1.3362867613e+000
 1.7539067934e+000	 1.9865323959e+000	-1.3200315115e+000
 1.7332654380e+000	 2.0045675147e+000	-1.3029461758e+000
 1.7124464814e+000	 2.0223815288e+000	-1.2853008309e+000
 1.6914534787e+000	 2.0399718452e+000	-1.2673431372e+000
 1.6702900350e+000	 2.0573359470e+000	-1.2492976731e+000
 1.8915106397e+000	 1.8915106397e+000	-1.2854461636e+000
 1.8718225172e+000	 1.9109959351e+000	-1.5182577360e+000
 1.8519347506e+000	 1.9302752859e+000	-1.4593524795e+000
 1.8318505861e+000	 1.9493456416e+000	-1.4042805983e+000
 1.8115733317e+000	 1.9682040198e+000	-1.3533381784e+000
 1.7911063556e+000	 1.9868475087e+000	-1.3067961117e+000
 1.7704530839e+000	 2.0052732676e+000	-1.2648992706e+000
 1.7496169988e+000	 2.0234785290e+000	-1.2278657424e+000
 1.7286016369e+000	 2.0414605999e+000	-1.1958861268e+000
 1.7074105870e+000	 2.0592168626e+000	-1.1691228978e+000
 1.6860474881e+000	 2.0767447767e+000	-1.1477098324e+000
 1.9091883092e+000	 1.9091883092e+000	-1.1682712003e+000
 1.8893161856e+000	 1.9288557102e+000	-1.4018816799e+000
 1.8692425520e+000	 1.9483152419e+000	-1.5520580285e+000
 1.8489706850e+000	 1.9675638251e+000	-1.4514335669e+000
 1.8285039236e+000	 1.9865984499e+000	-1.3607457803e+000
 1.8078456674e+000	 2.0054161770e+000	-1.2802053905e+000
 1.7869993744e+000	 2.0240141392e+000	-1.2099912010e+000
 1.7659685595e+000	 2.0423895433e+000	-1.1502493991e+000
 1.7447567924e+000	 2.0605396709e+000	-1.1010929298e+000
 1.7233676953e+000	 2.0784618800e+000	-1.0626009411e+000
 1.7018049413e+000	 2.0961536064e+000	-1.0348183049e+000
 1.9268659787e+000	 1.9268659787e+000	-1.0627802547e+000
 1.9068098540e+000	 1.9467154853e+000	-1.2374436510e+000
 1.8865503534e+000	 1.9663551978e+000	-1.4406896178e+000
 1.8660907839e+000	 1.9857820087e+000	-1.5057317981e+000
 1.8454345155e+000	 2.0049928800e+000	-1.3728584032e+000
 1.8245849791e+000	 2.0239848453e+000	-1.2557945696e+000
 1.8035456649e+000	 2.0427550109e+000	-1.1546547422e+000
 1.7823201203e+000	 2.0613005576e+000	-1.0695149594e+000
 1.7609119479e+000	 2.0796187419e+000	-1.0004123000e+000
 1.7393248036e+000	 2.0977068974e+000	-9.4734441139e-001
 1.7175623944e+000	 2.1155624361e+000	-9.1026911999e-001
 1.9445436483e+000	 1.9445436482e+000	-9.6834301707e-001
 1.9243035224e+000	 1.9645752604e+000	-1.0819604329e+000
 1.9038581548e+000	 1.9843951538e+000	-1.2299654269e+000
 1.8832108829e+000	 2.0040001923e+000	-1.4122686611e+000
 1.8623651074e+000	 2.0233873101e+000	-1.3889068761e+000
 1.8413242908e+000	 2.0425535136e+000	-1.2328565283e+000
 1.8200919554e+000	 2.0614958826e+000	-1.0982476622e+000
 1.7986716810e+000	 2.0802115719e+000	-9.8508788767e-001
 1.7770671034e+000	 2.0986978130e+000	-8.9334017486e-001
 1.7552819119e+000	 2.1169519149e+000	-8.2292246225e-001
 1.7333198476e+000	 2.1349712658e+000	-7.7370735519e-001
 1.5757453160e+000	 1.9408829689e+000	-1.6411376902e+000
 1.5556224556e+000	 1.9570484858e+000	-1.6581654277e+000
 1.5353457367e+000	 1.9729960641e+000	-1.6550866950e+000
 1.5149186895e+000	 1.9887235515e+000	-1.6323845578e+000
 1.4943448831e+000	 2.0042288717e+000	-1.5905375986e+000
 1.4736279238e+000	 2.0195100253e+000	-1.5300191524e+000
 1.4527714528e+000	 2.0345650901e+000	-1.4512965781e+000
 1.4317791441e+000	 2.0493922227e+000	-1.3548305664e+000
 1.4106547028e+000	 2.0639896582e+000	-1.2410744868e+000
 1.3894018625e+000	 2.0783557117e+000	-1.1104737729e+000
 1.3680243835e+000	 2.0924887780e+000	-9.6346534867e-001
 1.5915027692e+000	 1.9602917986e+000	-1.5999979612e+000
 1.5711786801e+000	 1.9766189706e+000	-1.6288286336e+000
 1.5506991940e+000	 1.9927260247e+000	-1.6378472617e+000
 1.5300678764e+000	 2.0086107870e+000	-1.6275326758e+000
 1.5092883319e+000	 2.0242711605e+000	-1.5983585249e+000
 1.4883642030e+000	 2.0397051255e+000	-1.5507925109e+000
 1.4672991673e+000	 2.0549107410e+000	-1.4852956602e+000
 1.4460969356e+000	 2.0698861449e+000	-1.4023216328e+000
 1.4247612499e+000	 2.0846295548e+000	-1.3023160733e+000
 1.4032958811e+000	 2.0991392688e+000	-1.1857160007e+000
 1.3817046273e+000	 2.1134136658e+000	-1.0529492417e+000
 1.6072602223e+000	 1.9797006283e+000	-1.5496556433e+000
 1.5867349047e+000	 1.9961894555e+000	-1.5897888331e+000
 1.5660526514e+000	 2.0124559853e+000	-1.6104169982e+000
 1.5452170632e+000	 2.0284980225e+000	-1.6120152682e+000
 1.5242317808e+000	 2.0443134492e+000	-1.5950528713e+000
 1.5031004823e+000	 2.0599002258e+000	-1.5599923664e+000
 1.4818268818e+000	 2.0752563919e+000	-1.5072889135e+000
 1.4604147270e+000	 2.0903800671e+000	-1.4373895852e+000
 1.4388677969e+000	 2.1052694514e+000	-1.3507327193e+000
 1.4171898998e+000	 2.1199228259e+000	-1.2477473147e+000
 1.3953848711e+000	 2.1343385536e+000	-1.1288524695e+000
 1.6230176755e+000	 1.9991094580e+000	-1.4897635284e+000
 1.6022911292e+000	 2.0157599404e+000	-1.5407106633e+000
 1.5814061088e+000	 2.0321859460e+000	-1.5724726635e+000
 1.5603662501e+000	 2.0483852580e+000	-1.5855214895e+000
 1.5391752296e+000	 2.0643557379e+000	-1.5803224580e+000
 1.5178367615e+000	 2.0800953260e+000	-1.5573334708e+000
 1.4963545964e+000	 2.0956020428e+000	-1.5170042845e+000
 1.4747325185e+000	 2.1108739893e+000	-1.4597758223e+000
 1.4529743439e+000	 2.1259093480e+000	-1.3860795301e+000
 1.4310839184e+000	 2.1407063830e+000	-1.2963367751e+000
 1.4090651150e+000	 2.1552634414e+000	-1.1909582913e+000
 1.6387751286e+000	 2.0185182877e+000	-1.4199731414e+000
 1.6178473538e+000	 2.0353304252e+000	-1.4812569498e+000
 1.5967595661e+000	 2.0519159066e+000	-1.5236886590e+000
 1.5755154370e+000	 2.0682724935e+000	-1.5477375896e+000
 1.5541186784e+000	 2.0843980266e+000	-1.5538656526e+000
 1.5325730408e+000	 2.1002904263e+000	-1.5425265755e+000
 1.5108823109e+000	 2.1159476937e+000	-1.5141651702e+000
 1.4890503099e+000	 2.1313679116e+000	-1.4692166457e+000
 1.4670808910e+000	 2.1465492446e+000	-1.4081059650e+000
 1.4449779370e+000	 2.1614899402e+000	-1.3312472491e+000
 1.4227453588e+000	 2.1761883292e+000	-1.2390432266e+000
 1.6545325818e+000	 2.0379271174e+000	-1.3399348002e+000
 1.6334035783e+000	 2.0549009101e+000	-1.4110887924e+000
 1.6121130235e+000	 2.0716458673e+000	-1.4637371408e+000
 1.5906646239e+000	 2.0881597291e+000	-1.4983470520e+000
 1.5690621273e+000	 2.1044403153e+000	-1.5153775348e+000
 1.5473093200e+000	 2.1204855265e+000	-1.5152786217e+000
 1.5254100254e+000	 2.1362933446e+000	-1.4984906357e+000
 1.5033681014e+000	 2.1518618338e+000	-1.4654435020e+000
 1.4811874380e+000	 2.1671891411e+000	-1.4165561073e+000
 1.4588719557e+000	 2.1822734973e+000	-1.3522357059e+000
 1.4364256026e+000	 2.1971132169e+000	-1.2728773762e+000
 1.6702900350e+000	 2.0573359470e+000	-1.2492976731e+000
 1.6489598029e+000	 2.0744713949e+000	-1.3298656470e+000
 1.6274664809e+000	 2.0913758279e+000	-1.3922881253e+000
 1.6058138108e+000	 2.1080469646e+000	-1.4370307244e+000
 1.5840055761e+000	 2.1244826040e+000	-1.4645500512e+000
 1.5620455992e+000	 2.1406806268e+000	-1.4752929202e+000
 1.5399377400e+000	 2.1566389955e+000	-1.4696956177e+000
 1.5176858928e+000	 2.1723557560e+000	-1.4481832125e+000
 1.4952939850e+000	 2.1878290377e+000	-1.4111689167e+000
 1.4727659743e+000	 2.2030570544e+000	-1.3590534949e+000
 1.4501058465e+000	 2.2180381047e+000	-1.2922247251e+000
 1.6860474881e+000	 2.0767447767e+000	-1.1477098324e+000
 1.6645160274e+000	 2.0940418798e+000	-1.2372454024e+000
 1.6428199382e+000	 2.1111057885e+000	-1.3090095895e+000
 1.6209629977e+000	 2.1279342001e+000	-1.3634669417e+000
 1.5989490249e+000	 2.1445248928e+000	-1.4010721621e+000
 1.5767818785e+000	 2.1608757270e+000	-1.4222693213e+000
 1.5544654545e+000	 2.1769846464e+000	-1.4274911180e+000
 1.5320036842e+000	 2.1928496783e+000	-1.4171581889e+000
 1.5094005321e+000	 2.2084689343e+000	-1.3916784698e+000
 1.4866599929e+000	 2.2238406115e+000	-1.3514466082e+000
 1.4637860903e+000	 2.2389629925e+000	-1.2968434281e+000
 1.7018049413e+000	 2.0961536064e+000	-1.0348183049e+000
 1.6800722520e+000	 2.1136123646e+000	-1.1328844524e+000
 1.6581733956e+000	 2.1308357492e+000	-1.2135675651e+000
 1.6361121846e+000	 2.1478214356e+000	-1.2773316424e+000
 1.6138924738e+000	 2.1645671815e+000	-1.3246299796e+000
 1.5915181577e+000	 2.1810708273e+000	-1.3559043747e+000
 1.5689931690e+000	 2.1973302973e+000	-1.3715843853e+000
 1.5463214757e+000	 2.2133436005e+000	-1.3720866372e+000
 1.5235070791e+000	 2.2291088309e+000	-1.3578141853e+000
 1.5005540115e+000	 2.2446241686e+000	-1.3291559286e+000
 1.4774663341e+000	 2.2598878803e+000	-1.2864860795e+000
 1.7175623944e+000	 2.1155624361e+000	-9.1026911999e-001
 1.6956284766e+000	 2.1331828495e+000	-1.0164377648e+000
 1.6735268530e+000	 2.1505657098e+000	-1.1056262281e+000
 1.6512613715e+000	 2.1677086711e+000	-1.1782984787e+000
 1.6288359226e+000	 2.1846094702e+000	-1.2349068980e+000
 1.6062544370e+000	 2.2012659275e+000	-1.2758914808e+000
 1.5835208835e+000	 2.2176759482e+000	-1.3016790877e+000
 1.5606392671e+000	 2.2338375227e+000	-1.3126827514e+000
 1.5376136261e+000	 2.2497487275e+000	-1.3093010382e+000
 1.5144480302e+000	 2.2654077258e+000	-1.2919174642e+000
 1.4911465780e+000	 2.2808127681e+000	-1.2608999688e+000
 1.7333198476e+000	 2.1349712658e+000	-7.7370735519e-001
 1.7111847011e+000	 2.1527533344e+000	-8.8755894611e-001
 1.6888803104e+000	 2.1702956705e+000	-9.8484798278e-001
 1.6664105584e+000	 2.1875959066e+000	-1.0660389200e+000
 1.6437793714e+000	 2.2046517589e+000	-1.1315837177e+000
 1.6209907162e+000	 2.2214610278e+000	-1.1819210344e+000
 1.5980485981e+000	 2.2380215991e+000	-1.2174754750e+000
 1.5749570586e+000	 2.2543314449e+000	-1.2386568952e+000
 1.5517201731e+000	 2.2703886241e+000	-1.2458597616e+000
 1.5283420488e+000	 2.2861912829e+000	-1.2394625697e+000
 1.5048268218e+000	 2.3017376559e+000	-1.2198273213e+000
 1.3680243835e+000	 2.0924887780e+000	-9.6346534867e-001
 1.3465260504e+000	 2.1063873328e+000	-9.4114567249e-001
 1.3249106704e+000	 2.1200499323e+000	-9.6755947002e-001
 1.3031820709e+000	 2.1334752143e+000	-1.0418853698e+000
 1.2813440973e+000	 2.1466618980e+000	-1.1632412486e+000
 1.2594006108e+000	 2.1596087844e+000	-1.3306855873e+000
 1.2373554867e+000	 2.1723147561e+000	-1.2699778498e+000
 1.2152126119e+000	 2.1847787778e+000	-1.0362780149e+000
 1.1929758828e+000	 2.1969998960e+000	-8.2778153747e-001
 1.1706492033e+000	 2.2089772391e+000	-6.4258164530e-001
 1.1482364826e+000	 2.2207100171e+000	-4.7874337568e-001
 1.3817046273e+000	 2.1134136658e+000	-1.0529492417e+000
 1.3599913109e+000	 2.1274512061e+000	-1.0147427642e+000
 1.3381597771e+000	 2.1412504316e+000	-1.0218089475e+000
 1.3162138916e+000	 2.1548099664e+000	-1.0733834822e+000
 1.2941575382e+000	 2.1681285170e+000	-1.1686433062e+000
 1.2719946169e+000	 2.1812048722e+000	-1.3067078836e+000
 1.2497290416e+000	 2.1940379036e+000	-1.4806114464e+000
 1.2273647380e+000	 2.2066265656e+000	-1.1959693706e+000
 1.2049056416e+000	 2.2189698950e+000	-9.3298802067e-001
 1.1823556953e+000	 2.2310670115e+000	-6.8976802532e-001
 1.1597188475e+000	 2.2429171172e+000	-4.6438374149e-001
 1.3953848711e+000	 2.1343385536e+000	-1.1288524695e+000
 1.3734565714e+000	 2.1485150794e+000	-1.0762024805e+000
 1.3514088839e+000	 2.1624509309e+000	-1.0654523369e+000
 1.3292457123e+000	 2.1761447186e+000	-1.0958939600e+000
 1.3069709792e+000	 2.1895951360e+000	-1.1667624538e+000
 1.2845886230e+000	 2.2028009601e+000	-1.2772373075e+000
 1.2621025965e+000	 2.2157610512e+000	-1.4264436879e+000
 1.2395168641e+000	 2.2284743533e+000	-1.3702318648e+000
 1.2168354005e+000	 2.2409398939e+000	-1.0557048057e+000
 1.1940621873e+000	 2.2531567839e+000	-7.5749341217e-001
 1.1712012123e+000	 2.2651242174e+000	-4.7367787514e-001
 1.4090651150e+000	 2.1552634414e+000	-1.1909582913e+000
 1.3869218319e+000	 2.1695789527e+000	-1.1252701937e+000
 1.3646579906e+000	 2.1836514302e+000	-1.0981952851e+000
 1.3422775331e+000	 2.1974794707e+000	-1.1090809136e+000
 1.3197844202e+000	 2.2110617550e+000	-1.1572194813e+000
 1.2971826291e+000	 2.2243970479e+000	-1.2418495736e+000
 1.2744761513e+000	 2.2374841988e+000	-1.3621571751e+000
 1.2516689903e+000	 2.2503221411e+000	-1.5172769711e+000
 1.2287651593e+000	 2.2629098929e+000	-1.1937838543e+000
 1.2057686794e+000	 2.2752465563e+000	-8.4359102659e-001
 1.1826835771e+000	 2.2873313176e+000	-5.0443906688e-001
 1.4227453588e+000	 2.1761883292e+000	-1.2390432266e+000
 1.4003870924e+000	 2.1906428261e+000	-1.1616860031e+000
 1.3779070973e+000	 2.2048519296e+000	-1.1197397142e+000
 1.3553093538e+000	 2.2188142229e+000	-1.1126063560e+000
 1.3325978612e+000	 2.2325283739e+000	-1.1396347885e+000
 1.3097766352e+000	 2.2459931357e+000	-1.2001217910e+000
 1.2868497062e+000	 2.2592073463e+000	-1.2933132042e+000
 1.2638211164e+000	 2.2721699289e+000	-1.4184051567e+000
 1.2406949181e+000	 2.2848798918e+000	-1.3450843324e+000
 1.2174751714e+000	 2.2973363287e+000	-9.4590337735e-001
 1.1941659420e+000	 2.3095384178e+000	-5.5449205096e-001
 1.4364256026e+000	 2.1971132169e+000	-1.2728773762e+000
 1.4138523529e+000	 2.2117066994e+000	-1.1851849865e+000
 1.3911562040e+000	 2.2260524289e+000	-1.1297839985e+000
 1.3683411745e+000	 2.2401489750e+000	-1.1061303032e+000
 1.3454113021e+000	 2.2539949929e+000	-1.1136284033e+000
 1.3223706413e+000	 2.2675892236e+000	-1.1516323967e+000
 1.2992232611e+000	 2.2809304939e+000	-1.2194470455e+000
 1.2759732425e+000	 2.2940177167e+000	-1.3163289288e+000
 1.2526246769e+000	 2.3068498908e+000	-1.4414876756e+000
 1.2291816635e+000	 2.3194261010e+000	-1.0622818190e+000
 1.2056483068e+000	 2.3317455179e+000	-6.2167246068e-001
 1.4501058465e+000	 2.2180381047e+000	-1.2922247251e+000
 1.4273176134e+000	 2.2327705727e+000	-1.1954974368e+000
 1.4044053107e+000	 2.2472529282e+000	-1.1280231325e+000
 1.3813729952e+000	 2.2614837271e+000	-1.0893108684e+000
 1.3582247431e+000	 2.2754616119e+000	-1.0788199998e+000
 1.3349646475e+000	 2.2891853114e+000	-1.0959610932e+000
 1.3115968159e+000	 2.3026536414e+000	-1.1400969236e+000
 1.2881253686e+000	 2.3158655044e+000	-1.2105435548e+000
 1.2645544358e+000	 2.3288198898e+000	-1.3065714998e+000
 1.2408881555e+000	 2.3415158734e+000	-1.1905861344e+000
 1.2171306716e+000	 2.3539526181e+000	-7.0382631428e-001
 1.4637860903e+000	 2.2389629925e+000	-1.2968434281e+000
 1.4407828739e+000	 2.2538344460e+000	-1.1923490858e+000
 1.4176544174e+000	 2.2684534275e+000	-1.1141488881e+000
 1.3944048159e+000	 2.2828184793e+000	-1.0618043504e+000
 1.3710381841e+000	 2.2969282309e+000	-1.0348289141e+000
 1.3475586536e+000	 2.3107813993e+000	-1.0326887890e+000
 1.3239703708e+000	 2.3243767890e+000	-1.0548038795e+000
 1.3002774948e+000	 2.3377132922e+000	-1.1005487943e+000
 1.2764841946e+000	 2.3507898887e+000	-1.1692539345e+000
 1.2525946475e+000	 2.3636056458e+000	-1.2602066593e+000
 1.2286130364e+000	 2.3761597183e+000	-7.9880952970e-001
 1.4774663341e+000	 2.2598878803e+000	-1.2864860795e+000
 1.4542481344e+000	 2.2748983194e+000	-1.1754613150e+000
 1.4309035241e+000	 2.2896539269e+000	-1.0878499644e+000
 1.4074366366e+000	 2.3041532314e+000	-1.0232653182e+000
 1.3838516251e+000	 2.3183948499e+000	-9.8127416074e-001
 1.3601526597e+000	 2.3323774871e+000	-9.6139754317e-001
 1.3363439257e+000	 2.3460999366e+000	-9.6311164047e-001
 1.3124296209e+000	 2.3595610800e+000	-9.8584869062e-001
 1.2884139534e+000	 2.3727598877e+000	-1.0289980130e+000
 1.2643011396e+000	 2.3856954182e+000	-1.0919071031e+000
 1.2400954013e+000	 2.3983668184e+000	-9.0448746619e-001
 1.4911465780e+000	 2.2808127681e+000	-1.2608999688e+000
 1.4677133949e+000	 2.2959621927e+000	-1.1445513556e+000
 1.4441526308e+000	 2.3108544262e+000	-1.0488121283e+000
 1.4204684573e+000	 2.3254879836e+000	-9.7334669003e-001
 1.3966650660e+000	 2.3398614688e+000	-9.1777444687e-001
 1.3727466658e+000	 2.3539735750e+000	-8.8167051240e-001
 1.3487174805e+000	 2.3678230841e+000	-8.6456649629e-001
 1.3245817470e+000	 2.3814088678e+000	-8.6595137459e-001
 1.3003437123e+000	 2.3947298867e+000	-8.8527243909e-001
 1.2760076316e+000	 2.4077851906e+000	-9.2193632300e-001
 1.2515777661e+000	 2.4205739186e+000	-9.7531009971e-001
 1.5048268218e+000	 2.3017376559e+000	-1.2198273213e+000
 1.4811786555e+000	 2.3170260660e+000	-1.0993324768e+000
 1.4574017375e+000	 2.3320549255e+000	-9.9671834781e-001
 1.4335002780e+000	 2.3468227357e+000	-9.1169980838e-001
 1.4094785070e+000	 2.3613280878e+000	-8.4394818647e-001
 1.3853406719e+000	 2.3755696628e+000	-7.9309190104e-001
 1.3610910354e+000	 2.3895462317e+000	-7.5871718317e-001
 1.3367338731e+000	 2.4032566556e+000	-7.4036887864e-001
 1.3122734711e+000	 2.4166998856e+000	-7.3755132946e-001
 1.2877141236e+000	 2.4298749630e+000	-7.4972933161e-001
 1.2630601309e+000	 2.4427810188e+000	-7.7632916612e-001
 1.1482364826e+000	 2.2207100171e+000	-4.7874337568e-001
 1.1257416334e+000	 2.2321975215e+000	-6.4844761929e-001
 1.1031685694e+000	 2.2434391250e+000	-7.9044825287e-001
 1.0805212035e+000	 2.2544342814e+000	-9.0407112504e-001
 1.0578034457e+000	 2.2651825247e+000	-9.8866332043e-001
 1.0350192013e+000	 2.2756834694e+000	-1.0435960717e+000
 1.0121723687e+000	 2.2859368093e+000	-1.0682676053e+000
 9.8926683732e-001	 2.2959423174e+000	-1.0621059138e+000
 9.6630648602e-001	 2.3056998450e+000	-1.0245714459e+000
 9.4329518099e-001	 2.3152093213e+000	-9.5515970829e-001
 9.2023677391e-001	 2.3244707527e+000	-8.5340377198e-001
 1.1597188475e+000	 2.2429171172e+000	-4.6438374149e-001
 1.1369990498e+000	 2.2545194967e+000	-6.0716494088e-001
 1.1142002551e+000	 2.2658735162e+000	-7.2484778282e-001
 1.0913264155e+000	 2.2769786242e+000	-8.1668834076e-001
 1.0683814802e+000	 2.2878343500e+000	-8.8196145071e-001
 1.0453693934e+000	 2.2984403041e+000	-9.1996380538e-001
 1.0222940924e+000	 2.3087961774e+000	-9.3001698308e-001
 9.9915950569e-001	 2.3189017405e+000	-9.1147040296e-001
 9.7596955088e-001	 2.3287568434e+000	-8.6370419863e-001
 9.5272813280e-001	 2.3383614145e+000	-7.8613200254e-001
 9.2943914165e-001	 2.3477154602e+000	-6.7820363399e-001
 1.1712012123e+000	 2.2651242174e+000	-4.7367787514e-001
 1.1482564661e+000	 2.2768414719e+000	-5.9094340532e-001
 1.1252319408e+000	 2.2883079075e+000	-6.8567648275e-001
 1.1021316275e+000	 2.2995229670e+000	-7.5706123980e-001
 1.0789595146e+000	 2.3104861752e+000	-8.0429812279e-001
 1.0557195854e+000	 2.3211971388e+000	-8.2660717189e-001
 1.0324158161e+000	 2.3316555455e+000	-8.2323123632e-001
 1.0090521741e+000	 2.3418611637e+000	-7.9343911622e-001
 9.8563261575e-001	 2.3518138419e+000	-7.3652862277e-001
 9.6216108461e-001	 2.3615135077e+000	-6.5182954845e-001
 9.3864150939e-001	 2.3709601677e+000	-5.3870653982e-001
 1.1826835771e+000	 2.2873313176e+000	-5.0443906688e-001
 1.1595138824e+000	 2.2991634471e+000	-5.9762731408e-001
 1.1362636265e+000	 2.3107422987e+000	-6.7081191744e-001
 1.1129368396e+000	 2.3220673098e+000	-7.2310285880e-001
 1.0895375491e+000	 2.3331380004e+000	-7.5362400905e-001
 1.0660697774e+000	 2.3439539735e+000	-7.6151659724e-001
 1.0425375398e+000	 2.3545149136e+000	-7.4594261570e-001
 1.0189448424e+000	 2.3648205869e+000	-7.0608815195e-001
 9.9529568061e-001	 2.3748708403e+000	-6.4116663856e-001
 9.7159403643e-001	 2.3846656010e+000	-5.5042201254e-001
 9.4784387714e-001	 2.3942048752e+000	-4.3313177615e-001
 1.1941659420e+000	 2.3095384178e+000	-5.5449205096e-001
 1.1707712988e+000	 2.3214854223e+000	-6.2507263387e-001
 1.1472953122e+000	 2.3331766900e+000	-6.7814347477e-001
 1.1237420516e+000	 2.3446116526e+000	-7.1273815217e-001
 1.1001155835e+000	 2.3557898257e+000	-7.2790173130e-001
 1.0764199694e+000	 2.3667108082e+000	-7.2269442600e-001
 1.0526592634e+000	 2.3773742817e+000	-6.9619519730e-001
 1.0288375108e+000	 2.3877800100e+000	-6.4750527886e-001
 1.0049587455e+000	 2.3979278388e+000	-5.7575162003e-001
 9.8102698824e-001	 2.4078176942e+000	-4.8009023762e-001
 9.5704624488e-001	 2.4174495828e+000	-3.5970946790e-001
 1.2056483068e+000	 2.3317455179e+000	-6.2167246068e-001
 1.1820287151e+000	 2.3438073975e+000	-6.7114644124e-001
 1.1583269979e+000	 2.3556110812e+000	-7.0557180274e-001
 1.1345472636e+000	 2.3671559954e+000	-7.2390342457e-001
 1.1106936180e+000	 2.3784416509e+000	-7.2510529182e-001
 1.0867701614e+000	 2.3894676429e+000	-7.0815435375e-001
 1.0627809871e+000	 2.4002336497e+000	-6.7204431943e-001
 1.0387301792e+000	 2.4107394332e+000	-6.1578938023e-001
 1.0146218103e+000	 2.4209848372e+000	-5.3842784961e-001
 9.9045994005e-001	 2.4309697874e+000	-4.3902571057e-001
 9.6624861262e-001	 2.4406942903e+000	-3.1668006216e-001
 1.2171306716e+000	 2.3539526181e+000	-7.0382631428e-001
 1.1932861314e+000	 2.3661293727e+000	-7.3372639848e-001
 1.1693586836e+000	 2.3780454725e+000	-7.5100827835e-001
 1.1453524757e+000	 2.3897003382e+000	-7.5454579550e-001
 1.1212716525e+000	 2.4010934762e+000	-7.4321953649e-001
 1.0971203534e+000	 2.4122244775e+000	-7.1592089164e-001
 1.0729027108e+000	 2.4230930178e+000	-6.7155605142e-001
 1.0486228476e+000	 2.4336988564e+000	-6.0904992968e-001
 1.0242848752e+000	 2.4440418357e+000	-5.2735000357e-001
 9.9989289186e-001	 2.4541218806e+000	-4.2543006028e-001
 9.7545098036e-001	 2.4639389978e+000	-3.0229384127e-001
 1.2286130364e+000	 2.3761597183e+000	-7.9880952970e-001
 1.2045435478e+000	 2.3884513479e+000	-8.1070025895e-001
 1.1803903692e+000	 2.4004798637e+000	-8.1237450620e-001
 1.1561576877e+000	 2.4122446810e+000	-8.0262269394e-001
 1.1318496869e+000	 2.4237453014e+000	-7.8023964810e-001
 1.1074705454e+000	 2.4349813122e+000	-7.4402886098e-001
 1.0830244345e+000	 2.4459523859e+000	-6.9280669218e-001
 1.0585155159e+000	 2.4566582796e+000	-6.2540649625e-001
 1.0339479401e+000	 2.4670988341e+000	-5.4068266634e-001
 1.0093258437e+000	 2.4772739738e+000	-4.3751458373e-001
 9.8465334810e-001	 2.4871837053e+000	-3.1481046322e-001
 1.2400954013e+000	 2.3983668184e+000	-9.0448746619e-001
 1.2158009641e+000	 2.4107733232e+000	-8.9996539995e-001
 1.1914220549e+000	 2.4229142550e+000	-8.8760184503e-001
 1.1669628997e+000	 2.4347890238e+000	-8.6610138109e-001
 1.1424277214e+000	 2.4463971267e+000	-8.3417066781e-001
 1.1178207375e+000	 2.4577381469e+000	-7.9052291595e-001
 1.0931461582e+000	 2.4688117540e+000	-7.3388229662e-001
 1.0684081843e+000	 2.4796177027e+000	-6.6298827705e-001
 1.0436110049e+000	 2.4901558326e+000	-5.7659987177e-001
 1.0187587955e+000	 2.5004260670e+000	-4.7492997938e-001
 9.9385571584e-001	 2.5104284129e+000	-3.9306546572e-001
 1.2515777661e+000	 2.4205739186e+000	-9.7531009971e-001
 1.2270583804e+000	 2.4330952984e+000	-9.9942838119e-001
 1.2024537406e+000	 2.4453486462e+000	-9.7463096026e-001
 1.1777681118e+000	 2.4573333667e+000	-9.4295849931e-001
 1.1530057558e+000	 2.4690489519e+000	-9.0302704290e-001
 1.1281709295e+000	 2.4804949816e+000	-8.5345709253e-001
 1.1032678819e+000	 2.4916711221e+000	-7.9287822807e-001
 1.0783008527e+000	 2.5025771259e+000	-7.2477401176e-001
 1.0532740698e+000	 2.5132128310e+000	-6.6279483593e-001
 1.0281917473e+000	 2.5235781602e+000	-5.9453721934e-001
 1.0030580836e+000	 2.5336731204e+000	-5.2085268873e-001
 1.2630601309e+000	 2.4427810188e+000	-7.7632916612e-001
 1.2383157968e+000	 2.4554172736e+000	-1.1070045275e+000
 1.2134854263e+000	 2.4677830375e+000	-1.0714114010e+000
 1.1885733238e+000	 2.4798777095e+000	-1.0311796457e+000
 1.1635837903e+000	 2.4917007772e+000	-9.8483219924e-001
 1.1385211215e+000	 2.5032518163e+000	-9.3353702948e-001
 1.1133896056e+000	 2.5145304902e+000	-8.8221098323e-001
 1.0881935211e+000	 2.5255365491e+000	-8.2600497412e-001
 1.0629371346e+000	 2.5362698295e+000	-7.6595087141e-001
 1.0376246991e+000	 2.5467302535e+000	-7.0298096929e-001
 1.0122604513e+000	 2.5569178279e+000	-6.3792909965e-001
 9.2023677391e-001	 2.3244707527e+000	-8.5340377198e-001
 8.9713510015e-001	 2.3334842215e+000	-8.5227314457e-001
 8.7399397693e-001	 2.3422498860e+000	-8.5454468112e-001
 8.5081720161e-001	 2.3507679787e+000	-8.5939044256e-001
 8.2760854992e-001	 2.3590388060e+000	-8.6600084205e-001
 8.0437177429e-001	 2.3670627471e+000	-8.7358750971e-001
 7.8111060220e-001	 2.3748402530e+000	-8.8138605003e-001
 7.5782873460e-001	 2.3823718453e+000	-8.8865868621e-001
 7.3452984428e-001	 2.3896581153e+000	-8.9469678647e-001
 7.1121757443e-001	 2.3966997229e+000	-8.9882326769e-001
 6.8789553712e-001	 2.4034973955e+000	-9.0039487216e-001
 9.2943914165e-001	 2.3477154602e+000	-6.7820363399e-001
 9.0610645115e-001	 2.3568190637e+000	-6.6342625827e-001
 8.8273391670e-001	 2.3656723848e+000	-6.4729539749e-001
 8.5932537363e-001	 2.3742756584e+000	-6.2898111316e-001
 8.3588463542e-001	 2.3826291940e+000	-6.0767585986e-001
 8.1241549204e-001	 2.3907333746e+000	-5.8259736614e-001
 7.8892170823e-001	 2.3985886555e+000	-5.5299140168e-001
 7.6540702195e-001	 2.4061955637e+000	-5.1813442519e-001
 7.4187514273e-001	 2.4135546964e+000	-4.7733610786e-001
 7.1832975018e-001	 2.4206667202e+000	-4.2994172790e-001
 6.9477449249e-001	 2.4275323694e+000	-3.7533443195e-001
 9.3864150939e-001	 2.3709601677e+000	-5.3870653982e-001
 9.1507780216e-001	 2.3801539060e+000	-5.1248589749e-001
 8.9147385648e-001	 2.3890948837e+000	-4.8022345886e-001
 8.6783354565e-001	 2.3977833382e+000	-4.4108408036e-001
 8.4416072093e-001	 2.4062195821e+000	-3.9425904633e-001
 8.2045920978e-001	 2.4144040021e+000	-3.3896897065e-001
 7.9673281426e-001	 2.4223370580e+000	-2.7446657815e-001
 7.7298530930e-001	 2.4300192822e+000	-2.0003936025e-001
 7.4922044118e-001	 2.4374512776e+000	-1.1501209994e-001
 7.2544192593e-001	 2.4446337174e+000	-1.8749261231e-002
 7.0165344787e-001	 2.4515673434e+000	 8.9342760671e-002
 9.4784387714e-001	 2.3942048752e+000	-4.3313177615e-001
 9.2404915316e-001	 2.4034887482e+000	-3.9768541255e-001
 9.0021379625e-001	 2.4125173825e+000	-3.5157435611e-001
 8.7634171767e-001	 2.4212910180e+000	-2.9395504180e-001
 8.5243680643e-001	 2.4298099702e+000	-2.2401436275e-001
 8.2850292753e-001	 2.4380746295e+000	-1.4097259701e-001
 8.0454392028e-001	 2.4460854606e+000	-4.4086207664e-002
 7.8056359665e-001	 2.4538430006e+000	 6.7349489286e-002
 7.5656573962e-001	 2.4613478587e+000	 1.9399779443e-001
 7.3255410168e-001	 2.4686007146e+000	 3.3647823627e-001
 7.0853240324e-001	 2.4756023173e+000	 4.9536432840e-001
 9.5704624488e-001	 2.4174495828e+000	-3.5970946790e-001
 9.3302050416e-001	 2.4268235904e+000	-3.1727003167e-001
 9.0895373602e-001	 2.4359398814e+000	-2.5960658024e-001
 8.8484988969e-001	 2.4447986978e+000	-1.8586389913e-001
 8.6071289193e-001	 2.4534003582e+000	-9.5221258792e-002
 8.3654664528e-001	 2.4617452570e+000	 1.3104628863e-002
 8.1235502631e-001	 2.4698338631e+000	 1.3985678721e-001
 7.8814188400e-001	 2.4776667191e+000	 2.8573529056e-001
 7.6391103807e-001	 2.4852444399e+000	 4.5139472372e-001
 7.3966627743e-001	 2.4925677118e+000	 6.3744179012e-001
 7.1541135862e-001	 2.4996372913e+000	 8.4443307227e-001
 9.6624861262e-001	 2.4406942903e+000	-3.1668006216e-001
 9.4199185517e-001	 2.4501584326e+000	-2.6949629532e-001
 9.1769367579e-001	 2.4593623803e+000	-2.0259100333e-001
 8.9335806171e-001	 2.4683063776e+000	-1.1509408158e-001
 8.6898897743e-001	 2.4769907463e+000	-6.1739349601e-003
 8.4459036302e-001	 2.4854158845e+000	 1.2495953130e-001
 8.2016613233e-001	 2.4935822656e+000	 2.7905206079e-001
 7.9572017134e-001	 2.5014904375e+000	 4.3856110435e-001
 7.7125633651e-001	 2.5091410210e+000	 5.3616207290e-001
 7.4677845317e-001	 2.5165347091e+000	 6.4307427613e-001
 7.2229031399e-001	 2.5236722653e+000	 7.5915347476e-001
 9.7545098036e-001	 2.4639389978e+000	-3.0229384127e-001
 9.5096320617e-001	 2.4734932748e+000	-2.5263152266e-001
 9.2643361556e-001	 2.4827848791e+000	-1.7881029455e-001
 9.0186623372e-001	 2.4918140574e+000	-7.9941907915e-002
 8.7726506293e-001	 2.5005811343e+000	 3.9962997915e-002
 8.5263408076e-001	 2.5090865119e+000	 1.1171127784e-001
 8.2797723835e-001	 2.5173306682e+000	 1.9610650491e-001
 8.0329845869e-001	 2.5253141560e+000	 2.9276321503e-001
 7.7860163495e-001	 2.5330376022e+000	 4.0136346822e-001
 7.5389062892e-001	 2.5405017063e+000	 5.2165484473e-001
 7.2916926936e-001	 2.5477072392e+000	 6.5344833980e-001
 9.8465334810e-001	 2.4871837053e+000	-3.1481046322e-001
 9.5993455717e-001	 2.4968281170e+000	-2.6495330784e-001
 9.3517355533e-001	 2.5062073780e+000	-2.2341284253e-001
 9.1037440574e-001	 2.5153217372e+000	-1.8169526251e-001
 8.8554114843e-001	 2.5241715224e+000	-1.2385141892e-001
 8.6067779851e-001	 2.5327571394e+000	-5.0451385329e-002
 8.3578834438e-001	 2.5410790707e+000	 3.8006193546e-002
 8.1087674604e-001	 2.5491378744e+000	 1.4109233548e-001
 7.8594693340e-001	 2.5569341833e+000	 2.5844583421e-001
 7.6100280466e-001	 2.5644687035e+000	 3.8977126096e-001
 7.3604822473e-001	 2.5717422132e+000	 5.3483686258e-001
 9.9385571584e-001	 2.5104284129e+000	-3.9306546572e-001
 9.6890590817e-001	 2.5201629592e+000	-3.9552967121e-001
 9.4391349510e-001	 2.5296298768e+000	-3.7802971857e-001
 9.1888257776e-001	 2.5388294169e+000	-3.4132633233e-001
 8.9381723393e-001	 2.5477619105e+000	-2.8610536550e-001
 8.6872151625e-001	 2.5564277669e+000	-2.1297928984e-001
 8.4359945040e-001	 2.5648274732e+000	-1.2248882520e-001
 8.1845503338e-001	 2.5729615929e+000	-1.5104699522e-002
 7.9329223184e-001	 2.5808307645e+000	 1.0877046854e-001
 7.6811498040e-001	 2.5884357008e+000	 2.4880017314e-001
 7.4292718010e-001	 2.5957771871e+000	 4.0471191928e-001
 1.0030580836e+000	 2.5336731204e+000	-5.2085268873e-001
 9.7787725917e-001	 2.5434978015e+000	-5.3472974099e-001
 9.5265343487e-001	 2.5530523757e+000	-5.2627465682e-001
 9.2739074977e-001	 2.5623370967e+000	-4.9628977281e-001
 9.0209331943e-001	 2.5713522985e+000	-4.4550215611e-001
 8.7676523399e-001	 2.5800983944e+000	-3.7456508678e-001
 8.5141055642e-001	 2.5885758757e+000	-2.8405968169e-001
 8.2603332072e-001	 2.5967853113e+000	-1.7449665162e-001
 8.0063753028e-001	 2.6047273457e+000	-4.6318183163e-002
 7.7522715614e-001	 2.6124026980e+000	 1.0010006318e-001
 7.4980613547e-001	 2.6198121611e+000	 2.6444684747e-001
 1.0122604513e+000	 2.5569178279e+000	-6.3792909965e-001
 9.8684861017e-001	 2.5668326437e+000	-6.6470021778e-001
 9.6139337463e-001	 2.5764748746e+000	-6.6687945592e-001
 9.3589892178e-001	 2.5858447765e+000	-6.4530936713e-001
 9.1036940492e-001	 2.5949426866e+000	-6.0075674270e-001
 8.8480895173e-001	 2.6037690218e+000	-5.3391408962e-001
 8.5922166244e-001	 2.6123242783e+000	-4.4540125227e-001
 8.3361160807e-001	 2.6206090298e+000	-3.3576716991e-001
 8.0798282872e-001	 2.6286239268e+000	-2.0549176129e-001
 7.8233933189e-001	 2.6363696952e+000	-5.4987927724e-002
 7.5668509084e-001	 2.6438471350e+000	 1.1539633423e-001
 6.8789553712e-001	 2.4034973955e+000	-9.0039487216e-001
 6.6456731185e-001	 2.4100519264e+000	-1.0002687336e+000
 6.4123644421e-001	 2.4163641743e+000	-1.0317289595e+000
 6.1790644450e-001	 2.4224350612e+000	-1.0287012461e+000
 5.9458078647e-001	 2.4282655721e+000	-1.0516170899e+000
 5.7126290603e-001	 2.4338567526e+000	-1.0392647562e+000
 5.4795620010e-001	 2.4392097087e+000	-9.9599570906e-001
 5.2466402543e-001	 2.4443256044e+000	-9.2614181718e-001
 5.0138969748e-001	 2.4492056613e+000	-8.3400885075e-001
 4.7813648941e-001	 2.4538511564e+000	-7.2387017368e-001
 4.5490763105e-001	 2.4582634210e+000	-5.9996063965e-001
 6.9477449249e-001	 2.4275323694e+000	-3.7533443195e-001
 6.7121298497e-001	 2.4341524457e+000	-4.7261889789e-001
 6.4764880865e-001	 2.4405278160e+000	-5.0829376203e-001
 6.2408550895e-001	 2.4466594119e+000	-4.8512708358e-001
 6.0052659434e-001	 2.4525482278e+000	-4.5258048372e-001
 5.7697553510e-001	 2.4581953202e+000	-3.9185942433e-001
 5.5343576211e-001	 2.4636018058e+000	-3.0724878773e-001
 5.2991066568e-001	 2.4687688605e+000	-2.0300946168e-001
 5.0640359445e-001	 2.4736977179e+000	-8.3371909586e-002
 4.8291785430e-001	 2.4783896679e+000	 4.7470059221e-002
 4.5945670736e-001	 2.4828460553e+000	 1.8536531092e-001
 7.0165344787e-001	 2.4515673434e+000	 8.9342760671e-002
 6.7785865809e-001	 2.4582529650e+000	-2.1190620476e-003
 6.5406117310e-001	 2.4646914578e+000	-3.8598757330e-002
 6.3026457340e-001	 2.4708837625e+000	-2.1219549888e-002
 6.0647240220e-001	 2.4768308835e+000	 6.6977309331e-002
 5.8268816416e-001	 2.4825338877e+000	 1.8471655404e-001
 5.5891532411e-001	 2.4879939028e+000	 3.1947416422e-001
 5.3515730594e-001	 2.4932121165e+000	 4.6705357304e-001
 5.1141749143e-001	 2.4981897745e+000	 6.2329295672e-001
 4.8769921920e-001	 2.5029281795e+000	 7.0592324942e-001
 4.6400578367e-001	 2.5074286895e+000	 7.5066967089e-001
 7.0853240324e-001	 2.4756023173e+000	 4.9536432840e-001
 6.8450433122e-001	 2.4823534842e+000	 4.1279011867e-001
 6.6047353755e-001	 2.4888550995e+000	 3.7874291481e-001
 6.3644363785e-001	 2.4951081131e+000	 3.9231790653e-001
 6.1241821007e-001	 2.5011135392e+000	 4.7940074999e-001
 5.8840079322e-001	 2.5068724552e+000	 5.1762270676e-001
 5.6439488611e-001	 2.5123859999e+000	 5.6170551900e-001
 5.4040394619e-001	 2.5176553726e+000	 6.1350856085e-001
 5.1643138840e-001	 2.5226818311e+000	 6.7450153235e-001
 4.9248058409e-001	 2.5274666911e+000	 7.4576330854e-001
 4.6855485998e-001	 2.5320113237e+000	 8.2798174276e-001
 7.1541135862e-001	 2.4996372913e+000	 8.4443307227e-001
 6.9115000434e-001	 2.5064540035e+000	 6.5591637438e-001
 6.6688590199e-001	 2.5130187412e+000	 4.8835458902e-001
 6.4262270229e-001	 2.5193324637e+000	 3.4685015256e-001
 6.1836401794e-001	 2.5253961950e+000	 2.8069183518e-001
 5.9411342228e-001	 2.5312110227e+000	 3.5872666112e-001
 5.6987444812e-001	 2.5367780970e+000	 4.4165462833e-001
 5.4565058645e-001	 2.5420986286e+000	 5.3174647367e-001
 5.2144528538e-001	 2.5471738878e+000	 6.3086943519e-001
 4.9726194898e-001	 2.5520052026e+000	 7.4048573528e-001
 4.7310393629e-001	 2.5565939579e+000	 8.6165205588e-001
 7.2229031399e-001	 2.5236722653e+000	 7.5915347476e-001
 6.9779567746e-001	 2.5305545228e+000	 5.4972247409e-001
 6.7329826643e-001	 2.5371823830e+000	 3.5910715742e-001
 6.4880176674e-001	 2.5435568143e+000	 1.8650039321e-001
 6.2430982580e-001	 2.5496788507e+000	 3.8570741453e-002
 5.9982605134e-001	 2.5555495903e+000	 1.5579736006e-001
 5.7535401012e-001	 2.5611701941e+000	 2.7729532251e-001
 5.5089722670e-001	 2.5665418847e+000	 4.0575204887e-001
 5.2645918235e-001	 2.5716659444e+000	 5.4343716490e-001
 5.0204331388e-001	 2.5765437142e+000	 6.9220061811e-001
 4.7765301260e-001	 2.5811765921e+000	 8.5347182450e-001
 7.2916926936e-001	 2.5477072392e+000	 6.5344833980e-001
 7.0444135058e-001	 2.5546550420e+000	 4.3196294896e-001
 6.7971063087e-001	 2.5613460247e+000	 2.2114320006e-001
 6.5498083118e-001	 2.5677811649e+000	 2.0376653475e-002
 6.3025563367e-001	 2.5739615064e+000	-1.7088749959e-001
 6.0553868040e-001	 2.5798881578e+000	-8.7779803619e-002
 5.8083357212e-001	 2.5855622912e+000	 7.1700175595e-002
 5.5614386696e-001	 2.5909851407e+000	 2.3828463364e-001
 5.3147307933e-001	 2.5961580010e+000	 4.1465064359e-001
 5.0682467877e-001	 2.6010822257e+000	 6.0304046110e-001
 4.8220208891e-001	 2.6057592263e+000	 8.0526034230e-001
 7.3604822473e-001	 2.5717422132e+000	 5.3483686258e-001
 7.1108702369e-001	 2.5787555613e+000	 3.0392087137e-001
 6.8612299532e-001	 2.5855096665e+000	 7.5611129363e-002
 6.6115989563e-001	 2.5920055155e+000	-1.5051159741e-001
 6.3620144153e-001	 2.5982441621e+000	-3.7479924013e-001
 6.1125130946e-001	 2.6042267253e+000	-3.6861844009e-001
 5.8631313412e-001	 2.6099543883e+000	-1.7205233885e-001
 5.6139050721e-001	 2.6154283968e+000	 3.2114506200e-002
 5.3648697630e-001	 2.6206500576e+000	 2.4697188167e-001
 5.1160604366e-001	 2.6256207373e+000	 4.7515913648e-001
 4.8675116522e-001	 2.6303418605e+000	 7.1886367028e-001
 7.4292718010e-001	 2.5957771871e+000	 4.0471191928e-001
 7.1773269681e-001	 2.6028560806e+000	 1.6686285196e-001
 6.9253535976e-001	 2.6096733082e+000	-7.6352950163e-002
 6.6733896007e-001	 2.6162298662e+000	-3.2516290942e-001
 6.4214724939e-001	 2.6225268178e+000	-5.7972147314e-001
 6.1696393852e-001	 2.6285652928e+000	-6.8333120867e-001
 5.9179269612e-001	 2.6343464854e+000	-4.5087812083e-001
 5.6663714746e-001	 2.6398716528e+000	-2.0997763028e-001
 5.4150087327e-001	 2.6451421142e+000	 4.2878232998e-002
 5.1638740856e-001	 2.6501592489e+000	 3.1073089532e-001
 4.9130024153e-001	 2.6549244947e+000	 5.9615339751e-001
 7.4980613547e-001	 2.6198121611e+000	 2.6444684747e-001
 7.2437836993e-001	 2.6269565998e+000	 2.2039794750e-002
 6.9894772419e-001	 2.6338369500e+000	-2.3362467728e-001
 6.7351802451e-001	 2.6404542168e+000	-5.0258348392e-001
 6.4809305726e-001	 2.6468094736e+000	-7.8479489126e-001
 6.2267656758e-001	 2.6529038604e+000	-1.0285298614e+000
 5.9727225811e-001	 2.6587385825e+000	-7.6168770205e-001
 5.7188378771e-001	 2.6643149089e+000	-4.8520112587e-001
 5.4651477025e-001	 2.6696341708e+000	-1.9513830891e-001
 5.2116877345e-001	 2.6746977604e+000	 1.1194943279e-001
 4.9584931784e-001	 2.6795071290e+000	 4.3902547016e-001
 7.5668509084e-001	 2.6438471350e+000	 1.1539633423e-001
 7.3102404304e-001	 2.6510571191e+000	-1.2931238889e-001
 7.0536008863e-001	 2.6580005917e+000	-3.9509090028e-001
 6.7969708895e-001	 2.6646785674e+000	-6.8178682584e-001
 6.5403886512e-001	 2.6710921293e+000	-9.8916346466e-001
 6.2838919664e-001	 2.6772424279e+000	-1.3169031035e+000
 6.0275182011e-001	 2.6831306796e+000	-1.1013864899e+000
 5.7713042797e-001	 2.6887581649e+000	-7.9075583605e-001
 5.5152866722e-001	 2.6941262274e+000	-4.6457177634e-001
 5.2595013834e-001	 2.6992362720e+000	-1.1897299573e-001
 5.0039839415e-001	 2.7040897632e+000	 2.4939908431e-001
 4.5490763105e-001	 2.4582634210e+000	-5.9996063965e-001
 4.3170630795e-001	 2.4624438397e+000	-6.4331937251e-001
 4.0853566044e-001	 2.4663938481e+000	-6.5166751774e-001
 3.8539878284e-001	 2.4701149322e+000	-6.2943918948e-001
 3.6229872257e-001	 2.4736086262e+000	-5.8102871618e-001
 3.3923847946e-001	 2.4768765117e+000	-5.1078485262e-001
 3.1622100496e-001	 2.4799202156e+000	-4.2300522430e-001
 2.9324920155e-001	 2.4827414094e+000	-3.2193100890e-001
 2.7032592207e-001	 2.4853418066e+000	-2.1174185882e-001
 2.4745396916e-001	 2.4877231625e+000	-9.6551067837e-002
 2.2463609475e-001	 2.4898872715e+000	 1.9599015624e-002
 4.5945670736e-001	 2.4828460553e+000	 1.8536531092e-001
 4.3602337102e-001	 2.4870682781e+000	 1.4155027110e-001
 4.1262101704e-001	 2.4910577866e+000	 1.2325345388e-001
 3.8925277066e-001	 2.4948160815e+000	 1.2598902793e-001
 3.6592170980e-001	 2.4983447125e+000	 1.4531987321e-001
 3.4263086425e-001	 2.5016452768e+000	 1.4752163176e-001
 3.1938321501e-001	 2.5047194178e+000	 1.4417616395e-001
 2.9618169356e-001	 2.5075688234e+000	 1.6544252329e-001
 2.7302918129e-001	 2.5101952247e+000	 2.0792185297e-001
 2.4992850885e-001	 2.5126003941e+000	 2.6788002999e-001
 2.2688245570e-001	 2.5147861442e+000	 3.4125634129e-001
 4.6400578367e-001	 2.5074286895e+000	 7.5066967089e-001
 4.4034043410e-001	 2.5116927165e+000	 6.0709940157e-001
 4.1670637365e-001	 2.5157217251e+000	 4.9751460865e-001
 3.9310675849e-001	 2.5195172308e+000	 4.2047463134e-001
 3.6954469702e-001	 2.5230807987e+000	 3.7416031499e-001
 3.4602324904e-001	 2.5264140419e+000	 3.5637924969e-001
 3.2254542506e-001	 2.5295186200e+000	 3.6457176448e-001
 2.9911418558e-001	 2.5323962375e+000	 3.9581764496e-001
 2.7573244051e-001	 2.5350486428e+000	 4.4684354115e-001
 2.5240304855e-001	 2.5374776257e+000	 5.1403103145e-001
 2.2912881665e-001	 2.5396850170e+000	 5.9342530772e-001
 4.6855485998e-001	 2.5320113237e+000	 8.2798174276e-001
 4.4465749718e-001	 2.5363171549e+000	 7.0180516641e-001
 4.2079173025e-001	 2.5403856636e+000	 6.0772664086e-001
 3.9696074632e-001	 2.5442183801e+000	 5.4448333140e-001
 3.7316768424e-001	 2.5478168850e+000	 5.1042390171e-001
 3.4941563383e-001	 2.5511828070e+000	 5.0351364007e-001
 3.2570763510e-001	 2.5543178221e+000	 5.2134036834e-001
 3.0204667759e-001	 2.5572236516e+000	 5.6112110064e-001
 2.7843569973e-001	 2.5599020608e+000	 6.1970941811e-001
 2.5487758824e-001	 2.5623548573e+000	 6.9360352462e-001
 2.3137517760e-001	 2.5645838897e+000	 7.7895494782e-001
 4.7310393629e-001	 2.5565939579e+000	 8.6165205588e-001
 4.4897456026e-001	 2.5609415933e+000	 7.4856706324e-001
 4.2487708685e-001	 2.5650496021e+000	 6.6613517765e-001
 4.0081473414e-001	 2.5689195295e+000	 6.1327553657e-001
 3.7679067147e-001	 2.5725529713e+000	 5.8850823967e-001
 3.5280801863e-001	 2.5759515721e+000	 5.8995936631e-001
 3.2886984515e-001	 2.5791170243e+000	 6.1536680330e-001
 3.0497916961e-001	 2.5820510657e+000	 6.6208684976e-001
 2.8113895895e-001	 2.5847554789e+000	 7.2710156433e-001
 2.5735212793e-001	 2.5872320890e+000	 8.0702681912e-001
 2.3362153855e-001	 2.5894827624e+000	 8.9812102373e-001
 4.7765301260e-001	 2.5811765921e+000	 8.5347182450e-001
 4.5329162333e-001	 2.5855660317e+000	 7.4903329960e-001
 4.2896244345e-001	 2.5897135406e+000	 6.7424383328e-001
 4.0466872197e-001	 2.5936206788e+000	 6.2820881784e-001
 3.8041365869e-001	 2.5972890575e+000	 6.0962354027e-001
 3.5620040342e-001	 2.6007203373e+000	 6.1677809407e-001
 3.3203205520e-001	 2.6039162264e+000	 6.4756313012e-001
 3.0791166162e-001	 2.6068784798e+000	 6.9947641253e-001
 2.8384221817e-001	 2.6096088970e+000	 7.6963014398e-001
 2.5982666762e-001	 2.6121093206e+000	 8.5475902420e-001
 2.3586789950e-001	 2.6143816351e+000	 9.5122900397e-001
 4.8220208891e-001	 2.6057592263e+000	 8.0526034230e-001
 4.5760868641e-001	 2.6101904701e+000	 7.0487932218e-001
 4.3304780006e-001	 2.6143774790e+000	 6.3358281695e-001
 4.0852270980e-001	 2.6183218281e+000	 5.9066689169e-001
 3.8403664592e-001	 2.6220251438e+000	 5.7500590387e-001
 3.5959278821e-001	 2.6254891024e+000	 5.8505731287e-001
 3.3519426525e-001	 2.6287154286e+000	 6.1886735795e-001
 3.1084415364e-001	 2.6317058939e+000	 6.7407756993e-001
 2.8654547739e-001	 2.6344623150e+000	 7.4793208025e-001
 2.6230120731e-001	 2.6369865522e+000	 8.3728569027e-001
 2.3811426044e-001	 2.6392805078e+000	 9.3861266223e-001
 4.8675116522e-001	 2.6303418605e+000	 7.1886367028e-001
 4.6192574949e-001	 2.6348149085e+000	 6.1780654397e-001
 4.3713315666e-001	 2.6390414175e+000	 5.4570769010e-001
 4.1237669763e-001	 2.6430229774e+000	 5.0205839825e-001
 3.8765963314e-001	 2.6467612300e+000	 4.8591611002e-001
 3.6298517301e-001	 2.6502578675e+000	 4.9590912940e-001
 3.3835647530e-001	 2.6535146308e+000	 5.3024223184e-001
 3.1377664565e-001	 2.6565333080e+000	 5.8670313657e-001
 2.8924873661e-001	 2.6593157331e+000	 6.6266980492e-001
 2.6477574700e-001	 2.6618637839e+000	 7.5511852660e-001
 2.4036062139e-001	 2.6641793805e+000	 8.6063275464e-001
 4.9130024153e-001	 2.6549244947e+000	 5.9615339751e-001
 4.6624281257e-001	 2.6594393469e+000	 4.8954114207e-001
 4.4121851326e-001	 2.6637053560e+000	 4.1219819263e-001
 4.1623068545e-001	 2.6677241268e+000	 3.6381574746e-001
 3.9128262037e-001	 2.6714973163e+000	 3.4363847491e-001
 3.6637755780e-001	 2.6750266326e+000	 3.5046912778e-001
 3.4151868535e-001	 2.6783138329e+000	 3.8267408750e-001
 3.1670913767e-001	 2.6813607221e+000	 4.3818980172e-001
 2.9195199583e-001	 2.6841691512e+000	 5.1453007738e-001
 2.6725028670e-001	 2.6867410155e+000	 6.0879419025e-001
 2.4260698234e-001	 2.6890782533e+000	 7.1767577066e-001
 4.9584931784e-001	 2.6795071290e+000	 4.3902547016e-001
 4.7055987565e-001	 2.6840637853e+000	 3.2183292177e-001
 4.4530386987e-001	 2.6883692945e+000	 2.3465713388e-001
 4.2008467328e-001	 2.6924252761e+000	 1.7739402874e-001
 3.9490560759e-001	 2.6962334026e+000	 1.4947977170e-001
 3.6976994260e-001	 2.6997953977e+000	 1.4989529267e-001
 3.4468089540e-001	 2.7031130351e+000	 1.7717176922e-001
 3.1964162968e-001	 2.7061881362e+000	 2.2939703415e-001
 2.9465525505e-001	 2.7090225692e+000	 3.0422286874e-001
 2.6972482639e-001	 2.7116182471e+000	 3.9887314171e-001
 2.4485334329e-001	 2.7139771260e+000	 5.1015275259e-001
 5.0039839415e-001	 2.7040897632e+000	 2.4939908431e-001
 4.7487693873e-001	 2.7086882237e+000	 1.1645424251e-001
 4.4938922647e-001	 2.7130332330e+000	 1.4709343948e-002
 4.2393866111e-001	 2.7171264254e+000	-5.5730019953e-002
 3.9852859482e-001	 2.7209694888e+000	-9.5231790244e-002
 3.7316232739e-001	 2.7245641628e+000	-1.0463300897e-001
 3.4784310545e-001	 2.7279122372e+000	-8.5234393285e-002
 3.2257412170e-001	 2.7310155503e+000	-3.8793953313e-002
 2.9735851428e-001	 2.7338759873e+000	 3.2480306706e-002
 2.7219936608e-001	 2.7364954787e+000	 1.2593856287e-001
 2.4709970424e-001	 2.7388759987e+000	 2.3849817957e-001
 2.2463609475e-001	 2.4898872715e+000	 1.9599015624e-002
 2.0187499956e-001	 2.4918359666e+000	 2.8139227730e-002
 1.7917333268e-001	 2.4935711173e+000	 3.1476857926e-002
 1.5653369117e-001	 2.4950946282e+000	 2.4664171878e-002
 1.3395861973e-001	 2.4964084378e+000	 2.8623970182e-003
 1.1145061038e-001	 2.4975145168e+000	-3.8654382282e-002
 8.9012102215e-002	 2.4984148666e+000	-1.0449561807e-001
 6.6645481200e-002	 2.4991115181e+000	-1.9915097851e-001
 4.4353079963e-002	 2.4996065299e+000	-3.2698731107e-001
 2.2137177686e-002	 2.4999019872e+000	-4.9224588596e-001
 0.0000000000e+000	 2.5000000000e+000	-6.9903991592e-001
 2.2688245570e-001	 2.5147861442e+000	 3.4125634129e-001
 2.0389374956e-001	 2.5167543263e+000	 2.7940458158e-001
 1.8096506601e-001	 2.5185068284e+000	 2.2415561832e-001
 1.5809902809e-001	 2.5200455744e+000	 1.6968818033e-001
 1.3529820593e-001	 2.5213725222e+000	 1.0990987443e-001
 1.1256511648e-001	 2.5224896619e+000	 3.8468746752e-002
 8.9902223242e-002	 2.5233990153e+000	-5.1234802351e-002
 6.7311936015e-002	 2.5241026333e+000	-1.6603578570e-001
 4.4796610765e-002	 2.5246025952e+000	-3.1299211476e-001
 2.2358549464e-002	 2.5249010070e+000	-4.9937183845e-001
 0.0000000000e+000	 2.5250000000e+000	-7.3264017025e-001
 2.2912881665e-001	 2.5396850170e+000	 5.9342530772e-001
 2.0591249956e-001	 2.5416726859e+000	 5.0932872706e-001
 1.8275679934e-001	 2.5434425396e+000	 4.3131340389e-001
 1.5966436500e-001	 2.5449965207e+000	 3.5393545875e-001
 1.3663779213e-001	 2.5463366065e+000	 2.7146377333e-001
 1.1367962259e-001	 2.5474648071e+000	 1.7789153969e-001
 9.0792344267e-002	 2.5483831639e+000	 6.6948192094e-002
 6.7978390830e-002	 2.5490937484e+000	-6.7888315284e-002
 4.5240141567e-002	 2.5495986605e+000	-2.3337892178e-001
 2.2579921242e-002	 2.5499000269e+000	-4.3651060119e-001
 0.0000000000e+000	 2.5500000000e+000	-6.8448326641e-001
 2.3137517760e-001	 2.5645838897e+000	 7.7895494782e-001
 2.0793124956e-001	 2.5665910456e+000	 6.8516840192e-001
 1.8454853267e-001	 2.5683782508e+000	 5.9735602180e-001
 1.6122970192e-001	 2.5699474670e+000	 5.1044609019e-001
 1.3797737833e-001	 2.5713006909e+000	 4.1906316925e-001
 1.1479412870e-001	 2.5724399523e+000	 3.1753964885e-001
 9.1682465292e-002	 2.5733673126e+000	 1.9992770706e-001
 6.8644845644e-002	 2.5740848636e+000	 6.0011644783e-002
 4.5683672368e-002	 2.5745947258e+000	-1.0867944348e-001
 2.2801293020e-002	 2.5748990468e+000	-3.1285870028e-001
 0.0000000000e+000	 2.5750000000e+000	-5.5946827472e-001
 2.3362153855e-001	 2.5894827624e+000	 8.9812102373e-001
 2.0994999955e-001	 2.5915094053e+000	 8.0669456410e-001
 1.8634026600e-001	 2.5933139620e+000	 7.2155042046e-001
 1.6279503883e-001	 2.5948984133e+000	 6.3798403487e-001
 1.3931696453e-001	 2.5962647753e+000	 5.5097027595e-001
 1.1590863480e-001	 2.5974150974e+000	 4.5517499744e-001
 9.2572586317e-002	 2.5983514613e+000	 3.4496703882e-001
 6.9311300459e-002	 2.5990759788e+000	 2.1443062878e-001
 4.6127203170e-002	 2.5995907911e+000	 5.7378152334e-002
 2.3022664798e-002	 2.5998980666e+000	-1.3263675716e-001
 0.0000000000e+000	 2.6000000000e+000	-3.6230583970e-001
 2.3586789950e-001	 2.6143816351e+000	 9.5122900397e-001
 2.1196874955e-001	 2.6164277650e+000	 8.7372232918e-001
 1.8813199933e-001	 2.6182496731e+000	 8.0322229199e-001
 1.6436037574e-001	 2.6198493596e+000	 7.3538671061e-001
 1.4065655073e-001	 2.6212288597e+000	 6.6553559954e-001
 1.1702314091e-001	 2.6223902426e+000	 5.8866274961e-001
 9.3462707341e-002	 2.6233356099e+000	 4.9944778018e-001
 6.9977755272e-002	 2.6240670940e+000	 3.9226862330e-001
 4.6570733970e-002	 2.6245868564e+000	 2.6121439933e-001
 2.3244036575e-002	 2.6248970865e+000	 1.0009864404e-001
 0.0000000000e+000	 2.6250000000e+000	-9.7527152735e-002
 2.3811426044e-001	 2.6392805078e+000	 9.3861266223e-001
 2.1398749955e-001	 2.6413461246e+000	 8.8610888750e-001
 1.8992373266e-001	 2.6431853843e+000	 8.4175330132e-001
 1.6592571266e-001	 2.6448003059e+000	 8.0156152786e-001
 1.4199613693e-001	 2.6461929440e+000	 7.6119377375e-001
 1.1813764702e-001	 2.6473653878e+000	 7.1596644061e-001
 9.4352828365e-002	 2.6483197586e+000	 6.6086424046e-001
 7.0644210086e-002	 2.6490582092e+000	 5.9055277232e-001
 4.7014264771e-002	 2.6495829217e+000	 4.9939151844e-001
 2.3465408353e-002	 2.6498961064e+000	 3.8144721886e-001
 0.0000000000e+000	 2.6500000000e+000	 2.3050758314e-001
 2.4036062139e-001	 2.6641793805e+000	 8.6063275464e-001
 2.1600624954e-001	 2.6662644843e+000	 8.4375153801e-001
 1.9171546598e-001	 2.6681210955e+000	 8.3657847063e-001
 1.6749104957e-001	 2.6697512521e+000	 8.3548261904e-001
 1.4333572313e-001	 2.6711570284e+000	 8.3645962867e-001
 1.1925215312e-001	 2.6723405329e+000	 8.3514337997e-001
 9.5242949388e-002	 2.6733039073e+000	 8.2681817839e-001
 7.1310664899e-002	 2.6740493244e+000	 8.0643143530e-001
 4.7457795571e-002	 2.6745789870e+000	 7.6860679694e-001
 2.3686780130e-002	 2.6748951263e+000	 7.0765767881e-001
 0.0000000000e+000	 2.6750000000e+000	 6.1760116316e-001
 2.4260698234e-001	 2.6890782533e+000	 7.1767577066e-001
 2.1802499954e-001	 2.6911828440e+000	 7.4658583142e-001
 1.9350719931e-001	 2.6930568066e+000	 7.8718370908e-001
 1.6905638648e-001	 2.6947021984e+000	 8.3618774953e-001
 1.4467530933e-001	 2.6961211128e+000	 8.8992447803e-001
 1.2036665923e-001	 2.6973156781e+000	 9.4434031013e-001
 9.6133070411e-002	 2.6982880559e+000	 9.9501382757e-001
 7.1977119711e-002	 2.6990404395e+000	 1.0371685753e+000
 4.7901326371e-002	 2.6995750523e+000	 1.0656863354e+000
 2.3908151907e-002	 2.6998941461e+000	 1.0751208334e+000
 0.0000000000e+000	 2.7000000000e+000	 1.0597118346e+000
 2.4485334329e-001	 2.7139771260e+000	 5.1015275259e-001
 2.2004374954e-001	 2.7161012036e+000	 5.9458381553e-001
 1.9529893264e-001	 2.7179925178e+000	 6.9310347862e-001
 1.7062172340e-001	 2.7196531447e+000	 8.0277539874e-001
 1.4601489552e-001	 2.7210851972e+000	 9.2025261076e-001
 1.2148116533e-001	 2.7222908233e+000	 1.0417893040e+000
 9.7023191433e-002	 2.7232722046e+000	 1.1632531958e+000
 7.2643574523e-002	 2.7240315547e+000	 1.2801384561e+000
 4.8344857171e-002	 2.7245711176e+000	 1.3875791387e+000
 2.4129523684e-002	 2.7248931660e+000	 1.4803630719e+000
 0.0000000000e+000	 2.7250000000e+000	 1.5529461659e+000
 2.4709970424e-001	 2.7388759987e+000	 2.3849817957e-001
 2.2206249953e-001	 2.7410195633e+000	 3.8775237625e-001
 1.9709066597e-001	 2.7429282290e+000	 5.5391858695e-001
 1.7218706031e-001	 2.7446040910e+000	 7.3440200041e-001
 1.4735448172e-001	 2.7460492816e+000	 9.2617797388e-001
 1.2259567143e-001	 2.7472659684e+000	 1.1258038863e+000
 9.7913312455e-002	 2.7482563533e+000	 1.3294316208e+000
 7.3310029335e-002	 2.7490226699e+000	 1.5328206286e+000
 4.8788387970e-002	 2.7495671829e+000	 1.7313515297e+000
 2.4350895461e-002	 2.7498921859e+000	 1.9200402005e+000
 0.0000000000e+000	 2.7500000000e+000	 2.0935523048e+000
 2.7500000000e+000	 0.0000000000e+000	 6.7580580358e-001
 2.7498921859e+000	 2.4350895461e-002	 7.9795443763e-001
 2.7495671829e+000	 4.8788387970e-002	 9.2143200552e-001
 2.7490226699e+000	 7.3310029335e-002	 1.0428734649e+000
 2.7482563533e+000	 9.7913312455e-002	 1.1591742328e+000
 2.7472659684e+000	 1.2259567143e-001	 1.2675026183e+000
 2.7460492816e+000	 1.4735448172e-001	 1.3653120371e+000
 2.7446040910e+000	 1.7218706031e-001	 1.4503529728e+000
 2.7429282290e+000	 1.9709066597e-001	 1.5206846482e+000
 2.7410195633e+000	 2.2206249953e-001	 1.5746863716e+000
 2.7388759987e+000	 2.4709970424e-001	 1.6110685200e+000
 2.7750000000e+000	 0.0000000000e+000	 1.0304724299e+000
 2.7748912057e+000	 2.4572267237e-002	 1.0971743658e+000
 2.7745632482e+000	 4.9231918770e-002	 1.1691709070e+000
 2.7740137851e+000	 7.3976484146e-002	 1.2430984401e+000
 2.7732405019e+000	 9.8803433477e-002	 1.3158576812e+000
 2.7722411136e+000	 1.2371017754e-001	 1.3846262666e+000
 2.7710133659e+000	 1.4869406792e-001	 1.4468711179e+000
 2.7695550373e+000	 1.7375239722e-001	 1.5003605461e+000
 2.7678639402e+000	 1.9888239929e-001	 1.5431760582e+000
 2.7659379230e+000	 2.2408124953e-001	 1.5737238292e+000
 2.7637748714e+000	 2.4934606519e-001	 1.5907458018e+000
 2.8000000000e+000	 0.0000000000e+000	 1.3984102103e+000
 2.7998902256e+000	 2.4793639014e-002	 1.4124310829e+000
 2.7995593135e+000	 4.9675449569e-002	 1.4352917640e+000
 2.7990049003e+000	 7.4642938958e-002	 1.4636249980e+000
 2.7982246506e+000	 9.9693554498e-002	 1.4943320414e+000
 2.7972162588e+000	 1.2482468364e-001	 1.5245954229e+000
 2.7959774503e+000	 1.5003365411e-001	 1.5518914709e+000
 2.7945059836e+000	 1.7531773413e-001	 1.5740025730e+000
 2.7927996513e+000	 2.0067413262e-001	 1.5890291292e+000
 2.7908562826e+000	 2.2609999953e-001	 1.5954011612e+000
 2.7886737441e+000	 2.5159242613e-001	 1.5918895392e+000
 2.8250000000e+000	 0.0000000000e+000	 1.7794718892e+000
 2.8248892455e+000	 2.5015010790e-002	 1.7435627553e+000
 2.8245553788e+000	 5.0118980368e-002	 1.7196202852e+000
 2.8239960154e+000	 7.5309393769e-002	 1.7042685423e+000
 2.8232087993e+000	 1.0058367552e-001	 1.6944045967e+000
 2.8221914039e+000	 1.2593918974e-001	 1.6872114674e+000
 2.8209415347e+000	 1.5137324031e-001	 1.6801708249e+000
 2.8194569298e+000	 1.7688307104e-001	 1.6710754173e+000
 2.8177353625e+000	 2.0246586595e-001	 1.6580411820e+000
 2.8157746423e+000	 2.2811874952e-001	 1.6395190037e+000
 2.8135726168e+000	 2.5383878708e-001	 1.6143060801e+000
 2.8500000000e+000	 0.0000000000e+000	 2.1735153780e+000
 2.8498882654e+000	 2.5236382567e-002	 2.0904129735e+000
 2.8495514441e+000	 5.0562511167e-002	 2.0219876790e+000
 2.8489871306e+000	 7.5975848581e-002	 1.9648498667e+000
 2.8481929479e+000	 1.0147379654e-001	 1.9158877241e+000
 2.8471665491e+000	 1.2705369585e-001	 1.8722803897e+000
 2.8459056191e+000	 1.5271282651e-001	 1.8315108434e+000
 2.8444078761e+000	 1.7844840795e-001	 1.7913785107e+000
 2.8426710737e+000	 2.0425759927e-001	 1.7500115450e+000
 2.8406930020e+000	 2.3013749952e-001	 1.7058787454e+000
 2.8384714896e+000	 2.5608514803e-001	 1.6578010727e+000
 2.8750000000e+000	 0.0000000000e+000	 2.5804035304e+000
 2.8748872852e+000	 2.5457754343e-002	 2.4528305170e+000
 2.8745475094e+000	 5.1006041966e-002	 2.3422304142e+000
 2.8739782458e+000	 7.6642303392e-002	 2.2451949208e+000
 2.8731770966e+000	 1.0236391756e-001	 2.1585986733e+000
 2.8721416943e+000	 1.2816820195e-001	 2.0796125887e+000
 2.8708697034e+000	 1.5405241270e-001	 2.0057169536e+000
 2.8693588224e+000	 1.8001374486e-001	 1.9347142197e+000
 2.8676067849e+000	 2.0604933260e-001	 1.8647414671e+000
 2.8656113616e+000	 2.3215624951e-001	 1.7942824943e+000
 2.8633703623e+000	 2.5833150898e-001	 1.7221794955e+000
 2.9000000000e+000	 0.0000000000e+000	 3.0000039293e+000
 2.8998863051e+000	 2.5679126120e-002	 2.8306691300e+000
 2.8995435747e+000	 5.1449572765e-002	 2.6801899934e+000
 2.8989693610e+000	 7.7308758203e-002	 2.5451345875e+000
 2.8981612453e+000	 1.0325403858e-001	 2.4223593565e+000
 2.8971168394e+000	 1.2928270805e-001	 2.3090226822e+000
 2.8958337878e+000	 1.5539199890e-001	 2.2025981845e+000
 2.8943097687e+000	 1.8157908178e-001	 2.1008877191e+000
 2.8925424960e+000	 2.0784106593e-001	 2.0020340350e+000
 2.8905297213e+000	 2.3417499951e-001	 1.9045330473e+000
 2.8882692350e+000	 2.6057786993e-001	 1.8072456864e+000
 2.9250000000e+000	 0.0000000000e+000	 3.4321886844e+000
 2.9248853250e+000	 2.5900497897e-002	 3.2237873098e+000
 2.9245396400e+000	 5.1893103565e-002	 3.0357127377e+000
 2.9239604762e+000	 7.7975213015e-002	 2.8645044723e+000
 2.9231453939e+000	 1.0414415961e-001	 2.7069961490e+000
 2.9220919846e+000	 1.3039721416e-001	 2.5603293268e+000
 2.9207978722e+000	 1.5673158510e-001	 2.4219670122e+000
 2.9192607150e+000	 1.8314441869e-001	 2.2897068718e+000
 2.9174782072e+000	 2.0963279925e-001	 2.1616940946e+000
 2.9154480810e+000	 2.3619374951e-001	 2.0364338601e+000
 2.9131681077e+000	 2.6282423087e-001	 1.9128033704e+000
 2.9500000000e+000	 0.0000000000e+000	 3.8768342409e+000
 2.9498843448e+000	 2.6121869673e-002	 3.6320481050e+000
 2.9495357053e+000	 5.2336634364e-002	 3.4086495826e+000
 2.9489515913e+000	 7.8641667826e-002	 3.2031447033e+000
 2.9481295426e+000	 1.0503428063e-001	 3.0123397003e+000
 2.9470671298e+000	 1.3151172026e-001	 2.8333550468e+000
 2.9457619566e+000	 1.5807117129e-001	 2.6636392146e+000
 2.9442116612e+000	 1.8470975560e-001	 2.5009821150e+000
 2.9424139184e+000	 2.1142453258e-001	 2.3435281764e+000
 2.9403664406e+000	 2.3821249950e-001	 2.1897890199e+000
 2.9380669804e+000	 2.6507059182e-001	 2.0386556849e+000
 2.9750000000e+000	 0.0000000000e+000	 4.3338211971e+000
 2.9748833647e+000	 2.6343241450e-002	 4.0553189243e+000
 2.9745317706e+000	 5.2780165163e-002	 3.7988558842e+000
 2.9739427065e+000	 7.9308122638e-002	 3.5608997412e+000
 2.9731136913e+000	 1.0592440165e-001	 3.3382247546e+000
 2.9720422749e+000	 1.3262622636e-001	 3.1279260713e+000
 2.9707260410e+000	 1.5941075749e-001	 2.9274337324e+000
 2.9691626075e+000	 1.8627509251e-001	 2.7345263521e+000
 2.9673496295e+000	 2.1321626591e-001	 2.5473444250e+000
 2.9652848003e+000	 2.4023124950e-001	 2.3644032184e+000
 2.9629658531e+000	 2.6731695277e-001	 2.1846052049e+000
 3.0000000000e+000	 0.0000000000e+000	 4.8030341314e+000
 2.9998823846e+000	 2.6564613226e-002	 4.4934713550e+000
 2.9995278359e+000	 5.3223695962e-002	 4.2061912350e+000
 2.9989338217e+000	 7.9974577449e-002	 3.9376181986e+000
 2.9980978399e+000	 1.0681452267e-001	 3.6844899798e+000
 2.9970174201e+000	 1.3374073246e-001	 3.4438721805e+000
 2.9956901253e+000	 1.6075034369e-001	 3.2131725371e+000
 2.9941135538e+000	 1.8784042942e-001	 2.9901548499e+000
 2.9922853407e+000	 2.1500799923e-001	 2.7729525313e+000
 2.9902031599e+000	 2.4224999949e-001	 2.5600817271e+000
 2.9878647258e+000	 2.6956331372e-001	 2.3504539664e+000
 2.7388759987e+000	 2.4709970424e-001	 1.6110685200e+000
 2.7364954787e+000	 2.7219936608e-001	 1.6436747679e+000
 2.7338759873e+000	 2.9735851428e-001	 1.6649599392e+000
 2.7310155503e+000	 3.2257412170e-001	 1.6745048296e+000
 2.7279122372e+000	 3.4784310545e-001	 1.6722506221e+000
 2.7245641628e+000	 3.7316232739e-001	 1.6585074607e+000
 2.7209694888e+000	 3.9852859482e-001	 1.6339624492e+000
 2.7171264254e+000	 4.2393866111e-001	 1.5996870378e+000
 2.7130332330e+000	 4.4938922647e-001	 1.5571437625e+000
 2.7086882237e+000	 4.7487693873e-001	 1.5081923016e+000
 2.7040897632e+000	 5.0039839415e-001	 1.4550948141e+000
 2.7637748714e+000	 2.4934606519e-001	 1.5907458018e+000
 2.7613727104e+000	 2.7467390578e-001	 1.6000937295e+000
 2.7587294054e+000	 3.0006177350e-001	 1.6021553837e+000
 2.7558429644e+000	 3.2550661372e-001	 1.5966125850e+000
 2.7527114394e+000	 3.5100531550e-001	 1.5835137030e+000
 2.7493329280e+000	 3.7655471219e-001	 1.5632822578e+000
 2.7457055751e+000	 4.0215158205e-001	 1.5367249301e+000
 2.7418275747e+000	 4.2779264894e-001	 1.5050389439e+000
 2.7376971715e+000	 4.5347458308e-001	 1.4698187827e+000
 2.7333126621e+000	 4.7919400181e-001	 1.4330622072e+000
 2.7286723974e+000	 5.0494747046e-001	 1.3971755344e+000
 2.7886737441e+000	 2.5159242613e-001	 1.5918895392e+000
 2.7862499420e+000	 2.7714844547e-001	 1.5783395768e+000
 2.7835828235e+000	 3.0276503272e-001	 1.5610912384e+000
 2.7806703785e+000	 3.2843910574e-001	 1.5399252331e+000
 2.7775106416e+000	 3.5416752555e-001	 1.5149953887e+000
 2.7741016931e+000	 3.7994709699e-001	 1.4868372909e+000
 2.7704416614e+000	 4.0577456927e-001	 1.4563763145e+000
 2.7665287241e+000	 4.3164663677e-001	 1.4249350092e+000
 2.7623611099e+000	 4.5755993968e-001	 1.3942398032e+000
 2.7579371005e+000	 4.8351106489e-001	 1.3664269875e+000
 2.7532550316e+000	 5.0949654677e-001	 1.3440479449e+000
 2.8135726168e+000	 2.5383878708e-001	 1.6143060801e+000
 2.8111271736e+000	 2.7962298516e-001	 1.5781740324e+000
 2.8084362415e+000	 3.0546829194e-001	 1.5414868405e+000
 2.8054977926e+000	 3.3137159775e-001	 1.5041220241e+000
 2.8023098437e+000	 3.5732973560e-001	 1.4663372016e+000
 2.7988704582e+000	 3.8333948178e-001	 1.4287787753e+000
 2.7951777476e+000	 4.0939755650e-001	 1.3924899933e+000
 2.7912298734e+000	 4.3550062460e-001	 1.3589183477e+000
 2.7870250484e+000	 4.6164529629e-001	 1.3299222730e+000
 2.7825615389e+000	 4.8782812797e-001	 1.3077771053e+000
 2.7778376658e+000	 5.1404562308e-001	 1.2951802681e+000
 2.8384714896e+000	 2.5608514803e-001	 1.6578010727e+000
 2.8360044052e+000	 2.8209752485e-001	 1.5993583205e+000
 2.8332896596e+000	 3.0817155116e-001	 1.5430610386e+000
 2.8303252067e+000	 3.3430408977e-001	 1.4888815371e+000
 2.8271090459e+000	 3.6049194565e-001	 1.4371796151e+000
 2.8236392233e+000	 3.8673186658e-001	 1.3887113024e+000
 2.8199138339e+000	 4.1302054373e-001	 1.3446369611e+000
 2.8159310227e+000	 4.3935461243e-001	 1.3065287045e+000
 2.8116889869e+000	 4.6573065289e-001	 1.2763770986e+000
 2.8071859773e+000	 4.9214519105e-001	 1.2565971047e+000
 2.8024203000e+000	 5.1859469938e-001	 1.2500332275e+000
 2.8633703623e+000	 2.5833150898e-001	 1.7221794955e+000
 2.8608816369e+000	 2.8457206455e-001	 1.6416531883e+000
 2.8581430777e+000	 3.1087481039e-001	 1.5655322144e+000
 2.8551526208e+000	 3.3723658179e-001	 1.4938817089e+000
 2.8519082480e+000	 3.6365415570e-001	 1.4271620988e+000
 2.8484079884e+000	 3.9012425137e-001	 1.3662379108e+000
 2.8446499202e+000	 4.1664353095e-001	 1.3123859204e+000
 2.8406321720e+000	 4.4320860026e-001	 1.2673026024e+000
 2.8363529254e+000	 4.6981600950e-001	 1.2331108418e+000
 2.8318104157e+000	 4.9646225412e-001	 1.2123658681e+000
 2.8270029342e+000	 5.2314377569e-001	 1.2080603735e+000
 2.8882692350e+000	 2.6057786993e-001	 1.8072456864e+000
 2.8857588685e+000	 2.8704660424e-001	 1.7048189267e+000
 2.8829964957e+000	 3.1357806961e-001	 1.6086183023e+000
 2.8799800349e+000	 3.4016907380e-001	 1.5187998619e+000
 2.8767074502e+000	 3.6681636576e-001	 1.4359231624e+000
 2.8731767535e+000	 3.9351663617e-001	 1.3609601528e+000
 2.8693860064e+000	 4.2026651818e-001	 1.2953033805e+000
 2.8653333213e+000	 4.4706258809e-001	 1.2407734807e+000
 2.8610168639e+000	 4.7390136610e-001	 1.1996259064e+000
 2.8564348541e+000	 5.0077931720e-001	 1.1745568608e+000
 2.8515855684e+000	 5.2769285200e-001	 1.1687083931e+000
 2.9131681077e+000	 2.6282423087e-001	 1.9128033704e+000
 2.9106361001e+000	 2.8952114393e-001	 1.7886153899e+000
 2.9078499138e+000	 3.1628132883e-001	 1.6720368089e+000
 2.9048074490e+000	 3.4310156582e-001	 1.5633127301e+000
 2.9015066523e+000	 3.6997857581e-001	 1.4631003960e+000
 2.8979455187e+000	 3.9690902097e-001	 1.3724781582e+000
 2.8941220927e+000	 4.2388950541e-001	 1.2929537510e+000
 2.8900344707e+000	 4.5091657592e-001	 1.2264718273e+000
 2.8856808023e+000	 4.7798672271e-001	 1.1754207164e+000
 2.8810592925e+000	 5.0509638028e-001	 1.1426383619e+000
 2.8761682026e+000	 5.3224192831e-001	 1.1314174024e+000
 2.9380669804e+000	 2.6507059182e-001	 2.0386556849e+000
 2.9355133317e+000	 2.9199568362e-001	 1.8928020136e+000
 2.9327033318e+000	 3.1898458805e-001	 1.7555048312e+000
 2.9296348631e+000	 3.4603405784e-001	 1.6270964846e+000
 2.9263058545e+000	 3.7314078586e-001	 1.5083305095e+000
 2.9227142838e+000	 4.0030140576e-001	 1.4003906946e+000
 2.9188581789e+000	 4.2751249264e-001	 1.3048994309e+000
 2.9147356200e+000	 4.5477056375e-001	 1.2239253034e+000
 2.9103447408e+000	 4.8207207931e-001	 1.1599898841e+000
 2.9056837309e+000	 5.0941344336e-001	 1.1160736844e+000
 2.9007508368e+000	 5.3679100462e-001	 1.0956212259e+000
 2.9629658531e+000	 2.6731695277e-001	 2.1846052049e+000
 2.9603905634e+000	 2.9447022332e-001	 2.0171378330e+000
 2.9575567499e+000	 3.2168784727e-001	 1.8587390734e+000
 2.9544622771e+000	 3.4896654985e-001	 1.7098267565e+000
 2.9511050566e+000	 3.7630299591e-001	 1.5712493695e+000
 2.9474830489e+000	 4.0369379056e-001	 1.4442952245e+000
 2.9435942652e+000	 4.3113547986e-001	 1.3307008930e+000
 2.9394367693e+000	 4.5862455157e-001	 1.2326588622e+000
 2.9350086793e+000	 4.8615743592e-001	 1.1528243710e+000
 2.9303081693e+000	 5.1373050644e-001	 1.0943213838e+000
 2.9253334710e+000	 5.4134008093e-001	 1.0607476601e+000
 2.9878647258e+000	 2.6956331372e-001	 2.3504539664e+000
 2.9852677950e+000	 2.9694476301e-001	 2.1613814993e+000
 2.9824101680e+000	 3.2439110650e-001	 1.9814558635e+000
 2.9792896912e+000	 3.5189904187e-001	 1.8111786599e+000
 2.9759042588e+000	 3.7946520596e-001	 1.6514920343e+000
 2.9722518140e+000	 4.0708617535e-001	 1.5037879597e+000
 2.9683303514e+000	 4.3475846709e-001	 1.3699167645e+000
 2.9641379186e+000	 4.6247853940e-001	 1.2521948622e+000
 2.9596726178e+000	 4.9024279252e-001	 1.1534116391e+000
 2.9549326076e+000	 5.1804756952e-001	 1.0768354563e+000
 2.9499161052e+000	 5.4588915724e-001	 1.0262187254e+000
 2.7040897632e+000	 5.0039839415e-001	 1.4550948141e+000
 2.6992362720e+000	 5.2595013834e-001	 1.4126053671e+000
 2.6941262274e+000	 5.5152866722e-001	 1.3720261439e+000
 2.6887581649e+000	 5.7713042797e-001	 1.3370489272e+000
 2.6831306796e+000	 6.0275182011e-001	 1.3117825612e+000
 2.6772424279e+000	 6.2838919664e-001	 1.2889625765e+000
 2.6710921293e+000	 6.5403886512e-001	 1.2066464179e+000
 2.6646785674e+000	 6.7969708895e-001	 1.1428711775e+000
 2.6580005917e+000	 7.0536008863e-001	 1.0977275349e+000
 2.6510571191e+000	 7.3102404304e-001	 1.0712655973e+000
 2.6438471350e+000	 7.5668509084e-001	 1.0634941326e+000
 2.7286723974e+000	 5.0494747046e-001	 1.3971755344e+000
 2.7237747836e+000	 5.3073150323e-001	 1.3793566310e+000
 2.7186182841e+000	 5.5654256419e-001	 1.3574471343e+000
 2.7132014209e+000	 5.8237706822e-001	 1.3352912864e+000
 2.7075227766e+000	 6.0823138211e-001	 1.3171659987e+000
 2.7015809954e+000	 6.3410182569e-001	 1.2744367639e+000
 2.6953747850e+000	 6.5998467298e-001	 1.1871198463e+000
 2.6889029180e+000	 6.8587615339e-001	 1.1193587502e+000
 2.6821642335e+000	 7.1177245307e-001	 1.0712672663e+000
 2.6751576384e+000	 7.3766971615e-001	 1.0429172935e+000
 2.6678821090e+000	 7.6356404620e-001	 1.0343380261e+000
 2.7532550316e+000	 5.0949654677e-001	 1.3440479449e+000
 2.7483132951e+000	 5.3551286813e-001	 1.3493387380e+000
 2.7431103407e+000	 5.6155646116e-001	 1.3442996133e+000
 2.7376446770e+000	 5.8762370847e-001	 1.3329302398e+000
 2.7319148737e+000	 6.1371094411e-001	 1.3196789311e+000
 2.7259195630e+000	 6.3981445475e-001	 1.2533712077e+000
 2.7196574407e+000	 6.6593048084e-001	 1.1615144164e+000
 2.7131272686e+000	 6.9205521784e-001	 1.0902288608e+000
 2.7063278752e+000	 7.1818481751e-001	 1.0396510663e+000
 2.6992581576e+000	 7.4431538927e-001	 1.0098743289e+000
 2.6919170830e+000	 7.7044300157e-001	 1.0009478574e+000
 2.7778376658e+000	 5.1404562308e-001	 1.2951802681e+000
 2.7728518067e+000	 5.4029423302e-001	 1.3219316432e+000
 2.7676023973e+000	 5.6657035814e-001	 1.3318725682e+000
 2.7620879330e+000	 5.9287034872e-001	 1.3291611601e+000
 2.7563069708e+000	 6.1919050611e-001	 1.3184205266e+000
 2.7502581305e+000	 6.4552708381e-001	 1.2258464722e+000
 2.7439400964e+000	 6.7187628870e-001	 1.1298949529e+000
 2.7373516192e+000	 6.9823428228e-001	 1.0555311376e+000
 2.7304915169e+000	 7.2459718195e-001	 1.0029139187e+000
 2.7233586769e+000	 7.5096106238e-001	 9.7215760405e-001
 2.7159520569e+000	 7.7732195694e-001	 9.6333101384e-001
 2.8024203000e+000	 5.1859469938e-001	 1.2500332275e+000
 2.7973903183e+000	 5.4507559791e-001	 1.2965084331e+000
 2.7920944539e+000	 5.7158425511e-001	 1.3194487379e+000
 2.7865311891e+000	 5.9811698897e-001	 1.3231737814e+000
 2.7806990679e+000	 6.2467006810e-001	 1.3124849139e+000
 2.7745966980e+000	 6.5123971286e-001	 1.1919386692e+000
 2.7682227522e+000	 6.7782209656e-001	 1.0923224043e+000
 2.7615759698e+000	 7.0441334672e-001	 1.0153118970e+000
 2.7546551587e+000	 7.3100954638e-001	 9.6108804769e-001
 2.7474591962e+000	 7.5760673550e-001	 9.2978579961e-001
 2.7399870309e+000	 7.8420091230e-001	 9.2149318907e-001
 2.8270029342e+000	 5.2314377569e-001	 1.2080603735e+000
 2.8219288298e+000	 5.4985696280e-001	 1.2724356239e+000
 2.8165865105e+000	 5.7659815208e-001	 1.3063048846e+000
 2.8109744451e+000	 6.0336362922e-001	 1.3141524437e+000
 2.8050911650e+000	 6.3014963010e-001	 1.2779623607e+000
 2.7989352655e+000	 6.5695234192e-001	 1.1517196518e+000
 2.7925054079e+000	 6.8376790442e-001	 1.0488540117e+000
 2.7858003204e+000	 7.1059241116e-001	 9.6961428726e-001
 2.7788188004e+000	 7.3742191082e-001	 9.1420303765e-001
 2.7715597154e+000	 7.6425240861e-001	 8.8277547235e-001
 2.7640220048e+000	 7.9107986767e-001	 8.7543845686e-001
 2.8515855684e+000	 5.2769285200e-001	 1.1687083931e+000
 2.8464673414e+000	 5.5463832770e-001	 1.2490734452e+000
 2.8410785671e+000	 5.8161204905e-001	 1.2917120510e+000
 2.8354177012e+000	 6.0861026947e-001	 1.3012763264e+000
 2.8294832621e+000	 6.3562919210e-001	 1.2353480888e+000
 2.8232738331e+000	 6.6266497097e-001	 1.1052571981e+000
 2.8167880636e+000	 6.8971371228e-001	 9.9954346791e-001
 2.8100246711e+000	 7.1677147560e-001	 9.1847842562e-001
 2.8029824422e+000	 7.4383427526e-001	 8.6228594686e-001
 2.7956602347e+000	 7.7089808172e-001	 8.3114114693e-001
 2.7880569788e+000	 7.9795882304e-001	 8.2516934089e-001
 2.8761682026e+000	 5.3224192831e-001	 1.1314174024e+000
 2.8710058529e+000	 5.5941969259e-001	 1.2257761083e+000
 2.8655706237e+000	 5.8662594603e-001	 1.2749358053e+000
 2.8598609572e+000	 6.1385690972e-001	 1.2837196677e+000
 2.8538753591e+000	 6.4110875410e-001	 1.1861699792e+000
 2.8476124006e+000	 6.6837760003e-001	 1.0526151849e+000
 2.8410707193e+000	 6.9565952014e-001	 9.4444106987e-001
 2.8342490217e+000	 7.2295054004e-001	 8.6194152732e-001
 2.8271460839e+000	 7.5024663970e-001	 8.0536141556e-001
 2.8197607539e+000	 7.7754375484e-001	 7.7489540267e-001
 2.8120919527e+000	 8.0483777841e-001	 7.7068688104e-001
 2.9007508368e+000	 5.3679100462e-001	 1.0956212259e+000
 2.8955443645e+000	 5.6420105748e-001	 1.2018920614e+000
 2.8900626803e+000	 5.9163984300e-001	 1.2552364725e+000
 2.8843042132e+000	 6.1910354998e-001	 1.2606519750e+000
 2.8782674562e+000	 6.4658831609e-001	 1.1305017503e+000
 2.8719509681e+000	 6.7409022909e-001	 9.9385375328e-001
 2.8653533750e+000	 7.0160532800e-001	 8.8359386207e-001
 2.8584733723e+000	 7.2912960448e-001	 8.0003802879e-001
 2.8513097256e+000	 7.5665900413e-001	 7.4345176839e-001
 2.8438612732e+000	 7.8418942795e-001	 7.1404895601e-001
 2.8361269267e+000	 8.1171673377e-001	 7.1199069619e-001
 2.9253334710e+000	 5.4134008093e-001	 1.0607476601e+000
 2.9200828761e+000	 5.6898242237e-001	 1.1767642316e+000
 2.9145547369e+000	 5.9665373997e-001	 1.2318693555e+000
 2.9087474693e+000	 6.2435019023e-001	 1.2312382228e+000
 2.9026595533e+000	 6.5206787809e-001	 1.0684130695e+000
 2.8962895356e+000	 6.7980285814e-001	 9.2902946575e-001
 2.8896360307e+000	 7.0755113586e-001	 8.1704577334e-001
 2.8826977229e+000	 7.3530866892e-001	 7.3279970438e-001
 2.8754733674e+000	 7.6307136857e-001	 6.7657711164e-001
 2.8679617925e+000	 7.9083510107e-001	 6.4861073877e-001
 2.8601619006e+000	 8.1859568914e-001	 6.4907904400e-001
 2.9499161052e+000	 5.4588915724e-001	 1.0262187254e+000
 2.9446213876e+000	 5.7376378727e-001	 1.1497302551e+000
 2.9390467935e+000	 6.0166763694e-001	 1.2040849435e+000
 2.9331907253e+000	 6.2959683048e-001	 1.1697494320e+000
 2.9270516504e+000	 6.5754744009e-001	 9.9996972160e-001
 2.9206281031e+000	 6.8551548720e-001	 8.5819545501e-001
 2.9139186865e+000	 7.1349694372e-001	 7.4483774668e-001
 2.9069220735e+000	 7.4148773336e-001	 6.6025577725e-001
 2.8996370091e+000	 7.6948373301e-001	 6.0475542573e-001
 2.8920623117e+000	 7.9748077418e-001	 5.7858797251e-001
 2.8841968746e+000	 8.2547464451e-001	 5.8194887758e-001
 2.6438471350e+000	 7.5668509084e-001	 1.0634941326e+000
 2.6363696952e+000	 7.8233933189e-001	 1.0484915087e+000
 2.6286239268e+000	 8.0798282872e-001	 1.0220298648e+000
 2.6206090298e+000	 8.3361160807e-001	 9.8393019787e-001
 2.6123242783e+000	 8.5922166244e-001	 9.3399458235e-001
 2.6037690218e+000	 8.8480895173e-001	 8.7200617177e-001
 2.5949426866e+000	 9.1036940492e-001	 7.9772925253e-001
 2.5858447765e+000	 9.3589892178e-001	 7.1090935077e-001
 2.5764748746e+000	 9.6139337463e-001	 6.1127339357e-001
 2.5668326437e+000	 9.8684861017e-001	 4.9852992532e-001
 2.5569178279e+000	 1.0122604513e+000	 3.7236938014e-001
 2.6678821090e+000	 7.6356404620e-001	 1.0343380261e+000
 2.6603366925e+000	 7.8945150763e-001	 1.0229035762e+000
 2.6525205080e+000	 8.1532812716e-001	 9.9996718347e-001
 2.6444327482e+000	 8.4118989541e-001	 9.6534252583e-001
 2.6360726808e+000	 8.6703276845e-001	 9.1882371012e-001
 2.6274396493e+000	 8.9285266947e-001	 8.6018527542e-001
 2.6185330746e+000	 9.1864549042e-001	 7.8918224975e-001
 2.6093524563e+000	 9.4440709380e-001	 7.0555026163e-001
 2.5998973734e+000	 9.7013331440e-001	 6.0900570757e-001
 2.5901674859e+000	 9.9581996117e-001	 4.9924597643e-001
 2.5801625355e+000	 1.0214628190e+000	 3.7594973148e-001
 2.6919170830e+000	 7.7044300157e-001	 1.0009478574e+000
 2.6843036897e+000	 7.9656368337e-001	 9.9302626420e-001
 2.6764170891e+000	 8.2267342560e-001	 9.7357775810e-001
 2.6682564667e+000	 8.4876818275e-001	 9.4240859453e-001
 2.6598210833e+000	 8.7484387447e-001	 8.9930478472e-001
 2.6511102768e+000	 9.0089638721e-001	 8.4403210014e-001
 2.6421234627e+000	 9.2692157592e-001	 7.7633613223e-001
 2.6328601361e+000	 9.5291526581e-001	 6.9594240850e-001
 2.6233198723e+000	 9.7887325417e-001	 6.0255656625e-001
 2.6135023281e+000	 1.0047913122e+000	 4.9586458500e-001
 2.6034072430e+000	 1.0306651868e+000	 3.7553307822e-001
 2.7159520569e+000	 7.7732195694e-001	 9.6333101384e-001
 2.7082706869e+000	 8.0367585911e-001	 9.5886769192e-001
 2.7003136703e+000	 8.3001872403e-001	 9.4287050769e-001
 2.6920801852e+000	 8.5634647009e-001	 9.1513818872e-001
 2.6835694859e+000	 8.8265498049e-001	 8.7544852012e-001
 2.6747809043e+000	 9.0894010495e-001	 8.2355835021e-001
 2.6657138508e+000	 9.3519766141e-001	 7.5920365296e-001
 2.6563678159e+000	 9.6142343782e-001	 6.8209964861e-001
 2.6467423712e+000	 9.8761319394e-001	 5.9194098368e-001
 2.6368371703e+000	 1.0137626632e+000	 4.8840197129e-001
 2.6266519505e+000	 1.0398675545e+000	 3.7113689278e-001
 2.7399870309e+000	 7.8420091230e-001	 9.2149318907e-001
 2.7322376842e+000	 8.1078803485e-001	 9.2043431889e-001
 2.7242102514e+000	 8.3736402247e-001	 9.0785273030e-001
 2.7159039036e+000	 8.6392475744e-001	 8.8353951543e-001
 2.7073178884e+000	 8.9046608651e-001	 8.4726410059e-001
 2.6984515317e+000	 9.1698382269e-001	 7.9877425288e-001
 2.6893042388e+000	 9.4347374691e-001	 7.3779614526e-001
 2.6798754957e+000	 9.6993160984e-001	 6.6403448169e-001
 2.6701648700e+000	 9.9635313370e-001	 5.7717268320e-001
 2.6601720126e+000	 1.0227340142e+000	 4.7687313637e-001
 2.6498966580e+000	 1.0490699223e+000	 3.6277750466e-001
 2.7640220048e+000	 7.9107986767e-001	 8.7543845686e-001
 2.7562046814e+000	 8.1790021059e-001	 8.7773101724e-001
 2.7481068326e+000	 8.4470932091e-001	 8.6853017347e-001
 2.7397276221e+000	 8.7150304478e-001	 8.4761927262e-001
 2.7310662909e+000	 8.9827719253e-001	 8.1475924720e-001
 2.7221221592e+000	 9.2502754043e-001	 7.6968862257e-001
 2.7128946269e+000	 9.5174983241e-001	 7.1212358455e-001
 2.7033831755e+000	 9.7843978185e-001	 6.4175810888e-001
 2.6935873689e+000	 1.0050930735e+000	 5.5826415353e-001
 2.6835068548e+000	 1.0317053652e+000	 4.6129191508e-001
 2.6731413656e+000	 1.0582722900e+000	 3.5047015011e-001
 2.7880569788e+000	 7.9795882304e-001	 8.2516934089e-001
 2.7801716786e+000	 8.2501238633e-001	 8.3076114010e-001
 2.7720034137e+000	 8.5205461935e-001	 8.2490710110e-001
 2.7635513405e+000	 8.7908133212e-001	 8.0738271420e-001
 2.7548146935e+000	 9.0608829855e-001	 7.7794028088e-001
 2.7457927867e+000	 9.3307125817e-001	 7.3630892179e-001
 2.7364850150e+000	 9.6002591790e-001	 6.8219464682e-001
 2.7268908553e+000	 9.8694795386e-001	 6.1528048880e-001
 2.7170098677e+000	 1.0138330132e+000	 5.3522670197e-001
 2.7068416970e+000	 1.0406767162e+000	 4.4167102638e-001
 2.6963860731e+000	 1.0674746577e+000	 3.3422901925e-001
 2.8120919527e+000	 8.0483777841e-001	 7.7068688104e-001
 2.8041386758e+000	 8.3212456207e-001	 7.7952658653e-001
 2.7958999949e+000	 8.5939991779e-001	 7.7698635684e-001
 2.7873750590e+000	 8.8665961946e-001	 7.6283371177e-001
 2.7785630960e+000	 9.1389940457e-001	 7.3681218227e-001
 2.7694634141e+000	 9.4111497591e-001	 6.9864131889e-001
 2.7600754030e+000	 9.6830200340e-001	 6.4801676419e-001
 2.7503985350e+000	 9.9545612588e-001	 5.8461039059e-001
 2.7404323666e+000	 1.0225729530e+000	 5.0807050492e-001
 2.7301765392e+000	 1.0496480672e+000	 4.1802212098e-001
 2.7196307806e+000	 1.0766770255e+000	 3.1406730079e-001
 2.8361269267e+000	 8.1171673377e-001	 7.1199069619e-001
 2.8281056731e+000	 8.3923673781e-001	 7.2402786311e-001
 2.8197965760e+000	 8.6674521623e-001	 7.2476942425e-001
 2.8111987774e+000	 8.9423790680e-001	 7.1397481314e-001
 2.8023114985e+000	 9.2171051058e-001	 6.9137864848e-001
 2.7931340416e+000	 9.4915869365e-001	 6.5669074291e-001
 2.7836657911e+000	 9.7657808889e-001	 6.0959617763e-001
 2.7739062148e+000	 1.0039642979e+000	 5.4975544432e-001
 2.7638548655e+000	 1.0313128928e+000	 4.7680465579e-001
 2.7535113814e+000	 1.0586194182e+000	 3.9035582661e-001
 2.7428754882e+000	 1.0858793932e+000	 2.8999722445e-001
 2.8601619006e+000	 8.1859568914e-001	 6.4907904400e-001
 2.8520726703e+000	 8.4634891355e-001	 6.6426414245e-001
 2.8436931572e+000	 8.7409051467e-001	 6.6825648397e-001
 2.8350224959e+000	 9.0181619415e-001	 6.6080729800e-001
 2.8260599011e+000	 9.2952161660e-001	 6.4164214706e-001
 2.8168046691e+000	 9.5720241139e-001	 6.1046093566e-001
 2.8072561791e+000	 9.8485417439e-001	 5.6693798699e-001
 2.7974138946e+000	 1.0124724699e+000	 5.1072218886e-001
 2.7872773643e+000	 1.0400528325e+000	 4.4143721048e-001
 2.7768462236e+000	 1.0675907692e+000	 3.5868179102e-001
 2.7661201957e+000	 1.0950817609e+000	 2.6203010127e-001
 2.8841968746e+000	 8.2547464451e-001	 5.8194887758e-001
 2.8760396675e+000	 8.5346108929e-001	 6.0023331879e-001
 2.8675897383e+000	 8.8143581311e-001	 6.0744646801e-001
 2.8588462143e+000	 9.0939448149e-001	 6.0333123075e-001
 2.8498083036e+000	 9.3733272262e-001	 5.8760396721e-001
 2.8404752965e+000	 9.6524612913e-001	 5.5995450116e-001
 2.8308465672e+000	 9.9313025989e-001	 5.2004619853e-001
 2.8209215744e+000	 1.0209806419e+000	 4.6751611737e-001
 2.8106998632e+000	 1.0487927723e+000	 4.0197523062e-001
 2.8001810658e+000	 1.0765621202e+000	 3.2300872280e-001
 2.7893649032e+000	 1.1042841287e+000	 2.3017636187e-001
 2.5569178279e+000	 1.0122604513e+000	 3.7236938014e-001
 2.5467302535e+000	 1.0376246991e+000	 3.0851777263e-001
 2.5362698295e+000	 1.0629371346e+000	 2.4996747022e-001
 2.5255365491e+000	 1.0881935211e+000	 1.9635969138e-001
 2.5145304902e+000	 1.1133896056e+000	 1.4730249652e-001
 2.5032518163e+000	 1.1385211215e+000	 1.0237114391e-001
 2.4917007772e+000	 1.1635837903e+000	 9.3261505467e-002
 2.4798777095e+000	 1.1885733238e+000	 1.0238463876e-001
 2.4677830375e+000	 1.2134854263e+000	 1.1808183231e-001
 2.4554172736e+000	 1.2383157968e+000	 1.4120445461e-001
 2.4427810188e+000	 1.2630601309e+000	 1.0209606691e-001
 2.5801625355e+000	 1.0214628190e+000	 3.7594973148e-001
 2.5698823467e+000	 1.0470576509e+000	 3.1296887864e-001
 2.5593268279e+000	 1.0726001995e+000	 2.5646419421e-001
 2.5484959723e+000	 1.0980861894e+000	 2.0606867343e-001
 2.5373898583e+000	 1.1235113293e+000	 1.6138032029e-001
 2.5260086510e+000	 1.1488713135e+000	 1.2196250026e-001
 2.5143526024e+000	 1.1741618247e+000	 8.7344372392e-002
 2.5024220523e+000	 1.1993785358e+000	 5.7021400976e-002
 2.4902174287e+000	 1.2245171120e+000	 6.9774307942e-002
 2.4777392488e+000	 1.2495732131e+000	 1.0000960716e-001
 2.4649881190e+000	 1.2745424957e+000	 1.0263527667e-002
 2.6034072430e+000	 1.0306651868e+000	 3.7553307822e-001
 2.5930344399e+000	 1.0564906027e+000	 3.1351094755e-001
 2.5823838264e+000	 1.0822632644e+000	 2.5913193405e-001
 2.5714553954e+000	 1.1079788578e+000	 2.1202033820e-001
 2.5602492264e+000	 1.1336330529e+000	 1.7176362517e-001
 2.5487654857e+000	 1.1592215055e+000	 1.3791277505e-001
 2.5370044277e+000	 1.1847398592e+000	 1.0998271534e-001
 2.5249663951e+000	 1.2101837479e+000	 8.7452836417e-002
 2.5126518200e+000	 1.2355487977e+000	 6.9767589714e-002
 2.5000612240e+000	 1.2608306294e+000	-1.2839921146e-003
 2.4871952191e+000	 1.2860248606e+000	-8.1182044438e-002
 2.6266519505e+000	 1.0398675545e+000	 3.7113689278e-001
 2.6161865331e+000	 1.0659235545e+000	 3.1016350552e-001
 2.6054408248e+000	 1.0919263292e+000	 2.5799293776e-001
 2.5944148186e+000	 1.1178715262e+000	 2.1424032293e-001
 2.5831085945e+000	 1.1437547766e+000	 1.7848210384e-001
 2.5715223204e+000	 1.1695716975e+000	 1.5025638069e-001
 2.5596562529e+000	 1.1953178937e+000	 1.2906334482e-001
 2.5475107379e+000	 1.2209889599e+000	 1.1436579837e-001
 2.5350862112e+000	 1.2465804834e+000	 1.0558976014e-001
 2.5223831993e+000	 1.2720880458e+000	-1.2278502836e-002
 2.5094023193e+000	 1.2975072254e+000	-1.3159434670e-001
 2.6498966580e+000	 1.0490699223e+000	 3.6277750466e-001
 2.6393386263e+000	 1.0753565063e+000	 3.0294499008e-001
 2.6284978233e+000	 1.1015893941e+000	 2.5306840168e-001
 2.6173742418e+000	 1.1277641945e+000	 2.1275323272e-001
 2.6059679626e+000	 1.1538765003e+000	 1.8156441863e-001
 2.5942791551e+000	 1.1799218895e+000	 1.5902668344e-001
 2.5823080782e+000	 1.2058959281e+000	 1.4462497523e-001
 2.5700550807e+000	 1.2317941719e+000	 1.3780499068e-001
 2.5575206025e+000	 1.2576121691e+000	 9.7880966153e-002
 2.5447051745e+000	 1.2833454621e+000	-2.3498610056e-002
 2.5316094195e+000	 1.3089895902e+000	-1.2677713601e-001
 2.6731413656e+000	 1.0582722900e+000	 3.5047015011e-001
 2.6624907195e+000	 1.0847894581e+000	 2.9187279752e-001
 2.6515548217e+000	 1.1112524589e+000	 2.4437851627e-001
 2.6403336650e+000	 1.1376568629e+000	 2.0758268537e-001
 2.6288273307e+000	 1.1639982240e+000	 1.8103824639e-001
 2.6170359898e+000	 1.1902720815e+000	 1.6425604889e-001
 2.6049599034e+000	 1.2164739626e+000	 1.5670528810e-001
 2.5925994236e+000	 1.2425993840e+000	 1.5781403503e-001
 2.5799549938e+000	 1.2686438548e+000	 7.1461241040e-002
 2.5670271497e+000	 1.2946028784e+000	-3.4869005735e-002
 2.5538165197e+000	 1.3204719550e+000	-1.2206563747e-001
 2.6963860731e+000	 1.0674746577e+000	 3.3422901925e-001
 2.6856428127e+000	 1.0942224100e+000	 2.7696332772e-001
 2.6746118202e+000	 1.1209155238e+000	 2.3194250943e-001
 2.6632930881e+000	 1.1475495313e+000	 1.9875135395e-001
 2.6516866988e+000	 1.1741199477e+000	 1.7693032092e-001
 2.6397928245e+000	 1.2006222736e+000	 1.6597588507e-001
 2.6276117287e+000	 1.2270519970e+000	 1.6534097662e-001
 2.6151437664e+000	 1.2534045960e+000	 1.5673623373e-001
 2.6023893850e+000	 1.2796755405e+000	 4.4900956467e-002
 2.5893491249e+000	 1.3058602948e+000	-4.6315561011e-002
 2.5760236198e+000	 1.3319543199e+000	-1.1738024253e-001
 2.7196307806e+000	 1.0766770255e+000	 3.1406730079e-001
 2.7087949060e+000	 1.1036553618e+000	 2.5823202677e-001
 2.6976688186e+000	 1.1305785886e+000	 2.1577868765e-001
 2.6862525113e+000	 1.1574421997e+000	 1.8628100714e-001
 2.6745460669e+000	 1.1842416714e+000	 1.6926647329e-001
 2.6625496592e+000	 1.2109724656e+000	 1.6421668341e-001
 2.6502635539e+000	 1.2376300315e+000	 1.7056778789e-001
 2.6376881092e+000	 1.2642098080e+000	 1.1594065321e-001
 2.6248237763e+000	 1.2907072262e+000	 1.8268219602e-002
 2.6116711001e+000	 1.3171177111e+000	-5.7765275813e-002
 2.5982307200e+000	 1.3434366847e+000	-1.1264256392e-001
 2.7428754882e+000	 1.0858793932e+000	 2.8999722445e-001
 2.7319469992e+000	 1.1130883136e+000	 2.3569342737e-001
 2.7207258171e+000	 1.1402416535e+000	 1.9590447502e-001
 2.7092119345e+000	 1.1673348680e+000	 1.7019254763e-001
 2.6974054350e+000	 1.1943633951e+000	 1.5807167010e-001
 2.6853064939e+000	 1.2213226576e+000	 1.5900805754e-001
 2.6729153792e+000	 1.2482080659e+000	 1.7242056297e-001
 2.6602324520e+000	 1.2750150201e+000	 7.5052585637e-002
 2.6472581675e+000	 1.3017389119e+000	-8.3698699315e-003
 2.6339930753e+000	 1.3283751274e+000	-6.9146231029e-002
 2.6204378202e+000	 1.3549190495e+000	-1.0777538388e-001
 2.7661201957e+000	 1.0950817609e+000	 2.6203010127e-001
 2.7550990924e+000	 1.1225212654e+000	 2.0936118720e-001
 2.7437828155e+000	 1.1499047184e+000	 1.7233645035e-001
 2.7321713577e+000	 1.1772275364e+000	 1.5050604841e-001
 2.7202648031e+000	 1.2044851188e+000	 1.4337004977e-001
 2.7080633286e+000	 1.2316728496e+000	 1.5037878020e-001
 2.6955672044e+000	 1.2587861004e+000	 1.2733449656e-001
 2.6827767948e+000	 1.2858202321e+000	 3.4133882925e-002
 2.6696925588e+000	 1.3127705976e+000	-3.4947177728e-002
 2.6563150506e+000	 1.3396325438e+000	-8.0387543085e-002
 2.6426449203e+000	 1.3664014143e+000	-1.0270260503e-001
 2.7893649032e+000	 1.1042841287e+000	 2.3017636187e-001
 2.7782511856e+000	 1.1319542172e+000	 1.7924812539e-001
 2.7668398140e+000	 1.1595677832e+000	 1.4509038238e-001
 2.7551307808e+000	 1.1871202048e+000	 1.2724078741e-001
 2.7431241712e+000	 1.2146068424e+000	 1.2518495710e-001
 2.7308201633e+000	 1.2420230416e+000	 1.3835681829e-001
 2.7182190297e+000	 1.2693641349e+000	 7.3007036194e-002
 2.7053211376e+000	 1.2966254442e+000	-6.7544745080e-003
 2.6921269500e+000	 1.3238022833e+000	-6.1398494380e-002
 2.6786370258e+000	 1.3508899601e+000	-9.1419320802e-002
 2.6648520205e+000	 1.3778837792e+000	-9.7349203703e-002
 2.4427810188e+000	 1.2630601309e+000	 1.0209606691e-001
 2.4298749630e+000	 1.2877141236e+000	-1.7672285350e-003
 2.4166998856e+000	 1.3122734711e+000	-9.7757656641e-002
 2.4032566556e+000	 1.3367338731e+000	-1.8611485551e-001
 2.3895462317e+000	 1.3610910354e+000	-2.6709373026e-001
 2.3755696628e+000	 1.3853406719e+000	-3.4096387978e-001
 2.3613280878e+000	 1.4094785070e+000	-4.0800898852e-001
 2.3468227357e+000	 1.4335002780e+000	-4.6852618459e-001
 2.3320549255e+000	 1.4574017375e+000	-5.2282536539e-001
 2.3170260660e+000	 1.4811786555e+000	-5.7122849251e-001
 2.3017376559e+000	 1.5048268218e+000	-6.1406885729e-001
 2.4649881190e+000	 1.2745424957e+000	 1.0263527667e-002
 2.4519647354e+000	 1.2994206156e+000	-7.6880139564e-002
 2.4386698846e+000	 1.3242032299e+000	-1.5809492561e-001
 2.4251044434e+000	 1.3488859992e+000	-2.3365162789e-001
 2.4112693793e+000	 1.3734645903e+000	-3.0383488046e-001
 2.3971657507e+000	 1.3979346780e+000	-3.6894252451e-001
 2.3827947068e+000	 1.4222919480e+000	-4.2928494483e-001
 2.3681574879e+000	 1.4465320987e+000	-4.8518437389e-001
 2.3532554248e+000	 1.4706508442e+000	-5.3697416486e-001
 2.3380899394e+000	 1.4946439160e+000	-5.8499803523e-001
 2.3226625436e+000	 1.5185070657e+000	-6.2960928283e-001
 2.4871952191e+000	 1.2860248606e+000	-8.1182044438e-002
 2.4740545078e+000	 1.3111271077e+000	-1.5171288166e-001
 2.4606398835e+000	 1.3361329887e+000	-2.1822047282e-001
 2.4469522311e+000	 1.3610381253e+000	-2.8100688828e-001
 2.4329925268e+000	 1.3858381451e+000	-3.4038663280e-001
 2.4187618385e+000	 1.4105286841e+000	-3.9668595946e-001
 2.4042613258e+000	 1.4351053889e+000	-4.5024215077e-001
 2.3894922400e+000	 1.4595639195e+000	-5.0140276838e-001
 2.3744559242e+000	 1.4838999509e+000	-5.5052487322e-001
 2.3591538127e+000	 1.5081091765e+000	-5.9797421761e-001
 2.3435874314e+000	 1.5321873095e+000	-6.4412441124e-001
 2.5094023193e+000	 1.2975072254e+000	-1.3159434670e-001
 2.4961442802e+000	 1.3228335997e+000	-2.2613059347e-001
 2.4826098825e+000	 1.3480627476e+000	-2.7799070816e-001
 2.4688000189e+000	 1.3731902515e+000	-3.2802924353e-001
 2.4547156744e+000	 1.3982117000e+000	-3.7659072731e-001
 2.4403579264e+000	 1.4231226902e+000	-4.2403000423e-001
 2.4257279448e+000	 1.4479188299e+000	-4.7071146137e-001
 2.4108269922e+000	 1.4725957402e+000	-5.1700822349e-001
 2.3956564235e+000	 1.4971490576e+000	-5.6330131980e-001
 2.3802176860e+000	 1.5215744370e+000	-6.0997882424e-001
 2.3645123192e+000	 1.5458675533e+000	-6.5743497117e-001
 2.5316094195e+000	 1.3089895902e+000	-1.2677713601e-001
 2.5182340526e+000	 1.3345400917e+000	-2.1864853516e-001
 2.5045798815e+000	 1.3599925064e+000	-3.1605550468e-001
 2.4906478067e+000	 1.3853423776e+000	-3.7456920117e-001
 2.4764388219e+000	 1.4105852549e+000	-4.1229090656e-001
 2.4619540142e+000	 1.4357166963e+000	-4.5081254882e-001
 2.4471945638e+000	 1.4607322709e+000	-4.9052583599e-001
 2.4321617443e+000	 1.4856275609e+000	-5.3182969865e-001
 2.4168569228e+000	 1.5103981643e+000	-5.7512940317e-001
 2.4012815594e+000	 1.5350396975e+000	-6.2083563985e-001
 2.3854372070e+000	 1.5595477972e+000	-6.6936358776e-001
 2.5538165197e+000	 1.3204719550e+000	-1.2206563747e-001
 2.5403238250e+000	 1.3462465838e+000	-1.9404783690e-001
 2.5265498804e+000	 1.3719222652e+000	-2.7344685851e-001
 2.5124955945e+000	 1.3974945037e+000	-3.6074409908e-001
 2.4981619695e+000	 1.4229588097e+000	-4.4733282849e-001
 2.4835501020e+000	 1.4483107024e+000	-4.7687346366e-001
 2.4686611827e+000	 1.4735457119e+000	-5.0952024675e-001
 2.4534964965e+000	 1.4986593816e+000	-5.4569816570e-001
 2.4380574221e+000	 1.5236472710e+000	-5.8583700124e-001
 2.4223454327e+000	 1.5485049580e+000	-6.3037036237e-001
 2.4063620948e+000	 1.5732280410e+000	-6.7973470021e-001
 2.5760236198e+000	 1.3319543199e+000	-1.1738024253e-001
 2.5624135974e+000	 1.3579530758e+000	-1.6951377952e-001
 2.5485198794e+000	 1.3838520240e+000	-2.3091080951e-001
 2.5343433823e+000	 1.4096466298e+000	-3.0208455856e-001
 2.5198851171e+000	 1.4353323646e+000	-3.8355243828e-001
 2.5051461899e+000	 1.4609047085e+000	-4.7583514918e-001
 2.4901278017e+000	 1.4863591528e+000	-5.2753159182e-001
 2.4748312486e+000	 1.5116912023e+000	-5.5844652226e-001
 2.4592579215e+000	 1.5368963777e+000	-5.9525388586e-001
 2.4434093060e+000	 1.5619702185e+000	-6.3841052043e-001
 2.4272869826e+000	 1.5869082848e+000	-6.8837448356e-001
 2.5982307200e+000	 1.3434366847e+000	-1.1264256392e-001
 2.5845033698e+000	 1.3696595678e+000	-1.4496015018e-001
 2.5704898784e+000	 1.3957817829e+000	-1.8835410192e-001
 2.5561911700e+000	 1.4217987559e+000	-2.4336958387e-001
 2.5416082646e+000	 1.4477059195e+000	-3.1055462999e-001
 2.5267422777e+000	 1.4734987146e+000	-3.9045919265e-001
 2.5115944207e+000	 1.4991725938e+000	-4.8363416782e-001
 2.4961660007e+000	 1.5247230230e+000	-5.6990950934e-001
 2.4804584208e+000	 1.5501454844e+000	-6.0321164194e-001
 2.4644731793e+000	 1.5754354790e+000	-6.4478539516e-001
 2.4482118703e+000	 1.6005885287e+000	-6.9511077453e-001
 2.6204378202e+000	 1.3549190495e+000	-1.0777538388e-001
 2.6065931422e+000	 1.3813660599e+000	-1.2030207531e-001
 2.5924598773e+000	 1.4077115417e+000	-1.4568496102e-001
 2.5780389578e+000	 1.4339508820e+000	-1.8450126272e-001
 2.5633314122e+000	 1.4600794743e+000	-2.3732978005e-001
 2.5483383656e+000	 1.4860927207e+000	-3.0474988545e-001
 2.5330610397e+000	 1.5119860348e+000	-3.8734049603e-001
 2.5175007529e+000	 1.5377548437e+000	-4.8567902435e-001
 2.5016589201e+000	 1.5633945911e+000	-6.0034031025e-001
 2.4855370527e+000	 1.5889007395e+000	-6.4932594590e-001
 2.4691367581e+000	 1.6142687725e+000	-6.9977300108e-001
 2.6426449203e+000	 1.3664014143e+000	-1.0270260503e-001
 2.6286829145e+000	 1.3930725519e+000	-9.5455964274e-002
 2.6144298763e+000	 1.4196413005e+000	-1.0281303090e-001
 2.5998867456e+000	 1.4461030082e+000	-1.2538321058e-001
 2.5850545598e+000	 1.4724530292e+000	-1.6377622022e-001
 2.5699344534e+000	 1.4986867268e+000	-2.1860102850e-001
 2.5545276587e+000	 1.5247994757e+000	-2.9046477416e-001
 2.5388355050e+000	 1.5507866644e+000	-3.7997166422e-001
 2.5228594194e+000	 1.5766436978e+000	-4.8772185453e-001
 2.5066009260e+000	 1.6023660000e+000	-6.1431031468e-001
 2.4900616459e+000	 1.6279490163e+000	-7.0219211557e-001
 2.6648520205e+000	 1.3778837792e+000	-9.7349203703e-002
 2.6507726869e+000	 1.4047790439e+000	-7.0339455987e-002
 2.6363998752e+000	 1.4315710593e+000	-5.9649315391e-002
 2.6217345334e+000	 1.4582551343e+000	-6.5920506994e-002
 2.6067777073e+000	 1.4848265841e+000	-8.9793824784e-002
 2.5915305413e+000	 1.5112807329e+000	-1.3190801757e-001
 2.5759942776e+000	 1.5376129167e+000	-1.9289865356e-001
 2.5601702572e+000	 1.5638184851e+000	-2.7339696588e-001
 2.5440599187e+000	 1.5898928045e+000	-3.7402868136e-001
 2.5276647993e+000	 1.6158312605e+000	-4.9541283513e-001
 2.5109865337e+000	 1.6416292602e+000	-6.3816057338e-001
 2.3017376559e+000	 1.5048268218e+000	-6.1406885729e-001
 2.2861912829e+000	 1.5283420488e+000	-6.2825853853e-001
 2.2703886241e+000	 1.5517201731e+000	-6.5040219765e-001
 2.2543314449e+000	 1.5749570586e+000	-6.8072436694e-001
 2.2380215991e+000	 1.5980485981e+000	-7.1944376084e-001
 2.2214610278e+000	 1.6209907162e+000	-7.6677249451e-001
 2.2046517589e+000	 1.6437793714e+000	-8.2291530379e-001
 2.1875959066e+000	 1.6664105584e+000	-8.8806876894e-001
 2.1702956705e+000	 1.6888803104e+000	-9.6242054412e-001
 2.1527533344e+000	 1.7111847011e+000	-1.0461485951e+000
 2.1349712658e+000	 1.7333198476e+000	-1.1394204471e+000
 2.3226625436e+000	 1.5185070657e+000	-6.2960928283e-001
 2.3069748400e+000	 1.5422360674e+000	-6.4159231041e-001
 2.2910285207e+000	 1.5658267202e+000	-6.6060158963e-001
 2.2748253672e+000	 1.5892748500e+000	-6.8687789706e-001
 2.2583672500e+000	 1.6125763126e+000	-7.2065717679e-001
 2.2416561281e+000	 1.6357269954e+000	-7.6216973305e-001
 2.2246940476e+000	 1.6587228203e+000	-8.1163942270e-001
 2.2074831422e+000	 1.6815597453e+000	-8.6928285010e-001
 2.1900256311e+000	 1.7042337677e+000	-9.3530856637e-001
 2.1723238192e+000	 1.7267409257e+000	-1.0099162754e+000
 2.1543800955e+000	 1.7490773008e+000	-1.0932960489e+000
 2.3435874314e+000	 1.5321873095e+000	-6.4412441124e-001
 2.3277583971e+000	 1.5561300860e+000	-6.5388844207e-001
 2.3116684172e+000	 1.5799332672e+000	-6.6977078651e-001
 2.2953192894e+000	 1.6035926415e+000	-6.9202886413e-001
 2.2787129009e+000	 1.6271040271e+000	-7.2091623652e-001
 2.2618512283e+000	 1.6504632747e+000	-7.5668177323e-001
 2.2447363364e+000	 1.6736662691e+000	-7.9956881619e-001
 2.2273703777e+000	 1.6967089322e+000	-8.4981434494e-001
 2.2097555918e+000	 1.7195872251e+000	-9.0764814487e-001
 2.1918943041e+000	 1.7422971502e+000	-9.7329198107e-001
 2.1737889252e+000	 1.7648347539e+000	-1.0469587798e+000
 2.3645123192e+000	 1.5458675533e+000	-6.5743497117e-001
 2.3485419542e+000	 1.5700241047e+000	-6.6496080723e-001
 2.3323083138e+000	 1.5940398142e+000	-6.7771632835e-001
 2.3158132116e+000	 1.6179104329e+000	-6.9597600097e-001
 2.2990585519e+000	 1.6416317417e+000	-7.2001139752e-001
 2.2820463286e+000	 1.6651995539e+000	-7.5009033502e-001
 2.2647786251e+000	 1.6886097179e+000	-7.8647601061e-001
 2.2472576132e+000	 1.7118581191e+000	-8.2942613648e-001
 2.2294855524e+000	 1.7349406825e+000	-8.7919207647e-001
 2.2114647889e+000	 1.7578533748e+000	-9.3601798690e-001
 2.1931977549e+000	 1.7805922071e+000	-1.0001399639e+000
 2.3854372070e+000	 1.5595477972e+000	-6.6936358776e-001
 2.3693255114e+000	 1.5839181233e+000	-6.7462527625e-001
 2.3529482104e+000	 1.6081463613e+000	-6.8424686932e-001
 2.3363071339e+000	 1.6322282244e+000	-6.9852028929e-001
 2.3194042028e+000	 1.6561594562e+000	-7.1773551831e-001
 2.3022414288e+000	 1.6799358332e+000	-7.4217970876e-001
 2.2848209138e+000	 1.7035531668e+000	-7.7213628926e-001
 2.2671448487e+000	 1.7270073060e+000	-8.0788406853e-001
 2.2492155131e+000	 1.7502941398e+000	-8.4969633966e-001
 2.2310352738e+000	 1.7734095994e+000	-8.9783998727e-001
 2.2126065846e+000	 1.7963496603e+000	-9.5257459993e-001
 2.4063620948e+000	 1.5732280410e+000	-6.7973470021e-001
 2.3901090685e+000	 1.5978121419e+000	-6.8269962937e-001
 2.3735881070e+000	 1.6222529083e+000	-6.8917308583e-001
 2.3568010561e+000	 1.6465460158e+000	-6.9946486202e-001
 2.3397498537e+000	 1.6706871707e+000	-7.1388375408e-001
 2.3224365291e+000	 1.6946721124e+000	-7.3273664345e-001
 2.3048632025e+000	 1.7184966156e+000	-7.5632757256e-001
 2.2870320842e+000	 1.7421564929e+000	-7.8495681689e-001
 2.2689454737e+000	 1.7656475972e+000	-8.1891995625e-001
 2.2506057587e+000	 1.7889658239e+000	-8.5850694748e-001
 2.2320154143e+000	 1.8121071134e+000	-9.0400120140e-001
 2.4272869826e+000	 1.5869082848e+000	-6.8837448356e-001
 2.4108926256e+000	 1.6117061606e+000	-6.8900347437e-001
 2.3942280036e+000	 1.6363594553e+000	-6.9230758937e-001
 2.3772949783e+000	 1.6608638072e+000	-6.9861491049e-001
 2.3600955046e+000	 1.6852148853e+000	-7.0825345764e-001
 2.3426316293e+000	 1.7094083916e+000	-7.2155024075e-001
 2.3249054912e+000	 1.7334400644e+000	-7.3883030437e-001
 2.3069193198e+000	 1.7573056798e+000	-7.6041576735e-001
 2.2886754343e+000	 1.7810010546e+000	-7.8662486019e-001
 2.2701762435e+000	 1.8045220485e+000	-8.1777096277e-001
 2.2514242440e+000	 1.8278645666e+000	-8.5416164498e-001
 2.4482118703e+000	 1.6005885287e+000	-6.9511077453e-001
 2.4316761827e+000	 1.6256001792e+000	-6.9335816842e-001
 2.4148679002e+000	 1.6504660024e+000	-6.9346484379e-001
 2.3977889005e+000	 1.6751815987e+000	-6.9577759654e-001
 2.3804411555e+000	 1.6997425998e+000	-7.0064408556e-001
 2.3628267296e+000	 1.7241446709e+000	-7.0841185442e-001
 2.3449477800e+000	 1.7483835133e+000	-7.1942734419e-001
 2.3268065553e+000	 1.7724548667e+000	-7.3403489983e-001
 2.3084053950e+000	 1.7963545119e+000	-7.5257577311e-001
 2.2897467284e+000	 1.8200782730e+000	-7.7538712450e-001
 2.2708330737e+000	 1.8436220197e+000	-8.0280102685e-001
 2.4691367581e+000	 1.6142687725e+000	-6.9977300108e-001
 2.4524597398e+000	 1.6394941978e+000	-6.9558674405e-001
 2.4355077967e+000	 1.6645725494e+000	-6.9246108683e-001
 2.4182828228e+000	 1.6894993901e+000	-6.9076196896e-001
 2.4007868064e+000	 1.7142703143e+000	-6.9085710898e-001
 2.3830218298e+000	 1.7388809501e+000	-6.9311499495e-001
 2.3649900687e+000	 1.7633269621e+000	-6.9790386473e-001
 2.3466937908e+000	 1.7876040536e+000	-7.0559067847e-001
 2.3281353556e+000	 1.8117079693e+000	-7.1654008620e-001
 2.3093172132e+000	 1.8356344976e+000	-7.3111339326e-001
 2.2902419033e+000	 1.8593794729e+000	-7.4966752628e-001
 2.4900616459e+000	 1.6279490163e+000	-7.0219211557e-001
 2.4732432969e+000	 1.6533882164e+000	-6.9551383866e-001
 2.4561476933e+000	 1.6786790964e+000	-6.8911425554e-001
 2.4387767450e+000	 1.7038171816e+000	-6.8337888426e-001
 2.4211324573e+000	 1.7287980288e+000	-6.7869592900e-001
 2.4032169301e+000	 1.7536172294e+000	-6.7545523887e-001
 2.3850323574e+000	 1.7782704109e+000	-6.7404725477e-001
 2.3665810263e+000	 1.8027532405e+000	-6.7486194726e-001
 2.3478653163e+000	 1.8270614267e+000	-6.7828774806e-001
 2.3288876981e+000	 1.8511907221e+000	-6.8471047829e-001
 2.3096507330e+000	 1.8751369261e+000	-6.9493831358e-001
 2.5109865337e+000	 1.6416292602e+000	-6.3816057338e-001
 2.4940268541e+000	 1.6672822350e+000	-6.9296562771e-001
 2.4767875899e+000	 1.6927856434e+000	-6.8324391557e-001
 2.4592706672e+000	 1.7181349730e+000	-6.7344093130e-001
 2.4414781082e+000	 1.7433257434e+000	-6.6396579625e-001
 2.4234120303e+000	 1.7683535086e+000	-6.5523014272e-001
 2.4050746461e+000	 1.7932138597e+000	-6.4764702683e-001
 2.3864682618e+000	 1.8179024274e+000	-6.4162983087e-001
 2.3675952769e+000	 1.8424148840e+000	-6.3759115811e-001
 2.3484581830e+000	 1.8667469467e+000	-6.3594172297e-001
 2.3290595627e+000	 1.8908943792e+000	-6.8427331683e-001
 2.1349712658e+000	 1.7333198476e+000	-1.1394204471e+000
 2.1169519149e+000	 1.7552819119e+000	-1.1699658870e+000
 2.0986978130e+000	 1.7770671034e+000	-1.1840101035e+000
 2.0802115719e+000	 1.7986716810e+000	-1.1821335962e+000
 2.0614958826e+000	 1.8200919554e+000	-1.1649293664e+000
 2.0425535136e+000	 1.8413242908e+000	-1.1330018202e+000
 2.0233873101e+000	 1.8623651074e+000	-1.0869656592e+000
 2.0040001923e+000	 1.8832108829e+000	-1.0546815533e+000
 1.9843951538e+000	 1.9038581548e+000	-1.0456858360e+000
 1.9645752604e+000	 1.9243035224e+000	-1.0166292924e+000
 1.9445436483e+000	 1.9445436482e+000	-9.6834301707e-001
 2.1543800955e+000	 1.7490773008e+000	-1.0932960489e+000
 2.1361969323e+000	 1.7712390202e+000	-1.1263550468e+000
 2.1177768840e+000	 1.7932222588e+000	-1.1435868710e+000
 2.0991225862e+000	 1.8150232417e+000	-1.1455903544e+000
 2.0802367542e+000	 1.8366382459e+000	-1.1329762881e+000
 2.0611221819e+000	 1.8580636026e+000	-1.1063662899e+000
 2.0417817402e+000	 1.8792956993e+000	-1.0805506825e+000
 2.0222183758e+000	 1.9003309818e+000	-1.0925835446e+000
 2.0024351097e+000	 1.9211659562e+000	-1.0843645239e+000
 1.9824350355e+000	 1.9417971908e+000	-1.0567281606e+000
 1.9622213178e+000	 1.9622213178e+000	-1.0105226955e+000
 2.1737889252e+000	 1.7648347539e+000	-1.0469587798e+000
 2.1554419497e+000	 1.7871961285e+000	-1.0824738696e+000
 2.1368559550e+000	 1.8093774143e+000	-1.1028340468e+000
 2.1180336005e+000	 1.8313748025e+000	-1.1086568394e+000
 2.0989776259e+000	 1.8531845364e+000	-1.1005711889e+000
 2.0796908502e+000	 1.8748029143e+000	-1.0792162838e+000
 2.0601761703e+000	 1.8962262912e+000	-1.1110567214e+000
 2.0404365594e+000	 1.9174510807e+000	-1.1230759894e+000
 2.0204750656e+000	 1.9384737576e+000	-1.1154641624e+000
 2.0002948105e+000	 1.9592908592e+000	-1.0890736683e+000
 1.9798989873e+000	 1.9798989873e+000	-1.0447702327e+000
 2.1931977549e+000	 1.7805922071e+000	-1.0001399639e+000
 2.1746869671e+000	 1.8031532367e+000	-1.0380491974e+000
 2.1559350260e+000	 1.8255325698e+000	-1.0614742411e+000
 2.1369446148e+000	 1.8477263632e+000	-1.0710516855e+000
 2.1177184976e+000	 1.8697308269e+000	-1.0674289883e+000
 2.0982595185e+000	 1.8915422260e+000	-1.1025226011e+000
 2.0785706004e+000	 1.9131568830e+000	-1.1342335450e+000
 2.0586547430e+000	 1.9345711797e+000	-1.1460727700e+000
 2.0385150216e+000	 1.9557815590e+000	-1.1388967137e+000
 2.0181545856e+000	 1.9767845275e+000	-1.1135760303e+000
 1.9975766568e+000	 1.9975766568e+000	-1.0709942730e+000
 2.2126065846e+000	 1.7963496603e+000	-9.5257459993e-001
 2.1939319845e+000	 1.8191103450e+000	-9.9281157681e-001
 2.1750140971e+000	 1.8416877253e+000	-1.0192337922e+000
 2.1558556291e+000	 1.8640779239e+000	-1.0324972720e+000
 2.1364593692e+000	 1.8862771174e+000	-1.0683204804e+000
 2.1168281868e+000	 1.9082815378e+000	-1.1192306002e+000
 2.0969650305e+000	 1.9300874749e+000	-1.1500008819e+000
 2.0768729265e+000	 1.9516912786e+000	-1.1614915157e+000
 2.0565549775e+000	 1.9730893604e+000	-1.1545778715e+000
 2.0360143607e+000	 1.9942781959e+000	-1.1301491711e+000
 2.0152543264e+000	 2.0152543264e+000	-1.0891071410e+000
 2.2320154143e+000	 1.8121071134e+000	-9.0400120140e-001
 2.2131770019e+000	 1.8350674533e+000	-9.4649509783e-001
 2.1940931681e+000	 1.8578428808e+000	-9.7584260445e-001
 2.1747666434e+000	 1.8804294847e+000	-1.0097094872e+000
 2.1552002409e+000	 1.9028234079e+000	-1.0793817751e+000
 2.1353968551e+000	 1.9250208495e+000	-1.1286180956e+000
 2.1153594606e+000	 1.9470180668e+000	-1.1582820538e+000
 2.0950911101e+000	 1.9688113775e+000	-1.1692534408e+000
 2.0745949335e+000	 1.9903971619e+000	-1.1624268989e+000
 2.0538741358e+000	 2.0117718643e+000	-1.1387105631e+000
 2.0329319959e+000	 2.0329319959e+000	-1.0990246815e+000
 2.2514242440e+000	 1.8278645666e+000	-8.5416164498e-001
 2.2324220193e+000	 1.8510245616e+000	-8.9883724125e-001
 2.2131722391e+000	 1.8739980363e+000	-9.3103399449e-001
 2.1936776577e+000	 1.8967810454e+000	-1.0159206365e+000
 2.1739411125e+000	 1.9193696984e+000	-1.0832143284e+000
 2.1539655234e+000	 1.9417601612e+000	-1.1306141112e+000
 2.1337538907e+000	 1.9639486587e+000	-1.1590038212e+000
 2.1133092937e+000	 1.9859314765e+000	-1.1692831893e+000
 2.0926348894e+000	 2.0077049633e+000	-1.1623664747e+000
 2.0717339109e+000	 2.0292655327e+000	-1.1391810736e+000
 2.0506096654e+000	 2.0506096654e+000	-1.1006661080e+000
 2.2708330737e+000	 1.8436220197e+000	-8.0280102685e-001
 2.2516670367e+000	 1.8669816699e+000	-8.4957873367e-001
 2.2322513102e+000	 1.8901531918e+000	-9.2999752486e-001
 2.2125886720e+000	 1.9131326061e+000	-1.0149975229e+000
 2.1926819842e+000	 1.9359159889e+000	-1.0797528622e+000
 2.1725341917e+000	 1.9584994730e+000	-1.1251509650e+000
 2.1521483208e+000	 1.9808792506e+000	-1.1520962359e+000
 2.1315274772e+000	 2.0030515754e+000	-1.1615086889e+000
 2.1106748454e+000	 2.0250127647e+000	-1.1543225472e+000
 2.0895936860e+000	 2.0467592011e+000	-1.1314848200e+000
 2.0682873350e+000	 2.0682873350e+000	-1.0939538585e+000
 2.2902419033e+000	 1.8593794729e+000	-7.4966752628e-001
 2.2709120541e+000	 1.8829387782e+000	-8.2267748568e-001
 2.2513303812e+000	 1.9063083472e+000	-9.2509145028e-001
 2.2314996862e+000	 1.9294841669e+000	-1.0068805499e+000
 2.2114228559e+000	 1.9524622794e+000	-1.0689352500e+000
 2.1911028601e+000	 1.9752387847e+000	-1.1121641292e+000
 2.1705427509e+000	 1.9978098425e+000	-1.1374925021e+000
 2.1497456608e+000	 2.0201716744e+000	-1.1458610115e+000
 2.1287148013e+000	 2.0423205661e+000	-1.1382241957e+000
 2.1074534611e+000	 2.0642528695e+000	-1.1155490319e+000
 2.0859650045e+000	 2.0859650045e+000	-1.0788134591e+000
 2.3096507330e+000	 1.8751369261e+000	-6.9493831358e-001
 2.2901570715e+000	 1.8988958865e+000	-8.1453362113e-001
 2.2704094522e+000	 1.9224635027e+000	-9.1309426613e-001
 2.2504107005e+000	 1.9458357276e+000	-9.9151313088e-001
 2.2301637275e+000	 1.9690085699e+000	-1.0507023834e+000
 2.2096715284e+000	 1.9919780964e+000	-1.0915920980e+000
 2.1889371809e+000	 2.0147404344e+000	-1.1151288433e+000
 2.1679638444e+000	 2.0372917733e+000	-1.1222742411e+000
 2.1467547572e+000	 2.0596283675e+000	-1.1140034991e+000
 2.1253132362e+000	 2.0817465379e+000	-1.0913039205e+000
 2.1036426740e+000	 2.1036426740e+000	-1.0551733939e+000
 2.3290595627e+000	 1.8908943792e+000	-6.8427331683e-001
 2.3094020889e+000	 1.9148529948e+000	-7.9940384634e-001
 2.2894885232e+000	 1.9386186582e+000	-8.9395489961e-001
 2.2693217148e+000	 1.9621872884e+000	-9.6884156425e-001
 2.2489045992e+000	 1.9855548604e+000	-1.0249980474e+000
 2.2282401967e+000	 2.0087174082e+000	-1.0633762613e+000
 2.2073316110e+000	 2.0316710262e+000	-1.0849443772e+000
 2.1861820279e+000	 2.0544118722e+000	-1.0906853487e+000
 2.1647947132e+000	 2.0769361689e+000	-1.0815954108e+000
 2.1431730113e+000	 2.0992402062e+000	-1.0586825543e+000
 2.1213203436e+000	 2.1213203435e+000	-1.0229649823e+000
 1.9445436483e+000	 1.9445436482e+000	-9.6834301707e-001
 1.9243035224e+000	 1.9645752604e+000	-1.0819604329e+000
 1.9038581548e+000	 1.9843951538e+000	-1.2299654269e+000
 1.8832108829e+000	 2.0040001923e+000	-1.4122686611e+000
 1.8623651074e+000	 2.0233873101e+000	-1.3889068761e+000
 1.8413242908e+000	 2.0425535136e+000	-1.2328565283e+000
 1.8200919554e+000	 2.0614958826e+000	-1.0982476622e+000
 1.7986716810e+000	 2.0802115719e+000	-9.8508788767e-001
 1.7770671034e+000	 2.0986978130e+000	-8.9334017486e-001
 1.7552819119e+000	 2.1169519149e+000	-8.2292246225e-001
 1.7333198476e+000	 2.1349712658e+000	-7.7370735519e-001
 1.9622213178e+000	 1.9622213178e+000	-1.0105226955e+000
 1.9417971908e+000	 1.9824350355e+000	-1.1018477401e+000
 1.9211659562e+000	 2.0024351097e+000	-1.2259023726e+000
 1.9003309818e+000	 2.0222183758e+000	-1.3826382541e+000
 1.8792956993e+000	 2.0417817402e+000	-1.5719701678e+000
 1.8580636026e+000	 2.0611221819e+000	-1.4681392961e+000
 1.8366382459e+000	 2.0802367542e+000	-1.3025333738e+000
 1.8150232417e+000	 2.0991225862e+000	-1.1569149438e+000
 1.7932222588e+000	 2.1177768840e+000	-1.0313014084e+000
 1.7712390202e+000	 2.1361969323e+000	-9.2566576881e-001
 1.7490773008e+000	 2.1543800955e+000	-8.3993625070e-001
 1.9798989873e+000	 1.9798989873e+000	-1.0447702327e+000
 1.9592908592e+000	 2.0002948105e+000	-1.1143656668e+000
 1.9384737576e+000	 2.0204750656e+000	-1.2150709630e+000
 1.9174510807e+000	 2.0404365594e+000	-1.3468787400e+000
 1.8962262912e+000	 2.0601761703e+000	-1.5097461512e+000
 1.8748029143e+000	 2.0796908502e+000	-1.6998000825e+000
 1.8531845364e+000	 2.0989776259e+000	-1.5039636802e+000
 1.8313748025e+000	 2.1180336005e+000	-1.3267002853e+000
 1.8093774143e+000	 2.1368559550e+000	-1.1680817126e+000
 1.7871961285e+000	 2.1554419497e+000	-1.0281359633e+000
 1.7648347539e+000	 2.1737889252e+000	-9.0684677899e-001
 1.9975766568e+000	 1.9975766568e+000	-1.0709942730e+000
 1.9767845275e+000	 2.0181545856e+000	-1.1194016691e+000
 1.9557815590e+000	 2.0385150216e+000	-1.1973365323e+000
 1.9345711797e+000	 2.0586547430e+000	-1.3048324102e+000
 1.9131568830e+000	 2.0785706004e+000	-1.4418887734e+000
 1.8915422260e+000	 2.0982595185e+000	-1.6084706422e+000
 1.8697308269e+000	 2.1177184976e+000	-1.7019386970e+000
 1.8477263632e+000	 2.1369446148e+000	-1.4938165720e+000
 1.8255325698e+000	 2.1559350260e+000	-1.3030256535e+000
 1.8031532367e+000	 2.1746869671e+000	-1.1296488986e+000
 1.7805922071e+000	 2.1931977549e+000	-9.7372547838e-001
 2.0152543264e+000	 2.0152543264e+000	-1.0891071410e+000
 1.9942781959e+000	 2.0360143607e+000	-1.1168475426e+000
 1.9730893604e+000	 2.0565549775e+000	-1.1725694458e+000
 1.9516912786e+000	 2.0768729265e+000	-1.2563473110e+000
 1.9300874749e+000	 2.0969650305e+000	-1.3682228871e+000
 1.9082815378e+000	 2.1168281868e+000	-1.5082047823e+000
 1.8862771174e+000	 2.1364593692e+000	-1.6762680824e+000
 1.8640779239e+000	 2.1558556291e+000	-1.6576454305e+000
 1.8416877253e+000	 2.1750140971e+000	-1.4354876439e+000
 1.8191103450e+000	 2.1939319845e+000	-1.2295311837e+000
 1.7963496603e+000	 2.2126065846e+000	-1.0398705822e+000
 2.0329319959e+000	 2.0329319959e+000	-1.0990246815e+000
 2.0117718643e+000	 2.0538741358e+000	-1.1065992338e+000
 1.9903971619e+000	 2.0745949335e+000	-1.1406448812e+000
 1.9688113775e+000	 2.0950911101e+000	-1.2012769941e+000
 1.9470180668e+000	 2.1153594606e+000	-1.2885795731e+000
 1.9250208495e+000	 2.1353968551e+000	-1.4026047651e+000
 1.9028234079e+000	 2.1552002409e+000	-1.5433724245e+000
 1.8804294847e+000	 2.1747666434e+000	-1.7108697224e+000
 1.8578428808e+000	 2.1940931681e+000	-1.5648315148e+000
 1.8350674533e+000	 2.2131770019e+000	-1.3271197163e+000
 1.8121071134e+000	 2.2320154143e+000	-1.1045915106e+000
 2.0506096654e+000	 2.0506096654e+000	-1.1006661080e+000
 2.0292655327e+000	 2.0717339109e+000	-1.0885566609e+000
 2.0077049633e+000	 2.0926348894e+000	-1.1014426214e+000
 1.9859314765e+000	 2.1133092937e+000	-1.1394802787e+000
 1.9639486587e+000	 2.1337538907e+000	-1.2027958719e+000
 1.9417601612e+000	 2.1539655234e+000	-1.2914850503e+000
 1.9193696984e+000	 2.1739411125e+000	-1.4056123780e+000
 1.8967810454e+000	 2.1936776577e+000	-1.5452108842e+000
 1.8739980363e+000	 2.2131722391e+000	-1.6904301103e+000
 1.8510245616e+000	 2.2324220193e+000	-1.4217612391e+000
 1.8278645666e+000	 2.2514242440e+000	-1.1672083878e+000
 2.0682873350e+000	 2.0682873350e+000	-1.0939538585e+000
 2.0467592011e+000	 2.0895936860e+000	-1.0626235443e+000
 2.0250127647e+000	 2.1106748454e+000	-1.0548468575e+000
 2.0030515754e+000	 2.1315274772e+000	-1.0708210268e+000
 1.9808792506e+000	 2.1521483208e+000	-1.1107145289e+000
 1.9584994730e+000	 2.1725341917e+000	-1.1746664925e+000
 1.9359159889e+000	 2.1926819842e+000	-1.2627861459e+000
 1.9131326061e+000	 2.2125886720e+000	-1.3751523083e+000
 1.8901531918e+000	 2.2322513102e+000	-1.5118129269e+000
 1.8669816699e+000	 2.2516670367e+000	-1.5128119189e+000
 1.8436220197e+000	 2.2708330737e+000	-1.2270515853e+000
 2.0859650045e+000	 2.0859650045e+000	-1.0788134591e+000
 2.0642528695e+000	 2.1074534611e+000	-1.0287072454e+000
 2.0423205661e+000	 2.1287148013e+000	-1.0007460017e+000
 2.0201716744e+000	 2.1497456608e+000	-9.9516792913e-001
 1.9978098425e+000	 2.1705427509e+000	-1.0121837529e+000
 1.9752387847e+000	 2.1911028601e+000	-1.0519760706e+000
 1.9524622794e+000	 2.2114228559e+000	-1.1146987422e+000
 1.9294841669e+000	 2.2314996862e+000	-1.2004763224e+000
 1.9063083472e+000	 2.2513303812e+000	-1.3094035378e+000
 1.8829387782e+000	 2.2709120541e+000	-1.4415448097e+000
 1.8593794729e+000	 2.2902419033e+000	-1.2834612872e+000
 2.1036426740e+000	 2.1036426740e+000	-1.0551733939e+000
 2.0817465379e+000	 2.1253132362e+000	-9.8671861356e-001
 2.0596283675e+000	 2.1467547572e+000	-9.3903251067e-001
 2.0372917733e+000	 2.1679638444e+000	-9.1239430270e-001
 2.0147404344e+000	 2.1889371809e+000	-9.0705698636e-001
 1.9919780964e+000	 2.2096715284e+000	-9.2324662999e-001
 1.9690085699e+000	 2.2301637275e+000	-9.6116170555e-001
 1.9458357276e+000	 2.2504107005e+000	-1.0209724620e+000
 1.9224635027e+000	 2.2704094522e+000	-1.1028203421e+000
 1.8988958865e+000	 2.2901570715e+000	-1.2068174436e+000
 1.8751369261e+000	 2.3096507330e+000	-1.3330460272e+000
 2.1213203436e+000	 2.1213203435e+000	-1.0229649823e+000
 2.0992402062e+000	 2.1431730113e+000	-9.3657184089e-001
 2.0769361689e+000	 2.1647947132e+000	-8.6960271644e-001
 2.0544118722e+000	 2.1861820279e+000	-8.2237789770e-001
 2.0316710262e+000	 2.2073316110e+000	-7.9519268750e-001
 2.0087174082e+000	 2.2282401967e+000	-7.8831663861e-001
 1.9855548604e+000	 2.2489045992e+000	-8.0199282781e-001
 1.9621872884e+000	 2.2693217148e+000	-8.3643716993e-001
 1.9386186582e+000	 2.2894885232e+000	-8.9183777396e-001
 1.9148529948e+000	 2.3094020889e+000	-9.6835434276e-001
 1.8908943792e+000	 2.3290595627e+000	-1.0661176183e+000
 1.7333198476e+000	 2.1349712658e+000	-7.7370735519e-001
 1.7111847011e+000	 2.1527533344e+000	-8.8755894611e-001
 1.6888803104e+000	 2.1702956705e+000	-9.8484798278e-001
 1.6664105584e+000	 2.1875959066e+000	-1.0660389200e+000
 1.6437793714e+000	 2.2046517589e+000	-1.1315837177e+000
 1.6209907162e+000	 2.2214610278e+000	-1.1819210344e+000
 1.5980485981e+000	 2.2380215991e+000	-1.2174754750e+000
 1.5749570586e+000	 2.2543314449e+000	-1.2386568952e+000
 1.5517201731e+000	 2.2703886241e+000	-1.2458597616e+000
 1.5283420488e+000	 2.2861912829e+000	-1.2394625697e+000
 1.5048268218e+000	 2.3017376559e+000	-1.2198273213e+000
 1.7490773008e+000	 2.1543800955e+000	-8.3993625070e-001
 1.7267409257e+000	 2.1723238192e+000	-9.3550924590e-001
 1.7042337677e+000	 2.1900256311e+000	-1.0179980064e+000
 1.6815597453e+000	 2.2074831422e+000	-1.0878334766e+000
 1.6587228203e+000	 2.2246940476e+000	-1.1454305000e+000
 1.6357269954e+000	 2.2416561281e+000	-1.1911870582e+000
 1.6125763126e+000	 2.2583672500e+000	-1.2254835698e+000
 1.5892748500e+000	 2.2748253672e+000	-1.2486822506e+000
 1.5658267202e+000	 2.2910285207e+000	-1.2611265351e+000
 1.5422360674e+000	 2.3069748400e+000	-1.2631405612e+000
 1.5185070657e+000	 2.3226625436e+000	-1.2550287176e+000
 1.7648347539e+000	 2.1737889252e+000	-9.0684677899e-001
 1.7422971502e+000	 2.1918943041e+000	-9.8288334540e-001
 1.7195872251e+000	 2.2097555918e+000	-1.0492780374e+000
 1.6967089322e+000	 2.2273703777e+000	-1.1064293317e+000
 1.6736662691e+000	 2.2447363364e+000	-1.1547160035e+000
 1.6504632747e+000	 2.2618512283e+000	-1.1944964105e+000
 1.6271040271e+000	 2.2787129009e+000	-1.2261078415e+000
 1.6035926415e+000	 2.2953192894e+000	-1.2498659313e+000
 1.5799332672e+000	 2.3116684172e+000	-1.2660641424e+000
 1.5561300860e+000	 2.3277583971e+000	-1.2749733147e+000
 1.5321873095e+000	 2.3435874314e+000	-1.2768412834e+000
 1.7805922071e+000	 2.1931977549e+000	-9.7372547838e-001
 1.7578533748e+000	 2.2114647889e+000	-1.0289978684e+000
 1.7349406825e+000	 2.2294855524e+000	-1.0780364125e+000
 1.7118581191e+000	 2.2472576132e+000	-1.1212081470e+000
 1.6886097179e+000	 2.2647786251e+000	-1.1588568112e+000
 1.6651995539e+000	 2.2820463286e+000	-1.1913021748e+000
 1.6416317417e+000	 2.2990585519e+000	-1.2188394348e+000
 1.6179104329e+000	 2.3158132116e+000	-1.2417386846e+000
 1.5940398142e+000	 2.3323083138e+000	-1.2602444544e+000
 1.5700241047e+000	 2.3485419542e+000	-1.2745753250e+000
 1.5458675533e+000	 2.3645123192e+000	-1.2849236147e+000
 1.7963496603e+000	 2.2126065846e+000	-1.0398705822e+000
 1.7734095994e+000	 2.2310352738e+000	-1.0731799967e+000
 1.7502941398e+000	 2.2492155131e+000	-1.1036308408e+000
 1.7270073060e+000	 2.2671448487e+000	-1.1315597233e+000
 1.7035531668e+000	 2.2848209138e+000	-1.1572763648e+000
 1.6799358332e+000	 2.3022414288e+000	-1.1810629660e+000
 1.6561594562e+000	 2.3194042028e+000	-1.2031736530e+000
 1.6322282244e+000	 2.3363071339e+000	-1.2238339987e+000
 1.6081463613e+000	 2.3529482104e+000	-1.2432406211e+000
 1.5839181233e+000	 2.3693255114e+000	-1.2615608604e+000
 1.5595477972e+000	 2.3854372070e+000	-1.2789325329e+000
 1.8121071134e+000	 2.2320154143e+000	-1.1045915106e+000
 1.7889658239e+000	 2.2506057587e+000	-1.1147670115e+000
 1.7656475972e+000	 2.2689454737e+000	-1.1254279967e+000
 1.7421564929e+000	 2.2870320842e+000	-1.1368816472e+000
 1.7184966156e+000	 2.3048632025e+000	-1.1494046664e+000
 1.6946721124e+000	 2.3224365291e+000	-1.1632426902e+000
 1.6706871707e+000	 2.3397498537e+000	-1.1786097775e+000
 1.6465460158e+000	 2.3568010561e+000	-1.1956879837e+000
 1.6222529083e+000	 2.3735881070e+000	-1.2146270162e+000
 1.5978121419e+000	 2.3901090685e+000	-1.2355439726e+000
 1.5732280410e+000	 2.4063620948e+000	-1.2585231624e+000
 1.8278645666e+000	 2.2514242440e+000	-1.1672083878e+000
 1.8045220485e+000	 2.2701762435e+000	-1.1531058576e+000
 1.7810010546e+000	 2.2886754343e+000	-1.1428031334e+000
 1.7573056798e+000	 2.3069193198e+000	-1.1365789548e+000
 1.7334400644e+000	 2.3249054912e+000	-1.1346779963e+000
 1.7094083916e+000	 2.3426316293e+000	-1.1373103168e+000
 1.6852148853e+000	 2.3600955046e+000	-1.1446508962e+000
 1.6608638072e+000	 2.3772949783e+000	-1.1568392585e+000
 1.6363594553e+000	 2.3942280036e+000	-1.1739791836e+000
 1.6117061606e+000	 2.4108926256e+000	-1.1961385063e+000
 1.5869082848e+000	 2.4272869826e+000	-1.2233490036e+000
 1.8436220197e+000	 2.2708330737e+000	-1.2270515853e+000
 1.8200782730e+000	 2.2897467284e+000	-1.1875527307e+000
 1.7963545119e+000	 2.3084053950e+000	-1.1551397162e+000
 1.7724548667e+000	 2.3268065553e+000	-1.1300638139e+000
 1.7483835133e+000	 2.3449477800e+000	-1.1125386438e+000
 1.7241446709e+000	 2.3628267296e+000	-1.1027396619e+000
 1.6997425998e+000	 2.3804411555e+000	-1.1008037411e+000
 1.6751815987e+000	 2.3977889005e+000	-1.1068288438e+000
 1.6504660024e+000	 2.4148679002e+000	-1.1208737883e+000
 1.6256001792e+000	 2.4316761827e+000	-1.1429581078e+000
 1.6005885287e+000	 2.4482118703e+000	-1.1730620022e+000
 1.8593794729e+000	 2.2902419033e+000	-1.2834612872e+000
 1.8356344976e+000	 2.3093172132e+000	-1.2174726853e+000
 1.8117079693e+000	 2.3281353556e+000	-1.1618290747e+000
 1.7876040536e+000	 2.3466937908e+000	-1.1167552217e+000
 1.7633269621e+000	 2.3649900687e+000	-1.0824346533e+000
 1.7388809501e+000	 2.3830218298e+000	-1.0590091828e+000
 1.7142703143e+000	 2.4007868064e+000	-1.0465785335e+000
 1.6894993901e+000	 2.4182828228e+000	-1.0452000600e+000
 1.6645725494e+000	 2.4355077967e+000	-1.0548885682e+000
 1.6394941978e+000	 2.4524597398e+000	-1.0756162333e+000
 1.6142687725e+000	 2.4691367581e+000	-1.1073126153e+000
 1.8751369261e+000	 2.3096507330e+000	-1.3330460272e+000
 1.8511907221e+000	 2.3288876981e+000	-1.2422392627e+000
 1.8270614267e+000	 2.3478653163e+000	-1.1622700721e+000
 1.8027532405e+000	 2.3665810263e+000	-1.0960787176e+000
 1.7782704109e+000	 2.3850323574e+000	-1.0438195823e+000
 1.7536172294e+000	 2.4032169301e+000	-1.0056017833e+000
 1.7287980288e+000	 2.4211324573e+000	-9.8148883760e-001
 1.7038171816e+000	 2.4387767450e+000	-9.7149843074e-001
 1.6786790964e+000	 2.4561476933e+000	-9.7560228939e-001
 1.6533882164e+000	 2.4732432969e+000	-9.9372615722e-001
 1.6279490163e+000	 2.4900616459e+000	-1.0257498737e+000
 1.8908943792e+000	 2.3290595627e+000	-1.0661176183e+000
 1.8667469467e+000	 2.3484581830e+000	-1.2612341369e+000
 1.8424148840e+000	 2.3675952769e+000	-1.1558687915e+000
 1.8179024274e+000	 2.3864682618e+000	-1.0674661109e+000
 1.7932138597e+000	 2.4050746461e+000	-9.9615227152e-001
 1.7683535086e+000	 2.4234120303e+000	-9.4200462827e-001
 1.7433257434e+000	 2.4414781082e+000	-9.0505142132e-001
 1.7181349730e+000	 2.4592706672e+000	-8.8527159122e-001
 1.6927856434e+000	 2.4767875899e+000	-8.8259470312e-001
 1.6672822350e+000	 2.4940268541e+000	-8.9690097961e-001
 1.6416292602e+000	 2.5109865337e+000	-9.2189047774e-001
 1.5048268218e+000	 2.3017376559e+000	-1.2198273213e+000
 1.4811786555e+000	 2.3170260660e+000	-1.0993324768e+000
 1.4574017375e+000	 2.3320549255e+000	-9.9671834781e-001
 1.4335002780e+000	 2.3468227357e+000	-9.1169980838e-001
 1.4094785070e+000	 2.3613280878e+000	-8.4394818647e-001
 1.3853406719e+000	 2.3755696628e+000	-7.9309190104e-001
 1.3610910354e+000	 2.3895462317e+000	-7.5871718317e-001
 1.3367338731e+000	 2.4032566556e+000	-7.4036887864e-001
 1.3122734711e+000	 2.4166998856e+000	-7.3755132946e-001
 1.2877141236e+000	 2.4298749630e+000	-7.4972933161e-001
 1.2630601309e+000	 2.4427810188e+000	-7.7632916612e-001
 1.5185070657e+000	 2.3226625436e+000	-1.2550287176e+000
 1.4946439160e+000	 2.3380899394e+000	-1.1344371501e+000
 1.4706508442e+000	 2.3532554248e+000	-1.0271872567e+000
 1.4465320987e+000	 2.3681574879e+000	-9.3315391264e-001
 1.4222919480e+000	 2.3827947068e+000	-8.5217081935e-001
 1.3979346780e+000	 2.3971657507e+000	-7.8403095044e-001
 1.3734645903e+000	 2.4112693793e+000	-7.2848708118e-001
 1.3488859992e+000	 2.4251044434e+000	-6.8525239959e-001
 1.3242032299e+000	 2.4386698846e+000	-6.5400119683e-001
 1.2994206156e+000	 2.4519647354e+000	-6.3436963449e-001
 1.2745424957e+000	 2.4649881190e+000	-6.2595658611e-001
 1.5321873095e+000	 2.3435874314e+000	-1.2768412834e+000
 1.5081091765e+000	 2.3591538127e+000	-1.1601916624e+000
 1.4838999509e+000	 2.3744559242e+000	-1.0524488628e+000
 1.4595639195e+000	 2.3894922400e+000	-9.5364566129e-001
 1.4351053889e+000	 2.4042613258e+000	-8.6377596506e-001
 1.4105286841e+000	 2.4187618385e+000	-7.8279506904e-001
 1.3858381451e+000	 2.4329925268e+000	-7.1061999620e-001
 1.3610381253e+000	 2.4469522311e+000	-6.4712991963e-001
 1.3361329887e+000	 2.4606398835e+000	-5.9216666436e-001
 1.3111271077e+000	 2.4740545078e+000	-5.4553528671e-001
 1.2860248606e+000	 2.4871952191e+000	-5.0700472902e-001
 1.5458675533e+000	 2.3645123192e+000	-1.2849236147e+000
 1.5215744370e+000	 2.3802176860e+000	-1.1761512604e+000
 1.4971490576e+000	 2.3956564235e+000	-1.0719530533e+000
 1.4725957402e+000	 2.4108269922e+000	-9.7251762957e-001
 1.4479188299e+000	 2.4257279448e+000	-8.7799699388e-001
 1.4231226902e+000	 2.4403579264e+000	-7.8850658911e-001
 1.3982117000e+000	 2.4547156744e+000	-7.0412545010e-001
 1.3731902515e+000	 2.4688000189e+000	-6.2489643913e-001
 1.3480627476e+000	 2.4826098825e+000	-5.5082656159e-001
 1.3228335997e+000	 2.4961442802e+000	-4.8188736000e-001
 1.2975072254e+000	 2.5094023193e+000	-4.1556567857e-001
 1.5595477972e+000	 2.3854372070e+000	-1.2789325329e+000
 1.5350396975e+000	 2.4012815594e+000	-1.1818730521e+000
 1.5103981643e+000	 2.4168569228e+000	-1.0851552912e+000
 1.4856275609e+000	 2.4321617443e+000	-9.8912176159e-001
 1.4607322709e+000	 2.4471945638e+000	-8.9408051377e-001
 1.4357166963e+000	 2.4619540142e+000	-8.0030502316e-001
 1.4105852549e+000	 2.4764388219e+000	-7.0803415920e-001
 1.3853423776e+000	 2.4906478067e+000	-6.1747223655e-001
 1.3599925064e+000	 2.5045798815e+000	-5.2764354403e-001
 1.3345400917e+000	 2.5182340526e+000	-4.3346582380e-001
 1.3089895902e+000	 2.5316094195e+000	-3.3534166213e-001
 1.5732280410e+000	 2.4063620948e+000	-1.2585231624e+000
 1.5485049580e+000	 2.4223454327e+000	-1.1769159249e+000
 1.5236472710e+000	 2.4380574221e+000	-1.0915163731e+000
 1.4986593816e+000	 2.4534964965e+000	-1.0028189629e+000
 1.4735457119e+000	 2.4686611827e+000	-9.1128579477e-001
 1.4483107024e+000	 2.4835501020e+000	-8.1734631698e-001
 1.4229588097e+000	 2.4981619695e+000	-7.2139711277e-001
 1.3974945037e+000	 2.5124955945e+000	-6.1836873988e-001
 1.3719222652e+000	 2.5265498804e+000	-5.0725136077e-001
 1.3462465838e+000	 2.5403238250e+000	-3.8872958460e-001
 1.3204719550e+000	 2.5538165197e+000	-2.6309571648e-001
 1.5869082848e+000	 2.4272869826e+000	-1.2233490036e+000
 1.5619702185e+000	 2.4434093060e+000	-1.1608404696e+000
 1.5368963777e+000	 2.4592579215e+000	-1.0905021990e+000
 1.5116912023e+000	 2.4748312486e+000	-1.0129787144e+000
 1.4863591528e+000	 2.4901278017e+000	-9.2888422328e-001
 1.4609047085e+000	 2.5051461899e+000	-8.3690991982e-001
 1.4353323646e+000	 2.5198851171e+000	-7.3142707713e-001
 1.4096466298e+000	 2.5343433823e+000	-6.1433584666e-001
 1.3838520240e+000	 2.5485198794e+000	-4.8610391350e-001
 1.3579530758e+000	 2.5624135974e+000	-3.4719554281e-001
 1.3319543199e+000	 2.5760236198e+000	-1.9807092174e-001
 1.6005885287e+000	 2.4482118703e+000	-1.1730620022e+000
 1.5754354790e+000	 2.4644731793e+000	-1.1332089074e+000
 1.5501454844e+000	 2.4804584208e+000	-1.0815835545e+000
 1.5247230230e+000	 2.4961660007e+000	-1.0189787056e+000
 1.4991725938e+000	 2.5115944207e+000	-9.4032114195e-001
 1.4734987146e+000	 2.5267422777e+000	-8.4419533385e-001
 1.4477059195e+000	 2.5416082646e+000	-7.3229593264e-001
 1.4217987559e+000	 2.5561911700e+000	-6.0525245717e-001
 1.3957817829e+000	 2.5704898784e+000	-4.6369415902e-001
 1.3696595678e+000	 2.5845033698e+000	-3.0824915862e-001
 1.3434366847e+000	 2.5982307200e+000	-1.3954358584e-001
 1.6142687725e+000	 2.4691367581e+000	-1.1073126153e+000
 1.5889007395e+000	 2.4855370527e+000	-1.0935850210e+000
 1.5633945911e+000	 2.5016589201e+000	-1.0635877585e+000
 1.5377548437e+000	 2.5175007529e+000	-1.0093862671e+000
 1.5119860348e+000	 2.5330610397e+000	-9.3421934994e-001
 1.4860927207e+000	 2.5483383656e+000	-8.3886619892e-001
 1.4600794743e+000	 2.5633314122e+000	-7.2411032972e-001
 1.4339508820e+000	 2.5780389578e+000	-5.9073852008e-001
 1.4077115417e+000	 2.5924598773e+000	-4.3953974654e-001
 1.3813660599e+000	 2.6065931422e+000	-2.7130412205e-001
 1.3549190495e+000	 2.6204378202e+000	-8.6821836619e-002
 1.6279490163e+000	 2.4900616459e+000	-1.0257498737e+000
 1.6023660000e+000	 2.5066009260e+000	-1.0383406099e+000
 1.5766436978e+000	 2.5228594194e+000	-1.0216530089e+000
 1.5507866644e+000	 2.5388355050e+000	-9.7921104622e-001
 1.5247994757e+000	 2.5545276587e+000	-9.1193552867e-001
 1.4986867268e+000	 2.5699344534e+000	-8.2075566898e-001
 1.4724530292e+000	 2.5850545598e+000	-7.0660783659e-001
 1.4461030082e+000	 2.5998867456e+000	-5.7043430245e-001
 1.4196413005e+000	 2.6144298763e+000	-4.1318198020e-001
 1.3930725519e+000	 2.6286829145e+000	-2.3580116676e-001
 1.3664014143e+000	 2.6426449203e+000	-3.9244284774e-002
 1.6416292602e+000	 2.5109865337e+000	-9.2189047774e-001
 1.6158312605e+000	 2.5276647993e+000	-9.5484652184e-001
 1.5898928045e+000	 2.5440599187e+000	-9.5704690582e-001
 1.5638184851e+000	 2.5601702572e+000	-9.2954496008e-001
 1.5376129167e+000	 2.5759942776e+000	-8.7340684670e-001
 1.5112807329e+000	 2.5915305413e+000	-7.8971013203e-001
 1.4848265841e+000	 2.6067777073e+000	-6.7954234768e-001
 1.4582551343e+000	 2.6217345334e+000	-5.4399954322e-001
 1.4315710593e+000	 2.6363998752e+000	-3.8418483344e-001
 1.4047790439e+000	 2.6507726869e+000	-2.0120694333e-001
 1.3778837792e+000	 2.6648520205e+000	 3.8212461947e-003
 1.2630601309e+000	 2.4427810188e+000	-7.7632916612e-001
 1.2383157968e+000	 2.4554172736e+000	-1.1070045275e+000
 1.2134854263e+000	 2.4677830375e+000	-1.0714114010e+000
 1.1885733238e+000	 2.4798777095e+000	-1.0311796457e+000
 1.1635837903e+000	 2.4917007772e+000	-9.8483219924e-001
 1.1385211215e+000	 2.5032518163e+000	-9.3353702948e-001
 1.1133896056e+000	 2.5145304902e+000	-8.8221098323e-001
 1.0881935211e+000	 2.5255365491e+000	-8.2600497412e-001
 1.0629371346e+000	 2.5362698295e+000	-7.6595087141e-001
 1.0376246991e+000	 2.5467302535e+000	-7.0298096929e-001
 1.0122604513e+000	 2.5569178279e+000	-6.3792909965e-001
 1.2745424957e+000	 2.4649881190e+000	-6.2595658611e-001
 1.2495732131e+000	 2.4777392488e+000	-1.2564093236e+000
 1.2245171120e+000	 2.4902174287e+000	-1.1977617757e+000
 1.1993785358e+000	 2.5024220523e+000	-1.1368939969e+000
 1.1741618247e+000	 2.5143526024e+000	-1.0731571602e+000
 1.1488713135e+000	 2.5260086510e+000	-1.0051236189e+000
 1.1235113293e+000	 2.5373898583e+000	-9.3392321883e-001
 1.0980861894e+000	 2.5484959723e+000	-8.6058093797e-001
 1.0726001995e+000	 2.5593268279e+000	-7.8601775073e-001
 1.0470576509e+000	 2.5698823467e+000	-7.1105171095e-001
 1.0214628190e+000	 2.5801625355e+000	-6.3639924567e-001
 1.2860248606e+000	 2.4871952191e+000	-5.0700472902e-001
 1.2608306294e+000	 2.5000612240e+000	-1.1281305112e+000
 1.2355487977e+000	 2.5126518200e+000	-1.3532760534e+000
 1.2101837479e+000	 2.5249663951e+000	-1.2634228827e+000
 1.1847398592e+000	 2.5370044277e+000	-1.1711151102e+000
 1.1592215055e+000	 2.5487654857e+000	-1.0774898375e+000
 1.1336330529e+000	 2.5602492264e+000	-9.8357471812e-001
 1.1079788578e+000	 2.5714553954e+000	-8.9028876250e-001
 1.0822632644e+000	 2.5823838264e+000	-7.9844337481e-001
 1.0564906027e+000	 2.5930344399e+000	-7.0874361261e-001
 1.0306651868e+000	 2.6034072430e+000	-6.2178966195e-001
 1.2975072254e+000	 2.5094023193e+000	-4.1556567857e-001
 1.2720880458e+000	 2.5223831993e+000	-1.0040177079e+000
 1.2465804834e+000	 2.5350862112e+000	-1.5189051415e+000
 1.2209889599e+000	 2.5475107379e+000	-1.3945675840e+000
 1.1953178937e+000	 2.5596562529e+000	-1.2708829399e+000
 1.1695716975e+000	 2.5715223204e+000	-1.1488915776e+000
 1.1437547766e+000	 2.5831085945e+000	-1.0295203943e+000
 1.1178715262e+000	 2.5944148186e+000	-9.1358378791e-001
 1.0919263292e+000	 2.6054408248e+000	-8.0178486528e-001
 1.0659235545e+000	 2.6161865331e+000	-6.9471687965e-001
 1.0398675545e+000	 2.6266519505e+000	-5.9286488701e-001
 1.3089895902e+000	 2.5316094195e+000	-3.3534166213e-001
 1.2833454621e+000	 2.5447051745e+000	-8.8551832372e-001
 1.2576121691e+000	 2.5575206025e+000	-1.4652638220e+000
 1.2317941719e+000	 2.5700550807e+000	-1.5284192145e+000
 1.2058959281e+000	 2.5823080782e+000	-1.3706447453e+000
 1.1799218895e+000	 2.5942791551e+000	-1.2176074014e+000
 1.1538765003e+000	 2.6059679626e+000	-1.0701347119e+000
 1.1277641945e+000	 2.6173742418e+000	-9.2893776733e-001
 1.1015893941e+000	 2.6284978233e+000	-7.9461260096e-001
 1.0753565063e+000	 2.6393386263e+000	-6.6764180275e-001
 1.0490699223e+000	 2.6498966580e+000	-5.4839635818e-001
 1.3204719550e+000	 2.5538165197e+000	-2.6309571648e-001
 1.2946028784e+000	 2.5670271497e+000	-7.7191701711e-001
 1.2686438548e+000	 2.5799549938e+000	-1.3128444099e+000
 1.2425993840e+000	 2.5925994236e+000	-1.6630964778e+000
 1.2164739626e+000	 2.6049599034e+000	-1.4686092703e+000
 1.1902720815e+000	 2.6170359898e+000	-1.2819375556e+000
 1.1639982240e+000	 2.6288273307e+000	-1.1038108361e+000
 1.1376568629e+000	 2.6403336650e+000	-9.3483815323e-001
 1.1112524589e+000	 2.6515548217e+000	-7.7550964140e-001
 1.0847894581e+000	 2.6624907195e+000	-6.2619831938e-001
 1.0582722900e+000	 2.6731413656e+000	-4.8716211167e-001
 1.3319543199e+000	 2.5760236198e+000	-1.9807092174e-001
 1.3058602948e+000	 2.5893491249e+000	-6.6253041181e-001
 1.2796755405e+000	 2.6023893850e+000	-1.1616085916e+000
 1.2534045960e+000	 2.6151437664e+000	-1.6945421456e+000
 1.2270519970e+000	 2.6276117287e+000	-1.5630088445e+000
 1.2006222736e+000	 2.6397928245e+000	-1.3402030367e+000
 1.1741199477e+000	 2.6516866988e+000	-1.1289598272e+000
 1.1475495313e+000	 2.6632930881e+000	-9.2978742072e-001
 1.1209155238e+000	 2.6746118202e+000	-7.4307118036e-001
 1.0942224100e+000	 2.6856428127e+000	-5.6907559798e-001
 1.0674746577e+000	 2.6963860731e+000	-4.0794649810e-001
 1.3434366847e+000	 2.5982307200e+000	-1.3954358584e-001
 1.3171177111e+000	 2.6116711001e+000	-5.5670573071e-001
 1.2907072262e+000	 2.6248237763e+000	-1.0109750737e+000
 1.2642098080e+000	 2.6376881092e+000	-1.5014835814e+000
 1.2376300315e+000	 2.6502635539e+000	-1.6520983748e+000
 1.2109724656e+000	 2.6625496592e+000	-1.3907447039e+000
 1.1842416714e+000	 2.6745460669e+000	-1.1440098759e+000
 1.1574421997e+000	 2.6862525113e+000	-9.1230242553e-001
 1.1305785886e+000	 2.6976688186e+000	-6.9590402721e-001
 1.1036553618e+000	 2.7087949060e+000	-4.9497164350e-001
 1.0766770255e+000	 2.7196307806e+000	-3.0953991271e-001
 1.3549190495e+000	 2.6204378202e+000	-8.6821836619e-002
 1.3283751274e+000	 2.6339930753e+000	-4.5381949935e-001
 1.3017389119e+000	 2.6472581675e+000	-8.6038932561e-001
 1.2750150201e+000	 2.6602324520e+000	-1.3055601517e+000
 1.2482080659e+000	 2.6729153792e+000	-1.7341543893e+000
 1.2213226576e+000	 2.6853064939e+000	-1.4319224381e+000
 1.1943633951e+000	 2.6974054350e+000	-1.1474055770e+000
 1.1673348680e+000	 2.7092119345e+000	-8.8091379470e-001
 1.1402416535e+000	 2.7207258171e+000	-6.3262611474e-001
 1.1130883136e+000	 2.7319469992e+000	-4.0259292292e-001
 1.0858793932e+000	 2.7428754882e+000	-1.9073853916e-001
 1.3664014143e+000	 2.6426449203e+000	-3.9244284774e-002
 1.3396325438e+000	 2.6563150506e+000	-3.5327631466e-001
 1.3127705976e+000	 2.6696925588e+000	-7.0932245518e-001
 1.2858202321e+000	 2.6827767948e+000	-1.1063099676e+000
 1.2587861004e+000	 2.6955672044e+000	-1.5431306269e+000
 1.2316728496e+000	 2.7080633286e+000	-1.4621143419e+000
 1.2044851188e+000	 2.7202648031e+000	-1.1376072404e+000
 1.1772275364e+000	 2.7321713577e+000	-8.3416534794e-001
 1.1499047184e+000	 2.7437828155e+000	-5.5186603183e-001
 1.1225212654e+000	 2.7550990924e+000	-2.9065400978e-001
 1.0950817609e+000	 2.7661201957e+000	-5.0344106378e-002
 1.3778837792e+000	 2.6648520205e+000	 3.8212461947e-003
 1.3508899601e+000	 2.6786370258e+000	-2.5450767538e-001
 1.3238022833e+000	 2.6921269500e+000	-5.5727014027e-001
 1.2966254442e+000	 2.7053211376e+000	-9.0329335942e-001
 1.2693641349e+000	 2.7182190297e+000	-1.2913682029e+000
 1.2420230416e+000	 2.7308201633e+000	-1.4797159810e+000
 1.2146068424e+000	 2.7431241712e+000	-1.1130902365e+000
 1.1871202048e+000	 2.7551307808e+000	-7.7061354792e-001
 1.1595677832e+000	 2.7668398140e+000	-4.5226257942e-001
 1.1319542172e+000	 2.7782511856e+000	-1.5787724632e-001
 1.1042841287e+000	 2.7893649032e+000	 1.1283634253e-001
 1.0122604513e+000	 2.5569178279e+000	-6.3792909965e-001
 9.8684861017e-001	 2.5668326437e+000	-6.6470021778e-001
 9.6139337463e-001	 2.5764748746e+000	-6.6687945592e-001
 9.3589892178e-001	 2.5858447765e+000	-6.4530936713e-001
 9.1036940492e-001	 2.5949426866e+000	-6.0075674270e-001
 8.8480895173e-001	 2.6037690218e+000	-5.3391408962e-001
 8.5922166244e-001	 2.6123242783e+000	-4.4540125227e-001
 8.3361160807e-001	 2.6206090298e+000	-3.3576716991e-001
 8.0798282872e-001	 2.6286239268e+000	-2.0549176129e-001
 7.8233933189e-001	 2.6363696952e+000	-5.4987927724e-002
 7.5668509084e-001	 2.6438471350e+000	 1.1539633423e-001
 1.0214628190e+000	 2.5801625355e+000	-6.3639924567e-001
 9.9581996117e-001	 2.5901674859e+000	-6.6101335849e-001
 9.7013331440e-001	 2.5998973734e+000	-6.6149152806e-001
 9.4440709380e-001	 2.6093524563e+000	-6.3868279291e-001
 9.1864549042e-001	 2.6185330746e+000	-5.9335791853e-001
 8.9285266947e-001	 2.6274396493e+000	-5.2621093638e-001
 8.6703276845e-001	 2.6360726808e+000	-4.3786083114e-001
 8.4118989541e-001	 2.6444327482e+000	-3.2885336753e-001
 8.1532812716e-001	 2.6525205080e+000	-1.9966304792e-001
 7.8945150763e-001	 2.6603366925e+000	-5.0695191537e-002
 7.6356404620e-001	 2.6678821090e+000	 1.1771187366e-001
 1.0306651868e+000	 2.6034072430e+000	-6.2178966195e-001
 1.0047913122e+000	 2.6135023281e+000	-6.4521950279e-001
 9.7887325417e-001	 2.6233198723e+000	-6.4503131149e-001
 9.5291526581e-001	 2.6328601361e+000	-6.2207975823e-001
 9.2692157592e-001	 2.6421234627e+000	-5.7713865603e-001
 9.0089638721e-001	 2.6511102768e+000	-5.1090256354e-001
 8.7484387447e-001	 2.6598210833e+000	-4.2398854037e-001
 8.4876818275e-001	 2.6682564667e+000	-3.1693804583e-001
 8.2267342560e-001	 2.6764170891e+000	-1.9021897207e-001
 7.9656368337e-001	 2.6843036897e+000	-4.4227802128e-002
 7.7044300157e-001	 2.6919170830e+000	 1.2070811626e-001
 1.0398675545e+000	 2.6266519505e+000	-5.9286488701e-001
 1.0137626632e+000	 2.6368371703e+000	-6.1609219125e-001
 9.8761319394e-001	 2.6467423712e+000	-6.1628187456e-001
 9.6142343782e-001	 2.6563678159e+000	-5.9429337750e-001
 9.3519766141e-001	 2.6657138508e+000	-5.5090262563e-001
 9.0894010495e-001	 2.6747809043e+000	-4.8680369872e-001
 8.8265498049e-001	 2.6835694859e+000	-4.0261065653e-001
 8.5634647009e-001	 2.6920801852e+000	-2.9885951208e-001
 8.3001872403e-001	 2.7003136703e+000	-1.7601034288e-001
 8.0367585911e-001	 2.7082706869e+000	-3.4449530600e-002
 7.7732195694e-001	 2.7159520569e+000	 1.2550788042e-001
 1.0490699223e+000	 2.6498966580e+000	-5.4839635818e-001
 1.0227340142e+000	 2.6601720126e+000	-5.7241205058e-001
 9.9635313370e-001	 2.6701648700e+000	-5.7403356928e-001
 9.6993160984e-001	 2.6798754957e+000	-5.5412425606e-001
 9.4347374691e-001	 2.6893042388e+000	-5.1346120579e-001
 9.1698382269e-001	 2.6984515317e+000	-4.5273700427e-001
 8.9046608651e-001	 2.7073178884e+000	-3.7256162702e-001
 8.6392475744e-001	 2.7159039036e+000	-2.7346448968e-001
 8.3736402247e-001	 2.7242102514e+000	-1.5589664002e-001
 8.1078803485e-001	 2.7322376842e+000	-2.0233081943e-002
 7.8420091230e-001	 2.7399870309e+000	 1.3322477860e-001
 1.0582722900e+000	 2.6731413656e+000	-4.8716211167e-001
 1.0317053652e+000	 2.6835068548e+000	-5.1296648564e-001
 1.0050930735e+000	 2.6935873689e+000	-5.1708371458e-001
 9.7843978185e-001	 2.7033831755e+000	-5.0038016456e-001
 9.5174983241e-001	 2.7128946269e+000	-4.6363314793e-001
 9.2502754043e-001	 2.7221221592e+000	-4.0753273226e-001
 8.9827719253e-001	 2.7310662909e+000	-3.3268371476e-001
 8.7150304478e-001	 2.7397276221e+000	-2.3960775225e-001
 8.4470932091e-001	 2.7481068326e+000	-1.2874563678e-001
 8.1790021059e-001	 2.7562046814e+000	-4.5970660666e-004
 7.9107986767e-001	 2.7640220048e+000	 1.4496361756e-001
 1.0674746577e+000	 2.6963860731e+000	-4.0794649810e-001
 1.0406767162e+000	 2.7068416970e+000	-4.3654938720e-001
 1.0138330132e+000	 2.7170098677e+000	-4.4423629604e-001
 9.8694795386e-001	 2.7268908553e+000	-4.3187573004e-001
 9.6002591790e-001	 2.7364850150e+000	-4.0024425854e-001
 9.3307125817e-001	 2.7457927867e+000	-3.5002839737e-001
 9.0608829855e-001	 2.7548146935e+000	-2.8182666137e-001
 8.7908133212e-001	 2.7635513405e+000	-1.9615177667e-001
 8.5205461935e-001	 2.7720034137e+000	-9.3433042525e-002
 8.2501238633e-001	 2.7801716786e+000	 2.5981167841e-002
 7.9795882304e-001	 2.7880569788e+000	 1.6182077798e-001
 1.0766770255e+000	 2.7196307806e+000	-3.0953991271e-001
 1.0496480672e+000	 2.7301765392e+000	-3.4196085480e-001
 1.0225729530e+000	 2.7404323666e+000	-3.5430168101e-001
 9.9545612588e-001	 2.7503985350e+000	-3.4743214297e-001
 9.6830200340e-001	 2.7600754030e+000	-3.2212709775e-001
 9.4111497591e-001	 2.7694634141e+000	-2.7906846647e-001
 9.1389940457e-001	 2.7785630960e+000	-2.1884736751e-001
 8.8665961946e-001	 2.7873750590e+000	-1.4196641382e-001
 8.5939991779e-001	 2.7958999949e+000	-4.8842163597e-002
 8.3212456207e-001	 2.8041386758e+000	 6.0192286161e-002
 8.0483777841e-001	 2.8120919527e+000	 1.8488457449e-001
 1.0858793932e+000	 2.7428754882e+000	-1.9073853916e-001
 1.0586194182e+000	 2.7535113814e+000	-2.2800693365e-001
 1.0313128928e+000	 2.7638548655e+000	-2.4609634815e-001
 1.0039642979e+000	 2.7739062148e+000	-2.4587687913e-001
 9.7657808889e-001	 2.7836657911e+000	-2.2812069313e-001
 9.4915869365e-001	 2.7931340416e+000	-1.9350406407e-001
 9.2171051058e-001	 2.8023114985e+000	-1.4260958962e-001
 8.9423790680e-001	 2.8111987774e+000	-7.5928576181e-002
 8.6674521623e-001	 2.8197965760e+000	 6.1364186308e-003
 8.3923673781e-001	 2.8281056731e+000	 1.0326889713e-001
 8.1171673377e-001	 2.8361269267e+000	 2.1523559744e-001
 1.0950817609e+000	 2.7661201957e+000	-5.0344106378e-002
 1.0675907692e+000	 2.7768462236e+000	-9.3499364833e-002
 1.0400528325e+000	 2.7872773643e+000	-1.1844263070e-001
 1.0124724699e+000	 2.7974138946e+000	-1.2604343548e-001
 9.8485417439e-001	 2.8072561791e+000	-1.1707026798e-001
 9.5720241139e-001	 2.8168046691e+000	-9.2192692596e-002
 9.2952161660e-001	 2.8260599011e+000	-5.1983651748e-002
 9.0181619415e-001	 2.8350224959e+000	 3.0780588898e-003
 8.7409051467e-001	 2.8436931572e+000	 7.2605153405e-002
 8.4634891355e-001	 2.8520726703e+000	 1.5629906848e-001
 8.1859568914e-001	 2.8601619006e+000	 2.5394703754e-001
 1.1042841287e+000	 2.7893649032e+000	 1.1283634253e-001
 1.0765621202e+000	 2.8001810658e+000	 6.2744652044e-002
 1.0487927723e+000	 2.8106998632e+000	 2.9831527497e-002
 1.0209806419e+000	 2.8209215744e+000	 1.3228920637e-002
 9.9313025989e-001	 2.8308465672e+000	 1.2173016897e-002
 9.6524612913e-001	 2.8404752965e+000	 2.6002033386e-002
 9.3733272262e-001	 2.8498083036e+000	 5.4153828000e-002
 9.0939448149e-001	 2.8588462143e+000	 9.6163331045e-002
 8.8143581311e-001	 2.8675897383e+000	 1.5165981099e-001
 8.5346108929e-001	 2.8760396675e+000	 2.2036398613e-001
 8.2547464451e-001	 2.8841968746e+000	 3.0208499407e-001
 7.5668509084e-001	 2.6438471350e+000	 1.1539633423e-001
 7.3102404304e-001	 2.6510571191e+000	-1.2931238889e-001
 7.0536008863e-001	 2.6580005917e+000	-3.9509090028e-001
 6.7969708895e-001	 2.6646785674e+000	-6.8178682584e-001
 6.5403886512e-001	 2.6710921293e+000	-9.8916346466e-001
 6.2838919664e-001	 2.6772424279e+000	-1.3169031035e+000
 6.0275182011e-001	 2.6831306796e+000	-1.1013864899e+000
 5.7713042797e-001	 2.6887581649e+000	-7.9075583605e-001
 5.5152866722e-001	 2.6941262274e+000	-4.6457177634e-001
 5.2595013834e-001	 2.6992362720e+000	-1.1897299573e-001
 5.0039839415e-001	 2.7040897632e+000	 2.4939908431e-001
 7.6356404620e-001	 2.6678821090e+000	 1.1771187366e-001
 7.3766971615e-001	 2.6751576384e+000	-1.3101807089e-001
 7.1177245307e-001	 2.6821642335e+000	-4.0522179825e-001
 6.8587615339e-001	 2.6889029180e+000	-7.0448124163e-001
 6.5998467298e-001	 2.6953747850e+000	-1.0282925103e+000
 6.3410182569e-001	 2.7015809954e+000	-1.3760695391e+000
 6.0823138211e-001	 2.7075227766e+000	-1.2797270863e+000
 5.8237706822e-001	 2.7132014209e+000	-9.1946232598e-001
 5.5654256419e-001	 2.7186182841e+000	-5.3757390289e-001
 5.3073150323e-001	 2.7237747836e+000	-1.2972979473e-001
 5.0494747046e-001	 2.7286723974e+000	 3.0787724420e-001
 7.7044300157e-001	 2.6919170830e+000	 1.2070811626e-001
 7.4431538927e-001	 2.6992581576e+000	-1.2666553872e-001
 7.1818481751e-001	 2.7063278752e+000	-4.0391250972e-001
 6.9205521784e-001	 2.7131272686e+000	-7.1035098584e-001
 6.6593048084e-001	 2.7196574407e+000	-1.0452117782e+000
 6.3981445475e-001	 2.7259195630e+000	-1.4076423053e+000
 6.1371094411e-001	 2.7319148737e+000	-1.4548640864e+000
 5.8762370847e-001	 2.7376446770e+000	-1.0440452622e+000
 5.6155646116e-001	 2.7431103407e+000	-6.0524624207e-001
 5.3551286813e-001	 2.7483132951e+000	-1.3365914185e-001
 5.0949654677e-001	 2.7532550316e+000	 3.7497664955e-001
 7.7732195694e-001	 2.7159520569e+000	 1.2550788042e-001
 7.5096106238e-001	 2.7233586769e+000	-1.1532962634e-001
 7.2459718195e-001	 2.7304915169e+000	-3.9043740293e-001
 6.9823428228e-001	 2.7373516192e+000	-6.9887173935e-001
 6.7187628870e-001	 2.7439400964e+000	-1.0395999367e+000
 6.4552708381e-001	 2.7502581305e+000	-1.4115046283e+000
 6.1919050611e-001	 2.7563069708e+000	-1.6243761837e+000
 5.9287034872e-001	 2.7620879330e+000	-1.1624438288e+000
 5.6657035814e-001	 2.7676023973e+000	-6.6588601678e-001
 5.4029423302e-001	 2.7728518067e+000	-1.2941364510e-001
 5.1404562308e-001	 2.7778376658e+000	 4.5169215612e-001
 7.8420091230e-001	 2.7399870309e+000	 1.3322477860e-001
 7.5760673550e-001	 2.7474591962e+000	-9.6088204922e-002
 7.3100954638e-001	 2.7546551587e+000	-3.6406767183e-001
 7.0441334672e-001	 2.7615759698e+000	-6.6950975742e-001
 6.7782209656e-001	 2.7682227522e+000	-1.0111199400e+000
 6.5123971286e-001	 2.7745966980e+000	-1.3875176983e+000
 6.2467006810e-001	 2.7806990679e+000	-1.7858136829e+000
 5.9811698897e-001	 2.7865311891e+000	-1.2725624405e+000
 5.7158425511e-001	 2.7920944539e+000	-7.1774927422e-001
 5.4507559791e-001	 2.7973903183e+000	-1.1559830863e-001
 5.1859469938e-001	 2.8024203000e+000	 5.3907267103e-001
 7.9107986767e-001	 2.7640220048e+000	 1.4496361756e-001
 7.6425240861e-001	 2.7715597154e+000	-6.8022050794e-002
 7.3742191082e-001	 2.7788188004e+000	-3.2407147407e-001
 7.1059241116e-001	 2.7858003204e+000	-6.2172227942e-001
 6.8376790442e-001	 2.7925054079e+000	-9.5941971177e-001
 6.5695234192e-001	 2.7989352655e+000	-1.3355216281e+000
 6.3014963010e-001	 2.8050911650e+000	-1.7483035478e+000
 6.0336362922e-001	 2.8109744451e+000	-1.3722722537e+000
 5.7659815208e-001	 2.8165865105e+000	-7.5905267618e-001
 5.4985696280e-001	 2.8219288298e+000	-9.0772602483e-002
 5.2314377569e-001	 2.8270029342e+000	 6.3821880270e-001
 7.9795882304e-001	 2.7880569788e+000	 1.6182077798e-001
 7.7089808172e-001	 2.7956602347e+000	-3.0214720217e-002
 7.4383427526e-001	 2.8029824422e+000	-2.6971406186e-001
 7.1677147560e-001	 2.8100246711e+000	-5.5495791754e-001
 6.8971371228e-001	 2.8167880636e+000	-8.8413279297e-001
 6.6266497097e-001	 2.8232738331e+000	-1.2553363607e+000
 6.3562919210e-001	 2.8294832621e+000	-1.6665828449e+000
 6.0861026947e-001	 2.8354177012e+000	-1.4594126005e+000
 5.8161204905e-001	 2.8410785671e+000	-7.8797519667e-001
 5.5463832770e-001	 2.8464673414e+000	-5.3452425247e-002
 5.2769285200e-001	 2.8515855684e+000	 7.5028063231e-001
 8.0483777841e-001	 2.8120919527e+000	 1.8488457449e-001
 7.7754375484e-001	 2.8197607539e+000	 1.8247569415e-002
 7.5024663970e-001	 2.8271460839e+000	-2.0025790615e-001
 7.2295054004e-001	 2.8342490217e+000	-4.6865702540e-001
 6.9565952014e-001	 2.8410707193e+000	-7.8487895646e-001
 6.6837760003e-001	 2.8476124006e+000	-1.1467625324e+000
 6.4110875410e-001	 2.8538753591e+000	-1.5520619706e+000
 6.1385690972e-001	 2.8598609572e+000	-1.5317923487e+000
 5.8662594603e-001	 2.8655706237e+000	-8.0265973248e-001
 5.5941969259e-001	 2.8710058529e+000	-2.1119661017e-003
 5.3224192831e-001	 2.8761682026e+000	 8.7645559964e-001
 8.1171673377e-001	 2.8361269267e+000	 2.1523559744e-001
 7.8418942795e-001	 2.8438612732e+000	 7.8276052332e-002
 7.5665900413e-001	 2.8513097256e+000	-1.1496281447e-001
 7.2912960448e-001	 2.8584733723e+000	-3.6225204802e-001
 7.0160532800e-001	 2.8653533750e+000	-6.6126479041e-001
 6.7409022909e-001	 2.8719509681e+000	-1.0095822899e+000
 6.4658831609e-001	 2.8782674562e+000	-1.4046999557e+000
 6.1910354998e-001	 2.8843042132e+000	-1.5871911925e+000
 5.9163984300e-001	 2.8900626803e+000	-8.0121463191e-001
 5.6420105748e-001	 2.8955443645e+000	 6.4814527840e-002
 5.3679100462e-001	 2.9007508368e+000	 1.0179864963e+000
 8.1859568914e-001	 2.8601619006e+000	 2.5394703754e-001
 7.9083510107e-001	 2.8679617925e+000	 1.5077952147e-001
 7.6307136857e-001	 2.8754733674e+000	-1.3086042840e-002
 7.3530866892e-001	 2.8826977229e+000	-2.3516785412e-001
 7.0755113586e-001	 2.8896360307e+000	-5.1288425227e-001
 6.7980285814e-001	 2.8962895356e+000	-8.4356006760e-001
 6.5206787809e-001	 2.9026595533e+000	-1.2244330123e+000
 6.2435019023e-001	 2.9087474693e+000	-1.6233608782e+000
 5.9665373997e-001	 2.9145547369e+000	-7.8171514640e-001
 5.6898242237e-001	 2.9200828761e+000	 1.4893107329e-001
 5.4134008093e-001	 2.9253334710e+000	 1.1761595602e+000
 8.2547464451e-001	 2.8841968746e+000	 3.0208499407e-001
 7.9748077418e-001	 2.8920623117e+000	 2.3666443017e-001
 7.6948373301e-001	 2.8996370091e+000	 1.0611759790e-001
 7.4148773336e-001	 2.9069220735e+000	-8.6822051755e-002
 7.1349694372e-001	 2.9139186865e+000	-3.3931919506e-001
 6.8551548720e-001	 2.9206281031e+000	-6.4844332575e-001
 6.5754744009e-001	 2.9270516504e+000	-1.0111754842e+000
 6.2959683048e-001	 2.9331907253e+000	-1.4244150100e+000
 6.0166763694e-001	 2.9390467935e+000	-7.4220480952e-001
 5.7376378727e-001	 2.9446213876e+000	 2.5187835648e-001
 5.4588915724e-001	 2.9499161052e+000	 1.3523026653e+000
 5.0039839415e-001	 2.7040897632e+000	 2.4939908431e-001
 4.7487693873e-001	 2.7086882237e+000	 1.1645424251e-001
 4.4938922647e-001	 2.7130332330e+000	 1.4709343948e-002
 4.2393866111e-001	 2.7171264254e+000	-5.5730019953e-002
 3.9852859482e-001	 2.7209694888e+000	-9.5231790244e-002
 3.7316232739e-001	 2.7245641628e+000	-1.0463300897e-001
 3.4784310545e-001	 2.7279122372e+000	-8.5234393285e-002
 3.2257412170e-001	 2.7310155503e+000	-3.8793953313e-002
 2.9735851428e-001	 2.7338759873e+000	 3.2480306706e-002
 2.7219936608e-001	 2.7364954787e+000	 1.2593856287e-001
 2.4709970424e-001	 2.7388759987e+000	 2.3849817957e-001
 5.0494747046e-001	 2.7286723974e+000	 3.0787724420e-001
 4.7919400181e-001	 2.7333126621e+000	 1.7970129650e-001
 4.5347458308e-001	 2.7376971715e+000	 7.5706486772e-002
 4.2779264894e-001	 2.7418275747e+000	-3.6437220968e-003
 4.0215158205e-001	 2.7457055751e+000	-5.8368735108e-002
 3.7655471219e-001	 2.7493329280e+000	-8.8966725620e-002
 3.5100531550e-001	 2.7527114394e+000	-9.6409508070e-002
 3.2550661372e-001	 2.7558429644e+000	-8.2136421519e-002
 3.0006177350e-001	 2.7587294054e+000	-4.8047264239e-002
 2.7467390578e-001	 2.7613727104e+000	 3.5056790198e-003
 2.4934606519e-001	 2.7637748714e+000	 6.9726474184e-002
 5.0949654677e-001	 2.7532550316e+000	 3.7497664955e-001
 4.8351106489e-001	 2.7579371005e+000	 2.4825227672e-001
 4.5755993968e-001	 2.7623611099e+000	 1.3927810441e-001
 4.3164663677e-001	 2.7665287241e+000	 4.8878357056e-002
 4.0577456927e-001	 2.7704416614e+000	-2.2615553913e-002
 3.7994709699e-001	 2.7741016931e+000	-7.5361256842e-002
 3.5416752555e-001	 2.7775106416e+000	-1.1000058465e-001
 3.2843910574e-001	 2.7806703785e+000	-1.2765371674e-001
 3.0276503272e-001	 2.7835828235e+000	-1.2991233889e-001
 2.7714844547e-001	 2.7862499420e+000	-1.1883186342e-001
 2.5159242613e-001	 2.7886737441e+000	-9.6922753218e-002
 5.1404562308e-001	 2.7778376658e+000	 4.5169215612e-001
 4.8782812797e-001	 2.7825615389e+000	 3.2289620836e-001
 4.6164529629e-001	 2.7870250484e+000	 2.0600307985e-001
 4.3550062460e-001	 2.7912298734e+000	 1.0220083460e-001
 4.0939755650e-001	 2.7951777476e+000	 1.2174166394e-002
 3.8333948178e-001	 2.7988704582e+000	-6.3892148748e-002
 3.5732973560e-001	 2.8023098437e+000	-1.2630870302e-001
 3.3137159775e-001	 2.8054977926e+000	-1.7587584991e-001
 3.0546829194e-001	 2.8084362415e+000	-2.1387708138e-001
 2.7962298516e-001	 2.8111271736e+000	-2.4207143215e-001
 2.5383878708e-001	 2.8135726168e+000	-2.6268495549e-001
 5.1859469938e-001	 2.8024203000e+000	 5.3907267103e-001
 4.9214519105e-001	 2.8071859773e+000	 4.0447759095e-001
 4.6573065289e-001	 2.8116889869e+000	 2.7651747142e-001
 4.3935461243e-001	 2.8159310227e+000	 1.5674747878e-001
 4.1302054373e-001	 2.8199138339e+000	 4.6208237313e-002
 3.8673186658e-001	 2.8236392233e+000	-5.4571033622e-002
 3.6049194565e-001	 2.8271090459e+000	-1.4556824939e-001
 3.3430408977e-001	 2.8303252067e+000	-2.2726309722e-001
 3.0817155116e-001	 2.8332896596e+000	-3.0063062281e-001
 2.8209752485e-001	 2.8360044052e+000	-3.6713381004e-001
 2.5608514803e-001	 2.8384714896e+000	-4.2871519923e-001
 5.2314377569e-001	 2.8270029342e+000	 6.3821880270e-001
 4.9646225412e-001	 2.8318104157e+000	 4.9389398645e-001
 4.6981600950e-001	 2.8363529254e+000	 3.5151202695e-001
 4.4320860026e-001	 2.8406321720e+000	 2.1299863723e-001
 4.1664353095e-001	 2.8446499202e+000	 7.9753199287e-002
 3.9012425137e-001	 2.8484079884e+000	-4.7348408779e-002
 3.6365415570e-001	 2.8519082480e+000	-1.6794981585e-001
 3.3723658179e-001	 2.8551526208e+000	-2.8220903198e-001
 3.1087481039e-001	 2.8581430777e+000	-3.9079223653e-001
 2.8457206455e-001	 2.8608816369e+000	-4.9486652493e-001
 2.5833150898e-001	 2.8633703623e+000	-5.9609165987e-001
 5.2769285200e-001	 2.8515855684e+000	 7.5028063231e-001
 5.0077931720e-001	 2.8564348541e+000	 5.9209373212e-001
 4.7390136610e-001	 2.8610168639e+000	 4.3172982643e-001
 4.4706258809e-001	 2.8653333213e+000	 2.7148879814e-001
 4.2026651818e-001	 2.8693860064e+000	 1.1313179029e-001
 3.9351663617e-001	 2.8731767535e+000	-4.2116271690e-002
 3.6681636576e-001	 2.8767074502e+000	-1.9356295019e-001
 3.4016907380e-001	 2.8799800349e+000	-3.4104339979e-001
 3.1357806961e-001	 2.8829964957e+000	-4.8491434934e-001
 2.8704660424e-001	 2.8857588685e+000	-6.2604700712e-001
 2.6057786993e-001	 2.8882692350e+000	-7.6581893592e-001
 5.3224192831e-001	 2.8761682026e+000	 8.7645559964e-001
 5.0509638028e-001	 2.8810592925e+000	 7.0007377057e-001
 4.7798672271e-001	 2.8856808023e+000	 5.1796404562e-001
 4.5091657592e-001	 2.8900344707e+000	 3.3280427665e-001
 4.2388950541e-001	 2.8941220927e+000	 1.4672054421e-001
 3.9690902097e-001	 2.8979455187e+000	-3.8710619978e-002
 3.6997857581e-001	 2.9015066523e+000	-2.2245876456e-001
 3.4310156582e-001	 2.9048074490e+000	-4.0403484622e-001
 3.1628132883e-001	 2.9078499138e+000	-5.8348539812e-001
 2.8952114393e-001	 2.9106361001e+000	-7.6138558505e-001
 2.6282423087e-001	 2.9131681077e+000	-9.3883119330e-001
 5.3679100462e-001	 2.9007508368e+000	 1.0179864963e+000
 5.0941344336e-001	 2.9056837309e+000	 8.1887759028e-001
 4.8207207931e-001	 2.9103447408e+000	 6.1105583332e-001
 4.5477056375e-001	 2.9147356200e+000	 3.9758101870e-001
 4.2751249264e-001	 2.9188581789e+000	 1.8094751139e-001
 4.0030140576e-001	 2.9227142838e+000	-3.6913824289e-002
 3.7314078586e-001	 2.9263058545e+000	-2.5463241160e-001
 3.4603405784e-001	 2.9296348631e+000	-4.7139350579e-001
 3.1898458805e-001	 2.9327033318e+000	-6.8693254127e-001
 2.9199568362e-001	 2.9355133317e+000	-9.0152832854e-001
 2.6507059182e-001	 2.9380669804e+000	-1.1159951497e+000
 5.4134008093e-001	 2.9253334710e+000	 1.1761595602e+000
 5.1373050644e-001	 2.9303081693e+000	 9.4959326983e-001
 4.8615743592e-001	 2.9350086793e+000	 7.1189229574e-001
 4.5862455157e-001	 2.9394367693e+000	 4.6650251577e-001
 4.3113547986e-001	 2.9435942652e+000	 2.1629009403e-001
 4.0369379056e-001	 2.9474830489e+000	-3.6456881533e-002
 3.7630299591e-001	 2.9511050566e+000	-2.9002543568e-001
 3.4896654985e-001	 2.9544622771e+000	-5.4327346041e-001
 3.2168784727e-001	 2.9575567499e+000	-7.9562423347e-001
 2.9447022332e-001	 2.9603905634e+000	-1.0470597488e+000
 2.6731695277e-001	 2.9629658531e+000	-1.2981129088e+000
 5.4588915724e-001	 2.9499161052e+000	 1.3523026653e+000
 5.1804756952e-001	 2.9549326076e+000	 1.0933516200e+000
 4.9024279252e-001	 2.9596726178e+000	 8.2140458155e-001
 4.6247853940e-001	 2.9641379186e+000	 5.4029782380e-001
 4.3475846709e-001	 2.9683303514e+000	 2.5327298989e-001
 4.0708617535e-001	 2.9722518140e+000	-3.7021555450e-002
 3.7946520596e-001	 2.9759042588e+000	-3.2852800656e-001
 3.5189904187e-001	 2.9792896912e+000	-6.1977507490e-001
 3.2439110650e-001	 2.9824101680e+000	-9.0987267161e-001
 2.9694476301e-001	 2.9852677950e+000	-1.1985053633e+000
 2.6956331372e-001	 2.9878647258e+000	-1.4859246520e+000
 2.4709970424e-001	 2.7388759987e+000	 2.3849817957e-001
 2.2206249953e-001	 2.7410195633e+000	 3.8775237625e-001
 1.9709066597e-001	 2.7429282290e+000	 5.5391858695e-001
 1.7218706031e-001	 2.7446040910e+000	 7.3440200041e-001
 1.4735448172e-001	 2.7460492816e+000	 9.2617797388e-001
 1.2259567143e-001	 2.7472659684e+000	 1.1258038863e+000
 9.7913312455e-002	 2.7482563533e+000	 1.3294316208e+000
 7.3310029335e-002	 2.7490226699e+000	 1.5328206286e+000
 4.8788387970e-002	 2.7495671829e+000	 1.7313515297e+000
 2.4350895461e-002	 2.7498921859e+000	 1.9200402005e+000
 0.0000000000e+000	 2.7500000000e+000	 2.0935523048e+000
 2.4934606519e-001	 2.7637748714e+000	 6.9726474184e-002
 2.2408124953e-001	 2.7659379230e+000	 2.2695785130e-001
 1.9888239929e-001	 2.7678639402e+000	 3.9760659268e-001
 1.7375239722e-001	 2.7695550373e+000	 5.7891306455e-001
 1.4869406792e-001	 2.7710133659e+000	 7.6768469711e-001
 1.2371017754e-001	 2.7722411136e+000	 9.6030800826e-001
 9.8803433477e-002	 2.7732405019e+000	 1.1527612675e+000
 7.3976484146e-002	 2.7740137851e+000	 1.3406277523e+000
 4.9231918770e-002	 2.7745632482e+000	 1.5191095493e+000
 2.4572267237e-002	 2.7748912057e+000	 1.6830418526e+000
 0.0000000000e+000	 2.7750000000e+000	 1.8269077120e+000
 2.5159242613e-001	 2.7886737441e+000	-9.6922753218e-002
 2.2609999953e-001	 2.7908562826e+000	 5.5709410957e-002
 2.0067413262e-001	 2.7927996513e+000	 2.1889238266e-001
 1.7531773413e-001	 2.7945059836e+000	 3.8970435240e-001
 1.5003365411e-001	 2.7959774503e+000	 5.6478684142e-001
 1.2482468364e-001	 2.7972162588e+000	 7.4035690650e-001
 9.9693554498e-002	 2.7982246506e+000	 9.1221999667e-001
 7.4642938958e-002	 2.7990049003e+000	 1.0757834133e+000
 4.9675449569e-002	 2.7995593135e+000	 1.2260703252e+000
 2.4793639014e-002	 2.7998902256e+000	 1.3577342892e+000
 0.0000000000e+000	 2.8000000000e+000	 1.4650742300e+000
 2.5383878708e-001	 2.8135726168e+000	-2.6268495549e-001
 2.2811874952e-001	 2.8157746423e+000	-1.2706576404e-001
 2.0246586595e-001	 2.8177353625e+000	 1.6862211257e-002
 1.7688307104e-001	 2.8194569298e+000	 1.6601764505e-001
 1.5137324031e-001	 2.8209415347e+000	 3.1687818035e-001
 1.2593918974e-001	 2.8221914039e+000	 4.6549282492e-001
 1.0058367552e-001	 2.8232087993e+000	 6.0749501208e-001
 7.5309393769e-002	 2.8239960154e+000	 7.3811627632e-001
 5.0118980368e-002	 2.8245553788e+000	 8.5220049435e-001
 2.5015010790e-002	 2.8248892455e+000	 9.4421864187e-001
 0.0000000000e+000	 2.8250000000e+000	 1.0082840172e+000
 2.5608514803e-001	 2.8384714896e+000	-4.2871519923e-001
 2.3013749952e-001	 2.8406930020e+000	-3.2237021523e-001
 2.0425759927e-001	 2.8426710737e+000	-2.0933722095e-001
 1.7844840795e-001	 2.8444078761e+000	-9.2854383709e-002
 1.5271282651e-001	 2.8459056191e+000	 2.3394105456e-002
 1.2705369585e-001	 2.8471665491e+000	 1.3529063030e-001
 1.0147379654e-001	 2.8481929479e+000	 2.3829742540e-001
 7.5975848581e-002	 2.8489871306e+000	 3.2747047920e-001
 5.0562511167e-002	 2.8495514441e+000	 3.9747401348e-001
 2.5236382567e-002	 2.8498882654e+000	 4.4259548884e-001
 0.0000000000e+000	 2.8500000000e+000	 4.5676108623e-001
 2.5833150898e-001	 2.8633703623e+000	-5.9609165987e-001
 2.3215624951e-001	 2.8656113616e+000	-5.3113926195e-001
 2.0604933260e-001	 2.8676067849e+000	-4.6050139527e-001
 1.8001374486e-001	 2.8693588224e+000	-3.8757038011e-001
 1.5405241270e-001	 2.8708697034e+000	-3.1619018311e-001
 1.2816820195e-001	 2.8721416943e+000	-2.5064360601e-001
 1.0236391756e-001	 2.8731770966e+000	-1.9563878318e-001
 7.6642303392e-002	 2.8739782458e+000	-1.5629503941e-001
 5.1006041966e-002	 2.8745475094e+000	-1.3812815949e-001
 2.5457754343e-002	 2.8748872852e+000	-1.4703512113e-001
 0.0000000000e+000	 2.8750000000e+000	-1.8927834217e-001
 2.6057786993e-001	 2.8882692350e+000	-7.6581893592e-001
 2.3417499951e-001	 2.8905297213e+000	-7.5424389887e-001
 2.0784106593e-001	 2.8925424960e+000	-7.3737046704e-001
 1.8157908178e-001	 2.8943097687e+000	-7.1874240872e-001
 1.5539199890e-001	 2.8958337878e+000	-7.0236139256e-001
 1.2928270805e-001	 2.8971168394e+000	-6.9267395313e-001
 1.0325403858e-001	 2.8981612453e+000	-6.9455775074e-001
 7.7308758203e-002	 2.8989693610e+000	-7.1330717817e-001
 5.1449572765e-002	 2.8995435747e+000	-7.5461836701e-001
 2.5679126120e-002	 2.8998863051e+000	-8.2457364589e-001
 0.0000000000e+000	 2.9000000000e+000	-9.2962550304e-001
 2.6282423087e-001	 2.9131681077e+000	-9.3883119330e-001
 2.3619374951e-001	 2.9154480810e+000	-9.9249354490e-001
 2.0963279925e-001	 2.9174782072e+000	-1.0406316300e+000
 1.8314441869e-001	 2.9192607150e+000	-1.0869379431e+000
 1.5673158510e-001	 2.9207978722e+000	-1.1355697653e+000
 1.3039721416e-001	 2.9220919846e+000	-1.1911358967e+000
 1.0414415961e-001	 2.9231453939e+000	-1.2586826667e+000
 7.7975213015e-002	 2.9239604762e+000	-1.3436792783e+000
 5.1893103565e-002	 2.9245396400e+000	-1.4520025383e+000
 2.5900497897e-002	 2.9248853250e+000	-1.5899210282e+000
 0.0000000000e+000	 2.9250000000e+000	-1.7640787687e+000
 2.6507059182e-001	 2.9380669804e+000	-1.1159951497e+000
 2.3821249950e-001	 2.9403664406e+000	-1.2466386523e+000
 2.1142453258e-001	 2.9424139184e+000	-1.3709213605e+000
 1.8470975560e-001	 2.9442116612e+000	-1.4926817551e+000
 1.5807117129e-001	 2.9457619566e+000	-1.6162306241e+000
 1.3151172026e-001	 2.9470671298e+000	-1.7463375500e+000
 1.0503428063e-001	 2.9481295426e+000	-1.8882166605e+000
 7.8641667826e-002	 2.9489515913e+000	-2.0475116979e+000
 5.2336634364e-002	 2.9495357053e+000	-2.2302804609e+000
 2.6121869673e-002	 2.9498843448e+000	-2.4429786754e+000
 0.0000000000e+000	 2.9500000000e+000	-2.6924433464e+000
 2.6731695277e-001	 2.9629658531e+000	-1.2981129088e+000
 2.4023124950e-001	 2.9652848003e+000	-1.5173731845e+000
 2.1321626591e-001	 2.9673496295e+000	-1.7288275484e+000
 1.8627509251e-001	 2.9691626075e+000	-1.9364577095e+000
 1.5941075749e-001	 2.9707260410e+000	-2.1447258393e+000
 1.3262622636e-001	 2.9720422749e+000	-2.3585608041e+000
 1.0592440165e-001	 2.9731136913e+000	-2.5833436445e+000
 7.9308122638e-002	 2.9739427065e+000	-2.8248923577e+000
 5.2780165163e-002	 2.9745317706e+000	-3.0894460391e+000
 2.6343241450e-002	 2.9748833647e+000	-3.3836484393e+000
 0.0000000000e+000	 2.9750000000e+000	-3.7145309908e+000
 2.6956331372e-001	 2.9878647258e+000	-1.4859246520e+000
 2.4224999949e-001	 2.9902031599e+000	-1.8053369692e+000
 2.1500799923e-001	 2.9922853407e+000	-2.1148915213e+000
 1.8784042942e-001	 2.9941135538e+000	-2.4187104678e+000
 1.6075034369e-001	 2.9956901253e+000	-2.7214052226e+000
 1.3374073246e-001	 2.9970174201e+000	-3.0280624206e+000
 1.0681452267e-001	 2.9980978399e+000	-3.3442291146e+000
 7.9974577449e-002	 2.9989338217e+000	-3.6758972591e+000
 5.3223695962e-002	 2.9995278359e+000	-4.0294875388e+000
 2.6564613226e-002	 2.9998823846e+000	-4.4118325986e+000
 0.0000000000e+000	 3.0000000000e+000	-4.8301597318e+000
 3.0000000000e+000	 0.0000000000e+000	 4.8030341314e+000
 2.9998823846e+000	 2.6564613226e-002	 4.4934713550e+000
 2.9995278359e+000	 5.3223695962e-002	 4.2061912350e+000
 2.9989338217e+000	 7.9974577449e-002	 3.9376181986e+000
 2.9980978399e+000	 1.0681452267e-001	 3.6844899798e+000
 2.9970174201e+000	 1.3374073246e-001	 3.4438721805e+000
 2.9956901253e+000	 1.6075034369e-001	 3.2131725371e+000
 2.9941135538e+000	 1.8784042942e-001	 2.9901548499e+000
 2.9922853407e+000	 2.1500799923e-001	 2.7729525313e+000
 2.9902031599e+000	 2.4224999949e-001	 2.5600817271e+000
 2.9878647258e+000	 2.6956331372e-001	 2.3504539664e+000
 3.0250000000e+000	 0.0000000000e+000	 2.8182784152e+000
 3.0248814045e+000	 2.6785985003e-002	 2.6857962876e+000
 3.0245239012e+000	 5.3667226761e-002	 2.5677031412e+000
 3.0239249369e+000	 8.0641032261e-002	 2.4603198509e+000
 3.0230819886e+000	 1.0770464369e-001	 2.3602934637e+000
 3.0219925653e+000	 1.3485523857e-001	 2.2646122214e+000
 3.0206542097e+000	 1.6208992988e-001	 2.1706202780e+000
 3.0190645001e+000	 1.8940576633e-001	 2.0760320682e+000
 3.0172210519e+000	 2.1679973256e-001	 1.9789462803e+000
 3.0151215196e+000	 2.4426874949e-001	 1.8778593879e+000
 3.0127635985e+000	 2.7180967467e-001	 1.7716786935e+000
 3.0500000000e+000	 0.0000000000e+000	 8.1772600328e-001
 3.0498804243e+000	 2.7007356780e-002	 8.6673610361e-001
 3.0495199665e+000	 5.4110757560e-002	 9.2197911692e-001
 3.0489160521e+000	 8.1307487072e-002	 9.7966837251e-001
 3.0480661373e+000	 1.0859476471e-001	 1.0363564956e+000
 3.0469677104e+000	 1.3596974467e-001	 1.0889509017e+000
 3.0456182941e+000	 1.6342951608e-001	 1.1347289759e+000
 3.0440154464e+000	 1.9097110324e-001	 1.1713528896e+000
 3.0421567631e+000	 2.1859146589e-001	 1.1968840087e+000
 3.0400398793e+000	 2.4628749948e-001	 1.2097968455e+000
 3.0376624713e+000	 2.7405603562e-001	 1.2089925056e+000
 3.0750000000e+000	 0.0000000000e+000	-1.1980494159e+000
 3.0748794442e+000	 2.7228728556e-002	-9.6319139945e-001
 3.0745160318e+000	 5.4554288360e-002	-7.3052184094e-001
 3.0739071672e+000	 8.1973941883e-002	-5.0393895553e-001
 3.0730502859e+000	 1.0948488573e-001	-2.8698827777e-001
 3.0719428556e+000	 1.3708425077e-001	-8.2846684102e-002
 3.0705823785e+000	 1.6476910228e-001	 1.0569325773e-001
 3.0689663926e+000	 1.9253644015e-001	 2.7623856478e-001
 3.0670924742e+000	 2.2038319921e-001	 4.2681069222e-001
 3.0649582389e+000	 2.4830624948e-001	 5.5585991483e-001
 3.0625613440e+000	 2.7630239656e-001	 6.6227918707e-001
 3.1000000000e+000	 0.0000000000e+000	-3.2284926599e+000
 3.0998784641e+000	 2.7450100333e-002	-2.8034853608e+000
 3.0995120971e+000	 5.4997819159e-002	-2.3893561081e+000
 3.0988982824e+000	 8.2640396694e-002	-1.9901186671e+000
 3.0980344346e+000	 1.1037500676e-001	-1.6094204734e+000
 3.0969180008e+000	 1.3819875688e-001	-1.2505261623e+000
 3.0955464628e+000	 1.6610868847e-001	-9.1630143525e-001
 3.0939173389e+000	 1.9410177707e-001	-6.0919731498e-001
 3.0920281854e+000	 2.2217493254e-001	-3.3123483652e-001
 3.0898765986e+000	 2.5032499947e-001	-8.3990226216e-002
 3.0874602167e+000	 2.7854875751e-001	 1.3141938101e-001
 3.1250000000e+000	 0.0000000000e+000	-5.2730663123e+000
 3.1248774839e+000	 2.7671472109e-002	-4.6536611788e+000
 3.1245081624e+000	 5.5441349958e-002	-4.0540948180e+000
 3.1238893976e+000	 8.3306851506e-002	-3.4785005582e+000
 3.1230185833e+000	 1.1126512778e-001	-2.9306314820e+000
 3.1218931460e+000	 1.3931326298e-001	-2.4138434511e+000
 3.1205105472e+000	 1.6744827467e-001	-1.9310784801e+000
 3.1188682852e+000	 1.9566711398e-001	-1.4848485116e+000
 3.1169638966e+000	 2.2396666586e-001	-1.0772196420e+000
 3.1147949583e+000	 2.5234374947e-001	-7.0979685082e-001
 3.1123590894e+000	 2.8079511845e-001	-3.8370928532e-001
 3.1500000000e+000	 0.0000000000e+000	-3.3445227079e+000
 3.1498765038e+000	 2.7892843886e-002	-2.9108496747e+000
 3.1495042277e+000	 5.5884880757e-002	-2.5190971796e+000
 3.1488805128e+000	 8.3973306317e-002	-2.1638909887e+000
 3.1480027319e+000	 1.1215524880e-001	-1.8403298243e+000
 3.1468682911e+000	 1.4042776908e-001	-1.5440088079e+000
 3.1454746316e+000	 1.6878786087e-001	-1.2710425742e+000
 3.1438192315e+000	 1.9723245089e-001	-1.0180879917e+000
 3.1418996077e+000	 2.2575839919e-001	-7.8236642597e-001
 3.1397133179e+000	 2.5436249946e-001	-5.6168547716e-001
 3.1372579621e+000	 2.8304147940e-001	-3.5446012617e-001
 3.1750000000e+000	 0.0000000000e+000	-1.4288476442e+000
 3.1748755237e+000	 2.8114215663e-002	-1.1649778025e+000
 3.1745002930e+000	 5.6328411556e-002	-9.3591603320e-001
 3.1738716280e+000	 8.4639761128e-002	-7.3604044764e-001
 3.1729868806e+000	 1.1304536982e-001	-5.6021599685e-001
 3.1718434363e+000	 1.4154227518e-001	-4.0381861421e-001
 3.1704387160e+000	 1.7012744706e-001	-2.6275902190e-001
 3.1687701778e+000	 1.9879778780e-001	-1.3350613537e-001
 3.1668353189e+000	 2.2755013251e-001	-1.3109998623e-002
 3.1646316776e+000	 2.5638124945e-001	 1.0077581773e-001
 3.1621568348e+000	 2.8528784035e-001	 2.0987242509e-001
 3.2000000000e+000	 0.0000000000e+000	 4.7444709650e-001
 3.1998745436e+000	 2.8335587439e-002	 5.6663451990e-001
 3.1994963583e+000	 5.6771942355e-002	 6.3139204934e-001
 3.1988627432e+000	 8.5306215939e-002	 6.7459279352e-001
 3.1979710292e+000	 1.1393549084e-001	 7.0160883293e-001
 3.1968185815e+000	 1.4265678129e-001	 7.1728636488e-001
 3.1954028003e+000	 1.7146703326e-001	 7.2592119242e-001
 3.1937211241e+000	 2.0036312471e-001	 7.3123462473e-001
 3.1917710301e+000	 2.2934186584e-001	 7.3634985754e-001
 3.1895500373e+000	 2.5839999945e-001	 7.4376890390e-001
 3.1870557075e+000	 2.8753420129e-001	 7.5535014629e-001
 3.2250000000e+000	 0.0000000000e+000	 2.3658345932e+000
 3.2248735634e+000	 2.8556959216e-002	 2.2844092876e+000
 3.2244924236e+000	 5.7215473154e-002	 2.1832016541e+000
 3.2238538583e+000	 8.5972670750e-002	 2.0683396457e+000
 3.2229551779e+000	 1.1482561186e-001	 1.9454356900e+000
 3.2217937266e+000	 1.4377128739e-001	 1.8195611103e+000
 3.2203668847e+000	 1.7280661945e-001	 1.6952208975e+000
 3.2186720703e+000	 2.0192846161e-001	 1.5763289032e+000
 3.2167067413e+000	 2.3113359916e-001	 1.4661835247e+000
 3.2144683969e+000	 2.6041874944e-001	 1.3674439525e+000
 3.2119545803e+000	 2.8978056223e-001	 1.2821070553e+000
 3.2500000000e+000	 0.0000000000e+000	 4.2457733688e+000
 3.2498725833e+000	 2.8778330992e-002	 3.9887551738e+000
 3.2494884889e+000	 5.7659003953e-002	 3.7198752757e+000
 3.2488449735e+000	 8.6639125561e-002	 3.4455201534e+000
 3.2479393266e+000	 1.1571573288e-001	 3.1715459527e+000
 3.2467688718e+000	 1.4488579349e-001	 2.9032521704e+000
 3.2453309691e+000	 1.7414620565e-001	 2.6453556967e+000
 3.2436230166e+000	 2.0349379852e-001	 2.4019652900e+000
 3.2416424524e+000	 2.3292533249e-001	 2.1765565530e+000
 3.2393867566e+000	 2.6243749943e-001	 1.9719474874e+000
 3.2368534530e+000	 2.9202692318e-001	 1.7902746992e+000
 2.9878647258e+000	 2.6956331372e-001	 2.3504539664e+000
 2.9852677950e+000	 2.9694476301e-001	 2.1613814993e+000
 2.9824101680e+000	 3.2439110650e-001	 1.9814558635e+000
 2.9792896912e+000	 3.5189904187e-001	 1.8111786599e+000
 2.9759042588e+000	 3.7946520596e-001	 1.6514920343e+000
 2.9722518140e+000	 4.0708617535e-001	 1.5037879597e+000
 2.9683303514e+000	 4.3475846709e-001	 1.3699167645e+000
 2.9641379186e+000	 4.6247853940e-001	 1.2521948622e+000
 2.9596726178e+000	 4.9024279252e-001	 1.1534116391e+000
 2.9549326076e+000	 5.1804756952e-001	 1.0768354563e+000
 2.9499161052e+000	 5.4588915724e-001	 1.0262187254e+000
 3.0127635985e+000	 2.7180967467e-001	 1.7716786935e+000
 3.0101450266e+000	 2.9941930270e-001	 1.6848257580e+000
 3.0072635860e+000	 3.2709436572e-001	 1.5967992464e+000
 3.0041171053e+000	 3.5483153389e-001	 1.5080750121e+000
 3.0007034609e+000	 3.8262741601e-001	 1.4195866898e+000
 2.9970205791e+000	 4.1047856015e-001	 1.3327353451e+000
 2.9930664377e+000	 4.3838145432e-001	 1.2493983475e+000
 2.9888390679e+000	 4.6633252723e-001	 1.1719374193e+000
 2.9843365562e+000	 4.9432814913e-001	 1.1032058170e+000
 2.9795570460e+000	 5.2236463260e-001	 1.0465545992e+000
 2.9744987394e+000	 5.5043823355e-001	 1.0058379399e+000
 3.0376624713e+000	 2.7405603562e-001	 1.2089925056e+000
 3.0350222582e+000	 3.0189384239e-001	 1.2243189692e+000
 3.0321170041e+000	 3.2979762494e-001	 1.2278897311e+000
 3.0289445194e+000	 3.5776402590e-001	 1.2201548678e+000
 3.0255026631e+000	 3.8578962606e-001	 1.2020398249e+000
 3.0217893442e+000	 4.1387094494e-001	 1.1749554413e+000
 3.0178025240e+000	 4.4200444154e-001	 1.1408071720e+000
 3.0135402172e+000	 4.7018651506e-001	 1.1020034639e+000
 3.0090004947e+000	 4.9841350573e-001	 1.0614632351e+000
 3.0041814844e+000	 5.2668169568e-001	 1.0226224152e+000
 2.9990813737e+000	 5.5498730986e-001	 9.8943949943e-001
 3.0625613440e+000	 2.7630239656e-001	 6.6227918707e-001
 3.0598994898e+000	 3.0436838209e-001	 7.7970104373e-001
 3.0569704222e+000	 3.3250088416e-001	 8.7451985180e-001
 3.0537719335e+000	 3.6069651792e-001	 9.4715988649e-001
 3.0503018652e+000	 3.8895183611e-001	 9.9853873460e-001
 3.0465581093e+000	 4.1726332974e-001	 1.0300777001e+000
 3.0425386102e+000	 4.4562742877e-001	 1.0437113846e+000
 3.0382413666e+000	 4.7404050289e-001	 1.0418963945e+000
 3.0336644332e+000	 5.0249886233e-001	 1.0276191255e+000
 3.0288059228e+000	 5.3099875876e-001	 1.0044025788e+000
 3.0236640079e+000	 5.5953638617e-001	 9.7631216186e-001
 3.0874602167e+000	 2.7854875751e-001	 1.3141938101e-001
 3.0847767215e+000	 3.0684292178e-001	 3.5080891191e-001
 3.0818238402e+000	 3.3520414338e-001	 5.3647933287e-001
 3.0785993476e+000	 3.6362900993e-001	 6.8882909762e-001
 3.0751010674e+000	 3.9211404616e-001	 8.0876827261e-001
 3.0713268744e+000	 4.2065571453e-001	 8.9772933112e-001
 3.0672746965e+000	 4.4925041599e-001	 9.5767709791e-001
 3.0629425159e+000	 4.7789449072e-001	 9.9111779396e-001
 3.0583283717e+000	 5.0658421894e-001	 1.0011071319e+000
 3.0534303612e+000	 5.3531582184e-001	 9.9125741316e-001
 3.0482466421e+000	 5.6408546248e-001	 9.6574358021e-001
 3.1123590894e+000	 2.8079511845e-001	-3.8370928532e-001
 3.1096539531e+000	 3.0931746147e-001	-6.2523357265e-002
 3.1066772583e+000	 3.3790740260e-001	 2.1355520073e-001
 3.1034267617e+000	 3.6656150195e-001	 4.4489900529e-001
 3.0999002695e+000	 3.9527625621e-001	 6.3241094923e-001
 3.0960956396e+000	 4.2404809933e-001	 7.7753539138e-001
 3.0920107827e+000	 4.5287340322e-001	 8.8226847198e-001
 3.0876436652e+000	 4.8174847854e-001	 9.4916750165e-001
 3.0829923102e+000	 5.1066957554e-001	 9.8135937285e-001
 3.0780547996e+000	 5.3963288491e-001	 9.8254794392e-001
 3.0728292763e+000	 5.6863453879e-001	 9.5702034662e-001
 3.1372579621e+000	 2.8304147940e-001	-3.5446012617e-001
 3.1345311847e+000	 3.1179200116e-001	-1.2357185414e-001
 3.1315306764e+000	 3.4061066182e-001	 9.0239706809e-002
 3.1282541758e+000	 3.6949399396e-001	 2.8654423965e-001
 3.1246994717e+000	 3.9843846626e-001	 4.6914702430e-001
 3.1208644047e+000	 4.2744048412e-001	 6.6911887071e-001
 3.1167468690e+000	 4.5649639044e-001	 8.1704779191e-001
 3.1123448145e+000	 4.8560246637e-001	 9.1554368281e-001
 3.1076562486e+000	 5.1475493214e-001	 9.6780650262e-001
 3.1026792380e+000	 5.4394994799e-001	 9.7763395069e-001
 3.0974119105e+000	 5.7318361510e-001	 9.4942803448e-001
 3.1621568348e+000	 2.8528784035e-001	 2.0987242509e-001
 3.1594084163e+000	 3.1426654084e-001	 3.4901550747e-001
 3.1563840944e+000	 3.4331392104e-001	 4.7809803817e-001
 3.1530815899e+000	 3.7242648597e-001	 5.9670350611e-001
 3.1494986739e+000	 4.0160067630e-001	 7.0371338471e-001
 3.1456331698e+000	 4.3083286891e-001	 7.9728962851e-001
 3.1414829553e+000	 4.6011937766e-001	 8.7485820507e-001
 3.1370459638e+000	 4.8945645420e-001	 9.3309373296e-001
 3.1323201871e+000	 5.1884028875e-001	 9.6790529650e-001
 3.1273036764e+000	 5.4826701107e-001	 9.7442350676e-001
 3.1219945447e+000	 5.7773269141e-001	 9.4225123854e-001
 3.1870557075e+000	 2.8753420129e-001	 7.5535014629e-001
 3.1842856480e+000	 3.1674108053e-001	 8.0219319444e-001
 3.1812375125e+000	 3.4601718025e-001	 8.4630206471e-001
 3.1779090040e+000	 3.7535897799e-001	 8.8727484881e-001
 3.1742978760e+000	 4.0476288635e-001	 9.2398726094e-001
 3.1704019349e+000	 4.3422525370e-001	 9.5457465043e-001
 3.1662190415e+000	 4.6374236489e-001	 9.7641507703e-001
 3.1617471132e+000	 4.9331044202e-001	 9.8611352155e-001
 3.1569841256e+000	 5.2292564535e-001	 9.7948730424e-001
 3.1519281148e+000	 5.5258407415e-001	 9.5155278238e-001
 3.1465771789e+000	 5.8228176772e-001	 8.9651339721e-001
 3.2119545803e+000	 2.8978056223e-001	 1.2821070553e+000
 3.2091628796e+000	 3.1921562022e-001	 1.2361169767e+000
 3.2060909306e+000	 3.4872043947e-001	 1.1950328697e+000
 3.2027364181e+000	 3.7829147000e-001	 1.1584682320e+000
 3.1990970782e+000	 4.0792509639e-001	 1.1252934008e+000
 3.1951707000e+000	 4.3761763849e-001	 1.0936170716e+000
 3.1909551278e+000	 4.6736535211e-001	 1.0607689076e+000
 3.1864482625e+000	 4.9716442985e-001	 1.0232833146e+000
 3.1816480641e+000	 5.2701100195e-001	 9.7688445469e-001
 3.1765525532e+000	 5.5690113723e-001	 9.1647257290e-001
 3.1711598131e+000	 5.8683084403e-001	 8.3611170860e-001
 3.2368534530e+000	 2.9202692318e-001	 1.7902746992e+000
 3.2340401112e+000	 3.2169015991e-001	 1.6509402799e+000
 3.2309443486e+000	 3.5142369869e-001	 1.5244693260e+000
 3.2275638322e+000	 3.8122396201e-001	 1.4104915510e+000
 3.2238962803e+000	 4.1108730644e-001	 1.3078722997e+000
 3.2199394651e+000	 4.4101002328e-001	 1.2146935636e+000
 3.2156912140e+000	 4.7098833933e-001	 1.1282361153e+000
 3.2111494118e+000	 5.0101841767e-001	 1.0449628383e+000
 3.2063120026e+000	 5.3109635855e-001	 9.6050332843e-001
 3.2011769916e+000	 5.6121820030e-001	 8.6963984200e-001
 3.1957424473e+000	 5.9137992034e-001	 7.6629466422e-001
 2.9499161052e+000	 5.4588915724e-001	 1.0262187254e+000
 2.9446213876e+000	 5.7376378727e-001	 1.1497302551e+000
 2.9390467935e+000	 6.0166763694e-001	 1.2040849435e+000
 2.9331907253e+000	 6.2959683048e-001	 1.1697494320e+000
 2.9270516504e+000	 6.5754744009e-001	 9.9996972160e-001
 2.9206281031e+000	 6.8551548720e-001	 8.5819545501e-001
 2.9139186865e+000	 7.1349694372e-001	 7.4483774668e-001
 2.9069220735e+000	 7.4148773336e-001	 6.6025577725e-001
 2.8996370091e+000	 7.6948373301e-001	 6.0475542573e-001
 2.8920623117e+000	 7.9748077418e-001	 5.7858797251e-001
 2.8841968746e+000	 8.2547464451e-001	 5.8194887758e-001
 2.9744987394e+000	 5.5043823355e-001	 1.0058379399e+000
 2.9691598992e+000	 5.7854515216e-001	 1.1572166853e+000
 2.9635388501e+000	 6.0668153392e-001	 1.2278199826e+000
 2.9576339813e+000	 6.3484347073e-001	 1.1711912064e+000
 2.9514437475e+000	 6.6302700209e-001	 1.0115611515e+000
 2.9449666706e+000	 6.9122811626e-001	 8.7765991781e-001
 2.9382013422e+000	 7.1944275158e-001	 7.6986997406e-001
 2.9311464241e+000	 7.4766679780e-001	 6.8852261824e-001
 2.9238006509e+000	 7.7589609745e-001	 6.3389664943e-001
 2.9161628310e+000	 8.0412644730e-001	 6.0621711098e-001
 2.9082318485e+000	 8.3235359987e-001	 6.0565410939e-001
 2.9990813737e+000	 5.5498730986e-001	 9.8943949943e-001
 2.9936984107e+000	 5.8332651705e-001	 1.1653914019e+000
 2.9880309068e+000	 6.1169543089e-001	 1.2487335188e+000
 2.9820772374e+000	 6.4009011098e-001	 1.1684176778e+000
 2.9758358445e+000	 6.6850656409e-001	 1.0185291979e+000
 2.9693052382e+000	 6.9694074532e-001	 8.9215138427e-001
 2.9624839979e+000	 7.2538855945e-001	 7.8963852222e-001
 2.9553707747e+000	 7.5384586224e-001	 7.1129444672e-001
 2.9479642926e+000	 7.8230846189e-001	 6.5737125270e-001
 2.9402633502e+000	 8.1077212041e-001	 6.2806807734e-001
 2.9322668225e+000	 8.3923255524e-001	 6.2352995872e-001
 3.0236640079e+000	 5.5953638617e-001	 9.7631216186e-001
 3.0182369223e+000	 5.8810788194e-001	 1.1734814821e+000
 3.0125229634e+000	 6.1670932786e-001	 1.2659869404e+000
 3.0065204934e+000	 6.4533675123e-001	 1.1614388290e+000
 3.0002279416e+000	 6.7398612608e-001	 1.0208896442e+000
 2.9936438057e+000	 7.0265337437e-001	 9.0169058954e-001
 2.9867666536e+000	 7.3133436731e-001	 8.0416821877e-001
 2.9795951253e+000	 7.6002492669e-001	 7.2859931320e-001
 2.9721279343e+000	 7.8872082633e-001	 6.7520962934e-001
 2.9643638695e+000	 8.1741779353e-001	 6.4417271939e-001
 2.9563017964e+000	 8.4611151061e-001	 6.3560882865e-001
 3.0482466421e+000	 5.6408546248e-001	 9.6574358021e-001
 3.0427754338e+000	 5.9288924684e-001	 1.1807126199e+000
 3.0370150200e+000	 6.2172322484e-001	 1.2787400070e+000
 3.0309637495e+000	 6.5058339149e-001	 1.1502628024e+000
 3.0246200387e+000	 6.7946568808e-001	 1.0186562549e+000
 3.0179823732e+000	 7.0836600343e-001	 9.0629610544e-001
 3.0110493093e+000	 7.3728017517e-001	 8.1348161794e-001
 3.0038194759e+000	 7.6620399113e-001	 7.4046291940e-001
 2.9962915761e+000	 7.9513319077e-001	 6.8743978398e-001
 2.9884643887e+000	 8.2406346665e-001	 6.5456049062e-001
 2.9803367704e+000	 8.5299046598e-001	 6.4192075832e-001
 3.0728292763e+000	 5.6863453879e-001	 9.5702034662e-001
 3.0673139454e+000	 5.9767061173e-001	 1.1863091815e+000
 3.0615070766e+000	 6.2673712181e-001	 1.2748300793e+000
 3.0554070055e+000	 6.5583003174e-001	 1.1348959733e+000
 3.0490121358e+000	 6.8494525008e-001	 1.0118408563e+000
 3.0423209407e+000	 7.1407863249e-001	 9.0598442703e-001
 3.0353319650e+000	 7.4322598304e-001	 8.1759909156e-001
 3.0280438265e+000	 7.7238305558e-001	 7.4690871227e-001
 3.0204552178e+000	 8.0154555521e-001	 6.9408742766e-001
 3.0125649080e+000	 8.3070913976e-001	 6.5925854598e-001
 3.0043717443e+000	 8.5986942135e-001	 6.4249351753e-001
 3.0974119105e+000	 5.7318361510e-001	 9.4942803448e-001
 3.0918524570e+000	 6.0245197662e-001	 1.1894942580e+000
 3.0859991332e+000	 6.3175101878e-001	 1.2451461314e+000
 3.0798502615e+000	 6.6107667200e-001	 1.1153430205e+000
 3.0734042329e+000	 6.9042481209e-001	 1.0004534134e+000
 3.0666595083e+000	 7.1979126155e-001	 9.0077005501e-001
 3.0596146208e+000	 7.4917179090e-001	 8.1653891559e-001
 3.0522681771e+000	 7.7856212002e-001	 7.4795797342e-001
 3.0446188595e+000	 8.0795791965e-001	 6.9517606881e-001
 3.0366654273e+000	 8.3735481288e-001	 6.5829183308e-001
 3.0284067183e+000	 8.6674837673e-001	 6.3735269677e-001
 3.1219945447e+000	 5.7773269141e-001	 9.4225123854e-001
 3.1163909685e+000	 6.0723334152e-001	 1.1894897154e+000
 3.1104911898e+000	 6.3676491576e-001	 1.2117139971e+000
 3.1042935176e+000	 6.6632331225e-001	 1.0916069926e+000
 3.0977963300e+000	 6.9590437409e-001	 9.8450210335e-001
 3.0909980758e+000	 7.2550389062e-001	 8.9066557424e-001
 3.0838972765e+000	 7.5511759877e-001	 8.1031735274e-001
 3.0764925277e+000	 7.8474118447e-001	 7.4362990437e-001
 3.0687825013e+000	 8.1437028410e-001	 6.9072710001e-001
 3.0607659465e+000	 8.4400048600e-001	 6.5168317911e-001
 3.0524416922e+000	 8.7362733210e-001	 6.2652179301e-001
 3.1465771789e+000	 5.8228176772e-001	 8.9651339721e-001
 3.1409294801e+000	 6.1201470641e-001	 1.1565267714e+000
 3.1349832464e+000	 6.4177881273e-001	 1.1625805583e+000
 3.1287367736e+000	 6.7156995251e-001	 1.0617233830e+000
 3.1221884270e+000	 7.0138393609e-001	 9.6399338514e-001
 3.1153366433e+000	 7.3121651968e-001	 8.7568172856e-001
 3.1081799322e+000	 7.6106340663e-001	 7.9894873102e-001
 3.1007168783e+000	 7.9092024892e-001	 7.3394170785e-001
 3.0929461430e+000	 8.2078264854e-001	 6.8075988062e-001
 3.0848664658e+000	 8.5064615913e-001	 6.3945337364e-001
 3.0764766662e+000	 8.8050628747e-001	 6.1002229151e-001
 3.1711598131e+000	 5.8683084403e-001	 8.3611170860e-001
 3.1654679917e+000	 6.1679607131e-001	 1.1006713299e+000
 3.1594753030e+000	 6.4679270971e-001	 1.0919834209e+000
 3.1531800297e+000	 6.7681659276e-001	 1.0166425787e+000
 3.1465805241e+000	 7.0686349809e-001	 9.4131477208e-001
 3.1396752108e+000	 7.3692914874e-001	 8.6632554852e-001
 3.1324625879e+000	 7.6700921450e-001	 7.9202779216e-001
 3.1249412290e+000	 7.9709931337e-001	 7.1890866521e-001
 3.1171097848e+000	 8.2719501299e-001	 6.6529181559e-001
 3.1089669851e+000	 8.5729183225e-001	 6.2162124766e-001
 3.1005116401e+000	 8.8738524285e-001	 5.8787374374e-001
 3.1957424473e+000	 5.9137992034e-001	 7.6629466422e-001
 3.1900065032e+000	 6.2157743620e-001	 1.0374860003e+000
 3.1839673596e+000	 6.5180660668e-001	 1.0172085988e+000
 3.1776232857e+000	 6.8206323302e-001	 9.6723100568e-001
 3.1709726212e+000	 7.1234306010e-001	 9.1448312909e-001
 3.1640137784e+000	 7.4264177780e-001	 8.5926341344e-001
 3.1567452436e+000	 7.7295502237e-001	 8.0190019536e-001
 3.1491655796e+000	 8.0327837781e-001	 7.4275198206e-001
 3.1412734265e+000	 8.3360737744e-001	 6.8220767080e-001
 3.1330675043e+000	 8.6393750537e-001	 6.2068670689e-001
 3.1245466141e+000	 8.9426419823e-001	 5.6009384183e-001
 2.8841968746e+000	 8.2547464451e-001	 5.8194887758e-001
 2.8760396675e+000	 8.5346108929e-001	 6.0023331879e-001
 2.8675897383e+000	 8.8143581311e-001	 6.0744646801e-001
 2.8588462143e+000	 9.0939448149e-001	 6.0333123075e-001
 2.8498083036e+000	 9.3733272262e-001	 5.8760396721e-001
 2.8404752965e+000	 9.6524612913e-001	 5.5995450116e-001
 2.8308465672e+000	 9.9313025989e-001	 5.2004619853e-001
 2.8209215744e+000	 1.0209806419e+000	 4.6751611737e-001
 2.8106998632e+000	 1.0487927723e+000	 4.0197523062e-001
 2.8001810658e+000	 1.0765621202e+000	 3.2300872280e-001
 2.7893649032e+000	 1.1042841287e+000	 2.3017636187e-001
 2.9082318485e+000	 8.3235359987e-001	 6.0565410939e-001
 2.9000066647e+000	 8.6057326503e-001	 6.1898890410e-001
 2.8914863195e+000	 8.8878111155e-001	 6.2234233500e-001
 2.8826699328e+000	 9.1697276883e-001	 6.1547582329e-001
 2.8735567061e+000	 9.4514382864e-001	 5.9812281653e-001
 2.8641459240e+000	 9.7328984687e-001	 5.6998876218e-001
 2.8544369552e+000	 1.0014063454e+000	 5.3075115309e-001
 2.8444292542e+000	 1.0294888139e+000	 4.8005964646e-001
 2.8341223620e+000	 1.0575327121e+000	 4.1753625792e-001
 2.8235159081e+000	 1.0855334712e+000	 3.4277563202e-001
 2.8126096107e+000	 1.1134864964e+000	 2.5534539032e-001
 2.9322668225e+000	 8.3923255524e-001	 6.2352995872e-001
 2.9239736620e+000	 8.6768544077e-001	 6.3242324582e-001
 2.9153829006e+000	 8.9612640999e-001	 6.3242905772e-001
 2.9064936512e+000	 9.2455105618e-001	 6.2332686185e-001
 2.8973051086e+000	 9.5295493466e-001	 6.0486670216e-001
 2.8878165515e+000	 9.8133356461e-001	 5.7676913763e-001
 2.8780273433e+000	 1.0096824309e+000	 5.3872525477e-001
 2.8679369340e+000	 1.0379969859e+000	 4.9039675592e-001
 2.8575448609e+000	 1.0662726518e+000	 4.3141612502e-001
 2.8468507503e+000	 1.0945048222e+000	 3.6138687224e-001
 2.8358543183e+000	 1.1226888642e+000	 2.7988385871e-001
 2.9563017964e+000	 8.4611151061e-001	 6.3560882865e-001
 2.9479406592e+000	 8.7479761651e-001	 6.4055622932e-001
 2.9392794818e+000	 9.0347170843e-001	 6.3771447282e-001
 2.9303173697e+000	 9.3212934352e-001	 6.2688060975e-001
 2.9210535112e+000	 9.6076604068e-001	 6.0782079566e-001
 2.9114871789e+000	 9.8937728235e-001	 5.8027019460e-001
 2.9016177314e+000	 1.0179585164e+000	 5.4393295894e-001
 2.8914446137e+000	 1.0465051580e+000	 4.9848228729e-001
 2.8809673597e+000	 1.0750125916e+000	 4.4356056222e-001
 2.8701855925e+000	 1.1034761732e+000	 3.7877956942e-001
 2.8590990258e+000	 1.1318912319e+000	 3.0372079953e-001
 2.9803367704e+000	 8.5299046598e-001	 6.4192075832e-001
 2.9719076564e+000	 8.8190979226e-001	 6.4340583469e-001
 2.9631760629e+000	 9.1081700687e-001	 6.3820496160e-001
 2.9541410881e+000	 9.3970763087e-001	 6.2613231602e-001
 2.9448019137e+000	 9.6857714670e-001	 6.0696968614e-001
 2.9351578064e+000	 9.9742100009e-001	 5.8046634019e-001
 2.9252081194e+000	 1.0262346019e+000	 5.4633897381e-001
 2.9149522935e+000	 1.0550133300e+000	 5.0427173778e-001
 2.9043898586e+000	 1.0837525314e+000	 4.5391634810e-001
 2.8935204347e+000	 1.1124475242e+000	 3.9489228005e-001
 2.8823437333e+000	 1.1410935996e+000	 3.2678704744e-001
 3.0043717443e+000	 8.5986942135e-001	 6.4249351753e-001
 2.9958746536e+000	 8.8902196800e-001	 6.4098821294e-001
 2.9870726441e+000	 9.1816230531e-001	 6.3390550827e-001
 2.9779648066e+000	 9.4728591821e-001	 6.2107625600e-001
 2.9685503162e+000	 9.7638825273e-001	 6.0229740364e-001
 2.9588284339e+000	 1.0054647178e+000	 5.7733182799e-001
 2.9487985075e+000	 1.0345106874e+000	 5.4590825028e-001
 2.9384599733e+000	 1.0635215020e+000	 5.0772123399e-001
 2.9278123575e+000	 1.0924924711e+000	 4.6243126764e-001
 2.9168552769e+000	 1.1214188752e+000	 4.0966493394e-001
 2.9055884408e+000	 1.1502959674e+000	 3.4901516709e-001
 3.0284067183e+000	 8.6674837673e-001	 6.3735269677e-001
 3.0198416509e+000	 8.9613414375e-001	 6.3331775854e-001
 3.0109692252e+000	 9.2550760376e-001	 6.2481975534e-001
 3.0017885250e+000	 9.5486420556e-001	 6.1170576996e-001
 2.9922987187e+000	 9.8419935875e-001	 5.9378744126e-001
 2.9824990614e+000	 1.0135084356e+000	 5.7084076410e-001
 2.9723888955e+000	 1.0427867729e+000	 5.4260597232e-001
 2.9619676531e+000	 1.0720296740e+000	 5.0878750703e-001
 2.9512348563e+000	 1.1012324109e+000	 4.6905407226e-001
 2.9401901191e+000	 1.1303902262e+000	 4.2303877977e-001
 2.9288331484e+000	 1.1594983351e+000	 3.7033938459e-001
 3.0524416922e+000	 8.7362733210e-001	 6.2652179301e-001
 3.0438086481e+000	 9.0324631949e-001	 6.2040717866e-001
 3.0348658064e+000	 9.3285290220e-001	 6.1095005649e-001
 3.0256122435e+000	 9.6244249291e-001	 5.9801329990e-001
 3.0160471213e+000	 9.9201046477e-001	 5.8142277635e-001
 3.0061696888e+000	 1.0215521533e+000	 5.6096711298e-001
 2.9959792836e+000	 1.0510628584e+000	 5.3639754781e-001
 2.9854753329e+000	 1.0805378460e+000	 5.0742786860e-001
 2.9746573552e+000	 1.1099723507e+000	 4.7373444177e-001
 2.9635249613e+000	 1.1393615772e+000	 4.3495633310e-001
 2.9520778559e+000	 1.1687007029e+000	 3.9069552199e-001
 3.0764766662e+000	 8.8050628747e-001	 6.1002229151e-001
 3.0677756453e+000	 9.1035849524e-001	 6.0226755901e-001
 3.0587623875e+000	 9.4019820065e-001	 5.9229752687e-001
 3.0494359619e+000	 9.7002078026e-001	 5.7999042467e-001
 3.0397955238e+000	 9.9982157080e-001	 5.6518589060e-001
 3.0298403163e+000	 1.0295958711e+000	 5.4768470298e-001
 3.0195696717e+000	 1.0593389439e+000	 5.2724859978e-001
 3.0089830127e+000	 1.0890460181e+000	 5.0360018841e-001
 2.9980798540e+000	 1.1187122905e+000	 4.7642294812e-001
 2.9868598036e+000	 1.1483329282e+000	 4.4536132693e-001
 2.9753225634e+000	 1.1779030706e+000	 4.1002093500e-001
 3.1005116401e+000	 8.8738524285e-001	 5.8787374374e-001
 3.0917426426e+000	 9.1747067099e-001	 5.7890842670e-001
 3.0826589687e+000	 9.4754349910e-001	 5.6886209115e-001
 3.0732596804e+000	 9.7759906761e-001	 5.5762789342e-001
 3.0635439263e+000	 1.0076326768e+000	 5.4505878930e-001
 3.0535109438e+000	 1.0376395888e+000	 5.3096723158e-001
 3.0431600597e+000	 1.0676150294e+000	 5.1512495806e-001
 3.0324906925e+000	 1.0975541901e+000	 4.9726287251e-001
 3.0215023529e+000	 1.1274522302e+000	 4.7707102080e-001
 3.0101946458e+000	 1.1573042792e+000	 4.5419866447e-001
 2.9985672709e+000	 1.1871054383e+000	 4.2825445355e-001
 3.1245466141e+000	 8.9426419823e-001	 5.6009384183e-001
 3.1157096398e+000	 9.2458284674e-001	 5.5033781022e-001
 3.1065555498e+000	 9.5488879754e-001	 5.4064252926e-001
 3.0970833988e+000	 9.8517735496e-001	 5.3091565749e-001
 3.0872923289e+000	 1.0154437829e+000	 5.2102301965e-001
 3.0771815712e+000	 1.0456833066e+000	 5.1078827048e-001
 3.0667504478e+000	 1.0758911149e+000	 4.9999265137e-001
 3.0559983723e+000	 1.1060623621e+000	 4.8837484267e-001
 3.0449248518e+000	 1.1361921700e+000	 4.7563091388e-001
 3.0335294880e+000	 1.1662756302e+000	 4.6141437418e-001
 3.0218119785e+000	 1.1963078061e+000	 4.4533632502e-001
 2.7893649032e+000	 1.1042841287e+000	 2.3017636187e-001
 2.7782511856e+000	 1.1319542172e+000	 1.7924812539e-001
 2.7668398140e+000	 1.1595677832e+000	 1.4509038238e-001
 2.7551307808e+000	 1.1871202048e+000	 1.2724078741e-001
 2.7431241712e+000	 1.2146068424e+000	 1.2518495710e-001
 2.7308201633e+000	 1.2420230416e+000	 1.3835681829e-001
 2.7182190297e+000	 1.2693641349e+000	 7.3007036194e-002
 2.7053211376e+000	 1.2966254442e+000	-6.7544745080e-003
 2.6921269500e+000	 1.3238022833e+000	-6.1398494380e-002
 2.6786370258e+000	 1.3508899601e+000	-9.1419320802e-002
 2.6648520205e+000	 1.3778837792e+000	-9.7349203703e-002
 2.8126096107e+000	 1.1134864964e+000	 2.5534539032e-001
 2.8014032788e+000	 1.1413871690e+000	 2.0693771724e-001
 2.7898968124e+000	 1.1692308481e+000	 1.7407265855e-001
 2.7780902040e+000	 1.1970128732e+000	 1.5626296598e-001
 2.7659835393e+000	 1.2247285661e+000	 1.5296947869e-001
 2.7535769980e+000	 1.2523732336e+000	 1.5207673174e-001
 2.7408708549e+000	 1.2799421693e+000	 4.8106009279e-002
 2.7278654804e+000	 1.3074306562e+000	-3.1680391434e-002
 2.7145613413e+000	 1.3348339690e+000	-8.7753842295e-002
 2.7009590010e+000	 1.3621473764e+000	-1.2062329494e-001
 2.6870591207e+000	 1.3893661440e+000	-1.3083479059e-001
 2.8358543183e+000	 1.1226888642e+000	 2.7988385871e-001
 2.8245553720e+000	 1.1508201208e+000	 2.3411938675e-001
 2.8129538109e+000	 1.1788939129e+000	 2.0270687016e-001
 2.8010496272e+000	 1.2069055415e+000	 1.8513388473e-001
 2.7888429074e+000	 1.2348502898e+000	 1.8083618105e-001
 2.7763338327e+000	 1.2627234256e+000	 1.2941212793e-001
 2.7635226802e+000	 1.2905202038e+000	 2.7140517920e-002
 2.7504098233e+000	 1.3182358682e+000	-5.2306374593e-002
 2.7369957325e+000	 1.3458656546e+000	-1.0941566604e-001
 2.7232809762e+000	 1.3734047928e+000	-1.4471124830e-001
 2.7092662209e+000	 1.4008485088e+000	-1.5875326459e-001
 2.8590990258e+000	 1.1318912319e+000	 3.0372079953e-001
 2.8477074652e+000	 1.1602530726e+000	 2.6072437906e-001
 2.8360108093e+000	 1.1885569778e+000	 2.3092604420e-001
 2.8240090504e+000	 1.2167982099e+000	 2.1378791487e-001
 2.8117022754e+000	 1.2449720135e+000	 2.0872033511e-001
 2.7990906674e+000	 1.2730736177e+000	 1.1030975482e-001
 2.7861745054e+000	 1.3010982382e+000	 1.0070337322e-002
 2.7729541661e+000	 1.3290410803e+000	-6.8675070848e-002
 2.7594301238e+000	 1.3568973403e+000	-1.2642959557e-001
 2.7456029514e+000	 1.3846622091e+000	-1.6373235852e-001
 2.7314733210e+000	 1.4123308736e+000	-1.8115791891e-001
 2.8823437333e+000	 1.1410935996e+000	 3.2678704744e-001
 2.8708595585e+000	 1.1696860244e+000	 2.8668578628e-001
 2.8590678078e+000	 1.1982200427e+000	 2.5866511895e-001
 2.8469684735e+000	 1.2266908783e+000	 2.4216142271e-001
 2.8345616435e+000	 1.2550937372e+000	 2.1328464124e-001
 2.8218475021e+000	 1.2834238097e+000	 9.4733474374e-002
 2.8088263307e+000	 1.3116762727e+000	-3.1423925028e-003
 2.7954985089e+000	 1.3398462923e+000	-8.0826599502e-002
 2.7818645150e+000	 1.3679290260e+000	-1.3883855069e-001
 2.7679249266e+000	 1.3959196254e+000	-1.7773289066e-001
 2.7536804212e+000	 1.4238132385e+000	-1.9809891189e-001
 2.9055884408e+000	 1.1502959674e+000	 3.4901516709e-001
 2.8940116517e+000	 1.1791189762e+000	 3.1193847362e-001
 2.8821248062e+000	 1.2078831075e+000	 2.8586086751e-001
 2.8699278967e+000	 1.2365835466e+000	 2.7019268994e-001
 2.8574210116e+000	 1.2652154609e+000	 1.9724986247e-001
 2.8446043368e+000	 1.2937740017e+000	 8.2649281522e-002
 2.8314781559e+000	 1.3222543071e+000	-1.2533261326e-002
 2.8180428517e+000	 1.3506515043e+000	-8.8798653395e-002
 2.8042989063e+000	 1.3789607117e+000	-1.4668284949e-001
 2.7902469018e+000	 1.4071770418e+000	-1.8675631375e-001
 2.7758875214e+000	 1.4352956033e+000	-2.0962339249e-001
 2.9288331484e+000	 1.1594983351e+000	 3.7033938459e-001
 2.9171637449e+000	 1.1885519280e+000	 3.3641900901e-001
 2.9051818047e+000	 1.2175461724e+000	 3.1245182499e-001
 2.8928873199e+000	 1.2464762150e+000	 2.9782183755e-001
 2.8802803797e+000	 1.2753371846e+000	 1.8437448654e-001
 2.8673611715e+000	 1.3041241937e+000	 7.4025219526e-002
 2.8541299812e+000	 1.3328323416e+000	-1.8135678789e-002
 2.8405871945e+000	 1.3614567164e+000	-9.2626595196e-002
 2.8267332975e+000	 1.3899923974e+000	-1.5000031153e-001
 2.8125688771e+000	 1.4184344581e+000	-1.9084341169e-001
 2.7980946215e+000	 1.4467779681e+000	-2.1577561961e-001
 2.9520778559e+000	 1.1687007029e+000	 3.9069552199e-001
 2.9403158381e+000	 1.1979848799e+000	 3.6006559605e-001
 2.9282388031e+000	 1.2272092372e+000	 3.3837821913e-001
 2.9158467430e+000	 1.2563688834e+000	 2.9791509548e-001
 2.9031397478e+000	 1.2854589082e+000	 1.7462937209e-001
 2.8901180061e+000	 1.3144743857e+000	 6.8831299340e-002
 2.8767818064e+000	 1.3434103761e+000	-1.9980960240e-002
 2.8631315373e+000	 1.3722619284e+000	-9.2343549137e-002
 2.8491676888e+000	 1.4010240831e+000	-1.4882635629e-001
 2.8348908523e+000	 1.4296918744e+000	-1.9003238900e-001
 2.8203017217e+000	 1.4582603330e+000	-2.1659707595e-001
 2.9753225634e+000	 1.1779030706e+000	 4.1002093500e-001
 2.9634679313e+000	 1.2074178317e+000	 3.8281801017e-001
 2.9512958016e+000	 1.2368723021e+000	 3.6358190421e-001
 2.9388061662e+000	 1.2662615518e+000	 2.8526525761e-001
 2.9259991159e+000	 1.2955806319e+000	 1.6798716374e-001
 2.9128748408e+000	 1.3248245777e+000	 6.7039422744e-002
 2.8994336316e+000	 1.3539884105e+000	-1.8098408536e-002
 2.8856758801e+000	 1.3830671404e+000	-8.7980488459e-002
 2.8716020800e+000	 1.4120557688e+000	-1.4319409683e-001
 2.8572128275e+000	 1.4409492908e+000	-1.8435897157e-001
 2.8425088219e+000	 1.4697426978e+000	-2.1212657640e-001
 2.9985672709e+000	 1.1871054383e+000	 4.2825445355e-001
 2.9866200245e+000	 1.2168507835e+000	 4.0461753765e-001
 2.9743528000e+000	 1.2465353670e+000	 3.8800629796e-001
 2.9617655894e+000	 1.2761542201e+000	 2.7542063871e-001
 2.9488584840e+000	 1.3057023556e+000	 1.6442222286e-001
 2.9356316755e+000	 1.3351747697e+000	 6.8623309057e-002
 2.9220854569e+000	 1.3645664450e+000	-1.2515392053e-002
 2.9082202229e+000	 1.3938723525e+000	-7.9566318778e-002
 2.8940364712e+000	 1.4230874545e+000	-1.3313442926e-001
 2.8795348027e+000	 1.4522067071e+000	-1.7385650270e-001
 2.8647159220e+000	 1.4812250626e+000	-2.0240037149e-001
 3.0218119785e+000	 1.1963078061e+000	 4.4533632502e-001
 3.0097721177e+000	 1.2262837353e+000	 4.2540691755e-001
 2.9974097985e+000	 1.2561984318e+000	 3.8742403021e-001
 2.9847250126e+000	 1.2860468885e+000	 2.6835736997e-001
 2.9717178521e+000	 1.3158240793e+000	 1.6391056154e-001
 2.9583885102e+000	 1.3455249618e+000	 7.3558425231e-002
 2.9447372821e+000	 1.3751444794e+000	-3.2574190822e-003
 2.9307645658e+000	 1.4046775645e+000	-6.7127957610e-002
 2.9164708625e+000	 1.4341191402e+000	-1.1867611798e-001
 2.9018567779e+000	 1.4634641235e+000	-1.5855603479e-001
 2.8869230222e+000	 1.4927074274e+000	-1.8745224599e-001
 2.6648520205e+000	 1.3778837792e+000	-9.7349203703e-002
 2.6507726869e+000	 1.4047790439e+000	-7.0339455987e-002
 2.6363998752e+000	 1.4315710593e+000	-5.9649315391e-002
 2.6217345334e+000	 1.4582551343e+000	-6.5920506994e-002
 2.6067777073e+000	 1.4848265841e+000	-8.9793824784e-002
 2.5915305413e+000	 1.5112807329e+000	-1.3190801757e-001
 2.5759942776e+000	 1.5376129167e+000	-1.9289865356e-001
 2.5601702572e+000	 1.5638184851e+000	-2.7339696588e-001
 2.5440599187e+000	 1.5898928045e+000	-3.7402868136e-001
 2.5276647993e+000	 1.6158312605e+000	-4.9541283513e-001
 2.5109865337e+000	 1.6416292602e+000	-6.3816057338e-001
 2.6870591207e+000	 1.3893661440e+000	-1.3083479059e-001
 2.6728624593e+000	 1.4164855360e+000	-1.0494333681e-001
 2.6583698742e+000	 1.4435008182e+000	-9.4122231028e-002
 2.6435823211e+000	 1.4704072604e+000	-9.9048212784e-002
 2.6285008549e+000	 1.4972001389e+000	-1.2039866978e-001
 2.6131266291e+000	 1.5238747391e+000	-1.5885048918e-001
 2.5974608966e+000	 1.5504263577e+000	-2.1507888489e-001
 2.5815050093e+000	 1.5768503058e+000	-2.8975620312e-001
 2.5652604181e+000	 1.6031419112e+000	-3.8355070868e-001
 2.5487286726e+000	 1.6292965210e+000	-4.9712535444e-001
 2.5319114214e+000	 1.6553095040e+000	-6.3113653670e-001
 2.7092662209e+000	 1.4008485088e+000	-1.5875326459e-001
 2.6949522317e+000	 1.4281920280e+000	-1.3441886685e-001
 2.6803398731e+000	 1.4554305770e+000	-1.2392349730e-001
 2.6654301089e+000	 1.4825593865e+000	-1.2797904964e-001
 2.6502240024e+000	 1.5095736938e+000	-1.4729963818e-001
 2.6347227169e+000	 1.5364687452e+000	-1.8260041405e-001
 2.6189275156e+000	 1.5632397986e+000	-2.3459635487e-001
 2.6028397614e+000	 1.5898821265e+000	-3.0400102989e-001
 2.5864609174e+000	 1.6163910179e+000	-3.9152534342e-001
 2.5697925460e+000	 1.6427617815e+000	-4.9787625876e-001
 2.5528363092e+000	 1.6689897478e+000	-6.2375550570e-001
 2.7314733210e+000	 1.4123308736e+000	-1.8115791891e-001
 2.7170420041e+000	 1.4398985200e+000	-1.5880163269e-001
 2.7023098721e+000	 1.4673603358e+000	-1.4907044966e-001
 2.6872778967e+000	 1.4947115126e+000	-1.5271156572e-001
 2.6719471500e+000	 1.5219472487e+000	-1.7047596335e-001
 2.6563188048e+000	 1.5490627513e+000	-2.0311719251e-001
 2.6403941346e+000	 1.5760532396e+000	-2.5139012206e-001
 2.6241745136e+000	 1.6029139472e+000	-3.1604966426e-001
 2.6076614167e+000	 1.6296401246e+000	-3.9784947476e-001
 2.5908564193e+000	 1.6562270420e+000	-4.9754063077e-001
 2.5737611970e+000	 1.6826699917e+000	-6.1587029014e-001
 2.7536804212e+000	 1.4238132385e+000	-1.9809891189e-001
 2.7391317765e+000	 1.4516050121e+000	-1.7812456633e-001
 2.7242798711e+000	 1.4792900947e+000	-1.6957826550e-001
 2.7091256845e+000	 1.5068636388e+000	-1.7324266368e-001
 2.6936702975e+000	 1.5343208035e+000	-1.8990576174e-001
 2.6779148926e+000	 1.5616567574e+000	-2.2035965219e-001
 2.6618607536e+000	 1.5888666806e+000	-2.6539923213e-001
 2.6455092657e+000	 1.6159457679e+000	-3.2582088651e-001
 2.6288619160e+000	 1.6428892313e+000	-4.0242114440e-001
 2.6119202926e+000	 1.6696923025e+000	-4.9599531088e-001
 2.5946860848e+000	 1.6963502355e+000	-6.0733607733e-001
 2.7758875214e+000	 1.4352956033e+000	-2.0962339249e-001
 2.7612215489e+000	 1.4633115041e+000	-1.9241805138e-001
 2.7462498700e+000	 1.4912198535e+000	-1.8546005046e-001
 2.7309734722e+000	 1.5190157649e+000	-1.8956766653e-001
 2.7153934451e+000	 1.5466943584e+000	-2.0556607747e-001
 2.6995109805e+000	 1.5742507635e+000	-2.3428607092e-001
 2.6833273725e+000	 1.6016801216e+000	-2.7656271835e-001
 2.6668440179e+000	 1.6289775887e+000	-3.3323401671e-001
 2.6500624153e+000	 1.6561383380e+000	-4.0513950048e-001
 2.6329841659e+000	 1.6831575630e+000	-4.9311882689e-001
 2.6156109726e+000	 1.7100304793e+000	-5.9801033707e-001
 2.7980946215e+000	 1.4467779681e+000	-2.1577561961e-001
 2.7833113213e+000	 1.4750179961e+000	-2.0171002420e-001
 2.7682198690e+000	 1.5031496123e+000	-1.9672692063e-001
 2.7528212600e+000	 1.5311678910e+000	-2.0168038032e-001
 2.7371165927e+000	 1.5590679133e+000	-2.1743292495e-001
 2.7211070683e+000	 1.5868447696e+000	-2.4485419856e-001
 2.7047939915e+000	 1.6144935625e+000	-2.8481960212e-001
 2.6881787700e+000	 1.6420094094e+000	-3.3820889325e-001
 2.6712629147e+000	 1.6693874448e+000	-4.0590475364e-001
 2.6540480393e+000	 1.6966228235e+000	-4.8879132708e-001
 2.6365358603e+000	 1.7237107232e+000	-5.8775273104e-001
 2.8203017217e+000	 1.4582603330e+000	-2.1659707595e-001
 2.8054010937e+000	 1.4867244882e+000	-2.0602607023e-001
 2.7901898679e+000	 1.5150793711e+000	-2.0338808093e-001
 2.7746690478e+000	 1.5433200171e+000	-2.0957315384e-001
 2.7588397402e+000	 1.5714414681e+000	-2.2548132942e-001
 2.7427031562e+000	 1.5994387757e+000	-2.5202127776e-001
 2.7262606105e+000	 1.6273070035e+000	-2.9010889339e-001
 2.7095135222e+000	 1.6550412301e+000	-3.4066585248e-001
 2.6924634140e+000	 1.6826365515e+000	-4.0461813524e-001
 2.6751119126e+000	 1.7100880840e+000	-4.8289451635e-001
 2.6574607481e+000	 1.7373909670e+000	-5.7642502651e-001
 2.8425088219e+000	 1.4697426978e+000	-2.1212657640e-001
 2.8274908661e+000	 1.4984309802e+000	-2.0538951581e-001
 2.8121598669e+000	 1.5270091300e+000	-2.0545089969e-001
 2.7965168356e+000	 1.5554721432e+000	-2.1323693556e-001
 2.7805628878e+000	 1.5838150230e+000	-2.2968536555e-001
 2.7642992440e+000	 1.6120327818e+000	-2.5574406382e-001
 2.7477272295e+000	 1.6401204445e+000	-2.9236959115e-001
 2.7308482743e+000	 1.6680730508e+000	-3.4052570920e-001
 2.7136639133e+000	 1.6958856582e+000	-4.0118185743e-001
 2.6961757859e+000	 1.7235533445e+000	-4.7531159545e-001
 2.6783856359e+000	 1.7510712108e+000	-5.6389101414e-001
 2.8647159220e+000	 1.4812250626e+000	-2.0240037149e-001
 2.8495806385e+000	 1.5101374722e+000	-1.9982151577e-001
 2.8341298659e+000	 1.5389388888e+000	-2.0292097990e-001
 2.8183646234e+000	 1.5676242694e+000	-2.1266132791e-001
 2.8022860354e+000	 1.5961885779e+000	-2.3001819429e-001
 2.7858953319e+000	 1.6246267879e+000	-2.5597884352e-001
 2.7691938485e+000	 1.6529338855e+000	-2.9154068383e-001
 2.7521830265e+000	 1.6811048715e+000	-3.3770973818e-001
 2.7348644126e+000	 1.7091347649e+000	-3.9549907518e-001
 2.7172396593e+000	 1.7370186050e+000	-4.6592720300e-001
 2.6993105237e+000	 1.7647514547e+000	-5.5001642947e-001
 2.8869230222e+000	 1.4927074274e+000	-1.8745224599e-001
 2.8716704108e+000	 1.5218439643e+000	-1.8934113696e-001
 2.8560998648e+000	 1.5508686476e+000	-1.9580222708e-001
 2.8402124111e+000	 1.5797763955e+000	-2.0783463901e-001
 2.8240091829e+000	 1.6085621327e+000	-2.2645209806e-001
 2.8074914197e+000	 1.6372207940e+000	-2.5268145320e-001
 2.7906604674e+000	 1.6657473264e+000	-2.8756114972e-001
 2.7735177786e+000	 1.6941366922e+000	-3.3213965641e-001
 2.7560649120e+000	 1.7223838716e+000	-3.8747385001e-001
 2.7383035326e+000	 1.7504838655e+000	-4.5462736017e-001
 2.7202354115e+000	 1.7784316985e+000	-5.3466887818e-001
 2.5109865337e+000	 1.6416292602e+000	-6.3816057338e-001
 2.4940268541e+000	 1.6672822350e+000	-6.9296562771e-001
 2.4767875899e+000	 1.6927856434e+000	-6.8324391557e-001
 2.4592706672e+000	 1.7181349730e+000	-6.7344093130e-001
 2.4414781082e+000	 1.7433257434e+000	-6.6396579625e-001
 2.4234120303e+000	 1.7683535086e+000	-6.5523014272e-001
 2.4050746461e+000	 1.7932138597e+000	-6.4764702683e-001
 2.3864682618e+000	 1.8179024274e+000	-6.4162983087e-001
 2.3675952769e+000	 1.8424148840e+000	-6.3759115811e-001
 2.3484581830e+000	 1.8667469467e+000	-6.3594172297e-001
 2.3290595627e+000	 1.8908943792e+000	-6.8427331683e-001
 2.5319114214e+000	 1.6553095040e+000	-6.3113653670e-001
 2.5148104112e+000	 1.6811762537e+000	-7.0931261904e-001
 2.4974274865e+000	 1.7068921905e+000	-7.7771383825e-001
 2.4797645894e+000	 1.7324527644e+000	-7.5699890060e-001
 2.4618237591e+000	 1.7578534579e+000	-7.3597809915e-001
 2.4436071306e+000	 1.7830897878e+000	-7.1509563188e-001
 2.4251169348e+000	 1.8081573086e+000	-6.9479792306e-001
 2.4063554973e+000	 1.8330516143e+000	-6.7553247884e-001
 2.3873252375e+000	 1.8577683414e+000	-6.5774673393e-001
 2.3680286678e+000	 1.8823031712e+000	-6.6414606484e-001
 2.3484683924e+000	 1.9066518324e+000	-7.1797156146e-001
 2.5528363092e+000	 1.6689897478e+000	-6.2375550570e-001
 2.5355939683e+000	 1.6950702723e+000	-6.8967190533e-001
 2.5180673831e+000	 1.7209987375e+000	-7.6096947031e-001
 2.5002585117e+000	 1.7467705559e+000	-8.3816939010e-001
 2.4821694100e+000	 1.7723811724e+000	-8.0742608146e-001
 2.4638022308e+000	 1.7978260671e+000	-7.7461804425e-001
 2.4451592235e+000	 1.8231007574e+000	-7.4184339993e-001
 2.4262427328e+000	 1.8482008012e+000	-7.0958407880e-001
 2.4070551982e+000	 1.8731217988e+000	-6.7832263657e-001
 2.3875991527e+000	 1.8978593958e+000	-7.1521379128e-001
 2.3678772221e+000	 1.9224092855e+000	-7.4851822395e-001
 2.5737611970e+000	 1.6826699917e+000	-6.1587029014e-001
 2.5563775254e+000	 1.7089642909e+000	-6.6965219585e-001
 2.5387072796e+000	 1.7351052845e+000	-7.2823041076e-001
 2.5207524339e+000	 1.7610883473e+000	-7.9215689345e-001
 2.5025150609e+000	 1.7869088869e+000	-8.6198719746e-001
 2.4839973311e+000	 1.8125623463e+000	-8.3353646146e-001
 2.4652015122e+000	 1.8380442062e+000	-7.8850924259e-001
 2.4461299684e+000	 1.8633499881e+000	-7.4349684011e-001
 2.4267851588e+000	 1.8884752561e+000	-7.3962626500e-001
 2.4071696375e+000	 1.9134156203e+000	-7.6275560398e-001
 2.3872860518e+000	 1.9381667387e+000	-7.7578375418e-001
 2.5946860848e+000	 1.6963502355e+000	-6.0733607733e-001
 2.5771610825e+000	 1.7228583095e+000	-6.4909809128e-001
 2.5593471762e+000	 1.7492118315e+000	-6.9508563394e-001
 2.5412463561e+000	 1.7754061388e+000	-7.4588172144e-001
 2.5228607118e+000	 1.8014366015e+000	-8.0207382851e-001
 2.5041924313e+000	 1.8272986255e+000	-8.6425271643e-001
 2.4852438010e+000	 1.8529876551e+000	-8.3452527858e-001
 2.4660172039e+000	 1.8784991749e+000	-7.8790695458e-001
 2.4465151195e+000	 1.9038287135e+000	-8.0296355152e-001
 2.4267401224e+000	 1.9289718449e+000	-8.0665977768e-001
 2.4066948815e+000	 1.9539241918e+000	-7.9964396170e-001
 2.6156109726e+000	 1.7100304793e+000	-5.9801033707e-001
 2.5979446396e+000	 1.7367523282e+000	-6.2785671545e-001
 2.5799870728e+000	 1.7633183786e+000	-6.6137159920e-001
 2.5617402783e+000	 1.7897239302e+000	-6.9916935709e-001
 2.5432063627e+000	 1.8159643160e+000	-7.4186967360e-001
 2.5243875316e+000	 1.8420349048e+000	-7.9009633517e-001
 2.5052860897e+000	 1.8679311039e+000	-8.4447599702e-001
 2.4859044394e+000	 1.8936483618e+000	-8.6587692944e-001
 2.4662450801e+000	 1.9191821709e+000	-8.6234654074e-001
 2.4463106072e+000	 1.9445280695e+000	-8.4681940193e-001
 2.4261037112e+000	 1.9696816450e+000	-8.1997980136e-001
 2.6365358603e+000	 1.7237107232e+000	-5.8775273104e-001
 2.6187281968e+000	 1.7506463468e+000	-6.0577761519e-001
 2.6006269694e+000	 1.7774249256e+000	-6.2692743003e-001
 2.5822342006e+000	 1.8040417216e+000	-6.5184819858e-001
 2.5635520136e+000	 1.8304920305e+000	-6.8119211041e-001
 2.5445826318e+000	 1.8567711840e+000	-7.1561626566e-001
 2.5253283784e+000	 1.8828745527e+000	-7.8043389228e-001
 2.5057916749e+000	 1.9087975487e+000	-9.0041241311e-001
 2.4859750407e+000	 1.9345356282e+000	-9.1768444111e-001
 2.4658810921e+000	 1.9600842940e+000	-8.8313218996e-001
 2.4455125409e+000	 1.9854390982e+000	-8.3667716910e-001
 2.6574607481e+000	 1.7373909670e+000	-5.7642502651e-001
 2.6395117539e+000	 1.7645403654e+000	-5.8271266502e-001
 2.6212668660e+000	 1.7915314726e+000	-5.9159480921e-001
 2.6027281228e+000	 1.8183595131e+000	-6.0374944450e-001
 2.5838976645e+000	 1.8450197450e+000	-6.1986156761e-001
 2.5647777321e+000	 1.8715074632e+000	-6.4062188778e-001
 2.5453706671e+000	 1.8978180015e+000	-7.3582911812e-001
 2.5256789104e+000	 1.9239467356e+000	-8.3599642289e-001
 2.5057050014e+000	 1.9498890856e+000	-9.2973073295e-001
 2.4854515770e+000	 1.9756405186e+000	-9.1550029667e-001
 2.4649213705e+000	 2.0011965513e+000	-8.4962670746e-001
 2.6783856359e+000	 1.7510712108e+000	-5.6389101414e-001
 2.6602953110e+000	 1.7784343840e+000	-5.5851597612e-001
 2.6419067626e+000	 1.8056380196e+000	-5.5521787881e-001
 2.6232220450e+000	 1.8326773045e+000	-5.5470698447e-001
 2.6042433154e+000	 1.8595474596e+000	-5.5770140565e-001
 2.5849728324e+000	 1.8862437425e+000	-6.0027520198e-001
 2.5654129558e+000	 1.9127614504e+000	-6.8777183705e-001
 2.5455661459e+000	 1.9390959225e+000	-7.6842750638e-001
 2.5254349620e+000	 1.9652425429e+000	-8.4218812975e-001
 2.5050220618e+000	 1.9911967431e+000	-9.0900242814e-001
 2.4843302002e+000	 2.0169540045e+000	-8.5872362016e-001
 2.6993105237e+000	 1.7647514547e+000	-5.5001642947e-001
 2.6810788681e+000	 1.7923284027e+000	-5.3304380972e-001
 2.6625466591e+000	 1.8197445667e+000	-5.1764314486e-001
 2.6437159673e+000	 1.8469950960e+000	-5.0455729482e-001
 2.6245889663e+000	 1.8740751741e+000	-4.9453780318e-001
 2.6051679326e+000	 1.9009800217e+000	-5.6752126861e-001
 2.5854552446e+000	 1.9277048992e+000	-6.3625829720e-001
 2.5654533815e+000	 1.9542451094e+000	-6.9769641228e-001
 2.5451649227e+000	 1.9805960003e+000	-7.5178893998e-001
 2.5245925467e+000	 2.0067529677e+000	-7.9849263670e-001
 2.5037390299e+000	 2.0327114576e+000	-8.3776827882e-001
 2.7202354115e+000	 1.7784316985e+000	-5.3466887818e-001
 2.7018624252e+000	 1.8062224213e+000	-5.0615449437e-001
 2.6831865557e+000	 1.8338511137e+000	-4.7871938646e-001
 2.6642098895e+000	 1.8613128874e+000	-4.5313933911e-001
 2.6449346172e+000	 1.8886028886e+000	-4.7307647005e-001
 2.6253630329e+000	 1.9157163009e+000	-5.3103327945e-001
 2.6054975333e+000	 1.9426483480e+000	-5.8128792638e-001
 2.5853406170e+000	 1.9693942963e+000	-6.2379731608e-001
 2.5648948833e+000	 1.9959494577e+000	-6.5852180427e-001
 2.5441630315e+000	 2.0223091922e+000	-6.8542579867e-001
 2.5231478596e+000	 2.0484689108e+000	-7.0447835799e-001
 2.3290595627e+000	 1.8908943792e+000	-6.8427331683e-001
 2.3094020889e+000	 1.9148529948e+000	-7.9940384634e-001
 2.2894885232e+000	 1.9386186582e+000	-8.9395489961e-001
 2.2693217148e+000	 1.9621872884e+000	-9.6884156425e-001
 2.2489045992e+000	 1.9855548604e+000	-1.0249980474e+000
 2.2282401967e+000	 2.0087174082e+000	-1.0633762613e+000
 2.2073316110e+000	 2.0316710262e+000	-1.0849443772e+000
 2.1861820279e+000	 2.0544118722e+000	-1.0906853487e+000
 2.1647947132e+000	 2.0769361689e+000	-1.0815954108e+000
 2.1431730113e+000	 2.0992402062e+000	-1.0586825543e+000
 2.1213203436e+000	 2.1213203435e+000	-1.0229649823e+000
 2.3484683924e+000	 1.9066518324e+000	-7.1797156146e-001
 2.3286471064e+000	 1.9308101031e+000	-8.2312436534e-001
 2.3085675943e+000	 1.9547738137e+000	-9.1095324723e-001
 2.2882327291e+000	 1.9785388491e+000	-9.8234609939e-001
 2.2676454708e+000	 2.0021011509e+000	-1.0382069854e+000
 2.2468088650e+000	 2.0254567199e+000	-1.0794547395e+000
 2.2257260411e+000	 2.0486016181e+000	-1.1070215372e+000
 2.2044002115e+000	 2.0715319712e+000	-1.1218514409e+000
 2.1828346691e+000	 2.0942439703e+000	-1.1248989223e+000
 2.1610327864e+000	 2.1167338746e+000	-1.1171273668e+000
 2.1389980131e+000	 2.1389980131e+000	-1.0995075619e+000
 2.3678772221e+000	 1.9224092855e+000	-7.4851822395e-001
 2.3478921238e+000	 1.9467672113e+000	-8.4220957742e-001
 2.3276466653e+000	 1.9709289692e+000	-9.2178050114e-001
 2.3071437434e+000	 1.9948904098e+000	-9.8809262738e-001
 2.2863863425e+000	 2.0186474414e+000	-1.0420208486e+000
 2.2653775333e+000	 2.0421960316e+000	-1.0844519293e+000
 2.2441204712e+000	 2.0655322100e+000	-1.1162830930e+000
 2.2226183951e+000	 2.0886520701e+000	-1.1384205878e+000
 2.2008746251e+000	 2.1115517717e+000	-1.1517782325e+000
 2.1788925615e+000	 2.1342275430e+000	-1.1572759488e+000
 2.1566756826e+000	 2.1566756826e+000	-1.1558382798e+000
 2.3872860518e+000	 1.9381667387e+000	-7.7578375418e-001
 2.3671371412e+000	 1.9627243196e+000	-8.5655953444e-001
 2.3467257363e+000	 1.9870841247e+000	-9.2636753710e-001
 2.3260547577e+000	 2.0112419706e+000	-9.8604405878e-001
 2.3051272142e+000	 2.0351937319e+000	-1.0364357815e+000
 2.2839462016e+000	 2.0589353434e+000	-1.0783983959e+000
 2.2625149013e+000	 2.0824628019e+000	-1.1127952039e+000
 2.2408365786e+000	 2.1057721690e+000	-1.1404957023e+000
 2.2189145810e+000	 2.1288595731e+000	-1.1623741525e+000
 2.1967523366e+000	 2.1517212114e+000	-1.1793081382e+000
 2.1743533521e+000	 2.1743533521e+000	-1.1921771141e+000
 2.4066948815e+000	 1.9539241918e+000	-7.9964396170e-001
 2.3863821586e+000	 1.9786814279e+000	-8.6607862280e-001
 2.3658048074e+000	 2.0032392801e+000	-9.2464849963e-001
 2.3449657720e+000	 2.0275935313e+000	-9.7616546701e-001
 2.3238680858e+000	 2.0517400224e+000	-1.0214489459e+000
 2.3025148699e+000	 2.0756746551e+000	-1.0613245372e+000
 2.2809093314e+000	 2.0993933938e+000	-1.0966226382e+000
 2.2590547622e+000	 2.1228922680e+000	-1.1281770448e+000
 2.2369545370e+000	 2.1461673745e+000	-1.1568235417e+000
 2.2146121117e+000	 2.1692148798e+000	-1.1833984857e+000
 2.1920310217e+000	 2.1920310217e+000	-1.2087373833e+000
 2.4261037112e+000	 1.9696816450e+000	-8.1997980136e-001
 2.4056271760e+000	 1.9946385362e+000	-8.7067539008e-001
 2.3848838784e+000	 2.0193944356e+000	-9.1656067129e-001
 2.3638767863e+000	 2.0439450920e+000	-9.5842400183e-001
 2.3426089575e+000	 2.0682863129e+000	-9.9705848017e-001
 2.3210835382e+000	 2.0924139668e+000	-1.0332605899e+000
 2.2993037615e+000	 2.1163239857e+000	-1.0678288291e+000
 2.2772729458e+000	 2.1400123669e+000	-1.1015623292e+000
 2.2549944929e+000	 2.1634751759e+000	-1.1352594660e+000
 2.2324718868e+000	 2.1867085482e+000	-1.1697164662e+000
 2.2097086912e+000	 2.2097086912e+000	-1.2057260127e+000
 2.4455125409e+000	 1.9854390982e+000	-8.3667716910e-001
 2.4248721934e+000	 2.0105956445e+000	-8.7026237988e-001
 2.4039629494e+000	 2.0355495911e+000	-9.0204434815e-001
 2.3827878006e+000	 2.0602966528e+000	-9.3278880692e-001
 2.3613498291e+000	 2.0848326034e+000	-9.6326346051e-001
 2.3396522065e+000	 2.1091532786e+000	-9.9423663648e-001
 2.3176981916e+000	 2.1332545775e+000	-1.0264759272e+000
 2.2954911293e+000	 2.1571324658e+000	-1.0607468243e+000
 2.2730344489e+000	 2.1807829773e+000	-1.0978113486e+000
 2.2503316619e+000	 2.2042022166e+000	-1.1384266799e+000
 2.2273863607e+000	 2.2273863607e+000	-1.1833437882e+000
 2.4649213705e+000	 2.0011965513e+000	-8.4962670746e-001
 2.4441172108e+000	 2.0265527528e+000	-8.6475597453e-001
 2.4230420204e+000	 2.0517047466e+000	-8.8104272114e-001
 2.4016988149e+000	 2.0766482135e+000	-8.9923094144e-001
 2.3800907008e+000	 2.1013788939e+000	-9.2006386393e-001
 2.3582208748e+000	 2.1258925903e+000	-9.4428261096e-001
 2.3360926217e+000	 2.1501851694e+000	-9.7262485138e-001
 2.3137093129e+000	 2.1742525648e+000	-1.0058234494e+000
 2.2910744048e+000	 2.1980907787e+000	-1.0446051130e+000
 2.2681914370e+000	 2.2216958849e+000	-1.0896890446e+000
 2.2450640303e+000	 2.2450640303e+000	-1.1417855982e+000
 2.4843302002e+000	 2.0169540045e+000	-8.5872362016e-001
 2.4633622282e+000	 2.0425098611e+000	-8.5407624512e-001
 2.4421210915e+000	 2.0678599021e+000	-8.5350176300e-001
 2.4206098292e+000	 2.0929997742e+000	-8.5772330516e-001
 2.3988315725e+000	 2.1179251844e+000	-8.6746053313e-001
 2.3767895431e+000	 2.1426319020e+000	-8.8342830472e-001
 2.3544870518e+000	 2.1671157613e+000	-9.0633533664e-001
 2.3319274965e+000	 2.1913726637e+000	-9.3688286689e-001
 2.3091143607e+000	 2.2153985802e+000	-9.7576332001e-001
 2.2860512121e+000	 2.2391895533e+000	-1.0236589785e+000
 2.2627416998e+000	 2.2627416998e+000	-1.0812406633e+000
 2.5037390299e+000	 2.0327114576e+000	-8.3776827882e-001
 2.4826072456e+000	 2.0584669694e+000	-8.3814680852e-001
 2.4612001625e+000	 2.0840150576e+000	-8.1937012041e-001
 2.4395208435e+000	 2.1093513350e+000	-8.0824056711e-001
 2.4175724441e+000	 2.1344714749e+000	-8.0545514296e-001
 2.3953582114e+000	 2.1593712138e+000	-8.1170337211e-001
 2.3728814819e+000	 2.1840463532e+000	-8.2766598018e-001
 2.3501456800e+000	 2.2084927626e+000	-8.5401356906e-001
 2.3271543167e+000	 2.2327063816e+000	-8.9140529801e-001
 2.3039109872e+000	 2.2566832217e+000	-9.4048757437e-001
 2.2804193693e+000	 2.2804193693e+000	-1.0018927570e+000
 2.5231478596e+000	 2.0484689108e+000	-7.0447835799e-001
 2.5018522630e+000	 2.0744240777e+000	-8.0393033980e-001
 2.4802792335e+000	 2.1001702130e+000	-7.7859901118e-001
 2.4584318577e+000	 2.1257028957e+000	-7.5075909759e-001
 2.4363133158e+000	 2.1510177654e+000	-7.3405016840e-001
 2.4139268797e+000	 2.1761105255e+000	-7.2913733569e-001
 2.3912759120e+000	 2.2009769451e+000	-7.3667428509e-001
 2.3683638636e+000	 2.2256128616e+000	-7.5730196196e-001
 2.3451942726e+000	 2.2500141830e+000	-7.9164726724e-001
 2.3217707623e+000	 2.2741768901e+000	-8.4032176634e-001
 2.2980970388e+000	 2.2980970388e+000	-9.0392041410e-001
 2.1213203436e+000	 2.1213203435e+000	-1.0229649823e+000
 2.0992402062e+000	 2.1431730113e+000	-9.3657184089e-001
 2.0769361689e+000	 2.1647947132e+000	-8.6960271644e-001
 2.0544118722e+000	 2.1861820279e+000	-8.2237789770e-001
 2.0316710262e+000	 2.2073316110e+000	-7.9519268750e-001
 2.0087174082e+000	 2.2282401967e+000	-7.8831663861e-001
 1.9855548604e+000	 2.2489045992e+000	-8.0199282781e-001
 1.9621872884e+000	 2.2693217148e+000	-8.3643716993e-001
 1.9386186582e+000	 2.2894885232e+000	-8.9183777396e-001
 1.9148529948e+000	 2.3094020889e+000	-9.6835434276e-001
 1.8908943792e+000	 2.3290595627e+000	-1.0661176183e+000
 2.1389980131e+000	 2.1389980131e+000	-1.0995075619e+000
 2.1167338746e+000	 2.1610327864e+000	-1.0151833382e+000
 2.0942439703e+000	 2.1828346691e+000	-9.4671219812e-001
 2.0715319712e+000	 2.2044002115e+000	-8.9452181714e-001
 2.0486016181e+000	 2.2257260411e+000	-8.5901809457e-001
 2.0254567199e+000	 2.2468088650e+000	-8.4058425670e-001
 2.0021011509e+000	 2.2676454708e+000	-8.3957999391e-001
 1.9785388491e+000	 2.2882327291e+000	-8.5634063425e-001
 1.9547738137e+000	 2.3085675943e+000	-8.9117635564e-001
 1.9308101031e+000	 2.3286471064e+000	-9.4437143856e-001
 1.9066518324e+000	 2.3484683924e+000	-1.0161835613e+000
 2.1566756826e+000	 2.1566756826e+000	-1.1558382798e+000
 2.1342275430e+000	 2.1788925615e+000	-1.0756644487e+000
 2.1115517717e+000	 2.2008746251e+000	-1.0078375302e+000
 2.0886520701e+000	 2.2226183951e+000	-9.5289181575e-001
 2.0655322100e+000	 2.2441204712e+000	-9.1134298993e-001
 2.0421960316e+000	 2.2653775333e+000	-8.8368710076e-001
 2.0186474414e+000	 2.2863863425e+000	-8.7039956070e-001
 1.9948904098e+000	 2.3071437434e+000	-8.7193418031e-001
 1.9709289692e+000	 2.3276466653e+000	-8.8872223710e-001
 1.9467672113e+000	 2.3478921238e+000	-9.2117158199e-001
 1.9224092855e+000	 2.3678772221e+000	-9.6966578534e-001
 2.1743533521e+000	 2.1743533521e+000	-1.1921771141e+000
 2.1517212114e+000	 2.1967523366e+000	-1.1181778618e+000
 2.1288595731e+000	 2.2189145810e+000	-1.0530826075e+000
 2.1057721690e+000	 2.2408365786e+000	-9.9753151952e-001
 2.0824628019e+000	 2.2625149013e+000	-9.5214928806e-001
 2.0589353434e+000	 2.2839462016e+000	-9.1754396412e-001
 2.0351937319e+000	 2.3051272142e+000	-8.9430582442e-001
 2.0112419706e+000	 2.3260547577e+000	-8.8300626584e-001
 1.9870841247e+000	 2.3467257363e+000	-8.8419673159e-001
 1.9627243196e+000	 2.3671371412e+000	-8.9840767198e-001
 1.9381667387e+000	 2.3872860518e+000	-9.2614754208e-001
 2.1920310217e+000	 2.1920310217e+000	-1.2087373833e+000
 2.1692148798e+000	 2.2146121117e+000	-1.1428813776e+000
 2.1461673745e+000	 2.2369545370e+000	-1.0825482550e+000
 2.1228922680e+000	 2.2590547622e+000	-1.0284833509e+000
 2.0993933938e+000	 2.2809093314e+000	-9.8141961307e-001
 2.0756746551e+000	 2.3025148699e+000	-9.4207630854e-001
 2.0517400224e+000	 2.3238680858e+000	-9.1115775326e-001
 2.0275935313e+000	 2.3449657720e+000	-8.8935206780e-001
 2.0032392801e+000	 2.3658048074e+000	-8.7732996151e-001
 1.9786814279e+000	 2.3863821586e+000	-8.7574354817e-001
 1.9539241918e+000	 2.4066948815e+000	-8.8522519591e-001
 2.2097086912e+000	 2.2097086912e+000	-1.2057260127e+000
 2.1867085482e+000	 2.2324718868e+000	-1.1499281030e+000
 2.1634751759e+000	 2.2549944929e+000	-1.0963323500e+000
 2.1400123669e+000	 2.2772729458e+000	-1.0457885768e+000
 2.1163239857e+000	 2.2993037615e+000	-9.9913727027e-001
 2.0924139668e+000	 2.3210835382e+000	-9.5720815750e-001
 2.0682863129e+000	 2.3426089575e+000	-9.2081880051e-001
 2.0439450920e+000	 2.3638767863e+000	-8.9077321361e-001
 2.0193944356e+000	 2.3848838784e+000	-8.6786050605e-001
 1.9946385362e+000	 2.4056271760e+000	-8.5285355323e-001
 1.9696816450e+000	 2.4261037112e+000	-8.4650769949e-001
 2.2273863607e+000	 2.2273863607e+000	-1.1833437882e+000
 2.2042022166e+000	 2.2503316619e+000	-1.1394666375e+000
 2.1807829773e+000	 2.2730344489e+000	-1.0945299400e+000
 2.1571324658e+000	 2.2954911293e+000	-1.0494873548e+000
 2.1332545775e+000	 2.3176981916e+000	-1.0052862191e+000
 2.1091532786e+000	 2.3396522065e+000	-9.6286599446e-001
 2.0848326034e+000	 2.3613498291e+000	-9.2315672655e-001
 2.0602966528e+000	 2.3827878006e+000	-8.8707752515e-001
 2.0355495911e+000	 2.4039629494e+000	-8.5553506558e-001
 2.0105956445e+000	 2.4248721934e+000	-8.2942211614e-001
 1.9854390982e+000	 2.4455125409e+000	-8.0961609423e-001
 2.2450640303e+000	 2.2450640303e+000	-1.1417855982e+000
 2.2216958849e+000	 2.2681914370e+000	-1.1116412510e+000
 2.1980907787e+000	 2.2910744048e+000	-1.0772333534e+000
 2.1742525648e+000	 2.3137093129e+000	-1.0396187764e+000
 2.1501851694e+000	 2.3360926217e+000	-9.9985104760e-001
 2.1258925903e+000	 2.3582208748e+000	-9.5897866612e-001
 2.1013788939e+000	 2.3800907008e+000	-9.1804342934e-001
 2.0766482135e+000	 2.4016988149e+000	-8.7807877491e-001
 2.0517047466e+000	 2.4230420204e+000	-8.4010814196e-001
 2.0265527528e+000	 2.4441172108e+000	-8.0514335502e-001
 2.0011965513e+000	 2.4649213705e+000	-7.7418303432e-001
 2.2627416998e+000	 2.2627416998e+000	-1.0812406633e+000
 2.2391895533e+000	 2.2860512121e+000	-1.0665920526e+000
 2.2153985802e+000	 2.3091143607e+000	-1.0445323058e+000
 2.1913726637e+000	 2.3319274965e+000	-1.0162209091e+000
 2.1671157613e+000	 2.3544870518e+000	-9.8281694745e-001
 2.1426319020e+000	 2.3767895431e+000	-9.4547729001e-001
 2.1179251844e+000	 2.3988315725e+000	-9.0535478271e-001
 2.0929997742e+000	 2.4206098292e+000	-8.6359645356e-001
 2.0678599021e+000	 2.4421210915e+000	-8.2134173374e-001
 2.0425098611e+000	 2.4633622282e+000	-7.7972069872e-001
 2.0169540045e+000	 2.4843302002e+000	-7.3985233313e-001
 2.2804193693e+000	 2.2804193693e+000	-1.0018927570e+000
 2.2566832217e+000	 2.3039109872e+000	-1.0044551524e+000
 2.2327063816e+000	 2.3271543167e+000	-9.9651400167e-001
 2.2084927626e+000	 2.3501456800e+000	-9.7933083553e-001
 2.1840463532e+000	 2.3728814819e+000	-9.5416969094e-001
 2.1593712138e+000	 2.3953582114e+000	-9.2229516655e-001
 2.1344714749e+000	 2.4175724441e+000	-8.8497048235e-001
 2.1093513350e+000	 2.4395208435e+000	-8.4345554826e-001
 2.0840150576e+000	 2.4612001625e+000	-7.9900504562e-001
 2.0584669694e+000	 2.4826072456e+000	-7.5286652590e-001
 2.0327114576e+000	 2.5037390299e+000	-7.0488181727e-001
 2.2980970388e+000	 2.2980970388e+000	-9.0392041410e-001
 2.2741768901e+000	 2.3217707623e+000	-9.2536281454e-001
 2.2500141830e+000	 2.3451942726e+000	-9.3326323051e-001
 2.2256128616e+000	 2.3683638636e+000	-9.2898469197e-001
 2.2009769451e+000	 2.3912759120e+000	-9.1389560849e-001
 2.1761105255e+000	 2.4139268797e+000	-8.8936769503e-001
 2.1510177654e+000	 2.4363133158e+000	-8.5677389874e-001
 2.1257028957e+000	 2.4584318577e+000	-8.1748633133e-001
 2.1001702130e+000	 2.4802792335e+000	-7.7287421131e-001
 2.0744240777e+000	 2.5018522630e+000	-7.2368041237e-001
 2.0484689108e+000	 2.5231478596e+000	-6.6150456363e-001
 1.8908943792e+000	 2.3290595627e+000	-1.0661176183e+000
 1.8667469467e+000	 2.3484581830e+000	-1.2612341369e+000
 1.8424148840e+000	 2.3675952769e+000	-1.1558687915e+000
 1.8179024274e+000	 2.3864682618e+000	-1.0674661109e+000
 1.7932138597e+000	 2.4050746461e+000	-9.9615227152e-001
 1.7683535086e+000	 2.4234120303e+000	-9.4200462827e-001
 1.7433257434e+000	 2.4414781082e+000	-9.0505142132e-001
 1.7181349730e+000	 2.4592706672e+000	-8.8527159122e-001
 1.6927856434e+000	 2.4767875899e+000	-8.8259470312e-001
 1.6672822350e+000	 2.4940268541e+000	-8.9690097961e-001
 1.6416292602e+000	 2.5109865337e+000	-9.2189047774e-001
 1.9066518324e+000	 2.3484683924e+000	-1.0161835613e+000
 1.8823031712e+000	 2.3680286678e+000	-1.3472194208e+000
 1.8577683414e+000	 2.3873252375e+000	-1.3593461650e+000
 1.8330516143e+000	 2.4063554973e+000	-1.2435993483e+000
 1.8081573086e+000	 2.4251169348e+000	-1.1463960044e+000
 1.7830897878e+000	 2.4436071306e+000	-1.0678083369e+000
 1.7578534579e+000	 2.4618237591e+000	-1.0078574557e+000
 1.7324527644e+000	 2.4797645894e+000	-9.6651320022e-001
 1.7068921905e+000	 2.4974274865e+000	-9.4369407700e-001
 1.6811762537e+000	 2.5148104112e+000	-9.3016926668e-001
 1.6553095040e+000	 2.5319114214e+000	-9.2614519951e-001
 1.9224092855e+000	 2.3678772221e+000	-9.6966578534e-001
 1.8978593958e+000	 2.3875991527e+000	-1.2701123827e+000
 1.8731217988e+000	 2.4070551982e+000	-1.5627283674e+000
 1.8482008012e+000	 2.4262427328e+000	-1.4191060337e+000
 1.8231007574e+000	 2.4451592235e+000	-1.2954906880e+000
 1.7978260671e+000	 2.4638022308e+000	-1.1919499718e+000
 1.7723811724e+000	 2.4821694100e+000	-1.1084984297e+000
 1.7467705559e+000	 2.5002585117e+000	-1.0449848019e+000
 1.7209987375e+000	 2.5180673831e+000	-9.8984863627e-001
 1.6950702723e+000	 2.5355939683e+000	-9.4666336811e-001
 1.6689897478e+000	 2.5528363092e+000	-9.1493921884e-001
 1.9381667387e+000	 2.3872860518e+000	-9.2614754208e-001
 1.9134156203e+000	 2.4071696375e+000	-1.1954064946e+000
 1.8884752561e+000	 2.4267851588e+000	-1.4958861134e+000
 1.8633499881e+000	 2.4461299684e+000	-1.5932297168e+000
 1.8380442062e+000	 2.4652015122e+000	-1.4426909525e+000
 1.8125623463e+000	 2.4839973311e+000	-1.3136957449e+000
 1.7869088869e+000	 2.5025150609e+000	-1.2050936132e+000
 1.7610883473e+000	 2.5207524339e+000	-1.1062780377e+000
 1.7351052845e+000	 2.5387072796e+000	-1.0208622144e+000
 1.7089642909e+000	 2.5563775254e+000	-9.4835205284e-001
 1.6826699917e+000	 2.5737611970e+000	-8.8823853926e-001
 1.9539241918e+000	 2.4066948815e+000	-8.8522519591e-001
 1.9289718449e+000	 2.4267401224e+000	-1.1227073246e+000
 1.9038287135e+000	 2.4465151195e+000	-1.3927422983e+000
 1.8784991749e+000	 2.4660172039e+000	-1.6952292714e+000
 1.8529876551e+000	 2.4852438010e+000	-1.5872629577e+000
 1.8272986255e+000	 2.5041924313e+000	-1.4303444781e+000
 1.8014366015e+000	 2.5228607118e+000	-1.2847699238e+000
 1.7754061388e+000	 2.5412463561e+000	-1.1540545281e+000
 1.7492118315e+000	 2.5593471762e+000	-1.0377016350e+000
 1.7228583095e+000	 2.5771610825e+000	-9.3519876314e-001
 1.6963502355e+000	 2.5946860848e+000	-8.4601808461e-001
 1.9696816450e+000	 2.4261037112e+000	-8.4650769949e-001
 1.9445280695e+000	 2.4463106072e+000	-1.0516326615e+000
 1.9191821709e+000	 2.4662450801e+000	-1.2906391563e+000
 1.8936483618e+000	 2.4859044394e+000	-1.5634226568e+000
 1.8679311039e+000	 2.5052860897e+000	-1.7260015064e+000
 1.8420349048e+000	 2.5243875316e+000	-1.5305955764e+000
 1.8159643160e+000	 2.5432063627e+000	-1.3515158425e+000
 1.7897239302e+000	 2.5617402783e+000	-1.1882648424e+000
 1.7633183786e+000	 2.5799870728e+000	-1.0403283641e+000
 1.7367523282e+000	 2.5979446396e+000	-9.0717593957e-001
 1.7100304793e+000	 2.6156109726e+000	-7.8826134219e-001
 1.9854390982e+000	 2.4455125409e+000	-8.0961609423e-001
 1.9600842940e+000	 2.4658810921e+000	-9.8181202964e-001
 1.9345356282e+000	 2.4859750407e+000	-1.1892149675e+000
 1.9087975487e+000	 2.5057916749e+000	-1.4290746517e+000
 1.8828745527e+000	 2.5253283784e+000	-1.6925027804e+000
 1.8567711840e+000	 2.5445826318e+000	-1.6184802163e+000
 1.8304920305e+000	 2.5635520136e+000	-1.4052809781e+000
 1.8040417216e+000	 2.5822342006e+000	-1.2088690066e+000
 1.7774249256e+000	 2.6006269694e+000	-1.0287129204e+000
 1.7506463468e+000	 2.6187281968e+000	-8.6426466385e-001
 1.7237107232e+000	 2.6365358603e+000	-7.1496002295e-001
 2.0011965513e+000	 2.4649213705e+000	-7.7418303432e-001
 1.9756405186e+000	 2.4854515770e+000	-9.1288622719e-001
 1.9498890856e+000	 2.5057050014e+000	-1.0856368305e+000
 1.9239467356e+000	 2.5256789104e+000	-1.2836102977e+000
 1.8978180015e+000	 2.5453706671e+000	-1.5097275258e+000
 1.8715074632e+000	 2.5647777321e+000	-1.6939475122e+000
 1.8450197450e+000	 2.5838976645e+000	-1.4460244067e+000
 1.8183595131e+000	 2.6027281228e+000	-1.2158361315e+000
 1.7915314726e+000	 2.6212668660e+000	-1.0028345183e+000
 1.7645403654e+000	 2.6395117539e+000	-8.0645431866e-001
 1.7373909670e+000	 2.6574607481e+000	-6.2611373774e-001
 2.0169540045e+000	 2.4843302002e+000	-7.3985233313e-001
 1.9911967431e+000	 2.5050220618e+000	-8.4246226680e-001
 1.9652425429e+000	 2.5254349620e+000	-9.7192686335e-001
 1.9390959225e+000	 2.5455661459e+000	-1.1311351568e+000
 1.9127614504e+000	 2.5654129558e+000	-1.3192903056e+000
 1.8862437425e+000	 2.5849728324e+000	-1.5355942270e+000
 1.8595474596e+000	 2.6042433154e+000	-1.4737143012e+000
 1.8326773045e+000	 2.6232220450e+000	-1.2091440578e+000
 1.8056380196e+000	 2.6419067626e+000	-9.6268072864e-001
 1.7784343840e+000	 2.6602953110e+000	-7.3374226339e-001
 1.7510712108e+000	 2.6783856359e+000	-5.2172968869e-001
 2.0327114576e+000	 2.5037390299e+000	-7.0488181727e-001
 2.0067529677e+000	 2.5245925467e+000	-7.6280425741e-001
 1.9805960003e+000	 2.5451649227e+000	-8.5208553941e-001
 1.9542451094e+000	 2.5654533815e+000	-9.7191023839e-001
 1.9277048992e+000	 2.5854552446e+000	-1.1214611266e+000
 1.9009800217e+000	 2.6051679326e+000	-1.2999200916e+000
 1.8740751741e+000	 2.6245889663e+000	-1.4883275790e+000
 1.8469950960e+000	 2.6437159673e+000	-1.1887790173e+000
 1.8197445667e+000	 2.6625466591e+000	-9.0824715467e-001
 1.7923284027e+000	 2.6810788681e+000	-6.4613352500e-001
 1.7647514547e+000	 2.6993105237e+000	-4.0182237503e-001
 2.0484689108e+000	 2.5231478596e+000	-6.6150456363e-001
 2.0223091922e+000	 2.5441630315e+000	-6.7786201888e-001
 1.9959494577e+000	 2.5648948833e+000	-7.2637446302e-001
 1.9693942963e+000	 2.5853406170e+000	-8.0620594176e-001
 1.9426483480e+000	 2.6054975333e+000	-9.1651906471e-001
 1.9157163009e+000	 2.6253630329e+000	-1.0564759471e+000
 1.8886028886e+000	 2.6449346172e+000	-1.2252390916e+000
 1.8613128874e+000	 2.6642098895e+000	-1.1547353108e+000
 1.8338511137e+000	 2.6831865557e+000	-8.3953712301e-001
 1.8062224213e+000	 2.7018624252e+000	-5.4364050304e-001
 1.7784316985e+000	 2.7202354115e+000	-2.6641331234e-001
 1.6416292602e+000	 2.5109865337e+000	-9.2189047774e-001
 1.6158312605e+000	 2.5276647993e+000	-9.5484652184e-001
 1.5898928045e+000	 2.5440599187e+000	-9.5704690582e-001
 1.5638184851e+000	 2.5601702572e+000	-9.2954496008e-001
 1.5376129167e+000	 2.5759942776e+000	-8.7340684670e-001
 1.5112807329e+000	 2.5915305413e+000	-7.8971013203e-001
 1.4848265841e+000	 2.6067777073e+000	-6.7954234768e-001
 1.4582551343e+000	 2.6217345334e+000	-5.4399954322e-001
 1.4315710593e+000	 2.6363998752e+000	-3.8418483344e-001
 1.4047790439e+000	 2.6507726869e+000	-2.0120694333e-001
 1.3778837792e+000	 2.6648520205e+000	 3.8212461947e-003
 1.6553095040e+000	 2.5319114214e+000	-9.2614519951e-001
 1.6292965210e+000	 2.5487286726e+000	-9.6933856700e-001
 1.6031419112e+000	 2.5652604181e+000	-9.8203916904e-001
 1.5768503058e+000	 2.5815050093e+000	-9.6530766191e-001
 1.5504263577e+000	 2.5974608966e+000	-9.2021772367e-001
 1.5238747391e+000	 2.6131266291e+000	-8.4785460854e-001
 1.4972001389e+000	 2.6285008549e+000	-7.4931368918e-001
 1.4704072604e+000	 2.6435823211e+000	-6.2569899023e-001
 1.4435008182e+000	 2.6583698742e+000	-4.7812171615e-001
 1.4164855360e+000	 2.6728624593e+000	-3.0769877641e-001
 1.3893661440e+000	 2.6870591207e+000	-1.1555131120e-001
 1.6689897478e+000	 2.5528363092e+000	-9.1493921884e-001
 1.6427617815e+000	 2.5697925460e+000	-9.6818148181e-001
 1.6163910179e+000	 2.5864609174e+000	-9.9119429320e-001
 1.5898821265e+000	 2.6028397614e+000	-9.8504581386e-001
 1.5632397986e+000	 2.6189275156e+000	-9.5081742162e-001
 1.5364687452e+000	 2.6347227169e+000	-8.8960224698e-001
 1.5095736938e+000	 2.6502240024e+000	-8.0250369641e-001
 1.4825593865e+000	 2.6654301089e+000	-6.9063396638e-001
 1.4554305770e+000	 2.6803398731e+000	-5.5511255134e-001
 1.4281920280e+000	 2.6949522317e+000	-3.9706474878e-001
 1.4008485088e+000	 2.7092662209e+000	-2.1762016459e-001
 1.6826699917e+000	 2.5737611970e+000	-8.8823853926e-001
 1.6562270420e+000	 2.5908564193e+000	-9.5134054107e-001
 1.6296401246e+000	 2.6076614167e+000	-9.8447666380e-001
 1.6029139472e+000	 2.6241745136e+000	-9.8872275332e-001
 1.5760532396e+000	 2.6403941346e+000	-9.6516807283e-001
 1.5490627513e+000	 2.6563188048e+000	-9.1491381960e-001
 1.5219472487e+000	 2.6719471500e+000	-8.3907162879e-001
 1.4947115126e+000	 2.6872778967e+000	-7.3876206770e-001
 1.4673603358e+000	 2.7023098721e+000	-6.1511312352e-001
 1.4398985200e+000	 2.7170420041e+000	-4.6925868785e-001
 1.4123308736e+000	 2.7314733210e+000	-3.0233704127e-001
 1.6963502355e+000	 2.5946860848e+000	-8.4601808461e-001
 1.6696923025e+000	 2.6119202926e+000	-9.1878989143e-001
 1.6428892313e+000	 2.6288619160e+000	-9.6185949096e-001
 1.6159457679e+000	 2.6455092657e+000	-9.7631059629e-001
 1.5888666806e+000	 2.6618607536e+000	-9.6324054350e-001
 1.5616567574e+000	 2.6779148926e+000	-9.2375878907e-001
 1.5343208035e+000	 2.6936702975e+000	-8.5898539393e-001
 1.5068636388e+000	 2.7091256845e+000	-7.7004949753e-001
 1.4792900947e+000	 2.7242798711e+000	-6.5808778491e-001
 1.4516050121e+000	 2.7391317765e+000	-5.2424295041e-001
 1.4238132385e+000	 2.7536804212e+000	-3.6966216099e-001
 1.7100304793e+000	 2.6156109726e+000	-7.8826134219e-001
 1.6831575630e+000	 2.6329841659e+000	-8.7051219651e-001
 1.6561383380e+000	 2.6500624153e+000	-9.2332445645e-001
 1.6289775887e+000	 2.6668440179e+000	-9.4778988628e-001
 1.6016801216e+000	 2.6833273725e+000	-9.4501408435e-001
 1.5742507635e+000	 2.6995109805e+000	-9.1611496085e-001
 1.5466943584e+000	 2.7153934451e+000	-8.6222120175e-001
 1.5190157649e+000	 2.7309734722e+000	-7.8447072221e-001
 1.4912198535e+000	 2.7462498700e+000	-6.8400911272e-001
 1.4633115041e+000	 2.7612215489e+000	-5.6198808151e-001
 1.4352956033e+000	 2.7758875214e+000	-4.1956389629e-001
 1.7237107232e+000	 2.6365358603e+000	-7.1496002295e-001
 1.6966228235e+000	 2.6540480393e+000	-8.0649829893e-001
 1.6693874448e+000	 2.6712629147e+000	-8.6886137750e-001
 1.6420094094e+000	 2.6881787700e+000	-9.0314925984e-001
 1.6144935625e+000	 2.7047939915e+000	-9.1047599789e-001
 1.5868447696e+000	 2.7211070683e+000	-8.9196815213e-001
 1.5590679133e+000	 2.7371165927e+000	-8.4876323497e-001
 1.5311678910e+000	 2.7528212600e+000	-7.8200814319e-001
 1.5031496123e+000	 2.7682198690e+000	-6.9285758277e-001
 1.4750179961e+000	 2.7833113213e+000	-5.8247248954e-001
 1.4467779681e+000	 2.7980946215e+000	-4.5201844897e-001
 1.7373909670e+000	 2.6574607481e+000	-6.2611373774e-001
 1.7100880840e+000	 2.6751119126e+000	-7.2674689831e-001
 1.6826365515e+000	 2.6924634140e+000	-7.9846788652e-001
 1.6550412301e+000	 2.7095135222e+000	-8.4238512798e-001
 1.6273070035e+000	 2.7262606105e+000	-8.5962132149e-001
 1.5994387757e+000	 2.7427031562e+000	-8.5131187641e-001
 1.5714414681e+000	 2.7588397402e+000	-8.1860333524e-001
 1.5433200171e+000	 2.7746690478e+000	-7.6265178464e-001
 1.5150793711e+000	 2.7901898679e+000	-6.8462125852e-001
 1.4867244882e+000	 2.8054010937e+000	-5.8568213660e-001
 1.4582603330e+000	 2.8203017217e+000	-4.6700954185e-001
 1.7510712108e+000	 2.6783856359e+000	-5.2172968869e-001
 1.7235533445e+000	 2.6961757859e+000	-6.3126424433e-001
 1.6958856582e+000	 2.7136639133e+000	-7.1214912580e-001
 1.6680730508e+000	 2.7308482743e+000	-7.6550137246e-001
 1.6401204445e+000	 2.7477272295e+000	-7.9245252516e-001
 1.6120327818e+000	 2.7642992440e+000	-7.9414704286e-001
 1.5838150230e+000	 2.7805628878e+000	-7.7174070399e-001
 1.5554721432e+000	 2.7965168356e+000	-7.2639899566e-001
 1.5270091300e+000	 2.8121598669e+000	-6.5929549466e-001
 1.4984309802e+000	 2.8274908661e+000	-5.7161024348e-001
 1.4697426978e+000	 2.8425088219e+000	-4.6452812497e-001
 1.7647514547e+000	 2.6993105237e+000	-4.0182237503e-001
 1.7370186050e+000	 2.7172396593e+000	-5.2006384412e-001
 1.7091347649e+000	 2.7348644126e+000	-6.0991745644e-001
 1.6811048715e+000	 2.7521830265e+000	-6.7250905622e-001
 1.6529338855e+000	 2.7691938485e+000	-7.0897922349e-001
 1.6246267879e+000	 2.7858953319e+000	-7.2048166966e-001
 1.5961885779e+000	 2.8022860354e+000	-7.0818161712e-001
 1.5676242694e+000	 2.8183646234e+000	-6.7325416638e-001
 1.5389388888e+000	 2.8341298659e+000	-6.1688265452e-001
 1.5101374722e+000	 2.8495806385e+000	-5.4025700827e-001
 1.4812250626e+000	 2.8647159220e+000	-4.4457209548e-001
 1.7784316985e+000	 2.7202354115e+000	-2.6641331234e-001
 1.7504838655e+000	 2.7383035326e+000	-3.9316618314e-001
 1.7223838716e+000	 2.7560649120e+000	-4.9179218072e-001
 1.6941366922e+000	 2.7735177786e+000	-5.6342614718e-001
 1.6657473264e+000	 2.7906604674e+000	-6.0921790089e-001
 1.6372207940e+000	 2.8074914197e+000	-6.3033061058e-001
 1.6085621327e+000	 2.8240091829e+000	-6.2793915293e-001
 1.5797763955e+000	 2.8402124111e+000	-6.0322845717e-001
 1.5508686476e+000	 2.8560998648e+000	-5.5739184052e-001
 1.5218439643e+000	 2.8716704108e+000	-4.9162933804e-001
 1.4927074274e+000	 2.8869230222e+000	-4.0714603043e-001
 1.3778837792e+000	 2.6648520205e+000	 3.8212461947e-003
 1.3508899601e+000	 2.6786370258e+000	-2.5450767538e-001
 1.3238022833e+000	 2.6921269500e+000	-5.5727014027e-001
 1.2966254442e+000	 2.7053211376e+000	-9.0329335942e-001
 1.2693641349e+000	 2.7182190297e+000	-1.2913682029e+000
 1.2420230416e+000	 2.7308201633e+000	-1.4797159810e+000
 1.2146068424e+000	 2.7431241712e+000	-1.1130902365e+000
 1.1871202048e+000	 2.7551307808e+000	-7.7061354792e-001
 1.1595677832e+000	 2.7668398140e+000	-4.5226257942e-001
 1.1319542172e+000	 2.7782511856e+000	-1.5787724632e-001
 1.1042841287e+000	 2.7893649032e+000	 1.1283634253e-001
 1.3893661440e+000	 2.6870591207e+000	-1.1555131120e-001
 1.3621473764e+000	 2.7009590010e+000	-3.3674174882e-001
 1.3348339690e+000	 2.7145613413e+000	-6.0043523116e-001
 1.3074306562e+000	 2.7278654804e+000	-9.0554833079e-001
 1.2799421693e+000	 2.7408708549e+000	-1.2509623128e+000
 1.2523732336e+000	 2.7535769980e+000	-1.6355243665e+000
 1.2247285661e+000	 2.7659835393e+000	-1.2971852038e+000
 1.1970128732e+000	 2.7780902040e+000	-9.1179417299e-001
 1.1692308481e+000	 2.7898968124e+000	-5.5038138852e-001
 1.1413871690e+000	 2.8014032788e+000	-2.1287874084e-001
 1.1134864964e+000	 2.8126096107e+000	 1.0091909799e-001
 1.4008485088e+000	 2.7092662209e+000	-2.1762016459e-001
 1.3734047928e+000	 2.7232809762e+000	-4.0353373677e-001
 1.3458656546e+000	 2.7369957325e+000	-6.3005779463e-001
 1.3182358682e+000	 2.7504098233e+000	-8.9619735483e-001
 1.2905202038e+000	 2.7635226802e+000	-1.2009231487e+000
 1.2627234256e+000	 2.7763338327e+000	-1.5431727430e+000
 1.2348502898e+000	 2.7888429074e+000	-1.4706351753e+000
 1.2069055415e+000	 2.8010496272e+000	-1.0451997093e+000
 1.1788939129e+000	 2.8129538109e+000	-6.4368713080e-001
 1.1508201208e+000	 2.8245553720e+000	-2.6611963673e-001
 1.1226888642e+000	 2.8358543183e+000	 8.7621297826e-002
 1.4123308736e+000	 2.7314733210e+000	-3.0233704127e-001
 1.3846622091e+000	 2.7456029514e+000	-4.5478343636e-001
 1.3568973403e+000	 2.7594301238e+000	-6.4598469320e-001
 1.3290410803e+000	 2.7729541661e+000	-8.7503338560e-001
 1.3010982382e+000	 2.7861745054e+000	-1.1409888132e+000
 1.2730736177e+000	 2.7990906674e+000	-1.4428780121e+000
 1.2449720135e+000	 2.8117022754e+000	-1.6317844010e+000
 1.2167982099e+000	 2.8240090504e+000	-1.1691317718e+000
 1.1885569778e+000	 2.8360108093e+000	-7.3043889735e-001
 1.1602530726e+000	 2.8477074652e+000	-3.1581663252e-001
 1.1318912319e+000	 2.8590990258e+000	 7.4768485274e-002
 1.4238132385e+000	 2.7536804212e+000	-3.6966216099e-001
 1.3959196254e+000	 2.7679249266e+000	-4.9040070450e-001
 1.3679290260e+000	 2.7818645150e+000	-6.4807444583e-001
 1.3398462923e+000	 2.7954985089e+000	-8.4186265864e-001
 1.3116762727e+000	 2.8088263307e+000	-1.0709123430e+000
 1.2834238097e+000	 2.8218475021e+000	-1.3343391267e+000
 1.2550937372e+000	 2.8345616435e+000	-1.6312281909e+000
 1.2266908783e+000	 2.8469684735e+000	-1.2819120238e+000
 1.1982200427e+000	 2.8590678078e+000	-8.0891758124e-001
 1.1696860244e+000	 2.8708595585e+000	-3.6021000532e-001
 1.1410935996e+000	 2.8823437333e+000	 6.4160826224e-002
 1.4352956033e+000	 2.7758875214e+000	-4.1956389629e-001
 1.4071770418e+000	 2.7902469018e+000	-5.1030505547e-001
 1.3789607117e+000	 2.8042989063e+000	-6.3619676159e-001
 1.3506515043e+000	 2.8180428517e+000	-7.9650415967e-001
 1.3222543071e+000	 2.8314781559e+000	-9.9046111164e-001
 1.2937740017e+000	 2.8446043368e+000	-1.2172709886e+000
 1.2652154609e+000	 2.8574210116e+000	-1.4761074876e+000
 1.2365835466e+000	 2.8699278967e+000	-1.3818813747e+000
 1.2078831075e+000	 2.8821248062e+000	-8.7742500535e-001
 1.1791189762e+000	 2.8940116517e+000	-3.9756266775e-001
 1.1502959674e+000	 2.9055884408e+000	 5.7574124305e-002
 1.4467779681e+000	 2.7980946215e+000	-4.5201844897e-001
 1.4184344581e+000	 2.8125688771e+000	-5.1442527771e-001
 1.3899923974e+000	 2.8267332975e+000	-6.1023209565e-001
 1.3614567164e+000	 2.8405871945e+000	-7.3878911865e-001
 1.3328323416e+000	 2.8541299812e+000	-8.9941626021e-001
 1.3041241937e+000	 2.8673611715e+000	-1.0914038152e+000
 1.2753371846e+000	 2.8802803797e+000	-1.3140131688e+000
 1.2464762150e+000	 2.8928873199e+000	-1.4673992164e+000
 1.2175461724e+000	 2.9051818047e+000	-9.3428309185e-001
 1.1885519280e+000	 2.9171637449e+000	-4.2615926966e-001
 1.1594983351e+000	 2.9288331484e+000	 5.6760787645e-002
 1.4582603330e+000	 2.8203017217e+000	-4.6700954185e-001
 1.4296918744e+000	 2.8348908523e+000	-5.0269906869e-001
 1.4010240831e+000	 2.8491676888e+000	-5.7007122619e-001
 1.3722619284e+000	 2.8631315373e+000	-6.6856052775e-001
 1.3434103761e+000	 2.8767818064e+000	-7.9757215570e-001
 1.3144743857e+000	 2.8901180061e+000	-9.5648253729e-001
 1.2854589082e+000	 2.9031397478e+000	-1.1446399456e+000
 1.2563688834e+000	 2.9158467430e+000	-1.3613651246e+000
 1.2272092372e+000	 2.9282388031e+000	-9.7783307094e-001
 1.1979848799e+000	 2.9403158381e+000	-4.4430534235e-001
 1.1687007029e+000	 2.9520778559e+000	 6.3450749949e-002
 1.4697426978e+000	 2.8425088219e+000	-4.6452812497e-001
 1.4409492908e+000	 2.8572128275e+000	-4.7507268690e-001
 1.4120557688e+000	 2.8716020800e+000	-5.1561485115e-001
 1.3830671404e+000	 2.8856758801e+000	-5.8567268183e-001
 1.3539884105e+000	 2.8994336316e+000	-6.8473587420e-001
 1.3248245777e+000	 2.9128748408e+000	-8.1226622344e-001
 1.2955806319e+000	 2.9259991159e+000	-9.6769811823e-001
 1.2662615518e+000	 2.9388061662e+000	-1.1504390589e+000
 1.2368723021e+000	 2.9512958016e+000	-1.0064347265e+000
 1.2074178317e+000	 2.9634679313e+000	-4.5032648289e-001
 1.1779030706e+000	 2.9753225634e+000	 7.9352348413e-002
 1.4812250626e+000	 2.8647159220e+000	-4.4457209548e-001
 1.4522067071e+000	 2.8795348027e+000	-4.3150062004e-001
 1.4230874545e+000	 2.8940364712e+000	-4.4677320377e-001
 1.3938723525e+000	 2.9082202229e+000	-4.8999074041e-001
 1.3645664450e+000	 2.9220854569e+000	-5.6072670835e-001
 1.3351747697e+000	 2.9356316755e+000	-6.5852753266e-001
 1.3057023556e+000	 2.9488584840e+000	-7.8291297197e-001
 1.2761542201e+000	 2.9617655894e+000	-9.3337653005e-001
 1.2465353670e+000	 2.9743528000e+000	-1.0184656772e+000
 1.2168507835e+000	 2.9866200245e+000	-4.4256757638e-001
 1.1871054383e+000	 2.9985672709e+000	 1.0615316079e-001
 1.4927074274e+000	 2.8869230222e+000	-4.0714603043e-001
 1.4634641235e+000	 2.9018567779e+000	-3.7194526848e-001
 1.4341191402e+000	 2.9164708625e+000	-3.6346568582e-001
 1.4046775645e+000	 2.9307645658e+000	-3.8139030975e-001
 1.3751444794e+000	 2.9447372821e+000	-4.2537569739e-001
 1.3455249618e+000	 2.9583885102e+000	-4.9505219143e-001
 1.3158240793e+000	 2.9717178521e+000	-5.9002420068e-001
 1.2860468885e+000	 2.9847250126e+000	-7.0987050571e-001
 1.2561984318e+000	 2.9974097985e+000	-8.5414458934e-001
 1.2262837353e+000	 3.0097721177e+000	-4.1939205408e-001
 1.1963078061e+000	 3.0218119785e+000	 1.4552080384e-001
 1.1042841287e+000	 2.7893649032e+000	 1.1283634253e-001
 1.0765621202e+000	 2.8001810658e+000	 6.2744652044e-002
 1.0487927723e+000	 2.8106998632e+000	 2.9831527497e-002
 1.0209806419e+000	 2.8209215744e+000	 1.3228920637e-002
 9.9313025989e-001	 2.8308465672e+000	 1.2173016897e-002
 9.6524612913e-001	 2.8404752965e+000	 2.6002033386e-002
 9.3733272262e-001	 2.8498083036e+000	 5.4153828000e-002
 9.0939448149e-001	 2.8588462143e+000	 9.6163331045e-002
 8.8143581311e-001	 2.8675897383e+000	 1.5165981099e-001
 8.5346108929e-001	 2.8760396675e+000	 2.2036398613e-001
 8.2547464451e-001	 2.8841968746e+000	 3.0208499407e-001
 1.1134864964e+000	 2.8126096107e+000	 1.0091909799e-001
 1.0855334712e+000	 2.8235159081e+000	 5.7578575934e-002
 1.0575327121e+000	 2.8341223620e+000	 2.6033688543e-002
 1.0294888139e+000	 2.8444292542e+000	 5.6096244032e-003
 1.0014063454e+000	 2.8544369552e+000	-4.2597435368e-003
 9.7328984687e-001	 2.8641459240e+000	-4.0343578971e-003
 9.4514382864e-001	 2.8735567061e+000	 5.9293315871e-003
 9.1697276883e-001	 2.8826699328e+000	 2.5375496950e-002
 8.8878111155e-001	 2.8914863195e+000	 5.4145893547e-002
 8.6057326503e-001	 2.9000066647e+000	 9.2176666663e-002
 8.3235359987e-001	 2.9082318485e+000	 1.3949501568e-001
 1.1226888642e+000	 2.8358543183e+000	 8.7621297826e-002
 1.0945048222e+000	 2.8468507503e+000	 5.4508314390e-002
 1.0662726518e+000	 2.8575448609e+000	 2.7796470241e-002
 1.0379969859e+000	 2.8679369340e+000	 7.0027160157e-003
 1.0096824309e+000	 2.8780273433e+000	-8.2427916313e-003
 9.8133356461e-001	 2.8878165515e+000	-1.8199488348e-002
 9.5295493466e-001	 2.8973051086e+000	-2.3019394844e-002
 9.2455105618e-001	 2.9064936512e+000	-2.2750291426e-002
 8.9612640999e-001	 2.9153829006e+000	-1.7339061435e-002
 8.6768544077e-001	 2.9239736620e+000	-6.6351905847e-003
 8.3923255524e-001	 2.9322668225e+000	 9.6055909174e-003
 1.1318912319e+000	 2.8590990258e+000	 7.4768485274e-002
 1.1034761732e+000	 2.8701855925e+000	 5.5237961606e-002
 1.0750125916e+000	 2.8809673597e+000	 3.6700540988e-002
 1.0465051580e+000	 2.8914446137e+000	 1.8863528962e-002
 1.0179585164e+000	 2.9016177314e+000	 1.5520305844e-003
 9.8937728235e-001	 2.9114871789e+000	-1.5294146795e-002
 9.6076604068e-001	 2.9210535112e+000	-3.1623788151e-002
 9.3212934352e-001	 2.9303173697e+000	-4.7277749487e-002
 9.0347170843e-001	 2.9392794818e+000	-6.1992607127e-002
 8.7479761651e-001	 2.9479406592e+000	-7.5404463964e-002
 8.4611151061e-001	 2.9563017964e+000	-8.7052898933e-002
 1.1410935996e+000	 2.8823437333e+000	 6.4160826224e-002
 1.1124475242e+000	 2.8935204347e+000	 6.1449689475e-002
 1.0837525314e+000	 2.9043898586e+000	 5.4308139499e-002
 1.0550133300e+000	 2.9149522935e+000	 4.2632495426e-002
 1.0262346019e+000	 2.9252081194e+000	 2.6441542122e-002
 9.9742100009e-001	 2.9351578064e+000	 5.8731334757e-003
 9.6857714670e-001	 2.9448019137e+000	-1.8819404792e-002
 9.3970763087e-001	 2.9541410881e+000	-4.7271058828e-002
 9.1081700687e-001	 2.9631760629e+000	-7.9009082732e-002
 8.8190979226e-001	 2.9719076564e+000	-1.1345711275e-001
 8.5299046598e-001	 2.9803367704e+000	-1.4993942524e-001
 1.1502959674e+000	 2.9055884408e+000	 5.7574124305e-002
 1.1214188752e+000	 2.9168552769e+000	 7.4804624484e-002
 1.0924924711e+000	 2.9278123575e+000	 8.2163811995e-002
 1.0635215020e+000	 2.9384599733e+000	 7.9735742342e-002
 1.0345106874e+000	 2.9487985075e+000	 6.7731676592e-002
 1.0054647178e+000	 2.9588284339e+000	 4.6486384498e-002
 9.7638825273e-001	 2.9685503162e+000	 1.6454243956e-002
 9.4728591821e-001	 2.9779648066e+000	-2.1794848593e-002
 9.1816230531e-001	 2.9870726441e+000	-6.7579742048e-002
 8.8902196800e-001	 2.9958746536e+000	-1.2011245390e-001
 8.5986942135e-001	 3.0043717443e+000	-1.7850273789e-001
 1.1594983351e+000	 2.9288331484e+000	 5.6760787645e-002
 1.1303902262e+000	 2.9401901191e+000	 9.6943682850e-002
 1.1012324109e+000	 2.9512348563e+000	 1.2179511429e-001
 1.0720296740e+000	 2.9619676531e+000	 1.3158565907e-001
 1.0427867729e+000	 2.9723888955e+000	 1.2671791416e-001
 1.0135084356e+000	 2.9824990614e+000	 1.0772249865e-001
 9.8419935875e-001	 2.9922987187e+000	 7.5253848937e-002
 9.5486420556e-001	 3.0017885250e+000	 3.0085822291e-002
 9.2550760376e-001	 3.0109692252e+000	-2.6892875900e-002
 8.9613414375e-001	 3.0198416509e+000	-9.4683425642e-002
 8.6674837673e-001	 3.0284067183e+000	-1.7218177096e-001
 1.1687007029e+000	 2.9520778559e+000	 6.3450749949e-002
 1.1393615772e+000	 2.9635249613e+000	 1.2948836620e-001
 1.1099723507e+000	 2.9746573552e+000	 1.7471328069e-001
 1.0805378460e+000	 2.9854753329e+000	 1.9958143822e-001
 1.0510628584e+000	 2.9959792836e+000	 2.0468569312e-001
 1.0215521533e+000	 3.0061696888e+000	 1.9075150975e-001
 9.9201046477e-001	 3.0160471213e+000	 1.5863245263e-001
 9.6244249291e-001	 3.0256122435e+000	 1.0930548203e-001
 9.3285290220e-001	 3.0348658064e+000	 4.3866071201e-002
 9.0324631949e-001	 3.0438086481e+000	-3.6476838602e-002
 8.7362733210e-001	 3.0524416922e+000	-1.3040602909e-001
 1.1779030706e+000	 2.9753225634e+000	 7.9352348413e-002
 1.1483329282e+000	 2.9868598036e+000	 1.7404151995e-001
 1.1187122905e+000	 2.9980798540e+000	 2.4241386157e-001
 1.0890460181e+000	 3.0089830127e+000	 2.8510959118e-001
 1.0593389439e+000	 3.0195696717e+000	 3.0291080211e-001
 1.0295958711e+000	 3.0298403163e+000	 2.9673686097e-001
 9.9982157080e-001	 3.0397955238e+000	 2.6763959169e-001
 9.7002078026e-001	 3.0494359619e+000	 2.1679826209e-001
 9.4019820065e-001	 3.0587623875e+000	 1.4551438988e-001
 9.1035849524e-001	 3.0677756453e+000	 5.5206384836e-002
 8.8050628747e-001	 3.0764766662e+000	-5.2595955881e-002
 1.1871054383e+000	 2.9985672709e+000	 1.0615316079e-001
 1.1573042792e+000	 3.0101946458e+000	 2.3218805642e-001
 1.1274522302e+000	 3.0215023529e+000	 3.2637733126e-001
 1.0975541901e+000	 3.0324906925e+000	 3.8954443964e-001
 1.0676150294e+000	 3.0431600597e+000	 4.2265975418e-001
 1.0376395888e+000	 3.0535109438e+000	 4.2683566026e-001
 1.0076326768e+000	 3.0635439263e+000	 4.0332143279e-001
 9.7759906761e-001	 3.0732596804e+000	 3.5349791259e-001
 9.4754349910e-001	 3.0826589687e+000	 2.7887199989e-001
 9.1747067099e-001	 3.0917426426e+000	 1.8107098230e-001
 8.8738524285e-001	 3.1005116401e+000	 6.1836714925e-002
 1.1963078061e+000	 3.0218119785e+000	 1.4552080384e-001
 1.1662756302e+000	 3.0335294880e+000	 3.0549564455e-001
 1.1361921700e+000	 3.0449248518e+000	 4.2806966793e-001
 1.1060623621e+000	 3.0559983723e+000	 5.1424858438e-001
 1.0758911149e+000	 3.0667504478e+000	 5.6519014352e-001
 1.0456833066e+000	 3.0771815712e+000	 5.8219892406e-001
 1.0154437829e+000	 3.0872923289e+000	 5.6672090226e-001
 9.8517735496e-001	 3.0970833988e+000	 5.2033781693e-001
 9.5488879754e-001	 3.1065555498e+000	 4.4476134897e-001
 9.2458284674e-001	 3.1157096398e+000	 3.4182713376e-001
 8.9426419823e-001	 3.1245466141e+000	 2.1348862445e-001
 8.2547464451e-001	 2.8841968746e+000	 3.0208499407e-001
 7.9748077418e-001	 2.8920623117e+000	 2.3666443017e-001
 7.6948373301e-001	 2.8996370091e+000	 1.0611759790e-001
 7.4148773336e-001	 2.9069220735e+000	-8.6822051755e-002
 7.1349694372e-001	 2.9139186865e+000	-3.3931919506e-001
 6.8551548720e-001	 2.9206281031e+000	-6.4844332575e-001
 6.5754744009e-001	 2.9270516504e+000	-1.0111754842e+000
 6.2959683048e-001	 2.9331907253e+000	-1.4244150100e+000
 6.0166763694e-001	 2.9390467935e+000	-7.4220480952e-001
 5.7376378727e-001	 2.9446213876e+000	 2.5187835648e-001
 5.4588915724e-001	 2.9499161052e+000	 1.3523026653e+000
 8.3235359987e-001	 2.9082318485e+000	 1.3949501568e-001
 8.0412644730e-001	 2.9161628310e+000	 9.5384556807e-002
 7.7589609745e-001	 2.9238006509e+000	-9.7858011435e-003
 7.4766679780e-001	 2.9311464241e+000	-1.7336522647e-001
 7.1944275158e-001	 2.9382013422e+000	-3.9260103635e-001
 6.9122811626e-001	 2.9449666706e+000	-6.6464536096e-001
 6.6302700209e-001	 2.9514437475e+000	-9.8656184838e-001
 6.3484347073e-001	 2.9576339813e+000	-1.3553323944e+000
 6.0668153392e-001	 2.9635388501e+000	-8.4442798552e-001
 5.7854515216e-001	 2.9691598992e+000	 2.4998952750e-001
 5.5043823355e-001	 2.9744987394e+000	 1.4666314953e+000
 8.3923255524e-001	 2.9322668225e+000	 9.6055909174e-003
 8.1077212041e-001	 2.9402633502e+000	-1.7302892481e-002
 7.8230846189e-001	 2.9479642926e+000	-1.0133342017e-001
 7.5384586224e-001	 2.9553707747e+000	-2.3991454322e-001
 7.2538855945e-001	 2.9624839979e+000	-4.3037291026e-001
 6.9694074532e-001	 2.9693052382e+000	-6.6993991035e-001
 6.6850656409e-001	 2.9758358445e+000	-9.5575835849e-001
 6.4009011098e-001	 2.9820772374e+000	-1.2848892078e+000
 6.1169543089e-001	 2.9880309068e+000	-9.6653806831e-001
 5.8332651705e-001	 2.9936984107e+000	 2.1785199169e-001
 5.5498730986e-001	 2.9990813737e+000	 1.5405936897e+000
 8.4611151061e-001	 2.9563017964e+000	-8.7052898933e-002
 8.1741779353e-001	 2.9643638695e+000	-1.0082486602e-001
 7.8872082633e-001	 2.9721279343e+000	-1.6790823807e-001
 7.6002492669e-001	 2.9795951253e+000	-2.8580773773e-001
 7.3133436731e-001	 2.9867666536e+000	-4.5192606103e-001
 7.0265337437e-001	 2.9936438057e+000	-6.6357050394e-001
 6.7398612608e-001	 3.0002279416e+000	-9.1795963331e-001
 6.4533675123e-001	 3.0065204934e+000	-1.2122299863e+000
 6.1670932786e-001	 3.0125229634e+000	-1.1054202997e+000
 5.8810788194e-001	 3.0182369223e+000	 1.5848727619e-001
 5.5953638617e-001	 3.0236640079e+000	 1.5771225420e+000
 8.5299046598e-001	 2.9803367704e+000	-1.4993942524e-001
 8.2406346665e-001	 2.9884643887e+000	-1.5459974588e-001
 7.9513319077e-001	 2.9962915761e+000	-2.0888681182e-001
 7.6620399113e-001	 3.0038194759e+000	-3.1037833000e-001
 7.3728017517e-001	 3.0110493093e+000	-4.5654978386e-001
 7.0836600343e-001	 3.0179823732e+000	-6.4478104837e-001
 6.7946568808e-001	 3.0246200387e+000	-8.7236305139e-001
 6.5058339149e-001	 3.0309637495e+000	-1.1365044651e+000
 6.2172322484e-001	 3.0370150200e+000	-1.2579676144e+000
 5.9288924684e-001	 3.0427754338e+000	 7.4906668621e-002
 5.6408546248e-001	 3.0482466421e+000	 1.5791385081e+000
 8.5986942135e-001	 3.0043717443e+000	-1.7850273789e-001
 8.3070913976e-001	 3.0125649080e+000	-1.7803769053e-001
 8.0154555521e-001	 3.0204552178e+000	-2.2363953340e-001
 7.7238305558e-001	 3.0280438265e+000	-3.1295579302e-001
 7.4322598304e-001	 3.0353319650e+000	-4.4353150288e-001
 7.1407863249e-001	 3.0423209407e+000	-6.1281581182e-001
 6.8494525008e-001	 3.0490121358e+000	-8.1816864062e-001
 6.5583003174e-001	 3.0554070055e+000	-1.0568673704e+000
 6.2673712181e-001	 3.0615070766e+000	-1.3261135466e+000
 5.9767061173e-001	 3.0673139454e+000	-2.9888373331e-002
 5.6863453879e-001	 3.0728292763e+000	 1.5495497191e+000
 8.6674837673e-001	 3.0284067183e+000	-1.7218177096e-001
 8.3735481288e-001	 3.0366654273e+000	-1.7054096116e-001
 8.0795791965e-001	 3.0446188595e+000	-2.1153087440e-001
 7.7856212002e-001	 3.0522681771e+000	-2.9286571331e-001
 7.4917179090e-001	 3.0596146208e+000	-4.1215684540e-001
 7.1979126155e-001	 3.0666595083e+000	-5.6691940964e-001
 6.9042481209e-001	 3.0734042329e+000	-7.5457897314e-001
 6.6107667200e-001	 3.0798502615e+000	-9.7247822128e-001
 6.3175101878e-001	 3.0859991332e+000	-1.2178836653e+000
 6.0245197662e-001	 3.0918524570e+000	-1.5290583186e-001
 5.7318361510e-001	 3.0974119105e+000	 1.4912524713e+000
 8.7362733210e-001	 3.0524416922e+000	-1.3040602909e-001
 8.4400048600e-001	 3.0607659465e+000	-1.3150423261e-001
 8.1437028410e-001	 3.0687825013e+000	-1.7191961914e-001
 7.8474118447e-001	 3.0764925277e+000	-2.4942994396e-001
 7.5511759877e-001	 3.0838972765e+000	-3.6170971266e-001
 7.2550389062e-001	 3.0909980758e+000	-5.0633679073e-001
 6.9590437409e-001	 3.0977963300e+000	-6.8079906516e-001
 6.6632331225e-001	 3.1042935176e+000	-8.8250114121e-001
 6.3676491576e-001	 3.1104911898e+000	-1.1087710582e+000
 6.0723334152e-001	 3.1163909685e+000	-2.9116275738e-001
 5.7773269141e-001	 3.1219945447e+000	 1.4071316912e+000
 8.8050628747e-001	 3.0764766662e+000	-5.2595955881e-002
 8.5064615913e-001	 3.0848664658e+000	-6.0314889706e-002
 8.2078264854e-001	 3.0929461430e+000	-1.0415908678e-001
 7.9092024892e-001	 3.1007168783e+000	-1.8196675045e-001
 7.6106340663e-001	 3.1081799322e+000	-2.9147234725e-001
 7.3121651968e-001	 3.1153366433e+000	-4.3031322447e-001
 7.0138393609e-001	 3.1221884270e+000	-5.9603628146e-001
 6.7156995251e-001	 3.1287367736e+000	-7.7131482822e-001
 6.4177881273e-001	 3.1349832464e+000	-9.5371132610e-001
 6.1201470641e-001	 3.1409294801e+000	-3.6507038381e-001
 5.8228176772e-001	 3.1465771789e+000	 1.3915976903e+000
 8.8738524285e-001	 3.1005116401e+000	 6.1836714925e-002
 8.5729183225e-001	 3.1089669851e+000	 4.3646690187e-002
 8.2719501299e-001	 3.1171097848e+000	-7.5973432174e-003
 7.9709931337e-001	 3.1249412290e+000	-8.9790949697e-002
 7.6700921450e-001	 3.1324625879e+000	-1.7643194128e-001
 7.3692914874e-001	 3.1396752108e+000	-2.8467287775e-001
 7.0686349809e-001	 3.1465805241e+000	-4.1165056572e-001
 6.7681659276e-001	 3.1531800297e+000	-5.5438236783e-001
 6.4679270971e-001	 3.1594753030e+000	-7.0993782320e-001
 6.1679607131e-001	 3.1654679917e+000	-3.7710842903e-001
 5.8683084403e-001	 3.1711598131e+000	 1.4098221982e+000
 8.9426419823e-001	 3.1245466141e+000	 2.1348862445e-001
 8.6393750537e-001	 3.1330675043e+000	 2.0274882441e-001
 8.3360737744e-001	 3.1412734265e+000	 1.6681881476e-001
 8.0327837781e-001	 3.1491655796e+000	 1.0766004818e-001
 7.7295502237e-001	 3.1567452436e+000	 2.8299190405e-002
 7.4264177780e-001	 3.1640137784e+000	-6.8292089370e-002
 7.1234306010e-001	 3.1709726212e+000	-1.7919718682e-001
 6.8206323302e-001	 3.1776232857e+000	-3.0155454475e-001
 6.5180660668e-001	 3.1839673596e+000	-4.3255755487e-001
 6.2157743620e-001	 3.1900065032e+000	-3.6093105847e-001
 5.9137992034e-001	 3.1957424473e+000	 1.4530857002e+000
 5.4588915724e-001	 2.9499161052e+000	 1.3523026653e+000
 5.1804756952e-001	 2.9549326076e+000	 1.0933516200e+000
 4.9024279252e-001	 2.9596726178e+000	 8.2140458155e-001
 4.6247853940e-001	 2.9641379186e+000	 5.4029782380e-001
 4.3475846709e-001	 2.9683303514e+000	 2.5327298989e-001
 4.0708617535e-001	 2.9722518140e+000	-3.7021555450e-002
 3.7946520596e-001	 2.9759042588e+000	-3.2852800656e-001
 3.5189904187e-001	 2.9792896912e+000	-6.1977507490e-001
 3.2439110650e-001	 2.9824101680e+000	-9.0987267161e-001
 2.9694476301e-001	 2.9852677950e+000	-1.1985053633e+000
 2.6956331372e-001	 2.9878647258e+000	-1.4859246520e+000
 5.5043823355e-001	 2.9744987394e+000	 1.4666314953e+000
 5.2236463260e-001	 2.9795570460e+000	 1.2302889812e+000
 4.9432814913e-001	 2.9843365562e+000	 9.9369703294e-001
 4.6633252723e-001	 2.9888390679e+000	 7.6104550885e-001
 4.3838145432e-001	 2.9930664377e+000	 5.3590213261e-001
 4.1047856015e-001	 2.9970205791e+000	 3.2121385450e-001
 3.8262741601e-001	 3.0007034609e+000	 1.1930962970e-001
 3.5483153389e-001	 3.0041171053e+000	-6.8095432559e-002
 3.2709436572e-001	 3.0072635860e+000	-2.3989459770e-001
 2.9941930270e-001	 3.0101450266e+000	-3.9558276259e-001
 2.7180967467e-001	 3.0127635985e+000	-5.3524849321e-001
 5.5498730986e-001	 2.9990813737e+000	 1.5405936897e+000
 5.2668169568e-001	 3.0041814844e+000	 1.3247349888e+000
 4.9841350573e-001	 3.0090004947e+000	 1.1216762538e+000
 4.7018651506e-001	 3.0135402172e+000	 9.3596662765e-001
 4.4200444154e-001	 3.0178025240e+000	 7.7150510560e-001
 4.1387094494e-001	 3.0217893442e+000	 6.3154190671e-001
 3.8578962606e-001	 3.0255026631e+000	 5.1868131347e-001
 3.5776402590e-001	 3.0289445194e+000	 4.3488593092e-001
 3.2979762494e-001	 3.0321170041e+000	 3.8148231582e-001
 3.0189384239e-001	 3.0350222582e+000	 3.5916792325e-001
 2.7405603562e-001	 3.0376624713e+000	 3.6801931680e-001
 5.5953638617e-001	 3.0236640079e+000	 1.5771225420e+000
 5.3099875876e-001	 3.0288059228e+000	 1.3793510044e+000
 5.0249886233e-001	 3.0336644332e+000	 1.2077358386e+000
 4.7404050289e-001	 3.0382413666e+000	 1.0671913084e+000
 4.4562742877e-001	 3.0425386102e+000	 9.6195300078e-001
 4.1726332974e-001	 3.0465581093e+000	 8.9557920965e-001
 3.8895183611e-001	 3.0503018652e+000	 8.7095383886e-001
 3.6069651792e-001	 3.0537719335e+000	 8.9029077437e-001
 3.3250088416e-001	 3.0569704222e+000	 9.5513967492e-001
 3.0436838209e-001	 3.0598994898e+000	 1.0663931269e+000
 2.7630239656e-001	 3.0625613440e+000	 1.2242951074e+000
 5.6408546248e-001	 3.0482466421e+000	 1.5791385081e+000
 5.3531582184e-001	 3.0534303612e+000	 1.3967889920e+000
 5.0658421894e-001	 3.0583283717e+000	 1.2542634073e+000
 4.7789449072e-001	 3.0629425159e+000	 1.1568471084e+000
 4.4925041599e-001	 3.0672746965e+000	 1.1091177223e+000
 4.2065571453e-001	 3.0713268744e+000	 1.1149465456e+000
 3.9211404616e-001	 3.0751010674e+000	 1.1775015129e+000
 3.6362900993e-001	 3.0785993476e+000	 1.2992516847e+000
 3.3520414338e-001	 3.0818238402e+000	 1.4819732041e+000
 3.0684292178e-001	 3.0847767215e+000	 1.7267566637e+000
 2.7854875751e-001	 3.0874602167e+000	 2.0340158280e+000
 5.6863453879e-001	 3.0728292763e+000	 1.5495497191e+000
 5.3963288491e-001	 3.0780547996e+000	 1.3796918945e+000
 5.1066957554e-001	 3.0829923102e+000	 1.2636408441e+000
 4.8174847854e-001	 3.0876436652e+000	 1.2070591164e+000
 4.5287340322e-001	 3.0920107827e+000	 1.2148719538e+000
 4.2404809933e-001	 3.0960956396e+000	 1.2912687039e+000
 3.9527625621e-001	 3.0999002695e+000	 1.4397058550e+000
 3.6656150195e-001	 3.1034267617e+000	 1.6629116440e+000
 3.3790740260e-001	 3.1066772583e+000	 1.9628921814e+000
 3.0931746147e-001	 3.1096539531e+000	 2.3409390368e+000
 2.8079511845e-001	 3.1123590894e+000	 2.7976382237e+000
 5.7318361510e-001	 3.0974119105e+000	 1.4912524713e+000
 5.4394994799e-001	 3.1026792380e+000	 1.3306939913e+000
 5.1475493214e-001	 3.1076562486e+000	 1.2382445251e+000
 4.8560246637e-001	 3.1123448145e+000	 1.2199500510e+000
 4.5649639044e-001	 3.1167468690e+000	 1.2810891279e+000
 4.2744048412e-001	 3.1208644047e+000	 1.4261743215e+000
 3.9843846626e-001	 3.1246994717e+000	 1.6589553107e+000
 3.6949399396e-001	 3.1282541758e+000	 1.8734957562e+000
 3.4061066182e-001	 3.1315306764e+000	 2.1194680190e+000
 3.1179200116e-001	 3.1345311847e+000	 2.4035472407e+000
 2.8304147940e-001	 3.1372579621e+000	 2.7258130367e+000
 5.7773269141e-001	 3.1219945447e+000	 1.4071316912e+000
 5.4826701107e-001	 3.1273036764e+000	 1.2559206770e+000
 5.1884028875e-001	 3.1323201871e+000	 1.1703445802e+000
 4.8945645420e-001	 3.1370459638e+000	 1.1330675511e+000
 4.6011937766e-001	 3.1414829553e+000	 1.1379423965e+000
 4.3083286891e-001	 3.1456331698e+000	 1.1799744880e+000
 4.0160067630e-001	 3.1494986739e+000	 1.2552946610e+000
 3.7242648597e-001	 3.1530815899e+000	 1.3611305782e+000
 3.4331392104e-001	 3.1563840944e+000	 1.4957766717e+000
 3.1426654084e-001	 3.1594084163e+000	 1.6585627772e+000
 2.8528784035e-001	 3.1621568348e+000	 1.8498215741e+000
 5.8228176772e-001	 3.1465771789e+000	 1.3915976903e+000
 5.5258407415e-001	 3.1519281148e+000	 1.2165737234e+000
 5.2292564535e-001	 3.1569841256e+000	 1.0857021880e+000
 4.9331044202e-001	 3.1617471132e+000	 9.9171782099e-001
 4.6374236489e-001	 3.1662190415e+000	 9.2856429574e-001
 4.3422525370e-001	 3.1704019349e+000	 8.9136792116e-001
 4.0476288635e-001	 3.1742978760e+000	 8.7640965437e-001
 3.7535897799e-001	 3.1779090040e+000	 8.8109554466e-001
 3.4601718025e-001	 3.1812375125e+000	 9.0392572521e-001
 3.1674108053e-001	 3.1842856480e+000	 9.4446206948e-001
 2.8753420129e-001	 3.1870557075e+000	 1.0032946284e+000
 5.8683084403e-001	 3.1711598131e+000	 1.4098221982e+000
 5.5690113723e-001	 3.1765525532e+000	 1.2037403267e+000
 5.2701100195e-001	 3.1816480641e+000	 1.0298534156e+000
 4.9716442985e-001	 3.1864482625e+000	 8.8095618359e-001
 4.6736535211e-001	 3.1909551278e+000	 7.5108387987e-001
 4.3761763849e-001	 3.1951707000e+000	 6.3548511785e-001
 4.0792509639e-001	 3.1990970782e+000	 5.3059298551e-001
 3.7829147000e-001	 3.2027364181e+000	 4.3399455264e-001
 3.4872043947e-001	 3.2060909306e+000	 3.4439889461e-001
 3.1921562022e-001	 3.2091628796e+000	 2.6160375247e-001
 2.8978056223e-001	 3.2119545803e+000	 1.8646094859e-001
 5.9137992034e-001	 3.1957424473e+000	 1.4530857002e+000
 5.6121820030e-001	 3.2011769916e+000	 1.2186306225e+000
 5.3109635855e-001	 3.2063120026e+000	 1.0039219816e+000
 5.0101841767e-001	 3.2111494118e+000	 8.0181457039e-001
 4.7098833933e-001	 3.2156912140e+000	 6.0643598572e-001
 4.4101002328e-001	 3.2199394651e+000	 4.1315858088e-001
 4.1108730644e-001	 3.2238962803e+000	 2.1856965699e-001
 3.8122396201e-001	 3.2275638322e+000	 2.0440016309e-002
 3.5142369869e-001	 3.2309443486e+000	-1.8230899994e-001
 3.2169015991e-001	 3.2340401112e+000	-3.8963986609e-001
 2.9202692318e-001	 3.2368534530e+000	-6.0043449695e-001
 2.6956331372e-001	 2.9878647258e+000	-1.4859246520e+000
 2.4224999949e-001	 2.9902031599e+000	-1.8053369692e+000
 2.1500799923e-001	 2.9922853407e+000	-2.1148915213e+000
 1.8784042942e-001	 2.9941135538e+000	-2.4187104678e+000
 1.6075034369e-001	 2.9956901253e+000	-2.7214052226e+000
 1.3374073246e-001	 2.9970174201e+000	-3.0280624206e+000
 1.0681452267e-001	 2.9980978399e+000	-3.3442291146e+000
 7.9974577449e-002	 2.9989338217e+000	-3.6758972591e+000
 5.3223695962e-002	 2.9995278359e+000	-4.0294875388e+000
 2.6564613226e-002	 2.9998823846e+000	-4.4118325986e+000
 0.0000000000e+000	 3.0000000000e+000	-4.8301597318e+000
 2.7180967467e-001	 3.0127635985e+000	-5.3524849321e-001
 2.4426874949e-001	 3.0151215196e+000	-7.5870586390e-001
 2.1679973256e-001	 3.0172210519e+000	-9.6129870745e-001
 1.8940576633e-001	 3.0190645001e+000	-1.1466209105e+000
 1.6208992988e-001	 3.0206542097e+000	-1.3187866124e+000
 1.3485523857e-001	 3.0219925653e+000	-1.4824160186e+000
 1.0770464369e-001	 3.0230819886e+000	-1.6426203973e+000
 8.0641032261e-002	 3.0239249369e+000	-1.8049863202e+000
 5.3667226761e-002	 3.0245239012e+000	-1.9755592038e+000
 2.6785985003e-002	 3.0248814045e+000	-2.1608262133e+000
 0.0000000000e+000	 3.0250000000e+000	-2.3676985854e+000
 2.7405603562e-001	 3.0376624713e+000	 3.6801931680e-001
 2.4628749948e-001	 3.0400398793e+000	 2.5513025723e-001
 2.1859146589e-001	 3.0421567631e+000	 1.7447662346e-001
 1.9097110324e-001	 3.0440154464e+000	 1.2298803943e-001
 1.6342951608e-001	 3.0456182941e+000	 9.7042491837e-002
 1.3596974467e-001	 3.0469677104e+000	 9.2480681478e-002
 1.0859476471e-001	 3.0480661373e+000	 1.0462123752e-001
 8.1307487072e-002	 3.0489160521e+000	 1.2827673353e-001
 5.4110757560e-002	 3.0495199665e+000	 1.5777044413e-001
 2.7007356780e-002	 3.0498804243e+000	 1.8695378106e-001
 0.0000000000e+000	 3.0500000000e+000	 2.0922434801e-001
 2.7630239656e-001	 3.0625613440e+000	 1.2242951074e+000
 2.4830624948e-001	 3.0649582389e+000	 1.2360331704e+000
 2.2038319921e-001	 3.0670924742e+000	 1.2917462714e+000
 1.9253644015e-001	 3.0689663926e+000	 1.3888829891e+000
 1.6476910228e-001	 3.0705823785e+000	 1.5243084861e+000
 1.3708425077e-001	 3.0719428556e+000	 1.6943190365e+000
 1.0948488573e-001	 3.0730502859e+000	 1.8946574626e+000
 8.1973941883e-002	 3.0739071672e+000	 2.1205294196e+000
 5.4554288360e-002	 3.0745160318e+000	 2.3666204631e+000
 2.7228728556e-002	 3.0748794442e+000	 2.6271138373e+000
 0.0000000000e+000	 3.0750000000e+000	 2.8957089212e+000
 2.7854875751e-001	 3.0874602167e+000	 2.0340158280e+000
 2.5032499947e-001	 3.0898765986e+000	 2.1838991138e+000
 2.2217493254e-001	 3.0920281854e+000	 2.3898703322e+000
 1.9410177707e-001	 3.0939173389e+000	 2.6498926621e+000
 1.6610868847e-001	 3.0955464628e+000	 2.9613136855e+000
 1.3819875688e-001	 3.0969180008e+000	 3.3208801015e+000
 1.1037500676e-001	 3.0980344346e+000	 3.7247533992e+000
 8.2640396694e-002	 3.0988982824e+000	 4.1685264213e+000
 5.4997819159e-002	 3.0995120971e+000	 4.6472407558e+000
 2.7450100333e-002	 3.0998784641e+000	 5.1554048891e+000
 0.0000000000e+000	 3.1000000000e+000	 5.6870130561e+000
 2.8079511845e-001	 3.1123590894e+000	 2.7976382237e+000
 2.5234374947e-001	 3.1147949583e+000	 3.0986574092e+000
 2.2396666586e-001	 3.1169638966e+000	 3.4682552658e+000
 1.9566711398e-001	 3.1188682852e+000	 3.9049054143e+000
 1.6744827467e-001	 3.1205105472e+000	 4.4064332871e+000
 1.3931326298e-001	 3.1218931460e+000	 4.9700310417e+000
 1.1126512778e-001	 3.1230185833e+000	 5.5922734793e+000
 8.3306851506e-002	 3.1238893976e+000	 6.2691349011e+000
 5.5441349958e-002	 3.1245081624e+000	 6.9960068361e+000
 2.7671472109e-002	 3.1248774839e+000	 7.7677165716e+000
 0.0000000000e+000	 3.1250000000e+000	 8.5785464211e+000
 2.8304147940e-001	 3.1372579621e+000	 2.7258130367e+000
 2.5436249946e-001	 3.1397133179e+000	 2.8507002302e+000
 2.2575839919e-001	 3.1418996077e+000	 3.0036432549e+000
 1.9723245089e-001	 3.1438192315e+000	 3.1878110630e+000
 1.6878786087e-001	 3.1454746316e+000	 3.4072182485e+000
 1.4042776908e-001	 3.1468682911e+000	 3.6666888514e+000
 1.1215524880e-001	 3.1480027319e+000	 3.9718196338e+000
 8.3973306317e-002	 3.1488805128e+000	 4.3289429309e+000
 5.5884880757e-002	 3.1495042277e+000	 4.7450891711e+000
 2.7892843886e-002	 3.1498765038e+000	 5.2279491620e+000
 0.0000000000e+000	 3.1500000000e+000	 5.7858362327e+000
 2.8528784035e-001	 3.1621568348e+000	 1.8498215741e+000
 2.5638124945e-001	 3.1646316776e+000	 1.8438655140e+000
 2.2755013251e-001	 3.1668353189e+000	 1.8529304819e+000
 1.9879778780e-001	 3.1687701778e+000	 1.8809191380e+000
 1.7012744706e-001	 3.1704387160e+000	 1.9325952182e+000
 1.4154227518e-001	 3.1718434363e+000	 2.0135460097e+000
 1.1304536982e-001	 3.1729868806e+000	 2.1301443059e+000
 8.4639761128e-002	 3.1738716280e+000	 2.2895099423e+000
 5.6328411556e-002	 3.1745002930e+000	 2.4994710125e+000
 2.8114215663e-002	 3.1748755237e+000	 2.7685248614e+000
 0.0000000000e+000	 3.1750000000e+000	 3.1057989506e+000
 2.8753420129e-001	 3.1870557075e+000	 1.0032946284e+000
 2.5839999945e-001	 3.1895500373e+000	 8.7630575642e-001
 2.2934186584e-001	 3.1917710301e+000	 7.5087399076e-001
 2.0036312471e-001	 3.1937211241e+000	 6.3163680812e-001
 1.7146703326e-001	 3.1954028003e+000	 5.2410874538e-001
 1.4265678129e-001	 3.1968185815e+000	 4.3464253052e-001
 1.1393549084e-001	 3.1979710292e+000	 3.7038969682e-001
 8.5306215939e-002	 3.1988627432e+000	 3.3926078517e-001
 5.6771942355e-002	 3.1994963583e+000	 3.4988523670e-001
 2.8335587439e-002	 3.1998745436e+000	 4.1157107513e-001
 0.0000000000e+000	 3.2000000000e+000	 5.3426447478e-001
 2.8978056223e-001	 3.2119545803e+000	 1.8646094859e-001
 2.6041874944e-001	 3.2144683969e+000	-5.2156689407e-002
 2.3113359916e-001	 3.2167067413e+000	-3.0311541087e-001
 2.0192846161e-001	 3.2186720703e+000	-5.6104159972e-001
 1.7280661945e-001	 3.2203668847e+000	-8.1966804120e-001
 1.4377128739e-001	 3.2217937266e+000	-1.0718741545e+000
 1.1482561186e-001	 3.2229551779e+000	-1.3097267380e+000
 8.5972670750e-002	 3.2238538583e+000	-1.5245211186e+000
 5.7215473154e-002	 3.2244924236e+000	-1.7068226026e+000
 2.8556959216e-002	 3.2248735634e+000	-1.8465081232e+000
 0.0000000000e+000	 3.2250000000e+000	-1.9328079890e+000
 2.9202692318e-001	 3.2368534530e+000	-6.0043449695e-001
 2.6243749943e-001	 3.2393867566e+000	-9.4167236359e-001
 2.3292533249e-001	 3.2416424524e+000	-1.3095889275e+000
 2.0349379852e-001	 3.2436230166e+000	-1.6980728995e+000
 1.7414620565e-001	 3.2453309691e+000	-2.1001022972e+000
 1.4488579349e-001	 3.2467688718e+000	-2.5077860603e+000
 1.1571573288e-001	 3.2479393266e+000	-2.9124061737e+000
 8.6639125561e-002	 3.2488449735e+000	-3.3044601883e+000
 5.7659003953e-002	 3.2494884889e+000	-3.6737040336e+000
 2.8778330992e-002	 3.2498725833e+000	-4.0091950160e+000
 0.0000000000e+000	 3.2500000000e+000	-4.2993349030e+000
 3.2500000000e+000	 0.0000000000e+000	 4.2457733688e+000
 3.2498725833e+000	 2.8778330992e-002	 3.9887551738e+000
 3.2494884889e+000	 5.7659003953e-002	 3.7198752757e+000
 3.2488449735e+000	 8.6639125561e-002	 3.4455201534e+000
 3.2479393266e+000	 1.1571573288e-001	 3.1715459527e+000
 3.2467688718e+000	 1.4488579349e-001	 2.9032521704e+000
 3.2453309691e+000	 1.7414620565e-001	 2.6453556967e+000
 3.2436230166e+000	 2.0349379852e-001	 2.4019652900e+000
 3.2416424524e+000	 2.3292533249e-001	 2.1765565530e+000
 3.2393867566e+000	 2.6243749943e-001	 1.9719474874e+000
 3.2368534530e+000	 2.9202692318e-001	 1.7902746992e+000
 3.2750000000e+000	 0.0000000000e+000	 3.7920298908e+000
 3.2748716032e+000	 2.8999702769e-002	 3.5955370550e+000
 3.2744845542e+000	 5.8102534752e-002	 3.3840279442e+000
 3.2738360887e+000	 8.7305580372e-002	 3.1638690036e+000
 3.2729234752e+000	 1.1660585390e-001	 2.9408855924e+000
 3.2717440170e+000	 1.4600029959e-001	 2.7203352779e+000
 3.2702950535e+000	 1.7548579184e-001	 2.5068815014e+000
 3.2685739629e+000	 2.0505913543e-001	 2.3045676882e+000
 3.2665781636e+000	 2.3471706581e-001	 2.1167918756e+000
 3.2643051163e+000	 2.6445624942e-001	 1.9462819346e+000
 3.2617523257e+000	 2.9427328412e-001	 1.7950714607e+000
 3.3000000000e+000	 0.0000000000e+000	 3.3494249762e+000
 3.2998706230e+000	 2.9221074545e-002	 3.2071778009e+000
 3.2994806195e+000	 5.8546065551e-002	 3.0472152873e+000
 3.2988272039e+000	 8.7972035183e-002	 2.8758910697e+000
 3.2979076239e+000	 1.1749597492e-001	 2.6990065873e+000
 3.2967191621e+000	 1.4711480569e-001	 2.5217839725e+000
 3.2952591379e+000	 1.7682537804e-001	 2.3488393239e+000
 3.2935249092e+000	 2.0662447234e-001	 2.1841564362e+000
 3.2915138748e+000	 2.3650879913e-001	 2.0310610640e+000
 3.2892234759e+000	 2.6647499942e-001	 1.8921957956e+000
 3.2866511984e+000	 2.9651964507e-001	 1.7694956140e+000
 3.3250000000e+000	 0.0000000000e+000	 2.9178869749e+000
 3.3248696429e+000	 2.9442446322e-002	 2.8236541538e+000
 3.3244766848e+000	 5.8989596350e-002	 2.7094621483e+000
 3.3238183191e+000	 8.8638489994e-002	 2.5816589836e+000
 3.3228917726e+000	 1.1838609594e-001	 2.4460290229e+000
 3.3216943073e+000	 1.4822931180e-001	 2.3077654337e+000
 3.3202232222e+000	 1.7816496423e-001	 2.1714430514e+000
 3.3184758555e+000	 2.0818980925e-001	 2.0409917138e+000
 3.3164495860e+000	 2.3830053246e-001	 1.9196701449e+000
 3.3141418356e+000	 2.6849374941e-001	 1.8100404650e+000
 3.3115500711e+000	 2.9876600601e-001	 1.7139434076e+000
 3.3500000000e+000	 0.0000000000e+000	 2.4973463756e+000
 3.3498686628e+000	 2.9663818098e-002	 2.4449432232e+000
 3.3494727501e+000	 5.9433127149e-002	 2.3707920800e+000
 3.3488094342e+000	 8.9304944806e-002	 2.2812425452e+000
 3.3478759212e+000	 1.1927621697e-001	 2.1820687290e+000
 3.3466694525e+000	 1.4934381790e-001	 2.0784412811e+000
 3.3451873066e+000	 1.7950455043e-001	 1.9748998285e+000
 3.3434268017e+000	 2.0975514616e-001	 1.8753258988e+000
 3.3413852971e+000	 2.4009226578e-001	 1.7829164080e+000
 3.3390601953e+000	 2.7051249940e-001	 1.7001577924e+000
 3.3364489438e+000	 3.0101236695e-001	 1.6288008649e+000
 3.3750000000e+000	 0.0000000000e+000	 2.0877357268e+000
 3.3748676827e+000	 2.9885189875e-002	 2.0710224719e+000
 3.3744688154e+000	 5.9876657948e-002	 2.0312273922e+000
 3.3738005494e+000	 8.9971399617e-002	 1.9747088269e+000
 3.3728600699e+000	 1.2016633799e-001	 1.9072374370e+000
 3.3716445976e+000	 1.5045832400e-001	 1.8339677803e+000
 3.3701513910e+000	 1.8084413662e-001	 1.7594103070e+000
 3.3683777480e+000	 2.1132048307e-001	 1.6874038558e+000
 3.3663210083e+000	 2.4188399911e-001	 1.6210887301e+000
 3.3639785549e+000	 2.7253124940e-001	 1.5628804359e+000
 3.3613478166e+000	 3.0325872790e-001	 1.5144441635e+000
 3.4000000000e+000	 0.0000000000e+000	 1.6889895607e+000
 3.3998667025e+000	 3.0106561652e-002	 1.7018697033e+000
 3.3994648807e+000	 6.0320188747e-002	 1.6907891980e+000
 3.3987916646e+000	 9.0637854428e-002	 1.6621222743e+000
 3.3978442186e+000	 1.2105645901e-001	 1.6216429309e+000
 3.3966197428e+000	 1.5157283010e-001	 1.5744960399e+000
 3.3951154754e+000	 1.8218372282e-001	 1.5251688846e+000
 3.3933286943e+000	 2.1288581998e-001	 1.4774632124e+000
 3.3912567195e+000	 2.4367573243e-001	 1.4344678839e+000
 3.3888969146e+000	 2.7454999939e-001	 1.3985322004e+000
 3.3862466893e+000	 3.0550508885e-001	 1.3712399963e+000
 3.4250000000e+000	 0.0000000000e+000	 1.3010443209e+000
 3.4248657224e+000	 3.0327933428e-002	 1.3374630486e+000
 3.4244609460e+000	 6.0763719546e-002	 1.3494974569e+000
 3.4237827798e+000	 9.1304309239e-002	 1.3435448020e+000
 3.4228283672e+000	 1.2194658003e-001	 1.3253891912e+000
 3.4215948880e+000	 1.5268733621e-001	 1.3001721993e+000
 3.4200795598e+000	 1.8352330902e-001	 1.2723639330e+000
 3.4182796406e+000	 2.1445115689e-001	 1.2457346238e+000
 3.4161924307e+000	 2.4546746576e-001	 1.2233268342e+000
 3.4138152743e+000	 2.7656874939e-001	 1.2074283603e+000
 3.4111455620e+000	 3.0775144979e-001	 1.1995459183e+000
 3.4500000000e+000	 0.0000000000e+000	 9.2383829327e-001
 3.4498647423e+000	 3.0549305205e-002	 9.7778095536e-001
 3.4494570113e+000	 6.1207250346e-002	 1.0073710167e+000
 3.4487738950e+000	 9.1970764051e-002	 1.0190358849e+000
 3.4478125159e+000	 1.2283670105e-001	 1.0185765325e+000
 3.4465700331e+000	 1.5380184231e-001	 1.0111376092e+000
 3.4450436441e+000	 1.8486289521e-001	 1.0011780164e+000
 3.4432305869e+000	 2.1601649380e-001	 9.9244202468e-001
 3.4411281418e+000	 2.4725919909e-001	 9.8793102055e-001
 3.4387336339e+000	 2.7858749938e-001	 9.8987596877e-001
 3.4360444347e+000	 3.0999781074e-001	 9.9971067763e-001
 3.4750000000e+000	 0.0000000000e+000	 5.5731153973e-001
 3.4748637621e+000	 3.0770676981e-002	 6.2280217591e-001
 3.4744530766e+000	 6.1650781145e-002	 6.6442765389e-001
 3.4737650101e+000	 9.2637218862e-002	 6.8865264670e-001
 3.4727966646e+000	 1.2372682207e-001	 7.0130173568e-001
 3.4715451783e+000	 1.5491634841e-001	 7.0752900333e-001
 3.4700077285e+000	 1.8620248141e-001	 7.1178810029e-001
 3.4681815332e+000	 2.1758183071e-001	 7.1780287151e-001
 3.4660638530e+000	 2.4905093241e-001	 7.2853862817e-001
 3.4636519936e+000	 2.8060624938e-001	 7.4617415349e-001
 3.4609433074e+000	 3.1224417169e-001	 7.7207453195e-001
 3.5000000000e+000	 0.0000000000e+000	 2.0140583462e-001
 3.4998627820e+000	 3.0992048758e-002	 2.7250575643e-001
 3.4994491419e+000	 6.2094311944e-002	 3.2068411146e-001
 3.4987561253e+000	 9.3303673673e-002	 3.5244994299e-001
 3.4977808132e+000	 1.2461694309e-001	 3.7365817414e-001
 3.4965203235e+000	 1.5603085452e-001	 3.8947866398e-001
 3.4949718129e+000	 1.8754206761e-001	 4.0436575149e-001
 3.4931324794e+000	 2.1914716763e-001	 4.2202837369e-001
 3.4909995642e+000	 2.5084266574e-001	 4.4540084674e-001
 3.4885703533e+000	 2.8262499937e-001	 4.7661439967e-001
 3.4858421801e+000	 3.1449053264e-001	 5.1696955208e-001
 3.2368534530e+000	 2.9202692318e-001	 1.7902746992e+000
 3.2340401112e+000	 3.2169015991e-001	 1.6509402799e+000
 3.2309443486e+000	 3.5142369869e-001	 1.5244693260e+000
 3.2275638322e+000	 3.8122396201e-001	 1.4104915510e+000
 3.2238962803e+000	 4.1108730644e-001	 1.3078722997e+000
 3.2199394651e+000	 4.4101002328e-001	 1.2146935636e+000
 3.2156912140e+000	 4.7098833933e-001	 1.1282361153e+000
 3.2111494118e+000	 5.0101841767e-001	 1.0449628383e+000
 3.2063120026e+000	 5.3109635855e-001	 9.6050332843e-001
 3.2011769916e+000	 5.6121820030e-001	 8.6963984200e-001
 3.1957424473e+000	 5.9137992034e-001	 7.6629466422e-001
 3.2617523257e+000	 2.9427328412e-001	 1.7950714607e+000
 3.2589173428e+000	 3.2416469960e-001	 1.6763570735e+000
 3.2557977667e+000	 3.5412695790e-001	 1.5657658265e+000
 3.2523912463e+000	 3.8415645402e-001	 1.4628311543e+000
 3.2486954825e+000	 4.1424951648e-001	 1.3663098677e+000
 3.2447082303e+000	 4.4440240807e-001	 1.2741629566e+000
 3.2404273003e+000	 4.7461132655e-001	 1.1835375359e+000
 3.2358505611e+000	 5.0487240550e-001	 1.0907500121e+000
 3.2309759410e+000	 5.3518171515e-001	 9.9127054931e-001
 3.2258014300e+000	 5.6553526338e-001	 8.7970891000e-001
 3.2203250815e+000	 5.9592899665e-001	 7.4980174570e-001
 3.2866511984e+000	 2.9651964507e-001	 1.7694956140e+000
 3.2837945745e+000	 3.2663923928e-001	 1.6715967475e+000
 3.2806511848e+000	 3.5683021712e-001	 1.5776088628e+000
 3.2772186604e+000	 3.8708894603e-001	 1.4869715956e+000
 3.2734946847e+000	 4.1741172653e-001	 1.3983351795e+000
 3.2694769954e+000	 4.4779479286e-001	 1.3095410223e+000
 3.2651633866e+000	 4.7823431377e-001	 1.2176034517e+000
 3.2605517105e+000	 5.0872639332e-001	 1.1186927070e+000
 3.2556398795e+000	 5.3926707176e-001	 1.0081192582e+000
 3.2504258684e+000	 5.6985232646e-001	 8.8031952868e-001
 3.2449077157e+000	 6.0047807296e-001	 7.2884309902e-001
 3.3115500711e+000	 2.9876600601e-001	 1.7139434076e+000
 3.3086718061e+000	 3.2911377897e-001	 1.6370628347e+000
 3.3055046028e+000	 3.5953347634e-001	 1.5604082476e+000
 3.3020460744e+000	 3.9002143804e-001	 1.4833279325e+000
 3.2982938868e+000	 4.2057393658e-001	 1.4043674689e+000
 3.2942457605e+000	 4.5118717765e-001	 1.3212500681e+000
 3.2898994728e+000	 4.8185730100e-001	 1.2308581041e+000
 3.2852528598e+000	 5.1258038115e-001	 1.1292159204e+000
 3.2803038180e+000	 5.4335242836e-001	 1.0114739897e+000
 3.2750503068e+000	 5.7416938954e-001	 8.7189450924e-001
 3.2694903500e+000	 6.0502714927e-001	 7.0383850673e-001
 3.3364489438e+000	 3.0101236695e-001	 1.6288008649e+000
 3.3335490377e+000	 3.3158831866e-001	 1.5731491980e+000
 3.3303580209e+000	 3.6223673555e-001	 1.5145648220e+000
 3.3268734885e+000	 3.9295393006e-001	 1.4523070930e+000
 3.3230930890e+000	 4.2373614662e-001	 1.3848188290e+000
 3.3190145256e+000	 4.5457956245e-001	 1.3097063954e+000
 3.3146355591e+000	 4.8548028822e-001	 1.2237210115e+000
 3.3099540091e+000	 5.1643436897e-001	 1.1227413578e+000
 3.3049677565e+000	 5.4743778496e-001	 1.0017575676e+000
 3.2996747452e+000	 5.7848645261e-001	 8.5485668274e-001
 3.2940729842e+000	 6.0957622558e-001	 6.7520965256e-001
 3.3613478166e+000	 3.0325872790e-001	 1.5144441635e+000
 3.3584262693e+000	 3.3406285835e-001	 1.4802403880e+000
 3.3552114390e+000	 3.6493999477e-001	 1.4404707868e+000
 3.3517009026e+000	 3.9588642207e-001	 1.3943081772e+000
 3.3478922911e+000	 4.2689835667e-001	 1.3400944763e+000
 3.3437832907e+000	 4.5797194724e-001	 1.2753205227e+000
 3.3393716454e+000	 4.8910327544e-001	 1.1966071442e+000
 3.3346551584e+000	 5.2028835680e-001	 1.0996875554e+000
 3.3296316950e+000	 5.5152314156e-001	 9.7939116837e-001
 3.3242991836e+000	 5.8280351569e-001	 8.2962889939e-001
 3.3186556184e+000	 6.1412530188e-001	 6.4338005106e-001
 3.3862466893e+000	 3.0550508885e-001	 1.3712399963e+000
 3.3833035010e+000	 3.3653739804e-001	 1.3587119853e+000
 3.3800648570e+000	 3.6764325399e-001	 1.3385100208e+000
 3.3765283167e+000	 3.9881891408e-001	 1.3097227442e+000
 3.3726914933e+000	 4.3006056672e-001	 1.2705930036e+000
 3.3685520559e+000	 4.6136433203e-001	 1.2184973976e+000
 3.3641077316e+000	 4.9272626267e-001	 1.1499270921e+000
 3.3593563078e+000	 5.2414234463e-001	 1.0604699962e+000
 3.3542956335e+000	 5.5560849817e-001	 9.4479438137e-001
 3.3489236220e+000	 5.8712057877e-001	 7.9663402781e-001
 3.3432382526e+000	 6.1867437819e-001	 6.0877498025e-001
 3.4111455620e+000	 3.0775144979e-001	 1.1995459183e+000
 3.4081807326e+000	 3.3901193773e-001	 1.2089309283e+000
 3.4049182751e+000	 3.7034651321e-001	 1.2090583841e+000
 3.4013557308e+000	 4.0175140610e-001	 1.1989350881e+000
 3.3974906954e+000	 4.3322277677e-001	 1.1767066220e+000
 3.3933208210e+000	 4.6475671683e-001	 1.1396366004e+000
 3.3888438179e+000	 4.9634924989e-001	 1.0840872239e+000
 3.3840574571e+000	 5.2799633246e-001	 1.0055012216e+000
 3.3789595719e+000	 5.5969385477e-001	 8.9838526711e-001
 3.3735480604e+000	 5.9143764185e-001	 7.5629495438e-001
 3.3678208868e+000	 6.2322345450e-001	 5.7182141728e-001
 3.4360444347e+000	 3.0999781074e-001	 9.9971067763e-001
 3.4330579642e+000	 3.4148647742e-001	 1.0312558261e+000
 3.4297716932e+000	 3.7304977243e-001	 1.0524840090e+000
 3.4261831449e+000	 4.0468389811e-001	 1.0623225007e+000
 3.4222898976e+000	 4.3638498682e-001	 1.0588213918e+000
 3.4180895861e+000	 4.6814910162e-001	 1.0391325385e+000
 3.4135799042e+000	 4.9997223712e-001	 9.9948984071e-001
 3.4087586064e+000	 5.3185032028e-001	 9.3519093812e-001
 3.4036235104e+000	 5.6377921137e-001	 8.4058041253e-001
 3.3981724988e+000	 5.9575470493e-001	 7.0903458259e-001
 3.3924035210e+000	 6.2777253081e-001	 5.1182657436e-001
 3.4609433074e+000	 3.1224417169e-001	 7.7207453195e-001
 3.4579351959e+000	 3.4396101711e-001	 8.2603725788e-001
 3.4546251112e+000	 3.7575303165e-001	 8.6914757773e-001
 3.4510105590e+000	 4.0761639013e-001	 9.0025552389e-001
 3.4470890998e+000	 4.3954719687e-001	 9.1731744395e-001
 3.4428583512e+000	 4.7154148642e-001	 9.1737463263e-001
 3.4383159904e+000	 5.0359522435e-001	 8.9653332177e-001
 3.4334597557e+000	 5.3570430811e-001	 8.4994611892e-001
 3.4282874489e+000	 5.6786456798e-001	 7.7179498395e-001
 3.4227969372e+000	 6.0007176801e-001	 6.5527583243e-001
 3.4169861552e+000	 6.3232160712e-001	 4.3806115623e-001
 3.4858421801e+000	 3.1449053264e-001	 5.1696955208e-001
 3.4828124275e+000	 3.4643555681e-001	 5.9361806019e-001
 3.4794785293e+000	 3.7845629087e-001	 6.5940258847e-001
 3.4758379731e+000	 4.1054888215e-001	 7.1309819011e-001
 3.4718883019e+000	 4.4270940692e-001	 7.5256919161e-001
 3.4676271163e+000	 4.7493387121e-001	 7.7474749457e-001
 3.4630520767e+000	 5.0721821157e-001	 7.7561226491e-001
 3.4581609051e+000	 5.3955829594e-001	 7.5017110186e-001
 3.4529513874e+000	 5.7194992458e-001	 6.9244277790e-001
 3.4474213756e+000	 6.0438883109e-001	 5.9544163979e-001
 3.4415687894e+000	 6.3687068343e-001	 3.6440874955e-001
 3.1957424473e+000	 5.9137992034e-001	 7.6629466422e-001
 3.1900065032e+000	 6.2157743620e-001	 1.0374860003e+000
 3.1839673596e+000	 6.5180660668e-001	 1.0172085988e+000
 3.1776232857e+000	 6.8206323302e-001	 9.6723100568e-001
 3.1709726212e+000	 7.1234306010e-001	 9.1448312909e-001
 3.1640137784e+000	 7.4264177780e-001	 8.5926341344e-001
 3.1567452436e+000	 7.7295502237e-001	 8.0190019536e-001
 3.1491655796e+000	 8.0327837781e-001	 7.4275198206e-001
 3.1412734265e+000	 8.3360737744e-001	 6.8220767080e-001
 3.1330675043e+000	 8.6393750537e-001	 6.2068670689e-001
 3.1245466141e+000	 8.9426419823e-001	 5.6009384183e-001
 3.2203250815e+000	 5.9592899665e-001	 7.4980174570e-001
 3.2145450148e+000	 6.2635880109e-001	 1.0058547847e+000
 3.2084594163e+000	 6.5682050366e-001	 9.7386982789e-001
 3.2020665418e+000	 6.8730987327e-001	 9.3683351266e-001
 3.1953647183e+000	 7.1782262210e-001	 8.9499980302e-001
 3.1883523459e+000	 7.4835440687e-001	 8.4865428923e-001
 3.1810278994e+000	 7.7890083024e-001	 7.9811457519e-001
 3.1733899302e+000	 8.0945744226e-001	 7.4373060720e-001
 3.1654370683e+000	 8.4001974188e-001	 6.8588494126e-001
 3.1571680236e+000	 8.7058317850e-001	 6.2499294656e-001
 3.1485815881e+000	 9.0114315360e-001	 5.6150294271e-001
 3.2449077157e+000	 6.0047807296e-001	 7.2884309902e-001
 3.2390835264e+000	 6.3114016599e-001	 9.4783226369e-001
 3.2329514729e+000	 6.6183440064e-001	 9.3082427994e-001
 3.2265097978e+000	 6.9255651353e-001	 9.0676260100e-001
 3.2197568154e+000	 7.2330218410e-001	 8.7588643680e-001
 3.2126909134e+000	 7.5406703593e-001	 8.3846869969e-001
 3.2053105551e+000	 7.8484663811e-001	 7.9481644437e-001
 3.1976142808e+000	 8.1563650671e-001	 7.4527124683e-001
 3.1896007100e+000	 8.4643210633e-001	 6.9020951956e-001
 3.1812685429e+000	 8.7722885162e-001	 6.3004276050e-001
 3.1726165620e+000	 9.0802210898e-001	 5.6521773305e-001
 3.2694903500e+000	 6.0502714927e-001	 7.0383850673e-001
 3.2636220379e+000	 6.3592153088e-001	 8.9005781786e-001
 3.2574435295e+000	 6.6684829761e-001	 8.8805205859e-001
 3.2509530539e+000	 6.9780315378e-001	 8.7699944812e-001
 3.2441489125e+000	 7.2878174611e-001	 8.5712460608e-001
 3.2370294809e+000	 7.5977966499e-001	 8.2868793831e-001
 3.2295932108e+000	 7.9079244597e-001	 7.9198612919e-001
 3.2218386314e+000	 8.2181557116e-001	 7.4735257085e-001
 3.2137643518e+000	 8.5284447077e-001	 6.9515772632e-001
 3.2053690621e+000	 8.8387452474e-001	 6.3580942388e-001
 3.1966515360e+000	 9.1490106435e-001	 5.6975307984e-001
 3.2940729842e+000	 6.0957622558e-001	 6.7520965256e-001
 3.2881605495e+000	 6.4070289577e-001	 8.3251165287e-001
 3.2819355861e+000	 6.7186219458e-001	 8.4553507313e-001
 3.2753963099e+000	 7.0304979404e-001	 8.4752701244e-001
 3.2685410096e+000	 7.3426130811e-001	 8.3869765874e-001
 3.2613680485e+000	 7.6549229405e-001	 8.1929507779e-001
 3.2538758665e+000	 7.9673825384e-001	 7.8960575809e-001
 3.2460629820e+000	 8.2799463561e-001	 7.4995509035e-001
 3.2379279935e+000	 8.5925683522e-001	 7.0070777859e-001
 3.2294695814e+000	 8.9052019786e-001	 6.4226817986e-001
 3.2206865099e+000	 9.2178001972e-001	 5.7508056977e-001
 3.3186556184e+000	 6.1412530188e-001	 6.4338005106e-001
 3.3126990611e+000	 6.4548426067e-001	 7.7517575170e-001
 3.3064276427e+000	 6.7687609156e-001	 8.0325697157e-001
 3.2998395660e+000	 7.0829643429e-001	 8.1832996752e-001
 3.2929331067e+000	 7.3974087011e-001	 8.2059064922e-001
 3.2857066160e+000	 7.7120492311e-001	 8.1027490412e-001
 3.2781585222e+000	 8.0268406170e-001	 7.8765919493e-001
 3.2702873326e+000	 8.3417370005e-001	 7.5306108946e-001
 3.2620916352e+000	 8.6566919966e-001	 7.0683971967e-001
 3.2535701007e+000	 8.9716587098e-001	 6.4939616673e-001
 3.2447214839e+000	 9.2865897510e-001	 5.8117376937e-001
 3.3432382526e+000	 6.1867437819e-001	 6.0877498025e-001
 3.3372375726e+000	 6.5026562556e-001	 7.1803380932e-001
 3.3309196993e+000	 6.8188998853e-001	 7.6120307670e-001
 3.3242828220e+000	 7.1354307455e-001	 7.8939463892e-001
 3.3173252037e+000	 7.4522043211e-001	 8.0279027581e-001
 3.3100451835e+000	 7.7691755217e-001	 8.0161385363e-001
 3.3024411780e+000	 8.0862986957e-001	 7.8613197520e-001
 3.2945116833e+000	 8.4035276450e-001	 7.5665456016e-001
 3.2862552770e+000	 8.7208156410e-001	 7.1353535191e-001
 3.2776706199e+000	 9.0381154410e-001	 6.5717234822e-001
 3.2687564578e+000	 9.3553793047e-001	 5.8800815216e-001
 3.3678208868e+000	 6.2322345450e-001	 5.7182141728e-001
 3.3617760842e+000	 6.5504699045e-001	 6.6107117025e-001
 3.3554117559e+000	 6.8690388551e-001	 7.1936032501e-001
 3.3487260780e+000	 7.1878971480e-001	 7.6070894396e-001
 3.3417173008e+000	 7.5069999411e-001	 7.8528482063e-001
 3.3343837511e+000	 7.8263018123e-001	 7.9329995274e-001
 3.3267238337e+000	 8.1457567743e-001	 7.8501124502e-001
 3.3187360339e+000	 8.4653182894e-001	 7.6072113991e-001
 3.3104189187e+000	 8.7849392854e-001	 7.2077817258e-001
 3.3017711392e+000	 9.1045721722e-001	 6.6557744690e-001
 3.2927914318e+000	 9.4241688584e-001	 5.9556102911e-001
 3.3924035210e+000	 6.2777253081e-001	 5.1182657436e-001
 3.3863145957e+000	 6.5982835535e-001	 6.0427476871e-001
 3.3799038126e+000	 6.9191778248e-001	 6.7771720820e-001
 3.3731693341e+000	 7.2403635505e-001	 7.3226233401e-001
 3.3661093979e+000	 7.5617955611e-001	 7.6806409225e-001
 3.3587223186e+000	 7.8834281029e-001	 7.8532276034e-001
 3.3510064894e+000	 8.2052148530e-001	 7.8428570272e-001
 3.3429603845e+000	 8.5271089338e-001	 7.6524805208e-001
 3.3345825605e+000	 8.8490629298e-001	 7.2855331239e-001
 3.3258716585e+000	 9.1710289033e-001	 6.7459388041e-001
 3.3168264057e+000	 9.4929584121e-001	 6.0381148202e-001
 3.4169861552e+000	 6.3232160712e-001	 4.3806115623e-001
 3.4108531073e+000	 6.6460972024e-001	 5.4763307153e-001
 3.4043958692e+000	 6.9693167945e-001	 6.3626371722e-001
 3.3976125901e+000	 7.2928299530e-001	 7.0404573935e-001
 3.3905014950e+000	 7.6165911811e-001	 7.5111937079e-001
 3.3830608861e+000	 7.9405543935e-001	 7.7767331268e-001
 3.3752891451e+000	 8.2646729316e-001	 7.8394554311e-001
 3.3671847351e+000	 8.5888995783e-001	 7.7022404888e-001
 3.3587462022e+000	 8.9131865742e-001	 7.3684747680e-001
 3.3499721777e+000	 9.2374856345e-001	 6.8420570055e-001
 3.3408613797e+000	 9.5617479658e-001	 6.1274029986e-001
 3.4415687894e+000	 6.3687068343e-001	 3.6440874955e-001
 3.4353916189e+000	 6.6939108513e-001	 4.9113602335e-001
 3.4288879258e+000	 7.0194557643e-001	 5.9499128874e-001
 3.4220558462e+000	 7.3452963556e-001	 6.7605151632e-001
 3.4148935921e+000	 7.6713868010e-001	 7.3444335536e-001
 3.4073994536e+000	 7.9976806841e-001	 7.7034407061e-001
 3.3995718009e+000	 8.3241310102e-001	 7.8398240392e-001
 3.3914090857e+000	 8.6506902227e-001	 7.7563935677e-001
 3.3829098440e+000	 8.9773102186e-001	 7.4564888971e-001
 3.3740726970e+000	 9.3039423656e-001	 6.9439853486e-001
 3.3648963537e+000	 9.6305375194e-001	 6.2232991775e-001
 3.1245466141e+000	 8.9426419823e-001	 5.6009384183e-001
 3.1157096398e+000	 9.2458284674e-001	 5.5033781022e-001
 3.1065555498e+000	 9.5488879754e-001	 5.4064252926e-001
 3.0970833988e+000	 9.8517735496e-001	 5.3091565749e-001
 3.0872923289e+000	 1.0154437829e+000	 5.2102301965e-001
 3.0771815712e+000	 1.0456833066e+000	 5.1078827048e-001
 3.0667504478e+000	 1.0758911149e+000	 4.9999265137e-001
 3.0559983723e+000	 1.1060623621e+000	 4.8837484267e-001
 3.0449248518e+000	 1.1361921700e+000	 4.7563091388e-001
 3.0335294880e+000	 1.1662756302e+000	 4.6141437418e-001
 3.0218119785e+000	 1.1963078061e+000	 4.4533632502e-001
 3.1485815881e+000	 9.0114315360e-001	 5.6150294271e-001
 3.1396766370e+000	 9.3169502249e-001	 5.2183922606e-001
 3.1304521310e+000	 9.6223409599e-001	 4.7654712154e-001
 3.1209071173e+000	 9.9275564231e-001	 4.4370854483e-001
 3.1110407314e+000	 1.0232548889e+000	 4.3486244445e-001
 3.1008521987e+000	 1.0537270243e+000	 4.2822477925e-001
 3.0903408358e+000	 1.0841672004e+000	 4.2354019428e-001
 3.0795060520e+000	 1.1145705341e+000	 4.2050716630e-001
 3.0683473506e+000	 1.1449321098e+000	 4.1877794866e-001
 3.0568643302e+000	 1.1752469812e+000	 4.1795862193e-001
 3.0450566860e+000	 1.2055101738e+000	 4.1760925252e-001
 3.1726165620e+000	 9.0802210898e-001	 5.6521773305e-001
 3.1636436342e+000	 9.3880719824e-001	 5.2664221088e-001
 3.1543487122e+000	 9.6957939444e-001	 4.8401877281e-001
 3.1447308357e+000	 1.0003339297e+000	 4.3797701518e-001
 3.1347891339e+000	 1.0310659949e+000	 3.8918444821e-001
 3.1245228262e+000	 1.0617707421e+000	 3.4062265298e-001
 3.1139312239e+000	 1.0924432859e+000	 3.4102644112e-001
 3.1030137318e+000	 1.1230787061e+000	 3.4553849706e-001
 3.0917698495e+000	 1.1536720496e+000	 3.5376722894e-001
 3.0801991724e+000	 1.1842183322e+000	 3.6527125514e-001
 3.0683013935e+000	 1.2147125416e+000	 3.7955956892e-001
 3.1966515360e+000	 9.1490106435e-001	 5.6975307984e-001
 3.1876106315e+000	 9.4591937399e-001	 5.3136843868e-001
 3.1782452933e+000	 9.7692469289e-001	 4.9047007051e-001
 3.1685545542e+000	 1.0079122170e+000	 4.4767919156e-001
 3.1585375365e+000	 1.0388771009e+000	 4.0365393090e-001
 3.1481934537e+000	 1.0698144598e+000	 3.5908909104e-001
 3.1375216120e+000	 1.1007193714e+000	 3.1471582345e-001
 3.1265214116e+000	 1.1315868782e+000	 2.7130121740e-001
 3.1151923483e+000	 1.1624119893e+000	 2.8068810607e-001
 3.1035340146e+000	 1.1931896832e+000	 3.0347071931e-001
 3.0915461010e+000	 1.2239149093e+000	 3.3133571858e-001
 3.2206865099e+000	 9.2178001972e-001	 5.7508056977e-001
 3.2115776287e+000	 9.5303154973e-001	 5.3600780540e-001
 3.2021418745e+000	 9.8426999133e-001	 4.9590981404e-001
 3.1923782726e+000	 1.0154905044e+000	 4.5539970709e-001
 3.1822859390e+000	 1.0466882070e+000	 4.1512654950e-001
 3.1718640811e+000	 1.0778581776e+000	 3.7577510961e-001
 3.1611120000e+000	 1.1089954569e+000	 3.3806552401e-001
 3.1500290914e+000	 1.1400950502e+000	 3.0275287611e-001
 3.1386148472e+000	 1.1711519291e+000	 2.7062668696e-001
 3.1268688568e+000	 1.2021610342e+000	 2.4251031739e-001
 3.1147908086e+000	 1.2331172771e+000	 2.7308126388e-001
 3.2447214839e+000	 9.2865897510e-001	 5.8117376937e-001
 3.2355446259e+000	 9.6014372548e-001	 5.4055161623e-001
 3.2260384556e+000	 9.9161528978e-001	 5.0034761951e-001
 3.2162019911e+000	 1.0230687917e+000	 4.6116705873e-001
 3.2060343415e+000	 1.0544993130e+000	 4.2365024934e-001
 3.1955347086e+000	 1.0859018953e+000	 3.8847228186e-001
 3.1847023881e+000	 1.1172715424e+000	 3.5634267642e-001
 3.1735367712e+000	 1.1486032222e+000	 3.2800495118e-001
 3.1620373461e+000	 1.1798918689e+000	 3.0423610327e-001
 3.1502036991e+000	 1.2111323852e+000	 2.8584600126e-001
 3.1380355161e+000	 1.2423196448e+000	 2.7367668833e-001
 3.2687564578e+000	 9.3553793047e-001	 5.8800815216e-001
 3.2595116232e+000	 9.6725590122e-001	 5.4499253380e-001
 3.2499350368e+000	 9.9896058822e-001	 5.0379388966e-001
 3.2400257095e+000	 1.0306470791e+000	 4.6500993826e-001
 3.2297827441e+000	 1.0623104190e+000	 4.2927255766e-001
 3.2192053361e+000	 1.0939456130e+000	 3.9724751427e-001
 3.2082927761e+000	 1.1255476279e+000	 3.6963410724e-001
 3.1970444510e+000	 1.1571113942e+000	 3.4716472683e-001
 3.1854598449e+000	 1.1886318086e+000	 3.3060432562e-001
 3.1735385413e+000	 1.2201037362e+000	 3.2074980133e-001
 3.1612802236e+000	 1.2515220125e+000	 3.1371877046e-001
 3.2927914318e+000	 9.4241688584e-001	 5.9556102911e-001
 3.2834786204e+000	 9.7436807697e-001	 5.4932452863e-001
 3.2738316179e+000	 1.0063058867e+000	 5.0625978519e-001
 3.2638494280e+000	 1.0382253664e+000	 4.6695722511e-001
 3.2535311466e+000	 1.0701215250e+000	 4.3204059887e-001
 3.2428759635e+000	 1.1019893308e+000	 4.0216669991e-001
 3.2318831642e+000	 1.1338237134e+000	 3.7802499902e-001
 3.2205521308e+000	 1.1656195662e+000	 3.6033719285e-001
 3.2088823438e+000	 1.1973717484e+000	 3.4985666543e-001
 3.1968733835e+000	 1.2290750872e+000	 3.4736786138e-001
 3.1845249311e+000	 1.2607243803e+000	 3.2248063015e-001
 3.3168264057e+000	 9.4929584121e-001	 6.0381148202e-001
 3.3074456176e+000	 9.8148025271e-001	 5.5354283176e-001
 3.2977281991e+000	 1.0136511851e+000	 5.0775719729e-001
 3.2876731465e+000	 1.0458036537e+000	 4.6703797957e-001
 3.2772795491e+000	 1.0779326310e+000	 4.3200110914e-001
 3.2665465910e+000	 1.1100330485e+000	 4.0329475512e-001
 3.2554735523e+000	 1.1420997989e+000	 3.8159894986e-001
 3.2440598105e+000	 1.1741277382e+000	 3.6762512772e-001
 3.2323048426e+000	 1.2061116882e+000	 3.6211557696e-001
 3.2202082257e+000	 1.2380464382e+000	 3.6584280346e-001
 3.2077696387e+000	 1.2699267480e+000	 3.2532436139e-001
 3.3408613797e+000	 9.5617479658e-001	 6.1274029986e-001
 3.3314126149e+000	 9.8859242845e-001	 5.5764388937e-001
 3.3216247802e+000	 1.0209964835e+000	 5.0829872135e-001
 3.3114968649e+000	 1.0533819411e+000	 4.6528143632e-001
 3.3010279516e+000	 1.0857437371e+000	 4.2920045038e-001
 3.2902172185e+000	 1.1180767663e+000	 4.0069565467e-001
 3.2790639403e+000	 1.1503758844e+000	 3.8043803040e-001
 3.2675674903e+000	 1.1826359103e+000	 3.6912917816e-001
 3.2557273415e+000	 1.2148516279e+000	 3.6750076017e-001
 3.2435430679e+000	 1.2470177892e+000	 3.7631385456e-001
 3.2310143462e+000	 1.2791291158e+000	 3.2241777018e-001
 3.3648963537e+000	 9.6305375194e-001	 6.2232991775e-001
 3.3553796121e+000	 9.9570460419e-001	 5.6162531941e-001
 3.3455213614e+000	 1.0283417820e+000	 5.0789763181e-001
 3.3353205834e+000	 1.0609602284e+000	 4.6171699816e-001
 3.3247763542e+000	 1.0935548431e+000	 4.2368462361e-001
 3.3138878460e+000	 1.1261204840e+000	 3.9443246536e-001
 3.3026543284e+000	 1.1586519699e+000	 3.7462283838e-001
 3.2910751701e+000	 1.1911440823e+000	 3.6494793525e-001
 3.2791498404e+000	 1.2235915677e+000	 3.6612925901e-001
 3.2668779101e+000	 1.2559891402e+000	 3.6370629880e-001
 3.2542590537e+000	 1.2883314835e+000	 3.1392475357e-001
 3.0218119785e+000	 1.1963078061e+000	 4.4533632502e-001
 3.0097721177e+000	 1.2262837353e+000	 4.2540691755e-001
 2.9974097985e+000	 1.2561984318e+000	 3.8742403021e-001
 2.9847250126e+000	 1.2860468885e+000	 2.6835736997e-001
 2.9717178521e+000	 1.3158240793e+000	 1.6391056154e-001
 2.9583885102e+000	 1.3455249618e+000	 7.3558425231e-002
 2.9447372821e+000	 1.3751444794e+000	-3.2574190822e-003
 2.9307645658e+000	 1.4046775645e+000	-6.7127957610e-002
 2.9164708625e+000	 1.4341191402e+000	-1.1867611798e-001
 2.9018567779e+000	 1.4634641235e+000	-1.5855603479e-001
 2.8869230222e+000	 1.4927074274e+000	-1.8745224599e-001
 3.0450566860e+000	 1.2055101738e+000	 4.1760925252e-001
 3.0329242109e+000	 1.2357166871e+000	 4.0799489107e-001
 3.0204667969e+000	 1.2658614967e+000	 3.4370276405e-001
 3.0076844357e+000	 1.2959395569e+000	 2.3726571872e-001
 2.9945772202e+000	 1.3259458030e+000	 1.4354302249e-001
 2.9811453449e+000	 1.3558751538e+000	 6.1998979586e-002
 2.9673891074e+000	 1.3857225139e+000	-7.9339852115e-003
 2.9533089086e+000	 1.4154827765e+000	-6.6854697577e-002
 2.9389052537e+000	 1.4451508259e+000	-1.1539253519e-001
 2.9241787531e+000	 1.4747215398e+000	-1.5420666038e-001
 2.9091301224e+000	 1.5041897923e+000	-1.8398518469e-001
 3.0683013935e+000	 1.2147125416e+000	 3.7955956892e-001
 3.0560763041e+000	 1.2451496389e+000	 3.8073989453e-001
 3.0435237954e+000	 1.2755245616e+000	 2.9409595703e-001
 3.0306438589e+000	 1.3058322253e+000	 2.0089245781e-001
 3.0174365883e+000	 1.3360675267e+000	 1.1853531013e-001
 3.0039021796e+000	 1.3662253458e+000	 4.6477972599e-002
 2.9900409326e+000	 1.3963005484e+000	-1.5856686074e-002
 2.9758532514e+000	 1.4262879886e+000	-6.9075723332e-002
 2.9613396450e+000	 1.4561825116e+000	-1.1381539031e-001
 2.9465007283e+000	 1.4859789561e+000	-1.5074033136e-001
 2.9313372226e+000	 1.5156721571e+000	-1.8054271642e-001
 3.0915461010e+000	 1.2239149093e+000	 3.3133571858e-001
 3.0792283974e+000	 1.2545825907e+000	 3.2768913526e-001
 3.0665807938e+000	 1.2851876264e+000	 2.3877257184e-001
 3.0536032821e+000	 1.3157248936e+000	 1.5939897307e-001
 3.0402959564e+000	 1.3461892504e+000	 8.9040582446e-002
 3.0266590143e+000	 1.3765755378e+000	 2.7139681606e-002
 3.0126927579e+000	 1.4068785828e+000	-2.6890779326e-002
 2.9983975942e+000	 1.4370932006e+000	-7.3666483011e-002
 2.9837740362e+000	 1.4672141973e+000	-1.1383097823e-001
 2.9688227035e+000	 1.4972363725e+000	-1.4805484606e-001
 2.9535443227e+000	 1.5271545219e+000	-1.7703479971e-001
 3.1147908086e+000	 1.2331172771e+000	 2.7308126388e-001
 3.1023804906e+000	 1.2640155425e+000	 2.5061259110e-001
 3.0896377923e+000	 1.2948506913e+000	 1.7789721957e-001
 3.0765627052e+000	 1.3256175620e+000	 1.1294259596e-001
 3.0631553244e+000	 1.3563109741e+000	 5.5208261678e-002
 3.0494158490e+000	 1.3869257298e+000	 4.1249881236e-003
 3.0353445831e+000	 1.4174566173e+000	-4.0904557195e-002
 3.0209419370e+000	 1.4478984127e+000	-8.0505076814e-002
 3.0062084275e+000	 1.4782458830e+000	-1.1532784223e-001
 2.9911446788e+000	 1.5084937888e+000	-1.4604982641e-001
 2.9757514229e+000	 1.5386368868e+000	-1.7337277090e-001
 3.1380355161e+000	 1.2423196448e+000	 2.7367668833e-001
 3.1255325838e+000	 1.2734484944e+000	 1.7038886214e-001
 3.1126947907e+000	 1.3045137561e+000	 1.1163032084e-001
 3.0995221284e+000	 1.3355102304e+000	 6.1676753735e-002
 3.0860146925e+000	 1.3664326978e+000	 1.7184172651e-002
 3.0721726837e+000	 1.3972759218e+000	-2.2428496380e-002
 3.0579964084e+000	 1.4280346517e+000	-5.7769234087e-002
 3.0434862798e+000	 1.4587036247e+000	-8.9472158786e-002
 3.0286428187e+000	 1.4892775687e+000	-1.1819669066e-001
 3.0134666540e+000	 1.5197512051e+000	-1.4462665037e-001
 2.9979585231e+000	 1.5501192516e+000	-1.6946929303e-001
 3.1612802236e+000	 1.2515220125e+000	 3.1371877046e-001
 3.1486846770e+000	 1.2828814462e+000	 2.0287629462e-001
 3.1357517892e+000	 1.3141768210e+000	 9.5932398431e-002
 3.1224815516e+000	 1.3454028988e+000	 5.7511129737e-003
 3.1088740606e+000	 1.3765544214e+000	-2.4889324949e-002
 3.0949295184e+000	 1.4076261138e+000	-5.2386310260e-002
 3.0806482336e+000	 1.4386126862e+000	-7.7358839149e-002
 3.0660306226e+000	 1.4695088367e+000	-1.0045084292e-001
 3.0510772100e+000	 1.5003092544e+000	-1.2233031740e-001
 3.0357886292e+000	 1.5310086215e+000	-1.4368838737e-001
 3.0201656232e+000	 1.5616016164e+000	-1.6523830710e-001
 3.1845249311e+000	 1.2607243803e+000	 3.2248063015e-001
 3.1718367702e+000	 1.2923143980e+000	 2.2969426881e-001
 3.1588087876e+000	 1.3238398859e+000	 1.3891864506e-001
 3.1454409748e+000	 1.3552955671e+000	 5.0092993612e-002
 3.1317334287e+000	 1.3866761451e+000	-3.6845846630e-002
 3.1176863531e+000	 1.4179763059e+000	-8.5617026741e-002
 3.1033000588e+000	 1.4491907206e+000	-9.9550113551e-002
 3.0885749654e+000	 1.4803140488e+000	-1.1332661339e-001
 3.0735116012e+000	 1.5113409401e+000	-1.2762352572e-001
 3.0581106044e+000	 1.5422660378e+000	-1.4313973659e-001
 3.0423727234e+000	 1.5730839812e+000	-1.6059498543e-001
 3.2077696387e+000	 1.2699267480e+000	 3.2532436139e-001
 3.1949888634e+000	 1.3017473498e+000	 2.5100810111e-001
 3.1818657860e+000	 1.3335029507e+000	 1.7684245007e-001
 3.1684003979e+000	 1.3651882355e+000	 1.0276387747e-001
 3.1545927968e+000	 1.3967978688e+000	 2.8708173268e-002
 3.1404431878e+000	 1.4283264979e+000	-4.5389364435e-002
 3.1259518841e+000	 1.4597687551e+000	-1.1959373844e-001
 3.1111193082e+000	 1.4911192608e+000	-1.2798723866e-001
 3.0959459925e+000	 1.5223726258e+000	-1.3397305547e-001
 3.0804325796e+000	 1.5535234541e+000	-1.4288696791e-001
 3.0645798236e+000	 1.5845663461e+000	-1.5545568705e-001
 3.2310143462e+000	 1.2791291158e+000	 3.2241777018e-001
 3.2181409566e+000	 1.3111803016e+000	 2.6697926552e-001
 3.2049227845e+000	 1.3431660156e+000	 2.0985834844e-001
 3.1913598211e+000	 1.3750809039e+000	 1.5098864248e-001
 3.1774521649e+000	 1.4069195925e+000	 9.0304791423e-002
 3.1632000224e+000	 1.4386766899e+000	 2.7742671560e-002
 3.1486037093e+000	 1.4703467896e+000	-3.6760394412e-002
 3.1336636511e+000	 1.5019244728e+000	-1.0326542237e-001
 3.1183803837e+000	 1.5334043115e+000	-1.4127751343e-001
 3.1027545548e+000	 1.5647808705e+000	-1.4283786541e-001
 3.0867869237e+000	 1.5960487109e+000	-1.4973791500e-001
 3.2542590537e+000	 1.2883314835e+000	 3.1392475357e-001
 3.2412930498e+000	 1.3206132534e+000	 2.7776553089e-001
 3.2279797829e+000	 1.3528290804e+000	 2.3811739087e-001
 3.2143192443e+000	 1.3849735723e+000	 1.9491103042e-001
 3.2003115330e+000	 1.4170413162e+000	 1.4807984952e-001
 3.1859568571e+000	 1.4490268819e+000	 9.7560188152e-002
 3.1712555346e+000	 1.4809248240e+000	 4.3291563203e-002
 3.1562079939e+000	 1.5127296849e+000	-1.4783095596e-002
 3.1408147750e+000	 1.5444359972e+000	-7.6717211085e-002
 3.1250765300e+000	 1.5760382868e+000	-1.4256032619e-001
 3.1089940239e+000	 1.6075310757e+000	-1.4336027548e-001
 2.8869230222e+000	 1.4927074274e+000	-1.8745224599e-001
 2.8716704108e+000	 1.5218439643e+000	-1.8934113696e-001
 2.8560998648e+000	 1.5508686476e+000	-1.9580222708e-001
 2.8402124111e+000	 1.5797763955e+000	-2.0783463901e-001
 2.8240091829e+000	 1.6085621327e+000	-2.2645209806e-001
 2.8074914197e+000	 1.6372207940e+000	-2.5268145320e-001
 2.7906604674e+000	 1.6657473264e+000	-2.8756114972e-001
 2.7735177786e+000	 1.6941366922e+000	-3.3213965641e-001
 2.7560649120e+000	 1.7223838716e+000	-3.8747385001e-001
 2.7383035326e+000	 1.7504838655e+000	-4.5462736017e-001
 2.7202354115e+000	 1.7784316985e+000	-5.3466887818e-001
 2.9091301224e+000	 1.5041897923e+000	-1.8398518469e-001
 2.8937601832e+000	 1.5335504563e+000	-1.9174878268e-001
 2.8780698638e+000	 1.5627984065e+000	-2.0358321299e-001
 2.8620601989e+000	 1.5919285216e+000	-2.2046444576e-001
 2.8457323305e+000	 1.6209356876e+000	-2.4338356592e-001
 2.8290875075e+000	 1.6498148002e+000	-2.7334530967e-001
 2.8121270864e+000	 1.6785607674e+000	-3.1136655180e-001
 2.7948525307e+000	 1.7071685129e+000	-3.5847474650e-001
 2.7772654113e+000	 1.7356329783e+000	-4.1570632471e-001
 2.7593674059e+000	 1.7639491260e+000	-4.8410505098e-001
 2.7411602993e+000	 1.7921119423e+000	-5.6472034310e-001
 2.9313372226e+000	 1.5156721571e+000	-1.8054271642e-001
 2.9158499556e+000	 1.5452569483e+000	-1.9294989490e-001
 2.9000398628e+000	 1.5747281653e+000	-2.0892919421e-001
 2.8839079867e+000	 1.6040806477e+000	-2.2943431170e-001
 2.8674554780e+000	 1.6333092425e+000	-2.5543457934e-001
 2.8506835954e+000	 1.6624088063e+000	-2.8791351475e-001
 2.8335937054e+000	 1.6913742084e+000	-3.2786732215e-001
 2.8161872829e+000	 1.7202003336e+000	-3.7630334589e-001
 2.7984659106e+000	 1.7488820850e+000	-4.3423847957e-001
 2.7804312793e+000	 1.7774143865e+000	-5.0269753377e-001
 2.7620851870e+000	 1.8057921862e+000	-5.8271156563e-001
 2.9535443227e+000	 1.5271545219e+000	-1.7703479971e-001
 2.9379397280e+000	 1.5569634404e+000	-1.9287487580e-001
 2.9220098617e+000	 1.5866579241e+000	-2.1179084549e-001
 2.9057557745e+000	 1.6162327739e+000	-2.3471500508e-001
 2.8891786256e+000	 1.6456827974e+000	-2.6259581311e-001
 2.8722796832e+000	 1.6750028124e+000	-2.9639645503e-001
 2.8550603244e+000	 1.7041876494e+000	-3.3709335674e-001
 2.8375220350e+000	 1.7332321543e+000	-3.8567464987e-001
 2.8196664100e+000	 1.7621311917e+000	-4.4313859169e-001
 2.8014951526e+000	 1.7908796470e+000	-5.1049194258e-001
 2.7830100748e+000	 1.8194724300e+000	-5.8874830457e-001
 2.9757514229e+000	 1.5386368868e+000	-1.7337277090e-001
 2.9600295004e+000	 1.5686699324e+000	-1.9145481092e-001
 2.9439798607e+000	 1.5985876830e+000	-2.1211883442e-001
 2.9276035623e+000	 1.6283849000e+000	-2.3627660069e-001
 2.9109017732e+000	 1.6580563522e+000	-2.6485656687e-001
 2.8938757711e+000	 1.6875968185e+000	-2.9880246515e-001
 2.8765269434e+000	 1.7170010903e+000	-3.3907182801e-001
 2.8588567872e+000	 1.7462639751e+000	-3.8663446425e-001
 2.8408669093e+000	 1.7753802984e+000	-4.4247088860e-001
 2.8225590259e+000	 1.8043449075e+000	-5.0757070807e-001
 2.8039349626e+000	 1.8331526738e+000	-5.8293096817e-001
 2.9979585231e+000	 1.5501192516e+000	-1.6946929303e-001
 2.9821192728e+000	 1.5803764244e+000	-1.8862144387e-001
 2.9659498596e+000	 1.6105174418e+000	-2.0986382168e-001
 2.9494513500e+000	 1.6405370261e+000	-2.3408850559e-001
 2.9326249207e+000	 1.6704299071e+000	-2.6220481606e-001
 2.9154718589e+000	 1.7001908246e+000	-2.9513790381e-001
 2.8979935624e+000	 1.7298145313e+000	-3.3382728579e-001
 2.8801915393e+000	 1.7592957958e+000	-3.7922533089e-001
 2.8620674086e+000	 1.7886294051e+000	-4.3229569833e-001
 2.8436228993e+000	 1.8178101680e+000	-4.9401173177e-001
 2.8248598504e+000	 1.8468329177e+000	-5.6535481226e-001
 3.0201656232e+000	 1.5616016164e+000	-1.6523830710e-001
 3.0042090452e+000	 1.5920829165e+000	-1.8430715210e-001
 2.9879198586e+000	 1.6224472006e+000	-2.0497646137e-001
 2.9712991378e+000	 1.6526891522e+000	-2.2811948365e-001
 2.9543480683e+000	 1.6828034620e+000	-2.5462726058e-001
 2.9370679468e+000	 1.7127848307e+000	-2.8540722641e-001
 2.9194601813e+000	 1.7426279723e+000	-3.2138175368e-001
 2.9015262915e+000	 1.7723276165e+000	-3.6348664770e-001
 2.8832679079e+000	 1.8018785118e+000	-4.1266959269e-001
 2.8646867726e+000	 1.8312754286e+000	-4.6988855257e-001
 2.8457847382e+000	 1.8605131615e+000	-5.3611012967e-001
 3.0423727234e+000	 1.5730839812e+000	-1.6059498543e-001
 3.0262988176e+000	 1.6037894085e+000	-1.7844492378e-001
 3.0098898576e+000	 1.6343769594e+000	-1.9740740116e-001
 2.9931469256e+000	 1.6648412783e+000	-2.1833767900e-001
 2.9760712159e+000	 1.6951770168e+000	-2.4210937138e-001
 2.9586640346e+000	 1.7253788368e+000	-2.6961305453e-001
 2.9409268003e+000	 1.7554414133e+000	-3.0175482129e-001
 2.9228610436e+000	 1.7853594372e+000	-3.3945478342e-001
 2.9044684072e+000	 1.8151276185e+000	-3.8364552439e-001
 2.8857506459e+000	 1.8447406891e+000	-4.3527050593e-001
 2.8667096260e+000	 1.8741934053e+000	-4.9528243142e-001
 3.0645798236e+000	 1.5845663461e+000	-1.5545568705e-001
 3.0483885900e+000	 1.6154959005e+000	-1.7096833571e-001
 3.0318598565e+000	 1.6463067183e+000	-1.8710728259e-001
 3.0149947134e+000	 1.6769934045e+000	-2.0471063853e-001
 2.9977943634e+000	 1.7075505717e+000	-2.2463543496e-001
 2.9802601225e+000	 1.7379728429e+000	-2.4775624232e-001
 2.9623934193e+000	 1.7682548542e+000	-2.7496373240e-001
 2.9441957958e+000	 1.7983912579e+000	-3.0716318731e-001
 2.9256689066e+000	 1.8283767252e+000	-3.4527295816e-001
 2.9068145192e+000	 1.8582059496e+000	-3.9022287620e-001
 2.8876345137e+000	 1.8878736492e+000	-4.8275112892e-001
 3.0867869237e+000	 1.5960487109e+000	-1.4973791500e-001
 3.0704783624e+000	 1.6272023926e+000	-1.6181153208e-001
 3.0538298555e+000	 1.6582364771e+000	-1.7402674126e-001
 3.0368425011e+000	 1.6891455306e+000	-1.8720533332e-001
 3.0195175110e+000	 1.7199241266e+000	-2.0218859597e-001
 3.0018562103e+000	 1.7505668490e+000	-2.1983594016e-001
 2.9838600383e+000	 1.7810682952e+000	-2.4102346933e-001
 2.9655305479e+000	 1.8114230786e+000	-2.6664249422e-001
 2.9468694059e+000	 1.8416258319e+000	-2.9759799625e-001
 2.9278783926e+000	 1.8716712101e+000	-3.3480704236e-001
 2.9085594015e+000	 1.9015538930e+000	-4.5930725297e-001
 3.1089940239e+000	 1.6075310757e+000	-1.4336027548e-001
 3.0925681348e+000	 1.6389088846e+000	-1.5090920427e-001
 3.0757998544e+000	 1.6701662359e+000	-1.5811640703e-001
 3.0586902889e+000	 1.7012976567e+000	-1.6578817924e-001
 3.0412406585e+000	 1.7322976814e+000	-1.7475089801e-001
 3.0234522981e+000	 1.7631608551e+000	-1.8584965543e-001
 3.0053266573e+000	 1.7938817362e+000	-1.9994683375e-001
 2.9868653000e+000	 1.8244548993e+000	-2.1792062508e-001
 2.9680699052e+000	 1.8548749386e+000	-2.4066349846e-001
 2.9489422659e+000	 1.8851364706e+000	-2.9992179905e-001
 2.9294842893e+000	 1.9152341368e+000	-4.2262358609e-001
 2.7202354115e+000	 1.7784316985e+000	-5.3466887818e-001
 2.7018624252e+000	 1.8062224213e+000	-5.0615449437e-001
 2.6831865557e+000	 1.8338511137e+000	-4.7871938646e-001
 2.6642098895e+000	 1.8613128874e+000	-4.5313933911e-001
 2.6449346172e+000	 1.8886028886e+000	-4.7307647005e-001
 2.6253630329e+000	 1.9157163009e+000	-5.3103327945e-001
 2.6054975333e+000	 1.9426483480e+000	-5.8128792638e-001
 2.5853406170e+000	 1.9693942963e+000	-6.2379731608e-001
 2.5648948833e+000	 1.9959494577e+000	-6.5852180427e-001
 2.5441630315e+000	 2.0223091922e+000	-6.8542579867e-001
 2.5231478596e+000	 2.0484689108e+000	-7.0447835799e-001
 2.7411602993e+000	 1.7921119423e+000	-5.6472034310e-001
 2.7226459824e+000	 1.8201164399e+000	-5.3059279556e-001
 2.7038264523e+000	 1.8479576607e+000	-4.9791643057e-001
 2.6847038117e+000	 1.8756306788e+000	-4.6958295657e-001
 2.6652802681e+000	 1.9031306032e+000	-5.2642455777e-001
 2.6455581331e+000	 1.9304525802e+000	-5.7612587660e-001
 2.6255398220e+000	 1.9575917969e+000	-6.1868151561e-001
 2.6052278525e+000	 1.9845434832e+000	-6.5408867182e-001
 2.5846248440e+000	 2.0113029150e+000	-6.8234770832e-001
 2.5637335164e+000	 2.0378654168e+000	-7.0346272537e-001
 2.5425566893e+000	 2.0642263640e+000	-7.1744212925e-001
 2.7620851870e+000	 1.8057921862e+000	-5.8271156563e-001
 2.7434295395e+000	 1.8340104585e+000	-5.4387986539e-001
 2.7244663489e+000	 1.8620642078e+000	-5.0686899488e-001
 2.7051977340e+000	 1.8899484703e+000	-5.1972747064e-001
 2.6856259190e+000	 1.9176583177e+000	-5.6887009116e-001
 2.6657532334e+000	 1.9451888594e+000	-6.1138478816e-001
 2.6455821107e+000	 1.9725352457e+000	-6.4730592175e-001
 2.6251150880e+000	 1.9996926701e+000	-6.7667019310e-001
 2.6043548046e+000	 2.0266563724e+000	-6.9951718632e-001
 2.5833040013e+000	 2.0534216413e+000	-7.1588991032e-001
 2.5619655190e+000	 2.0799838171e+000	-7.2583533831e-001
 2.7830100748e+000	 1.8194724300e+000	-5.8874830457e-001
 2.7642130966e+000	 1.8479044772e+000	-5.4609308256e-001
 2.7451062455e+000	 1.8761707548e+000	-5.0940790579e-001
 2.7256916562e+000	 1.9042662617e+000	-5.5809235096e-001
 2.7059715699e+000	 1.9321860322e+000	-6.0058597948e-001
 2.6859483336e+000	 1.9599251387e+000	-6.3696055339e-001
 2.6656243995e+000	 1.9874786945e+000	-6.6728941117e-001
 2.6450023235e+000	 2.0148418570e+000	-6.9164797923e-001
 2.6240847652e+000	 2.0420098298e+000	-7.1011428529e-001
 2.6028744861e+000	 2.0689778659e+000	-7.2276947168e-001
 2.5813743487e+000	 2.0957412703e+000	-7.2969830669e-001
 2.8039349626e+000	 1.8331526738e+000	-5.8293096817e-001
 2.7849966537e+000	 1.8617984958e+000	-5.3730523082e-001
 2.7657461421e+000	 1.8902773018e+000	-5.4227317433e-001
 2.7461855784e+000	 1.9185840532e+000	-5.8486987455e-001
 2.7263172208e+000	 1.9467137467e+000	-6.2174278969e-001
 2.7061434339e+000	 1.9746614179e+000	-6.5300211419e-001
 2.6856666882e+000	 2.0024221433e+000	-6.7875939409e-001
 2.6648895590e+000	 2.0299910439e+000	-6.9912801072e-001
 2.6438147259e+000	 2.0573632871e+000	-7.1422366636e-001
 2.6224449710e+000	 2.0845340904e+000	-7.2416487003e-001
 2.6007831784e+000	 2.1114987234e+000	-7.2907342153e-001
 2.8248598504e+000	 1.8468329177e+000	-5.6535481226e-001
 2.8057802108e+000	 1.8756925144e+000	-5.1980522580e-001
 2.7863860387e+000	 1.9043838488e+000	-5.6273053716e-001
 2.7666795006e+000	 1.9329018446e+000	-6.0024934251e-001
 2.7466628717e+000	 1.9612414613e+000	-6.3250883327e-001
 2.7263385341e+000	 1.9893976971e+000	-6.5965687421e-001
 2.7057089769e+000	 2.0173655922e+000	-6.8184245634e-001
 2.6847767946e+000	 2.0451402308e+000	-6.9921615367e-001
 2.6635446865e+000	 2.0727167445e+000	-7.1193058209e-001
 2.6420154558e+000	 2.1000903150e+000	-7.2014085863e-001
 2.6201920081e+000	 2.1272561766e+000	-7.2400505910e-001
 2.8457847382e+000	 1.8605131615e+000	-5.3611012967e-001
 2.8265637680e+000	 1.8895865330e+000	-5.3257476012e-001
 2.8070259352e+000	 1.9184903959e+000	-5.7098679555e-001
 2.7871734229e+000	 1.9472196360e+000	-6.0441718943e-001
 2.7670085226e+000	 1.9757691758e+000	-6.3305024910e-001
 2.7465336344e+000	 2.0041339764e+000	-6.5707075544e-001
 2.7257512656e+000	 2.0323090410e+000	-6.7666438964e-001
 2.7046640301e+000	 2.0602894177e+000	-6.9201816394e-001
 2.6832746472e+000	 2.0880702019e+000	-7.0332085468e-001
 2.6615859407e+000	 2.1156465395e+000	-7.1076343592e-001
 2.6396008378e+000	 2.1430136297e+000	-7.1453951164e-001
 2.8667096260e+000	 1.8741934053e+000	-4.9528243142e-001
 2.8473473251e+000	 1.9034805517e+000	-5.3237509385e-001
 2.8276658318e+000	 1.9325969429e+000	-5.6724531771e-001
 2.8076673451e+000	 1.9615374275e+000	-5.9755708800e-001
 2.7873541735e+000	 1.9902968903e+000	-6.2353108277e-001
 2.7667287347e+000	 2.0188702556e+000	-6.4538825229e-001
 2.7457935543e+000	 2.0472524898e+000	-6.6335022061e-001
 2.7245512656e+000	 2.0754386045e+000	-6.7763969122e-001
 2.7030046078e+000	 2.1034236592e+000	-6.8848085519e-001
 2.6811564256e+000	 2.1312027641e+000	-6.9609980003e-001
 2.6590096675e+000	 2.1587710829e+000	-7.0072491747e-001
 2.8876345137e+000	 1.8878736492e+000	-4.8275112892e-001
 2.8681308822e+000	 1.9173745703e+000	-5.1942539390e-001
 2.8483057284e+000	 1.9467034899e+000	-5.5170616316e-001
 2.8281612673e+000	 1.9758552189e+000	-5.7985004908e-001
 2.8076998244e+000	 2.0048246048e+000	-6.0411336240e-001
 2.7869238349e+000	 2.0336065348e+000	-6.2475248328e-001
 2.7658358430e+000	 2.0621959387e+000	-6.4202423847e-001
 2.7444385011e+000	 2.0905877914e+000	-6.5618628287e-001
 2.7227345685e+000	 2.1187771166e+000	-6.6749748365e-001
 2.7007269104e+000	 2.1467589886e+000	-6.7621830537e-001
 2.6784184972e+000	 2.1745285361e+000	-6.8261119409e-001
 2.9085594015e+000	 1.9015538930e+000	-4.5930725297e-001
 2.8889144393e+000	 1.9312685889e+000	-4.9394101182e-001
 2.8689456250e+000	 1.9608100369e+000	-5.2456620173e-001
 2.8486551895e+000	 1.9901730104e+000	-5.5147451745e-001
 2.8280454753e+000	 2.0193523194e+000	-5.7495717127e-001
 2.8071189352e+000	 2.0483428141e+000	-5.9530524056e-001
 2.7858781318e+000	 2.0771393875e+000	-6.1281002155e-001
 2.7643257366e+000	 2.1057369783e+000	-6.2776338755e-001
 2.7424645291e+000	 2.1341305740e+000	-6.4045815007e-001
 2.7202973953e+000	 2.1623152132e+000	-6.5118842101e-001
 2.6978273268e+000	 2.1902859892e+000	-6.6024997415e-001
 2.9294842893e+000	 1.9152341368e+000	-4.2262358609e-001
 2.9096979964e+000	 1.9451626075e+000	-4.5613362008e-001
 2.8895855216e+000	 1.9749165840e+000	-4.8601922753e-001
 2.8691491118e+000	 2.0044908018e+000	-5.1260646345e-001
 2.8483911262e+000	 2.0338800339e+000	-5.3622071719e-001
 2.8273140354e+000	 2.0630790933e+000	-5.5718703729e-001
 2.8059204205e+000	 2.0920828363e+000	-5.7583046273e-001
 2.7842129721e+000	 2.1208861652e+000	-5.9247635883e-001
 2.7621944897e+000	 2.1494840313e+000	-6.0745075617e-001
 2.7398678801e+000	 2.1778714378e+000	-6.2108069084e-001
 2.7172361565e+000	 2.2060434424e+000	-6.3369454425e-001
 2.5231478596e+000	 2.0484689108e+000	-7.0447835799e-001
 2.5018522630e+000	 2.0744240777e+000	-8.0393033980e-001
 2.4802792335e+000	 2.1001702130e+000	-7.7859901118e-001
 2.4584318577e+000	 2.1257028957e+000	-7.5075909759e-001
 2.4363133158e+000	 2.1510177654e+000	-7.3405016840e-001
 2.4139268797e+000	 2.1761105255e+000	-7.2913733569e-001
 2.3912759120e+000	 2.2009769451e+000	-7.3667428509e-001
 2.3683638636e+000	 2.2256128616e+000	-7.5730196196e-001
 2.3451942726e+000	 2.2500141830e+000	-7.9164726724e-001
 2.3217707623e+000	 2.2741768901e+000	-8.4032176634e-001
 2.2980970388e+000	 2.2980970388e+000	-9.0392041410e-001
 2.5425566893e+000	 2.0642263640e+000	-7.1744212925e-001
 2.5210972804e+000	 2.0903811859e+000	-8.0603652617e-001
 2.4993583046e+000	 2.1163253685e+000	-9.0358942631e-001
 2.4773428720e+000	 2.1420544564e+000	-8.6421290339e-001
 2.4550541875e+000	 2.1675640559e+000	-8.3514112909e-001
 2.4324955480e+000	 2.1928498373e+000	-8.1707120193e-001
 2.4096703421e+000	 2.2179075370e+000	-8.1068971978e-001
 2.3865820472e+000	 2.2427329605e+000	-8.1667142009e-001
 2.3632342286e+000	 2.2673219844e+000	-8.3567782839e-001
 2.3396305373e+000	 2.2916705585e+000	-8.6835591848e-001
 2.3157747084e+000	 2.3157747084e+000	-9.1533678750e-001
 2.5619655190e+000	 2.0799838171e+000	-7.2583533831e-001
 2.5403422979e+000	 2.1063382942e+000	-8.0374722076e-001
 2.5184373756e+000	 2.1324805240e+000	-8.9430291267e-001
 2.4962538863e+000	 2.1584060172e+000	-9.7120318219e-001
 2.4737950591e+000	 2.1841103464e+000	-9.2982020986e-001
 2.4510642163e+000	 2.2095891490e+000	-8.9866007091e-001
 2.4280647722e+000	 2.2348381289e+000	-8.7844255336e-001
 2.4048002307e+000	 2.2598530594e+000	-8.6987645680e-001
 2.3812741845e+000	 2.2846297858e+000	-8.7365819303e-001
 2.3574903124e+000	 2.3091642269e+000	-8.9047039699e-001
 2.3334523779e+000	 2.3334523779e+000	-9.2098055153e-001
 2.5813743487e+000	 2.0957412703e+000	-7.2969830669e-001
 2.5595873153e+000	 2.1222954025e+000	-7.9710039373e-001
 2.5375164466e+000	 2.1486356795e+000	-8.7635966774e-001
 2.5151649006e+000	 2.1747575779e+000	-9.6723221598e-001
 2.4925359308e+000	 2.2006566370e+000	-1.0180248795e+000
 2.4696328847e+000	 2.2263284607e+000	-9.7383300651e-001
 2.4464592022e+000	 2.2517687207e+000	-9.3985308765e-001
 2.4230184143e+000	 2.2769731584e+000	-9.1682826100e-001
 2.3993141405e+000	 2.3019375872e+000	-9.0549009275e-001
 2.3753500875e+000	 2.3266578953e+000	-9.0655713854e-001
 2.3511300474e+000	 2.3511300474e+000	-9.2073351724e-001
 2.6007831784e+000	 2.1114987234e+000	-7.2907342153e-001
 2.5788323327e+000	 2.1382525108e+000	-7.8613622241e-001
 2.5565955176e+000	 2.1647908350e+000	-8.5428349214e-001
 2.5340759149e+000	 2.1911091386e+000	-9.3327034815e-001
 2.5112768024e+000	 2.2172029275e+000	-1.0228411395e+000
 2.4882015530e+000	 2.2430677725e+000	-1.0425219474e+000
 2.4648536323e+000	 2.2686993126e+000	-9.9484469125e-001
 2.4412365979e+000	 2.2940932573e+000	-9.5744129014e-001
 2.4173540964e+000	 2.3192453886e+000	-9.3107873927e-001
 2.3932098626e+000	 2.3441515636e+000	-9.1651178109e-001
 2.3688077170e+000	 2.3688077170e+000	-9.1448142769e-001
 2.6201920081e+000	 2.1272561766e+000	-7.2400505910e-001
 2.5980773501e+000	 2.1542096191e+000	-7.7089700955e-001
 2.5756745887e+000	 2.1809459905e+000	-8.2811424971e-001
 2.5529869292e+000	 2.2074606994e+000	-8.9541059120e-001
 2.5300176741e+000	 2.2337492180e+000	-9.7252995463e-001
 2.5067702213e+000	 2.2598070842e+000	-1.0592072076e+000
 2.4832480624e+000	 2.2856299045e+000	-1.0433436859e+000
 2.4594547814e+000	 2.3112133562e+000	-9.9163314916e-001
 2.4353940524e+000	 2.3365531900e+000	-9.5033269546e-001
 2.4110696377e+000	 2.3616452320e+000	-9.2023352676e-001
 2.3864853865e+000	 2.3864853865e+000	-9.0211381230e-001
 2.6396008378e+000	 2.1430136297e+000	-7.1453951164e-001
 2.6173223675e+000	 2.1701667274e+000	-7.5142710521e-001
 2.5947536597e+000	 2.1971011459e+000	-7.9789399230e-001
 2.5718979435e+000	 2.2238122601e+000	-8.5369234148e-001
 2.5487585458e+000	 2.2502955085e+000	-9.1856530106e-001
 2.5253388896e+000	 2.2765463959e+000	-9.9224785476e-001
 2.5016424925e+000	 2.3025604964e+000	-1.0744676840e+000
 2.4776729650e+000	 2.3283334552e+000	-1.0193244748e+000
 2.4534340083e+000	 2.3538609914e+000	-9.6316375220e-001
 2.4289294128e+000	 2.3791389004e+000	-9.1762501083e-001
 2.4041630560e+000	 2.4041630560e+000	-8.8352384769e-001
 2.6590096675e+000	 2.1587710829e+000	-7.0072491747e-001
 2.6365673849e+000	 2.1861238357e+000	-7.2777283199e-001
 2.6138327307e+000	 2.2132563014e+000	-7.6366687998e-001
 2.5908089578e+000	 2.2401638209e+000	-8.0815724825e-001
 2.5674994174e+000	 2.2668417990e+000	-8.6098596776e-001
 2.5439075579e+000	 2.2932857077e+000	-9.2188778762e-001
 2.5200369226e+000	 2.3194910883e+000	-9.9059105422e-001
 2.4958911486e+000	 2.3454535541e+000	-1.0404388249e+000
 2.4714739642e+000	 2.3711687928e+000	-9.6948681053e-001
 2.4467891879e+000	 2.3966325688e+000	-9.0859217643e-001
 2.4218407256e+000	 2.4218407256e+000	-8.5860822453e-001
 2.6784184972e+000	 2.1745285361e+000	-6.8261119409e-001
 2.6558124023e+000	 2.2020809440e+000	-6.9998241362e-001
 2.6329118018e+000	 2.2294114569e+000	-7.2547910466e-001
 2.6097199721e+000	 2.2565153816e+000	-7.5884913203e-001
 2.5862402891e+000	 2.2833880895e+000	-7.9983306313e-001
 2.5624762262e+000	 2.3100250194e+000	-8.4816506066e-001
 2.5384313527e+000	 2.3364216802e+000	-9.0357377924e-001
 2.5141093321e+000	 2.3625736530e+000	-9.6578326318e-001
 2.4895139202e+000	 2.3884765942e+000	-9.6921976898e-001
 2.4646489630e+000	 2.4141262372e+000	-8.9304415470e-001
 2.4395183951e+000	 2.4395183951e+000	-8.2726702022e-001
 2.6978273268e+000	 2.1902859892e+000	-6.6024997415e-001
 2.6750574197e+000	 2.2180380522e+000	-6.6810590653e-001
 2.6519908728e+000	 2.2455666124e+000	-6.8337881693e-001
 2.6286309864e+000	 2.2728669423e+000	-7.0581390650e-001
 2.6049811607e+000	 2.2999343800e+000	-7.3514993153e-001
 2.5810448945e+000	 2.3267643311e+000	-7.7112011546e-001
 2.5568257828e+000	 2.3533522720e+000	-8.1345306356e-001
 2.5323275157e+000	 2.3796937520e+000	-8.6187367734e-001
 2.5075538761e+000	 2.4057843956e+000	-9.1610406619e-001
 2.4825087381e+000	 2.4316199056e+000	-8.7089315010e-001
 2.4571960646e+000	 2.4571960646e+000	-7.8940357709e-001
 2.7172361565e+000	 2.2060434424e+000	-6.3369454425e-001
 2.6943024371e+000	 2.2339951605e+000	-6.3219513440e-001
 2.6710699438e+000	 2.2617217679e+000	-6.3741605619e-001
 2.6475420007e+000	 2.2892185031e+000	-6.4909950379e-001
 2.6237220324e+000	 2.3164806705e+000	-6.6698207346e-001
 2.5996135628e+000	 2.3435036429e+000	-6.9079569544e-001
 2.5752202129e+000	 2.3702828639e+000	-7.2026856720e-001
 2.5505456993e+000	 2.3968138509e+000	-7.5512608500e-001
 2.5255938321e+000	 2.4230921970e+000	-7.9509177140e-001
 2.5003685132e+000	 2.4491135740e+000	-8.3988819581e-001
 2.4748737342e+000	 2.4748737342e+000	-7.4492438580e-001
 2.2980970388e+000	 2.2980970388e+000	-9.0392041410e-001
 2.2741768901e+000	 2.3217707623e+000	-9.2536281454e-001
 2.2500141830e+000	 2.3451942726e+000	-9.3326323051e-001
 2.2256128616e+000	 2.3683638636e+000	-9.2898469197e-001
 2.2009769451e+000	 2.3912759120e+000	-9.1389560849e-001
 2.1761105255e+000	 2.4139268797e+000	-8.8936769503e-001
 2.1510177654e+000	 2.4363133158e+000	-8.5677389874e-001
 2.1257028957e+000	 2.4584318577e+000	-8.1748633133e-001
 2.1001702130e+000	 2.4802792335e+000	-7.7287421131e-001
 2.0744240777e+000	 2.5018522630e+000	-7.2368041237e-001
 2.0484689108e+000	 2.5231478596e+000	-6.6150456363e-001
 2.3157747084e+000	 2.3157747084e+000	-9.1533678750e-001
 2.2916705585e+000	 2.3396305373e+000	-9.3886889778e-001
 2.2673219844e+000	 2.3632342286e+000	-9.5129534274e-001
 2.2427329605e+000	 2.3865820472e+000	-9.5394966461e-001
 2.2179075370e+000	 2.4096703421e+000	-9.4816864570e-001
 2.1928498373e+000	 2.4324955480e+000	-9.3529025521e-001
 2.1675640559e+000	 2.4550541875e+000	-9.1665159993e-001
 2.1420544564e+000	 2.4773428720e+000	-8.9358688312e-001
 2.1163253685e+000	 2.4993583046e+000	-8.6742537625e-001
 2.0903811859e+000	 2.5210972804e+000	-8.3000200267e-001
 2.0642263640e+000	 2.5425566893e+000	-7.8467932650e-001
 2.3334523779e+000	 2.3334523779e+000	-9.2098055153e-001
 2.3091642269e+000	 2.3574903124e+000	-9.4518286482e-001
 2.2846297858e+000	 2.3812741845e+000	-9.6068741180e-001
 2.2598530594e+000	 2.4048002307e+000	-9.6879925593e-001
 2.2348381289e+000	 2.4280647722e+000	-9.7082457825e-001
 2.2095891490e+000	 2.4510642163e+000	-9.6806864404e-001
 2.1841103464e+000	 2.4737950591e+000	-9.6183377604e-001
 2.1584060172e+000	 2.4962538863e+000	-9.5341733885e-001
 2.1324805240e+000	 2.5184373756e+000	-9.3683996117e-001
 2.1063382942e+000	 2.5403422979e+000	-9.1284596105e-001
 2.0799838171e+000	 2.5619655190e+000	-8.8274474692e-001
 2.3511300474e+000	 2.3511300474e+000	-9.2073351724e-001
 2.3266578953e+000	 2.3753500875e+000	-9.4421179213e-001
 2.3019375872e+000	 2.3993141405e+000	-9.6137248789e-001
 2.2769731584e+000	 2.4230184143e+000	-9.7349318785e-001
 2.2517687207e+000	 2.4464592022e+000	-9.8185048693e-001
 2.2263284607e+000	 2.4696328847e+000	-9.8771797697e-001
 2.2006566370e+000	 2.4925359308e+000	-9.9236424141e-001
 2.1747575779e+000	 2.5151649006e+000	-9.9193925067e-001
 2.1486356795e+000	 2.5375164466e+000	-9.8485531856e-001
 2.1222954025e+000	 2.5595873153e+000	-9.7292272243e-001
 2.0957412703e+000	 2.5813743487e+000	-9.5644465263e-001
 2.3688077170e+000	 2.3688077170e+000	-9.1448142769e-001
 2.3441515636e+000	 2.3932098626e+000	-9.3586586226e-001
 2.3192453886e+000	 2.4173540964e+000	-9.5328588016e-001
 2.2940932573e+000	 2.4412365979e+000	-9.6799257319e-001
 2.2686993126e+000	 2.4648536323e+000	-9.8123395492e-001
 2.2430677725e+000	 2.4882015530e+000	-9.9425296348e-001
 2.2172029275e+000	 2.5112768024e+000	-1.0051365481e+000
 2.1911091386e+000	 2.5340759149e+000	-1.0104685898e+000
 2.1647908350e+000	 2.5565955176e+000	-1.0123342368e+000
 2.1382525108e+000	 2.5788323327e+000	-1.0109384915e+000
 2.1114987234e+000	 2.6007831784e+000	-1.0065176399e+000
 2.3864853865e+000	 2.3864853865e+000	-9.0211381230e-001
 2.3616452320e+000	 2.4110696377e+000	-9.2005824879e-001
 2.3365531900e+000	 2.4353940524e+000	-9.3636507295e-001
 2.3112133562e+000	 2.4594547814e+000	-9.5225986410e-001
 2.2856299045e+000	 2.4832480624e+000	-9.6896304924e-001
 2.2598070842e+000	 2.5067702213e+000	-9.8618460220e-001
 2.2337492180e+000	 2.5300176741e+000	-9.9936573460e-001
 2.2074606994e+000	 2.5529869292e+000	-1.0105840756e+000
 2.1809459905e+000	 2.5756745887e+000	-1.0199476539e+000
 2.1542096191e+000	 2.5980773501e+000	-1.0275953994e+000
 2.1272561766e+000	 2.6201920081e+000	-1.0336972671e+000
 2.4041630560e+000	 2.4041630560e+000	-8.8352384769e-001
 2.3791389004e+000	 2.4289294128e+000	-8.9670500640e-001
 2.3538609914e+000	 2.4534340083e+000	-9.1054964588e-001
 2.3283334552e+000	 2.4776729650e+000	-9.2625880285e-001
 2.3025604964e+000	 2.5016424925e+000	-9.4475240976e-001
 2.2765463959e+000	 2.5253388896e+000	-9.6114565236e-001
 2.2502955085e+000	 2.5487585458e+000	-9.7719855952e-001
 2.2238122601e+000	 2.5718979435e+000	-9.9292358808e-001
 2.1971011459e+000	 2.5947536597e+000	-1.0083634965e+000
 2.1701667274e+000	 2.6173223675e+000	-1.0235916535e+000
 2.1430136297e+000	 2.6396008378e+000	-1.0387122403e+000
 2.4218407256e+000	 2.4218407256e+000	-8.5860822453e-001
 2.3966325688e+000	 2.4467891879e+000	-8.6572496567e-001
 2.3711687928e+000	 2.4714739642e+000	-8.7578119735e-001
 2.3454535541e+000	 2.4958911486e+000	-8.8995437475e-001
 2.3194910883e+000	 2.5200369226e+000	-9.0532633418e-001
 2.2932857077e+000	 2.5439075579e+000	-9.2162568985e-001
 2.2668417990e+000	 2.5674994174e+000	-9.3924191479e-001
 2.2401638209e+000	 2.5908089578e+000	-9.5812296879e-001
 2.2132563014e+000	 2.6138327307e+000	-9.7824678964e-001
 2.1861238357e+000	 2.6365673849e+000	-9.9962168063e-001
 2.1587710829e+000	 2.6590096675e+000	-1.0222865900e+000
 2.4395183951e+000	 2.4395183951e+000	-8.2726702022e-001
 2.4141262372e+000	 2.4646489630e+000	-8.2703963255e-001
 2.3884765942e+000	 2.4895139202e+000	-8.3200327143e-001
 2.3625736530e+000	 2.5141093321e+000	-8.4134500460e-001
 2.3364216802e+000	 2.5384313527e+000	-8.5323528572e-001
 2.3100250194e+000	 2.5624762262e+000	-8.6820255721e-001
 2.2833880895e+000	 2.5862402891e+000	-8.8610154332e-001
 2.2565153816e+000	 2.6097199721e+000	-9.0681609459e-001
 2.2294114569e+000	 2.6329118018e+000	-9.3025976219e-001
 2.2020809440e+000	 2.6558124023e+000	-9.5637626392e-001
 2.1745285361e+000	 2.6784184972e+000	-9.8513984063e-001
 2.4571960646e+000	 2.4571960646e+000	-7.8940357709e-001
 2.4316199056e+000	 2.4825087381e+000	-7.8057309209e-001
 2.4057843956e+000	 2.5075538761e+000	-7.7855825952e-001
 2.3796937520e+000	 2.5323275157e+000	-7.8131912112e-001
 2.3533522720e+000	 2.5568257828e+000	-7.8902987285e-001
 2.3267643311e+000	 2.5810448945e+000	-8.0145375986e-001
 2.2999343800e+000	 2.6049811607e+000	-8.1838208042e-001
 2.2728669423e+000	 2.6286309864e+000	-8.3963494841e-001
 2.2455666124e+000	 2.6519908728e+000	-8.6506194723e-001
 2.2180380522e+000	 2.6750574197e+000	-8.9454267403e-001
 2.1902859892e+000	 2.6978273268e+000	-9.2798717271e-001
 2.4748737342e+000	 2.4748737342e+000	-7.4492438580e-001
 2.4491135740e+000	 2.5003685132e+000	-7.2624220578e-001
 2.4230921970e+000	 2.5255938321e+000	-7.1509106705e-001
 2.3968138509e+000	 2.5505456993e+000	-7.1087279446e-001
 2.3702828639e+000	 2.5752202129e+000	-7.1326110634e-001
 2.3435036429e+000	 2.5996135628e+000	-7.2195647812e-001
 2.3164806705e+000	 2.6237220324e+000	-7.3668709332e-001
 2.2892185031e+000	 2.6475420007e+000	-7.5720968683e-001
 2.2617217679e+000	 2.6710699438e+000	-7.8331027838e-001
 2.2339951605e+000	 2.6943024371e+000	-8.1480479452e-001
 2.2060434424e+000	 2.7172361565e+000	-8.5153957796e-001
 2.0484689108e+000	 2.5231478596e+000	-6.6150456363e-001
 2.0223091922e+000	 2.5441630315e+000	-6.7786201888e-001
 1.9959494577e+000	 2.5648948833e+000	-7.2637446302e-001
 1.9693942963e+000	 2.5853406170e+000	-8.0620594176e-001
 1.9426483480e+000	 2.6054975333e+000	-9.1651906471e-001
 1.9157163009e+000	 2.6253630329e+000	-1.0564759471e+000
 1.8886028886e+000	 2.6449346172e+000	-1.2252390916e+000
 1.8613128874e+000	 2.6642098895e+000	-1.1547353108e+000
 1.8338511137e+000	 2.6831865557e+000	-8.3953712301e-001
 1.8062224213e+000	 2.7018624252e+000	-5.4364050304e-001
 1.7784316985e+000	 2.7202354115e+000	-2.6641331234e-001
 2.0642263640e+000	 2.5425566893e+000	-7.8467932650e-001
 2.0378654168e+000	 2.5637335164e+000	-7.8710086216e-001
 2.0113029150e+000	 2.5846248440e+000	-8.1683120626e-001
 1.9845434832e+000	 2.6052278525e+000	-8.7317661754e-001
 1.9575917969e+000	 2.6255398220e+000	-9.5544679221e-001
 1.9304525802e+000	 2.6455581331e+000	-1.0629556297e+000
 1.9031306032e+000	 2.6652802681e+000	-1.1950219319e+000
 1.8756306788e+000	 2.6847038117e+000	-1.3509700353e+000
 1.8479576607e+000	 2.7038264523e+000	-1.0051386300e+000
 1.8201164399e+000	 2.7226459824e+000	-6.6288603673e-001
 1.7921119423e+000	 2.7411602993e+000	-3.3595654664e-001
 2.0799838171e+000	 2.5619655190e+000	-8.8274474692e-001
 2.0534216413e+000	 2.5833040013e+000	-8.7429289661e-001
 2.0266563724e+000	 2.6043548046e+000	-8.8835784923e-001
 1.9996926701e+000	 2.6251150880e+000	-9.2438634525e-001
 1.9725352457e+000	 2.6455821107e+000	-9.8183342728e-001
 1.9451888594e+000	 2.6657532334e+000	-1.0601630316e+000
 1.9176583177e+000	 2.6856259190e+000	-1.1588485060e+000
 1.8899484703e+000	 2.7051977340e+000	-1.2773730551e+000
 1.8620642078e+000	 2.7244663489e+000	-1.1665357042e+000
 1.8340104585e+000	 2.7434295395e+000	-7.8151686930e-001
 1.8057921862e+000	 2.7620851870e+000	-4.0852755192e-001
 2.0957412703e+000	 2.5813743487e+000	-9.5644465263e-001
 2.0689778659e+000	 2.6028744861e+000	-9.4010877866e-001
 2.0420098298e+000	 2.6240847652e+000	-9.4154997444e-001
 2.0148418570e+000	 2.6450023235e+000	-9.6035376929e-001
 1.9874786945e+000	 2.6656243995e+000	-9.9611885174e-001
 1.9599251387e+000	 2.6859483336e+000	-1.0484574882e+000
 1.9321860322e+000	 2.7059715699e+000	-1.1169958615e+000
 1.9042662617e+000	 2.7256916562e+000	-1.2013743297e+000
 1.8761707548e+000	 2.7451062455e+000	-1.3012476056e+000
 1.8479044772e+000	 2.7642130966e+000	-8.9924504322e-001
 1.8194724300e+000	 2.7830100748e+000	-4.8375079670e-001
 2.1114987234e+000	 2.6007831784e+000	-1.0065176399e+000
 2.0845340904e+000	 2.6224449710e+000	-9.8521610333e-001
 2.0573632871e+000	 2.6438147259e+000	-9.7700232030e-001
 2.0299910439e+000	 2.6648895590e+000	-9.8159895337e-001
 2.0024221433e+000	 2.6856666882e+000	-9.9874667491e-001
 1.9746614179e+000	 2.7061434339e+000	-1.0282044146e+000
 1.9467137467e+000	 2.7263172208e+000	-1.0697495196e+000
 1.9185840532e+000	 2.7461855784e+000	-1.1231778294e+000
 1.8902773018e+000	 2.7657461421e+000	-1.1883036641e+000
 1.8617984958e+000	 2.7849966537e+000	-1.0157984993e+000
 1.8331526738e+000	 2.8039349626e+000	-5.6126919916e-001
 2.1272561766e+000	 2.6201920081e+000	-1.0336972671e+000
 2.1000903150e+000	 2.6420154558e+000	-1.0102795177e+000
 2.0727167445e+000	 2.6635446865e+000	-9.9530881244e-001
 2.0451402308e+000	 2.6847767946e+000	-9.8864332786e-001
 2.0173655922e+000	 2.7057089769e+000	-9.9016409548e-001
 1.9893976971e+000	 2.7263385341e+000	-9.9977507964e-001
 1.9612414613e+000	 2.7466628717e+000	-1.0174031613e+000
 1.9329018446e+000	 2.7666795006e+000	-1.0429980293e+000
 1.9043838488e+000	 2.7863860387e+000	-1.0765319798e+000
 1.8756925144e+000	 2.8057802108e+000	-1.1179996266e+000
 1.8468329177e+000	 2.8248598504e+000	-6.4074344382e-001
 2.1430136297e+000	 2.6396008378e+000	-1.0387122403e+000
 2.1156465395e+000	 2.6615859407e+000	-1.0159608291e+000
 2.0880702019e+000	 2.6832746472e+000	-9.9706259354e-001
 2.0602894177e+000	 2.7046640301e+000	-9.8200963960e-001
 2.0323090410e+000	 2.7257512656e+000	-9.7082176956e-001
 2.0041339764e+000	 2.7465336344e+000	-9.6354639139e-001
 1.9757691758e+000	 2.7670085226e+000	-9.6025832734e-001
 1.9472196360e+000	 2.7871734229e+000	-9.6105952333e-001
 1.9184903959e+000	 2.8070259352e+000	-9.6607866073e-001
 1.8895865330e+000	 2.8265637680e+000	-9.7547067276e-001
 1.8605131615e+000	 2.8457847382e+000	-7.2185132839e-001
 2.1587710829e+000	 2.6590096675e+000	-1.0222865900e+000
 2.1312027641e+000	 2.6811564256e+000	-1.0029191091e+000
 2.1034236592e+000	 2.7030046078e+000	-9.8285605195e-001
 2.0754386045e+000	 2.7245512656e+000	-9.6222190383e-001
 2.0472524898e+000	 2.7457935543e+000	-9.4117368454e-001
 2.0188702556e+000	 2.7667287347e+000	-9.1990069082e-001
 1.9902968903e+000	 2.7873541735e+000	-8.9862413118e-001
 1.9615374275e+000	 2.8076673451e+000	-8.7759665475e-001
 1.9325969429e+000	 2.8276658318e+000	-8.5710177657e-001
 1.9034805517e+000	 2.8473473251e+000	-8.3745320144e-001
 1.8741934053e+000	 2.8667096260e+000	-8.0428713917e-001
 2.1745285361e+000	 2.6784184972e+000	-9.8513984063e-001
 2.1467589886e+000	 2.7007269104e+000	-9.7181079220e-001
 2.1187771166e+000	 2.7227345685e+000	-9.5328084897e-001
 2.0905877914e+000	 2.7444385011e+000	-9.2980535825e-001
 2.0621959387e+000	 2.7658358430e+000	-9.0167703834e-001
 2.0336065348e+000	 2.7869238349e+000	-8.6922555524e-001
 2.0048246048e+000	 2.8076998244e+000	-8.3281698494e-001
 1.9758552189e+000	 2.8281612673e+000	-7.9285316318e-001
 1.9467034899e+000	 2.8483057284e+000	-7.4977092538e-001
 1.9173745703e+000	 2.8681308822e+000	-7.0404123929e-001
 1.8878736492e+000	 2.8876345137e+000	-6.5616823370e-001
 2.1902859892e+000	 2.6978273268e+000	-9.2798717271e-001
 2.1623152132e+000	 2.7202973953e+000	-9.2328977108e-001
 2.1341305740e+000	 2.7424645291e+000	-9.0892794505e-001
 2.1057369783e+000	 2.7643257366e+000	-8.8528641903e-001
 2.0771393875e+000	 2.7858781318e+000	-8.5279212396e-001
 2.0483428141e+000	 2.8071189352e+000	-8.1191360983e-001
 2.0193523194e+000	 2.8280454753e+000	-7.6316033665e-001
 1.9901730104e+000	 2.8486551895e+000	-7.0708184641e-001
 1.9608100369e+000	 2.8689456250e+000	-6.4426681885e-001
 1.9312685889e+000	 2.8889144393e+000	-5.7534201410e-001
 1.9015538930e+000	 2.9085594015e+000	-5.0097110580e-001
 2.2060434424e+000	 2.7172361565e+000	-8.5153957796e-001
 2.1778714378e+000	 2.7398678801e+000	-8.5800748711e-001
 2.1494840313e+000	 2.7621944897e+000	-8.5038762481e-001
 2.1208861652e+000	 2.7842129721e+000	-8.2919263871e-001
 2.0920828363e+000	 2.8059204205e+000	-7.9498221891e-001
 2.0630790933e+000	 2.8273140354e+000	-7.4836234738e-001
 2.0338800339e+000	 2.8483911262e+000	-6.8998441902e-001
 2.0044908018e+000	 2.8691491118e+000	-6.2054423696e-001
 1.9749165840e+000	 2.8895855216e+000	-5.4078088537e-001
 1.9451626075e+000	 2.9096979964e+000	-4.5147548326e-001
 1.9152341368e+000	 2.9294842893e+000	-3.5344982316e-001
 1.7784316985e+000	 2.7202354115e+000	-2.6641331234e-001
 1.7504838655e+000	 2.7383035326e+000	-3.9316618314e-001
 1.7223838716e+000	 2.7560649120e+000	-4.9179218072e-001
 1.6941366922e+000	 2.7735177786e+000	-5.6342614718e-001
 1.6657473264e+000	 2.7906604674e+000	-6.0921790089e-001
 1.6372207940e+000	 2.8074914197e+000	-6.3033061058e-001
 1.6085621327e+000	 2.8240091829e+000	-6.2793915293e-001
 1.5797763955e+000	 2.8402124111e+000	-6.0322845717e-001
 1.5508686476e+000	 2.8560998648e+000	-5.5739184052e-001
 1.5218439643e+000	 2.8716704108e+000	-4.9162933804e-001
 1.4927074274e+000	 2.8869230222e+000	-4.0714603043e-001
 1.7921119423e+000	 2.7411602993e+000	-3.3595654664e-001
 1.7639491260e+000	 2.7593674059e+000	-4.5121400817e-001
 1.7356329783e+000	 2.7772654113e+000	-5.4356343653e-001
 1.7071685129e+000	 2.7948525307e+000	-6.1396949425e-001
 1.6785607674e+000	 2.8121270864e+000	-6.6340886129e-001
 1.6498148002e+000	 2.8290875075e+000	-6.9286880551e-001
 1.6209356876e+000	 2.8457323305e+000	-7.0334573805e-001
 1.5919285216e+000	 2.8620601989e+000	-6.9584375679e-001
 1.5627984065e+000	 2.8780698638e+000	-6.7137318132e-001
 1.5335504563e+000	 2.8937601832e+000	-6.3094908278e-001
 1.5041897923e+000	 2.9091301224e+000	-5.7558981174e-001
 1.8057921862e+000	 2.7620851870e+000	-4.0852755192e-001
 1.7774143865e+000	 2.7804312793e+000	-5.0818950098e-001
 1.7488820850e+000	 2.7984659106e+000	-5.9009342431e-001
 1.7202003336e+000	 2.8161872829e+000	-6.5503610589e-001
 1.6913742084e+000	 2.8335937054e+000	-7.0382342476e-001
 1.6624088063e+000	 2.8506835954e+000	-7.3726911946e-001
 1.6333092425e+000	 2.8674554780e+000	-7.5619353867e-001
 1.6040806477e+000	 2.8839079867e+000	-7.6142238097e-001
 1.5747281653e+000	 2.9000398628e+000	-7.5378542693e-001
 1.5452569483e+000	 2.9158499556e+000	-7.3411526626e-001
 1.5156721571e+000	 2.9313372226e+000	-7.0324602329e-001
 1.8194724300e+000	 2.7830100748e+000	-4.8375079670e-001
 1.7908796470e+000	 2.8014951526e+000	-5.6380401868e-001
 1.7621311917e+000	 2.8196664100e+000	-6.3118176633e-001
 1.7332321543e+000	 2.8375220350e+000	-6.8651520055e-001
 1.7041876494e+000	 2.8550603244e+000	-7.3044169084e-001
 1.6750028124e+000	 2.8722796832e+000	-7.6360377133e-001
 1.6456827974e+000	 2.8891786256e+000	-7.8664808418e-001
 1.6162327739e+000	 2.9057557745e+000	-8.0022431333e-001
 1.5866579241e+000	 2.9220098617e+000	-8.0498411095e-001
 1.5569634404e+000	 2.9379397280e+000	-8.0158001967e-001
 1.5271545219e+000	 2.9535443227e+000	-7.9066439300e-001
 1.8331526738e+000	 2.8039349626e+000	-5.6126919916e-001
 1.8043449075e+000	 2.8225590259e+000	-6.1778470773e-001
 1.7753802984e+000	 2.8408669093e+000	-6.6664116923e-001
 1.7462639751e+000	 2.8588567872e+000	-7.0830633271e-001
 1.7170010903e+000	 2.8765269434e+000	-7.4325130486e-001
 1.6875968185e+000	 2.8938757711e+000	-7.7194969510e-001
 1.6580563522e+000	 2.9109017732e+000	-7.9487674952e-001
 1.6283849000e+000	 2.9276035623e+000	-8.1250847592e-001
 1.5985876830e+000	 2.9439798607e+000	-8.2532076247e-001
 1.5686699324e+000	 2.9600295004e+000	-8.3378849237e-001
 1.5386368868e+000	 2.9757514229e+000	-8.3838465676e-001
 1.8468329177e+000	 2.8248598504e+000	-6.4074344382e-001
 1.8178101680e+000	 2.8436228993e+000	-6.6987391925e-001
 1.7886294051e+000	 2.8620674086e+000	-6.9629693941e-001
 1.7592957958e+000	 2.8801915393e+000	-7.2031901005e-001
 1.7298145313e+000	 2.8979935624e+000	-7.4224717842e-001
 1.7001908246e+000	 2.9154718589e+000	-7.6238836526e-001
 1.6704299071e+000	 2.9326249207e+000	-7.8104868674e-001
 1.6405370261e+000	 2.9494513500e+000	-7.9853276859e-001
 1.6105174418e+000	 2.9659498596e+000	-8.1514305444e-001
 1.5803764244e+000	 2.9821192728e+000	-8.3117911046e-001
 1.5501192516e+000	 2.9979585231e+000	-8.4693692847e-001
 1.8605131615e+000	 2.8457847382e+000	-7.2185132839e-001
 1.8312754286e+000	 2.8646867726e+000	-7.1982864994e-001
 1.8018785118e+000	 2.8832679079e+000	-7.1998651984e-001
 1.7723276165e+000	 2.9015262915e+000	-7.2247232752e-001
 1.7426279723e+000	 2.9194601813e+000	-7.2743122230e-001
 1.7127848307e+000	 2.9370679468e+000	-7.3500562981e-001
 1.6828034620e+000	 2.9543480683e+000	-7.4533475973e-001
 1.6526891522e+000	 2.9712991378e+000	-7.5855410658e-001
 1.6224472006e+000	 2.9879198586e+000	-7.7479494538e-001
 1.5920829165e+000	 3.0042090452e+000	-7.9418382395e-001
 1.5616016164e+000	 3.0201656232e+000	-8.1684205379e-001
 1.8741934053e+000	 2.8667096260e+000	-8.0428713917e-001
 1.8447406891e+000	 2.8857506459e+000	-7.6742000762e-001
 1.8151276185e+000	 2.9044684072e+000	-7.3755904706e-001
 1.7853594372e+000	 2.9228610436e+000	-7.1469461745e-001
 1.7554414133e+000	 2.9409268003e+000	-6.9881209098e-001
 1.7253788368e+000	 2.9586640346e+000	-6.8989155070e-001
 1.6951770168e+000	 2.9760712159e+000	-6.8790748173e-001
 1.6648412783e+000	 2.9931469256e+000	-6.9282845641e-001
 1.6343769594e+000	 3.0098898576e+000	-7.0461681497e-001
 1.6037894085e+000	 3.0262988176e+000	-7.2322834316e-001
 1.5730839812e+000	 3.0423727234e+000	-7.4861194844e-001
 1.8878736492e+000	 2.8876345137e+000	-6.5616823370e-001
 1.8582059496e+000	 2.9068145192e+000	-8.1243269996e-001
 1.8283767252e+000	 2.9256689066e+000	-7.4887492755e-001
 1.7983912579e+000	 2.9441957958e+000	-6.9692311486e-001
 1.7682548542e+000	 2.9623934193e+000	-6.5640493831e-001
 1.7379728429e+000	 2.9802601225e+000	-6.2714025110e-001
 1.7075505717e+000	 2.9977943634e+000	-6.0894095552e-001
 1.6769934045e+000	 3.0149947134e+000	-6.0161087027e-001
 1.6463067183e+000	 3.0318598565e+000	-6.0494559373e-001
 1.6154959005e+000	 3.0483885900e+000	-6.1873236473e-001
 1.5845663461e+000	 3.0645798236e+000	-6.4274992168e-001
 1.9015538930e+000	 2.9085594015e+000	-5.0097110580e-001
 1.8716712101e+000	 2.9278783926e+000	-8.5466454523e-001
 1.8416258319e+000	 2.9468694059e+000	-7.5380543234e-001
 1.8114230786e+000	 2.9655305479e+000	-6.6910363719e-001
 1.7810682952e+000	 2.9838600383e+000	-6.0023118372e-001
 1.7505668490e+000	 3.0018562103e+000	-5.4684976935e-001
 1.7199241266e+000	 3.0195175110e+000	-5.0861081635e-001
 1.6891455306e+000	 3.0368425011e+000	-4.8515551893e-001
 1.6582364771e+000	 3.0538298555e+000	-4.7611488709e-001
 1.6272023926e+000	 3.0704783624e+000	-4.8110978799e-001
 1.5960487109e+000	 3.0867869237e+000	-4.9975098596e-001
 1.9152341368e+000	 2.9294842893e+000	-3.5344982316e-001
 1.8851364706e+000	 2.9489422659e+000	-7.1662716555e-001
 1.8548749386e+000	 2.9680699052e+000	-7.5223230893e-001
 1.8244548993e+000	 2.9868653000e+000	-6.3119027784e-001
 1.7938817362e+000	 3.0053266573e+000	-5.3031828847e-001
 1.7631608551e+000	 3.0234522981e+000	-4.4912191913e-001
 1.7322976814e+000	 3.0412406585e+000	-3.8709417708e-001
 1.7012976567e+000	 3.0586902889e+000	-3.4371572320e-001
 1.6701662359e+000	 3.0757998544e+000	-3.1845509411e-001
 1.6389088846e+000	 3.0925681348e+000	-3.1076892199e-001
 1.6075310757e+000	 3.1089940239e+000	-3.2010215319e-001
 1.4927074274e+000	 2.8869230222e+000	-4.0714603043e-001
 1.4634641235e+000	 2.9018567779e+000	-3.7194526848e-001
 1.4341191402e+000	 2.9164708625e+000	-3.6346568582e-001
 1.4046775645e+000	 2.9307645658e+000	-3.8139030975e-001
 1.3751444794e+000	 2.9447372821e+000	-4.2537569739e-001
 1.3455249618e+000	 2.9583885102e+000	-4.9505219143e-001
 1.3158240793e+000	 2.9717178521e+000	-5.9002420068e-001
 1.2860468885e+000	 2.9847250126e+000	-7.0987050571e-001
 1.2561984318e+000	 2.9974097985e+000	-8.5414458934e-001
 1.2262837353e+000	 3.0097721177e+000	-4.1939205408e-001
 1.1963078061e+000	 3.0218119785e+000	 1.4552080384e-001
 1.5041897923e+000	 2.9091301224e+000	-5.7558981174e-001
 1.4747215398e+000	 2.9241787531e+000	-5.4070949292e-001
 1.4451508259e+000	 2.9389052537e+000	-5.3074961750e-001
 1.4154827765e+000	 2.9533089086e+000	-5.4539621652e-001
 1.3857225139e+000	 2.9673891074e+000	-5.8431056614e-001
 1.3558751538e+000	 2.9811453449e+000	-6.4712940915e-001
 1.3259458030e+000	 2.9945772202e+000	-7.3346519956e-001
 1.2959395569e+000	 3.0076844357e+000	-8.4290637033e-001
 1.2658614967e+000	 3.0204667969e+000	-9.7501762437e-001
 1.2357166871e+000	 3.0329242109e+000	-7.7758431825e-001
 1.2055101738e+000	 3.0450566860e+000	-2.1568358382e-001
 1.5156721571e+000	 2.9313372226e+000	-7.0324602329e-001
 1.4859789561e+000	 2.9465007283e+000	-6.6820240107e-001
 1.4561825116e+000	 2.9613396450e+000	-6.5630768734e-001
 1.4262879886e+000	 2.9758532514e+000	-6.6725113905e-001
 1.3963005484e+000	 2.9900409326e+000	-7.0069895841e-001
 1.3662253458e+000	 3.0039021796e+000	-7.5629448005e-001
 1.3360675267e+000	 3.0174365883e+000	-8.3365837935e-001
 1.3058322253e+000	 3.0306438589e+000	-9.3238890211e-001
 1.2755245616e+000	 3.0435237954e+000	-1.0520621157e+000
 1.2451496389e+000	 3.0560763041e+000	-1.0768632869e+000
 1.2147125416e+000	 3.0683013935e+000	-5.1890840361e-001
 1.5271545219e+000	 2.9535443227e+000	-7.9066439300e-001
 1.4972363725e+000	 2.9688227035e+000	-7.5497759248e-001
 1.4672141973e+000	 2.9837740362e+000	-7.4069660606e-001
 1.4370932006e+000	 2.9983975942e+000	-7.4751414223e-001
 1.4068785828e+000	 3.0126927579e+000	-7.7510154027e-001
 1.3765755378e+000	 3.0266590143e+000	-8.2310892285e-001
 1.3461892504e+000	 3.0402959564e+000	-8.9116536781e-001
 1.3157248936e+000	 3.0536032821e+000	-9.7887909953e-001
 1.2851876264e+000	 3.0665807938e+000	-1.0858377002e+000
 1.2545825907e+000	 3.0792283974e+000	-1.2116083416e+000
 1.2239149093e+000	 3.0915461010e+000	-7.6349188669e-001
 1.5386368868e+000	 2.9757514229e+000	-8.3838465676e-001
 1.5084937888e+000	 2.9911446788e+000	-8.0157845928e-001
 1.4782458830e+000	 3.0062084275e+000	-7.8446268142e-001
 1.4478984127e+000	 3.0209419370e+000	-7.8673371228e-001
 1.4174566173e+000	 3.0353445831e+000	-8.0806824326e-001
 1.3869257298e+000	 3.0494158490e+000	-8.4812338566e-001
 1.3563109741e+000	 3.0631553244e+000	-9.0653680573e-001
 1.3256175620e+000	 3.0765627052e+000	-9.8292687754e-001
 1.2948506913e+000	 3.0896377923e+000	-1.0768928541e+000
 1.2640155425e+000	 3.1023804906e+000	-1.1880150574e+000
 1.2331172771e+000	 3.1147908086e+000	-9.4876100820e-001
 1.5501192516e+000	 2.9979585231e+000	-8.4693692847e-001
 1.5197512051e+000	 3.0134666540e+000	-8.0853856422e-001
 1.4892775687e+000	 3.0286428187e+000	-7.8814220345e-001
 1.4587036247e+000	 3.0434862798e+000	-7.8544814857e-001
 1.4280346517e+000	 3.0579964084e+000	-8.0013866197e-001
 1.3972759218e+000	 3.0721726837e+000	-8.3187804859e-001
 1.3664326978e+000	 3.0860146925e+000	-8.8031275391e-001
 1.3355102304e+000	 3.0995221284e+000	-9.4507147802e-001
 1.3045137561e+000	 3.1126947907e+000	-1.0257653065e+000
 1.2734484944e+000	 3.1255325838e+000	-1.1203391355e+000
 1.2423196448e+000	 3.1380355161e+000	-1.0380346492e+000
 1.5616016164e+000	 3.0201656232e+000	-8.1684205379e-001
 1.5310086215e+000	 3.0357886292e+000	-7.7638200199e-001
 1.5003092544e+000	 3.0510772100e+000	-7.5226181284e-001
 1.4695088367e+000	 3.0660306226e+000	-7.4418593808e-001
 1.4386126862e+000	 3.0806482336e+000	-7.5184243403e-001
 1.4076261138e+000	 3.0949295184e+000	-7.7490300861e-001
 1.3765544214e+000	 3.1088740606e+000	-8.1302308210e-001
 1.3454028988e+000	 3.1224815516e+000	-8.6584186217e-001
 1.3141768210e+000	 3.1357517892e+000	-8.9894364150e-001
 1.2828814462e+000	 3.1486846770e+000	-9.4658300171e-001
 1.2515220125e+000	 3.1612802236e+000	-1.0175165728e+000
 1.5730839812e+000	 3.0423727234e+000	-7.4861194844e-001
 1.5422660378e+000	 3.0581106044e+000	-7.0562374486e-001
 1.5113409401e+000	 3.0735116012e+000	-6.7733885301e-001
 1.4803140488e+000	 3.0885749654e+000	-6.6346611357e-001
 1.4491907206e+000	 3.1033000588e+000	-6.6369960355e-001
 1.4179763059e+000	 3.1176863531e+000	-6.7771864755e-001
 1.3866761451e+000	 3.1317334287e+000	-6.8179872851e-001
 1.3552955671e+000	 3.1454409748e+000	-6.8031121580e-001
 1.3238398859e+000	 3.1588087876e+000	-7.0067208686e-001
 1.2923143980e+000	 3.1718367702e+000	-7.4300143031e-001
 1.2607243803e+000	 3.1845249311e+000	-8.0737286066e-001
 1.5845663461e+000	 3.0645798236e+000	-6.4274992168e-001
 1.5535234541e+000	 3.0804325796e+000	-5.9676997312e-001
 1.5223726258e+000	 3.0959459925e+000	-5.6388170704e-001
 1.4911192608e+000	 3.1111193082e+000	-5.4379859611e-001
 1.4597687551e+000	 3.1259518841e+000	-5.3272404519e-001
 1.4283264979e+000	 3.1404431878e+000	-4.8759308351e-001
 1.3967978688e+000	 3.1545927968e+000	-4.6255788153e-001
 1.3651882355e+000	 3.1684003979e+000	-4.5786632196e-001
 1.3335029507e+000	 3.1818657860e+000	-4.7372328224e-001
 1.3017473498e+000	 3.1949888634e+000	-5.1028906484e-001
 1.2699267480e+000	 3.2077696387e+000	-5.6767794045e-001
 1.5960487109e+000	 3.0867869237e+000	-4.9975098596e-001
 1.5647808705e+000	 3.1027545548e+000	-4.5031839139e-001
 1.5334043115e+000	 3.1183803837e+000	-4.1239011997e-001
 1.5019244728e+000	 3.1336636511e+000	-3.5463442833e-001
 1.4703467896e+000	 3.1486037093e+000	-2.9001449047e-001
 1.4386766899e+000	 3.1632000224e+000	-2.4381233181e-001
 1.4069195925e+000	 3.1774521649e+000	-2.1635644494e-001
 1.3750809039e+000	 3.1913598211e+000	-2.0793468353e-001
 1.3431660156e+000	 3.2049227845e+000	-2.1879249010e-001
 1.3111803016e+000	 3.2181409566e+000	-2.4913123407e-001
 1.2791291158e+000	 3.2310143462e+000	-2.9910666398e-001
 1.6075310757e+000	 3.1089940239e+000	-3.2010215319e-001
 1.5760382868e+000	 3.1250765300e+000	-2.6648238554e-001
 1.5444359972e+000	 3.1408147750e+000	-1.6870235179e-001
 1.5127296849e+000	 3.1562079939e+000	-8.7129512895e-002
 1.4809248240e+000	 3.1712555346e+000	-2.2206530895e-002
 1.4490268819e+000	 3.1859568571e+000	 2.5659860486e-002
 1.4170413162e+000	 3.2003115330e+000	 5.6100932321e-002
 1.3849735723e+000	 3.2143192443e+000	 6.8787934608e-002
 1.3528290804e+000	 3.2279797829e+000	 6.3433963234e-002
 1.3206132534e+000	 3.2412930498e+000	 3.9795715387e-002
 1.2883314835e+000	 3.2542590537e+000	-2.3248705536e-003
 1.1963078061e+000	 3.0218119785e+000	 1.4552080384e-001
 1.1662756302e+000	 3.0335294880e+000	 3.0549564455e-001
 1.1361921700e+000	 3.0449248518e+000	 4.2806966793e-001
 1.1060623621e+000	 3.0559983723e+000	 5.1424858438e-001
 1.0758911149e+000	 3.0667504478e+000	 5.6519014352e-001
 1.0456833066e+000	 3.0771815712e+000	 5.8219892406e-001
 1.0154437829e+000	 3.0872923289e+000	 5.6672090226e-001
 9.8517735496e-001	 3.0970833988e+000	 5.2033781693e-001
 9.5488879754e-001	 3.1065555498e+000	 4.4476134897e-001
 9.2458284674e-001	 3.1157096398e+000	 3.4182713376e-001
 8.9426419823e-001	 3.1245466141e+000	 2.1348862445e-001
 1.2055101738e+000	 3.0450566860e+000	-2.1568358382e-001
 1.1752469812e+000	 3.0568643302e+000	-3.6913959089e-002
 1.1449321098e+000	 3.0683473506e+000	 1.0285879545e-001
 1.1145705341e+000	 3.0795060520e+000	 2.0458053514e-001
 1.0841672004e+000	 3.0903408358e+000	 2.6935429199e-001
 1.0537270243e+000	 3.1008521987e+000	 2.9843500378e-001
 1.0232548889e+000	 3.1110407314e+000	 2.9322401345e-001
 9.9275564231e-001	 3.1209071173e+000	 2.5526335731e-001
 9.6223409599e-001	 3.1304521310e+000	 1.9903730914e-001
 9.3169502249e-001	 3.1396766370e+000	 1.2460982918e-001
 9.0114315360e-001	 3.1485815881e+000	 2.6165021109e-002
 1.2147125416e+000	 3.0683013935e+000	-5.1890840361e-001
 1.1842183322e+000	 3.0801991724e+000	-3.2451526735e-001
 1.1536720496e+000	 3.0917698495e+000	-1.7078510557e-001
 1.1230787061e+000	 3.1030137318e+000	-5.6830028615e-002
 1.0924432859e+000	 3.1139312239e+000	 1.8400242221e-002
 1.0617707421e+000	 3.1245228262e+000	 5.6113039526e-002
 1.0310659949e+000	 3.1347891339e+000	 8.0095208152e-002
 1.0003339297e+000	 3.1447308357e+000	 7.1039827980e-002
 9.6957939444e-001	 3.1543487122e+000	 3.1354386055e-002
 9.3880719824e-001	 3.1636436342e+000	-3.5526193940e-002
 9.0802210898e-001	 3.1726165620e+000	-1.2623425634e-001
 1.2239149093e+000	 3.0915461010e+000	-7.6349188669e-001
 1.1931896832e+000	 3.1035340146e+000	-5.5661319558e-001
 1.1624119893e+000	 3.1151923483e+000	-3.9213438787e-001
 1.1315868782e+000	 3.1265214116e+000	-2.6553067961e-001
 1.1007193714e+000	 3.1375216120e+000	-1.5780077007e-001
 1.0698144598e+000	 3.1481934537e+000	-9.0861071293e-002
 1.0388771009e+000	 3.1585375365e+000	-6.1141315429e-002
 1.0079122170e+000	 3.1685545542e+000	-6.5137684235e-002
 9.7692469289e-001	 3.1782452933e+000	-9.9413472029e-002
 9.4591937399e-001	 3.1876106315e+000	-1.6059960072e-001
 9.1490106435e-001	 3.1966515360e+000	-2.4539499320e-001
 1.2331172771e+000	 3.1147908086e+000	-9.4876100820e-001
 1.2021610342e+000	 3.1268688568e+000	-7.2747567290e-001
 1.1711519291e+000	 3.1386148472e+000	-5.2682483570e-001
 1.1400950502e+000	 3.1500290914e+000	-3.7360906772e-001
 1.1089954569e+000	 3.1611120000e+000	-2.6418773513e-001
 1.0778581776e+000	 3.1718640811e+000	-1.9498627150e-001
 1.0466882070e+000	 3.1822859390e+000	-1.6249702949e-001
 1.0154905044e+000	 3.1923782726e+000	-1.6327997159e-001
 9.8426999133e-001	 3.2021418745e+000	-1.9396320606e-001
 9.5303154973e-001	 3.2115776287e+000	-2.5124337464e-001
 9.2178001972e-001	 3.2206865099e+000	-3.3188589857e-001
 1.2423196448e+000	 3.1380355161e+000	-1.0380346492e+000
 1.2111323852e+000	 3.1502036991e+000	-7.8857718328e-001
 1.1798918689e+000	 3.1620373461e+000	-5.8948320404e-001
 1.1486032222e+000	 3.1735367712e+000	-4.3710502037e-001
 1.1172715424e+000	 3.1847023881e+000	-3.2786157932e-001
 1.0859018953e+000	 3.1955347086e+000	-2.5823935962e-001
 1.0544993130e+000	 3.2060343415e+000	-2.2479309678e-001
 1.0230687917e+000	 3.2162019911e+000	-2.2414634615e-001
 9.9161528978e-001	 3.2260384556e+000	-2.5299189056e-001
 9.6014372548e-001	 3.2355446259e+000	-3.0809199923e-001
 9.2865897510e-001	 3.2447214839e+000	-3.8627854488e-001
 1.2515220125e+000	 3.1612802236e+000	-1.0175165728e+000
 1.2201037362e+000	 3.1735385413e+000	-8.0238824966e-001
 1.1886318086e+000	 3.1854598449e+000	-6.0671803776e-001
 1.1571113942e+000	 3.1970444510e+000	-4.5701612096e-001
 1.1255476279e+000	 3.2082927761e+000	-3.4976071810e-001
 1.0939456130e+000	 3.2192053361e+000	-2.8149909657e-001
 1.0623104190e+000	 3.2297827441e+000	-2.4884816952e-001
 1.0306470791e+000	 3.2400257095e+000	-2.4849492999e-001
 9.9896058822e-001	 3.2499350368e+000	-2.7719672872e-001
 9.6725590122e-001	 3.2595116232e+000	-3.3178140285e-001
 9.3553793047e-001	 3.2687564578e+000	-4.0914726272e-001
 1.2607243803e+000	 3.1845249311e+000	-8.0737286066e-001
 1.2290750872e+000	 3.1968733835e+000	-7.7001441443e-001
 1.1973717484e+000	 3.2088823438e+000	-5.7957805410e-001
 1.1656195662e+000	 3.2205521308e+000	-4.3433371168e-001
 1.1338237134e+000	 3.2318831642e+000	-3.3081860015e-001
 1.1019893308e+000	 3.2428759635e+000	-2.6564055077e-001
 1.0701215250e+000	 3.2535311466e+000	-2.3547848107e-001
 1.0382253664e+000	 3.2638494280e+000	-2.3708269863e-001
 1.0063058867e+000	 3.2738316179e+000	-2.6727504768e-001
 9.7436807697e-001	 3.2834786204e+000	-3.2294890604e-001
 9.4241688584e-001	 3.2927914318e+000	-4.0106904009e-001
 1.2699267480e+000	 3.2077696387e+000	-5.6767794045e-001
 1.2380464382e+000	 3.2202082257e+000	-6.9255275019e-001
 1.2061116882e+000	 3.2323048426e+000	-5.0910472746e-001
 1.1741277382e+000	 3.2440598105e+000	-3.7004311970e-001
 1.1420997989e+000	 3.2554735523e+000	-2.7196388737e-001
 1.1100330485e+000	 3.2665465910e+000	-2.1153523197e-001
 1.0779326310e+000	 3.2772795491e+000	-1.8549793354e-001
 1.0458036537e+000	 3.2876731465e+000	-1.9066552259e-001
 1.0136511851e+000	 3.2977281991e+000	-2.2392429407e-001
 9.8148025271e-001	 3.3074456176e+000	-2.8223317104e-001
 9.4929584121e-001	 3.3168264057e+000	-3.6262342614e-001
 1.2791291158e+000	 3.2310143462e+000	-2.9910666398e-001
 1.2470177892e+000	 3.2435430679e+000	-5.7109216446e-001
 1.2148516279e+000	 3.2557273415e+000	-3.9633254988e-001
 1.1826359103e+000	 3.2675674903e+000	-2.6512387352e-001
 1.1503758844e+000	 3.2790639403e+000	-1.7412062704e-001
 1.1180767663e+000	 3.2902172185e+000	-1.2005121925e-001
 1.0857437371e+000	 3.3010279516e+000	-9.9718181631e-002
 1.0533819411e+000	 3.3114968649e+000	-1.0999820709e-001
 1.0209964835e+000	 3.3216247802e+000	-1.4784202968e-001
 9.8859242845e-001	 3.3314126149e+000	-2.1027415351e-001
 9.5617479658e-001	 3.3408613797e+000	-2.9439243906e-001
 1.2883314835e+000	 3.2542590537e+000	-2.3248705536e-003
 1.2559891402e+000	 3.2668779101e+000	-3.1124093994e-001
 1.2235915677e+000	 3.2791498404e+000	-2.4228928041e-001
 1.1911440823e+000	 3.2910751701e+000	-1.2054991003e-001
 1.1586519699e+000	 3.3026543284e+000	-3.8208416642e-002
 1.1261204840e+000	 3.3138878460e+000	 7.9467164731e-003
 1.0935548431e+000	 3.3247763542e+000	 2.1051287048e-002
 1.0609602284e+000	 3.3353205834e+000	 4.1654698403e-003
 1.0283417820e+000	 3.3455213614e+000	-3.9725927390e-002
 9.9570460419e-001	 3.3553796121e+000	-1.0771305638e-001
 9.6305375194e-001	 3.3648963537e+000	-1.9696047792e-001
 8.9426419823e-001	 3.1245466141e+000	 2.1348862445e-001
 8.6393750537e-001	 3.1330675043e+000	 2.0274882441e-001
 8.3360737744e-001	 3.1412734265e+000	 1.6681881476e-001
 8.0327837781e-001	 3.1491655796e+000	 1.0766004818e-001
 7.7295502237e-001	 3.1567452436e+000	 2.8299190405e-002
 7.4264177780e-001	 3.1640137784e+000	-6.8292089370e-002
 7.1234306010e-001	 3.1709726212e+000	-1.7919718682e-001
 6.8206323302e-001	 3.1776232857e+000	-3.0155454475e-001
 6.5180660668e-001	 3.1839673596e+000	-4.3255755487e-001
 6.2157743620e-001	 3.1900065032e+000	-3.6093105847e-001
 5.9137992034e-001	 3.1957424473e+000	 1.4530857002e+000
 9.0114315360e-001	 3.1485815881e+000	 2.6165021109e-002
 8.7058317850e-001	 3.1571680236e+000	 2.0805353942e-002
 8.4001974188e-001	 3.1654370683e+000	-6.9489868259e-003
 8.0945744226e-001	 3.1733899302e+000	-5.4094287483e-002
 7.7890083024e-001	 3.1810278994e+000	-1.1768509242e-001
 7.4835440687e-001	 3.1883523459e+000	-1.9483417662e-001
 7.1782262210e-001	 3.1953647183e+000	-2.8271242567e-001
 6.8730987327e-001	 3.2020665418e+000	-3.7854862923e-001
 6.5682050366e-001	 3.2084594163e+000	-4.7962919390e-001
 6.2635880109e-001	 3.2145450148e+000	-5.8329778155e-001
 5.9592899665e-001	 3.2203250815e+000	 1.1779977885e+000
 9.0802210898e-001	 3.1726165620e+000	-1.2623425634e-001
 8.7722885162e-001	 3.1812685429e+000	-1.2853932944e-001
 8.4643210633e-001	 3.1896007100e+000	-1.4935555297e-001
 8.1563650671e-001	 3.1976142808e+000	-1.8575677194e-001
 7.8484663811e-001	 3.2053105551e+000	-2.3487851760e-001
 7.5406703593e-001	 3.2126909134e+000	-2.9391779172e-001
 7.2330218410e-001	 3.2197568154e+000	-3.6013275738e-001
 6.9255651353e-001	 3.2265097978e+000	-4.3084234284e-001
 6.6183440064e-001	 3.2329514729e+000	-5.0342576471e-001
 6.3114016599e-001	 3.2390835264e+000	-5.7532197674e-001
 6.0047807296e-001	 3.2449077157e+000	 9.2224575503e-001
 9.1490106435e-001	 3.1966515360e+000	-2.4539499320e-001
 8.8387452474e-001	 3.2053690621e+000	-2.4579979154e-001
 8.5284447077e-001	 3.2137643518e+000	-2.6086267525e-001
 8.2181557116e-001	 3.2218386314e+000	-2.8773485724e-001
 7.9079244597e-001	 3.2295932108e+000	-3.2363267217e-001
 7.5977966499e-001	 3.2370294809e+000	-3.6583717155e-001
 7.2878174611e-001	 3.2441489125e+000	-4.1169362447e-001
 6.9780315378e-001	 3.2509530539e+000	-4.5861093094e-001
 6.6684829761e-001	 3.2574435295e+000	-5.0406095441e-001
 6.3592153088e-001	 3.2636220379e+000	-5.4557778031e-001
 6.0502714927e-001	 3.2694903500e+000	 6.8727891300e-001
 9.2178001972e-001	 3.2206865099e+000	-3.3188589857e-001
 8.9052019786e-001	 3.2294695814e+000	-3.3149454189e-001
 8.5925683522e-001	 3.2379279935e+000	-3.4193709535e-001
 8.2799463561e-001	 3.2460629820e+000	-3.6044198744e-001
 7.9673825384e-001	 3.2538758665e+000	-3.8430621184e-001
 7.6549229405e-001	 3.2613680485e+000	-4.1089473240e-001
 7.3426130811e-001	 3.2685410096e+000	-4.3763979287e-001
 7.0304979404e-001	 3.2753963099e+000	-4.6204013877e-001
 6.7186219458e-001	 3.2819355861e+000	-4.8166015835e-001
 6.4070289577e-001	 3.2881605495e+000	-4.9412894985e-001
 6.0957622558e-001	 3.2940729842e+000	 4.7453235874e-001
 9.2865897510e-001	 3.2447214839e+000	-3.8627854488e-001
 8.9716587098e-001	 3.2535701007e+000	-3.8614588765e-001
 8.6566919966e-001	 3.2620916352e+000	-3.9305032173e-001
 8.3417370005e-001	 3.2702873326e+000	-4.0429737667e-001
 8.0268406170e-001	 3.2781585222e+000	-4.1726459918e-001
 7.7120492311e-001	 3.2857066160e+000	-4.2940076697e-001
 7.3974087011e-001	 3.2929331067e+000	-4.3822500656e-001
 7.0829643429e-001	 3.2998395660e+000	-4.4132582262e-001
 6.7687609156e-001	 3.3064276427e+000	-4.3636004645e-001
 6.4548426067e-001	 3.3126990611e+000	-4.2105171094e-001
 6.1412530188e-001	 3.3186556184e+000	 2.8542749806e-001
 9.3553793047e-001	 3.2687564578e+000	-4.0914726272e-001
 9.0381154410e-001	 3.2776706199e+000	-4.1027979398e-001
 8.7208156410e-001	 3.2862552770e+000	-4.1467845437e-001
 8.4035276450e-001	 3.2945116833e+000	-4.1972579704e-001
 8.0862986957e-001	 3.3024411780e+000	-4.2287985340e-001
 7.7691755217e-001	 3.3100451835e+000	-4.2167315486e-001
 7.4522043211e-001	 3.3173252037e+000	-4.1371165752e-001
 7.1354307455e-001	 3.3242828220e+000	-3.9667357809e-001
 6.8188998853e-001	 3.3309196993e+000	-3.6830814872e-001
 6.5026562556e-001	 3.3372375726e+000	-3.2643429877e-001
 6.1867437819e-001	 3.3432382526e+000	 1.2137254959e-001
 9.4241688584e-001	 3.2927914318e+000	-4.0106904009e-001
 9.1045721722e-001	 3.3017711392e+000	-4.0442575059e-001
 8.7849392854e-001	 3.3104189187e+000	-4.0730201720e-001
 8.4653182894e-001	 3.3187360339e+000	-4.0715737571e-001
 8.1457567743e-001	 3.3267238337e+000	-4.0153031103e-001
 7.8263018123e-001	 3.3343837511e+000	-3.8803708561e-001
 7.5069999411e-001	 3.3417173008e+000	-3.6437047011e-001
 7.1878971480e-001	 3.3487260780e+000	-3.2829838462e-001
 6.8690388551e-001	 3.3554117559e+000	-2.7766245891e-001
 6.5504699045e-001	 3.3617760842e+000	-2.1037651984e-001
 6.2322345450e-001	 3.3678208868e+000	-1.6236973926e-002
 9.4929584121e-001	 3.3168264057e+000	-3.6262342614e-001
 9.1710289033e-001	 3.3258716585e+000	-3.6911664400e-001
 8.8490629298e-001	 3.3345825605e+000	-3.7140579780e-001
 8.5271089338e-001	 3.3429603845e+000	-3.6702740095e-001
 8.2052148530e-001	 3.3510064894e+000	-3.5360039704e-001
 7.8834281029e-001	 3.3587223186e+000	-3.2882479393e-001
 7.5617955611e-001	 3.3661093979e+000	-2.9048019919e-001
 7.2403635505e-001	 3.3731693341e+000	-2.3642426553e-001
 6.9191778248e-001	 3.3799038126e+000	-1.6459105536e-001
 6.5982835535e-001	 3.3863145957e+000	-7.2989332698e-002
 6.2777253081e-001	 3.3924035210e+000	 4.0299208690e-002
 9.5617479658e-001	 3.3408613797e+000	-2.9439243906e-001
 9.2374856345e-001	 3.3499721777e+000	-3.0488863535e-001
 8.9131865742e-001	 3.3587462022e+000	-3.0747869407e-001
 8.5888995783e-001	 3.3671847351e+000	-2.9977613645e-001
 8.2646729316e-001	 3.3752891451e+000	-2.7948040582e-001
 7.9405543935e-001	 3.3830608861e+000	-2.4437530620e-001
 7.6165911811e-001	 3.3905014950e+000	-1.9232734119e-001
 7.2928299530e-001	 3.3976125901e+000	-1.2128396267e-001
 6.9693167945e-001	 3.4043958692e+000	-2.9271738262e-002
 6.6460972024e-001	 3.4108531073e+000	 8.5605553200e-002
 6.3232160712e-001	 3.4169861552e+000	 2.2516888948e-001
 9.6305375194e-001	 3.3648963537e+000	-1.9696047792e-001
 9.3039423656e-001	 3.3740726970e+000	-2.1228104345e-001
 8.9773102186e-001	 3.3829098440e+000	-2.1601356737e-001
 8.6506902227e-001	 3.3914090857e+000	-2.0584864362e-001
 8.3241310102e-001	 3.3995718009e+000	-1.7956629161e-001
 7.9976806841e-001	 3.4073994536e+000	-1.3503419793e-001
 7.6713868010e-001	 3.4148935921e+000	-7.0205857702e-002
 7.3452963556e-001	 3.4220558462e+000	 1.6881374957e-002
 7.0194557643e-001	 3.4288879258e+000	 1.2810831753e-001
 6.6939108513e-001	 3.4353916189e+000	 2.6527606146e-001
 6.3687068343e-001	 3.4415687894e+000	 4.3010813694e-001
 5.9137992034e-001	 3.1957424473e+000	 1.4530857002e+000
 5.6121820030e-001	 3.2011769916e+000	 1.2186306225e+000
 5.3109635855e-001	 3.2063120026e+000	 1.0039219816e+000
 5.0101841767e-001	 3.2111494118e+000	 8.0181457039e-001
 4.7098833933e-001	 3.2156912140e+000	 6.0643598572e-001
 4.4101002328e-001	 3.2199394651e+000	 4.1315858088e-001
 4.1108730644e-001	 3.2238962803e+000	 2.1856965699e-001
 3.8122396201e-001	 3.2275638322e+000	 2.0440016309e-002
 3.5142369869e-001	 3.2309443486e+000	-1.8230899994e-001
 3.2169015991e-001	 3.2340401112e+000	-3.8963986609e-001
 2.9202692318e-001	 3.2368534530e+000	-6.0043449695e-001
 5.9592899665e-001	 3.2203250815e+000	 1.1779977885e+000
 5.6553526338e-001	 3.2258014300e+000	 9.3498655783e-001
 5.3518171515e-001	 3.2309759410e+000	 7.1673628686e-001
 5.0487240550e-001	 3.2358505611e+000	 5.1616971865e-001
 4.7461132655e-001	 3.2404273003e+000	 3.2749952347e-001
 4.4440240807e-001	 3.2447082303e+000	 1.4619967674e-001
 4.1424951648e-001	 3.2486954825e+000	-3.1024951644e-002
 3.8415645402e-001	 3.2523912463e+000	-2.0627067121e-001
 3.5412695790e-001	 3.2557977667e+000	-3.8046858293e-001
 3.2416469960e-001	 3.2589173428e+000	-5.5341960416e-001
 2.9427328412e-001	 3.2617523257e+000	-7.2383078194e-001
 6.0047807296e-001	 3.2449077157e+000	 9.2224575503e-001
 5.6985232646e-001	 3.2504258684e+000	 6.7845449048e-001
 5.3926707176e-001	 3.2556398795e+000	 4.6364818755e-001
 5.0872639332e-001	 3.2605517105e+000	 2.7081829489e-001
 4.7823431377e-001	 3.2651633866e+000	 9.4264158322e-002
 4.4779479286e-001	 3.2694769954e+000	-7.0436195508e-002
 4.1741172653e-001	 3.2734946847e+000	-2.2645709207e-001
 3.8708894603e-001	 3.2772186604e+000	-3.7575793118e-001
 3.5683021712e-001	 3.2806511848e+000	-5.1911747074e-001
 3.2663923928e-001	 3.2837945745e+000	-6.5616954450e-001
 2.9651964507e-001	 3.2866511984e+000	-7.8544008690e-001
 6.0502714927e-001	 3.2694903500e+000	 6.8727891300e-001
 5.7416938954e-001	 3.2750503068e+000	 4.5029193854e-001
 5.4335242836e-001	 3.2803038180e+000	 2.4572444864e-001
 5.1258038115e-001	 3.2852528598e+000	 6.6637395590e-002
 4.8185730100e-001	 3.2898994728e+000	-9.2581552877e-002
 4.5118717765e-001	 3.2942457605e+000	-2.3624784358e-001
 4.2057393658e-001	 3.2982938868e+000	-3.6741171370e-001
 3.9002143804e-001	 3.3020460744e+000	-4.8789158240e-001
 3.5953347634e-001	 3.3055046028e+000	-5.9830902830e-001
 3.2911377897e-001	 3.3086718061e+000	-6.9812522257e-001
 2.9876600601e-001	 3.3115500711e+000	-7.8567868854e-001
 6.0957622558e-001	 3.2940729842e+000	 4.7453235874e-001
 5.7848645261e-001	 3.2996747452e+000	 2.5174805536e-001
 5.4743778496e-001	 3.3049677565e+000	 6.4029116336e-002
 5.1643436897e-001	 3.3099540091e+000	-9.5493162447e-002
 4.8548028822e-001	 3.3146355591e+000	-2.3234110095e-001
 4.5457956245e-001	 3.3190145256e+000	-3.5072109831e-001
 4.2373614662e-001	 3.3230930890e+000	-4.5355597197e-001
 3.9295393006e-001	 3.3268734885e+000	-5.4251904010e-001
 3.6223673555e-001	 3.3303580209e+000	-6.1806981468e-001
 3.3158831866e-001	 3.3335490377e+000	-6.7949117277e-001
 3.0101236695e-001	 3.3364489438e+000	-7.2492787404e-001
 6.1412530188e-001	 3.3186556184e+000	 2.8542749806e-001
 5.8280351569e-001	 3.3242991836e+000	 8.4063939352e-002
 5.5152314156e-001	 3.3296316950e+000	-8.0376381246e-002
 5.2028835680e-001	 3.3346551584e+000	-2.1469094280e-001
 4.8910327544e-001	 3.3393716454e+000	-3.2431031892e-001
 4.5797194724e-001	 3.3437832907e+000	-4.1332929424e-001
 4.2689835667e-001	 3.3478922911e+000	-4.8453988740e-001
 3.9588642207e-001	 3.3517009026e+000	-5.3946614568e-001
 3.6493999477e-001	 3.3552114390e+000	-5.7840057593e-001
 3.3406285835e-001	 3.3584262693e+000	-6.0044207666e-001
 3.0325872790e-001	 3.3613478166e+000	-6.0353523699e-001
 6.1867437819e-001	 3.3432382526e+000	 1.2137254959e-001
 5.8712057877e-001	 3.3489236220e+000	-5.1527069874e-002
 5.5560849817e-001	 3.3542956335e+000	-1.8643313782e-001
 5.2414234463e-001	 3.3593563078e+000	-2.9007098575e-001
 4.9272626267e-001	 3.3641077316e+000	-3.6777766360e-001
 4.6136433203e-001	 3.3685520559e+000	-4.2353372910e-001
 4.3006056672e-001	 3.3726914933e+000	-4.5999697552e-001
 3.9881891408e-001	 3.3765283167e+000	-4.7853795989e-001
 3.6764325399e-001	 3.3800648570e+000	-4.7927719405e-001
 3.3653739804e-001	 3.3833035010e+000	-4.6112386046e-001
 3.0550508885e-001	 3.3862466893e+000	-4.2181591609e-001
 6.2322345450e-001	 3.3678208868e+000	-1.6236973926e-002
 5.9143764185e-001	 3.3735480604e+000	-1.5379910832e-001
 5.5969385477e-001	 3.3789595719e+000	-2.5308467688e-001
 5.2799633246e-001	 3.3840574571e+000	-3.2074590039e-001
 4.9634924989e-001	 3.3888438179e+000	-3.6202448471e-001
 4.6475671683e-001	 3.3933208210e+000	-3.8078410307e-001
 4.3322277677e-001	 3.3974906954e+000	-3.7954484927e-001
 4.0175140610e-001	 3.4013557308e+000	-3.5951952124e-001
 3.7034651321e-001	 3.4049182751e+000	-3.2065159443e-001
 3.3901193773e-001	 3.4081807326e+000	-2.6165474452e-001
 3.0775144979e-001	 3.4111455620e+000	-1.8005377969e-001
 6.2777253081e-001	 3.3924035210e+000	 4.0299208690e-002
 5.9575470493e-001	 3.3981724988e+000	-2.2153351675e-001
 5.6377921137e-001	 3.4036235104e+000	-2.7927686368e-001
 5.3185032028e-001	 3.4087586064e+000	-3.0582595270e-001
 4.9997223712e-001	 3.4135799042e+000	-3.0632528247e-001
 4.6814910162e-001	 3.4180895861e+000	-2.8451893900e-001
 4.3638498682e-001	 3.4222898976e+000	-2.4278579517e-001
 4.0468389811e-001	 3.4261831449e+000	-1.8217657142e-001
 3.7304977243e-001	 3.4297716932e+000	-1.0245261391e-001
 3.4148647742e-001	 3.4330579642e+000	-2.1262471731e-003
 3.0999781074e-001	 3.4360444347e+000	 1.2149744130e-001
 6.3232160712e-001	 3.4169861552e+000	 2.2516888948e-001
 6.0007176801e-001	 3.4227969372e+000	-2.5351858156e-001
 5.6786456798e-001	 3.4282874489e+000	-2.6395782099e-001
 5.3570430811e-001	 3.4334597557e+000	-2.4441914980e-001
 5.0359522435e-001	 3.4383159904e+000	-1.9994795392e-001
 4.7154148642e-001	 3.4428583512e+000	-1.3416598444e-001
 4.3954719687e-001	 3.4470890998e+000	-4.9307324639e-002
 4.0761639013e-001	 3.4510105590e+000	 5.3743750530e-002
 3.7575303165e-001	 3.4546251112e+000	 1.7541316880e-001
 3.4396101711e-001	 3.4579351959e+000	 3.1739585476e-001
 3.1224417169e-001	 3.4609433074e+000	 4.8261306925e-001
 6.3687068343e-001	 3.4415687894e+000	 4.3010813694e-001
 6.0438883109e-001	 3.4474213756e+000	-2.4854928666e-001
 5.7194992458e-001	 3.4529513874e+000	-2.0607784847e-001
 5.3955829594e-001	 3.4581609051e+000	-1.3563132070e-001
 5.0721821157e-001	 3.4630520767e+000	-4.2154028786e-002
 4.7493387121e-001	 3.4676271163e+000	 7.0857403473e-002
 4.4270940692e-001	 3.4718883019e+000	 2.0131729835e-001
 4.1054888215e-001	 3.4758379731e+000	 3.4851224387e-001
 3.7845629087e-001	 3.4794785293e+000	 5.1306063808e-001
 3.4643555681e-001	 3.4828124275e+000	 6.9687060667e-001
 3.1449053264e-001	 3.4858421801e+000	 9.0309644226e-001
 2.9202692318e-001	 3.2368534530e+000	-6.0043449695e-001
 2.6243749943e-001	 3.2393867566e+000	-9.4167236359e-001
 2.3292533249e-001	 3.2416424524e+000	-1.3095889275e+000
 2.0349379852e-001	 3.2436230166e+000	-1.6980728995e+000
 1.7414620565e-001	 3.2453309691e+000	-2.1001022972e+000
 1.4488579349e-001	 3.2467688718e+000	-2.5077860603e+000
 1.1571573288e-001	 3.2479393266e+000	-2.9124061737e+000
 8.6639125561e-002	 3.2488449735e+000	-3.3044601883e+000
 5.7659003953e-002	 3.2494884889e+000	-3.6737040336e+000
 2.8778330992e-002	 3.2498725833e+000	-4.0091950160e+000
 0.0000000000e+000	 3.2500000000e+000	-4.2993349030e+000
 2.9427328412e-001	 3.2617523257e+000	-7.2383078194e-001
 2.6445624942e-001	 3.2643051163e+000	-9.7356004877e-001
 2.3471706581e-001	 3.2665781636e+000	-1.2444908423e+000
 2.0505913543e-001	 3.2685739629e+000	-1.5306789265e+000
 1.7548579184e-001	 3.2702950535e+000	-1.8252503992e+000
 1.4600029959e-001	 3.2717440170e+000	-2.1204439024e+000
 1.1660585390e-001	 3.2729234752e+000	-2.4076533599e+000
 8.7305580372e-002	 3.2738360887e+000	-2.6774711298e+000
 5.8102534752e-002	 3.2744845542e+000	-2.9197314616e+000
 2.8999702769e-002	 3.2748716032e+000	-3.1235541526e+000
 0.0000000000e+000	 3.2750000000e+000	-3.2773883004e+000
 2.9651964507e-001	 3.2866511984e+000	-7.8544008690e-001
 2.6647499942e-001	 3.2892234759e+000	-9.5570130557e-001
 2.3650879913e-001	 3.2915138748e+000	-1.1423842584e+000
 2.0662447234e-001	 3.2935249092e+000	-1.3396993529e+000
 1.7682537804e-001	 3.2952591379e+000	-1.5409078303e+000
 1.4711480569e-001	 3.2967191621e+000	-1.7383645980e+000
 1.1749597492e-001	 3.2979076239e+000	-1.9235616083e+000
 8.7972035183e-002	 3.2988272039e+000	-2.0871716680e+000
 5.8546065551e-002	 3.2994806195e+000	-2.2190925678e+000
 2.9221074545e-002	 3.2998706230e+000	-2.3084914236e+000
 0.0000000000e+000	 3.3000000000e+000	-2.3438491225e+000
 2.9876600601e-001	 3.3115500711e+000	-7.8567868854e-001
 2.6849374941e-001	 3.3141418356e+000	-8.8842002676e-001
 2.3830053246e-001	 3.3164495860e+000	-1.0035002723e+000
 2.0818980925e-001	 3.3184758555e+000	-1.1252721031e+000
 1.7816496423e-001	 3.3202232222e+000	-1.2471190011e+000
 1.4822931180e-001	 3.3216943073e+000	-1.3614987331e+000
 1.1838609594e-001	 3.3228917726e+000	-1.4599873969e+000
 8.8638489994e-002	 3.3238183191e+000	-1.5333239151e+000
 5.8989596350e-002	 3.3244766848e+000	-1.5714548642e+000
 2.9442446322e-002	 3.3248696429e+000	-1.5635795251e+000
 0.0000000000e+000	 3.3250000000e+000	-1.4981950519e+000
 3.0101236695e-001	 3.3364489438e+000	-7.2492787404e-001
 2.7051249940e-001	 3.3390601953e+000	-7.7200944207e-001
 2.4009226578e-001	 3.3413852971e+000	-8.2804381579e-001
 2.0975514616e-001	 3.3434268017e+000	-8.8751360406e-001
 1.7950455043e-001	 3.3451873066e+000	-9.4391165688e-001
 1.4934381790e-001	 3.3466694525e+000	-9.8978522153e-001
 1.1927621697e-001	 3.3478759212e+000	-1.0167806830e+000
 8.9304944806e-002	 3.3488094342e+000	-1.0156887690e+000
 5.9433127149e-002	 3.3494727501e+000	-9.7649010388e-001
 2.9663818098e-002	 3.3498686628e+000	-8.8840099786e-001
 0.0000000000e+000	 3.3500000000e+000	-7.3991936265e-001
 3.0325872790e-001	 3.3613478166e+000	-6.0353523699e-001
 2.7253124940e-001	 3.3639785549e+000	-6.0673325386e-001
 2.4188399911e-001	 3.3663210083e+000	-6.1619462539e-001
 2.1132048307e-001	 3.3683777480e+000	-6.2651958146e-001
 1.8084413662e-001	 3.3701513910e+000	-6.3129749450e-001
 1.5045832400e-001	 3.3716445976e+000	-6.2315173746e-001
 1.2016633799e-001	 3.3728600699e+000	-5.9378514513e-001
 8.9971399617e-002	 3.3738005494e+000	-5.3402595727e-001
 5.9876657948e-002	 3.3744688154e+000	-4.3387412465e-001
 2.9885189875e-002	 3.3748676827e+000	-2.8254786299e-001
 0.0000000000e+000	 3.3750000000e+000	-6.8530343011e-002
 3.0550508885e-001	 3.3862466893e+000	-4.2181591609e-001
 2.7454999939e-001	 3.3888969146e+000	-3.9282672271e-001
 2.4367573243e-001	 3.3912567195e+000	-3.6810816828e-001
 2.1288581998e-001	 3.3933286943e+000	-3.4236582068e-001
 1.8218372282e-001	 3.3951154754e+000	-3.0927275275e-001
 1.5157283010e-001	 3.3966197428e+000	-2.6151512875e-001
 1.2105645901e-001	 3.3978442186e+000	-1.9083841364e-001
 9.0637854428e-002	 3.3987916646e+000	-8.8094081023e-002
 6.0320188747e-002	 3.3994648807e+000	 5.6713301444e-002
 3.0106561652e-002	 3.3998667025e+000	 2.5437872665e-001
 0.0000000000e+000	 3.4000000000e+000	 5.1644925667e-001
 3.0775144979e-001	 3.4111455620e+000	-1.8005377969e-001
 2.7656874939e-001	 3.4138152743e+000	-1.3049770540e-001
 2.4546746576e-001	 3.4161924307e+000	-8.3916528248e-002
 2.1445115689e-001	 3.4182796406e+000	-3.5108894680e-002
 1.8352330902e-001	 3.4200795598e+000	 2.2181223642e-002
 1.5268733621e-001	 3.4215948880e+000	 9.5218188037e-002
 1.2194658003e-001	 3.4228283672e+000	 1.9222770860e-001
 9.1304309239e-002	 3.4237827798e+000	 3.2234934440e-001
 6.0763719546e-002	 3.4244609460e+000	 4.9558861165e-001
 3.0327933428e-002	 3.4248657224e+000	 7.2276881976e-001
 0.0000000000e+000	 3.4250000000e+000	 1.0154827518e+000
 3.0999781074e-001	 3.4360444347e+000	 1.2149744130e-001
 2.7858749938e-001	 3.4387336339e+000	 1.8007235218e-001
 2.4725919909e-001	 3.4411281418e+000	 2.3627074714e-001
 2.1601649380e-001	 3.4432305869e+000	 2.9521313998e-001
 1.8486289521e-001	 3.4450436441e+000	 3.6309744435e-001
 1.5380184231e-001	 3.4465700331e+000	 4.4715184967e-001
 1.2283670105e-001	 3.4478125159e+000	 5.5558703496e-001
 9.1970764051e-002	 3.4487738950e+000	 6.9754784998e-001
 6.1207250346e-002	 3.4494570113e+000	 8.8306458983e-001
 3.0549305205e-002	 3.4498647423e+000	 1.1230039853e+000
 0.0000000000e+000	 3.4500000000e+000	 1.4290200282e+000
 3.1224417169e-001	 3.4609433074e+000	 4.8261306925e-001
 2.8060624938e-001	 3.4636519936e+000	 5.3872746498e-001
 2.4905093241e-001	 3.4660638530e+000	 5.9236583589e-001
 2.1758183071e-001	 3.4681815332e+000	 6.4858007706e-001
 1.8620248141e-001	 3.4700077285e+000	 7.1352275709e-001
 1.5491634841e-001	 3.4715451783e+000	 7.9439918464e-001
 1.2372682207e-001	 3.4727966646e+000	 8.9941879308e-001
 9.2637218862e-002	 3.4737650101e+000	 1.0377459754e+000
 6.1650781145e-002	 3.4744530766e+000	 1.2194504979e+000
 3.0770676981e-002	 3.4748637621e+000	 1.4554576178e+000
 0.0000000000e+000	 3.4750000000e+000	 1.7574980256e+000
 3.1449053264e-001	 3.4858421801e+000	 9.0309644226e-001
 2.8262499937e-001	 3.4885703533e+000	 9.4533619951e-001
 2.5084266574e-001	 3.4909995642e+000	 9.8430186562e-001
 2.1914716763e-001	 3.4931324794e+000	 1.0249889231e+000
 1.8754206761e-001	 3.4949718129e+000	 1.0735173534e+000
 1.5603085452e-001	 3.4965203235e+000	 1.1370828670e+000
 1.2461694309e-001	 3.4977808132e+000	 1.2239074315e+000
 9.3303673673e-002	 3.4987561253e+000	 1.3431892330e+000
 6.2094311944e-002	 3.4994491419e+000	 1.5050522016e+000
 3.0992048758e-002	 3.4998627820e+000	 1.7204952287e+000
 0.0000000000e+000	 3.5000000000e+000	 2.0013411995e+000
 3.5000000000e+000	 0.0000000000e+000	 2.0140583462e-001
 3.4998627820e+000	 3.0992048758e-002	 2.7250575643e-001
 3.4994491419e+000	 6.2094311944e-002	 3.2068411146e-001
 3.4987561253e+000	 9.3303673673e-002	 3.5244994299e-001
 3.4977808132e+000	 1.2461694309e-001	 3.7365817414e-001
 3.4965203235e+000	 1.5603085452e-001	 3.8947866398e-001
 3.4949718129e+000	 1.8754206761e-001	 4.0436575149e-001
 3.4931324794e+000	 2.1914716763e-001	 4.2202837369e-001
 3.4909995642e+000	 2.5084266574e-001	 4.4540084674e-001
 3.4885703533e+000	 2.8262499937e-001	 4.7661439967e-001
 3.4858421801e+000	 3.1449053264e-001	 5.1696955208e-001
 3.5250000000e+000	 0.0000000000e+000	 3.0465355971e-001
 3.5248618019e+000	 3.1213420535e-002	 3.8806358601e-001
 3.5244452072e+000	 6.2537842743e-002	 4.4564415626e-001
 3.5237472405e+000	 9.3970128485e-002	 4.8398480007e-001
 3.5227649619e+000	 1.2550706412e-001	 5.0901067817e-001
 3.5214954686e+000	 1.5714536062e-001	 5.2595115350e-001
 3.5199358973e+000	 1.8888165380e-001	 5.3930886051e-001
 3.5180834257e+000	 2.2071250454e-001	 5.5282936106e-001
 3.5159352753e+000	 2.5263439907e-001	 5.6947147688e-001
 3.5134887129e+000	 2.8464374937e-001	 5.9137839015e-001
 3.5107410529e+000	 3.1673689358e-001	 6.1984960512e-001
 3.5500000000e+000	 0.0000000000e+000	 4.0046900151e-001
 3.5498608218e+000	 3.1434792311e-002	 4.9252585729e-001
 3.5494412725e+000	 6.2981373542e-002	 5.5636894816e-001
 3.5487383557e+000	 9.4636583296e-002	 5.9867524729e-001
 3.5477491106e+000	 1.2639718514e-001	 6.2544669566e-001
 3.5464706138e+000	 1.5825986672e-001	 6.4197827071e-001
 3.5448999816e+000	 1.9022124000e-001	 6.5282656388e-001
 3.5430343720e+000	 2.2227784145e-001	 6.6177895724e-001
 3.5408709865e+000	 2.5442613239e-001	 6.7182349065e-001
 3.5384070726e+000	 2.8666249936e-001	 6.8511951283e-001
 3.5356399256e+000	 3.1898325453e-001	 7.0296921086e-001
 3.5750000000e+000	 0.0000000000e+000	 4.8917511865e-001
 3.5748598416e+000	 3.1656164088e-002	 5.8620258106e-001
 3.5744373378e+000	 6.3424904341e-002	 6.5315483914e-001
 3.5737294709e+000	 9.5303038108e-002	 6.9680326466e-001
 3.5727332592e+000	 1.2728730616e-001	 7.2323311804e-001
 3.5714457590e+000	 1.5937437283e-001	 7.3781109695e-001
 3.5698640660e+000	 1.9156082620e-001	 7.4515340496e-001
 3.5679853183e+000	 2.2384317836e-001	 7.4909443182e-001
 3.5658066977e+000	 2.5621786572e-001	 7.5265613862e-001
 3.5633254323e+000	 2.8868124936e-001	 7.5801824291e-001
 3.5605387983e+000	 3.2122961548e-001	 7.6648930004e-001
 3.6000000000e+000	 0.0000000000e+000	 5.7108589867e-001
 3.5998588615e+000	 3.1877535864e-002	 6.6939485226e-001
 3.5994334031e+000	 6.3868435141e-002	 7.3628943833e-001
 3.5987205860e+000	 9.5969492919e-002	 7.7864238151e-001
 3.5977174079e+000	 1.2817742718e-001	 8.0262879848e-001
 3.5964209041e+000	 1.6048887893e-001	 8.1369320914e-001
 3.5948281504e+000	 1.9290041239e-001	 8.1651707900e-001
 3.5929362646e+000	 2.2540851527e-001	 8.1498698610e-001
 3.5907424089e+000	 2.5800959905e-001	 8.1216350737e-001
 3.5882437919e+000	 2.9069999936e-001	 8.1025092134e-001
 3.5854376710e+000	 3.2347597643e-001	 8.1056782514e-001
 3.6250000000e+000	 0.0000000000e+000	 6.4650666738e-001
 3.6248578814e+000	 3.2098907641e-002	 7.4239515736e-001
 3.6244294683e+000	 6.4311965940e-002	 8.0605191353e-001
 3.6237117012e+000	 9.6635947731e-002	 8.4445796790e-001
 3.6227015566e+000	 1.2906754820e-001	 8.6388482909e-001
 3.6213960493e+000	 1.6160338503e-001	 8.6986093852e-001
 3.6197922348e+000	 1.9423999859e-001	 8.6713866925e-001
 3.6178872109e+000	 2.2697385218e-001	 8.5966196232e-001
 3.6156781200e+000	 2.5980133237e-001	 8.5053469755e-001
 3.6131621516e+000	 2.9271874935e-001	 8.4198989732e-001
 3.6103365437e+000	 3.2572233738e-001	 8.3535986310e-001
 3.6500000000e+000	 0.0000000000e+000	 7.1573438552e-001
 3.6498569012e+000	 3.2320279418e-002	 8.0548766917e-001
 3.6494255336e+000	 6.4755496739e-002	 8.6271328024e-001
 3.6487028164e+000	 9.7302402542e-002	 8.9450751402e-001
 3.6476857052e+000	 1.2995766922e-001	 9.0724480668e-001
 3.6463711945e+000	 1.6271789114e-001	 9.0654361884e-001
 3.6447563192e+000	 1.9557958479e-001	 8.9723287342e-001
 3.6428381571e+000	 2.2853918909e-001	 8.8331904429e-001
 3.6406138312e+000	 2.6159306570e-001	 8.6795399461e-001
 3.6380805113e+000	 2.9473749935e-001	 8.5340366506e-001
 3.6352354164e+000	 3.2796869832e-001	 8.4101771373e-001
 3.6750000000e+000	 0.0000000000e+000	 7.7905793326e-001
 3.6748559211e+000	 3.2541651194e-002	 8.5894852969e-001
 3.6744215989e+000	 6.5199027538e-002	 9.0653667899e-001
 3.6736939316e+000	 9.7968857353e-002	 9.2904089823e-001
 3.6726698539e+000	 1.3084779024e-001	 9.3294508771e-001
 3.6713463396e+000	 1.6383239724e-001	 9.2396382432e-001
 3.6697204035e+000	 1.9691917098e-001	 9.0700822086e-001
 3.6677891034e+000	 2.3010452601e-001	 8.8615244991e-001
 3.6655495424e+000	 2.6338479903e-001	 8.6460103262e-001
 3.6629988709e+000	 2.9675624934e-001	 8.4465699487e-001
 3.6601342892e+000	 3.3021505927e-001	 8.2769099424e-001
 3.7000000000e+000	 0.0000000000e+000	 8.3675838318e-001
 3.6998549410e+000	 3.2763022971e-002	 9.0304612132e-001
 3.6994176642e+000	 6.5642558337e-002	 9.3777764137e-001
 3.6986850468e+000	 9.8635312165e-002	 9.4830064424e-001
 3.6976540026e+000	 1.3173791127e-001	 9.4121503293e-001
 3.6963214848e+000	 1.6494690334e-001	 9.2233759802e-001
 3.6946844879e+000	 1.9825875718e-001	 8.9666728097e-001
 3.6927400497e+000	 2.3166986292e-001	 8.6835111577e-001
 3.6904852536e+000	 2.6517653235e-001	 8.4065095136e-001
 3.6879172306e+000	 2.9877499934e-001	 8.1591105897e-001
 3.6850331619e+000	 3.3246142022e-001	 7.9552672982e-001
 3.7250000000e+000	 0.0000000000e+000	 8.8910926231e-001
 3.7248539609e+000	 3.2984394747e-002	 9.3804132732e-001
 3.7244137295e+000	 6.6086089136e-002	 9.5668434538e-001
 3.7236761619e+000	 9.9301766976e-002	 9.5252216785e-001
 3.7226381512e+000	 1.3262803229e-001	 9.3227724207e-001
 3.7212966300e+000	 1.6606140945e-001	 9.0187467105e-001
 3.7196485723e+000	 1.9959834338e-001	 8.6640686317e-001
 3.7176909960e+000	 2.3323519983e-001	 8.3009887441e-001
 3.7154209647e+000	 2.6696826568e-001	 7.9627454720e-001
 3.7128355903e+000	 3.0079374934e-001	 7.6732355224e-001
 3.7099320346e+000	 3.3470778117e-001	 7.4466944066e-001
 3.7500000000e+000	 0.0000000000e+000	 9.3637680361e-001
 3.7498529807e+000	 3.3205766524e-002	 9.6418778177e-001
 3.7494097948e+000	 6.6529619936e-002	 9.6349786053e-001
 3.7486672771e+000	 9.9968221788e-002	 9.4193401396e-001
 3.7476222999e+000	 1.3351815331e-001	 9.0634777928e-001
 3.7462717751e+000	 1.6717591555e-001	 8.6277867290e-001
 3.7446126567e+000	 2.0093792957e-001	 8.1641820894e-001
 3.7426419423e+000	 2.3480053674e-001	 7.7157462445e-001
 3.7403566759e+000	 2.6875999901e-001	 7.3163841782e-001
 3.7377539499e+000	 3.0281249933e-001	 6.9904880813e-001
 3.7348309073e+000	 3.3695414212e-001	 6.7526122542e-001
 3.4858421801e+000	 3.1449053264e-001	 5.1696955208e-001
 3.4828124275e+000	 3.4643555681e-001	 5.9361806019e-001
 3.4794785293e+000	 3.7845629087e-001	 6.5940258847e-001
 3.4758379731e+000	 4.1054888215e-001	 7.1309819011e-001
 3.4718883019e+000	 4.4270940692e-001	 7.5256919161e-001
 3.4676271163e+000	 4.7493387121e-001	 7.7474749457e-001
 3.4630520767e+000	 5.0721821157e-001	 7.7561226491e-001
 3.4581609051e+000	 5.3955829594e-001	 7.5017110186e-001
 3.4529513874e+000	 5.7194992458e-001	 6.9244277790e-001
 3.4474213756e+000	 6.0438883109e-001	 5.9544163979e-001
 3.4415687894e+000	 6.3687068343e-001	 3.6440874955e-001
 3.5107410529e+000	 3.1673689358e-001	 6.1984960512e-001
 3.5076896591e+000	 3.4891009650e-001	 6.9104883193e-001
 3.5043319474e+000	 3.8115955010e-001	 7.5131509954e-001
 3.5006653872e+000	 4.1348137416e-001	 7.9935206982e-001
 3.4966875041e+000	 4.4587161697e-001	 8.3293557812e-001
 3.4923958815e+000	 4.7832625601e-001	 8.4889160204e-001
 3.4877881630e+000	 5.1084119880e-001	 8.4307564735e-001
 3.4828620544e+000	 5.4341228377e-001	 8.1035364510e-001
 3.4776153259e+000	 5.7603528119e-001	 7.4458445278e-001
 3.4720458140e+000	 6.0870589417e-001	 6.3860405156e-001
 3.4661514237e+000	 6.4141975974e-001	 3.6595235536e-001
 3.5356399256e+000	 3.1898325453e-001	 7.0296921086e-001
 3.5325668907e+000	 3.5138463619e-001	 7.6908208823e-001
 3.5291853654e+000	 3.8386280932e-001	 8.2472491816e-001
 3.5254928013e+000	 4.1641386618e-001	 8.6853223467e-001
 3.5214867062e+000	 4.4903382702e-001	 8.9819309638e-001
 3.5171646466e+000	 4.8171864080e-001	 9.1042870895e-001
 3.5125242492e+000	 5.1446418603e-001	 9.0097149501e-001
 3.5075632037e+000	 5.4726627160e-001	 8.6454570714e-001
 3.5022792644e+000	 5.8012063779e-001	 7.9484967900e-001
 3.4966702524e+000	 6.1302295724e-001	 6.8453980785e-001
 3.4907340579e+000	 6.4596883605e-001	 3.7573634067e-001
 3.5605387983e+000	 3.2122961548e-001	 7.6648930004e-001
 3.5574441224e+000	 3.5385917588e-001	 8.2788925690e-001
 3.5540387835e+000	 3.8656606854e-001	 8.7981402059e-001
 3.5503202154e+000	 4.1934635820e-001	 9.2083123853e-001
 3.5462859084e+000	 4.5219603707e-001	 9.4854488248e-001
 3.5419334117e+000	 4.8511102560e-001	 9.5957251130e-001
 3.5372603355e+000	 5.1808717325e-001	 9.4952401204e-001
 3.5322643530e+000	 5.5112025943e-001	 9.1298191681e-001
 3.5269432028e+000	 5.8420599440e-001	 8.4348339223e-001
 3.5212946908e+000	 6.1734002033e-001	 7.3350399661e-001
 3.5153166921e+000	 6.5051791236e-001	 3.9358192130e-001
 3.5854376710e+000	 3.2347597643e-001	 8.1056782514e-001
 3.5823213540e+000	 3.5633371558e-001	 8.6763921435e-001
 3.5788922016e+000	 3.8926932776e-001	 9.1676236276e-001
 3.5751476295e+000	 4.2227885021e-001	 9.5644025106e-001
 3.5710851106e+000	 4.5535824712e-001	 9.8419343021e-001
 3.5667021768e+000	 4.8850341040e-001	 9.9653691117e-001
 3.5619964217e+000	 5.2171016048e-001	 9.8895856431e-001
 3.5569655023e+000	 5.5497424726e-001	 9.5589912801e-001
 3.5516071413e+000	 5.8829135100e-001	 8.9073392498e-001
 3.5459191292e+000	 6.2165708341e-001	 7.8575638328e-001
 3.5398993263e+000	 6.5506698867e-001	 4.1931638051e-001
 3.6103365437e+000	 3.2572233738e-001	 8.3535986310e-001
 3.6071985856e+000	 3.5880825527e-001	 8.8849837358e-001
 3.6037456196e+000	 3.9197258699e-001	 9.3574794996e-001
 3.5999750436e+000	 4.2521134223e-001	 9.7554910544e-001
 3.5958843127e+000	 4.5852045717e-001	 1.0053406132e+000
 3.5914709419e+000	 4.9189579519e-001	 1.0215360096e+000
 3.5867325080e+000	 5.2533314771e-001	 1.0195016393e+000
 3.5816666517e+000	 5.5882823509e-001	 9.9353634303e-001
 3.5762710798e+000	 5.9237670761e-001	 9.3685288949e-001
 3.5705435676e+000	 6.2597414649e-001	 8.3516206688e-001
 3.5644819605e+000	 6.5961606499e-001	 4.5277285971e-001
 3.6352354164e+000	 3.2796869832e-001	 8.4101771373e-001
 3.6320758172e+000	 3.6128279496e-001	 8.9063076850e-001
 3.6285990377e+000	 3.9467584621e-001	 9.3694690361e-001
 3.6248024577e+000	 4.2814383425e-001	 9.7834634413e-001
 3.6206835149e+000	 4.6168266723e-001	 1.0121877062e+000
 3.6162397070e+000	 4.9528817999e-001	 1.0347841000e+000
 3.6114685943e+000	 5.2895613494e-001	 1.0413808078e+000
 3.6063678010e+000	 5.6268222292e-001	 1.0261346389e+000
 3.6009350183e+000	 5.9646206422e-001	 9.8209506540e-001
 3.5951680060e+000	 6.3029120957e-001	 8.6724315265e-001
 3.5890645947e+000	 6.6416514130e-001	 4.9379015791e-001
 3.6601342892e+000	 3.3021505927e-001	 8.2769099424e-001
 3.6569530489e+000	 3.6375733466e-001	 8.7419813491e-001
 3.6534524558e+000	 3.9737910543e-001	 9.2053352536e-001
 3.6496298718e+000	 4.3107632627e-001	 9.6501926280e-001
 3.6454827170e+000	 4.6484487728e-001	 1.0049354052e+000
 3.6410084722e+000	 4.9868056479e-001	 1.0364956612e+000
 3.6362046805e+000	 5.3257912217e-001	 1.0548246869e+000
 3.6310689503e+000	 5.6653621075e-001	 1.0539370970e+000
 3.6255989568e+000	 6.0054742082e-001	 1.0267182920e+000
 3.6197924444e+000	 6.3460827265e-001	 9.0446113024e-001
 3.6136472289e+000	 6.6871421761e-001	 5.4221253921e-001
 3.6850331619e+000	 3.3246142022e-001	 7.9552672982e-001
 3.6818302805e+000	 3.6623187435e-001	 8.3935998811e-001
 3.6783058738e+000	 4.0008236465e-001	 8.8668035856e-001
 3.6744572859e+000	 4.3400881828e-001	 9.3575395241e-001
 3.6702819192e+000	 4.6800708733e-001	 9.8378384759e-001
 3.6657772373e+000	 5.0207294958e-001	 1.0268853514e+000
 3.6609407668e+000	 5.3620210939e-001	 1.0600629048e+000
 3.6557700996e+000	 5.7039019858e-001	 1.0771887351e+000
 3.6502628952e+000	 6.0463277743e-001	 1.0709833648e+000
 3.6444168828e+000	 6.3892533573e-001	 9.4670839706e-001
 3.6382298631e+000	 6.7326329392e-001	 5.9788954824e-001
 3.7099320346e+000	 3.3470778117e-001	 7.4466944066e-001
 3.7067075121e+000	 3.6870641404e-001	 7.8627369739e-001
 3.7031592919e+000	 4.0278562387e-001	 8.3555824728e-001
 3.6992847000e+000	 4.3694131030e-001	 8.9073533967e-001
 3.6950811213e+000	 4.7116929738e-001	 9.4893263010e-001
 3.6905460024e+000	 5.0546533438e-001	 1.0061680024e+000
 3.6856768530e+000	 5.3982509662e-001	 1.0573260666e+000
 3.6804712489e+000	 5.7424418641e-001	 1.0961364425e+000
 3.6749268337e+000	 6.0871813404e-001	 1.1151539366e+000
 3.6690413212e+000	 6.4324239882e-001	 9.9388128470e-001
 3.6628124973e+000	 6.7781237024e-001	 6.6067583292e-001
 3.7348309073e+000	 3.3695414212e-001	 6.7526122542e-001
 3.7315847437e+000	 3.7118095373e-001	 7.1509455761e-001
 3.7280127100e+000	 4.0548888310e-001	 7.6733639293e-001
 3.7241121140e+000	 4.3987380232e-001	 8.3014722581e-001
 3.7198803235e+000	 4.7433150743e-001	 9.0058082743e-001
 3.7153147675e+000	 5.0885771918e-001	 9.7455861335e-001
 3.7104129393e+000	 5.4344808385e-001	 1.0468457223e+000
 3.7051723983e+000	 5.7809817425e-001	 1.1110289176e+000
 3.6995907722e+000	 6.1280349065e-001	 1.1594964217e+000
 3.6936657595e+000	 6.4755946190e-001	 1.0458799279e+000
 3.6873951316e+000	 6.8236144655e-001	 7.3043097435e-001
 3.4415687894e+000	 6.3687068343e-001	 3.6440874955e-001
 3.4353916189e+000	 6.6939108513e-001	 4.9113602335e-001
 3.4288879258e+000	 7.0194557643e-001	 5.9499128874e-001
 3.4220558462e+000	 7.3452963556e-001	 6.7605151632e-001
 3.4148935921e+000	 7.6713868010e-001	 7.3444335536e-001
 3.4073994536e+000	 7.9976806841e-001	 7.7034407061e-001
 3.3995718009e+000	 8.3241310102e-001	 7.8398240392e-001
 3.3914090857e+000	 8.6506902227e-001	 7.7563935677e-001
 3.3829098440e+000	 8.9773102186e-001	 7.4564888971e-001
 3.3740726970e+000	 9.3039423656e-001	 6.9439853486e-001
 3.3648963537e+000	 9.6305375194e-001	 6.2232991775e-001
 3.4661514237e+000	 6.4141975974e-001	 3.6595235536e-001
 3.4599301304e+000	 6.7417245002e-001	 4.7808345985e-001
 3.4533799824e+000	 7.0695947340e-001	 5.7008566826e-001
 3.4464991022e+000	 7.3977627581e-001	 6.4204543615e-001
 3.4392856892e+000	 7.7261824210e-001	 6.9409722253e-001
 3.4317380212e+000	 8.0548069746e-001	 7.2642439042e-001
 3.4238544566e+000	 8.3835890888e-001	 7.3926003297e-001
 3.4156334363e+000	 8.7124808671e-001	 7.3288772113e-001
 3.4070734857e+000	 9.0414338630e-001	 7.0764216907e-001
 3.3981732162e+000	 9.3703990968e-001	 6.6390981341e-001
 3.3889313276e+000	 9.6993270731e-001	 6.0212930280e-001
 3.4907340579e+000	 6.4596883605e-001	 3.7573634067e-001
 3.4844686420e+000	 6.7895381492e-001	 4.7287209740e-001
 3.4778720390e+000	 7.1197337037e-001	 5.5255876439e-001
 3.4709423583e+000	 7.4502291606e-001	 6.1489202289e-001
 3.4636777863e+000	 7.7809780410e-001	 6.6001392762e-001
 3.4560765887e+000	 8.1119332652e-001	 6.8811377211e-001
 3.4481371123e+000	 8.4430471674e-001	 6.9942888016e-001
 3.4398577869e+000	 8.7742715115e-001	 6.9424531968e-001
 3.4312371274e+000	 9.1055575074e-001	 6.7289853486e-001
 3.4222737355e+000	 9.4368558279e-001	 6.3577389305e-001
 3.4129663016e+000	 9.7681166268e-001	 5.8330714274e-001
 3.5153166921e+000	 6.5051791236e-001	 3.9358192130e-001
 3.5090071536e+000	 6.8373517981e-001	 4.7533420908e-001
 3.5023640956e+000	 7.1698726735e-001	 5.4225477962e-001
 3.4953856143e+000	 7.5026955631e-001	 5.9444828384e-001
 3.4880698834e+000	 7.8357736610e-001	 6.3206416100e-001
 3.4804151562e+000	 8.1690595558e-001	 6.5529746973e-001
 3.4724197680e+000	 8.5025052460e-001	 6.6438964596e-001
 3.4640821375e+000	 8.8360621559e-001	 6.5962918361e-001
 3.4554007692e+000	 9.1696811518e-001	 6.4135223456e-001
 3.4463742548e+000	 9.5033125591e-001	 6.0994312383e-001
 3.4370012755e+000	 9.8369061805e-001	 5.6583477682e-001
 3.5398993263e+000	 6.5506698867e-001	 4.1931638051e-001
 3.5335456651e+000	 6.8851654471e-001	 4.8530784348e-001
 3.5268561522e+000	 7.2200116432e-001	 5.3902337170e-001
 3.5198288704e+000	 7.5551619657e-001	 5.8057633287e-001
 3.5124619805e+000	 7.8905692810e-001	 6.1012334230e-001
 3.5047537237e+000	 8.2261858464e-001	 6.2786506078e-001
 3.4967024237e+000	 8.5619633247e-001	 6.3404691968e-001
 3.4883064882e+000	 8.8978528004e-001	 6.2895976968e-001
 3.4795644109e+000	 9.2338047962e-001	 6.1294044909e-001
 3.4704747740e+000	 9.5697692902e-001	 5.8637226837e-001
 3.4610362495e+000	 9.9056957342e-001	 5.4968540724e-001
 3.5644819605e+000	 6.5961606499e-001	 4.5277285971e-001
 3.5580841767e+000	 6.9329790960e-001	 5.0263662551e-001
 3.5513482089e+000	 7.2701506130e-001	 5.4271946550e-001
 3.5442721264e+000	 7.6076283682e-001	 5.7314321426e-001
 3.5368540775e+000	 7.9453649010e-001	 5.9407145738e-001
 3.5290922913e+000	 8.2833121370e-001	 6.0571029703e-001
 3.5209850795e+000	 8.6214214033e-001	 6.0830904539e-001
 3.5125308388e+000	 8.9596434448e-001	 6.0216084204e-001
 3.5037280527e+000	 9.2979284406e-001	 5.8760319169e-001
 3.4945752933e+000	 9.6362260214e-001	 5.6501841872e-001
 3.4850712234e+000	 9.9744852879e-001	 5.3483403490e-001
 3.5890645947e+000	 6.6416514130e-001	 4.9379015791e-001
 3.5826226883e+000	 6.9807927450e-001	 5.2716956545e-001
 3.5758402655e+000	 7.3202895827e-001	 5.5320307264e-001
 3.5687153825e+000	 7.6600947708e-001	 5.7202073392e-001
 3.5612461746e+000	 8.0001605210e-001	 5.8379290191e-001
 3.5534308588e+000	 8.3404384276e-001	 5.8873096168e-001
 3.5452677352e+000	 8.6808794820e-001	 5.8708799332e-001
 3.5367551894e+000	 9.0214340892e-001	 5.7915935900e-001
 3.5278916944e+000	 9.3620520850e-001	 5.6528321090e-001
 3.5186758126e+000	 9.7026827526e-001	 5.4584091653e-001
 3.5091061974e+000	 1.0043274842e+000	 5.2125739779e-001
 3.6136472289e+000	 6.6871421761e-001	 5.4221253921e-001
 3.6071611998e+000	 7.0286063939e-001	 5.5876087578e-001
 3.6003323221e+000	 7.3704285525e-001	 5.7033911847e-001
 3.5931586385e+000	 7.7125611733e-001	 5.7708529739e-001
 3.5856382717e+000	 8.0549561411e-001	 5.7917633142e-001
 3.5777694263e+000	 8.3975647182e-001	 5.7682873216e-001
 3.5695503909e+000	 8.7403375606e-001	 5.7029923651e-001
 3.5609795400e+000	 9.0832247337e-001	 5.5988536438e-001
 3.5520553362e+000	 9.4261757294e-001	 5.4592589756e-001
 3.5427763318e+000	 9.7691394838e-001	 5.2880127657e-001
 3.5331411713e+000	 1.0112064395e+000	 5.0893391195e-001
 3.6382298631e+000	 6.7326329392e-001	 5.9788954824e-001
 3.6316997114e+000	 7.0764200429e-001	 5.9726979542e-001
 3.6248243787e+000	 7.4205675223e-001	 5.9399727607e-001
 3.6176018945e+000	 7.7650275759e-001	 5.8821775447e-001
 3.6100303688e+000	 8.1097517611e-001	 5.8011451737e-001
 3.6021079939e+000	 8.4546910088e-001	 5.6990904857e-001
 3.5938330466e+000	 8.7997956393e-001	 5.5786163250e-001
 3.5852038906e+000	 9.1450153782e-001	 5.4427188328e-001
 3.5762189779e+000	 9.4902993738e-001	 5.2947919548e-001
 3.5668768511e+000	 9.8355962149e-001	 5.1386311333e-001
 3.5571761453e+000	 1.0180853949e+000	 4.9784361472e-001
 3.6628124973e+000	 6.7781237024e-001	 6.6067583292e-001
 3.6562382230e+000	 7.1242336919e-001	 6.4256042106e-001
 3.6493164353e+000	 7.4707064920e-001	 6.2405180691e-001
 3.6420451506e+000	 7.8174939785e-001	 6.0530325005e-001
 3.6344224659e+000	 8.1645473811e-001	 5.8650420902e-001
 3.6264465614e+000	 8.5118172995e-001	 5.6788098748e-001
 3.6181157023e+000	 8.8592537179e-001	 5.4969730973e-001
 3.6094282412e+000	 9.2068060226e-001	 5.3225482199e-001
 3.6003826196e+000	 9.5544230183e-001	 5.1589351584e-001
 3.5909773704e+000	 9.9020529461e-001	 5.0099207049e-001
 3.5812111192e+000	 1.0249643503e+000	 4.8796811040e-001
 3.6873951316e+000	 6.8236144655e-001	 7.3043097435e-001
 3.6807767345e+000	 7.1720473409e-001	 6.9450154523e-001
 3.6738084919e+000	 7.5208454618e-001	 6.6038140795e-001
 3.6664884066e+000	 7.8699603810e-001	 6.2823108098e-001
 3.6588145630e+000	 8.2193430012e-001	 5.9824600082e-001
 3.6507851289e+000	 8.5689435901e-001	 5.7065714063e-001
 3.6423983581e+000	 8.9187117966e-001	 5.4573155852e-001
 3.6336525918e+000	 9.2685966671e-001	 5.2377287200e-001
 3.6245462614e+000	 9.6185466627e-001	 5.0512165489e-001
 3.6150778896e+000	 9.9685096773e-001	 4.9015575337e-001
 3.6052460932e+000	 1.0318433056e+000	 4.7929051794e-001
 3.3648963537e+000	 9.6305375194e-001	 6.2232991775e-001
 3.3553796121e+000	 9.9570460419e-001	 5.6162531941e-001
 3.3455213614e+000	 1.0283417820e+000	 5.0789763181e-001
 3.3353205834e+000	 1.0609602284e+000	 4.6171699816e-001
 3.3247763542e+000	 1.0935548431e+000	 4.2368462361e-001
 3.3138878460e+000	 1.1261204840e+000	 3.9443246536e-001
 3.3026543284e+000	 1.1586519699e+000	 3.7462283838e-001
 3.2910751701e+000	 1.1911440823e+000	 3.6494793525e-001
 3.2791498404e+000	 1.2235915677e+000	 3.6612925901e-001
 3.2668779101e+000	 1.2559891402e+000	 3.6370629880e-001
 3.2542590537e+000	 1.2883314835e+000	 3.1392475357e-001
 3.3889313276e+000	 9.6993270731e-001	 6.0212930280e-001
 3.3793466093e+000	 1.0028167799e+000	 5.4774688034e-001
 3.3694179425e+000	 1.0356870804e+000	 4.9868576620e-001
 3.3591443018e+000	 1.0685385158e+000	 4.5552035883e-001
 3.3485247567e+000	 1.1013659491e+000	 4.1885823093e-001
 3.3375584734e+000	 1.1341642017e+000	 3.8933984171e-001
 3.3262447164e+000	 1.1669280554e+000	 3.6763816165e-001
 3.3145828499e+000	 1.1996522543e+000	 3.5445820811e-001
 3.3025723392e+000	 1.2323315075e+000	 3.5053649050e-001
 3.2902127523e+000	 1.2649604912e+000	 3.2130379571e-001
 3.2775037612e+000	 1.2975338512e+000	 2.7061964721e-001
 3.4129663016e+000	 9.7681166268e-001	 5.8330714274e-001
 3.4033136065e+000	 1.0099289557e+000	 5.3526086468e-001
 3.3933145237e+000	 1.0430323789e+000	 4.9088126557e-001
 3.3829680203e+000	 1.0761168031e+000	 4.5074721933e-001
 3.3722731592e+000	 1.1091770551e+000	 4.1547290019e-001
 3.3612291009e+000	 1.1422079195e+000	 3.8570751715e-001
 3.3498351045e+000	 1.1752041409e+000	 3.6213495758e-001
 3.3380905297e+000	 1.2081604263e+000	 3.4547333849e-001
 3.3259948381e+000	 1.2410714472e+000	 3.3647446394e-001
 3.3135475946e+000	 1.2739318422e+000	 2.8365434926e-001
 3.3007484688e+000	 1.3067362190e+000	 2.3235501169e-001
 3.4370012755e+000	 9.8369061805e-001	 5.6583477682e-001
 3.4272806038e+000	 1.0170411314e+000	 5.2413641230e-001
 3.4172111048e+000	 1.0503776773e+000	 4.8445059853e-001
 3.4067917387e+000	 1.0836950905e+000	 4.4736090435e-001
 3.3960215617e+000	 1.1169881611e+000	 4.1348833918e-001
 3.3848997284e+000	 1.1502516372e+000	 3.8349110949e-001
 3.3734254925e+000	 1.1834802264e+000	 3.5806428128e-001
 3.3615982095e+000	 1.2166685983e+000	 3.3793934684e-001
 3.3494173369e+000	 1.2498113870e+000	 3.2388369425e-001
 3.3368824368e+000	 1.2829031932e+000	 2.5069804165e-001
 3.3239931763e+000	 1.3159385867e+000	 1.9906752622e-001
 3.4610362495e+000	 9.9056957342e-001	 5.4968540724e-001
 3.4512476010e+000	 1.0241533072e+000	 5.1434456082e-001
 3.4411076860e+000	 1.0577229757e+000	 4.7936217520e-001
 3.4306154572e+000	 1.0912733778e+000	 4.4532673292e-001
 3.4197699643e+000	 1.1247992672e+000	 4.1286631186e-001
 3.4085703558e+000	 1.1582953550e+000	 3.8264836370e-001
 3.3970158806e+000	 1.1917563119e+000	 3.5537939518e-001
 3.3851058893e+000	 1.2251767703e+000	 3.3180455026e-001
 3.3728398358e+000	 1.2585513268e+000	 2.9508208215e-001
 3.3602172790e+000	 1.2918745442e+000	 2.2237745794e-001
 3.3472378838e+000	 1.3251409544e+000	 1.7069648990e-001
 3.4850712234e+000	 9.9744852879e-001	 5.3483403490e-001
 3.4752145982e+000	 1.0312654829e+000	 5.0585818013e-001
 3.4650042671e+000	 1.0650682742e+000	 4.7558628025e-001
 3.4544391756e+000	 1.0988516651e+000	 4.4461194959e-001
 3.4435183668e+000	 1.1326103732e+000	 4.1357056747e-001
 3.4322409833e+000	 1.1663390727e+000	 3.8313907858e-001
 3.4206062687e+000	 1.2000323974e+000	 3.5403569293e-001
 3.4086135690e+000	 1.2336849423e+000	 3.2701948328e-001
 3.3962623346e+000	 1.2672912665e+000	 2.7017792487e-001
 3.3835521212e+000	 1.3008458952e+000	 1.9863759978e-001
 3.3704825914e+000	 1.3343433222e+000	 1.4718373128e-001
 3.5091061974e+000	 1.0043274842e+000	 5.2125739779e-001
 3.4991815955e+000	 1.0383776586e+000	 4.9865190966e-001
 3.4889008483e+000	 1.0724135726e+000	 4.7309500867e-001
 3.4782628941e+000	 1.1064299525e+000	 4.4518565849e-001
 3.4672667693e+000	 1.1404214792e+000	 4.1556677255e-001
 3.4559116108e+000	 1.1743827904e+000	 3.8492503643e-001
 3.4441966567e+000	 1.2083084829e+000	 3.5399062639e-001
 3.4321212488e+000	 1.2421931143e+000	 3.2353682196e-001
 3.4196848335e+000	 1.2760312063e+000	 2.4954196406e-001
 3.4068869634e+000	 1.3098172462e+000	 1.7942580264e-001
 3.3937272989e+000	 1.3435456899e+000	 1.2847352181e-001
 3.5331411713e+000	 1.0112064395e+000	 5.0893391195e-001
 3.5231485927e+000	 1.0454898344e+000	 4.9270209817e-001
 3.5127974294e+000	 1.0797588711e+000	 4.7186220425e-001
 3.5020866125e+000	 1.1140082398e+000	 4.4701876008e-001
 3.4910151719e+000	 1.1482325852e+000	 4.1882244570e-001
 3.4795822382e+000	 1.1824265082e+000	 3.8796993559e-001
 3.4677870448e+000	 1.2165845684e+000	 3.5520363567e-001
 3.4556289286e+000	 1.2507012864e+000	 3.2003151054e-001
 3.4431073324e+000	 1.2847711461e+000	 2.3312644475e-001
 3.4302218056e+000	 1.3187885972e+000	 1.6469165643e-001
 3.4169720064e+000	 1.3527480577e+000	 1.1451249272e-001
 3.5571761453e+000	 1.0180853949e+000	 4.9784361472e-001
 3.5471155899e+000	 1.0526020101e+000	 4.8798674606e-001
 3.5366940106e+000	 1.0871041695e+000	 4.7186340047e-001
 3.5259103310e+000	 1.1215865272e+000	 4.5008389048e-001
 3.5147635744e+000	 1.1560436912e+000	 4.2330689505e-001
 3.5032528657e+000	 1.1904702259e+000	 3.9223932567e-001
 3.4913774329e+000	 1.2248606539e+000	 3.5763608190e-001
 3.4791366084e+000	 1.2592094584e+000	 3.0496530103e-001
 3.4665298312e+000	 1.2935110859e+000	 2.2088569645e-001
 3.4535566479e+000	 1.3277599482e+000	 1.5438692937e-001
 3.4402167139e+000	 1.3619504254e+000	 1.0524955530e-001
 3.5812111192e+000	 1.0249643503e+000	 4.8796811040e-001
 3.5710825871e+000	 1.0597141859e+000	 4.8448544988e-001
 3.5605905918e+000	 1.0944494679e+000	 4.7307576379e-001
 3.5497340494e+000	 1.1291648145e+000	 4.5435536322e-001
 3.5385119769e+000	 1.1638547973e+000	 4.2899115816e-001
 3.5269234932e+000	 1.1985139437e+000	 3.9770054547e-001
 3.5149678209e+000	 1.2331367394e+000	 3.6125118279e-001
 3.5026442882e+000	 1.2677176304e+000	 2.9379183913e-001
 3.4899523301e+000	 1.3022510256e+000	 2.1277606330e-001
 3.4768914901e+000	 1.3367312992e+000	 1.4846549481e-001
 3.4634614215e+000	 1.3711527931e+000	 1.0063582438e-001
 3.6052460932e+000	 1.0318433056e+000	 4.7929051794e-001
 3.5950495844e+000	 1.0668263616e+000	 4.8217934915e-001
 3.5844871729e+000	 1.1017947664e+000	 4.7547803924e-001
 3.5735577679e+000	 1.1367431019e+000	 4.5980911332e-001
 3.5622603795e+000	 1.1716659033e+000	 4.3584794443e-001
 3.5505941207e+000	 1.2065576614e+000	 4.0432266332e-001
 3.5385582090e+000	 1.2414128249e+000	 3.6601395079e-001
 3.5261519680e+000	 1.2762258024e+000	 2.8647152022e-001
 3.5133748290e+000	 1.3109909654e+000	 2.0875583680e-001
 3.5002263323e+000	 1.3457026502e+000	 1.4688326114e-001
 3.4867061290e+000	 1.3803551609e+000	 1.0062454489e-001
 3.2542590537e+000	 1.2883314835e+000	 3.1392475357e-001
 3.2412930498e+000	 1.3206132534e+000	 2.7776553089e-001
 3.2279797829e+000	 1.3528290804e+000	 2.3811739087e-001
 3.2143192443e+000	 1.3849735723e+000	 1.9491103042e-001
 3.2003115330e+000	 1.4170413162e+000	 1.4807984952e-001
 3.1859568571e+000	 1.4490268819e+000	 9.7560188152e-002
 3.1712555346e+000	 1.4809248240e+000	 4.3291563203e-002
 3.1562079939e+000	 1.5127296849e+000	-1.4783095596e-002
 3.1408147750e+000	 1.5444359972e+000	-7.6717211085e-002
 3.1250765300e+000	 1.5760382868e+000	-1.4256032619e-001
 3.1089940239e+000	 1.6075310757e+000	-1.4336027548e-001
 3.2775037612e+000	 1.2975338512e+000	 2.7061964721e-001
 3.2644451431e+000	 1.3300462052e+000	 2.4039476717e-001
 3.2510367814e+000	 1.3624921453e+000	 2.0681873444e-001
 3.2372786675e+000	 1.3948662406e+000	 1.6978453562e-001
 3.2231709011e+000	 1.4271630399e+000	 1.2918740481e-001
 3.2087136918e+000	 1.4593770739e+000	 8.4925097237e-002
 3.1939073598e+000	 1.4915028585e+000	 3.6898163626e-002
 3.1787523367e+000	 1.5235348969e+000	-1.4989775142e-002
 3.1632491662e+000	 1.5554676828e+000	-7.0831753921e-002
 3.1473985053e+000	 1.5872957031e+000	-1.3071719033e-001
 3.1312011241e+000	 1.6190134405e+000	-1.9473161371e-001
 3.3007484688e+000	 1.3067362190e+000	 2.3235501169e-001
 3.2875972363e+000	 1.3394791570e+000	 2.0735355453e-001
 3.2740937798e+000	 1.3721552102e+000	 1.7913637763e-001
 3.2602380906e+000	 1.4047589090e+000	 1.4755902102e-001
 3.2460302692e+000	 1.4372847636e+000	 1.1247882081e-001
 3.2314705265e+000	 1.4697272659e+000	 7.3755219144e-002
 3.2165591851e+000	 1.5020808929e+000	 3.1250076144e-002
 3.2012966795e+000	 1.5343401089e+000	-1.5172017047e-002
 3.1856835575e+000	 1.5664993685e+000	-6.5643424697e-002
 3.1697204805e+000	 1.5985531195e+000	-1.2029315322e-001
 3.1534082243e+000	 1.6304958054e+000	-1.7924653895e-001
 3.3239931763e+000	 1.3159385867e+000	 1.9906752622e-001
 3.3107493295e+000	 1.3489121088e+000	 1.7859610628e-001
 3.2971507783e+000	 1.3818182750e+000	 1.5504210715e-001
 3.2831975138e+000	 1.4146515774e+000	 1.2822387803e-001
 3.2688896373e+000	 1.4474064873e+000	 9.7961116699e-002
 3.2542273612e+000	 1.4800774579e+000	 6.4075215775e-002
 3.2392110103e+000	 1.5126589274e+000	 2.6389611934e-002
 3.2238410223e+000	 1.5451453210e+000	-1.5269862662e-002
 3.2081179487e+000	 1.5775310542e+000	-6.1074627552e-002
 3.1920424557e+000	 1.6098105358e+000	-1.1119300054e-001
 3.1756153244e+000	 1.6419781702e+000	-1.6578984451e-001
 3.3472378838e+000	 1.3251409544e+000	 1.7069648990e-001
 3.3339014227e+000	 1.3583450606e+000	 1.5407879071e-001
 3.3202077768e+000	 1.3914813399e+000	 1.3450939852e-001
 3.3061569370e+000	 1.4245442458e+000	 1.1176971959e-001
 3.2917490054e+000	 1.4575282109e+000	 8.5642065081e-002
 3.2769841959e+000	 1.4904276499e+000	 5.5910033548e-002
 3.2618628356e+000	 1.5232369618e+000	 2.2358897331e-002
 3.2463853651e+000	 1.5559505330e+000	-1.5224007826e-002
 3.2305523400e+000	 1.5885627399e+000	-5.7048890818e-002
 3.2143644309e+000	 1.6210679521e+000	-1.0332311174e-001
 3.1978224246e+000	 1.6534605350e+000	-1.5425078785e-001
 3.3704825914e+000	 1.3343433222e+000	 1.4718373128e-001
 3.3570535159e+000	 1.3677780124e+000	 1.3376005681e-001
 3.3432647752e+000	 1.4011444047e+000	 1.1751335792e-001
 3.3291163602e+000	 1.4344369141e+000	 9.8188338116e-002
 3.3146083735e+000	 1.4676499346e+000	 7.5530165963e-002
 3.2997410306e+000	 1.5007778420e+000	 4.9284893590e-002
 3.2845146608e+000	 1.5338149963e+000	 1.9199880191e-002
 3.2689297079e+000	 1.5667557450e+000	-1.4975780300e-002
 3.2529867312e+000	 1.5995944256e+000	-5.3490828253e-002
 3.2366864061e+000	 1.6323253685e+000	-9.6591405032e-002
 3.2200295248e+000	 1.6649428998e+000	-1.4452061825e-001
 3.3937272989e+000	 1.3435456899e+000	 1.2847352181e-001
 3.3802056091e+000	 1.3772109643e+000	 1.1760036300e-001
 3.3663217737e+000	 1.4108074696e+000	 1.0403066626e-001
 3.3520757833e+000	 1.4443295825e+000	 8.7472665082e-002
 3.3374677416e+000	 1.4777716583e+000	 6.7634621861e-002
 3.3224978653e+000	 1.5111280340e+000	 4.4225282326e-002
 3.3071664861e+000	 1.5443930308e+000	 1.6954336011e-002
 3.2914740508e+000	 1.5775609571e+000	-1.4467118125e-002
 3.2754211225e+000	 1.6106261113e+000	-5.0326101871e-002
 3.2590083813e+000	 1.6435827848e+000	-9.0907284712e-002
 3.2422366249e+000	 1.6764252647e+000	-1.3649250854e-001
 3.4169720064e+000	 1.3527480577e+000	 1.1451249272e-001
 3.4033577023e+000	 1.3866439161e+000	 1.0556210878e-001
 3.3893787721e+000	 1.4204705345e+000	 9.4039525659e-002
 3.3750352065e+000	 1.4542222509e+000	 7.9616732269e-002
 3.3603271097e+000	 1.4878933820e+000	 6.1965313900e-002
 3.3452547000e+000	 1.5214782260e+000	 4.0756942457e-002
 3.3298183113e+000	 1.5549710652e+000	 1.5663873788e-002
 3.3140183936e+000	 1.5883661691e+000	-1.3640548862e-002
 3.2978555137e+000	 1.6216577970e+000	-4.7481386283e-002
 3.2813303565e+000	 1.6548402011e+000	-8.6181590621e-002
 3.2644437251e+000	 1.6879076295e+000	-1.3006148967e-001
 3.4402167139e+000	 1.3619504254e+000	 1.0524955530e-001
 3.4265097956e+000	 1.3960768679e+000	 9.7609569184e-002
 3.4124357706e+000	 1.4301335993e+000	 8.7519608053e-002
 3.3979946297e+000	 1.4641149192e+000	 7.4615634604e-002
 3.3831864778e+000	 1.4980151057e+000	 5.8532778890e-002
 3.3680115347e+000	 1.5318284180e+000	 3.8905864302e-002
 3.3524701366e+000	 1.5655490997e+000	 1.5369941647e-002
 3.3365627364e+000	 1.5991713811e+000	-1.2439169681e-002
 3.3202899050e+000	 1.6326894827e+000	-4.4884334493e-002
 3.3036523318e+000	 1.6660976175e+000	-8.2326549634e-002
 3.2866508253e+000	 1.6993899943e+000	-1.2512438798e-001
 3.4634614215e+000	 1.3711527931e+000	 1.0063582438e-001
 3.4496618888e+000	 1.4055098197e+000	 9.3708831785e-002
 3.4354927690e+000	 1.4397966642e+000	 8.4452005860e-002
 3.4209540529e+000	 1.4740075876e+000	 7.2465494479e-002
 3.4060458459e+000	 1.5081368294e+000	 5.7348187322e-002
 3.3907683694e+000	 1.5421786100e+000	 3.8698277488e-002
 3.3751219618e+000	 1.5761271341e+000	 1.6113832234e-002
 3.3591070792e+000	 1.6099765932e+000	-1.0806628241e-002
 3.3427242962e+000	 1.6437211684e+000	-4.2463545060e-002
 3.3259743070e+000	 1.6773550338e+000	-7.9255729122e-002
 3.3088579254e+000	 1.7108723591e+000	-1.2157976491e-001
 3.4867061290e+000	 1.3803551609e+000	 1.0062454489e-001
 3.4728139820e+000	 1.4149427715e+000	 9.3827736326e-002
 3.4585497675e+000	 1.4494597290e+000	 8.4819184636e-002
 3.4439134760e+000	 1.4839002560e+000	 7.3163427506e-002
 3.4289052139e+000	 1.5182585531e+000	 5.8423322246e-002
 3.4135252041e+000	 1.5525288020e+000	 4.0160642974e-002
 3.3977737871e+000	 1.5867051686e+000	 1.7936687905e-002
 3.3816514220e+000	 1.6207818052e+000	-8.6871043423e-003
 3.3651586875e+000	 1.6547528541e+000	-4.0148530587e-002
 3.3482962822e+000	 1.6886124501e+000	-7.6883992266e-002
 3.3310650256e+000	 1.7223547240e+000	-1.1932785918e-001
 3.1089940239e+000	 1.6075310757e+000	-1.4336027548e-001
 3.0925681348e+000	 1.6389088846e+000	-1.5090920427e-001
 3.0757998544e+000	 1.6701662359e+000	-1.5811640703e-001
 3.0586902889e+000	 1.7012976567e+000	-1.6578817924e-001
 3.0412406585e+000	 1.7322976814e+000	-1.7475089801e-001
 3.0234522981e+000	 1.7631608551e+000	-1.8584965543e-001
 3.0053266573e+000	 1.7938817362e+000	-1.9994683375e-001
 2.9868653000e+000	 1.8244548993e+000	-2.1792062508e-001
 2.9680699052e+000	 1.8548749386e+000	-2.4066349846e-001
 2.9489422659e+000	 1.8851364706e+000	-2.9992179905e-001
 2.9294842893e+000	 1.9152341368e+000	-4.2262358609e-001
 3.1312011241e+000	 1.6190134405e+000	-1.9473161371e-001
 3.1146579071e+000	 1.6506153766e+000	-2.2018259179e-001
 3.0977698534e+000	 1.6820959948e+000	-2.1852005959e-001
 3.0805380767e+000	 1.7134497828e+000	-2.1714964674e-001
 3.0629638061e+000	 1.7446712363e+000	-2.1691412497e-001
 3.0450483860e+000	 1.7757548612e+000	-2.1867553068e-001
 3.0267932762e+000	 1.8066951771e+000	-2.2331371274e-001
 3.0082000522e+000	 1.8374867200e+000	-2.3172482360e-001
 2.9892704045e+000	 1.8681240453e+000	-2.4481975635e-001
 2.9700061392e+000	 1.8986017311e+000	-3.3363677682e-001
 2.9504091771e+000	 1.9289143807e+000	-4.4400039600e-001
 3.1534082243e+000	 1.6304958054e+000	-1.7924653895e-001
 3.1367476795e+000	 1.6623218687e+000	-2.4203061302e-001
 3.1197398523e+000	 1.6940257536e+000	-2.7920285109e-001
 3.1023858645e+000	 1.7256019089e+000	-2.6838804258e-001
 3.0846869536e+000	 1.7570447912e+000	-2.5855137995e-001
 3.0666444738e+000	 1.7883488673e+000	-2.5057235654e-001
 3.0482598952e+000	 1.8195086181e+000	-2.4534880762e-001
 3.0295348043e+000	 1.8505185407e+000	-2.4379537208e-001
 3.0104709038e+000	 1.8813731520e+000	-2.6580850412e-001
 2.9910700125e+000	 1.9120669916e+000	-3.6302279989e-001
 2.9713340648e+000	 1.9425946245e+000	-4.6087704719e-001
 3.1756153244e+000	 1.6419781702e+000	-1.6578984451e-001
 3.1588374519e+000	 1.6740283607e+000	-2.2302311677e-001
 3.1417098513e+000	 1.7059555124e+000	-2.7515047227e-001
 3.1242336522e+000	 1.7377540350e+000	-3.1938730458e-001
 3.1064101012e+000	 1.7694183460e+000	-2.9954714270e-001
 3.0882405617e+000	 1.8009428734e+000	-2.8142508036e-001
 3.0697265142e+000	 1.8323220591e+000	-2.6593746080e-001
 3.0508695565e+000	 1.8635503614e+000	-2.5401793739e-001
 3.0316714032e+000	 1.8946222587e+000	-3.0364395975e-001
 3.0121338859e+000	 1.9255322521e+000	-3.8811769350e-001
 2.9922589526e+000	 1.9562748683e+000	-4.7329719981e-001
 3.1978224246e+000	 1.6534605350e+000	-1.5425078785e-001
 3.1809272243e+000	 1.6857348527e+000	-2.0568549397e-001
 3.1636798503e+000	 1.7178852712e+000	-2.5192940257e-001
 3.1460814400e+000	 1.7499061612e+000	-2.9302148691e-001
 3.1281332488e+000	 1.7817919009e+000	-3.2900393248e-001
 3.1098366495e+000	 1.8135368796e+000	-3.1112022447e-001
 3.0911931332e+000	 1.8451355001e+000	-2.8496649571e-001
 3.0722043086e+000	 1.8765821821e+000	-2.6685148756e-001
 3.0528719025e+000	 1.9078713654e+000	-3.3739175318e-001
 3.0331977592e+000	 1.9389975126e+000	-4.0896049011e-001
 3.0131838404e+000	 1.9699551122e+000	-4.8130563286e-001
 3.2200295248e+000	 1.6649428998e+000	-1.4452061825e-001
 3.2030169967e+000	 1.6974413448e+000	-1.8991170519e-001
 3.1856498492e+000	 1.7298150301e+000	-2.3002981198e-001
 3.1679292278e+000	 1.7620582873e+000	-2.6491113602e-001
 3.1498563963e+000	 1.7941654558e+000	-2.9459513132e-001
 3.1314327373e+000	 1.8261308857e+000	-3.1912435675e-001
 3.1126597521e+000	 1.8579489410e+000	-3.0232416572e-001
 3.0935390607e+000	 1.8896140028e+000	-3.0970192466e-001
 3.0740724018e+000	 1.9211204721e+000	-3.6708636747e-001
 3.0542616325e+000	 1.9524627731e+000	-4.2559138778e-001
 3.0341087282e+000	 1.9836353560e+000	-4.8494820558e-001
 3.2422366249e+000	 1.6764252647e+000	-1.3649250854e-001
 3.2251067691e+000	 1.7091478368e+000	-1.7559754152e-001
 3.2076198482e+000	 1.7417447889e+000	-2.0935008959e-001
 3.1897770156e+000	 1.7742104134e+000	-2.3778374068e-001
 3.1715795439e+000	 1.8065390106e+000	-2.6093538217e-001
 3.1530288252e+000	 1.8387248918e+000	-2.7884505001e-001
 3.1341263711e+000	 1.8707623820e+000	-2.9155577444e-001
 3.1148738129e+000	 1.9026458236e+000	-3.4869287297e-001
 3.0952729011e+000	 1.9343695788e+000	-3.9276349518e-001
 3.0753255058e+000	 1.9659280336e+000	-4.3805171023e-001
 3.0550336159e+000	 1.9973155998e+000	-4.8427182045e-001
 3.2644437251e+000	 1.6879076295e+000	-1.3006148967e-001
 3.2471965415e+000	 1.7208543288e+000	-1.6264056223e-001
 3.2295898471e+000	 1.7536745477e+000	-1.8979030375e-001
 3.2116248033e+000	 1.7863625395e+000	-2.1154185811e-001
 3.1933026914e+000	 1.8189125655e+000	-2.2792970992e-001
 3.1746249130e+000	 1.8513188979e+000	-2.3899153437e-001
 3.1555929901e+000	 1.8835758230e+000	-2.6805788320e-001
 3.1362085650e+000	 1.9156776443e+000	-3.5494300032e-001
 3.1164734004e+000	 1.9476186855e+000	-4.1445999715e-001
 3.0963893791e+000	 1.9793932941e+000	-4.4638386856e-001
 3.0759585037e+000	 2.0109958437e+000	-4.7932438773e-001
 3.2866508253e+000	 1.6993899943e+000	-1.2512438798e-001
 3.2692863139e+000	 1.7325608209e+000	-1.5094003509e-001
 3.2515598461e+000	 1.7656043065e+000	-1.7125214536e-001
 3.2334725911e+000	 1.7985146656e+000	-1.8608958307e-001
 3.2150258390e+000	 1.8312861203e+000	-1.9548459306e-001
 3.1962210009e+000	 1.8639129040e+000	-1.9947265098e-001
 3.1770596091e+000	 1.8963892639e+000	-2.5486765582e-001
 3.1575433171e+000	 1.9287094650e+000	-3.3304102279e-001
 3.1376738998e+000	 1.9608677923e+000	-4.0359218837e-001
 3.1174532525e+000	 1.9928585546e+000	-4.5063132455e-001
 3.0968833915e+000	 2.0246760875e+000	-4.7015479140e-001
 3.3088579254e+000	 1.7108723591e+000	-1.2157976491e-001
 3.2913760863e+000	 1.7442673129e+000	-1.4039687902e-001
 3.2735298451e+000	 1.7775340654e+000	-1.5363887337e-001
 3.2553203789e+000	 1.8106667917e+000	-1.6133249630e-001
 3.2367489865e+000	 1.8436596752e+000	-1.6350791492e-001
 3.2178170887e+000	 1.8765069101e+000	-1.6411853004e-001
 3.1985262280e+000	 1.9092027049e+000	-2.4028149221e-001
 3.1788780693e+000	 1.9417412857e+000	-3.0973820634e-001
 3.1588743991e+000	 1.9741168990e+000	-3.7156983834e-001
 3.1385171258e+000	 2.0063238151e+000	-4.2484491803e-001
 3.1178082793e+000	 2.0383563313e+000	-4.5681285648e-001
 3.3310650256e+000	 1.7223547240e+000	-1.1932785918e-001
 3.3134658586e+000	 1.7559738049e+000	-1.3091360904e-001
 3.2954998440e+000	 1.7894638242e+000	-1.3685526257e-001
 3.2771681667e+000	 1.8228189179e+000	-1.3717761494e-001
 3.2584721341e+000	 1.8560332301e+000	-1.3190891679e-001
 3.2394131765e+000	 1.8891009162e+000	-1.5696884480e-001
 3.2199928470e+000	 1.9220161459e+000	-2.2438427432e-001
 3.2002128214e+000	 1.9547731064e+000	-2.8512642649e-001
 3.1800748984e+000	 1.9873660057e+000	-3.3824428787e-001
 3.1595809991e+000	 2.0197890756e+000	-3.8277391448e-001
 3.1387331671e+000	 2.0520365752e+000	-4.1774060690e-001
 2.9294842893e+000	 1.9152341368e+000	-4.2262358609e-001
 2.9096979964e+000	 1.9451626075e+000	-4.5613362008e-001
 2.8895855216e+000	 1.9749165840e+000	-4.8601922753e-001
 2.8691491118e+000	 2.0044908018e+000	-5.1260646345e-001
 2.8483911262e+000	 2.0338800339e+000	-5.3622071719e-001
 2.8273140354e+000	 2.0630790933e+000	-5.5718703729e-001
 2.8059204205e+000	 2.0920828363e+000	-5.7583046273e-001
 2.7842129721e+000	 2.1208861652e+000	-5.9247635883e-001
 2.7621944897e+000	 2.1494840313e+000	-6.0745075617e-001
 2.7398678801e+000	 2.1778714378e+000	-6.2108069084e-001
 2.7172361565e+000	 2.2060434424e+000	-6.3369454425e-001
 2.9504091771e+000	 1.9289143807e+000	-4.4400039600e-001
 2.9304815535e+000	 1.9590566262e+000	-4.7736172311e-001
 2.9102254181e+000	 1.9890231310e+000	-5.0800038409e-001
 2.8896430340e+000	 2.0188085932e+000	-5.3620390364e-001
 2.8687367771e+000	 2.0484077484e+000	-5.6225815499e-001
 2.8475091357e+000	 2.0778153725e+000	-5.8644773587e-001
 2.8259627092e+000	 2.1070262851e+000	-6.0905635243e-001
 2.8041002076e+000	 2.1360353521e+000	-6.3036720938e-001
 2.7819244504e+000	 2.1648374887e+000	-6.5066340464e-001
 2.7594383650e+000	 2.1934276623e+000	-6.7022832649e-001
 2.7366449862e+000	 2.2218008955e+000	-6.8934605158e-001
 2.9713340648e+000	 1.9425946245e+000	-4.6087704719e-001
 2.9512651106e+000	 1.9729506448e+000	-4.9334693449e-001
 2.9308653147e+000	 2.0031296780e+000	-5.2398759497e-001
 2.9101369562e+000	 2.0331263847e+000	-5.5304806797e-001
 2.8890824280e+000	 2.0629354629e+000	-5.8077476089e-001
 2.8677042359e+000	 2.0925516518e+000	-6.0741187648e-001
 2.8460049979e+000	 2.1219697340e+000	-6.3320184973e-001
 2.8239874432e+000	 2.1511845390e+000	-6.5838579249e-001
 2.8016544110e+000	 2.1801909460e+000	-6.8320394398e-001
 2.7790088499e+000	 2.2089838869e+000	-7.0789612522e-001
 2.7560538159e+000	 2.2375583487e+000	-7.3270219536e-001
 2.9922589526e+000	 1.9562748683e+000	-4.7329719981e-001
 2.9720486678e+000	 1.9868446634e+000	-5.0415077713e-001
 2.9515052113e+000	 2.0172362251e+000	-5.3406044905e-001
 2.9306308784e+000	 2.0474441761e+000	-5.6323680449e-001
 2.9094280789e+000	 2.0774631775e+000	-5.9188682510e-001
 2.8878993362e+000	 2.1072879310e+000	-6.2021436413e-001
 2.8660472866e+000	 2.1369131828e+000	-6.4842063654e-001
 2.8438746787e+000	 2.1663337259e+000	-6.7670471839e-001
 2.8213843716e+000	 2.1955444034e+000	-7.0526405344e-001
 2.7985793347e+000	 2.2245401114e+000	-7.3429496505e-001
 2.7754626456e+000	 2.2533158019e+000	-7.6399317113e-001
 3.0131838404e+000	 1.9699551122e+000	-4.8130563286e-001
 2.9928322249e+000	 2.0007386820e+000	-5.0983547006e-001
 2.9721451079e+000	 2.0313427721e+000	-5.3829880270e-001
 2.9511248007e+000	 2.0617619676e+000	-5.6686779435e-001
 2.9297737298e+000	 2.0919908920e+000	-5.9571003098e-001
 2.9080944364e+000	 2.1220242103e+000	-6.2498905165e-001
 2.8860895753e+000	 2.1518566316e+000	-6.5486489212e-001
 2.8637619142e+000	 2.1814829128e+000	-6.8549463923e-001
 2.8411143323e+000	 2.2108978608e+000	-7.1703299397e-001
 2.8181498196e+000	 2.2400963360e+000	-7.4963284094e-001
 2.7948714753e+000	 2.2690732550e+000	-7.8344582231e-001
 3.0341087282e+000	 1.9836353560e+000	-4.8494820558e-001
 3.0136157820e+000	 2.0146327007e+000	-5.1046390441e-001
 2.9927850045e+000	 2.0454493191e+000	-5.3678277053e-001
 2.9716187229e+000	 2.0760797590e+000	-5.6403855756e-001
 2.9501193807e+000	 2.1065186065e+000	-5.9235947598e-001
 2.9282895367e+000	 2.1367604895e+000	-6.2186877599e-001
 2.9061318640e+000	 2.1668000805e+000	-6.5268534487e-001
 2.8836491497e+000	 2.1966320997e+000	-6.8492431660e-001
 2.8608442929e+000	 2.2262513181e+000	-7.1869769162e-001
 2.8377203044e+000	 2.2556525605e+000	-7.5411496428e-001
 2.8142803050e+000	 2.2848307082e+000	-7.9128375583e-001
 3.0550336159e+000	 1.9973155998e+000	-4.8427182045e-001
 3.0343993391e+000	 2.0285267193e+000	-5.0609962046e-001
 3.0134249010e+000	 2.0595558661e+000	-5.2959271662e-001
 2.9921126451e+000	 2.0903975504e+000	-5.5484645850e-001
 2.9704650316e+000	 2.1210463210e+000	-5.8194969169e-001
 2.9484846369e+000	 2.1514967687e+000	-6.1098539303e-001
 2.9261741528e+000	 2.1817435293e+000	-6.4203132207e-001
 2.9035363852e+000	 2.2117812866e+000	-6.7516068624e-001
 2.8805742536e+000	 2.2416047755e+000	-7.1044281751e-001
 2.8572907893e+000	 2.2712087851e+000	-7.4794385812e-001
 2.8336891347e+000	 2.3005881613e+000	-7.8772745293e-001
 3.0759585037e+000	 2.0109958437e+000	-4.7932438773e-001
 3.0551828962e+000	 2.0424207379e+000	-4.9680678547e-001
 3.0340647976e+000	 2.0736624132e+000	-5.1680924593e-001
 3.0126065673e+000	 2.1047153419e+000	-5.3938871121e-001
 2.9908106825e+000	 2.1355740356e+000	-5.6459466306e-001
 2.9686797371e+000	 2.1662330480e+000	-5.9246981088e-001
 2.9462164415e+000	 2.1966869781e+000	-6.2305079749e-001
 2.9234236207e+000	 2.2269304735e+000	-6.5636892016e-001
 2.9003042142e+000	 2.2569582329e+000	-6.9245086451e-001
 2.8768612741e+000	 2.2867650096e+000	-7.3131944870e-001
 2.8530979643e+000	 2.3163456145e+000	-7.7299437551e-001
 3.0968833915e+000	 2.0246760875e+000	-4.7015479140e-001
 3.0759664533e+000	 2.0563147565e+000	-4.8265017256e-001
 3.0547046942e+000	 2.0877689602e+000	-4.9851319625e-001
 3.0331004896e+000	 2.1190331333e+000	-5.1776238447e-001
 3.0111563334e+000	 2.1501017501e+000	-5.4040784692e-001
 2.9888748374e+000	 2.1809693272e+000	-5.6645202197e-001
 2.9662587302e+000	 2.2116304270e+000	-5.9589043716e-001
 2.9433108562e+000	 2.2420796604e+000	-6.2871248627e-001
 2.9200341748e+000	 2.2723116903e+000	-6.6490222084e-001
 2.8964317590e+000	 2.3023212342e+000	-7.0443915313e-001
 2.8725067940e+000	 2.3321030677e+000	-7.4729906810e-001
 3.1178082793e+000	 2.0383563313e+000	-4.5681285648e-001
 3.0967500104e+000	 2.0702087752e+000	-4.6369514038e-001
 3.0753445908e+000	 2.1018755072e+000	-4.7478563034e-001
 3.0535944118e+000	 2.1333509248e+000	-4.9006440669e-001
 3.0315019843e+000	 2.1646294646e+000	-5.0950218965e-001
 3.0090699376e+000	 2.1957056065e+000	-5.3306113375e-001
 2.9863010189e+000	 2.2265738758e+000	-5.6069564319e-001
 2.9631980917e+000	 2.2572288473e+000	-5.9235320549e-001
 2.9397641355e+000	 2.2876651476e+000	-6.2797524070e-001
 2.9160022438e+000	 2.3178774588e+000	-6.6749796358e-001
 2.8919156237e+000	 2.3478605208e+000	-7.1085325580e-001
 3.1387331671e+000	 2.0520365752e+000	-4.1774060690e-001
 3.1175335675e+000	 2.0841027938e+000	-4.4000761354e-001
 3.0959844873e+000	 2.1159820543e+000	-4.4570782845e-001
 3.0740883340e+000	 2.1476687162e+000	-4.5639157057e-001
 3.0518476352e+000	 2.1791571792e+000	-4.7199014425e-001
 3.0292650379e+000	 2.2104418857e+000	-4.9242539818e-001
 3.0063433076e+000	 2.2415173246e+000	-5.1761059599e-001
 2.9830853273e+000	 2.2723780342e+000	-5.4745130669e-001
 2.9594940961e+000	 2.3030186050e+000	-5.8184631205e-001
 2.9355727287e+000	 2.3334336833e+000	-6.2068852816e-001
 2.9113244534e+000	 2.3636179740e+000	-6.6386593820e-001
 2.7172361565e+000	 2.2060434424e+000	-6.3369454425e-001
 2.6943024371e+000	 2.2339951605e+000	-6.3219513440e-001
 2.6710699438e+000	 2.2617217679e+000	-6.3741605619e-001
 2.6475420007e+000	 2.2892185031e+000	-6.4909950379e-001
 2.6237220324e+000	 2.3164806705e+000	-6.6698207346e-001
 2.5996135628e+000	 2.3435036429e+000	-6.9079569544e-001
 2.5752202129e+000	 2.3702828639e+000	-7.2026856720e-001
 2.5505456993e+000	 2.3968138509e+000	-7.5512608500e-001
 2.5255938321e+000	 2.4230921970e+000	-7.9509177140e-001
 2.5003685132e+000	 2.4491135740e+000	-8.3988819581e-001
 2.4748737342e+000	 2.4748737342e+000	-7.4492438580e-001
 2.7366449862e+000	 2.2218008955e+000	-6.8934605158e-001
 2.7135474545e+000	 2.2499522688e+000	-6.8201570348e-001
 2.6901490148e+000	 2.2778769234e+000	-6.8109233531e-001
 2.6664530150e+000	 2.3055700638e+000	-6.8634341415e-001
 2.6424629041e+000	 2.3330269610e+000	-6.9753126376e-001
 2.6181822311e+000	 2.3602429546e+000	-7.1441398520e-001
 2.5936146430e+000	 2.3872134558e+000	-7.3674637784e-001
 2.5687638828e+000	 2.4139339499e+000	-7.6428085807e-001
 2.5436337880e+000	 2.4403999984e+000	-7.9676837297e-001
 2.5182282883e+000	 2.4666072423e+000	-8.3395930621e-001
 2.4925514037e+000	 2.4925514037e+000	-8.3381843743e-001
 2.7560538159e+000	 2.2375583487e+000	-7.3270219536e-001
 2.7327924719e+000	 2.2659093771e+000	-7.2033341248e-001
 2.7092280859e+000	 2.2940320788e+000	-7.1406280729e-001
 2.6853640292e+000	 2.3219216245e+000	-7.1368246162e-001
 2.6612037757e+000	 2.3495732515e+000	-7.1897976726e-001
 2.6367508994e+000	 2.3769822663e+000	-7.2973833613e-001
 2.6120090731e+000	 2.4041440477e+000	-7.4573890996e-001
 2.5869820664e+000	 2.4310540488e+000	-7.6676026688e-001
 2.5616737440e+000	 2.4577077999e+000	-7.9258012217e-001
 2.5360880634e+000	 2.4841009107e+000	-8.2297602037e-001
 2.5102290732e+000	 2.5102290732e+000	-8.5812027038e-001
 2.7754626456e+000	 2.2533158019e+000	-7.6399317113e-001
 2.7520374893e+000	 2.2818664854e+000	-7.4736398559e-001
 2.7283071569e+000	 2.3101872343e+000	-7.3652856647e-001
 2.7042750435e+000	 2.3382731853e+000	-7.3130295706e-001
 2.6799446474e+000	 2.3661195420e+000	-7.3149896266e-001
 2.6553195677e+000	 2.3937215781e+000	-7.3692505117e-001
 2.6304035032e+000	 2.4210746396e+000	-7.4738725230e-001
 2.6052002500e+000	 2.4481741477e+000	-7.6269005292e-001
 2.5797136999e+000	 2.4750156013e+000	-7.8263728563e-001
 2.5539478385e+000	 2.5015945791e+000	-8.0716415176e-001
 2.5279067427e+000	 2.5279067427e+000	-8.3738635916e-001
 2.7948714753e+000	 2.2690732550e+000	-7.8344582231e-001
 2.7712825068e+000	 2.2978235937e+000	-7.6332026326e-001
 2.7473862279e+000	 2.3263423898e+000	-7.4868829509e-001
 2.7231860578e+000	 2.3546247460e+000	-7.3938927377e-001
 2.6986855190e+000	 2.3826658325e+000	-7.3525876838e-001
 2.6738882360e+000	 2.4104608898e+000	-7.3612945277e-001
 2.6487979333e+000	 2.4380052315e+000	-7.4183199527e-001
 2.6234184335e+000	 2.4652942467e+000	-7.5219594352e-001
 2.5977536559e+000	 2.4923234027e+000	-7.6705060177e-001
 2.5718076136e+000	 2.5190882475e+000	-7.8826800193e-001
 2.5455844123e+000	 2.5455844123e+000	-8.1350188379e-001
 2.8142803050e+000	 2.2848307082e+000	-7.9128375583e-001
 2.7905275242e+000	 2.3137807020e+000	-7.6841230171e-001
 2.7664652989e+000	 2.3424975453e+000	-7.5073834639e-001
 2.7420970721e+000	 2.3709763067e+000	-7.3812391428e-001
 2.7174263907e+000	 2.3992121230e+000	-7.3042769291e-001
 2.6924569043e+000	 2.4272002015e+000	-7.2750591676e-001
 2.6671923634e+000	 2.4549358234e+000	-7.2921324811e-001
 2.6416366171e+000	 2.4824143456e+000	-7.3540365228e-001
 2.6157936118e+000	 2.5096312041e+000	-7.4732047629e-001
 2.5896673887e+000	 2.5365819159e+000	-7.6558003348e-001
 2.5632620818e+000	 2.5632620818e+000	-7.8670909286e-001
 2.8336891347e+000	 2.3005881613e+000	-7.8772745293e-001
 2.8097725416e+000	 2.3297378103e+000	-7.6284746819e-001
 2.7855443700e+000	 2.3586527008e+000	-7.4287282446e-001
 2.7610080864e+000	 2.3873278675e+000	-7.2768757441e-001
 2.7361672624e+000	 2.4157584135e+000	-7.1717288311e-001
 2.7110255726e+000	 2.4439395133e+000	-7.1120790471e-001
 2.6855867935e+000	 2.4718664152e+000	-7.0967065533e-001
 2.6598548007e+000	 2.4995344445e+000	-7.1243887961e-001
 2.6338335677e+000	 2.5269390055e+000	-7.2407748319e-001
 2.6075271638e+000	 2.5540755843e+000	-7.3935576346e-001
 2.5809397513e+000	 2.5809397513e+000	-7.5725158543e-001
 2.8530979643e+000	 2.3163456145e+000	-7.7299437551e-001
 2.8290175590e+000	 2.3456949186e+000	-7.4683053253e-001
 2.8046234410e+000	 2.3748078563e+000	-7.2528366068e-001
 2.7799191007e+000	 2.4036794282e+000	-7.0825920476e-001
 2.7549081340e+000	 2.4323047040e+000	-6.9566017053e-001
 2.7295942409e+000	 2.4606788250e+000	-6.8738799507e-001
 2.7039812235e+000	 2.4887970071e+000	-6.8334341261e-001
 2.6780729842e+000	 2.5166545435e+000	-6.8682141709e-001
 2.6518735237e+000	 2.5442468069e+000	-6.9668722279e-001
 2.6253869389e+000	 2.5715692527e+000	-7.0985157305e-001
 2.5986174209e+000	 2.5986174209e+000	-7.2537426512e-001
 2.8725067940e+000	 2.3321030677e+000	-7.4729906810e-001
 2.8482625764e+000	 2.3616520268e+000	-7.2056375482e-001
 2.8237025120e+000	 2.3909630117e+000	-6.9816068714e-001
 2.7988301150e+000	 2.4200309889e+000	-6.8001606963e-001
 2.7736490057e+000	 2.4488509945e+000	-6.6605411581e-001
 2.7481629093e+000	 2.4774181367e+000	-6.5619791299e-001
 2.7223756536e+000	 2.5057275990e+000	-6.5165137827e-001
 2.6962911678e+000	 2.5337746424e+000	-6.5654208238e-001
 2.6699134796e+000	 2.5615546083e+000	-6.6541777057e-001
 2.6432467140e+000	 2.5890629210e+000	-6.7732467837e-001
 2.6162950904e+000	 2.6162950904e+000	-6.9132329604e-001
 2.8919156237e+000	 2.3478605208e+000	-7.1085325580e-001
 2.8675075938e+000	 2.3776091351e+000	-6.8424696968e-001
 2.8427815831e+000	 2.4071181672e+000	-6.6169170709e-001
 2.8177411293e+000	 2.4363825497e+000	-6.4313380364e-001
 2.7923898773e+000	 2.4653972850e+000	-6.2851805136e-001
 2.7667315776e+000	 2.4941574485e+000	-6.1778855895e-001
 2.7407700837e+000	 2.5226581909e+000	-6.1677338637e-001
 2.7145093514e+000	 2.5508947413e+000	-6.2179938944e-001
 2.6879534356e+000	 2.5788624097e+000	-6.3053759885e-001
 2.6611064891e+000	 2.6065565894e+000	-6.4203310249e-001
 2.6339727599e+000	 2.6339727599e+000	-6.5534606047e-001
 2.9113244534e+000	 2.3636179740e+000	-6.6386593820e-001
 2.8867526112e+000	 2.3935662434e+000	-6.3807766709e-001
 2.8618606541e+000	 2.4232733227e+000	-6.1606256258e-001
 2.8366521436e+000	 2.4527341104e+000	-5.9778646603e-001
 2.8111307490e+000	 2.4819435755e+000	-5.8321412231e-001
 2.7853002459e+000	 2.5108967602e+000	-5.7525630170e-001
 2.7591645138e+000	 2.5395887828e+000	-5.7686222109e-001
 2.7327275349e+000	 2.5680148403e+000	-5.8287205590e-001
 2.7059933915e+000	 2.5961702111e+000	-5.9231556355e-001
 2.6789662642e+000	 2.6240502578e+000	-6.0423564853e-001
 2.6516504295e+000	 2.6516504295e+000	-6.1769111829e-001
 2.4748737342e+000	 2.4748737342e+000	-7.4492438580e-001
 2.4491135740e+000	 2.5003685132e+000	-7.2624220578e-001
 2.4230921970e+000	 2.5255938321e+000	-7.1509106705e-001
 2.3968138509e+000	 2.5505456993e+000	-7.1087279446e-001
 2.3702828639e+000	 2.5752202129e+000	-7.1326110634e-001
 2.3435036429e+000	 2.5996135628e+000	-7.2195647812e-001
 2.3164806705e+000	 2.6237220324e+000	-7.3668709332e-001
 2.2892185031e+000	 2.6475420007e+000	-7.5720968683e-001
 2.2617217679e+000	 2.6710699438e+000	-7.8331027838e-001
 2.2339951605e+000	 2.6943024371e+000	-8.1480479452e-001
 2.2060434424e+000	 2.7172361565e+000	-8.5153957796e-001
 2.4925514037e+000	 2.4925514037e+000	-8.3381843743e-001
 2.4666072423e+000	 2.5182282883e+000	-8.1080164732e-001
 2.4403999984e+000	 2.5436337880e+000	-7.9456155537e-001
 2.4139339499e+000	 2.5687638828e+000	-7.8458750914e-001
 2.3872134558e+000	 2.5936146430e+000	-7.8054268326e-001
 2.3602429546e+000	 2.6181822311e+000	-7.8211879394e-001
 2.3330269610e+000	 2.6424629041e+000	-7.8903707180e-001
 2.3055700638e+000	 2.6664530150e+000	-8.0104912279e-001
 2.2778769234e+000	 2.6901490148e+000	-8.1793767530e-001
 2.2499522688e+000	 2.7135474545e+000	-8.3951721167e-001
 2.2218008955e+000	 2.7366449862e+000	-8.6563448288e-001
 2.5102290732e+000	 2.5102290732e+000	-8.5812027038e-001
 2.4841009107e+000	 2.5360880634e+000	-8.8690380973e-001
 2.4577077999e+000	 2.5616737440e+000	-8.6564700194e-001
 2.4310540488e+000	 2.5869820664e+000	-8.4997983241e-001
 2.4041440477e+000	 2.6120090731e+000	-8.3955457095e-001
 2.3769822663e+000	 2.6367508994e+000	-8.3405383997e-001
 2.3495732515e+000	 2.6612037757e+000	-8.3319160951e-001
 2.3219216245e+000	 2.6853640292e+000	-8.3671407645e-001
 2.2940320788e+000	 2.7092280859e+000	-8.4440042554e-001
 2.2659093771e+000	 2.7327924719e+000	-8.5606347085e-001
 2.2375583487e+000	 2.7560538159e+000	-8.7155017603e-001
 2.5279067427e+000	 2.5279067427e+000	-8.3738635916e-001
 2.5015945791e+000	 2.5539478385e+000	-9.4677644824e-001
 2.4750156013e+000	 2.5797136999e+000	-9.2885328848e-001
 2.4481741477e+000	 2.6052002500e+000	-9.0755603104e-001
 2.4210746396e+000	 2.6304035032e+000	-8.9080294946e-001
 2.3937215781e+000	 2.6553195677e+000	-8.7826723575e-001
 2.3661195420e+000	 2.6799446474e+000	-8.6965529033e-001
 2.3382731853e+000	 2.7042750435e+000	-8.6470761977e-001
 2.3101872343e+000	 2.7283071569e+000	-8.6319961238e-001
 2.2818664854e+000	 2.7520374893e+000	-8.6494218972e-001
 2.2533158019e+000	 2.7754626456e+000	-8.6978233284e-001
 2.5455844123e+000	 2.5455844123e+000	-8.1350188379e-001
 2.5190882475e+000	 2.5718076136e+000	-9.1905127249e-001
 2.4923234027e+000	 2.5977536559e+000	-9.8468782440e-001
 2.4652942467e+000	 2.6234184335e+000	-9.5782394601e-001
 2.4380052315e+000	 2.6487979333e+000	-9.3479562404e-001
 2.4104608898e+000	 2.6738882360e+000	-9.1526628162e-001
 2.3826658325e+000	 2.6986855190e+000	-8.9893443891e-001
 2.3546247460e+000	 2.7231860578e+000	-8.8553462998e-001
 2.3263423898e+000	 2.7473862279e+000	-8.7483819319e-001
 2.2978235937e+000	 2.7712825068e+000	-8.6665393325e-001
 2.2690732550e+000	 2.7948714753e+000	-8.6082865365e-001
 2.5632620818e+000	 2.5632620818e+000	-7.8670909286e-001
 2.5365819159e+000	 2.5896673887e+000	-8.8856417951e-001
 2.5096312041e+000	 2.6157936118e+000	-9.8752406956e-001
 2.4824143456e+000	 2.6416366171e+000	-1.0012929382e+000
 2.4549358234e+000	 2.6671923634e+000	-9.7204196914e-001
 2.4272002015e+000	 2.6924569043e+000	-9.4555990073e-001
 2.3992121230e+000	 2.7174263907e+000	-9.2153706072e-001
 2.3709763067e+000	 2.7420970721e+000	-8.9970172734e-001
 2.3424975453e+000	 2.7664652989e+000	-8.7982093488e-001
 2.3137807020e+000	 2.7905275242e+000	-8.6170114666e-001
 2.2848307082e+000	 2.8142803050e+000	-8.4518879387e-001
 2.5809397513e+000	 2.5809397513e+000	-7.5725158543e-001
 2.5540755843e+000	 2.6075271638e+000	-8.5556164138e-001
 2.5269390055e+000	 2.6338335677e+000	-9.5030505424e-001
 2.4995344445e+000	 2.6598548007e+000	-1.0384738363e+000
 2.4718664152e+000	 2.6855867935e+000	-1.0030528747e+000
 2.4439395133e+000	 2.7110255726e+000	-9.6965858349e-001
 2.4157584135e+000	 2.7361672624e+000	-9.3797278442e-001
 2.3873278675e+000	 2.7610080864e+000	-9.0771721539e-001
 2.3586527008e+000	 2.7855443700e+000	-8.7865435186e-001
 2.3297378103e+000	 2.8097725416e+000	-8.5058809095e-001
 2.3005881613e+000	 2.8336891347e+000	-8.2336429707e-001
 2.5986174209e+000	 2.5986174209e+000	-7.2537426512e-001
 2.5715692527e+000	 2.6253869389e+000	-8.2029146841e-001
 2.5442468069e+000	 2.6518735237e+000	-9.1096704025e-001
 2.5166545435e+000	 2.6780729842e+000	-9.9646763480e-001
 2.4887970071e+000	 2.7039812235e+000	-1.0283406944e+000
 2.4606788250e+000	 2.7295942409e+000	-9.8807433424e-001
 2.4323047040e+000	 2.7549081340e+000	-9.4875280668e-001
 2.4036794282e+000	 2.7799191007e+000	-9.1009102378e-001
 2.3748078563e+000	 2.8046234410e+000	-8.7184664667e-001
 2.3456949186e+000	 2.8290175590e+000	-8.3382078121e-001
 2.3163456145e+000	 2.8530979643e+000	-7.9585853070e-001
 2.6162950904e+000	 2.6162950904e+000	-6.9132329604e-001
 2.5890629210e+000	 2.6432467140e+000	-7.8300276393e-001
 2.5615546083e+000	 2.6699134796e+000	-8.6976176453e-001
 2.5337746424e+000	 2.6962911678e+000	-9.5063835352e-001
 2.5057275990e+000	 2.7223756536e+000	-1.0247002143e+000
 2.4774181367e+000	 2.7481629093e+000	-1.0013206201e+000
 2.4488509945e+000	 2.7736490057e+000	-9.5438983919e-001
 2.4200309889e+000	 2.7988301150e+000	-9.0733465326e-001
 2.3909630117e+000	 2.8237025120e+000	-8.5990765287e-001
 2.3616520268e+000	 2.8482625764e+000	-8.1190692729e-001
 2.3321030677e+000	 2.8725067940e+000	-7.6317662453e-001
 2.6339727599e+000	 2.6339727599e+000	-6.5534606047e-001
 2.6065565894e+000	 2.6611064891e+000	-7.4394588089e-001
 2.5788624097e+000	 2.6879534356e+000	-8.2694224891e-001
 2.5508947413e+000	 2.7145093514e+000	-9.0334396655e-001
 2.5226581909e+000	 2.7407700837e+000	-9.7219086187e-001
 2.4941574485e+000	 2.7667315776e+000	-1.0099123220e+000
 2.4653972850e+000	 2.7923898773e+000	-9.5539805785e-001
 2.4363825497e+000	 2.8177411293e+000	-8.9996112301e-001
 2.4071181672e+000	 2.8427815831e+000	-8.4334878039e-001
 2.3776091351e+000	 2.8675075938e+000	-7.8535587700e-001
 2.3478605208e+000	 2.8919156237e+000	-7.2582541145e-001
 2.6516504295e+000	 2.6516504295e+000	-6.1769111829e-001
 2.6240502578e+000	 2.6789662642e+000	-7.0337238022e-001
 2.5961702111e+000	 2.7059933915e+000	-7.8276275736e-001
 2.5680148403e+000	 2.7327275349e+000	-8.5484113761e-001
 2.5395887828e+000	 2.7591645138e+000	-9.1861884855e-001
 2.5108967602e+000	 2.7853002459e+000	-9.7314219753e-001
 2.4819435755e+000	 2.8111307490e+000	-9.5229305394e-001
 2.4527341104e+000	 2.8366521436e+000	-8.8848491998e-001
 2.4232733227e+000	 2.8618606541e+000	-8.2268296292e-001
 2.3935662434e+000	 2.8867526112e+000	-7.5467856145e-001
 2.3636179740e+000	 2.9113244534e+000	-6.8431337077e-001
 2.2060434424e+000	 2.7172361565e+000	-8.5153957796e-001
 2.1778714378e+000	 2.7398678801e+000	-8.5800748711e-001
 2.1494840313e+000	 2.7621944897e+000	-8.5038762481e-001
 2.1208861652e+000	 2.7842129721e+000	-8.2919263871e-001
 2.0920828363e+000	 2.8059204205e+000	-7.9498221891e-001
 2.0630790933e+000	 2.8273140354e+000	-7.4836234738e-001
 2.0338800339e+000	 2.8483911262e+000	-6.8998441902e-001
 2.0044908018e+000	 2.8691491118e+000	-6.2054423696e-001
 1.9749165840e+000	 2.8895855216e+000	-5.4078088537e-001
 1.9451626075e+000	 2.9096979964e+000	-4.5147548326e-001
 1.9152341368e+000	 2.9294842893e+000	-3.5344982316e-001
 2.2218008955e+000	 2.7366449862e+000	-8.6563448288e-001
 2.1934276623e+000	 2.7594383650e+000	-8.7276812743e-001
 2.1648374887e+000	 2.7819244504e+000	-8.6694343060e-001
 2.1360353521e+000	 2.8041002076e+000	-8.4864080273e-001
 2.1070262851e+000	 2.8259627092e+000	-8.1838802079e-001
 2.0778153725e+000	 2.8475091357e+000	-7.7675951027e-001
 2.0484077484e+000	 2.8687367771e+000	-7.2437549629e-001
 2.0188085932e+000	 2.8896430340e+000	-6.6190102677e-001
 1.9890231310e+000	 2.9102254181e+000	-5.9004487063e-001
 1.9590566262e+000	 2.9304815535e+000	-5.0955829476e-001
 1.9289143807e+000	 2.9504091771e+000	-4.2123372352e-001
 2.2375583487e+000	 2.7560538159e+000	-8.7155017603e-001
 2.2089838869e+000	 2.7790088499e+000	-8.7854979843e-001
 2.1801909460e+000	 2.8016544110e+000	-8.7368317254e-001
 2.1511845390e+000	 2.8239874432e+000	-8.5739879280e-001
 2.1219697340e+000	 2.8460049979e+000	-8.3019288821e-001
 2.0925516518e+000	 2.8677042359e+000	-7.9260873613e-001
 2.0629354629e+000	 2.8890824280e+000	-7.4523584293e-001
 2.0331263847e+000	 2.9101369562e+000	-6.8870899427e-001
 2.0031296780e+000	 2.9308653147e+000	-6.2370717817e-001
 1.9729506448e+000	 2.9512651106e+000	-5.5095238422e-001
 1.9425946245e+000	 2.9713340648e+000	-4.7120828303e-001
 2.2533158019e+000	 2.7754626456e+000	-8.6978233284e-001
 2.2245401114e+000	 2.7985793347e+000	-8.7586101615e-001
 2.1955444034e+000	 2.8213843716e+000	-8.7112826744e-001
 2.1663337259e+000	 2.8438746787e+000	-8.5600097937e-001
 2.1369131828e+000	 2.8660472866e+000	-8.3094419089e-001
 2.1072879310e+000	 2.8878993362e+000	-7.9647043250e-001
 2.0774631775e+000	 2.9094280789e+000	-7.5313893589e-001
 2.0474441761e+000	 2.9306308784e+000	-7.0155471077e-001
 2.0172362251e+000	 2.9515052113e+000	-6.4236749191e-001
 1.9868446634e+000	 2.9720486678e+000	-5.7627055997e-001
 1.9562748683e+000	 2.9922589526e+000	-5.0399944004e-001
 2.2690732550e+000	 2.7948714753e+000	-8.6082865365e-001
 2.2400963360e+000	 2.8181498196e+000	-8.6521195173e-001
 2.2108978608e+000	 2.8411143323e+000	-8.5980140685e-001
 2.1814829128e+000	 2.8637619142e+000	-8.4498261677e-001
 2.1518566316e+000	 2.8860895753e+000	-8.2118978136e-001
 2.1220242103e+000	 2.9080944364e+000	-7.8890507868e-001
 2.0919908920e+000	 2.9297737298e+000	-7.4865790315e-001
 2.0617619676e+000	 2.9511248007e+000	-7.0102396819e-001
 2.0313427721e+000	 2.9721451079e+000	-6.4662427667e-001
 2.0007386820e+000	 2.9928322249e+000	-5.8612396249e-001
 1.9699551122e+000	 3.0131838404e+000	-5.2023100737e-001
 2.2848307082e+000	 2.8142803050e+000	-8.4518879387e-001
 2.2556525605e+000	 2.8377203044e+000	-8.4711437437e-001
 2.2262513181e+000	 2.8608442929e+000	-8.4022651302e-001
 2.1966320997e+000	 2.8836491497e+000	-8.2487981272e-001
 2.1668000805e+000	 2.9061318640e+000	-8.0147797832e-001
 2.1367604895e+000	 2.9282895367e+000	-7.7047322329e-001
 2.1065186065e+000	 2.9501193807e+000	-7.3236553563e-001
 2.0760797590e+000	 2.9716187229e+000	-6.8770180590e-001
 2.0454493191e+000	 2.9927850045e+000	-6.3707482021e-001
 2.0146327007e+000	 3.0136157820e+000	-5.8112212190e-001
 1.9836353560e+000	 3.0341087282e+000	-5.2052474566e-001
 2.3005881613e+000	 2.8336891347e+000	-8.2336429707e-001
 2.2712087851e+000	 2.8572907893e+000	-8.2208159660e-001
 2.2416047755e+000	 2.8805742536e+000	-8.1292869684e-001
 2.2117812866e+000	 2.9035363852e+000	-7.9622949908e-001
 2.1817435293e+000	 2.9261741528e+000	-7.7235755070e-001
 2.1514967687e+000	 2.9484846369e+000	-7.4173548188e-001
 2.1210463210e+000	 2.9704650316e+000	-7.0483429884e-001
 2.0903975504e+000	 2.9921126451e+000	-6.6217253653e-001
 2.0595558661e+000	 3.0134249010e+000	-6.1431527356e-001
 2.0285267193e+000	 3.0343993391e+000	-5.6187301311e-001
 1.9973155998e+000	 3.0550336159e+000	-5.0550043362e-001
 2.3163456145e+000	 2.8530979643e+000	-7.9585853070e-001
 2.2867650096e+000	 2.8768612741e+000	-7.9062842173e-001
 2.2569582329e+000	 2.9003042142e+000	-7.7843421735e-001
 2.2269304735e+000	 2.9234236207e+000	-7.5956940388e-001
 2.1966869781e+000	 2.9462164415e+000	-7.3437770233e-001
 2.1662330480e+000	 2.9686797371e+000	-7.0325253466e-001
 2.1355740356e+000	 2.9908106825e+000	-6.6663634389e-001
 2.1047153419e+000	 3.0126065673e+000	-6.2501977069e-001
 2.0736624132e+000	 3.0340647976e+000	-5.7894068967e-001
 2.0424207379e+000	 3.0551828962e+000	-5.2898310872e-001
 2.0109958437e+000	 3.0759585037e+000	-4.7577593543e-001
 2.3321030677e+000	 2.8725067940e+000	-7.6317662453e-001
 2.3023212342e+000	 2.8964317590e+000	-7.5327109356e-001
 2.2723116903e+000	 2.9200341748e+000	-7.3727044298e-001
 2.2420796604e+000	 2.9433108562e+000	-7.1543802436e-001
 2.2116304270e+000	 2.9662587302e+000	-6.8808805722e-001
 2.1809693272e+000	 2.9888748374e+000	-6.5558512433e-001
 2.1501017501e+000	 3.0111563334e+000	-6.1834351812e-001
 2.1190331333e+000	 3.0331004896e+000	-5.7682644065e-001
 2.0877689602e+000	 3.0547046942e+000	-5.3154506049e-001
 2.0563147565e+000	 3.0759664533e+000	-4.8305742976e-001
 2.0246760875e+000	 3.0968833915e+000	-4.3196726547e-001
 2.3478605208e+000	 2.8919156237e+000	-7.2582541145e-001
 2.3178774588e+000	 2.9160022438e+000	-7.1052724801e-001
 2.2876651476e+000	 2.9397641355e+000	-6.8996581430e-001
 2.2572288473e+000	 2.9631980917e+000	-6.6437460119e-001
 2.2265738758e+000	 2.9863010189e+000	-6.3403864550e-001
 2.1957056065e+000	 3.0090699376e+000	-5.9929405396e-001
 2.1646294646e+000	 3.0315019843e+000	-5.6052737531e-001
 2.1333509248e+000	 3.0535944118e+000	-5.1817482314e-001
 2.1018755072e+000	 3.0753445908e+000	-4.7272135260e-001
 2.0702087752e+000	 3.0967500104e+000	-4.2469959444e-001
 2.0383563313e+000	 3.1178082793e+000	-3.7468865033e-001
 2.3636179740e+000	 2.9113244534e+000	-6.8431337077e-001
 2.3334336833e+000	 2.9355727287e+000	-6.6291586669e-001
 2.3030186050e+000	 2.9594940961e+000	-6.3704980829e-001
 2.2723780342e+000	 2.9830853273e+000	-6.0691909368e-001
 2.2415173246e+000	 3.0063433076e+000	-5.7277988988e-001
 2.2104418857e+000	 3.0292650379e+000	-5.3494018498e-001
 2.1791571792e+000	 3.0518476352e+000	-4.9375918545e-001
 2.1476687162e+000	 3.0740883340e+000	-4.4964656119e-001
 2.1159820543e+000	 3.0959844873e+000	-4.0306154140e-001
 2.0841027938e+000	 3.1175335675e+000	-3.5451186485e-001
 2.0520365752e+000	 3.1387331671e+000	-3.0097397200e-001
 1.9152341368e+000	 2.9294842893e+000	-3.5344982316e-001
 1.8851364706e+000	 2.9489422659e+000	-7.1662716555e-001
 1.8548749386e+000	 2.9680699052e+000	-7.5223230893e-001
 1.8244548993e+000	 2.9868653000e+000	-6.3119027784e-001
 1.7938817362e+000	 3.0053266573e+000	-5.3031828847e-001
 1.7631608551e+000	 3.0234522981e+000	-4.4912191913e-001
 1.7322976814e+000	 3.0412406585e+000	-3.8709417708e-001
 1.7012976567e+000	 3.0586902889e+000	-3.4371572320e-001
 1.6701662359e+000	 3.0757998544e+000	-3.1845509411e-001
 1.6389088846e+000	 3.0925681348e+000	-3.1076892199e-001
 1.6075310757e+000	 3.1089940239e+000	-3.2010215319e-001
 1.9289143807e+000	 2.9504091771e+000	-4.2123372352e-001
 1.8986017311e+000	 2.9700061392e+000	-7.6481796098e-001
 1.8681240453e+000	 2.9892704045e+000	-1.0152980075e+000
 1.8374867200e+000	 3.0082000522e+000	-8.8100565879e-001
 1.8066951771e+000	 3.0267932762e+000	-7.6780126517e-001
 1.7757548612e+000	 3.0450483860e+000	-6.7512831868e-001
 1.7446712363e+000	 3.0629638061e+000	-6.0241766698e-001
 1.7134497828e+000	 3.0805380767e+000	-5.4908779498e-001
 1.6820959948e+000	 3.0977698534e+000	-5.1454510278e-001
 1.6506153766e+000	 3.1146579071e+000	-4.9818418046e-001
 1.6190134405e+000	 3.1312011241e+000	-4.7822271929e-001
 1.9425946245e+000	 2.9713340648e+000	-4.7120828303e-001
 1.9120669916e+000	 2.9910700125e+000	-7.9342656582e-001
 1.8813731520e+000	 3.0104709038e+000	-1.1416177658e+000
 1.8505185407e+000	 3.0295348043e+000	-1.1004098659e+000
 1.8195086181e+000	 3.0482598952e+000	-9.7324049091e-001
 1.7883488673e+000	 3.0666444738e+000	-8.6744633368e-001
 1.7570447912e+000	 3.0846869536e+000	-7.8239702780e-001
 1.7256019089e+000	 3.1023858645e+000	-7.1744983568e-001
 1.6940257536e+000	 3.1197398523e+000	-6.7194998137e-001
 1.6623218687e+000	 3.1367476795e+000	-6.0790478308e-001
 1.6304958054e+000	 3.1534082243e+000	-5.4909989480e-001
 1.9562748683e+000	 2.9922589526e+000	-5.0399944004e-001
 1.9255322521e+000	 3.0121338859e+000	-8.0310504033e-001
 1.8946222587e+000	 3.0316714032e+000	-1.1287981111e+000
 1.8635503614e+000	 3.0508695565e+000	-1.2898049159e+000
 1.8323220591e+000	 3.0697265142e+000	-1.1470658301e+000
 1.8009428734e+000	 3.0882405617e+000	-1.0265337517e+000
 1.7694183460e+000	 3.1064101012e+000	-9.2751803295e-001
 1.7377540350e+000	 3.1242336522e+000	-8.4931565494e-001
 1.7059555124e+000	 3.1417098513e+000	-7.4275336768e-001
 1.6740283607e+000	 3.1588374519e+000	-6.5666169731e-001
 1.6419781702e+000	 3.1756153244e+000	-5.9348139969e-001
 1.9699551122e+000	 3.0131838404e+000	-5.2023100737e-001
 1.9389975126e+000	 3.0331977592e+000	-7.9450249216e-001
 1.9078713654e+000	 3.0528719025e+000	-1.0959467059e+000
 1.8765821821e+000	 3.0722043086e+000	-1.4237468965e+000
 1.8451355001e+000	 3.0911931332e+000	-1.2897016756e+000
 1.8135368796e+000	 3.1098366495e+000	-1.1528420377e+000
 1.7817919009e+000	 3.1281332488e+000	-1.0301095087e+000
 1.7499061612e+000	 3.1460814400e+000	-8.9079529329e-001
 1.7178852712e+000	 3.1636798503e+000	-7.7458823616e-001
 1.6857348527e+000	 3.1809272243e+000	-6.8167459695e-001
 1.6534605350e+000	 3.1978224246e+000	-6.1221326789e-001
 1.9836353560e+000	 3.0341087282e+000	-5.2052474566e-001
 1.9524627731e+000	 3.0542616325e+000	-7.6826517814e-001
 1.9211204721e+000	 3.0740724018e+000	-1.0437342194e+000
 1.8896140028e+000	 3.0935390607e+000	-1.3460595623e+000
 1.8579489410e+000	 3.1126597521e+000	-1.4015671369e+000
 1.8261308857e+000	 3.1314327373e+000	-1.2326048470e+000
 1.7941654558e+000	 3.1498563963e+000	-1.0599767834e+000
 1.7620582873e+000	 3.1679292278e+000	-9.1083629633e-001
 1.7298150301e+000	 3.1856498492e+000	-7.8537535148e-001
 1.6974413448e+000	 3.2030169967e+000	-6.8376064623e-001
 1.6649428998e+000	 3.2200295248e+000	-6.0613125850e-001
 1.9973155998e+000	 3.0550336159e+000	-5.0550043362e-001
 1.9659280336e+000	 3.0753255058e+000	-7.2503660192e-001
 1.9343695788e+000	 3.0952729011e+000	-9.7282778970e-001
 1.9026458236e+000	 3.1148738129e+000	-1.2479470991e+000
 1.8707623820e+000	 3.1341263711e+000	-1.4668924908e+000
 1.8387248918e+000	 3.1530288252e+000	-1.2581510939e+000
 1.8065390106e+000	 3.1715795439e+000	-1.0732782424e+000
 1.7742104134e+000	 3.1897770156e+000	-9.1247139944e-001
 1.7417447889e+000	 3.2076198482e+000	-7.7590497813e-001
 1.7091478368e+000	 3.2251067691e+000	-6.6372789867e-001
 1.6764252647e+000	 3.2422366249e+000	-5.7606120769e-001
 2.0109958437e+000	 3.0759585037e+000	-4.7577593543e-001
 1.9793932941e+000	 3.0963893791e+000	-6.6545760758e-001
 1.9476186855e+000	 3.1164734004e+000	-8.8389114487e-001
 1.9156776443e+000	 3.1362085650e+000	-1.1151669435e+000
 1.8835758230e+000	 3.1555929901e+000	-1.3614150703e+000
 1.8513188979e+000	 3.1746249130e+000	-1.2696895061e+000
 1.8189125655e+000	 3.1933026914e+000	-1.0707620958e+000
 1.7863625395e+000	 3.2116248033e+000	-8.9646583328e-001
 1.7536745477e+000	 3.2295898471e+000	-7.4695936153e-001
 1.7208543288e+000	 3.2471965415e+000	-6.2237560700e-001
 1.6879076295e+000	 3.2644437251e+000	-5.2281936620e-001
 2.0246760875e+000	 3.0968833915e+000	-4.3196726547e-001
 1.9928585546e+000	 3.1174532525e+000	-5.9016646955e-001
 1.9608677923e+000	 3.1376738998e+000	-7.6576404908e-001
 1.9287094650e+000	 3.1575433171e+000	-9.6258912404e-001
 1.8963892639e+000	 3.1770596091e+000	-1.1859659877e+000
 1.8639129040e+000	 3.1962210009e+000	-1.2679457671e+000
 1.8312861203e+000	 3.2150258390e+000	-1.0531703067e+000
 1.7985146656e+000	 3.2334725911e+000	-8.6357783250e-001
 1.7656043065e+000	 3.2515598461e+000	-6.9931299896e-001
 1.7325608209e+000	 3.2692863139e+000	-5.6049452047e-001
 1.6993899943e+000	 3.2866508253e+000	-4.4721272317e-001
 2.0383563313e+000	 3.1178082793e+000	-3.7468865033e-001
 2.0063238151e+000	 3.1385171258e+000	-4.9201904673e-001
 1.9741168990e+000	 3.1588743991e+000	-6.3559866238e-001
 1.9417412857e+000	 3.1788780693e+000	-8.0792255698e-001
 1.9092027049e+000	 3.1985262280e+000	-1.0071624096e+000
 1.8765069101e+000	 3.2178170887e+000	-1.2315049217e+000
 1.8436596752e+000	 3.2367489865e+000	-1.0212388004e+000
 1.8106667917e+000	 3.2553203789e+000	-8.1455887056e-001
 1.7775340654e+000	 3.2735298451e+000	-6.3373289954e-001
 1.7442673129e+000	 3.2913760863e+000	-4.7886717021e-001
 1.7108723591e+000	 3.3088579254e+000	-3.5003931695e-001
 2.0520365752e+000	 3.1387331671e+000	-3.0097397200e-001
 2.0197890756e+000	 3.1595809991e+000	-3.8731073641e-001
 1.9873660057e+000	 3.1800748984e+000	-5.0473934274e-001
 1.9547731064e+000	 3.2002128214e+000	-6.5133944861e-001
 1.9220161459e+000	 3.2199928470e+000	-8.2520361584e-001
 1.8891009162e+000	 3.2394131765e+000	-1.0244399114e+000
 1.8560332301e+000	 3.2584721341e+000	-9.7569766562e-001
 1.8228189179e+000	 3.2771681667e+000	-7.5015388508e-001
 1.7894638242e+000	 3.2954998440e+000	-5.5097883385e-001
 1.7559738049e+000	 3.3134658586e+000	-3.7826814316e-001
 1.7223547240e+000	 3.3310650256e+000	-2.3208853343e-001
 1.6075310757e+000	 3.1089940239e+000	-3.2010215319e-001
 1.5760382868e+000	 3.1250765300e+000	-2.6648238554e-001
 1.5444359972e+000	 3.1408147750e+000	-1.6870235179e-001
 1.5127296849e+000	 3.1562079939e+000	-8.7129512895e-002
 1.4809248240e+000	 3.1712555346e+000	-2.2206530895e-002
 1.4490268819e+000	 3.1859568571e+000	 2.5659860486e-002
 1.4170413162e+000	 3.2003115330e+000	 5.6100932321e-002
 1.3849735723e+000	 3.2143192443e+000	 6.8787934608e-002
 1.3528290804e+000	 3.2279797829e+000	 6.3433963234e-002
 1.3206132534e+000	 3.2412930498e+000	 3.9795715387e-002
 1.2883314835e+000	 3.2542590537e+000	-2.3248705536e-003
 1.6190134405e+000	 3.1312011241e+000	-4.7822271929e-001
 1.5872957031e+000	 3.1473985053e+000	-3.7109162551e-001
 1.5554676828e+000	 3.1632491662e+000	-2.7604065541e-001
 1.5235348969e+000	 3.1787523367e+000	-1.9373504768e-001
 1.4915028585e+000	 3.1939073598e+000	-1.2480760999e-001
 1.4593770739e+000	 3.2087136918e+000	-6.9856286464e-002
 1.4271630399e+000	 3.2231709011e+000	-2.9441824614e-002
 1.3948662406e+000	 3.2372786675e+000	-4.0855475409e-003
 1.3624921453e+000	 3.2510367814e+000	 5.7327634934e-003
 1.3300462052e+000	 3.2644451431e+000	-4.2312874928e-004
 1.2975338512e+000	 3.2775037612e+000	-2.2944034916e-002
 1.6304958054e+000	 3.1534082243e+000	-5.4909989480e-001
 1.5985531195e+000	 3.1697204805e+000	-4.5082892808e-001
 1.5664993685e+000	 3.1856835575e+000	-3.6103528498e-001
 1.5343401089e+000	 3.2012966795e+000	-2.8057247615e-001
 1.5020808929e+000	 3.2165591851e+000	-2.1026288029e-001
 1.4697272659e+000	 3.2314705265e+000	-1.5089505253e-001
 1.4372847636e+000	 3.2460302692e+000	-1.0322113483e-001
 1.4047589090e+000	 3.2602380906e+000	-6.7954374471e-002
 1.3721552102e+000	 3.2740937798e+000	-4.5766756188e-002
 1.3394791570e+000	 3.2875972363e+000	-3.7286753289e-002
 1.3067362190e+000	 3.3007484688e+000	-4.3097202518e-002
 1.6419781702e+000	 3.1756153244e+000	-5.9348139969e-001
 1.6098105358e+000	 3.1920424557e+000	-5.0647829828e-001
 1.5775310542e+000	 3.2081179487e+000	-4.2439647564e-001
 1.5451453210e+000	 3.2238410223e+000	-3.4827720987e-001
 1.5126589274e+000	 3.2392110103e+000	-2.7913192173e-001
 1.4800774579e+000	 3.2542273612e+000	-2.1793922400e-001
 1.4474064873e+000	 3.2688896373e+000	-1.6564207516e-001
 1.4146515774e+000	 3.2831975138e+000	-1.2314504411e-001
 1.3818182750e+000	 3.2971507783e+000	-9.1311691859e-002
 1.3489121088e+000	 3.3107493295e+000	-7.0962075972e-002
 1.3159385867e+000	 3.3239931763e+000	-6.2870382934e-002
 1.6534605350e+000	 3.1978224246e+000	-6.1221326789e-001
 1.6210679521e+000	 3.2143644309e+000	-5.3881480818e-001
 1.5885627399e+000	 3.2305523400e+000	-4.6682726651e-001
 1.5559505330e+000	 3.2463853651e+000	-3.9747922831e-001
 1.5232369618e+000	 3.2618628356e+000	-3.3197067232e-001
 1.4904276499e+000	 3.2769841959e+000	-2.7146976063e-001
 1.4575282109e+000	 3.2917490054e+000	-2.1710973553e-001
 1.4245442458e+000	 3.3061569370e+000	-1.6998593036e-001
 1.3914813399e+000	 3.3202077768e+000	-1.3115290073e-001
 1.3583450606e+000	 3.3339014227e+000	-1.0162168221e-001
 1.3251409544e+000	 3.3472378838e+000	-8.2357180260e-002
 1.6649428998e+000	 3.2200295248e+000	-6.0613125850e-001
 1.6323253685e+000	 3.2366864061e+000	-5.4860490493e-001
 1.5995944256e+000	 3.2529867312e+000	-4.8902374872e-001
 1.5667557450e+000	 3.2689297079e+000	-4.2880326616e-001
 1.5338149963e+000	 3.2845146608e+000	-3.6933155374e-001
 1.5007778420e+000	 3.2997410306e+000	-3.1196585859e-001
 1.4676499346e+000	 3.3146083735e+000	-2.5802921844e-001
 1.4344369141e+000	 3.3291163602e+000	-2.0880721838e-001
 1.4011444047e+000	 3.3432647752e+000	-1.6554487146e-001
 1.3677780124e+000	 3.3570535159e+000	-1.2944362966e-001
 1.3343433222e+000	 3.3704825914e+000	-1.0165853123e-001
 1.6764252647e+000	 3.2422366249e+000	-5.7606120769e-001
 1.6435827848e+000	 3.2590083813e+000	-5.3660670611e-001
 1.6106261113e+000	 3.2754211225e+000	-4.9167530342e-001
 1.5775609571e+000	 3.2914740508e+000	-4.4286899298e-001
 1.5443930308e+000	 3.3071664861e+000	-3.9176359172e-001
 1.5111280340e+000	 3.3224978653e+000	-3.3990501087e-001
 1.4777716583e+000	 3.3374677416e+000	-2.8880563859e-001
 1.4443295825e+000	 3.3520757833e+000	-2.3994084257e-001
 1.4108074696e+000	 3.3663217737e+000	-1.9474559982e-001
 1.3772109643e+000	 3.3802056091e+000	-1.5461126078e-001
 1.3435456899e+000	 3.3937272989e+000	-1.2088245410e-001
 1.6879076295e+000	 3.2644437251e+000	-5.2281936620e-001
 1.6548402011e+000	 3.2813303565e+000	-5.0357028311e-001
 1.6216577970e+000	 3.2978555137e+000	-4.7546483001e-001
 1.5883661691e+000	 3.3140183936e+000	-4.4029118541e-001
 1.5549710652e+000	 3.3298183113e+000	-3.9981253160e-001
 1.5214782260e+000	 3.3452547000e+000	-3.5576306522e-001
 1.4878933820e+000	 3.3603271097e+000	-3.0984412245e-001
 1.4542222509e+000	 3.3750352065e+000	-2.6372042708e-001
 1.4204705345e+000	 3.3893787721e+000	-2.1901646938e-001
 1.3866439161e+000	 3.4033577023e+000	-1.7731302314e-001
 1.3527480577e+000	 3.4169720064e+000	-1.4014380776e-001
 1.6993899943e+000	 3.2866508253e+000	-4.4721272317e-001
 1.6660976175e+000	 3.3036523318e+000	-4.5023793289e-001
 1.6326894827e+000	 3.3202899050e+000	-4.4106896509e-001
 1.5991713811e+000	 3.3365627364e+000	-4.2167989255e-001
 1.5655490997e+000	 3.3524701366e+000	-3.9402094910e-001
 1.5318284180e+000	 3.3680115347e+000	-3.6001427972e-001
 1.4980151057e+000	 3.3831864778e+000	-3.2154980785e-001
 1.4641149192e+000	 3.3979946297e+000	-2.8048122873e-001
 1.4301335993e+000	 3.4124357706e+000	-2.3862213707e-001
 1.3960768679e+000	 3.4265097956e+000	-1.9774229688e-001
 1.3619504254e+000	 3.4402167139e+000	-1.5956406069e-001
 1.7108723591e+000	 3.3088579254e+000	-3.5003931695e-001
 1.6773550338e+000	 3.3259743070e+000	-3.7734443890e-001
 1.6437211684e+000	 3.3427242962e+000	-3.8915829261e-001
 1.6099765932e+000	 3.3591070792e+000	-3.8764059454e-001
 1.5761271341e+000	 3.3751219618e+000	-3.7492835675e-001
 1.5421786100e+000	 3.3907683694e+000	-3.5313137616e-001
 1.5081368294e+000	 3.4060458459e+000	-3.2432784362e-001
 1.4740075876e+000	 3.4209540529e+000	-2.9056008219e-001
 1.4397966642e+000	 3.4354927690e+000	-2.5383042332e-001
 1.4055098197e+000	 3.4496618888e+000	-2.1609722924e-001
 1.3711527931e+000	 3.4634614215e+000	-1.7927106907e-001
 1.7223547240e+000	 3.3310650256e+000	-2.3208853343e-001
 1.6886124501e+000	 3.3482962822e+000	-2.8561732154e-001
 1.6547528541e+000	 3.3651586875e+000	-3.2039754569e-001
 1.6207818052e+000	 3.3816514220e+000	-3.3877435489e-001
 1.5867051686e+000	 3.3977737871e+000	-3.4307130592e-001
 1.5525288020e+000	 3.4135252041e+000	-3.3558559118e-001
 1.5182585531e+000	 3.4289052139e+000	-3.1858338918e-001
 1.4839002560e+000	 3.4439134760e+000	-2.9429534741e-001
 1.4494597290e+000	 3.4585497675e+000	-2.6491220665e-001
 1.4149427715e+000	 3.4728139820e+000	-2.3258057565e-001
 1.3803551609e+000	 3.4867061290e+000	-1.9939886396e-001
 1.2883314835e+000	 3.2542590537e+000	-2.3248705536e-003
 1.2559891402e+000	 3.2668779101e+000	-3.1124093994e-001
 1.2235915677e+000	 3.2791498404e+000	-2.4228928041e-001
 1.1911440823e+000	 3.2910751701e+000	-1.2054991003e-001
 1.1586519699e+000	 3.3026543284e+000	-3.8208416642e-002
 1.1261204840e+000	 3.3138878460e+000	 7.9467164731e-003
 1.0935548431e+000	 3.3247763542e+000	 2.1051287048e-002
 1.0609602284e+000	 3.3353205834e+000	 4.1654698403e-003
 1.0283417820e+000	 3.3455213614e+000	-3.9725927390e-002
 9.9570460419e-001	 3.3553796121e+000	-1.0771305638e-001
 9.6305375194e-001	 3.3648963537e+000	-1.9696047792e-001
 1.2975338512e+000	 3.2775037612e+000	-2.2944034916e-002
 1.2649604912e+000	 3.2902127523e+000	-3.0523982276e-001
 1.2323315075e+000	 3.3025723392e+000	-3.6145225066e-001
 1.1996522543e+000	 3.3145828499e+000	-2.3186600755e-001
 1.1669280554e+000	 3.3262447164e+000	-1.3875395496e-001
 1.1341642017e+000	 3.3375584734e+000	-7.8968785276e-002
 1.1013659491e+000	 3.3485247567e+000	-4.9442631863e-002
 1.0685385158e+000	 3.3591443018e+000	-4.7186799388e-002
 1.0356870804e+000	 3.3694179425e+000	-6.9291331073e-002
 1.0028167799e+000	 3.3793466093e+000	-1.1292442184e-001
 9.6993270731e-001	 3.3889313276e+000	-1.7533168633e-001
 1.3067362190e+000	 3.3007484688e+000	-4.3097202518e-002
 1.2739318422e+000	 3.3135475946e+000	-2.9964344309e-001
 1.2410714472e+000	 3.3259948381e+000	-4.6702388974e-001
 1.2081604263e+000	 3.3380905297e+000	-3.3075826555e-001
 1.1752041409e+000	 3.3498351045e+000	-2.2804678036e-001
 1.1422079195e+000	 3.3612291009e+000	-1.5580616450e-001
 1.1091770551e+000	 3.3722731592e+000	-1.1103634372e-001
 1.0761168031e+000	 3.3829680203e+000	-9.0819994492e-002
 1.0430323789e+000	 3.3933145237e+000	-9.2321933401e-002
 1.0099289557e+000	 3.4033136065e+000	-1.1278834958e-001
 9.7681166268e-001	 3.4129663016e+000	-1.4954588995e-001
 1.3159385867e+000	 3.3239931763e+000	-6.2870382934e-002
 1.2829031932e+000	 3.3368824368e+000	-2.9449944641e-001
 1.2498113870e+000	 3.3494173369e+000	-5.5947517502e-001
 1.2166685983e+000	 3.3615982095e+000	-4.1765425466e-001
 1.1834802264e+000	 3.3734254925e+000	-3.0646980047e-001
 1.1502516372e+000	 3.3848997284e+000	-2.2290244038e-001
 1.1169881611e+000	 3.3960215617e+000	-1.6401978512e-001
 1.0836950905e+000	 3.4067917387e+000	-1.2697580746e-001
 1.0503776773e+000	 3.4172111048e+000	-1.0901005227e-001
 1.0170411314e+000	 3.4272806038e+000	-1.0744668706e-001
 9.8369061805e-001	 3.4370012755e+000	-1.1969340303e-001
 1.3251409544e+000	 3.3472378838e+000	-8.2357180260e-002
 1.2918745442e+000	 3.3602172790e+000	-2.8986381809e-001
 1.2585513268e+000	 3.3728398358e+000	-5.3151047150e-001
 1.2251767703e+000	 3.3851058893e+000	-4.9299144140e-001
 1.1917563119e+000	 3.3970158806e+000	-3.7441662838e-001
 1.1582953550e+000	 3.4085703558e+000	-2.8060616747e-001
 1.1247992672e+000	 3.4197699643e+000	-2.0869527793e-001
 1.0912733778e+000	 3.4306154572e+000	-1.5590918475e-001
 1.0577229757e+000	 3.4411076860e+000	-1.1956214811e-001
 1.0241533072e+000	 3.4512476010e+000	-9.7056330653e-002
 9.9056957342e-001	 3.4610362495e+000	-8.5880512943e-002
 1.3343433222e+000	 3.3704825914e+000	-1.0165853123e-001
 1.3008458952e+000	 3.3835521212e+000	-2.8580059591e-001
 1.2672912665e+000	 3.3962623346e+000	-5.0239465756e-001
 1.2336849423e+000	 3.4086135690e+000	-5.5721684695e-001
 1.2000323974e+000	 3.4206062687e+000	-4.3229121352e-001
 1.1663390727e+000	 3.4322409833e+000	-3.2927703800e-001
 1.1326103732e+000	 3.4435183668e+000	-2.4537710217e-001
 1.0988516651e+000	 3.4544391756e+000	-1.7788787021e-001
 1.0650682742e+000	 3.4650042671e+000	-1.2419833621e-001
 1.0312654829e+000	 3.4752145982e+000	-8.1788706760e-002
 9.9744852879e-001	 3.4850712234e+000	-4.8228929458e-002
 1.3435456899e+000	 3.3937272989e+000	-1.2088245410e-001
 1.3098172462e+000	 3.4068869634e+000	-2.8238159422e-001
 1.2760312063e+000	 3.4196848335e+000	-4.7468905488e-001
 1.2421931143e+000	 3.4321212488e+000	-6.1078671995e-001
 1.2083084829e+000	 3.4441966567e+000	-4.8050748759e-001
 1.1743827904e+000	 3.4559116108e+000	-3.6928550037e-001
 1.1404214792e+000	 3.4672667693e+000	-2.7439108650e-001
 1.1064299525e+000	 3.4782628941e+000	-1.9319196684e-001
 1.0724135726e+000	 3.4889008483e+000	-1.2315191907e-001
 1.0383776586e+000	 3.4991815955e+000	-6.1829274185e-002
 1.0043274842e+000	 3.5091061974e+000	-6.8752565256e-003
 1.3527480577e+000	 3.4169720064e+000	-1.4014380776e-001
 1.3187885972e+000	 3.4302218056e+000	-2.7968613946e-001
 1.2847711461e+000	 3.4431073324e+000	-4.4843677727e-001
 1.2507012864e+000	 3.4556289286e+000	-6.4682050532e-001
 1.2165845684e+000	 3.4677870448e+000	-5.1948902512e-001
 1.1824265082e+000	 3.4795822382e+000	-4.0101239335e-001
 1.1482325852e+000	 3.4910151719e+000	-2.9607421541e-001
 1.1140082398e+000	 3.5020866125e+000	-2.0211351640e-001
 1.0797588711e+000	 3.5127974294e+000	-1.1666893790e-001
 1.0454898344e+000	 3.5231485927e+000	-3.7377046850e-002
 1.0112064395e+000	 3.5331411713e+000	 3.8029514309e-002
 1.3619504254e+000	 3.4402167139e+000	-1.5956406069e-001
 1.3277599482e+000	 3.4535566479e+000	-2.7780081637e-001
 1.2935110859e+000	 3.4665298312e+000	-4.2368886463e-001
 1.2592094584e+000	 3.4791366084e+000	-5.9775952258e-001
 1.2248606539e+000	 3.4913774329e+000	-5.4966871764e-001
 1.1904702259e+000	 3.5032528657e+000	-4.2484859506e-001
 1.1560436912e+000	 3.5147635744e+000	-3.1077425235e-001
 1.1215865272e+000	 3.5259103310e+000	-2.0495609607e-001
 1.0871041695e+000	 3.5366940106e+000	-1.0500774219e-001
 1.0526020101e+000	 3.5471155899e+000	-8.6441358514e-003
 1.0180853949e+000	 3.5571761453e+000	 8.6320489975e-002
 1.3711527931e+000	 3.4634614215e+000	-1.7927106907e-001
 1.3367312992e+000	 3.4768914901e+000	-2.7681922442e-001
 1.3022510256e+000	 3.4899523301e+000	-4.0050401696e-001
 1.2677176304e+000	 3.5026442882e+000	-5.5096356565e-001
 1.2331367394e+000	 3.5149678209e+000	-5.7148846104e-001
 1.1985139437e+000	 3.5269234932e+000	-4.4119468602e-001
 1.1638547973e+000	 3.5385119769e+000	-3.1884937798e-001
 1.1291648145e+000	 3.5497340494e+000	-2.0203443137e-001
 1.0944494679e+000	 3.5605905918e+000	-8.8438576752e-002
 1.0597141859e+000	 3.5710825871e+000	 2.4144690048e-002
 1.0249643503e+000	 3.5812111192e+000	 1.3781934237e-001
 1.3803551609e+000	 3.4867061290e+000	-1.9939886396e-001
 1.3457026502e+000	 3.5002263323e+000	-2.7684174400e-001
 1.3109909654e+000	 3.5133748290e+000	-3.7894833902e-001
 1.2762258024e+000	 3.5261519680e+000	-5.0646386358e-001
 1.2414128249e+000	 3.5385582090e+000	-5.8539885545e-001
 1.2065576614e+000	 3.5505941207e+000	-4.5046062579e-001
 1.1716659033e+000	 3.5622603795e+000	-3.2066784297e-001
 1.1367431019e+000	 3.5735577679e+000	-1.9367402453e-001
 1.1017947664e+000	 3.5844871729e+000	-6.7243185164e-002
 1.0668263616e+000	 3.5950495844e+000	 6.0752426334e-002
 1.0318433056e+000	 3.6052460932e+000	 1.9233475619e-001
 9.6305375194e-001	 3.3648963537e+000	-1.9696047792e-001
 9.3039423656e-001	 3.3740726970e+000	-2.1228104345e-001
 8.9773102186e-001	 3.3829098440e+000	-2.1601356737e-001
 8.6506902227e-001	 3.3914090857e+000	-2.0584864362e-001
 8.3241310102e-001	 3.3995718009e+000	-1.7956629161e-001
 7.9976806841e-001	 3.4073994536e+000	-1.3503419793e-001
 7.6713868010e-001	 3.4148935921e+000	-7.0205857702e-002
 7.3452963556e-001	 3.4220558462e+000	 1.6881374957e-002
 7.0194557643e-001	 3.4288879258e+000	 1.2810831753e-001
 6.6939108513e-001	 3.4353916189e+000	 2.6527606146e-001
 6.3687068343e-001	 3.4415687894e+000	 4.3010813694e-001
 9.6993270731e-001	 3.3889313276e+000	-1.7533168633e-001
 9.3703990968e-001	 3.3981732162e+000	-1.6641155042e-001
 9.0414338630e-001	 3.4070734857e+000	-1.4977061374e-001
 8.7124808671e-001	 3.4156334363e+000	-1.2316865147e-001
 8.3835890888e-001	 3.4238544566e+000	-8.4452007060e-002
 8.0548069746e-001	 3.4317380212e+000	-3.1551759779e-002
 7.7261824210e-001	 3.4392856892e+000	 3.7518203899e-002
 7.3977627581e-001	 3.4464991022e+000	 1.2466320515e-001
 7.0695947340e-001	 3.4533799824e+000	 2.3170986427e-001
 6.7417245002e-001	 3.4599301304e+000	 3.6040825913e-001
 6.4141975974e-001	 3.4661514237e+000	 5.1243414141e-001
 9.7681166268e-001	 3.4129663016e+000	-1.4954588995e-001
 9.4368558279e-001	 3.4222737355e+000	-1.1839483114e-001
 9.1055575074e-001	 3.4312371274e+000	-8.3304120033e-002
 8.7742715115e-001	 3.4398577869e+000	-4.2103140797e-002
 8.4430471674e-001	 3.4481371123e+000	 7.2949415449e-003
 8.1119332652e-001	 3.4560765887e+000	 6.6895090266e-002
 7.7809780410e-001	 3.4636777863e+000	 1.3862239791e-001
 7.4502291606e-001	 3.4709423583e+000	 2.2432416913e-001
 7.1197337037e-001	 3.4778720390e+000	 3.2577207548e-001
 6.7895381492e-001	 3.4844686420e+000	 4.4466437267e-001
 6.4596883605e-001	 3.4907340579e+000	 5.8262817075e-001
 9.8369061805e-001	 3.4370012755e+000	-1.1969340303e-001
 9.5033125591e-001	 3.4463742548e+000	-6.8251513344e-002
 9.1696811518e-001	 3.4554007692e+000	-1.6565904448e-002
 8.8360621559e-001	 3.4640821375e+000	 3.7463975832e-002
 8.5025052460e-001	 3.4724197680e+000	 9.5857617128e-002
 8.1690595558e-001	 3.4804151562e+000	 1.6055543489e-001
 7.8357736610e-001	 3.4880698834e+000	 2.3342084624e-001
 7.5026955631e-001	 3.4953856143e+000	 3.1624242336e-001
 7.1698726735e-001	 3.5023640956e+000	 4.1073611421e-001
 6.8373517981e-001	 3.5090071536e+000	 5.1854752112e-001
 6.5051791236e-001	 3.5153166921e+000	 6.4125422762e-001
 9.9056957342e-001	 3.4610362495e+000	-8.5880512943e-002
 9.5697692902e-001	 3.4704747740e+000	-1.6019615100e-002
 9.2338047962e-001	 3.4795644109e+000	 5.0473442550e-002
 8.8978528004e-001	 3.4883064882e+000	 1.1562866720e-001
 8.5619633247e-001	 3.4967024237e+000	 1.8139765342e-001
 8.2261858464e-001	 3.5047537237e+000	 2.4965565318e-001
 7.8905692810e-001	 3.5124619805e+000	 3.2220372918e-001
 7.5551619657e-001	 3.5198288704e+000	 4.0077098129e-001
 7.2200116432e-001	 3.5268561522e+000	 4.8701683584e-001
 6.8851654471e-001	 3.5335456651e+000	 5.8253338821e-001
 6.5506698867e-001	 3.5398993263e+000	 6.8884778883e-001
 9.9744852879e-001	 3.4850712234e+000	-4.8228929458e-002
 9.6362260214e-001	 3.4945752933e+000	 3.8246054855e-002
 9.2979284406e-001	 3.5037280527e+000	 1.1782520553e-001
 8.9596434448e-001	 3.5125308388e+000	 1.9246747719e-001
 8.6214214033e-001	 3.5209850795e+000	 2.6405599392e-001
 8.2833121370e-001	 3.5290922913e+000	 3.3440020355e-001
 7.9453649010e-001	 3.5368540775e+000	 4.0523811100e-001
 7.6076283682e-001	 3.5442721264e+000	 4.7823858032e-001
 7.2701506130e-001	 3.5513482089e+000	 5.5500369527e-001
 6.9329790960e-001	 3.5580841767e+000	 6.3707116839e-001
 6.5961606499e-001	 3.5644819605e+000	 7.2591678895e-001
 1.0043274842e+000	 3.5091061974e+000	-6.8752565256e-003
 9.7026827526e-001	 3.5186758126e+000	 9.4474472134e-002
 9.3620520850e-001	 3.5278916944e+000	 1.8548316483e-001
 9.0214340892e-001	 3.5367551894e+000	 2.6803818999e-001
 8.6808794820e-001	 3.5452677352e+000	 3.4395360042e-001
 8.3404384276e-001	 3.5534308588e+000	 4.1497237440e-001
 8.0001605210e-001	 3.5612461746e+000	 4.8276873155e-001
 7.6600947708e-001	 3.5687153825e+000	 5.4895051321e-001
 7.3202895827e-001	 3.5758402655e+000	 6.1506161678e-001
 6.9807927450e-001	 3.5826226883e+000	 6.8258447402e-001
 6.6416514130e-001	 3.5890645947e+000	 7.5294256364e-001
 1.0112064395e+000	 3.5331411713e+000	 3.8029514309e-002
 9.7691394838e-001	 3.5427763318e+000	 1.5257894825e-001
 9.4261757294e-001	 3.5520553362e+000	 2.5342419192e-001
 9.0832247337e-001	 3.5609795400e+000	 3.4238046820e-001
 8.7403375606e-001	 3.5695503909e+000	 4.2119213271e-001
 8.3975647182e-001	 3.5777694263e+000	 4.9153500422e-001
 8.0549561411e-001	 3.5856382717e+000	 5.5501876567e-001
 7.7125611733e-001	 3.5931586385e+000	 6.1318942550e-001
 7.3704285525e-001	 3.6003323221e+000	 6.6753182838e-001
 7.0286063939e-001	 3.6071611998e+000	 7.1947220549e-001
 6.6871421761e-001	 3.6136472289e+000	 7.7038075424e-001
 1.0180853949e+000	 3.5571761453e+000	 8.6320489975e-002
 9.8355962149e-001	 3.5668768511e+000	 2.1245765983e-001
 9.4902993738e-001	 3.5762189779e+000	 3.2160882066e-001
 9.1450153782e-001	 3.5852038906e+000	 4.1551646504e-001
 8.7997956393e-001	 3.5938330466e+000	 4.9585460064e-001
 8.4546910088e-001	 3.6021079939e+000	 5.6423117244e-001
 8.1097517611e-001	 3.6100303688e+000	 6.2219055167e-001
 7.7650275759e-001	 3.6176018945e+000	 6.7121608060e-001
 7.4205675223e-001	 3.6248243787e+000	 7.1273266242e-001
 7.0764200429e-001	 3.6316997114e+000	 7.4810938608e-001
 6.7326329392e-001	 3.6382298631e+000	 7.7866217596e-001
 1.0249643503e+000	 3.5812111192e+000	 1.3781934237e-001
 9.9020529461e-001	 3.5909773704e+000	 2.7399415645e-001
 9.5544230183e-001	 3.6003826196e+000	 3.8998179553e-001
 9.2068060226e-001	 3.6094282412e+000	 4.8745141195e-001
 8.8592537179e-001	 3.6181157023e+000	 5.6800598996e-001
 8.5118172995e-001	 3.6264465614e+000	 6.3318486251e-001
 8.1645473811e-001	 3.6344224659e+000	 6.8446629057e-001
 7.8174939785e-001	 3.6420451506e+000	 7.2327009412e-001
 7.4707064920e-001	 3.6493164353e+000	 7.5096032384e-001
 7.1242336919e-001	 3.6562382230e+000	 7.6884796323e-001
 6.7781237024e-001	 3.6628124973e+000	 7.7819365085e-001
 1.0318433056e+000	 3.6052460932e+000	 1.9233475619e-001
 9.9685096773e-001	 3.6150778896e+000	 3.3705784825e-001
 9.6185466627e-001	 3.6245462614e+000	 4.5847259796e-001
 9.2685966671e-001	 3.6336525918e+000	 5.5817418257e-001
 8.9187117966e-001	 3.6423983581e+000	 6.3769386313e-001
 8.5689435901e-001	 3.6507851289e+000	 6.9850159841e-001
 8.2193430012e-001	 3.6588145630e+000	 7.4200871734e-001
 7.8699603810e-001	 3.6664884066e+000	 7.6957063878e-001
 7.5208454618e-001	 3.6738084919e+000	 7.8248962779e-001
 7.1720473409e-001	 3.6807767345e+000	 7.8201757770e-001
 6.8236144655e-001	 3.6873951316e+000	 7.6935880765e-001
 6.3687068343e-001	 3.4415687894e+000	 4.3010813694e-001
 6.0438883109e-001	 3.4474213756e+000	-2.4854928666e-001
 5.7194992458e-001	 3.4529513874e+000	-2.0607784847e-001
 5.3955829594e-001	 3.4581609051e+000	-1.3563132070e-001
 5.0721821157e-001	 3.4630520767e+000	-4.2154028786e-002
 4.7493387121e-001	 3.4676271163e+000	 7.0857403473e-002
 4.4270940692e-001	 3.4718883019e+000	 2.0131729835e-001
 4.1054888215e-001	 3.4758379731e+000	 3.4851224387e-001
 3.7845629087e-001	 3.4794785293e+000	 5.1306063808e-001
 3.4643555681e-001	 3.4828124275e+000	 6.9687060667e-001
 3.1449053264e-001	 3.4858421801e+000	 9.0309644226e-001
 6.4141975974e-001	 3.4661514237e+000	 5.1243414141e-001
 6.0870589417e-001	 3.4720458140e+000	-3.8897172469e-001
 5.7603528119e-001	 3.4776153259e+000	-3.2873558959e-001
 5.4341228377e-001	 3.4828620544e+000	-2.4300436520e-001
 5.1084119880e-001	 3.4877881630e+000	-1.3665648928e-001
 4.7832625601e-001	 3.4923958815e+000	-1.3097465219e-002
 4.4587161697e-001	 3.4966875041e+000	 1.2570260532e-001
 4.1348137416e-001	 3.5006653872e+000	 2.7916953093e-001
 3.8115955010e-001	 3.5043319474e+000	 4.4808373218e-001
 3.4891009650e-001	 3.5076896591e+000	 6.3453728846e-001
 3.1673689358e-001	 3.5107410529e+000	 8.4188948108e-001
 6.4596883605e-001	 3.4907340579e+000	 5.8262817075e-001
 6.1302295724e-001	 3.4966702524e+000	-5.2313024657e-001
 5.8012063779e-001	 3.5022792644e+000	-4.4089037259e-001
 5.4726627160e-001	 3.5075632037e+000	-3.3642800279e-001
 5.1446418603e-001	 3.5125242492e+000	-2.1455317081e-001
 4.8171864080e-001	 3.5171646466e+000	-7.8576897247e-002
 4.4903382702e-001	 3.5214867062e+000	 6.9650479000e-002
 4.1641386618e-001	 3.5254928013e+000	 2.2969897557e-001
 3.8386280932e-001	 3.5291853654e+000	 4.0251680266e-001
 3.5138463619e-001	 3.5325668907e+000	 5.9038651519e-001
 3.1898325453e-001	 3.5356399256e+000	 7.9687963525e-001
 6.5051791236e-001	 3.5153166921e+000	 6.4125422762e-001
 6.1734002033e-001	 3.5212946908e+000	-6.4914452976e-001
 5.8420599440e-001	 3.5269432028e+000	-5.4078211990e-001
 5.5112025943e-001	 3.5322643530e+000	-4.1426296755e-001
 5.1808717325e-001	 3.5372603355e+000	-2.7432615454e-001
 4.8511102560e-001	 3.5419334117e+000	-1.2418482214e-001
 4.5219603707e-001	 3.5462859084e+000	 3.4434677219e-002
 4.1934635820e-001	 3.5503202154e+000	 2.0125159842e-001
 3.8656606854e-001	 3.5540387835e+000	 3.7738775069e-001
 3.5385917588e-001	 3.5574441224e+000	 5.6532273112e-001
 3.2122961548e-001	 3.5605387983e+000	 7.6884760175e-001
 6.5506698867e-001	 3.5398993263e+000	 6.8884778883e-001
 6.2165708341e-001	 3.5459191292e+000	-7.6515933566e-001
 5.8829135100e-001	 3.5516071413e+000	-6.2667254262e-001
 5.5497424726e-001	 3.5569655023e+000	-4.7488863351e-001
 5.2171016048e-001	 3.5619964217e+000	-3.1447315942e-001
 4.8850341040e-001	 3.5667021768e+000	-1.4853795144e-001
 4.5535824712e-001	 3.5710851106e+000	 2.1318885335e-002
 4.2227885021e-001	 3.5751476295e+000	 1.9497091123e-001
 3.8926932776e-001	 3.5788922016e+000	 3.7371938661e-001
 3.5633371558e-001	 3.5823213540e+000	 5.6024756255e-001
 3.2347597643e-001	 3.5854376710e+000	 7.5857338801e-001
 6.5961606499e-001	 3.5644819605e+000	 7.2591678895e-001
 6.2597414649e-001	 3.5705435676e+000	-8.2098354023e-001
 5.9237670761e-001	 3.5762710798e+000	-6.9684438917e-001
 5.5882823509e-001	 3.5816666517e+000	-5.1670237185e-001
 5.2533314771e-001	 3.5867325080e+000	-3.3350700291e-001
 4.9189579519e-001	 3.5914709419e+000	-1.5026533794e-001
 4.5852045717e-001	 3.5958843127e+000	 3.1557063551e-002
 4.2521134223e-001	 3.5999750436e+000	 2.1199317582e-001
 3.9197258699e-001	 3.6037456196e+000	 3.9252960546e-001
 3.5880825527e-001	 3.6071985856e+000	 5.7605991509e-001
 3.2572233738e-001	 3.6103365437e+000	 7.6683633563e-001
 6.6416514130e-001	 3.5890645947e+000	 7.5294256364e-001
 6.3029120957e-001	 3.5951680060e+000	-7.0818345862e-001
 5.9646206422e-001	 3.6009350183e+000	-7.4960072483e-001
 5.6268222292e-001	 3.6063678010e+000	-5.3811893463e-001
 5.2895613494e-001	 3.6114685943e+000	-3.2995508393e-001
 4.9528817999e-001	 3.6162397070e+000	-1.2800795305e-001
 4.6168266723e-001	 3.6206835149e+000	 6.6393779965e-002
 4.2814383425e-001	 3.6248024577e+000	 2.5344765233e-001
 3.9467584621e-001	 3.6285990377e+000	 4.3483155535e-001
 3.6128279496e-001	 3.6320758172e+000	 6.1365606676e-001
 3.2796869832e-001	 3.6352354164e+000	 7.9441514322e-001
 6.6871421761e-001	 3.6136472289e+000	 7.7038075424e-001
 6.3460827265e-001	 3.6197924444e+000	-5.9891013213e-001
 6.0054742082e-001	 3.6255989568e+000	-7.8326424069e-001
 5.6653621075e-001	 3.6310689503e+000	-5.3756986351e-001
 5.3257912217e-001	 3.6362046805e+000	-3.0235888688e-001
 4.9868056479e-001	 3.6410084722e+000	-8.0418281390e-002
 4.6484487728e-001	 3.6454827170e+000	 1.2706453004e-001
 4.3107632627e-001	 3.6496298718e+000	 3.2045683738e-001
 3.9737910543e-001	 3.6534524558e+000	 5.0163379886e-001
 3.6375733466e-001	 3.6569530489e+000	 6.7392975739e-001
 3.3021505927e-001	 3.6601342892e+000	 8.4208788824e-001
 6.7326329392e-001	 3.6382298631e+000	 7.7866217596e-001
 6.3892533573e-001	 3.6444168828e+000	-4.9281871108e-001
 6.0463277743e-001	 3.6502628952e+000	-7.9617659064e-001
 5.7039019858e-001	 3.6557700996e+000	-5.1350292261e-001
 5.3620210939e-001	 3.6609407668e+000	-2.4927350579e-001
 5.0207294958e-001	 3.6657772373e+000	-6.1599318339e-003
 4.6800708733e-001	 3.6702819192e+000	 2.1479604309e-001
 4.3400881828e-001	 3.6744572859e+000	 4.1413669260e-001
 4.0008236465e-001	 3.6783058738e+000	 5.9394046802e-001
 3.6623187435e-001	 3.6818302805e+000	 7.5777227439e-001
 3.3246142022e-001	 3.6850331619e+000	 9.1063204802e-001
 6.7781237024e-001	 3.6628124973e+000	 7.7819365085e-001
 6.4324239882e-001	 3.6690413212e+000	-3.8958544393e-001
 6.0871813404e-001	 3.6749268337e+000	-7.8669775500e-001
 5.7424418641e-001	 3.6804712489e+000	-4.6438155410e-001
 5.3982509662e-001	 3.6856768530e+000	-1.6926718762e-001
 5.0546533438e-001	 3.6905460024e+000	 9.6092735788e-002
 4.7116929738e-001	 3.6950811213e+000	 3.3080657648e-001
 4.3694131030e-001	 3.6992847000e+000	 5.3559686388e-001
 4.0278562387e-001	 3.7031592919e+000	 7.1275141295e-001
 3.6870641404e-001	 3.7067075121e+000	 8.6607253502e-001
 3.3470778117e-001	 3.7099320346e+000	 1.0008245199e+000
 6.8236144655e-001	 3.6873951316e+000	 7.6935880765e-001
 6.4755946190e-001	 3.6936657595e+000	-2.8890697402e-001
 6.1280349065e-001	 3.6995907722e+000	-7.5320542964e-001
 5.7809817425e-001	 3.7051723983e+000	-3.8868435559e-001
 5.4344808385e-001	 3.7104129393e+000	-6.0920893820e-002
 5.0885771918e-001	 3.7153147675e+000	 2.2765496905e-001
 4.7433150743e-001	 3.7198803235e+000	 4.7630619799e-001
 4.3987380232e-001	 3.7241121140e+000	 6.8594089192e-001
 4.0548888310e-001	 3.7280127100e+000	 8.5906234460e-001
 3.7118095373e-001	 3.7315847437e+000	 9.9971716539e-001
 3.3695414212e-001	 3.7348309073e+000	 1.1134416404e+000
 3.1449053264e-001	 3.4858421801e+000	 9.0309644226e-001
 2.8262499937e-001	 3.4885703533e+000	 9.4533619951e-001
 2.5084266574e-001	 3.4909995642e+000	 9.8430186562e-001
 2.1914716763e-001	 3.4931324794e+000	 1.0249889231e+000
 1.8754206761e-001	 3.4949718129e+000	 1.0735173534e+000
 1.5603085452e-001	 3.4965203235e+000	 1.1370828670e+000
 1.2461694309e-001	 3.4977808132e+000	 1.2239074315e+000
 9.3303673673e-002	 3.4987561253e+000	 1.3431892330e+000
 6.2094311944e-002	 3.4994491419e+000	 1.5050522016e+000
 3.0992048758e-002	 3.4998627820e+000	 1.7204952287e+000
 0.0000000000e+000	 3.5000000000e+000	 2.0013411995e+000
 3.1673689358e-001	 3.5107410529e+000	 8.4188948108e-001
 2.8464374937e-001	 3.5134887129e+000	 8.3177257679e-001
 2.5263439907e-001	 3.5159352753e+000	 8.2042090096e-001
 2.2071250454e-001	 3.5180834257e+000	 8.1343549085e-001
 1.8888165380e-001	 3.5199358973e+000	 8.1754972193e-001
 1.5714536062e-001	 3.5214954686e+000	 8.4057945735e-001
 1.2550706412e-001	 3.5227649619e+000	 8.9137250054e-001
 9.3970128485e-002	 3.5237472405e+000	 9.7975748779e-001
 6.2537842743e-002	 3.5244452072e+000	 1.1164923546e+000
 3.1213420535e-002	 3.5248618019e+000	 1.3132125050e+000
 0.0000000000e+000	 3.5250000000e+000	 1.5823788107e+000
 3.1898325453e-001	 3.5356399256e+000	 7.9687963525e-001
 2.8666249936e-001	 3.5384070726e+000	 7.4256288683e-001
 2.5442613239e-001	 3.5408709865e+000	 6.8823347741e-001
 2.2227784145e-001	 3.5430343720e+000	 6.4010385274e-001
 1.9022124000e-001	 3.5448999816e+000	 6.0552736062e-001
 1.5825986672e-001	 3.5464706138e+000	 5.9294729399e-001
 1.2639718514e-001	 3.5477491106e+000	 6.1184524159e-001
 9.4636583296e-002	 3.5487383557e+000	 6.7268888544e-001
 6.2981373542e-002	 3.5494412725e+000	 7.8687938115e-001
 3.1434792311e-002	 3.5498608218e+000	 9.6669845285e-001
 0.0000000000e+000	 3.5500000000e+000	 1.2252553306e+000
 3.2122961548e-001	 3.5605387983e+000	 7.6884760175e-001
 2.8868124936e-001	 3.5633254323e+000	 6.7813532894e-001
 2.5621786572e-001	 3.5658066977e+000	 5.8781669759e-001
 2.2384317836e-001	 3.5679853183e+000	 5.0472154127e-001
 1.9156082620e-001	 3.5698640660e+000	 4.3682988393e-001
 1.5937437283e-001	 3.5714457590e+000	 3.9321985055e-001
 1.2728730616e-001	 3.5727332592e+000	 3.8401488943e-001
 9.5303038108e-002	 3.5737294709e+000	 4.2033044801e-001
 6.3424904341e-002	 3.5744373378e+000	 5.1422024028e-001
 3.1656164088e-002	 3.5748598416e+000	 6.7862224004e-001
 0.0000000000e+000	 3.5750000000e+000	 9.2730452992e-001
 3.2347597643e-001	 3.5854376710e+000	 7.5857338801e-001
 2.9069999936e-001	 3.5882437919e+000	 6.3892574469e-001
 2.5800959905e-001	 3.5907424089e+000	 5.1926345059e-001
 2.2540851527e-001	 3.5929362646e+000	 4.0703983087e-001
 1.9290041239e-001	 3.5948281504e+000	 3.1086841375e-001
 1.6048887893e-001	 3.5964209041e+000	 2.4046968258e-001
 1.2817742718e-001	 3.5977174079e+000	 2.0661714338e-001
 9.5969492919e-002	 3.5987205860e+000	 2.2108285204e-001
 6.3868435141e-002	 3.5994334031e+000	 2.9658254191e-001
 3.1877535864e-002	 3.5998588615e+000	 4.4672048821e-001
 0.0000000000e+000	 3.6000000000e+000	 6.8593424135e-001
 3.2572233738e-001	 3.6103365437e+000	 7.6683633563e-001
 2.9271874935e-001	 3.6131621516e+000	 6.2537735428e-001
 2.5980133237e-001	 3.6156781200e+000	 4.8268186762e-001
 2.2697385218e-001	 3.6178872109e+000	 3.4683291922e-001
 1.9423999859e-001	 3.6197922348e+000	 2.2708449291e-001
 1.6160338503e-001	 3.6213960493e+000	 1.3380707995e-001
 1.2906754820e-001	 3.6227015566e+000	 7.8432565109e-002
 9.6635947731e-002	 3.6237117012e+000	 7.3398578382e-002
 6.4311965940e-002	 3.6244294683e+000	 1.3209245560e-001
 3.2098907641e-002	 3.6248578814e+000	 2.6879494663e-001
 0.0000000000e+000	 3.6250000000e+000	 4.9862380565e-001
 3.2796869832e-001	 3.6352354164e+000	 7.9441514322e-001
 2.9473749935e-001	 3.6380805113e+000	 6.3794050394e-001
 2.6159306570e-001	 3.6406138312e+000	 4.7819480000e-001
 2.2853918909e-001	 3.6428381571e+000	 3.2389714218e-001
 1.9557958479e-001	 3.6447563192e+000	 1.8494904340e-001
 1.6271789114e-001	 3.6463711945e+000	 7.2378774539e-002
 1.2995766922e-001	 3.6476857052e+000	-1.7149577697e-003
 9.7302402542e-002	 3.6487028164e+000	-2.4219861891e-002
 6.4755496739e-002	 3.6494255336e+000	 1.8932705074e-002
 3.2320279418e-002	 3.6498569012e+000	 1.4271026187e-001
 0.0000000000e+000	 3.6500000000e+000	 3.6292162273e-001
 3.3021505927e-001	 3.6601342892e+000	 8.4208788824e-001
 2.9675624934e-001	 3.6629988709e+000	 6.7707242349e-001
 2.6338479903e-001	 3.6655495424e+000	 5.0593931849e-001
 2.3010452601e-001	 3.6677891034e+000	 3.3805022083e-001
 1.9691917098e-001	 3.6697204035e+000	 1.8396136709e-001
 1.6383239724e-001	 3.6713463396e+000	 5.5366700702e-002
 1.3084779024e-001	 3.6726698539e+000	-3.4959685377e-002
 9.7968857353e-002	 3.6736939316e+000	-7.3221629234e-002
 6.5199027538e-002	 3.6744215989e+000	-4.4659355426e-002
 3.2541651194e-002	 3.6748559211e+000	 6.6391838376e-002
 0.0000000000e+000	 3.6750000000e+000	 2.7644280270e-001
 3.3246142022e-001	 3.6850331619e+000	 9.1063204802e-001
 2.9877499934e-001	 3.6879172306e+000	 7.4323699382e-001
 2.6517653235e-001	 3.6904852536e+000	 5.6606623290e-001
 2.3166986292e-001	 3.6927400497e+000	 3.8913053897e-001
 1.9825875718e-001	 3.6946844879e+000	 2.2364818689e-001
 1.6494690334e-001	 3.6963214848e+000	 8.1986806025e-002
 1.3173791127e-001	 3.6976540026e+000	-2.2395439488e-002
 9.8635312165e-002	 3.6986850468e+000	-7.5009188326e-002
 6.5642558337e-002	 3.6994176642e+000	-6.0393586733e-002
 3.2763022971e-002	 3.6998549410e+000	 3.7823785896e-002
 0.0000000000e+000	 3.7000000000e+000	 2.3686691216e-001
 3.3470778117e-001	 3.7099320346e+000	 1.0008245199e+000
 3.0079374934e-001	 3.7128355903e+000	 8.3690452368e-001
 2.6696826568e-001	 3.7154209647e+000	 6.5873963107e-001
 2.3323519983e-001	 3.7176909960e+000	 4.7699644973e-001
 1.9959834338e-001	 3.7196485723e+000	 3.0356272666e-001
 1.6606140945e-001	 3.7212966300e+000	 1.5148790993e-001
 1.3262803229e-001	 3.7226381512e+000	 3.4923039475e-002
 9.9301766976e-002	 3.7236761619e+000	-3.0939875047e-002
 6.6086089136e-002	 3.7244137295e+000	-2.9928836077e-002
 3.2984394747e-002	 3.7248539609e+000	 5.5046949473e-002
 0.0000000000e+000	 3.7250000000e+000	 2.4193581123e-001
 3.3695414212e-001	 3.7348309073e+000	 1.1134416404e+000
 3.0281249933e-001	 3.7377539499e+000	 9.5855153540e-001
 2.6875999901e-001	 3.7403566759e+000	 7.8413643622e-001
 2.3480053674e-001	 3.7426419423e+000	 6.0152560998e-001
 2.0093792957e-001	 3.7446126567e+000	 4.2328382780e-001
 1.6717591555e-001	 3.7462717751e+000	 2.6315060793e-001
 1.3351815331e-001	 3.7476222999e+000	 1.3597878973e-001
 9.9968221788e-002	 3.7486672771e+000	 5.7672599228e-002
 6.6529619936e-002	 3.7494097948e+000	 4.5125362462e-002
 3.3205766524e-002	 3.7498529807e+000	 1.1615701828e-001
 0.0000000000e+000	 3.7500000000e+000	 2.8945157709e-001
 3.7500000000e+000	 0.0000000000e+000	 9.3637680361e-001
 3.7498529807e+000	 3.3205766524e-002	 9.6418778177e-001
 3.7494097948e+000	 6.6529619936e-002	 9.6349786053e-001
 3.7486672771e+000	 9.9968221788e-002	 9.4193401396e-001
 3.7476222999e+000	 1.3351815331e-001	 9.0634777928e-001
 3.7462717751e+000	 1.6717591555e-001	 8.6277867290e-001
 3.7446126567e+000	 2.0093792957e-001	 8.1641820894e-001
 3.7426419423e+000	 2.3480053674e-001	 7.7157462445e-001
 3.7403566759e+000	 2.6875999901e-001	 7.3163841782e-001
 3.7377539499e+000	 3.0281249933e-001	 6.9904880813e-001
 3.7348309073e+000	 3.3695414212e-001	 6.7526122542e-001
 3.7750000000e+000	 0.0000000000e+000	 9.1371234112e-001
 3.7748520006e+000	 3.3427138301e-002	 9.5028861866e-001
 3.7744058601e+000	 6.6973150735e-002	 9.7445072303e-001
 3.7736583923e+000	 1.0063467660e-001	 9.8557325994e-001
 3.7726064486e+000	 1.3440827433e-001	 9.8331668877e-001
 3.7712469203e+000	 1.6829042165e-001	 9.6763903108e-001
 3.7695767410e+000	 2.0227751577e-001	 9.3880739126e-001
 3.7675928885e+000	 2.3636587365e-001	 8.9740925645e-001
 3.7652923871e+000	 2.7055173233e-001	 8.4436354215e-001
 3.7626723096e+000	 3.0483124933e-001	 7.8093134902e-001
 3.7597297800e+000	 3.3920050307e-001	 7.0872639615e-001
 3.8000000000e+000	 0.0000000000e+000	 8.9451775134e-001
 3.7998510205e+000	 3.3648510077e-002	 9.2965601243e-001
 3.7994019254e+000	 6.7416681534e-002	 9.5330583603e-001
 3.7986495075e+000	 1.0130113141e-001	 9.6479785502e-001
 3.7975905972e+000	 1.3529839535e-001	 9.6375218175e-001
 3.7962220655e+000	 1.6940492775e-001	 9.5009032603e-001
 3.7945408254e+000	 2.0361710197e-001	 9.2404692363e-001
 3.7925438348e+000	 2.3793121056e-001	 8.8618124131e-001
 3.7902280982e+000	 2.7234346566e-001	 8.3738842465e-001
 3.7875906693e+000	 3.0684999932e-001	 7.7891045326e-001
 3.7846286527e+000	 3.4144686401e-001	 7.1234676830e-001
 3.8250000000e+000	 0.0000000000e+000	 8.7850324437e-001
 3.8248500403e+000	 3.3869881854e-002	 9.1253422646e-001
 3.8243979907e+000	 6.7860212333e-002	 9.3587459099e-001
 3.8236406227e+000	 1.0196758622e-001	 9.4780916848e-001
 3.8225747459e+000	 1.3618851637e-001	 9.4791600578e-001
 3.8211972106e+000	 1.7051943386e-001	 9.3607849885e-001
 3.8195049098e+000	 2.0495668816e-001	 9.1249733383e-001
 3.8174947811e+000	 2.3949654747e-001	 8.7770220242e-001
 3.8151638094e+000	 2.7413519899e-001	 8.3256325663e-001
 3.8125090289e+000	 3.0886874932e-001	 7.7830226742e-001
 3.8095275254e+000	 3.4369322496e-001	 7.1650345106e-001
 3.8500000000e+000	 0.0000000000e+000	 8.6538655736e-001
 3.8498490602e+000	 3.4091253630e-002	 8.9866665591e-001
 3.8493940560e+000	 6.8303743132e-002	 9.2192591539e-001
 3.8486317379e+000	 1.0263404103e-001	 9.3440152100e-001
 3.8475588946e+000	 1.3707863739e-001	 9.3562772267e-001
 3.8461723558e+000	 1.7163393996e-001	 9.2544818759e-001
 3.8444689942e+000	 2.0629627436e-001	 9.0402815907e-001
 3.8424457274e+000	 2.4106188438e-001	 8.7186638704e-001
 3.8400995206e+000	 2.7592693231e-001	 8.2980679489e-001
 3.8374273886e+000	 3.1088749931e-001	 7.7904984619e-001
 3.8344263981e+000	 3.4593958591e-001	 7.2116357487e-001
 3.8750000000e+000	 0.0000000000e+000	 8.5489271162e-001
 3.8748480801e+000	 3.4312625407e-002	 8.8780363708e-001
 3.8743901213e+000	 6.8747273931e-002	 9.1123531353e-001
 3.8736228530e+000	 1.0330049584e-001	 9.2437542450e-001
 3.8725430432e+000	 1.3796875842e-001	 9.2671267844e-001
 3.8711475010e+000	 1.7274844606e-001	 9.1804938610e-001
 3.8694330785e+000	 2.0763586056e-001	 8.9851384230e-001
 3.8673966737e+000	 2.4262722129e-001	 8.6857247663e-001
 3.8650352318e+000	 2.7771866564e-001	 8.2904173718e-001
 3.8623457483e+000	 3.1290624931e-001	 7.8109967038e-001
 3.8593252709e+000	 3.4818594685e-001	 7.2629715971e-001
 3.9000000000e+000	 0.0000000000e+000	 8.4675377922e-001
 3.8998471000e+000	 3.4533997183e-002	 8.7970222492e-001
 3.8993861866e+000	 6.9190804730e-002	 9.0358465577e-001
 3.8986139682e+000	 1.0396695066e-001	 9.1753738372e-001
 3.8975271919e+000	 1.3885887944e-001	 9.2100181794e-001
 3.8961226461e+000	 1.7386295217e-001	 9.1373727229e-001
 3.8943971629e+000	 2.0897544675e-001	 8.9583357502e-001
 3.8923476199e+000	 2.4419255820e-001	 8.6772344469e-001
 3.8899709429e+000	 2.7951039896e-001	 8.3019459590e-001
 3.8872641079e+000	 3.1492499930e-001	 7.8440153707e-001
 3.8842241436e+000	 3.5043230780e-001	 7.3187702251e-001
 3.9250000000e+000	 0.0000000000e+000	 8.4070865841e-001
 3.9248461198e+000	 3.4755368960e-002	 8.7412597905e-001
 3.9243822519e+000	 6.9634335529e-002	 8.9876197575e-001
 3.9236050834e+000	 1.0463340547e-001	 9.1369970531e-001
 3.9225113406e+000	 1.3974900046e-001	 9.1833150657e-001
 3.9210977913e+000	 1.7497745827e-001	 9.1237204312e-001
 3.9193612473e+000	 2.1031503295e-001	 8.9587114601e-001
 3.9172985662e+000	 2.4575789511e-001	 8.6922642010e-001
 3.9149066541e+000	 2.8130213229e-001	 8.3319557663e-001
 3.9121824676e+000	 3.1694374929e-001	 7.8890845401e-001
 3.9091230163e+000	 3.5267866874e-001	 7.3787868808e-001
 3.9500000000e+000	 0.0000000000e+000	 8.3650285761e-001
 3.9498451397e+000	 3.4976740737e-002	 8.7084475795e-001
 3.9493783172e+000	 7.0077866328e-002	 8.9656127539e-001
 3.9485961986e+000	 1.0529986028e-001	 9.1268031427e-001
 3.9474954892e+000	 1.4063912148e-001	 9.1854335872e-001
 3.9460729365e+000	 1.7609196437e-001	 9.1381875568e-001
 3.9443253317e+000	 2.1165461914e-001	 8.9851479588e-001
 3.9422495125e+000	 2.4732323202e-001	 8.7299255558e-001
 3.9398423653e+000	 2.8309386561e-001	 8.3797846123e-001
 3.9371008273e+000	 3.1896249929e-001	 7.9457653804e-001
 3.9340218890e+000	 3.5492502969e-001	 7.4428030342e-001
 3.9750000000e+000	 0.0000000000e+000	 8.3388828756e-001
 3.9748441596e+000	 3.5198112513e-002	 8.6963452087e-001
 3.9743743825e+000	 7.0521397127e-002	 8.9678233716e-001
 3.9735873138e+000	 1.0596631509e-001	 9.1430257727e-001
 3.9724796379e+000	 1.4152924250e-001	 9.2148407273e-001
 3.9710480817e+000	 1.7720647047e-001	 9.1794717445e-001
 3.9692894161e+000	 2.1299420534e-001	 9.0365707705e-001
 3.9672004588e+000	 2.4888856893e-001	 8.7893690122e-001
 3.9647780764e+000	 2.8488559894e-001	 8.4448049540e-001
 3.9620191869e+000	 3.2098124928e-001	 8.0136491729e-001
 3.9589207617e+000	 3.5717139063e-001	 7.5106255523e-001
 4.0000000000e+000	 0.0000000000e+000	 8.3262306121e-001
 3.9998431794e+000	 3.5419484290e-002	 8.7027713715e-001
 3.9993704478e+000	 7.0964927926e-002	 8.9923054348e-001
 3.9985784289e+000	 1.0663276990e-001	 9.1839513255e-001
 3.9974637866e+000	 1.4241936352e-001	 9.2700527198e-001
 3.9960232268e+000	 1.7832097657e-001	 9.2463162410e-001
 3.9942535004e+000	 2.1433379153e-001	 9.1119471901e-001
 3.9921514051e+000	 2.5045390584e-001	 8.8697828262e-001
 3.9897137876e+000	 2.8667733226e-001	 8.5264228044e-001
 3.9869375466e+000	 3.2299999927e-001	 8.0923563710e-001
 3.9838196344e+000	 3.5941775158e-001	 7.5820859058e-001
 3.7348309073e+000	 3.3695414212e-001	 6.7526122542e-001
 3.7315847437e+000	 3.7118095373e-001	 7.1509455761e-001
 3.7280127100e+000	 4.0548888310e-001	 7.6733639293e-001
 3.7241121140e+000	 4.3987380232e-001	 8.3014722581e-001
 3.7198803235e+000	 4.7433150743e-001	 9.0058082743e-001
 3.7153147675e+000	 5.0885771918e-001	 9.7455861335e-001
 3.7104129393e+000	 5.4344808385e-001	 1.0468457223e+000
 3.7051723983e+000	 5.7809817425e-001	 1.1110289176e+000
 3.6995907722e+000	 6.1280349065e-001	 1.1594964217e+000
 3.6936657595e+000	 6.4755946190e-001	 1.0458799279e+000
 3.6873951316e+000	 6.8236144655e-001	 7.3043097435e-001
 3.7597297800e+000	 3.3920050307e-001	 7.0872639615e-001
 3.7564619753e+000	 3.7365549343e-001	 6.7984309337e-001
 3.7528661280e+000	 4.0819214232e-001	 6.5126094162e-001
 3.7489395281e+000	 4.4280629434e-001	 6.3484598915e-001
 3.7446795256e+000	 4.7749371748e-001	 6.6318462810e-001
 3.7400835326e+000	 5.1225010397e-001	 7.1509800268e-001
 3.7351490256e+000	 5.4707107108e-001	 7.8528981965e-001
 3.7298735476e+000	 5.8195216208e-001	 8.6724924813e-001
 3.7242547107e+000	 6.1688884725e-001	 9.5323010137e-001
 3.7182901979e+000	 6.5187652498e-001	 8.7051661083e-001
 3.7119777658e+000	 6.8691052287e-001	 6.0903407569e-001
 3.7846286527e+000	 3.4144686401e-001	 7.1234676830e-001
 3.7813392070e+000	 3.7613003312e-001	 6.8578177950e-001
 3.7777195461e+000	 4.1089540154e-001	 6.6115706587e-001
 3.7737669422e+000	 4.4573878635e-001	 6.4108060764e-001
 3.7694787278e+000	 4.8065592754e-001	 6.2854989470e-001
 3.7648522977e+000	 5.1564248877e-001	 6.2696035768e-001
 3.7598851118e+000	 5.5069405831e-001	 6.4011325827e-001
 3.7545746969e+000	 5.8580614991e-001	 6.7222300186e-001
 3.7489186492e+000	 6.2097420386e-001	 7.4023157314e-001
 3.7429146363e+000	 6.5619358806e-001	 6.8923091455e-001
 3.7365604000e+000	 6.9145959918e-001	 4.8045611648e-001
 3.8095275254e+000	 3.4369322496e-001	 7.1650345106e-001
 3.8062164386e+000	 3.7860457281e-001	 6.9149518273e-001
 3.8025729642e+000	 4.1359866076e-001	 6.6991377936e-001
 3.7985943563e+000	 4.4867127837e-001	 6.5438611350e-001
 3.7942779299e+000	 4.8381813759e-001	 6.4793378358e-001
 3.7896210628e+000	 5.1903487357e-001	 6.5398168454e-001
 3.7846211981e+000	 5.5431704553e-001	 6.7636602941e-001
 3.7792758462e+000	 5.8966013774e-001	 7.1934178428e-001
 3.7735825876e+000	 6.2505956047e-001	 7.8736395123e-001
 3.7675390747e+000	 6.6051065114e-001	 6.7435851695e-001
 3.7611430342e+000	 6.9600867549e-001	 4.3864172697e-001
 3.8344263981e+000	 3.4593958591e-001	 7.2116357487e-001
 3.8310936702e+000	 3.8107911250e-001	 6.9696931398e-001
 3.8274263822e+000	 4.1630191998e-001	 6.7753596395e-001
 3.8234217704e+000	 4.5160377038e-001	 6.6550857346e-001
 3.8190771321e+000	 4.8698034763e-001	 6.6393229605e-001
 3.8143898280e+000	 5.2242725836e-001	 6.7626110466e-001
 3.8093572843e+000	 5.5794003276e-001	 7.0636594873e-001
 3.8039769955e+000	 5.9351412557e-001	 7.5854231557e-001
 3.7982465261e+000	 6.2914491707e-001	 8.2248062258e-001
 3.7921635131e+000	 6.6482771422e-001	 7.1997695047e-001
 3.7857256684e+000	 7.0055775180e-001	 5.0017574939e-001
 3.8593252709e+000	 3.4818594685e-001	 7.2629715971e-001
 3.8559709018e+000	 3.8355365219e-001	 7.0219264357e-001
 3.8522798003e+000	 4.1900517920e-001	 6.8403050309e-001
 3.8482491845e+000	 4.5453626240e-001	 6.7447324198e-001
 3.8438763342e+000	 4.9014255768e-001	 6.7658901100e-001
 3.8391585931e+000	 5.2581964315e-001	 6.9386047100e-001
 3.8340933706e+000	 5.6156301998e-001	 7.3019308956e-001
 3.8286781449e+000	 5.9736811339e-001	 7.8992283298e-001
 3.8229104646e+000	 6.3323027367e-001	 8.4928396093e-001
 3.8167879515e+000	 6.6914477730e-001	 7.5610450392e-001
 3.8103083026e+000	 7.0510682811e-001	 5.5102913197e-001
 3.8842241436e+000	 3.5043230780e-001	 7.3187702251e-001
 3.8808481335e+000	 3.8602819188e-001	 7.0715602245e-001
 3.8771332183e+000	 4.2170843842e-001	 6.8940621772e-001
 3.8730765986e+000	 4.5746875441e-001	 6.8130684095e-001
 3.8686755364e+000	 4.9330476773e-001	 6.8594847788e-001
 3.8639273582e+000	 5.2921202794e-001	 7.0684208310e-001
 3.8588294569e+000	 5.6518600721e-001	 7.4792742081e-001
 3.8533792942e+000	 6.0122210122e-001	 8.1358089132e-001
 3.8475744031e+000	 6.3731563028e-001	 8.6790458732e-001
 3.8414123899e+000	 6.7346184038e-001	 7.8290437748e-001
 3.8348909368e+000	 7.0965590442e-001	 5.9139909148e-001
 3.9091230163e+000	 3.5267866874e-001	 7.3787868808e-001
 3.9057253651e+000	 3.8850273157e-001	 7.1185260631e-001
 3.9019866364e+000	 4.2441169764e-001	 6.9367380450e-001
 3.8979040127e+000	 4.6040124642e-001	 6.8603751301e-001
 3.8934747386e+000	 4.9646697778e-001	 6.9205618569e-001
 3.8886961233e+000	 5.3260441274e-001	 7.1526867285e-001
 3.8835655431e+000	 5.6880899443e-001	 7.5964881032e-001
 3.8780804435e+000	 6.0507608904e-001	 8.2961338464e-001
 3.8722383416e+000	 6.4140098688e-001	 8.7847187622e-001
 3.8660368283e+000	 6.7777890346e-001	 8.0053791261e-001
 3.8594735710e+000	 7.1420498073e-001	 6.2148034770e-001
 3.9340218890e+000	 3.5492502969e-001	 7.4428030342e-001
 3.9306025967e+000	 3.9097727126e-001	 7.1627778272e-001
 3.9268400545e+000	 4.2711495685e-001	 6.9684577651e-001
 3.9227314268e+000	 4.6333373843e-001	 6.8869477655e-001
 3.9182739407e+000	 4.9962918782e-001	 6.9495853334e-001
 3.9134648884e+000	 5.3599679753e-001	 7.1920339082e-001
 3.9083016294e+000	 5.7243198165e-001	 7.6543702804e-001
 3.9027815928e+000	 6.0893007687e-001	 8.3811656718e-001
 3.8969022800e+000	 6.4548634348e-001	 8.8111399492e-001
 3.8906612667e+000	 6.8209596653e-001	 8.0916465093e-001
 3.8840562052e+000	 7.1875405704e-001	 6.4146520241e-001
 3.9589207617e+000	 3.5717139063e-001	 7.5106255523e-001
 3.9554798283e+000	 3.9345181095e-001	 7.2042910087e-001
 3.9516934725e+000	 4.2981821607e-001	 6.9893640609e-001
 3.9475588409e+000	 4.6626623045e-001	 6.8930948246e-001
 3.9430731429e+000	 5.0279139787e-001	 6.9470280099e-001
 3.9382336535e+000	 5.3938918232e-001	 7.1870979308e-001
 3.9330377156e+000	 5.7605496887e-001	 7.6537174910e-001
 3.9274827422e+000	 6.1278406469e-001	 8.3918607349e-001
 3.9215662185e+000	 6.4957170008e-001	 8.7595794153e-001
 3.9152857051e+000	 6.8641302961e-001	 8.0894239075e-001
 3.9086388394e+000	 7.2330313334e-001	 6.5154361549e-001
 3.9838196344e+000	 3.5941775158e-001	 7.5820859058e-001
 3.9803570600e+000	 3.9592635063e-001	 7.2430620408e-001
 3.9765468906e+000	 4.3252147529e-001	 6.9996166991e-001
 3.9723862550e+000	 4.6919872246e-001	 6.8791377249e-001
 3.9678723450e+000	 5.0595360791e-001	 6.9133712251e-001
 3.9630024187e+000	 5.4278156711e-001	 7.1385182850e-001
 3.9577738019e+000	 5.7967795609e-001	 7.5953255681e-001
 3.9521838915e+000	 6.1663805252e-001	 8.3291693777e-001
 3.9462301570e+000	 6.5365705668e-001	 8.6312958151e-001
 3.9399101435e+000	 6.9073009268e-001	 8.0002724163e-001
 3.9332214737e+000	 7.2785220965e-001	 6.5190327806e-001
 3.6873951316e+000	 6.8236144655e-001	 7.3043097435e-001
 3.6807767345e+000	 7.1720473409e-001	 6.9450154523e-001
 3.6738084919e+000	 7.5208454618e-001	 6.6038140795e-001
 3.6664884066e+000	 7.8699603810e-001	 6.2823108098e-001
 3.6588145630e+000	 8.2193430012e-001	 5.9824600082e-001
 3.6507851289e+000	 8.5689435901e-001	 5.7065714063e-001
 3.6423983581e+000	 8.9187117966e-001	 5.4573155852e-001
 3.6336525918e+000	 9.2685966671e-001	 5.2377287200e-001
 3.6245462614e+000	 9.6185466627e-001	 5.0512165489e-001
 3.6150778896e+000	 9.9685096773e-001	 4.9015575337e-001
 3.6052460932e+000	 1.0318433056e+000	 4.7929051794e-001
 3.7119777658e+000	 6.8691052287e-001	 6.0903407569e-001
 3.7053152461e+000	 7.2198609898e-001	 5.9647606229e-001
 3.6983005485e+000	 7.5709844316e-001	 5.8347630298e-001
 3.6909316627e+000	 7.9224267836e-001	 5.7018445536e-001
 3.6832066601e+000	 8.2741386212e-001	 5.5678749093e-001
 3.6751236964e+000	 8.6260698807e-001	 5.4351036813e-001
 3.6666810138e+000	 8.9781698753e-001	 5.3061663244e-001
 3.6578769425e+000	 9.3303873116e-001	 5.1840893973e-001
 3.6487099031e+000	 9.6826703071e-001	 5.0722949909e-001
 3.6391784089e+000	 1.0034966409e+000	 4.9746043162e-001
 3.6292810672e+000	 1.0387222610e+000	 4.8952404179e-001
 3.7365604000e+000	 6.9145959918e-001	 4.8045611648e-001
 3.7298537576e+000	 7.2676746388e-001	 4.9153083610e-001
 3.7227926051e+000	 7.6211234014e-001	 4.9991585790e-001
 3.7153749187e+000	 7.9748931862e-001	 5.0574999619e-001
 3.7075987571e+000	 8.3289342413e-001	 5.0921178572e-001
 3.6994622640e+000	 8.6831961714e-001	 5.1052020940e-001
 3.6909636695e+000	 9.0376279540e-001	 5.0993535046e-001
 3.6821012931e+000	 9.3921779561e-001	 5.0775896481e-001
 3.6728735449e+000	 9.7467939516e-001	 5.0433497003e-001
 3.6632789282e+000	 1.0101423140e+000	 5.0004984702e-001
 3.6533160411e+000	 1.0456012164e+000	 4.9533295086e-001
 3.7611430342e+000	 6.9600867549e-001	 4.3864172697e-001
 3.7543922692e+000	 7.3154882878e-001	 4.1101315662e-001
 3.7472846618e+000	 7.6712623712e-001	 4.0984024773e-001
 3.7398181748e+000	 8.0273595887e-001	 4.3506435220e-001
 3.7319908542e+000	 8.3837298613e-001	 4.5565147740e-001
 3.7238008315e+000	 8.7403224620e-001	 4.7181466806e-001
 3.7152463252e+000	 9.0970860326e-001	 4.8381059393e-001
 3.7063256437e+000	 9.4539686005e-001	 4.9194017154e-001
 3.6970371866e+000	 9.8109175960e-001	 4.9654909941e-001
 3.6873794474e+000	 1.0167879871e+000	 4.9802830274e-001
 3.6773510151e+000	 1.0524801718e+000	 4.9681428391e-001
 3.7857256684e+000	 7.0055775180e-001	 5.0017574939e-001
 3.7789307808e+000	 7.3633019367e-001	 4.6466640256e-001
 3.7717767184e+000	 7.7214013409e-001	 4.3972019187e-001
 3.7642614308e+000	 8.0798259913e-001	 4.2484390986e-001
 3.7563829513e+000	 8.4385254813e-001	 4.1938696353e-001
 3.7481393990e+000	 8.7974487526e-001	 4.2751948521e-001
 3.7395289810e+000	 9.1565441113e-001	 4.5236310960e-001
 3.7305499943e+000	 9.5157592450e-001	 4.7106778752e-001
 3.7212008284e+000	 9.8750412404e-001	 4.8398107012e-001
 3.7114799667e+000	 1.0234336602e+000	 4.9149841106e-001
 3.7013859890e+000	 1.0593591271e+000	 4.9406355677e-001
 3.8103083026e+000	 7.0510682811e-001	 5.5102913197e-001
 3.8034692923e+000	 7.4111155856e-001	 5.0793815326e-001
 3.7962687750e+000	 7.7715403107e-001	 4.7554114400e-001
 3.7887046868e+000	 8.1322923938e-001	 4.5331546794e-001
 3.7807750484e+000	 8.4933211013e-001	 4.4057825632e-001
 3.7724779665e+000	 8.8545750432e-001	 4.3648499795e-001
 3.7638116367e+000	 9.2160021899e-001	 4.4002845428e-001
 3.7547743449e+000	 9.5775498894e-001	 4.5003791057e-001
 3.7453644701e+000	 9.9391648849e-001	 4.6673827586e-001
 3.7355804860e+000	 1.0300793333e+000	 4.8056114790e-001
 3.7254209630e+000	 1.0662380825e+000	 4.8717481144e-001
 3.8348909368e+000	 7.0965590442e-001	 5.9139909148e-001
 3.8280078039e+000	 7.4589292346e-001	 5.4103219960e-001
 3.8207608316e+000	 7.8216792804e-001	 5.0154872274e-001
 3.8131479429e+000	 8.1847587964e-001	 4.7239615390e-001
 3.8051671455e+000	 8.5481167213e-001	 4.5285883143e-001
 3.7968165341e+000	 8.9117013338e-001	 4.4205652995e-001
 3.7880942924e+000	 9.2754602686e-001	 4.3894338311e-001
 3.7789986955e+000	 9.6393405339e-001	 4.4230714897e-001
 3.7695281119e+000	 1.0003288529e+000	 4.5076882851e-001
 3.7596810052e+000	 1.0367250065e+000	 4.6278264669e-001
 3.7494559369e+000	 1.0731170379e+000	 4.7624066334e-001
 3.8594735710e+000	 7.1420498073e-001	 6.2148034770e-001
 3.8525463155e+000	 7.5067428835e-001	 5.6414990670e-001
 3.8452528882e+000	 7.8718182501e-001	 5.1795099748e-001
 3.8375911989e+000	 8.2372251989e-001	 4.8230079297e-001
 3.8295592426e+000	 8.6029123413e-001	 4.5645031362e-001
 3.8211551016e+000	 8.9688276244e-001	 4.3948301882e-001
 3.8123769481e+000	 9.3349183472e-001	 4.3031373674e-001
 3.8032230461e+000	 9.7011311783e-001	 4.2768794383e-001
 3.7936917536e+000	 1.0067412174e+000	 4.3018140435e-001
 3.7837815245e+000	 1.0433706796e+000	 4.3620017978e-001
 3.7734909109e+000	 1.0799959932e+000	 4.4398101706e-001
 3.8840562052e+000	 7.1875405704e-001	 6.4146520241e-001
 3.8770848270e+000	 7.5545565324e-001	 5.7749029059e-001
 3.8697449448e+000	 7.9219572198e-001	 5.2495376608e-001
 3.8620344550e+000	 8.2896916014e-001	 4.8324202499e-001
 3.8539513397e+000	 8.6577079613e-001	 4.5157223718e-001
 3.8454936691e+000	 9.0259539150e-001	 4.2899093757e-001
 3.8366596038e+000	 9.3943764258e-001	 4.1437296276e-001
 3.8274473967e+000	 9.7629218228e-001	 4.0642074431e-001
 3.8178553953e+000	 1.0131535818e+000	 4.0366396919e-001
 3.8078820438e+000	 1.0500163527e+000	 4.0445961749e-001
 3.7975258849e+000	 1.0868749486e+000	 4.0699238631e-001
 3.9086388394e+000	 7.2330313334e-001	 6.5154361549e-001
 3.9016233386e+000	 7.6023701813e-001	 5.8125009212e-001
 3.8942370014e+000	 7.9720961895e-001	 5.2276062629e-001
 3.8864777110e+000	 8.3421580039e-001	 4.7543037320e-001
 3.8783434368e+000	 8.7125035813e-001	 4.3844211165e-001
 3.8698322366e+000	 9.0830802055e-001	 4.1080483479e-001
 3.8609422596e+000	 9.4538345045e-001	 3.9135269312e-001
 3.8516717474e+000	 9.8247124672e-001	 3.7874430121e-001
 3.8420190371e+000	 1.0195659463e+000	 3.7146241904e-001
 3.8319825630e+000	 1.0566620258e+000	 3.6781401787e-001
 3.8215608588e+000	 1.0937539040e+000	 3.6593074004e-001
 3.9332214737e+000	 7.2785220965e-001	 6.5190327806e-001
 3.9261618501e+000	 7.6501838302e-001	 5.7562384808e-001
 3.9187290581e+000	 8.0222351592e-001	 5.1157304455e-001
 3.9109209671e+000	 8.3946244064e-001	 4.5907431033e-001
 3.9027355338e+000	 8.7672992013e-001	 4.1727548505e-001
 3.8941708042e+000	 9.1402064961e-001	 3.8514739475e-001
 3.8852249153e+000	 9.5132925831e-001	 3.6148280084e-001
 3.8758960980e+000	 9.8865031116e-001	 3.4489572007e-001
 3.8661826788e+000	 1.0259783107e+000	 3.3382112651e-001
 3.8560830823e+000	 1.0633076989e+000	 3.2651504572e-001
 3.8455958328e+000	 1.1006328594e+000	 3.2105505046e-001
 3.6052460932e+000	 1.0318433056e+000	 4.7929051794e-001
 3.5950495844e+000	 1.0668263616e+000	 4.8217934915e-001
 3.5844871729e+000	 1.1017947664e+000	 4.7547803924e-001
 3.5735577679e+000	 1.1367431019e+000	 4.5980911332e-001
 3.5622603795e+000	 1.1716659033e+000	 4.3584794443e-001
 3.5505941207e+000	 1.2065576614e+000	 4.0432266332e-001
 3.5385582090e+000	 1.2414128249e+000	 3.6601395079e-001
 3.5261519680e+000	 1.2762258024e+000	 2.8647152022e-001
 3.5133748290e+000	 1.3109909654e+000	 2.0875583680e-001
 3.5002263323e+000	 1.3457026502e+000	 1.4688326114e-001
 3.4867061290e+000	 1.3803551609e+000	 1.0062454489e-001
 3.6292810672e+000	 1.0387222610e+000	 4.8952404179e-001
 3.6190165816e+000	 1.0739385374e+000	 4.9750519193e-001
 3.6083837541e+000	 1.1091400648e+000	 4.9378284867e-001
 3.5973814863e+000	 1.1443213892e+000	 4.7899574279e-001
 3.5860087820e+000	 1.1794770093e+000	 4.5383821633e-001
 3.5742647481e+000	 1.2146013792e+000	 4.1906015152e-001
 3.5621485970e+000	 1.2496889104e+000	 3.7546677810e-001
 3.5496596478e+000	 1.2847339744e+000	 2.8274066805e-001
 3.5367973278e+000	 1.3197309052e+000	 2.0437658855e-001
 3.5235611745e+000	 1.3546740012e+000	 1.4063827962e-001
 3.5099508365e+000	 1.3895575286e+000	 9.1304657767e-002
 3.6533160411e+000	 1.0456012164e+000	 4.9533295086e-001
 3.6429835788e+000	 1.0810507131e+000	 5.0868829820e-001
 3.6322803352e+000	 1.1164853633e+000	 5.0822894444e-001
 3.6212052048e+000	 1.1518996766e+000	 4.9460995273e-001
 3.6097571845e+000	 1.1872881153e+000	 4.6854477372e-001
 3.5979353756e+000	 1.2226450969e+000	 4.3080519368e-001
 3.5857389851e+000	 1.2579649959e+000	 3.7140767882e-001
 3.5731673276e+000	 1.2932421464e+000	 2.7932800889e-001
 3.5602198267e+000	 1.3284708449e+000	 2.0087293953e-001
 3.5468960167e+000	 1.3636453522e+000	 1.3584411293e-001
 3.5331955441e+000	 1.3987598963e+000	 8.4028416758e-002
 3.6773510151e+000	 1.0524801718e+000	 4.9681428391e-001
 3.6669505761e+000	 1.0881628888e+000	 5.1581815031e-001
 3.6561769164e+000	 1.1238306617e+000	 5.1889774971e-001
 3.6450289232e+000	 1.1594779639e+000	 5.0672460569e-001
 3.6335055871e+000	 1.1950992213e+000	 4.8003141893e-001
 3.6216060031e+000	 1.2306888146e+000	 4.3961203446e-001
 3.6093293732e+000	 1.2662410814e+000	 3.6669987458e-001
 3.5966750074e+000	 1.3017503184e+000	 2.7626704342e-001
 3.5836423255e+000	 1.3372107847e+000	 1.9827013645e-001
 3.5702308590e+000	 1.3726167032e+000	 1.3251740110e-001
 3.5564402516e+000	 1.4079622641e+000	 7.8803503841e-002
 3.7013859890e+000	 1.0593591271e+000	 4.9406355677e-001
 3.6909175733e+000	 1.0952750646e+000	 5.1898287935e-001
 3.6800734975e+000	 1.1311759602e+000	 5.2586951725e-001
 3.6688526417e+000	 1.1670562512e+000	 5.1541158391e-001
 3.6572539896e+000	 1.2029103274e+000	 4.8836117320e-001
 3.6452766306e+000	 1.2387325324e+000	 4.4553434585e-001
 3.6329197612e+000	 1.2745171669e+000	 3.6185329433e-001
 3.6201826871e+000	 1.3102584905e+000	 2.7359114380e-001
 3.6070648244e+000	 1.3459507245e+000	 1.9659353316e-001
 3.5935657012e+000	 1.3815880542e+000	 1.3067513603e-001
 3.5796849591e+000	 1.4171646318e+000	 7.5638206484e-002
 3.7254209630e+000	 1.0662380825e+000	 4.8717481144e-001
 3.7148845705e+000	 1.1023872403e+000	 5.1826930872e-001
 3.7039700787e+000	 1.1385212586e+000	 5.2922336715e-001
 3.6926763602e+000	 1.1746345386e+000	 5.2074182088e-001
 3.6810023921e+000	 1.2107214334e+000	 4.9359630187e-001
 3.6689472580e+000	 1.2467762501e+000	 4.4862524561e-001
 3.6565101493e+000	 1.2827932524e+000	 3.5690864017e-001
 3.6436903669e+000	 1.3187666625e+000	 2.7133355785e-001
 3.6304873233e+000	 1.3546906642e+000	 1.9586858723e-001
 3.6169005434e+000	 1.3905594052e+000	 1.3033465009e-001
 3.6029296666e+000	 1.4263669996e+000	 7.4541398116e-002
 3.7494559369e+000	 1.0731170379e+000	 4.7624066334e-001
 3.7388515678e+000	 1.1094994161e+000	 5.1376299601e-001
 3.7278666598e+000	 1.1458665570e+000	 5.2903732318e-001
 3.7165000786e+000	 1.1822128259e+000	 5.2278533181e-001
 3.7047507947e+000	 1.2185325394e+000	 4.9579833863e-001
 3.6926178855e+000	 1.2548199679e+000	 4.4342012715e-001
 3.6801005373e+000	 1.2910693379e+000	 3.5190628154e-001
 3.6671980467e+000	 1.3272748345e+000	 2.6952741294e-001
 3.6539098221e+000	 1.3634306040e+000	 1.9612085661e-001
 3.6402353856e+000	 1.3995307562e+000	 1.3151360525e-001
 3.6261743742e+000	 1.4355693673e+000	 7.5522519347e-002
 3.7734909109e+000	 1.0799959932e+000	 4.4398101706e-001
 3.7628185650e+000	 1.1166115918e+000	 4.9149264221e-001
 3.7517632410e+000	 1.1532118555e+000	 5.2299574277e-001
 3.7403237971e+000	 1.1897911133e+000	 5.2161124284e-001
 3.7284991972e+000	 1.2263436454e+000	 4.9502810878e-001
 3.7162885130e+000	 1.2628636856e+000	 4.3357551681e-001
 3.7036909254e+000	 1.2993454234e+000	 3.4688626577e-001
 3.6907057265e+000	 1.3357830065e+000	 2.6820571994e-001
 3.6773323210e+000	 1.3721705438e+000	 1.9737599641e-001
 3.6635702278e+000	 1.4085021072e+000	 1.3422998257e-001
 3.6494190817e+000	 1.4447717350e+000	 7.8591559901e-002
 3.7975258849e+000	 1.0868749486e+000	 4.0699238631e-001
 3.7867855622e+000	 1.1237237676e+000	 4.5351580560e-001
 3.7756598221e+000	 1.1605571539e+000	 4.8401477099e-001
 3.7641475155e+000	 1.1973694006e+000	 4.9626576669e-001
 3.7522475997e+000	 1.2341547515e+000	 4.8789374989e-001
 3.7399591404e+000	 1.2709074034e+000	 4.2327387553e-001
 3.7272813135e+000	 1.3076215089e+000	 3.4188832832e-001
 3.7142134063e+000	 1.3442911785e+000	 2.6740137683e-001
 3.7007548198e+000	 1.3809104835e+000	 1.9965975587e-001
 3.6869050700e+000	 1.4174734582e+000	 1.3850207211e-001
 3.6726637892e+000	 1.4539741028e+000	 8.3759041243e-002
 3.8215608588e+000	 1.0937539040e+000	 3.6593074004e-001
 3.8107525595e+000	 1.1308359433e+000	 4.1233899935e-001
 3.7995564033e+000	 1.1679024524e+000	 4.4275616225e-001
 3.7879712340e+000	 1.2049476880e+000	 4.5489778301e-001
 3.7759960022e+000	 1.2419658575e+000	 4.4632503387e-001
 3.7636297679e+000	 1.2789511211e+000	 3.9280877364e-001
 3.7508717015e+000	 1.3158975944e+000	 3.3569985338e-001
 3.7377210861e+000	 1.3527993506e+000	 2.6714717226e-001
 3.7241773187e+000	 1.3896504233e+000	 2.0299797539e-001
 3.7102399122e+000	 1.4264448092e+000	 1.4434846318e-001
 3.6959084967e+000	 1.4631764705e+000	 9.1035999859e-002
 3.8455958328e+000	 1.1006328594e+000	 3.2105505046e-001
 3.8347195567e+000	 1.1379481191e+000	 3.6822871142e-001
 3.8234529844e+000	 1.1752477508e+000	 3.9949394140e-001
 3.8117949524e+000	 1.2125259753e+000	 4.1250411343e-001
 3.7997444048e+000	 1.2497769635e+000	 4.0475528833e-001
 3.7873003954e+000	 1.2869948389e+000	 3.4955854604e-001
 3.7744620896e+000	 1.3241736799e+000	 2.9825575991e-001
 3.7612287659e+000	 1.3613075226e+000	 2.5177548702e-001
 3.7475998176e+000	 1.3983903631e+000	 2.0741658362e-001
 3.7335747544e+000	 1.4354161602e+000	 1.5178803504e-001
 3.7191532043e+000	 1.4723788383e+000	 1.0043397116e-001
 3.4867061290e+000	 1.3803551609e+000	 1.0062454489e-001
 3.4728139820e+000	 1.4149427715e+000	 9.3827736326e-002
 3.4585497675e+000	 1.4494597290e+000	 8.4819184636e-002
 3.4439134760e+000	 1.4839002560e+000	 7.3163427506e-002
 3.4289052139e+000	 1.5182585531e+000	 5.8423322246e-002
 3.4135252041e+000	 1.5525288020e+000	 4.0160642974e-002
 3.3977737871e+000	 1.5867051686e+000	 1.7936687905e-002
 3.3816514220e+000	 1.6207818052e+000	-8.6871043423e-003
 3.3651586875e+000	 1.6547528541e+000	-4.0148530587e-002
 3.3482962822e+000	 1.6886124501e+000	-7.6883992266e-002
 3.3310650256e+000	 1.7223547240e+000	-1.1932785918e-001
 3.5099508365e+000	 1.3895575286e+000	 9.1304657767e-002
 3.4959660752e+000	 1.4243757233e+000	 7.9589189367e-002
 3.4816067659e+000	 1.4591227939e+000	 6.6231802682e-002
 3.4668728992e+000	 1.4937929244e+000	 5.0815083035e-002
 3.4517645820e+000	 1.5283802767e+000	 3.2919666482e-002
 3.4362820388e+000	 1.5628789940e+000	 1.2124818916e-002
 3.4204256123e+000	 1.5972832030e+000	-1.1990974597e-002
 3.4041957648e+000	 1.6315870172e+000	-3.9849411346e-002
 3.3875930787e+000	 1.6657845398e+000	-7.1871764485e-002
 3.3706182574e+000	 1.6998698665e+000	-1.0847826970e-001
 3.3532721258e+000	 1.7338370888e+000	-1.5008750626e-001
 3.5331955441e+000	 1.3987598963e+000	 8.4028416758e-002
 3.5191181684e+000	 1.4338086751e+000	 6.7945008817e-002
 3.5046637644e+000	 1.4687858588e+000	 5.0783399484e-002
 3.4898323224e+000	 1.5036855927e+000	 3.2143889151e-002
 3.4746239501e+000	 1.5385020004e+000	 1.1624561340e-002
 3.4590388735e+000	 1.5732291861e+000	-1.1178155904e-002
 3.4430774376e+000	 1.6078612375e+000	-3.6668918277e-002
 3.4267401076e+000	 1.6423922293e+000	-6.5252884215e-002
 3.4100274700e+000	 1.6768162255e+000	-9.7335125715e-002
 3.3929402326e+000	 1.7111272828e+000	-1.3332003214e-001
 3.3754792260e+000	 1.7453194536e+000	-1.7361070815e-001
 3.5564402516e+000	 1.4079622641e+000	 7.8803503841e-002
 3.5422702616e+000	 1.4432416269e+000	 5.8894735773e-002
 3.5277207628e+000	 1.4784489236e+000	 3.8465483961e-002
 3.5127917456e+000	 1.5135782611e+000	 1.7133435257e-002
 3.4974833182e+000	 1.5486237241e+000	-5.4862066911e-003
 3.4817957082e+000	 1.5835793781e+000	-2.9780177405e-002
 3.4657292628e+000	 1.6184392720e+000	-5.6136597091e-002
 3.4492844505e+000	 1.6531974413e+000	-8.4944406750e-002
 3.4324618612e+000	 1.6878479112e+000	-1.1659279595e-001
 3.4152622078e+000	 1.7223846991e+000	-1.5147062340e-001
 3.3976863261e+000	 1.7568018184e+000	-1.8996583147e-001
 3.5796849591e+000	 1.4171646318e+000	 7.5638206484e-002
 3.5654223549e+000	 1.4526745787e+000	 5.2438749054e-002
 3.5507777613e+000	 1.4881119885e+000	 2.9270631944e-002
 3.5357511687e+000	 1.5234709295e+000	 5.7686037080e-003
 3.5203426863e+000	 1.5587454478e+000	-1.8435335407e-002
 3.5045525429e+000	 1.5939295701e+000	-4.3711406428e-002
 3.4883810881e+000	 1.6290173064e+000	-7.0431514073e-002
 3.4718287933e+000	 1.6640026533e+000	-9.8968699615e-002
 3.4548962525e+000	 1.6988795969e+000	-1.2969658526e-001
 3.4375841830e+000	 1.7336421155e+000	-1.6298881114e-001
 3.4198934263e+000	 1.7682841833e+000	-1.9921846601e-001
 3.6029296666e+000	 1.4263669996e+000	 7.4541398116e-002
 3.5885744481e+000	 1.4621075305e+000	 4.8578238174e-002
 3.5738347597e+000	 1.4977750533e+000	 2.3192451765e-002
 3.5587105919e+000	 1.5333635979e+000	-1.9644718961e-003
 3.5432020544e+000	 1.5688671715e+000	-2.7244055785e-002
 3.5273093776e+000	 1.6042797621e+000	-5.3000324706e-002
 3.5110329133e+000	 1.6395953409e+000	-7.9589284260e-002
 3.4943731361e+000	 1.6748078654e+000	-1.0736839011e-001
 3.4773306437e+000	 1.7099112826e+000	-1.3669600863e-001
 3.4599061583e+000	 1.7448995318e+000	-1.6793086991e-001
 3.4421005265e+000	 1.7797665481e+000	-2.0143151436e-001
 3.6261743742e+000	 1.4355693673e+000	 7.5522519347e-002
 3.6117265413e+000	 1.4715404823e+000	 4.7315177362e-002
 3.5968917582e+000	 1.5074381182e+000	 2.0225551156e-002
 3.5816700151e+000	 1.5432562662e+000	-6.0784468168e-003
 3.5660614225e+000	 1.5789888952e+000	-3.1932178996e-002
 3.5500662123e+000	 1.6146299541e+000	-5.7673788684e-002
 3.5336847386e+000	 1.6501733753e+000	-8.3643695215e-002
 3.5169174789e+000	 1.6856130774e+000	-1.1018407929e-001
 3.4997650350e+000	 1.7209429682e+000	-1.3763835949e-001
 3.4822281335e+000	 1.7561569481e+000	-1.6635066107e-001
 3.4643076266e+000	 1.7912489129e+000	-1.9666527797e-001
 3.6494190817e+000	 1.4447717350e+000	 7.8591559901e-002
 3.6348786345e+000	 1.4809734342e+000	 4.8652300568e-002
 3.6199487566e+000	 1.5171011831e+000	 2.0365505426e-002
 3.6046294383e+000	 1.5531489346e+000	-6.5848037469e-003
 3.5889207906e+000	 1.5891106189e+000	-3.2518141623e-002
 3.5728230470e+000	 1.6249801461e+000	-5.7757081277e-002
 3.5563365638e+000	 1.6607514098e+000	-8.2626765217e-002
 3.5394618217e+000	 1.6964182894e+000	-1.0745440644e-001
 3.5221994262e+000	 1.7319746539e+000	-1.3256878050e-001
 3.5045501087e+000	 1.7674143645e+000	-1.5829970965e-001
 3.4865147268e+000	 1.8027312778e+000	-1.8497754003e-001
 3.6726637892e+000	 1.4539741028e+000	 8.3759041243e-002
 3.6580307277e+000	 1.4904063860e+000	 5.2593077422e-002
 3.6430057551e+000	 1.5267642479e+000	 2.3608826842e-002
 3.6275888614e+000	 1.5630416030e+000	-3.4938899175e-003
 3.6117801587e+000	 1.5992323426e+000	-2.9019049160e-002
 3.5955798816e+000	 1.6353303381e+000	-5.3273961668e-002
 3.5789883890e+000	 1.6713294442e+000	-7.6568799258e-002
 3.5620061645e+000	 1.7072235015e+000	-9.9216111217e-002
 3.5446338175e+000	 1.7430063396e+000	-1.2153033158e-001
 3.5268720839e+000	 1.7786717808e+000	-1.4382727828e-001
 3.5087218270e+000	 1.8142136426e+000	-1.6642364517e-001
 3.6959084967e+000	 1.4631764705e+000	 9.1035999859e-002
 3.6811828209e+000	 1.4998393378e+000	 5.9141690099e-002
 3.6660627535e+000	 1.5364273128e+000	 2.9952935163e-002
 3.6505482846e+000	 1.5729342714e+000	 3.1850471956e-003
 3.6346395268e+000	 1.6093540662e+000	-2.1450717869e-002
 3.6183367163e+000	 1.6456805302e+000	-4.4246713221e-002
 3.6016402143e+000	 1.6819074787e+000	-6.5498442918e-002
 3.5845505073e+000	 1.7180287135e+000	-8.5504093358e-002
 3.5670682087e+000	 1.7540380253e+000	-1.0456405543e-001
 3.5491940591e+000	 1.7899291972e+000	-1.2298043834e-001
 3.5309289271e+000	 1.8256960074e+000	-1.4105657611e-001
 3.7191532043e+000	 1.4723788383e+000	 1.0043397116e-001
 3.7043349141e+000	 1.5092722896e+000	 6.8303011053e-002
 3.6891197520e+000	 1.5460903777e+000	 3.9396129280e-002
 3.6735077078e+000	 1.5828269397e+000	 1.3443825505e-002
 3.6574988949e+000	 1.6194757899e+000	-9.8277150693e-003
 3.6410935510e+000	 1.6560307222e+000	-3.0696189603e-002
 3.6242920395e+000	 1.6924855132e+000	-4.9442734219e-002
 3.6070948501e+000	 1.7288339256e+000	-6.6351470177e-002
 3.5895026000e+000	 1.7650697110e+000	-8.1709040561e-002
 3.5715160343e+000	 1.8011866135e+000	-9.5804138436e-002
 3.5531360273e+000	 1.8371783722e+000	-1.0892702749e-001
 3.3310650256e+000	 1.7223547240e+000	-1.1932785918e-001
 3.3134658586e+000	 1.7559738049e+000	-1.3091360904e-001
 3.2954998440e+000	 1.7894638242e+000	-1.3685526257e-001
 3.2771681667e+000	 1.8228189179e+000	-1.3717761494e-001
 3.2584721341e+000	 1.8560332301e+000	-1.3190891679e-001
 3.2394131765e+000	 1.8891009162e+000	-1.5696884480e-001
 3.2199928470e+000	 1.9220161459e+000	-2.2438427432e-001
 3.2002128214e+000	 1.9547731064e+000	-2.8512642649e-001
 3.1800748984e+000	 1.9873660057e+000	-3.3824428787e-001
 3.1595809991e+000	 2.0197890756e+000	-3.8277391448e-001
 3.1387331671e+000	 2.0520365752e+000	-4.1774060690e-001
 3.3532721258e+000	 1.7338370888e+000	-1.5008750626e-001
 3.3355556310e+000	 1.7676802970e+000	-1.5340699061e-001
 3.3174698430e+000	 1.8013935830e+000	-1.5149497903e-001
 3.2990159544e+000	 1.8349710440e+000	-1.4441652639e-001
 3.2801952817e+000	 1.8684067849e+000	-1.3223998784e-001
 3.2610092644e+000	 1.9016949223e+000	-1.8159423232e-001
 3.2414594660e+000	 1.9348295869e+000	-2.4227609552e-001
 3.2215475736e+000	 1.9678049271e+000	-2.9700860761e-001
 3.2012753977e+000	 2.0006151124e+000	-3.4484875539e-001
 3.1806448724e+000	 2.0332543361e+000	-3.8483987093e-001
 3.1596580548e+000	 2.0657168190e+000	-4.1601381966e-001
 3.3754792260e+000	 1.7453194536e+000	-1.7361070815e-001
 3.3576454034e+000	 1.7793867890e+000	-1.6928814091e-001
 3.3394398419e+000	 1.8133233418e+000	-1.6014263989e-001
 3.3208637422e+000	 1.8471231701e+000	-1.4627925637e-001
 3.3019184292e+000	 1.8807803398e+000	-1.4184248770e-001
 3.2826053522e+000	 1.9142889284e+000	-2.0092876616e-001
 3.2629260850e+000	 1.9476430278e+000	-2.5570430641e-001
 3.2428823257e+000	 1.9808367478e+000	-3.0524975027e-001
 3.2224758970e+000	 2.0138642191e+000	-3.4862921060e-001
 3.2017087458e+000	 2.0467195966e+000	-3.8489241805e-001
 3.1805829426e+000	 2.0793970629e+000	-4.1307692337e-001
 3.3976863261e+000	 1.7568018184e+000	-1.8996583147e-001
 3.3797351758e+000	 1.7910932810e+000	-1.7861075495e-001
 3.3614098409e+000	 1.8252531007e+000	-1.6283738415e-001
 3.3427115300e+000	 1.8592752962e+000	-1.4279051104e-001
 3.3236415768e+000	 1.8931538947e+000	-1.6184478218e-001
 3.3042014401e+000	 1.9268829345e+000	-2.1513508995e-001
 3.2843927040e+000	 1.9604564688e+000	-2.6482237966e-001
 3.2642170778e+000	 1.9938685685e+000	-3.0999429149e-001
 3.2436763964e+000	 2.0271133258e+000	-3.4972119183e-001
 3.2227726191e+000	 2.0601848571e+000	-3.8305833402e-001
 3.2015078304e+000	 2.0930773067e+000	-4.0904807609e-001
 3.4198934263e+000	 1.7682841833e+000	-1.9921846601e-001
 3.4018249482e+000	 1.8027997731e+000	-1.8142611421e-001
 3.3833798398e+000	 1.8371828595e+000	-1.5961629788e-001
 3.3645593178e+000	 1.8714274223e+000	-1.3397330152e-001
 3.3453647243e+000	 1.9055274495e+000	-1.7606773401e-001
 3.3257975279e+000	 1.9394769406e+000	-2.2437485893e-001
 3.3058593229e+000	 1.9732699098e+000	-2.6978314795e-001
 3.2855518300e+000	 2.0069003892e+000	-3.1138637321e-001
 3.2648768957e+000	 2.0403624325e+000	-3.4826028358e-001
 3.2438364924e+000	 2.0736501176e+000	-3.7946478061e-001
 3.2224327182e+000	 2.1067575505e+000	-4.0404615287e-001
 3.4421005265e+000	 1.7797665481e+000	-2.0143151436e-001
 3.4239147206e+000	 1.8145062651e+000	-1.7778316442e-001
 3.4053498388e+000	 1.8491126183e+000	-1.5051448050e-001
 3.3864071056e+000	 1.8835795485e+000	-1.3923452835e-001
 3.3670878719e+000	 1.9179010044e+000	-1.8468065429e-001
 3.3473936158e+000	 1.9520709467e+000	-2.2880877181e-001
 3.3273259419e+000	 1.9860833507e+000	-2.7073882465e-001
 3.3068865821e+000	 2.0199322099e+000	-3.0956985186e-001
 3.2860773950e+000	 2.0536115392e+000	-3.4438211508e-001
 3.2649003657e+000	 2.0871153781e+000	-3.7423929085e-001
 3.2433576059e+000	 2.1204377944e+000	-3.9819072261e-001
 3.4643076266e+000	 1.7912489129e+000	-1.9666527797e-001
 3.4460044930e+000	 1.8262127571e+000	-1.6772859051e-001
 3.4273198378e+000	 1.8610423772e+000	-1.3556510837e-001
 3.4082548933e+000	 1.8957316746e+000	-1.4648089376e-001
 3.3888110195e+000	 1.9302745593e+000	-1.8785159875e-001
 3.3689897036e+000	 1.9646649528e+000	-2.2859660144e-001
 3.3487925609e+000	 1.9988967917e+000	-2.6784102363e-001
 3.3282213343e+000	 2.0329640306e+000	-3.0468830748e-001
 3.3072778943e+000	 2.0668606459e+000	-3.3822235886e-001
 3.2859642391e+000	 2.1005806386e+000	-3.6750975707e-001
 3.2642824937e+000	 2.1341180382e+000	-3.9160202585e-001
 3.4865147268e+000	 1.8027312778e+000	-1.8497754003e-001
 3.4680942654e+000	 1.8379192492e+000	-1.5130688855e-001
 3.4492898367e+000	 1.8729721360e+000	-1.1479949612e-001
 3.4301026811e+000	 1.9078838007e+000	-1.4766188556e-001
 3.4105341670e+000	 1.9426481142e+000	-1.8574740776e-001
 3.3905857914e+000	 1.9772589590e+000	-2.2389722430e-001
 3.3702591799e+000	 2.0117102327e+000	-2.6124077836e-001
 3.3495560864e+000	 2.0459958514e+000	-2.9688505254e-001
 3.3284783936e+000	 2.0801097526e+000	-3.2991672932e-001
 3.3070281124e+000	 2.1140458991e+000	-3.5940441951e-001
 3.2852073815e+000	 2.1477982820e+000	-3.8440095334e-001
 3.5087218270e+000	 1.8142136426e+000	-1.6642364517e-001
 3.4901840378e+000	 1.8496257412e+000	-1.2856043506e-001
 3.4712598357e+000	 1.8849018948e+000	-1.0896197144e-001
 3.4519504689e+000	 1.9200359268e+000	-1.4295093914e-001
 3.4322573146e+000	 1.9550216690e+000	-1.7853374475e-001
 3.4121818793e+000	 1.9898529651e+000	-2.1486864886e-001
 3.3917257989e+000	 2.0245236737e+000	-2.5108856032e-001
 3.3708908386e+000	 2.0590276721e+000	-2.8630314039e-001
 3.3496788930e+000	 2.0933588593e+000	-3.1960098146e-001
 3.3280919857e+000	 2.1275111596e+000	-3.5005185530e-001
 3.3061322693e+000	 2.1614785259e+000	-3.7670902551e-001
 3.5309289271e+000	 1.8256960074e+000	-1.4105657611e-001
 3.5122738102e+000	 1.8613322332e+000	-9.9529553623e-002
 3.4932298346e+000	 1.8968316537e+000	-1.0094110494e-001
 3.4737982567e+000	 1.9321880529e+000	-1.3252004812e-001
 3.4539804622e+000	 1.9673952239e+000	-1.6637513326e-001
 3.4337779671e+000	 2.0024469712e+000	-2.0166804285e-001
 3.4131924178e+000	 2.0373371146e+000	-2.3753429660e-001
 3.3922255907e+000	 2.0720594928e+000	-2.7308537343e-001
 3.3708793923e+000	 2.1066079660e+000	-3.0741090956e-001
 3.3491558591e+000	 2.1409764201e+000	-3.3958096784e-001
 3.3270571571e+000	 2.1751587697e+000	-3.6864837262e-001
 3.5531360273e+000	 1.8371783722e+000	-1.0892702749e-001
 3.5343635826e+000	 1.8730387253e+000	-6.4252579064e-002
 3.5151998336e+000	 1.9087614125e+000	-8.6601952482e-002
 3.4956460444e+000	 1.9443401791e+000	-1.1653980940e-001
 3.4757036097e+000	 1.9797687788e+000	-1.4943499255e-001
 3.4553740550e+000	 2.0150409773e+000	-1.8445175958e-001
 3.4346590368e+000	 2.0501505556e+000	-2.2072738699e-001
 3.4135603429e+000	 2.0850913135e+000	-2.5737431093e-001
 3.3920798916e+000	 2.1198570727e+000	-2.9348234600e-001
 3.3702197324e+000	 2.1544416806e+000	-3.2812097663e-001
 3.3479820449e+000	 2.1888390135e+000	-3.6034171573e-001
 3.1387331671e+000	 2.0520365752e+000	-4.1774060690e-001
 3.1175335675e+000	 2.0841027938e+000	-4.4000761354e-001
 3.0959844873e+000	 2.1159820543e+000	-4.4570782845e-001
 3.0740883340e+000	 2.1476687162e+000	-4.5639157057e-001
 3.0518476352e+000	 2.1791571792e+000	-4.7199014425e-001
 3.0292650379e+000	 2.2104418857e+000	-4.9242539818e-001
 3.0063433076e+000	 2.2415173246e+000	-5.1761059599e-001
 2.9830853273e+000	 2.2723780342e+000	-5.4745130669e-001
 2.9594940961e+000	 2.3030186050e+000	-5.8184631205e-001
 2.9355727287e+000	 2.3334336833e+000	-6.2068852816e-001
 2.9113244534e+000	 2.3636179740e+000	-6.6386593820e-001
 3.1596580548e+000	 2.0657168190e+000	-4.1601381966e-001
 3.1383171247e+000	 2.0979968124e+000	-4.5076254322e-001
 3.1166243839e+000	 2.1300886013e+000	-4.7094234984e-001
 3.0945822562e+000	 2.1619865077e+000	-4.8026954700e-001
 3.0721932861e+000	 2.1936848937e+000	-4.9475559940e-001
 3.0494601381e+000	 2.2251781649e+000	-5.1429445925e-001
 3.0263855963e+000	 2.2564607735e+000	-5.3877120995e-001
 3.0029725628e+000	 2.2875272211e+000	-5.6806300252e-001
 2.9792240568e+000	 2.3183720624e+000	-6.0204000962e-001
 2.9551432136e+000	 2.3489899079e+000	-6.4056639423e-001
 2.9307332831e+000	 2.3793754271e+000	-6.8350128989e-001
 3.1805829426e+000	 2.0793970629e+000	-4.1307692337e-001
 3.1591006818e+000	 2.1118908310e+000	-4.5055762693e-001
 3.1372642805e+000	 2.1441951483e+000	-4.8119666806e-001
 3.1150761784e+000	 2.1763042991e+000	-4.9905456477e-001
 3.0925389370e+000	 2.2082126082e+000	-5.1212238999e-001
 3.0696552384e+000	 2.2399144442e+000	-5.3045937386e-001
 3.0464278850e+000	 2.2714042223e+000	-5.5392225678e-001
 3.0228597983e+000	 2.3026764080e+000	-5.8235960904e-001
 2.9989540174e+000	 2.3337255197e+000	-6.1561283194e-001
 2.9747136984e+000	 2.3645461324e+000	-6.5351717398e-001
 2.9501421128e+000	 2.3951328803e+000	-6.9590275899e-001
 3.2015078304e+000	 2.0930773067e+000	-4.0904807609e-001
 3.1798842389e+000	 2.1257848497e+000	-4.4910349268e-001
 3.1579041771e+000	 2.1583016954e+000	-4.8241809714e-001
 3.1355701007e+000	 2.1906220906e+000	-5.0819844246e-001
 3.1128845879e+000	 2.2227403228e+000	-5.2418228555e-001
 3.0898503386e+000	 2.2546507234e+000	-5.4102076461e-001
 3.0664701738e+000	 2.2863476711e+000	-5.6317319722e-001
 3.0427470338e+000	 2.3178255949e+000	-5.9045940394e-001
 3.0186839780e+000	 2.3490789771e+000	-6.2269184609e-001
 2.9942841833e+000	 2.3801023570e+000	-6.5967669000e-001
 2.9695509425e+000	 2.4108903335e+000	-7.0121488349e-001
 3.2224327182e+000	 2.1067575505e+000	-4.0404615287e-001
 3.2006677960e+000	 2.1396788683e+000	-4.4652925379e-001
 3.1785440737e+000	 2.1724082424e+000	-4.8237083246e-001
 3.1560640229e+000	 2.2049398820e+000	-5.1073399177e-001
 3.1332302388e+000	 2.2372680373e+000	-5.3077673050e-001
 3.1100454389e+000	 2.2693870027e+000	-5.4607916072e-001
 3.0865124625e+000	 2.3012911200e+000	-5.6663323558e-001
 3.0626342693e+000	 2.3329747818e+000	-5.9248024519e-001
 3.0384139387e+000	 2.3644324345e+000	-6.2340353611e-001
 3.0138546681e+000	 2.3956585816e+000	-6.5918001857e-001
 2.9889597722e+000	 2.4266477866e+000	-6.9958129184e-001
 3.2433576059e+000	 2.1204377944e+000	-3.9819072261e-001
 3.2214513531e+000	 2.1535728869e+000	-4.4296456147e-001
 3.1991839703e+000	 2.1865147894e+000	-4.8119460195e-001
 3.1765579451e+000	 2.2192576734e+000	-5.1200007088e-001
 3.1535758897e+000	 2.2517957518e+000	-5.3449481586e-001
 3.1302405392e+000	 2.2841232819e+000	-5.4778966114e-001
 3.1065547512e+000	 2.3162345688e+000	-5.6441132794e-001
 3.0825215048e+000	 2.3481239687e+000	-5.8853958460e-001
 3.0581438993e+000	 2.3797858918e+000	-6.1787382183e-001
 3.0334251530e+000	 2.4112148061e+000	-6.5216151371e-001
 3.0083686019e+000	 2.4424052398e+000	-6.9114473223e-001
 3.2642824937e+000	 2.1341180382e+000	-3.9160202585e-001
 3.2422349102e+000	 2.1674669055e+000	-4.3853958763e-001
 3.2198238668e+000	 2.2006213364e+000	-4.7902950274e-001
 3.1970518674e+000	 2.2335754649e+000	-5.1214668814e-001
 3.1739215406e+000	 2.2663234664e+000	-5.3696040610e-001
 3.1504356394e+000	 2.2988595611e+000	-5.5253669449e-001
 3.1265970399e+000	 2.3311780176e+000	-5.5794082233e-001
 3.1024087403e+000	 2.3632731556e+000	-5.7875448083e-001
 3.0778738600e+000	 2.3951393492e+000	-6.0622807695e-001
 3.0529956378e+000	 2.4267710307e+000	-6.3875483032e-001
 3.0277774315e+000	 2.4581626929e+000	-6.7604710089e-001
 3.2852073815e+000	 2.1477982820e+000	-3.8440095334e-001
 3.2630184674e+000	 2.1813609242e+000	-4.3338500824e-001
 3.2404637634e+000	 2.2147278835e+000	-4.7601598941e-001
 3.2175457896e+000	 2.2478932563e+000	-5.1132406227e-001
 3.1942671915e+000	 2.2808511809e+000	-5.3833346181e-001
 3.1706307397e+000	 2.3135958404e+000	-5.5606499803e-001
 3.1466393286e+000	 2.3461214665e+000	-5.6353858761e-001
 3.1222959759e+000	 2.3784223425e+000	-5.6324161188e-001
 3.0976038206e+000	 2.4104928066e+000	-5.8859114644e-001
 3.0725661227e+000	 2.4423272552e+000	-6.1909294646e-001
 3.0471862612e+000	 2.4739201461e+000	-6.5442946913e-001
 3.3061322693e+000	 2.1614785259e+000	-3.7670902551e-001
 3.2838020245e+000	 2.1952549428e+000	-4.2763198741e-001
 3.2611036600e+000	 2.2288344305e+000	-4.7229486266e-001
 3.2380397118e+000	 2.2622110478e+000	-5.0968261573e-001
 3.2146128424e+000	 2.2953788954e+000	-5.3877400453e-001
 3.1908258399e+000	 2.3283321196e+000	-5.5854416197e-001
 3.1666816174e+000	 2.3610649153e+000	-5.6796720447e-001
 3.1421832114e+000	 2.3935715294e+000	-5.6601886061e-001
 3.1173337812e+000	 2.4258462639e+000	-5.6508736326e-001
 3.0921366076e+000	 2.4578834798e+000	-5.9330818479e-001
 3.0665950909e+000	 2.4896775993e+000	-6.2643210953e-001
 3.3270571571e+000	 2.1751587697e+000	-3.6864837262e-001
 3.3045855816e+000	 2.2091489614e+000	-4.2141216201e-001
 3.2817435566e+000	 2.2429409775e+000	-4.6800725845e-001
 3.2585336340e+000	 2.2765288392e+000	-5.0737296830e-001
 3.2349584933e+000	 2.3099066099e+000	-5.3844211491e-001
 3.2110209402e+000	 2.3430683989e+000	-5.6014369707e-001
 3.1867239061e+000	 2.3760083641e+000	-5.7140557534e-001
 3.1620704469e+000	 2.4087207162e+000	-5.7115717913e-001
 3.1370637419e+000	 2.4411997213e+000	-5.5833222752e-001
 3.1117070924e+000	 2.4734397043e+000	-5.6153223313e-001
 3.0860039206e+000	 2.5054350524e+000	-5.9401468369e-001
 3.3479820449e+000	 2.1888390135e+000	-3.6034171573e-001
 3.3253691387e+000	 2.2230429801e+000	-4.1485762695e-001
 3.3023834532e+000	 2.2570475246e+000	-4.6329463752e-001
 3.2790275563e+000	 2.2908466307e+000	-5.0454593093e-001
 3.2553041442e+000	 2.3244343245e+000	-5.3749793080e-001
 3.2312160404e+000	 2.3578046781e+000	-5.6103303713e-001
 3.2067661948e+000	 2.3909518130e+000	-5.7403239133e-001
 3.1819576824e+000	 2.4238699031e+000	-5.7537866255e-001
 3.1567937025e+000	 2.4565531787e+000	-5.6395884845e-001
 3.1312775773e+000	 2.4889959289e+000	-5.3866708257e-001
 3.1054127503e+000	 2.5211925056e+000	-5.6010830165e-001
 2.9113244534e+000	 2.3636179740e+000	-6.6386593820e-001
 2.8867526112e+000	 2.3935662434e+000	-6.3807766709e-001
 2.8618606541e+000	 2.4232733227e+000	-6.1606256258e-001
 2.8366521436e+000	 2.4527341104e+000	-5.9778646603e-001
 2.8111307490e+000	 2.4819435755e+000	-5.8321412231e-001
 2.7853002459e+000	 2.5108967602e+000	-5.7525630170e-001
 2.7591645138e+000	 2.5395887828e+000	-5.7686222109e-001
 2.7327275349e+000	 2.5680148403e+000	-5.8287205590e-001
 2.7059933915e+000	 2.5961702111e+000	-5.9231556355e-001
 2.6789662642e+000	 2.6240502578e+000	-6.0423564853e-001
 2.6516504295e+000	 2.6516504295e+000	-6.1769111829e-001
 2.9307332831e+000	 2.3793754271e+000	-6.8350128989e-001
 2.9059976286e+000	 2.4095233517e+000	-6.5896319662e-001
 2.8809397251e+000	 2.4394284782e+000	-6.3757401523e-001
 2.8555631579e+000	 2.4690856712e+000	-6.1928987831e-001
 2.8298716207e+000	 2.4984898660e+000	-6.0406657367e-001
 2.8038689142e+000	 2.5276360719e+000	-6.0044518055e-001
 2.7775589439e+000	 2.5565193747e+000	-6.0187809081e-001
 2.7509457185e+000	 2.5851349392e+000	-6.0694523120e-001
 2.7240333475e+000	 2.6134780125e+000	-6.1464557533e-001
 2.6968260392e+000	 2.6415439262e+000	-6.2399250623e-001
 2.6693280990e+000	 2.6693280990e+000	-6.3401663972e-001
 2.9501421128e+000	 2.3951328803e+000	-6.9590275899e-001
 2.9252426460e+000	 2.4254804600e+000	-6.7270028598e-001
 2.9000187961e+000	 2.4555836337e+000	-6.5203027675e-001
 2.8744741721e+000	 2.4854372319e+000	-6.3383882020e-001
 2.8486124923e+000	 2.5150361565e+000	-6.2275119851e-001
 2.8224375825e+000	 2.5443753837e+000	-6.2038037242e-001
 2.7959533740e+000	 2.5734499666e+000	-6.2192042992e-001
 2.7691639021e+000	 2.6022550381e+000	-6.2632604709e-001
 2.7420733034e+000	 2.6307858139e+000	-6.3256463464e-001
 2.7146858143e+000	 2.6590375946e+000	-6.3961928317e-001
 2.6870057685e+000	 2.6870057685e+000	-6.4649165548e-001
 2.9695509425e+000	 2.4108903335e+000	-7.0121488349e-001
 2.9444876634e+000	 2.4414375683e+000	-6.7943443662e-001
 2.9190978672e+000	 2.4717387892e+000	-6.5957758864e-001
 2.8933851864e+000	 2.5017887926e+000	-6.4211617453e-001
 2.8673533640e+000	 2.5315824470e+000	-6.3660334069e-001
 2.8410062508e+000	 2.5611146954e+000	-6.3535673590e-001
 2.8143478041e+000	 2.5903805584e+000	-6.3728660614e-001
 2.7873820856e+000	 2.6193751371e+000	-6.4131407358e-001
 2.7601132593e+000	 2.6480936153e+000	-6.4637420144e-001
 2.7325455894e+000	 2.6765312630e+000	-6.5141901176e-001
 2.7046834380e+000	 2.7046834380e+000	-6.5542044789e-001
 2.9889597722e+000	 2.4266477866e+000	-6.9958129184e-001
 2.9637326808e+000	 2.4573946766e+000	-6.7931027748e-001
 2.9381769382e+000	 2.4878939447e+000	-6.6036136169e-001
 2.9122962007e+000	 2.5181403534e+000	-6.4891366877e-001
 2.8860942356e+000	 2.5481287375e+000	-6.4550680390e-001
 2.8595749191e+000	 2.5778540071e+000	-6.4566845195e-001
 2.8327422342e+000	 2.6073111503e+000	-6.4827336976e-001
 2.8056002692e+000	 2.6364952360e+000	-6.5220832809e-001
 2.7781532153e+000	 2.6654014167e+000	-6.5637525253e-001
 2.7504053645e+000	 2.6940249314e+000	-6.5969431512e-001
 2.7223611076e+000	 2.7223611076e+000	-6.6110696834e-001
 3.0083686019e+000	 2.4424052398e+000	-6.9114473223e-001
 2.9829776982e+000	 2.4733517849e+000	-6.7247159318e-001
 2.9572560092e+000	 2.5040491002e+000	-6.5582748156e-001
 2.9312072150e+000	 2.5344919141e+000	-6.5076785919e-001
 2.9048351073e+000	 2.5646750280e+000	-6.4975219360e-001
 2.8781435874e+000	 2.5945933189e+000	-6.5160904572e-001
 2.8511366643e+000	 2.6242417422e+000	-6.5517687363e-001
 2.8238184528e+000	 2.6536153349e+000	-6.5930729334e-001
 2.7961931712e+000	 2.6827092181e+000	-6.6286829711e-001
 2.7682651396e+000	 2.7115185997e+000	-6.6474742028e-001
 2.7400387771e+000	 2.7400387771e+000	-6.6385484796e-001
 3.0277774315e+000	 2.4581626929e+000	-6.7604710089e-001
 3.0022227156e+000	 2.4893088932e+000	-6.5906135104e-001
 2.9763350802e+000	 2.5202042556e+000	-6.4968897840e-001
 2.9501182293e+000	 2.5508434748e+000	-6.4796541087e-001
 2.9235759790e+000	 2.5812213185e+000	-6.4962942836e-001
 2.8967122557e+000	 2.6113326306e+000	-6.5347140761e-001
 2.8695310944e+000	 2.6411723341e+000	-6.5829269225e-001
 2.8420366363e+000	 2.6707354339e+000	-6.6290893442e-001
 2.8142331272e+000	 2.7000170196e+000	-6.6615339177e-001
 2.7861249147e+000	 2.7290122681e+000	-6.6688017087e-001
 2.7577164466e+000	 2.7577164466e+000	-6.6396740789e-001
 3.0471862612e+000	 2.4739201461e+000	-6.5442946913e-001
 3.0214677330e+000	 2.5052660015e+000	-6.4097813151e-001
 2.9954141513e+000	 2.5363594111e+000	-6.3888999562e-001
 2.9690292436e+000	 2.5671950356e+000	-6.4079227759e-001
 2.9423168506e+000	 2.5977676090e+000	-6.4542776173e-001
 2.9152809240e+000	 2.6280719423e+000	-6.5154781346e-001
 2.8879255245e+000	 2.6581029260e+000	-6.5791584024e-001
 2.8602548199e+000	 2.6878555328e+000	-6.6331071533e-001
 2.8322730831e+000	 2.7173248210e+000	-6.6653015491e-001
 2.8039846898e+000	 2.7465059365e+000	-6.6639403933e-001
 2.7753941161e+000	 2.7753941161e+000	-6.6174766914e-001
 3.0665950909e+000	 2.4896775993e+000	-6.2643210953e-001
 3.0407127505e+000	 2.5212231098e+000	-6.2126924556e-001
 3.0144932223e+000	 2.5525145666e+000	-6.2371218649e-001
 2.9879402579e+000	 2.5835465963e+000	-6.2953372431e-001
 2.9610577223e+000	 2.6143138995e+000	-6.3743580326e-001
 2.9338495923e+000	 2.6448112541e+000	-6.4612994401e-001
 2.9063199545e+000	 2.6750335179e+000	-6.5434079003e-001
 2.8784730034e+000	 2.7049756317e+000	-6.6080961482e-001
 2.8503130390e+000	 2.7346326224e+000	-6.6429778060e-001
 2.8218444649e+000	 2.7639996049e+000	-6.6359013864e-001
 2.7930717857e+000	 2.7930717857e+000	-6.5749836212e-001
 3.0860039206e+000	 2.5054350524e+000	-5.9401468369e-001
 3.0599577679e+000	 2.5371802180e+000	-5.9716772522e-001
 3.0335722933e+000	 2.5686697221e+000	-6.0443649767e-001
 3.0068512722e+000	 2.5998981570e+000	-6.1447434885e-001
 2.9797985939e+000	 2.6308601900e+000	-6.2594153876e-001
 2.9524182606e+000	 2.6615505658e+000	-6.3750890360e-001
 2.9247143846e+000	 2.6919641097e+000	-6.4786148888e-001
 2.8966911870e+000	 2.7220957307e+000	-6.5570214164e-001
 2.8683529950e+000	 2.7519404238e+000	-6.5975505192e-001
 2.8397042400e+000	 2.7814932733e+000	-6.5876923369e-001
 2.8107494552e+000	 2.8107494552e+000	-6.5152193574e-001
 3.1054127503e+000	 2.5211925056e+000	-5.6010830165e-001
 3.0792027853e+000	 2.5531373263e+000	-5.6894989041e-001
 3.0526513643e+000	 2.5848248776e+000	-5.8134319128e-001
 3.0257622864e+000	 2.6162497178e+000	-5.9589810270e-001
 2.9985394656e+000	 2.6474064805e+000	-6.1123234980e-001
 2.9709869289e+000	 2.6782898775e+000	-6.2597523819e-001
 2.9431088147e+000	 2.7088947016e+000	-6.3877137538e-001
 2.9149093706e+000	 2.7392158296e+000	-6.4828434924e-001
 2.8863929509e+000	 2.7692482252e+000	-6.5320035381e-001
 2.8575640151e+000	 2.7989869417e+000	-6.5223175206e-001
 2.8284271247e+000	 2.8284271247e+000	-6.4412056622e-001
 2.6516504295e+000	 2.6516504295e+000	-6.1769111829e-001
 2.6240502578e+000	 2.6789662642e+000	-7.0337238022e-001
 2.5961702111e+000	 2.7059933915e+000	-7.8276275736e-001
 2.5680148403e+000	 2.7327275349e+000	-8.5484113761e-001
 2.5395887828e+000	 2.7591645138e+000	-9.1861884855e-001
 2.5108967602e+000	 2.7853002459e+000	-9.7314219753e-001
 2.4819435755e+000	 2.8111307490e+000	-9.5229305394e-001
 2.4527341104e+000	 2.8366521436e+000	-8.8848491998e-001
 2.4232733227e+000	 2.8618606541e+000	-8.2268296292e-001
 2.3935662434e+000	 2.8867526112e+000	-7.5467856145e-001
 2.3636179740e+000	 2.9113244534e+000	-6.8431337077e-001
 2.6693280990e+000	 2.6693280990e+000	-6.3401663972e-001
 2.6415439262e+000	 2.6968260392e+000	-7.1313597525e-001
 2.6134780125e+000	 2.7240333475e+000	-7.8656498054e-001
 2.5851349392e+000	 2.7509457185e+000	-8.5324719435e-001
 2.5565193747e+000	 2.7775589439e+000	-9.1215874857e-001
 2.5276360719e+000	 2.8038689142e+000	-9.6231097690e-001
 2.4984898660e+000	 2.8298716207e+000	-9.9743179158e-001
 2.4690856712e+000	 2.8555631579e+000	-9.2911391372e-001
 2.4394284782e+000	 2.8809397251e+000	-8.5921368949e-001
 2.4095233517e+000	 2.9059976286e+000	-7.8750653010e-001
 2.3793754271e+000	 2.9307332831e+000	-7.1381907670e-001
 2.6870057685e+000	 2.6870057685e+000	-6.4649165548e-001
 2.6590375946e+000	 2.7146858143e+000	-7.1913477840e-001
 2.6307858139e+000	 2.7420733034e+000	-7.8666542043e-001
 2.6022550381e+000	 2.7691639021e+000	-8.4799115248e-001
 2.5734499666e+000	 2.7959533740e+000	-9.0205231910e-001
 2.5443753837e+000	 2.8224375825e+000	-9.4782471661e-001
 2.5150361565e+000	 2.8486124923e+000	-9.8432216886e-001
 2.4854372319e+000	 2.8744741721e+000	-9.6306096616e-001
 2.4555836337e+000	 2.9000187961e+000	-8.8885157178e-001
 2.4254804600e+000	 2.9252426460e+000	-8.1319774179e-001
 2.3951328803e+000	 2.9501421128e+000	-7.3591103867e-001
 2.7046834380e+000	 2.7046834380e+000	-6.5542044789e-001
 2.6765312630e+000	 2.7325455894e+000	-7.2167775570e-001
 2.6480936153e+000	 2.7601132593e+000	-7.8337778569e-001
 2.6193751371e+000	 2.7873820856e+000	-8.3939151599e-001
 2.5903805584e+000	 2.8143478041e+000	-8.8862290592e-001
 2.5611146954e+000	 2.8410062508e+000	-9.3001164460e-001
 2.5315824470e+000	 2.8673533640e+000	-9.6253579572e-001
 2.5017887926e+000	 2.8933851864e+000	-9.8521433157e-001
 2.4717387892e+000	 2.9190978672e+000	-9.1218864624e-001
 2.4414375683e+000	 2.9444876634e+000	-8.3234672607e-001
 2.4108903335e+000	 2.9695509425e+000	-7.5118617220e-001
 2.7223611076e+000	 2.7223611076e+000	-6.6110696834e-001
 2.6940249314e+000	 2.7504053645e+000	-7.2107352738e-001
 2.6654014167e+000	 2.7781532153e+000	-7.7701541855e-001
 2.6364952360e+000	 2.8056002692e+000	-8.2776639605e-001
 2.6073111503e+000	 2.8327422342e+000	-8.7219342990e-001
 2.5778540071e+000	 2.8595749191e+000	-9.0919952608e-001
 2.5481287375e+000	 2.8860942356e+000	-9.3772644131e-001
 2.5181403534e+000	 2.9122962007e+000	-9.5675728524e-001
 2.4878939447e+000	 2.9381769382e+000	-9.2981633930e-001
 2.4573946766e+000	 2.9637326808e+000	-8.4554734214e-001
 2.4266477866e+000	 2.9889597722e+000	-7.6024065659e-001
 2.7400387771e+000	 2.7400387771e+000	-6.6385484796e-001
 2.7115185997e+000	 2.7682651396e+000	-7.1763037902e-001
 2.6827092181e+000	 2.7961931712e+000	-7.6789130661e-001
 2.6536153349e+000	 2.8238184528e+000	-8.1343352369e-001
 2.6242417422e+000	 2.8511366643e+000	-8.5308640072e-001
 2.5945933189e+000	 2.8781435874e+000	-8.8571567854e-001
 2.5646750280e+000	 2.9048351073e+000	-9.1022625401e-001
 2.5344919141e+000	 2.9312072150e+000	-9.2556485141e-001
 2.5040491002e+000	 2.9572560092e+000	-9.3072257278e-001
 2.4733517849e+000	 2.9829776982e+000	-8.5339280056e-001
 2.4424052398e+000	 3.0083686019e+000	-7.6366995870e-001
 2.7577164466e+000	 2.7577164466e+000	-6.6396740789e-001
 2.7290122681e+000	 2.7861249147e+000	-7.1165627222e-001
 2.7000170196e+000	 2.8142331272e+000	-7.5631809421e-001
 2.6707354339e+000	 2.8420366363e+000	-7.9671026196e-001
 2.6411723341e+000	 2.8695310944e+000	-8.3162393006e-001
 2.6113326306e+000	 2.8967122557e+000	-8.5988698605e-001
 2.5812213185e+000	 2.9235759790e+000	-8.8036690809e-001
 2.5508434748e+000	 2.9501182293e+000	-8.9197350641e-001
 2.5202042556e+000	 2.9763350802e+000	-8.9366154178e-001
 2.4893088932e+000	 3.0022227156e+000	-8.5647568394e-001
 2.4581626929e+000	 3.0277774315e+000	-7.6206885579e-001
 2.7753941161e+000	 2.7753941161e+000	-6.6174766914e-001
 2.7465059365e+000	 2.8039846898e+000	-7.0345885501e-001
 2.7173248210e+000	 2.8322730831e+000	-7.4260809337e-001
 2.6878555328e+000	 2.8602548199e+000	-7.7791361771e-001
 2.6581029260e+000	 2.8879255245e+000	-8.0812774425e-001
 2.6280719423e+000	 2.9152809240e+000	-8.3203991309e-001
 2.5977676090e+000	 2.9423168506e+000	-8.4847961881e-001
 2.5671950356e+000	 2.9690292436e+000	-8.5631922304e-001
 2.5363594111e+000	 2.9954141513e+000	-8.5447664185e-001
 2.5052660015e+000	 3.0214677330e+000	-8.4191790129e-001
 2.4739201461e+000	 3.0471862612e+000	-7.5603145749e-001
 2.7930717857e+000	 2.7930717857e+000	-6.5749836212e-001
 2.7639996049e+000	 2.8218444649e+000	-6.9334547170e-001
 2.7346326224e+000	 2.8503130390e+000	-7.2707329427e-001
 2.7049756317e+000	 2.8784730034e+000	-7.5736025279e-001
 2.6750335179e+000	 2.9063199545e+000	-7.8291919649e-001
 2.6448112541e+000	 2.9338495923e+000	-8.0250051780e-001
 2.6143138995e+000	 2.9610577223e+000	-8.1489515692e-001
 2.5835465963e+000	 2.9879402579e+000	-8.1893748644e-001
 2.5525145666e+000	 3.0144932223e+000	-8.1350806857e-001
 2.5212231098e+000	 3.0407127505e+000	-7.9753627828e-001
 2.4896775993e+000	 3.0665950909e+000	-7.4615122689e-001
 2.8107494552e+000	 2.8107494552e+000	-6.5152193574e-001
 2.7814932733e+000	 2.8397042400e+000	-6.8162317246e-001
 2.7519404238e+000	 2.8683529950e+000	-7.1002537542e-001
 2.7220957307e+000	 2.8966911870e+000	-7.3536649494e-001
 2.6919641097e+000	 2.9247143846e+000	-7.5631927856e-001
 2.6615505658e+000	 2.9524182606e+000	-7.7159446478e-001
 2.6308601900e+000	 2.9797985939e+000	-7.7994386270e-001
 2.5998981570e+000	 3.0068512722e+000	-7.8016330951e-001
 2.5686697221e+000	 3.0335722933e+000	-7.7109549866e-001
 2.5371802180e+000	 3.0599577679e+000	-7.5163267136e-001
 2.5054350524e+000	 3.0860039206e+000	-7.2071916518e-001
 2.8284271247e+000	 2.8284271247e+000	-6.4412056622e-001
 2.7989869417e+000	 2.8575640151e+000	-6.6859872250e-001
 2.7692482252e+000	 2.8863929509e+000	-6.9177571336e-001
 2.7392158296e+000	 2.9149093706e+000	-7.1224834824e-001
 2.7088947016e+000	 2.9431088147e+000	-7.2864863214e-001
 2.6782898775e+000	 2.9709869289e+000	-7.3964703741e-001
 2.6474064805e+000	 2.9985394656e+000	-7.4395565932e-001
 2.6162497178e+000	 3.0257622864e+000	-7.4033124760e-001
 2.5848248776e+000	 3.0526513643e+000	-7.2757810623e-001
 2.5531373263e+000	 3.0792027853e+000	-7.0455085437e-001
 2.5211925056e+000	 3.1054127503e+000	-6.7015704160e-001
 2.3636179740e+000	 2.9113244534e+000	-6.8431337077e-001
 2.3334336833e+000	 2.9355727287e+000	-6.6291586669e-001
 2.3030186050e+000	 2.9594940961e+000	-6.3704980829e-001
 2.2723780342e+000	 2.9830853273e+000	-6.0691909368e-001
 2.2415173246e+000	 3.0063433076e+000	-5.7277988988e-001
 2.2104418857e+000	 3.0292650379e+000	-5.3494018498e-001
 2.1791571792e+000	 3.0518476352e+000	-4.9375918545e-001
 2.1476687162e+000	 3.0740883340e+000	-4.4964656119e-001
 2.1159820543e+000	 3.0959844873e+000	-4.0306154140e-001
 2.0841027938e+000	 3.1175335675e+000	-3.5451186485e-001
 2.0520365752e+000	 3.1387331671e+000	-3.0097397200e-001
 2.3793754271e+000	 2.9307332831e+000	-7.1381907670e-001
 2.3489899079e+000	 2.9551432136e+000	-6.9355217501e-001
 2.3183720624e+000	 2.9792240568e+000	-6.6972133727e-001
 2.2875272211e+000	 3.0029725628e+000	-6.4245702283e-001
 2.2564607735e+000	 3.0263855963e+000	-6.1194272430e-001
 2.2251781649e+000	 3.0494601381e+000	-5.7841459396e-001
 2.1936848937e+000	 3.0721932861e+000	-5.4216091197e-001
 2.1619865077e+000	 3.0945822562e+000	-5.0352139889e-001
 2.1300886013e+000	 3.1166243839e+000	-4.6288637550e-001
 2.0979968124e+000	 3.1383171247e+000	-4.2085962603e-001
 2.0657168190e+000	 3.1596580548e+000	-3.7998329815e-001
 2.3951328803e+000	 2.9501421128e+000	-7.3591103867e-001
 2.3645461324e+000	 2.9747136984e+000	-7.1521665076e-001
 2.3337255197e+000	 2.9989540174e+000	-6.9182306601e-001
 2.3026764080e+000	 3.0228597983e+000	-6.6578798521e-001
 2.2714042223e+000	 3.0464278850e+000	-6.3722295230e-001
 2.2399144442e+000	 3.0696552384e+000	-6.0629305421e-001
 2.2082126082e+000	 3.0925389370e+000	-5.7321645903e-001
 2.1763042991e+000	 3.1150761784e+000	-5.3826379505e-001
 2.1441951483e+000	 3.1372642805e+000	-5.0473986399e-001
 2.1118908310e+000	 3.1591006818e+000	-4.7520492581e-001
 2.0793970629e+000	 3.1805829426e+000	-4.4781197409e-001
 2.4108903335e+000	 2.9695509425e+000	-7.5118617220e-001
 2.3801023570e+000	 2.9942841833e+000	-7.2853295663e-001
 2.3490789771e+000	 3.0186839780e+000	-7.0400542625e-001
 2.3178255949e+000	 3.0427470338e+000	-6.7758918958e-001
 2.2863476711e+000	 3.0664701738e+000	-6.4932455390e-001
 2.2546507234e+000	 3.0898503386e+000	-6.1930629766e-001
 2.2227403228e+000	 3.1128845879e+000	-5.8768327779e-001
 2.1906220906e+000	 3.1355701007e+000	-5.5922620815e-001
 2.1583016954e+000	 3.1579041771e+000	-5.3816555397e-001
 2.1257848497e+000	 3.1798842389e+000	-5.2017587560e-001
 2.0930773067e+000	 3.2015078304e+000	-5.0480288730e-001
 2.4266477866e+000	 2.9889597722e+000	-7.6024065659e-001
 2.3956585816e+000	 3.0138546681e+000	-7.3412331214e-001
 2.3644324345e+000	 3.0384139387e+000	-7.0691669065e-001
 2.3329747818e+000	 3.0626342693e+000	-6.7853496112e-001
 2.3012911200e+000	 3.0865124625e+000	-6.4894789279e-001
 2.2693870027e+000	 3.1100454389e+000	-6.1818069933e-001
 2.2372680373e+000	 3.1332302388e+000	-5.9108319367e-001
 2.2049398820e+000	 3.1560640229e+000	-5.7541291354e-001
 2.1724082424e+000	 3.1785440737e+000	-5.6393450356e-001
 2.1396788683e+000	 3.2006677960e+000	-5.5607592382e-001
 2.1067575505e+000	 3.2224327182e+000	-5.5129076104e-001
 2.4424052398e+000	 3.0083686019e+000	-7.6366995870e-001
 2.4112148061e+000	 3.0334251530e+000	-7.3260854016e-001
 2.3797858918e+000	 3.0581438993e+000	-7.0120304239e-001
 2.3481239687e+000	 3.0825215048e+000	-6.6929683440e-001
 2.3162345688e+000	 3.1065547512e+000	-6.3678983295e-001
 2.2841232819e+000	 3.1302405392e+000	-6.0722998875e-001
 2.2517957518e+000	 3.1535758897e+000	-5.9365075478e-001
 2.2192576734e+000	 3.1765579451e+000	-5.8557443105e-001
 2.1865147894e+000	 3.1991839703e+000	-5.8231264281e-001
 2.1535728869e+000	 3.2214513531e+000	-5.8320136716e-001
 2.1204377944e+000	 3.2433576059e+000	-5.8760241773e-001
 2.4581626929e+000	 3.0277774315e+000	-7.6206885579e-001
 2.4267710307e+000	 3.0529956378e+000	-7.2460811172e-001
 2.3951393492e+000	 3.0778738600e+000	-6.8750864218e-001
 2.3632731556e+000	 3.1024087403e+000	-6.5054364283e-001
 2.3311780176e+000	 3.1265970399e+000	-6.1474158144e-001
 2.2988595611e+000	 3.1504356394e+000	-5.9974041163e-001
 2.2663234664e+000	 3.1739215406e+000	-5.9174120006e-001
 2.2335754649e+000	 3.1970518674e+000	-5.8994101102e-001
 2.2006213364e+000	 3.2198238668e+000	-5.9355969884e-001
 2.1674669055e+000	 3.2422349102e+000	-6.0184157986e-001
 2.1341180382e+000	 3.2642824937e+000	-6.1405703216e-001
 2.4739201461e+000	 3.0471862612e+000	-7.5603145749e-001
 2.4423272552e+000	 3.0725661227e+000	-7.1074018902e-001
 2.4104928066e+000	 3.0976038206e+000	-6.6647569265e-001
 2.3784223425e+000	 3.1222959759e+000	-6.2294160473e-001
 2.3461214665e+000	 3.1466393286e+000	-6.0070193342e-001
 2.3135958404e+000	 3.1706307397e+000	-5.8924083358e-001
 2.2808511809e+000	 3.1942671915e+000	-5.8555086071e-001
 2.2478932563e+000	 3.2175457896e+000	-5.8873758941e-001
 2.2147278835e+000	 3.2404637634e+000	-5.9792939345e-001
 2.1813609242e+000	 3.2630184674e+000	-6.1227923415e-001
 2.1477982820e+000	 3.2852073815e+000	-6.3096637503e-001
 2.4896775993e+000	 3.0665950909e+000	-7.4615122689e-001
 2.4578834798e+000	 3.0921366076e+000	-6.9162166689e-001
 2.4258462639e+000	 3.1173337812e+000	-6.3874450028e-001
 2.3935715294e+000	 3.1421832114e+000	-6.0371477719e-001
 2.3610649153e+000	 3.1666816174e+000	-5.8504091518e-001
 2.3283321196e+000	 3.1908258399e+000	-5.7589535250e-001
 2.2953788954e+000	 3.2146128424e+000	-5.7527158482e-001
 2.2622110478e+000	 3.2380397118e+000	-5.8218395589e-001
 2.2288344305e+000	 3.2611036600e+000	-5.9566963314e-001
 2.1952549428e+000	 3.2838020245e+000	-6.1479051236e-001
 2.1614785259e+000	 3.3061322693e+000	-6.3863504730e-001
 2.5054350524e+000	 3.0860039206e+000	-7.2071916518e-001
 2.4734397043e+000	 3.1117070924e+000	-6.6786821261e-001
 2.4411997213e+000	 3.1370637419e+000	-6.1611805465e-001
 2.4087207162e+000	 3.1620704469e+000	-5.8627122949e-001
 2.3760083641e+000	 3.1867239061e+000	-5.6789200602e-001
 2.3430683989e+000	 3.2110209402e+000	-5.5986436041e-001
 2.3099066099e+000	 3.2349584933e+000	-5.6109087834e-001
 2.2765288392e+000	 3.2585336340e+000	-5.7049491573e-001
 2.2429409775e+000	 3.2817435566e+000	-5.8702269196e-001
 2.2091489614e+000	 3.3045855816e+000	-6.0964531096e-001
 2.1751587697e+000	 3.3270571571e+000	-6.3736070563e-001
 2.5211925056e+000	 3.1054127503e+000	-6.7015704160e-001
 2.4889959289e+000	 3.1312775773e+000	-6.4541032831e-001
 2.4565531787e+000	 3.1567937025e+000	-6.0022395705e-001
 2.4238699031e+000	 3.1819576824e+000	-5.6862329124e-001
 2.3909518130e+000	 3.2067661948e+000	-5.4938570540e-001
 2.3578046781e+000	 3.2312160404e+000	-5.4130465929e-001
 2.3244343245e+000	 3.2553041442e+000	-5.4319204081e-001
 2.2908466307e+000	 3.2790275563e+000	-5.5388044552e-001
 2.2570475246e+000	 3.3023834532e+000	-5.7222538755e-001
 2.2230429801e+000	 3.3253691387e+000	-5.9710743702e-001
 2.1888390135e+000	 3.3479820449e+000	-6.2743427938e-001
 2.0520365752e+000	 3.1387331671e+000	-3.0097397200e-001
 2.0197890756e+000	 3.1595809991e+000	-3.8731073641e-001
 1.9873660057e+000	 3.1800748984e+000	-5.0473934274e-001
 1.9547731064e+000	 3.2002128214e+000	-6.5133944861e-001
 1.9220161459e+000	 3.2199928470e+000	-8.2520361584e-001
 1.8891009162e+000	 3.2394131765e+000	-1.0244399114e+000
 1.8560332301e+000	 3.2584721341e+000	-9.7569766562e-001
 1.8228189179e+000	 3.2771681667e+000	-7.5015388508e-001
 1.7894638242e+000	 3.2954998440e+000	-5.5097883385e-001
 1.7559738049e+000	 3.3134658586e+000	-3.7826814316e-001
 1.7223547240e+000	 3.3310650256e+000	-2.3208853343e-001
 2.0657168190e+000	 3.1596580548e+000	-3.7998329815e-001
 2.0332543361e+000	 3.1806448724e+000	-4.4670612271e-001
 2.0006151124e+000	 3.2012753977e+000	-5.4064015098e-001
 1.9678049271e+000	 3.2215475736e+000	-6.6003747015e-001
 1.9348295869e+000	 3.2414594660e+000	-8.0316559376e-001
 1.9016949223e+000	 3.2610092644e+000	-9.6830987617e-001
 1.8684067849e+000	 3.2801952817e+000	-1.0612839856e+000
 1.8349710440e+000	 3.2990159544e+000	-8.0090944481e-001
 1.8013935830e+000	 3.3174698430e+000	-5.6457206723e-001
 1.7676802970e+000	 3.3355556310e+000	-3.5261873996e-001
 1.7338370888e+000	 3.3532721258e+000	-1.6536760437e-001
 2.0793970629e+000	 3.1805829426e+000	-4.4781197409e-001
 2.0467195966e+000	 3.2017087458e+000	-4.9870037761e-001
 2.0138642191e+000	 3.2224758970e+000	-5.7295288442e-001
 1.9808367478e+000	 3.2428823257e+000	-6.6899176767e-001
 1.9476430278e+000	 3.2629260850e+000	-7.8525724754e-001
 1.9142889284e+000	 3.2826053522e+000	-9.2020972145e-001
 1.8807803398e+000	 3.3019184292e+000	-1.0723319149e+000
 1.8471231701e+000	 3.3208637422e+000	-8.6007297312e-001
 1.8133233418e+000	 3.3394398419e+000	-5.9002704002e-001
 1.7793867890e+000	 3.3576454034e+000	-3.4230714837e-001
 1.7453194536e+000	 3.3754792260e+000	-1.1748205731e-001
 2.0930773067e+000	 3.2015078304e+000	-5.0480288730e-001
 2.0601848571e+000	 3.2227726191e+000	-5.4356480859e-001
 2.0271133258e+000	 3.2436763964e+000	-6.0187640555e-001
 1.9938685685e+000	 3.2642170778e+000	-6.7832792861e-001
 1.9604564688e+000	 3.2843927040e+000	-7.7153009483e-001
 1.9268829345e+000	 3.3042014401e+000	-8.8011613611e-001
 1.8931538947e+000	 3.3236415768e+000	-1.0027437658e+000
 1.8592752962e+000	 3.3427115300e+000	-9.2793336155e-001
 1.8252531007e+000	 3.3614098409e+000	-6.2754326806e-001
 1.7910932810e+000	 3.3797351758e+000	-3.4744285401e-001
 1.7568018184e+000	 3.3976863261e+000	-8.8450743950e-002
 2.1067575505e+000	 3.2224327182e+000	-5.5129076104e-001
 2.0736501176e+000	 3.2438364924e+000	-5.8156447484e-001
 2.0403624325e+000	 3.2648768957e+000	-6.2760526527e-001
 2.0069003892e+000	 3.2855518300e+000	-6.8816918532e-001
 1.9732699098e+000	 3.3058593229e+000	-7.6203527356e-001
 1.9394769406e+000	 3.3257975279e+000	-8.4800742239e-001
 1.9055274495e+000	 3.3453647243e+000	-9.4491616275e-001
 1.8714274223e+000	 3.3645593178e+000	-1.0047851507e+000
 1.8371828595e+000	 3.3833798398e+000	-6.7732795676e-001
 1.8027997731e+000	 3.4018249482e+000	-3.6814508639e-001
 1.7682841833e+000	 3.4198934263e+000	-7.8304326899e-002
 2.1204377944e+000	 3.2433576059e+000	-5.8760241773e-001
 2.0871153781e+000	 3.2649003657e+000	-6.1295838881e-001
 2.0536115392e+000	 3.2860773950e+000	-6.5032984197e-001
 2.0199322099e+000	 3.3068865821e+000	-6.9863649106e-001
 1.9860833507e+000	 3.3273259419e+000	-7.5682355411e-001
 1.9520709467e+000	 3.3473936158e+000	-8.2386344382e-001
 1.9179010044e+000	 3.3670878719e+000	-8.9875737233e-001
 1.8835795485e+000	 3.3864071056e+000	-9.8053686783e-001
 1.8491126183e+000	 3.4053498388e+000	-7.3959575302e-001
 1.8145062651e+000	 3.4239147206e+000	-4.0454250454e-001
 1.7797665481e+000	 3.4421005265e+000	-8.7084898686e-002
 2.1341180382e+000	 3.2642824937e+000	-6.1405703216e-001
 2.1005806386e+000	 3.2859642391e+000	-6.3799971001e-001
 2.0668606459e+000	 3.3072778943e+000	-6.7023647525e-001
 2.0329640306e+000	 3.3282213343e+000	-7.0984859299e-001
 1.9988967917e+000	 3.3487925609e+000	-7.5594535115e-001
 1.9646649528e+000	 3.3689897036e+000	-8.0766557522e-001
 1.9302745593e+000	 3.3888110195e+000	-8.6417905531e-001
 1.8957316746e+000	 3.4082548933e+000	-9.2468788309e-001
 1.8610423772e+000	 3.4273198378e+000	-8.1456850676e-001
 1.8262127571e+000	 3.4460044930e+000	-4.5677289480e-001
 1.7912489129e+000	 3.4643076266e+000	-1.1484561541e-001
 2.1477982820e+000	 3.2852073815e+000	-6.3096637503e-001
 2.1140458991e+000	 3.3070281124e+000	-6.5693593142e-001
 2.0801097526e+000	 3.3284783936e+000	-6.8750759457e-001
 2.0459958514e+000	 3.3495560864e+000	-7.2192210249e-001
 2.0117102327e+000	 3.3702591799e+000	-7.5945073492e-001
 1.9772589590e+000	 3.3905857914e+000	-7.9939665458e-001
 1.9426481142e+000	 3.4105341670e+000	-8.4109615840e-001
 1.9078838007e+000	 3.4301026811e+000	-8.8391983692e-001
 1.8729721360e+000	 3.4492898367e+000	-9.0247504149e-001
 1.8379192492e+000	 3.4680942654e+000	-5.2498288016e-001
 1.8027312778e+000	 3.4865147268e+000	-1.6165034439e-001
 2.1614785259e+000	 3.3061322693e+000	-6.3863504730e-001
 2.1275111596e+000	 3.3280919857e+000	-6.7000905880e-001
 2.0933588593e+000	 3.3496788930e+000	-7.0232184300e-001
 2.0590276721e+000	 3.3708908386e+000	-7.3497156271e-001
 2.0245236737e+000	 3.3917257989e+000	-7.6738944217e-001
 1.9898529651e+000	 3.4121818793e+000	-7.9904093669e-001
 1.9550216690e+000	 3.4322573146e+000	-8.2942681021e-001
 1.9200359268e+000	 3.4519504689e+000	-8.5808411908e-001
 1.8849018948e+000	 3.4712598357e+000	-8.8458710037e-001
 1.8496257412e+000	 3.4901840378e+000	-6.0932764057e-001
 1.8142136426e+000	 3.5087218270e+000	-2.2757332523e-001
 2.1751587697e+000	 3.3270571571e+000	-6.3736070563e-001
 2.1409764201e+000	 3.3491558591e+000	-6.7745578324e-001
 2.1066079660e+000	 3.3708793923e+000	-7.1485419624e-001
 2.0720594928e+000	 3.3922255907e+000	-7.4910951362e-001
 2.0373371146e+000	 3.4131924178e+000	-7.7981088662e-001
 2.0024469712e+000	 3.4337779671e+000	-8.0658404867e-001
 1.9673952239e+000	 3.4539804622e+000	-8.2909222131e-001
 1.9321880529e+000	 3.4737982567e+000	-8.4703692428e-001
 1.8968316537e+000	 3.4932298346e+000	-8.6015868857e-001
 1.8613322332e+000	 3.5122738102e+000	-7.0997064391e-001
 1.8256960074e+000	 3.5309289271e+000	-3.1269884360e-001
 2.1888390135e+000	 3.3479820449e+000	-6.2743427938e-001
 2.1544416806e+000	 3.3702197324e+000	-6.7950764729e-001
 2.1198570727e+000	 3.3920798916e+000	-7.2527607725e-001
 2.0850913135e+000	 3.4135603429e+000	-7.6444655463e-001
 2.0501505556e+000	 3.4346590368e+000	-7.9676416906e-001
 2.0150409773e+000	 3.4553740550e+000	-8.2201294702e-001
 1.9797687788e+000	 3.4757036097e+000	-8.4001658781e-001
 1.9443401791e+000	 3.4956460444e+000	-8.5063910200e-001
 1.9087614125e+000	 3.5151998336e+000	-8.5378535114e-001
 1.8730387253e+000	 3.5343635826e+000	-8.2708338695e-001
 1.8371783722e+000	 3.5531360273e+000	-4.1712091734e-001
 1.7223547240e+000	 3.3310650256e+000	-2.3208853343e-001
 1.6886124501e+000	 3.3482962822e+000	-2.8561732154e-001
 1.6547528541e+000	 3.3651586875e+000	-3.2039754569e-001
 1.6207818052e+000	 3.3816514220e+000	-3.3877435489e-001
 1.5867051686e+000	 3.3977737871e+000	-3.4307130592e-001
 1.5525288020e+000	 3.4135252041e+000	-3.3558559118e-001
 1.5182585531e+000	 3.4289052139e+000	-3.1858338918e-001
 1.4839002560e+000	 3.4439134760e+000	-2.9429534741e-001
 1.4494597290e+000	 3.4585497675e+000	-2.6491220665e-001
 1.4149427715e+000	 3.4728139820e+000	-2.3258057565e-001
 1.3803551609e+000	 3.4867061290e+000	-1.9939886396e-001
 1.7338370888e+000	 3.3532721258e+000	-1.6536760437e-001
 1.6998698665e+000	 3.3706182574e+000	-2.2162131478e-001
 1.6657845398e+000	 3.3875930787e+000	-2.6159619117e-001
 1.6315870172e+000	 3.4041957648e+000	-2.8755186713e-001
 1.5972832030e+000	 3.4204256123e+000	-3.0172538527e-001
 1.5628789940e+000	 3.4362820388e+000	-3.0632646933e-001
 1.5283802767e+000	 3.4517645820e+000	-3.0353292008e-001
 1.4937929244e+000	 3.4668728992e+000	-2.9548614460e-001
 1.4591227939e+000	 3.4816067659e+000	-2.8428682822e-001
 1.4243757233e+000	 3.4959660752e+000	-2.7199075769e-001
 1.3895575286e+000	 3.5099508365e+000	-2.6060480375e-001
 1.7453194536e+000	 3.3754792260e+000	-1.1748205731e-001
 1.7111272828e+000	 3.3929402326e+000	-1.7304897499e-001
 1.6768162255e+000	 3.4100274700e+000	-2.1478566808e-001
 1.6423922293e+000	 3.4267401076e+000	-2.4486885119e-001
 1.6078612375e+000	 3.4430774376e+000	-2.6545164104e-001
 1.5732291861e+000	 3.4590388735e+000	-2.7865886986e-001
 1.5385020004e+000	 3.4746239501e+000	-2.8658252365e-001
 1.5036855927e+000	 3.4898323224e+000	-2.9127731507e-001
 1.4687858588e+000	 3.5046637644e+000	-2.9475639999e-001
 1.4338086751e+000	 3.5191181684e+000	-2.9898724659e-001
 1.3987598963e+000	 3.5331955441e+000	-3.0588766472e-001
 1.7568018184e+000	 3.3976863261e+000	-8.8450743950e-002
 1.7223846991e+000	 3.4152622078e+000	-1.3996384889e-001
 1.6878479112e+000	 3.4324618612e+000	-1.8007451997e-001
 1.6531974413e+000	 3.4492844505e+000	-2.1087913304e-001
 1.6184392720e+000	 3.4657292628e+000	-2.3444945097e-001
 1.5835793781e+000	 3.4817957082e+000	-2.5282797536e-001
 1.5486237241e+000	 3.4974833182e+000	-2.6802342416e-001
 1.5135782611e+000	 3.5127917456e+000	-2.8200634519e-001
 1.4784489236e+000	 3.5277207628e+000	-2.9670487460e-001
 1.4432416269e+000	 3.5422702616e+000	-3.1400064895e-001
 1.4079622641e+000	 3.5564402516e+000	-3.3572487890e-001
 1.7682841833e+000	 3.4198934263e+000	-7.8304326899e-002
 1.7336421155e+000	 3.4375841830e+000	-1.2243984353e-001
 1.6988795969e+000	 3.4548962525e+000	-1.5758018994e-001
 1.6640026533e+000	 3.4718287933e+000	-1.8574396798e-001
 1.6290173064e+000	 3.4883810881e+000	-2.0892414327e-001
 1.5939295701e+000	 3.5045525429e+000	-2.2908343204e-001
 1.5587454478e+000	 3.5203426863e+000	-2.4814981531e-001
 1.5234709295e+000	 3.5357511687e+000	-2.6801219010e-001
 1.4881119885e+000	 3.5507777613e+000	-2.9051616688e-001
 1.4526745787e+000	 3.5654223549e+000	-3.1746002201e-001
 1.4171646318e+000	 3.5796849591e+000	-3.5059081292e-001
 1.7797665481e+000	 3.4421005265e+000	-8.7084898686e-002
 1.7448995318e+000	 3.4599061583e+000	-1.2056089205e-001
 1.7099112826e+000	 3.4773306437e+000	-1.4742873354e-001
 1.6748078654e+000	 3.4943731361e+000	-1.6963180104e-001
 1.6395953409e+000	 3.5110329133e+000	-1.8908680463e-001
 1.6042797621e+000	 3.5273093776e+000	-2.0767920567e-001
 1.5688671715e+000	 3.5432020544e+000	-2.2725876445e-001
 1.5333635979e+000	 3.5587105919e+000	-2.4963522627e-001
 1.4977750533e+000	 3.5738347597e+000	-2.7657415511e-001
 1.4621075305e+000	 3.5885744481e+000	-3.0979292353e-001
 1.4263669996e+000	 3.6029296666e+000	-3.5095686682e-001
 1.7912489129e+000	 3.4643076266e+000	-1.1484561541e-001
 1.7561569481e+000	 3.4822281335e+000	-1.3442063233e-001
 1.7209429682e+000	 3.4997650350e+000	-1.4975454276e-001
 1.6856130774e+000	 3.5169174789e+000	-1.6271803650e-001
 1.6501733753e+000	 3.5336847386e+000	-1.7515409572e-001
 1.6146299541e+000	 3.5500662123e+000	-1.8887344317e-001
 1.5789888952e+000	 3.5660614225e+000	-2.0565012044e-001
 1.5432562662e+000	 3.5816700151e+000	-2.2721720598e-001
 1.5074381182e+000	 3.5968917582e+000	-2.5526268215e-001
 1.4715404823e+000	 3.6117265413e+000	-2.9142545990e-001
 1.4355693673e+000	 3.6261743742e+000	-3.3729156916e-001
 1.8027312778e+000	 3.4865147268e+000	-1.6165034439e-001
 1.7674143645e+000	 3.5045501087e+000	-1.6412209798e-001
 1.7319746539e+000	 3.5221994262e+000	-1.6470008053e-001
 1.6964182894e+000	 3.5394618217e+000	-1.6518481629e-001
 1.6607514098e+000	 3.5563365638e+000	-1.6734807362e-001
 1.6249801461e+000	 3.5728230470e+000	-1.7292833944e-001
 1.5891106189e+000	 3.5889207906e+000	-1.8362642511e-001
 1.5531489346e+000	 3.6046294383e+000	-2.0110121349e-001
 1.5171011831e+000	 3.6199487566e+000	-2.2696555660e-001
 1.4809734342e+000	 3.6348786345e+000	-2.6278233236e-001
 1.4447717350e+000	 3.6494190817e+000	-3.1006066845e-001
 1.8142136426e+000	 3.5087218270e+000	-2.2757332523e-001
 1.7786717808e+000	 3.5268720839e+000	-2.0977742092e-001
 1.7430063396e+000	 3.5446338175e+000	-1.9241562530e-001
 1.7072235015e+000	 3.5620061645e+000	-1.7722080673e-001
 1.6713294442e+000	 3.5789883890e+000	-1.6589602106e-001
 1.6353303381e+000	 3.5955798816e+000	-1.6011000927e-001
 1.5992323426e+000	 3.6117801587e+000	-1.6149282799e-001
 1.5630416030e+000	 3.6275888614e+000	-1.7163162286e-001
 1.5267642479e+000	 3.6430057551e+000	-1.9206655388e-001
 1.4904063860e+000	 3.6580307277e+000	-2.2428688145e-001
 1.4539741028e+000	 3.6726637892e+000	-2.6972722119e-001
 1.8256960074e+000	 3.5309289271e+000	-3.1269884360e-001
 1.7899291972e+000	 3.5491940591e+000	-2.7150754535e-001
 1.7540380253e+000	 3.5670682087e+000	-2.3305902528e-001
 1.7180287135e+000	 3.5845505073e+000	-1.9902099340e-001
 1.6819074787e+000	 3.6016402143e+000	-1.7103028212e-001
 1.6456805302e+000	 3.6183367163e+000	-1.5068836405e-001
 1.6093540662e+000	 3.6346395268e+000	-1.3955700437e-001
 1.5729342714e+000	 3.6505482846e+000	-1.3915405746e-001
 1.5364273128e+000	 3.6660627535e+000	-1.5094941725e-001
 1.4998393378e+000	 3.6811828209e+000	-1.7636112981e-001
 1.4631764705e+000	 3.6959084967e+000	-2.1675167642e-001
 1.8371783722e+000	 3.5531360273e+000	-4.1712091734e-001
 1.8011866135e+000	 3.5715160343e+000	-3.4944195230e-001
 1.7650697110e+000	 3.5895026000e+000	-2.8679546188e-001
 1.7288339256e+000	 3.6070948501e+000	-2.3078648366e-001
 1.6924855132e+000	 3.6242920395e+000	-1.8298810400e-001
 1.6560307222e+000	 3.6410935510e+000	-1.4493699314e-001
 1.6194757899e+000	 3.6574988949e+000	-1.1812907631e-001
 1.5828269397e+000	 3.6735077078e+000	-1.0401535087e-001
 1.5460903777e+000	 3.6891197520e+000	-1.0399785884e-001
 1.5092722896e+000	 3.7043349141e+000	-1.1942582336e-001
 1.4723788383e+000	 3.7191532043e+000	-1.5159195729e-001
 1.3803551609e+000	 3.4867061290e+000	-1.9939886396e-001
 1.3457026502e+000	 3.5002263323e+000	-2.7684174400e-001
 1.3109909654e+000	 3.5133748290e+000	-3.7894833902e-001
 1.2762258024e+000	 3.5261519680e+000	-5.0646386358e-001
 1.2414128249e+000	 3.5385582090e+000	-5.8539885545e-001
 1.2065576614e+000	 3.5505941207e+000	-4.5046062579e-001
 1.1716659033e+000	 3.5622603795e+000	-3.2066784297e-001
 1.1367431019e+000	 3.5735577679e+000	-1.9367402453e-001
 1.1017947664e+000	 3.5844871729e+000	-6.7243185164e-002
 1.0668263616e+000	 3.5950495844e+000	 6.0752426334e-002
 1.0318433056e+000	 3.6052460932e+000	 1.9233475619e-001
 1.3895575286e+000	 3.5099508365e+000	-2.6060480375e-001
 1.3546740012e+000	 3.5235611745e+000	-3.3837170985e-001
 1.3197309052e+000	 3.5367973278e+000	-4.4079726133e-001
 1.2847339744e+000	 3.5496596478e+000	-5.6860304162e-001
 1.2496889104e+000	 3.5621485970e+000	-7.1992887302e-001
 1.2146013792e+000	 3.5742647481e+000	-6.0593621474e-001
 1.1794770093e+000	 3.5860087820e+000	-4.9518379580e-001
 1.1443213892e+000	 3.5973814863e+000	-3.8526764786e-001
 1.1091400648e+000	 3.6083837541e+000	-2.7389874872e-001
 1.0739385374e+000	 3.6190165816e+000	-1.5890068362e-001
 1.0387222610e+000	 3.6292810672e+000	-3.8207134867e-002
 1.3987598963e+000	 3.5331955441e+000	-3.0588766472e-001
 1.3636453522e+000	 3.5468960167e+000	-3.8185717517e-001
 1.3284708449e+000	 3.5602198267e+000	-4.8250312319e-001
 1.2932421464e+000	 3.5731673276e+000	-6.0852510144e-001
 1.2579649959e+000	 3.5857389851e+000	-7.6055506356e-001
 1.2226450969e+000	 3.5979353756e+000	-7.2518915456e-001
 1.1872881153e+000	 3.6097571845e+000	-6.3150455226e-001
 1.1518996766e+000	 3.6212052048e+000	-5.3667469846e-001
 1.1164853633e+000	 3.6322803352e+000	-4.3835903362e-001
 1.0810507131e+000	 3.6429835788e+000	-3.3433400464e-001
 1.0456012164e+000	 3.6533160411e+000	-2.2249047065e-001
 1.4079622641e+000	 3.5564402516e+000	-3.3572487890e-001
 1.3726167032e+000	 3.5702308590e+000	-4.0779537103e-001
 1.3372107847e+000	 3.5836423255e+000	-5.0458272613e-001
 1.3017503184e+000	 3.5966750074e+000	-6.2676618479e-001
 1.2662410814e+000	 3.6093293732e+000	-7.7495723474e-001
 1.2306888146e+000	 3.6216060031e+000	-8.0924375292e-001
 1.1950992213e+000	 3.6335055871e+000	-7.3066787785e-001
 1.1594779639e+000	 3.6450289232e+000	-6.4894562436e-001
 1.1238306617e+000	 3.6561769164e+000	-5.6168639836e-001
 1.0881628888e+000	 3.6669505761e+000	-4.6662103746e-001
 1.0524801718e+000	 3.6773510151e+000	-3.6159913027e-001
 1.4171646318e+000	 3.5796849591e+000	-3.5059081292e-001
 1.3815880542e+000	 3.5935657012e+000	-4.1667964934e-001
 1.3459507245e+000	 3.6070648244e+000	-5.0754818535e-001
 1.3102584905e+000	 3.6201826871e+000	-6.2385694683e-001
 1.2745171669e+000	 3.6329197612e+000	-7.6619855432e-001
 1.2387325324e+000	 3.6452766306e+000	-8.5911725222e-001
 1.2029103274e+000	 3.6572539896e+000	-7.9370369494e-001
 1.1670562512e+000	 3.6688526417e+000	-7.2312226075e-001
 1.1311759602e+000	 3.6800734975e+000	-6.4493382719e-001
 1.0952750646e+000	 3.6909175733e+000	-5.5682515574e-001
 1.0593591271e+000	 3.7013859890e+000	-4.5660612193e-001
 1.4263669996e+000	 3.6029296666e+000	-3.5095686682e-001
 1.3905594052e+000	 3.6169005434e+000	-4.0899960802e-001
 1.3546906642e+000	 3.6304873233e+000	-4.9190708095e-001
 1.3187666625e+000	 3.6436903669e+000	-6.0032273313e-001
 1.2827932524e+000	 3.6565101493e+000	-7.3482191573e-001
 1.2467762501e+000	 3.6689472580e+000	-8.7582005744e-001
 1.2107214334e+000	 3.6810023921e+000	-8.2163433579e-001
 1.1746345386e+000	 3.6926763602e+000	-7.6023810774e-001
 1.1385212586e+000	 3.7039700787e+000	-6.8914523245e-001
 1.1023872403e+000	 3.7148845705e+000	-6.0599993278e-001
 1.0662380825e+000	 3.7254209630e+000	-5.0857393355e-001
 1.4355693673e+000	 3.6261743742e+000	-3.3729156916e-001
 1.3995307562e+000	 3.6402353856e+000	-3.8524121125e-001
 1.3634306040e+000	 3.6539098221e+000	-4.5816260321e-001
 1.3272748345e+000	 3.6671980467e+000	-5.5668374982e-001
 1.2910693379e+000	 3.6801005373e+000	-6.8136433003e-001
 1.2548199679e+000	 3.6926178855e+000	-8.3269364386e-001
 1.2185325394e+000	 3.7047507947e+000	-8.1547478582e-001
 1.1822128259e+000	 3.7165000786e+000	-7.6131859758e-001
 1.1458665570e+000	 3.7278666598e+000	-6.9535574541e-001
 1.1094994161e+000	 3.7388515678e+000	-6.1518945565e-001
 1.0731170379e+000	 3.7494559369e+000	-5.1855486998e-001
 1.4447717350e+000	 3.6494190817e+000	-3.1006066845e-001
 1.4085021072e+000	 3.6635702278e+000	-3.4588690524e-001
 1.3721705438e+000	 3.6773323210e+000	-4.0681369246e-001
 1.3357830065e+000	 3.6907057265e+000	-4.9345522730e-001
 1.2993454234e+000	 3.7036909254e+000	-6.0635711329e-001
 1.2628636856e+000	 3.7162885130e+000	-7.4599427596e-001
 1.2263436454e+000	 3.7284991972e+000	-7.7623291757e-001
 1.1897911133e+000	 3.7403237971e+000	-7.2738135157e-001
 1.1532118555e+000	 3.7517632410e+000	-6.5403747818e-001
 1.1166115918e+000	 3.7628185650e+000	-5.0517145638e-001
 1.0799959932e+000	 3.7734909109e+000	-3.3773395172e-001
 1.4539741028e+000	 3.6726637892e+000	-2.6972722119e-001
 1.4174734582e+000	 3.6869050700e+000	-2.9141572957e-001
 1.3809104835e+000	 3.7007548198e+000	-3.3835517352e-001
 1.3442911785e+000	 3.7142134063e+000	-4.1114757766e-001
 1.3076215089e+000	 3.7272813135e+000	-5.1032606680e-001
 1.2709074034e+000	 3.7399591404e+000	-6.3635274877e-001
 1.2341547515e+000	 3.7522475997e+000	-6.9508824274e-001
 1.1973694006e+000	 3.7641475155e+000	-5.8904286697e-001
 1.1605571539e+000	 3.7756598221e+000	-4.5876078701e-001
 1.1237237676e+000	 3.7867855622e+000	-3.0779123549e-001
 1.0868749486e+000	 3.7975258849e+000	-1.3941946042e-001
 1.4631764705e+000	 3.6959084967e+000	-2.1675167642e-001
 1.4264448092e+000	 3.7102399122e+000	-2.2230342428e-001
 1.3896504233e+000	 3.7241773187e+000	-2.5327788516e-001
 1.3527993506e+000	 3.7377210861e+000	-3.1026654624e-001
 1.3158975944e+000	 3.7508717015e+000	-3.9170711876e-001
 1.2789511211e+000	 3.7636297679e+000	-4.6264916845e-001
 1.2419658575e+000	 3.7759960022e+000	-5.0424742668e-001
 1.2049476880e+000	 3.7879712340e+000	-3.9138385417e-001
 1.1679024524e+000	 3.7995564033e+000	-2.5538012798e-001
 1.1308359433e+000	 3.8107525595e+000	-9.9862798752e-002
 1.0937539040e+000	 3.8215608588e+000	 7.1811278063e-002
 1.4723788383e+000	 3.7191532043e+000	-1.5159195729e-001
 1.4354161602e+000	 3.7335747544e+000	-1.3902253299e-001
 1.3983903631e+000	 3.7475998176e+000	-1.5206880463e-001
 1.3613075226e+000	 3.7612287659e+000	-1.7723297074e-001
 1.3241736799e+000	 3.7744620896e+000	-2.1243137599e-001
 1.2869948389e+000	 3.7873003954e+000	-2.5791867411e-001
 1.2497769635e+000	 3.7997444048e+000	-3.1121877425e-001
 1.2125259753e+000	 3.8117949524e+000	-1.8894585240e-001
 1.1752477508e+000	 3.8234529844e+000	-4.4699990047e-002
 1.1379481191e+000	 3.8347195567e+000	 1.1781195600e-001
 1.1006328594e+000	 3.8455958328e+000	 2.9515867008e-001
 1.0318433056e+000	 3.6052460932e+000	 1.9233475619e-001
 9.9685096773e-001	 3.6150778896e+000	 3.3705784825e-001
 9.6185466627e-001	 3.6245462614e+000	 4.5847259796e-001
 9.2685966671e-001	 3.6336525918e+000	 5.5817418257e-001
 8.9187117966e-001	 3.6423983581e+000	 6.3769386313e-001
 8.5689435901e-001	 3.6507851289e+000	 6.9850159841e-001
 8.2193430012e-001	 3.6588145630e+000	 7.4200871734e-001
 7.8699603810e-001	 3.6664884066e+000	 7.6957063878e-001
 7.5208454618e-001	 3.6738084919e+000	 7.8248962779e-001
 7.1720473409e-001	 3.6807767345e+000	 7.8201757770e-001
 6.8236144655e-001	 3.6873951316e+000	 7.6935880765e-001
 1.0387222610e+000	 3.6292810672e+000	-3.8207134867e-002
 1.0034966409e+000	 3.6391784089e+000	 8.8543656400e-002
 9.6826703071e-001	 3.6487099031e+000	 1.9468792272e-001
 9.3303873116e-001	 3.6578769425e+000	 2.8183966207e-001
 8.9781698753e-001	 3.6666810138e+000	 3.5154492815e-001
 8.6260698807e-001	 3.6751236964e+000	 4.0528456254e-001
 8.2741386212e-001	 3.6832066601e+000	 4.4447698844e-001
 7.9224267836e-001	 3.6909316627e+000	 4.7048105476e-001
 7.5709844316e-001	 3.6983005485e+000	 4.8459891897e-001
 7.2198609898e-001	 3.7053152461e+000	 4.8807895795e-001
 6.8691052287e-001	 3.7119777658e+000	 4.8211869605e-001
 1.0456012164e+000	 3.6533160411e+000	-2.2249047065e-001
 1.0101423140e+000	 3.6632789282e+000	-1.1184467190e-001
 9.7467939516e-001	 3.6728735449e+000	-1.9098557172e-002
 9.3921779561e-001	 3.6821012931e+000	 5.7379219080e-002
 9.0376279540e-001	 3.6909636695e+000	 1.1914801956e-001
 8.6831961714e-001	 3.6994622640e+000	 1.6769807685e-001
 8.3289342413e-001	 3.7075987571e+000	 2.0445341100e-001
 7.9748931862e-001	 3.7153749187e+000	 2.3077480020e-001
 7.6211234014e-001	 3.7227926051e+000	 2.4796279272e-001
 7.2676746388e-001	 3.7298537576e+000	 2.5726074875e-001
 6.9145959918e-001	 3.7365604000e+000	 2.5985790130e-001
 1.0524801718e+000	 3.6773510151e+000	-3.6159913027e-001
 1.0167879871e+000	 3.6873794474e+000	-2.6519702470e-001
 9.8109175960e-001	 3.6970371866e+000	-1.8398186641e-001
 9.4539686005e-001	 3.7063256437e+000	-1.1630644407e-001
 9.0970860326e-001	 3.7152463252e+000	-6.0599578974e-002
 8.7403224620e-001	 3.7238008315e+000	-1.5363149138e-002
 8.3837298613e-001	 3.7319908542e+000	 2.0830954534e-002
 8.0273595887e-001	 3.7398181748e+000	 4.9343927933e-002
 7.6712623712e-001	 3.7472846618e+000	 7.1473197095e-002
 7.3154882878e-001	 3.7543922692e+000	 1.0082531205e-001
 6.9600867549e-001	 3.7611430342e+000	 1.1785719832e-001
 1.0593591271e+000	 3.7013859890e+000	-4.5660612193e-001
 1.0234336602e+000	 3.7114799667e+000	-3.7259177817e-001
 9.8750412404e-001	 3.7212008284e+000	-3.0104488928e-001
 9.5157592450e-001	 3.7305499943e+000	-2.4030386888e-001
 9.1565441113e-001	 3.7395289810e+000	-1.8878722461e-001
 8.7974487526e-001	 3.7481393990e+000	-1.4499045670e-001
 8.4385254813e-001	 3.7563829513e+000	-7.2539176092e-002
 8.0798259913e-001	 3.7642614308e+000	-1.0164406963e-002
 7.7214013409e-001	 3.7717767184e+000	 2.9436814490e-002
 7.3633019367e-001	 3.7789307808e+000	 4.5507126015e-002
 7.0055775180e-001	 3.7857256684e+000	 3.7567720152e-002
 1.0662380825e+000	 3.7254209630e+000	-5.0857393355e-001
 1.0300793333e+000	 3.7355804860e+000	-4.3509616792e-001
 9.9391648849e-001	 3.7453644701e+000	-3.7135876135e-001
 9.5775498894e-001	 3.7547743449e+000	-2.8287054760e-001
 9.2160021899e-001	 3.7638116367e+000	-1.7847202980e-001
 8.8545750432e-001	 3.7724779665e+000	-9.3592162010e-002
 8.4933211013e-001	 3.7807750484e+000	-2.9877038271e-002
 8.1322923938e-001	 3.7887046868e+000	 1.1316522141e-002
 7.7715403107e-001	 3.7962687750e+000	 2.8919782236e-002
 7.4111155856e-001	 3.8034692923e+000	 2.2150280109e-002
 7.0510682811e-001	 3.8103083026e+000	-9.4905739167e-003
 1.0731170379e+000	 3.7494559369e+000	-5.1855486998e-001
 1.0367250065e+000	 3.7596810052e+000	-3.8713372583e-001
 1.0003288529e+000	 3.7695281119e+000	-2.6542628259e-001
 9.6393405339e-001	 3.7789986955e+000	-1.5977537875e-001
 9.2754602686e-001	 3.7880942924e+000	-7.2460654971e-002
 8.9117013338e-001	 3.7968165341e+000	-5.4665389438e-003
 8.5481167213e-001	 3.8051671455e+000	 3.9517866979e-002
 8.1847587964e-001	 3.8131479429e+000	 6.1098236277e-002
 7.8216792804e-001	 3.8207608316e+000	 5.8173823656e-002
 7.4589292346e-001	 3.8280078039e+000	 2.9935643501e-002
 7.0965590442e-001	 3.8348909368e+000	-2.4135959192e-002
 1.0799959932e+000	 3.7734909109e+000	-3.3773395172e-001
 1.0433706796e+000	 3.7837815245e+000	-2.1541484243e-001
 1.0067412174e+000	 3.7936917536e+000	-1.0730469638e-001
 9.7011311783e-001	 3.8032230461e+000	-1.6039260889e-002
 9.3349183472e-001	 3.8123769481e+000	 5.6045712397e-002
 8.9688276244e-001	 3.8211551016e+000	 1.0691529414e-001
 8.6029123413e-001	 3.8295592426e+000	 1.3483551331e-001
 8.2372251989e-001	 3.8375911989e+000	 1.3837281828e-001
 7.8718182501e-001	 3.8452528882e+000	 1.1639288002e-001
 7.5067428835e-001	 3.8525463155e+000	 6.8058755918e-002
 7.1420498073e-001	 3.8594735710e+000	-7.1715659847e-003
 1.0868749486e+000	 3.7975258849e+000	-1.3941946042e-001
 1.0500163527e+000	 3.8078820438e+000	-2.7847276301e-002
 1.0131535818e+000	 3.8178553953e+000	 6.8702871206e-002
 9.7629218228e-001	 3.8274473967e+000	 1.4753125244e-001
 9.3943764258e-001	 3.8366596038e+000	 2.0624384758e-001
 9.0259539150e-001	 3.8454936691e+000	 2.4275321094e-001
 8.6577079613e-001	 3.8539513397e+000	 2.5527863109e-001
 8.2896916014e-001	 3.8620344550e+000	 2.4234560270e-001
 7.9219572198e-001	 3.8697449448e+000	 2.0278462753e-001
 7.5545565324e-001	 3.8770848270e+000	 1.3572936339e-001
 7.1875405704e-001	 3.8840562052e+000	 4.0614141115e-002
 1.0937539040e+000	 3.8215608588e+000	 7.1811278063e-002
 1.0566620258e+000	 3.8319825630e+000	 1.7476491111e-001
 1.0195659463e+000	 3.8420190371e+000	 2.6179664587e-001
 9.8247124672e-001	 3.8516717474e+000	 3.3014045781e-001
 9.4538345045e-001	 3.8609422596e+000	 3.7734188885e-001
 9.0830802055e-001	 3.8698322366e+000	 4.0125895004e-001
 8.7125035813e-001	 3.8783434368e+000	 4.0006230625e-001
 8.3421580039e-001	 3.8864777110e+000	 3.7223475904e-001
 7.9720961895e-001	 3.8942370014e+000	 3.1657004539e-001
 7.6023701813e-001	 3.9016233386e+000	 2.3217097150e-001
 7.2330313334e-001	 3.9086388394e+000	 1.1844690205e-001
 1.1006328594e+000	 3.8455958328e+000	 2.9515867008e-001
 1.0633076989e+000	 3.8560830823e+000	 3.9162714410e-001
 1.0259783107e+000	 3.8661826788e+000	 4.7118685693e-001
 9.8865031116e-001	 3.8758960980e+000	 5.3100316288e-001
 9.5132925831e-001	 3.8852249153e+000	 5.6855898244e-001
 9.1402064961e-001	 3.8941708042e+000	 5.8165574413e-001
 8.7672992013e-001	 3.9027355338e+000	 5.6841359419e-001
 8.3946244064e-001	 3.9109209671e+000	 5.2727089071e-001
 8.0222351592e-001	 3.9187290581e+000	 4.5698300010e-001
 7.6501838302e-001	 3.9261618501e+000	 3.5662041542e-001
 7.2785220965e-001	 3.9332214737e+000	 2.2556621743e-001
 6.8236144655e-001	 3.6873951316e+000	 7.6935880765e-001
 6.4755946190e-001	 3.6936657595e+000	-2.8890697402e-001
 6.1280349065e-001	 3.6995907722e+000	-7.5320542964e-001
 5.7809817425e-001	 3.7051723983e+000	-3.8868435559e-001
 5.4344808385e-001	 3.7104129393e+000	-6.0920893820e-002
 5.0885771918e-001	 3.7153147675e+000	 2.2765496905e-001
 4.7433150743e-001	 3.7198803235e+000	 4.7630619799e-001
 4.3987380232e-001	 3.7241121140e+000	 6.8594089192e-001
 4.0548888310e-001	 3.7280127100e+000	 8.5906234460e-001
 3.7118095373e-001	 3.7315847437e+000	 9.9971716539e-001
 3.3695414212e-001	 3.7348309073e+000	 1.1134416404e+000
 6.8691052287e-001	 3.7119777658e+000	 4.8211869605e-001
 6.5187652498e-001	 3.7182901979e+000	-4.4268078430e-001
 6.1688884725e-001	 3.7242547107e+000	-9.4294701329e-001
 5.8195216208e-001	 3.7298735476e+000	-5.4563241542e-001
 5.4707107108e-001	 3.7351490256e+000	-2.1092890985e-001
 5.1225010397e-001	 3.7400835326e+000	 5.8584788740e-002
 4.7749371748e-001	 3.7446795256e+000	 2.6207472331e-001
 4.4280629434e-001	 3.7489395281e+000	 4.0040269048e-001
 4.0819214232e-001	 3.7528661280e+000	 4.9991332845e-001
 3.7365549343e-001	 3.7564619753e+000	 5.7889698185e-001
 3.3920050307e-001	 3.7597297800e+000	 6.4385768365e-001
 6.9145959918e-001	 3.7365604000e+000	 2.5985790130e-001
 6.5619358806e-001	 3.7429146363e+000	-5.3713351649e-001
 6.2097420386e-001	 3.7489186492e+000	-1.0552308049e+000
 5.8580614991e-001	 3.7545746969e+000	-6.4281684567e-001
 5.5069405831e-001	 3.7598851118e+000	-3.2043120826e-001
 5.1564248877e-001	 3.7648522977e+000	-7.3092317086e-002
 4.8065592754e-001	 3.7694787278e+000	 1.1244461578e-001
 4.4573878635e-001	 3.7737669422e+000	 2.4879178039e-001
 4.1089540154e-001	 3.7777195461e+000	 3.4794576369e-001
 3.7613003312e-001	 3.7813392070e+000	 4.2130495069e-001
 3.4144686401e-001	 3.7846286527e+000	 4.7968727060e-001
 6.9600867549e-001	 3.7611430342e+000	 1.1785719832e-001
 6.6051065114e-001	 3.7675390747e+000	-5.7341386758e-001
 6.2505956047e-001	 3.7735825876e+000	-1.1262746170e+000
 5.8966013774e-001	 3.7792758462e+000	-7.2617319406e-001
 5.5431704553e-001	 3.7846211981e+000	-4.1250997132e-001
 5.1903487357e-001	 3.7896210628e+000	-1.7323896735e-001
 4.8381813759e-001	 3.7942779299e+000	 4.6003984449e-003
 4.4867127837e-001	 3.7985943563e+000	 1.3333226112e-001
 4.1359866076e-001	 3.8025729642e+000	 2.2466197620e-001
 3.7860457281e-001	 3.8062164386e+000	 2.8969418158e-001
 3.4369322496e-001	 3.8095275254e+000	 3.3895119262e-001
 7.0055775180e-001	 3.7857256684e+000	 3.7567720152e-002
 6.6482771422e-001	 3.7921635131e+000	-5.7750647605e-001
 6.2914491707e-001	 3.7982465261e+000	-1.0582655985e+000
 5.9351412557e-001	 3.8039769955e+000	-7.6686759510e-001
 5.5794003276e-001	 3.8093572843e+000	-4.6524739368e-001
 5.2242725836e-001	 3.8143898280e+000	-2.3719060446e-001
 4.8698034763e-001	 3.8190771321e+000	-7.0024253732e-002
 4.5160377038e-001	 3.8234217704e+000	 4.8284179291e-002
 4.1630191998e-001	 3.8274263822e+000	 1.2914511029e-001
 3.8107911250e-001	 3.8310936702e+000	 1.8336558309e-001
 3.4593958591e-001	 3.8344263981e+000	 2.2116832426e-001
 7.0510682811e-001	 3.8103083026e+000	-9.4905739167e-003
 6.6914477730e-001	 3.8167879515e+000	-5.5427776329e-001
 6.3323027367e-001	 3.8229104646e+000	-9.6888860021e-001
 5.9736811339e-001	 3.8286781449e+000	-7.6689218784e-001
 5.6156301998e-001	 3.8340933706e+000	-4.8042369502e-001
 5.2581964315e-001	 3.8391585931e+000	-2.6651474248e-001
 4.9014255768e-001	 3.8438763342e+000	-1.1278347589e-001
 4.5453626240e-001	 3.8482491845e+000	-7.4926605383e-003
 4.1900517920e-001	 3.8522798003e+000	 6.0469359158e-002
 3.8355365219e-001	 3.8559709018e+000	 1.0160807488e-001
 3.4818594685e-001	 3.8593252709e+000	 1.2584253922e-001
 7.0965590442e-001	 3.8348909368e+000	-2.4135959192e-002
 6.7346184038e-001	 3.8414123899e+000	-5.0440929007e-001
 6.3731563028e-001	 3.8475744031e+000	-8.5868987058e-001
 6.0122210122e-001	 3.8533792942e+000	-7.2823273143e-001
 5.6518600721e-001	 3.8588294569e+000	-4.5981576620e-001
 5.2921202794e-001	 3.8639273582e+000	-2.6277859761e-001
 4.9330476773e-001	 3.8686755364e+000	-1.2503411517e-001
 4.5746875441e-001	 3.8730765986e+000	-3.5144153485e-002
 4.2170843842e-001	 3.8771332183e+000	 1.7700251783e-002
 3.8602819188e-001	 3.8808481335e+000	 4.3698971960e-002
 3.5043230780e-001	 3.8842241436e+000	 5.2463191115e-002
 7.1420498073e-001	 3.8594735710e+000	-7.1715659847e-003
 6.7777890346e-001	 3.8660368283e+000	-4.2857047825e-001
 6.4140098688e-001	 3.8722383416e+000	-7.2820650914e-001
 6.0507608904e-001	 3.8780804435e+000	-6.5286880825e-001
 5.6880899443e-001	 3.8835655431e+000	-4.0519727527e-001
 5.3260441274e-001	 3.8886961233e+000	-2.2754909770e-001
 4.9646697778e-001	 3.8934747386e+000	-1.0813564434e-001
 4.6040124642e-001	 3.8979040127e+000	-3.5821712816e-002
 4.2441169764e-001	 3.9019866364e+000	-1.0507112113e-004
 3.8850273157e-001	 3.9057253651e+000	 8.9043542816e-003
 3.5267866874e-001	 3.9091230163e+000	 5.0557590884e-004
 7.1875405704e-001	 3.8840562052e+000	 4.0614141115e-002
 6.8209596653e-001	 3.8906612667e+000	-3.2741899495e-001
 6.4548634348e-001	 3.8969022800e+000	-5.7796675577e-001
 6.0893007687e-001	 3.9027815928e+000	-5.4277401942e-001
 5.7243198165e-001	 3.9083016294e+000	-3.1833876944e-001
 5.3599679753e-001	 3.9134648884e+000	-1.6239289137e-001
 4.9962918782e-001	 3.9182739407e+000	-6.3450078680e-002
 4.6333373843e-001	 3.9227314268e+000	-1.0682095330e-002
 4.2711495685e-001	 3.9268400545e+000	 6.1024083334e-003
 3.9097727126e-001	 3.9306025967e+000	-3.5205777519e-003
 3.5492502969e-001	 3.9340218890e+000	-3.0568623209e-002
 7.2330313334e-001	 3.9086388394e+000	 1.1844690205e-001
 6.8641302961e-001	 3.9152857051e+000	-2.0160112214e-001
 6.4957170008e-001	 3.9215662185e+000	-4.0849026937e-001
 6.1278406469e-001	 3.9274827422e+000	-3.9991617287e-001
 5.7605496887e-001	 3.9330377156e+000	-2.0100777325e-001
 5.3938918232e-001	 3.9382336535e+000	-6.8876356798e-002
 5.0279139787e-001	 3.9430731429e+000	 7.6581039131e-003
 4.6626623045e-001	 3.9475588409e+000	 3.9112766685e-002
 4.2981821607e-001	 3.9516934725e+000	 3.5363840642e-002
 3.9345181095e-001	 3.9554798283e+000	 5.6688388592e-003
 3.5717139063e-001	 3.9589207617e+000	-4.1310907759e-002
 7.2785220965e-001	 3.9332214737e+000	 2.2556621743e-001
 6.9073009268e-001	 3.9399101435e+000	-5.1752112509e-002
 6.5365705668e-001	 3.9462301570e+000	-2.2028839600e-001
 6.1663805252e-001	 3.9521838915e+000	-2.2625746435e-001
 5.7967795609e-001	 3.9577738019e+000	-5.4968883004e-002
 5.4278156711e-001	 3.9630024187e+000	 5.1434389838e-002
 5.0595360791e-001	 3.9678723450e+000	 1.0382203993e-001
 4.6919872246e-001	 3.9723862550e+000	 1.1239592718e-001
 4.3252147529e-001	 3.9765468906e+000	 8.6712754767e-002
 3.9592635063e-001	 3.9803570600e+000	 3.5707058999e-002
 3.5941775158e-001	 3.9838196344e+000	-3.2285551950e-002
 3.3695414212e-001	 3.7348309073e+000	 1.1134416404e+000
 3.0281249933e-001	 3.7377539499e+000	 9.5855153540e-001
 2.6875999901e-001	 3.7403566759e+000	 7.8413643622e-001
 2.3480053674e-001	 3.7426419423e+000	 6.0152560998e-001
 2.0093792957e-001	 3.7446126567e+000	 4.2328382780e-001
 1.6717591555e-001	 3.7462717751e+000	 2.6315060793e-001
 1.3351815331e-001	 3.7476222999e+000	 1.3597878973e-001
 9.9968221788e-002	 3.7486672771e+000	 5.7672599228e-002
 6.6529619936e-002	 3.7494097948e+000	 4.5125362462e-002
 3.3205766524e-002	 3.7498529807e+000	 1.1615701828e-001
 0.0000000000e+000	 3.7500000000e+000	 2.8945157709e-001
 3.3920050307e-001	 3.7597297800e+000	 6.4385768365e-001
 3.0483124933e-001	 3.7626723096e+000	 4.9719572181e-001
 2.7055173233e-001	 3.7652923871e+000	 3.5069604724e-001
 2.3636587365e-001	 3.7675928885e+000	 2.1534607958e-001
 2.0227751577e-001	 3.7695767410e+000	 1.0160157915e-001
 1.6829042165e-001	 3.7712469203e+000	 1.9403835919e-002
 1.3440827433e-001	 3.7726064486e+000	-2.1803057022e-002
 1.0063467660e-001	 3.7736583923e+000	-1.3054892101e-002
 6.6973150735e-002	 3.7744058601e+000	 5.4149957755e-002
 3.3427138301e-002	 3.7748520006e+000	 1.8786779564e-001
 0.0000000000e+000	 3.7750000000e+000	 3.9572676883e-001
 3.4144686401e-001	 3.7846286527e+000	 4.7968727060e-001
 3.0684999932e-001	 3.7875906693e+000	 3.6198299932e-001
 2.7234346566e-001	 3.7902280982e+000	 2.4443682312e-001
 2.3793121056e-001	 3.7925438348e+000	 1.3759229405e-001
 2.0361710197e-001	 3.7945408254e+000	 5.1463740496e-002
 1.6940492775e-001	 3.7962220655e+000	-4.4458809149e-003
 1.3529839535e-001	 3.7975905972e+000	-2.1127070766e-002
 1.0130113141e-001	 3.7986495075e+000	 9.9541431305e-003
 6.7416681534e-002	 3.7994019254e+000	 9.6874106217e-002
 3.3648510077e-002	 3.7998510205e+000	 2.4726936552e-001
 0.0000000000e+000	 3.8000000000e+000	 4.6835438546e-001
 3.4369322496e-001	 3.8095275254e+000	 3.3895119262e-001
 3.0886874932e-001	 3.8125090289e+000	 2.4415826272e-001
 2.7413519899e-001	 3.8151638094e+000	 1.4965675768e-001
 2.3949654747e-001	 3.8174947811e+000	 6.5543695211e-002
 2.0495668816e-001	 3.8195049098e+000	 1.3891975760e-003
 1.7051943386e-001	 3.8211972106e+000	-3.3744984629e-002
 1.3618851637e-001	 3.8225747459e+000	-3.1286907957e-002
 1.0196758622e-001	 3.8236406227e+000	 1.6864121144e-002
 6.7860212333e-002	 3.8243979907e+000	 1.1835605080e-001
 3.3869881854e-002	 3.8248500403e+000	 2.8040249218e-001
 0.0000000000e+000	 3.8250000000e+000	 5.0980099111e-001
 3.4593958591e-001	 3.8344263981e+000	 2.2116832426e-001
 3.1088749931e-001	 3.8374273886e+000	 1.4352956790e-001
 2.7592693231e-001	 3.8400995206e+000	 6.6453265100e-002
 2.4106188438e-001	 3.8424457274e+000	-4.1290517738e-004
 2.0629627436e-001	 3.8444689942e+000	-4.7945937065e-002
 1.7163393996e-001	 3.8461723558e+000	-6.7528292964e-002
 1.3707863739e-001	 3.8475588946e+000	-5.1028680171e-002
 1.0263404103e-001	 3.8486317379e+000	 9.2171424409e-003
 6.8303743132e-002	 3.8493940560e+000	 1.2042548147e-001
 3.4091253630e-002	 3.8498490602e+000	 2.8938370603e-001
 0.0000000000e+000	 3.8500000000e+000	 5.2246908334e-001
 3.4818594685e-001	 3.8593252709e+000	 1.2584253922e-001
 3.1290624931e-001	 3.8623457483e+000	 5.9885149258e-002
 2.7771866564e-001	 3.8650352318e+000	-5.1008598986e-003
 2.4262722129e-001	 3.8673966737e+000	-5.9920088545e-002
 2.0763586056e-001	 3.8694330785e+000	-9.5899691881e-002
 1.7274844606e-001	 3.8711475010e+000	-1.0486948503e-001
 1.3796875842e-001	 3.8725430432e+000	-7.9142051770e-002
 1.0330049584e-001	 3.8736228530e+000	-1.1492906247e-002
 6.8747273931e-002	 3.8743901213e+000	 1.0485924532e-001
 3.4312625407e-002	 3.8748480801e+000	 2.7627209873e-001
 0.0000000000e+000	 3.8750000000e+000	 5.0869915978e-001
 3.5043230780e-001	 3.8842241436e+000	 5.2463191115e-002
 3.1492499930e-001	 3.8872641079e+000	-7.0059449937e-003
 2.7951039896e-001	 3.8899709429e+000	-6.4956653013e-002
 2.4419255820e-001	 3.8923476199e+000	-1.1264888742e-001
 2.0897544675e-001	 3.8943971629e+000	-1.4186314206e-001
 1.7386295217e-001	 3.8961226461e+000	-1.4487985577e-001
 1.3885887944e-001	 3.8975271919e+000	-1.1445884398e-001
 1.0396695066e-001	 3.8986139682e+000	-4.3818806645e-002
 6.9190804730e-002	 3.8993861866e+000	 7.3383040224e-002
 3.4533997183e-002	 3.8998471000e+000	 2.4307116422e-001
 0.0000000000e+000	 3.9000000000e+000	 4.7077170528e-001
 3.5267866874e-001	 3.9091230163e+000	 5.0557590884e-004
 3.1694374929e-001	 3.9121824676e+000	-5.7393241827e-002
 2.8130213229e-001	 3.9149066541e+000	-1.1308822141e-001
 2.4575789511e-001	 3.9172985662e+000	-1.5829787932e-001
 2.1031503295e-001	 3.9193612473e+000	-1.8525935708e-001
 1.7497745827e-001	 3.9210977913e+000	-1.8670711795e-001
 1.3974900046e-001	 3.9225113406e+000	-1.5585169233e-001
 1.0463340547e-001	 3.9236050834e+000	-8.6358522676e-002
 6.9634335529e-002	 3.9243822519e+000	 2.7673043836e-002
 3.4755368960e-002	 3.9248461198e+000	 1.9173056934e-001
 0.0000000000e+000	 3.9250000000e+000	 4.1090910319e-001
 3.5492502969e-001	 3.9340218890e+000	-3.0568623209e-002
 3.1896249929e-001	 3.9371008273e+000	-9.1544255561e-002
 2.8309386561e-001	 3.9398423653e+000	-1.4949201360e-001
 2.4732323202e-001	 3.9422495125e+000	-1.9659231513e-001
 2.1165461914e-001	 3.9443253317e+000	-2.2554238825e-001
 1.7609196437e-001	 3.9460729365e+000	-2.2953424978e-001
 1.4063912148e-001	 3.9474954892e+000	-2.0223275503e-001
 1.0529986028e-001	 3.9485961986e+000	-1.3775377065e-001
 7.0077866328e-002	 3.9493783172e+000	-3.0642519341e-002
 3.4976740737e-002	 3.9498451397e+000	 1.2414785720e-001
 0.0000000000e+000	 3.9500000000e+000	 3.3127747395e-001
 3.5717139063e-001	 3.9589207617e+000	-4.1310907759e-002
 3.2098124928e-001	 3.9620191869e+000	-1.0974392223e-001
 2.8488559894e-001	 3.9647780764e+000	-1.7418611693e-001
 2.4888856893e-001	 3.9672004588e+000	-2.2728328025e-001
 2.1299420534e-001	 3.9692894161e+000	-2.6219629439e-001
 1.7720647047e-001	 3.9710480817e+000	-2.7257838584e-001
 1.4152924250e-001	 3.9724796379e+000	-2.5255247015e-001
 1.0596631509e-001	 3.9735873138e+000	-1.9668864339e-001
 7.0521397127e-002	 3.9743743825e+000	-9.9981869991e-002
 3.5198112513e-002	 3.9748441596e+000	 4.2170086306e-002
 0.0000000000e+000	 3.9750000000e+000	 2.3398844445e-001
 3.5941775158e-001	 3.9838196344e+000	-3.2285551950e-002
 3.2299999927e-001	 3.9869375466e+000	-1.1229405513e-001
 2.8667733226e-001	 3.9897137876e+000	-1.8720958131e-001
 2.5045390584e-001	 3.9921514051e+000	-2.5014688732e-001
 2.1433379153e-001	 3.9942535004e+000	-2.9473420416e-001
 1.7832097657e-001	 3.9960232268e+000	-3.1508974979e-001
 1.4241936352e-001	 3.9974637866e+000	-3.0579835935e-001
 1.0663276990e-001	 3.9985784289e+000	-2.6188828599e-001
 7.0964927926e-002	 3.9993704478e+000	-1.7880822257e-001
 3.5419484290e-002	 3.9998431794e+000	-5.2404591788e-002
 0.0000000000e+000	 4.0000000000e+000	 1.2110085089e-001
 4.0000000000e+000	 0.0000000000e+000	 8.3262306121e-001
 3.9998431794e+000	 3.5419484290e-002	 8.7027713715e-001
 3.9993704478e+000	 7.0964927926e-002	 8.9923054348e-001
 3.9985784289e+000	 1.0663276990e-001	 9.1839513255e-001
 3.9974637866e+000	 1.4241936352e-001	 9.2700527198e-001
 3.9960232268e+000	 1.7832097657e-001	 9.2463162410e-001
 3.9942535004e+000	 2.1433379153e-001	 9.1119471901e-001
 3.9921514051e+000	 2.5045390584e-001	 8.8697828262e-001
 3.9897137876e+000	 2.8667733226e-001	 8.5264228044e-001
 3.9869375466e+000	 3.2299999927e-001	 8.0923563710e-001
 3.9838196344e+000	 3.5941775158e-001	 7.5820859058e-001
 4.0250000000e+000	 0.0000000000e+000	 7.6750537900e-001
 4.0248421993e+000	 3.5640856066e-002	 7.9933549388e-001
 4.0243665131e+000	 7.1408458726e-002	 8.2405926841e-001
 4.0235695441e+000	 1.0729922471e-001	 8.4055433916e-001
 4.0224479352e+000	 1.4330948454e-001	 8.4802451407e-001
 4.0209983720e+000	 1.7943548268e-001	 8.4601376059e-001
 4.0192175848e+000	 2.1567337773e-001	 8.3441998485e-001
 4.0171023514e+000	 2.5201924275e-001	 8.1350856299e-001
 4.0146494988e+000	 2.8846906558e-001	 7.8392558472e-001
 4.0118559063e+000	 3.2501874926e-001	 7.4671076824e-001
 4.0087185072e+000	 3.6166411252e-001	 7.0331000523e-001
 4.0500000000e+000	 0.0000000000e+000	 7.0356254560e-001
 4.0498412192e+000	 3.5862227843e-002	 7.3029408044e-001
 4.0493625784e+000	 7.1851989525e-002	 7.5136171445e-001
 4.0485606593e+000	 1.0796567952e-001	 7.6560661663e-001
 4.0474320839e+000	 1.4419960556e-001	 7.7219990505e-001
 4.0459735172e+000	 1.8054998878e-001	 7.7065684924e-001
 4.0441816692e+000	 2.1701296393e-001	 7.6085086123e-001
 4.0420532976e+000	 2.5358457966e-001	 7.4302723578e-001
 4.0395852100e+000	 2.9026079891e-001	 7.1781659908e-001
 4.0367742659e+000	 3.2703749926e-001	 6.8624802471e-001
 4.0336173799e+000	 3.6391047346e-001	 6.4976177461e-001
 4.0750000000e+000	 0.0000000000e+000	 6.4056478938e-001
 4.0748402391e+000	 3.6083599620e-002	 6.6294283380e-001
 4.0743586437e+000	 7.2295520325e-002	 6.8094764031e-001
 4.0735517745e+000	 1.0863213434e-001	 6.9338164989e-001
 4.0724162326e+000	 1.4508972659e-001	 6.9938115221e-001
 4.0709486623e+000	 1.8166449488e-001	 6.9843070782e-001
 4.0691457536e+000	 2.1835255012e-001	 6.9037735681e-001
 4.0670042439e+000	 2.5514991657e-001	 6.7544457345e-001
 4.0645209211e+000	 2.9205253223e-001	 6.5424592571e-001
 4.0616926256e+000	 3.2905624925e-001	 6.2779839765e-001
 4.0585162526e+000	 3.6615683441e-001	 5.9753533179e-001
 4.1000000000e+000	 0.0000000000e+000	 5.7828794285e-001
 4.0998392589e+000	 3.6304971397e-002	 5.9707711600e-001
 4.0993547090e+000	 7.2739051125e-002	 6.1263202471e-001
 4.0985428897e+000	 1.0929858915e-001	 6.2371411281e-001
 4.0974003812e+000	 1.4597984761e-001	 6.2942269441e-001
 4.0959238075e+000	 1.8277900099e-001	 6.2920960185e-001
 4.0941098380e+000	 2.1969213632e-001	 6.2289361747e-001
 4.0919551902e+000	 2.5671525349e-001	 6.1067464843e-001
 4.0894566323e+000	 2.9384426556e-001	 5.9314760258e-001
 4.0866109853e+000	 3.3107499925e-001	 5.7131592272e-001
 4.0834151253e+000	 3.6840319536e-001	 5.4660473585e-001
 4.1250000000e+000	 0.0000000000e+000	 5.1651327290e-001
 4.1248382788e+000	 3.6526343175e-002	 5.3249754970e-001
 4.1243507743e+000	 7.3182581926e-002	 5.4623490824e-001
 4.1235340048e+000	 1.0996504396e-001	 5.5644351699e-001
 4.1223845299e+000	 1.4686996863e-001	 5.6218355868e-001
 4.1208989527e+000	 1.8389350709e-001	 5.6287210974e-001
 4.1190739223e+000	 2.2103172252e-001	 5.5829780095e-001
 4.1169061365e+000	 2.5828059040e-001	 5.4863521800e-001
 4.1143923435e+000	 2.9563599889e-001	 5.3445899932e-001
 4.1115293449e+000	 3.3309374924e-001	 5.1675758782e-001
 4.1083139980e+000	 3.7064955631e-001	 4.9694659236e-001
 4.1500000000e+000	 0.0000000000e+000	 4.5502731711e-001
 4.1498372987e+000	 3.6747714952e-002	 4.6900985978e-001
 4.1493468396e+000	 7.3626112727e-002	 4.8158124087e-001
 4.1485251200e+000	 1.1063149878e-001	 4.9141406605e-001
 4.1473686786e+000	 1.4776008966e-001	 4.9752722201e-001
 4.1458740978e+000	 1.8500801320e-001	 4.9930099296e-001
 4.1440380067e+000	 2.2237130872e-001	 4.9649195603e-001
 4.1418570828e+000	 2.5984592731e-001	 4.8924761324e-001
 4.1393280547e+000	 2.9742773222e-001	 4.7812071688e-001
 4.1364477046e+000	 3.3511249924e-001	 4.6408324420e-001
 4.1332128707e+000	 3.7289591725e-001	 4.4853997665e-001
 4.1750000000e+000	 0.0000000000e+000	 3.9362172591e-001
 4.1748363185e+000	 3.6969086730e-002	 4.0642472053e-001
 4.1743429049e+000	 7.4069643528e-002	 4.1850073493e-001
 4.1735162352e+000	 1.1129795359e-001	 4.2847451519e-001
 4.1723528272e+000	 1.4865021068e-001	 4.3532147812e-001
 4.1708492430e+000	 1.8612251931e-001	 4.3838307073e-001
 4.1690020911e+000	 2.2371089492e-001	 4.3738190603e-001
 4.1668080290e+000	 2.6141126423e-001	 4.3243663212e-001
 4.1642637658e+000	 2.9921946555e-001	 4.2407649076e-001
 4.1613660643e+000	 3.3713124924e-001	 4.1325552068e-001
 4.1581117435e+000	 3.7514227820e-001	 4.0136635989e-001
 4.2000000000e+000	 0.0000000000e+000	 3.3209311044e-001
 4.1998353384e+000	 3.7190458508e-002	 3.4455760841e-001
 4.1993389702e+000	 7.4513174330e-002	 3.5682772345e-001
 4.1985073504e+000	 1.1196440840e-001	 3.6747803569e-001
 4.1973369759e+000	 1.4954033171e-001	 3.7543830900e-001
 4.1958243882e+000	 1.8723702541e-001	 3.8000909931e-001
 4.1939661755e+000	 2.2505048112e-001	 3.8087713645e-001
 4.1917589753e+000	 2.6297660114e-001	 3.7813043622e-001
 4.1891994770e+000	 3.0101119888e-001	 3.7227309777e-001
 4.1862844239e+000	 3.3914999924e-001	 3.6423974103e-001
 4.1830106162e+000	 3.7738863915e-001	 3.5540953773e-001
 4.2250000000e+000	 0.0000000000e+000	 2.7024289578e-001
 4.2248343583e+000	 3.7411830286e-002	 2.8322865991e-001
 4.2243350355e+000	 7.4956705132e-002	 2.9640102337e-001
 4.2234984656e+000	 1.1263086322e-001	 3.0828208424e-001
 4.2223211246e+000	 1.5043045273e-001	 3.1775376101e-001
 4.2207995333e+000	 1.8835153152e-001	 3.2407365548e-001
 4.2189302598e+000	 2.2639006732e-001	 3.2689068664e-001
 4.2167099216e+000	 2.6454193806e-001	 3.2626045129e-001
 4.2141351882e+000	 3.0280293221e-001	 3.2266026601e-001
 4.2112027836e+000	 3.4116874924e-001	 3.1700384424e-001
 4.2079094889e+000	 3.7963500011e-001	 3.1065556161e-001
 4.2500000000e+000	 0.0000000000e+000	 2.0787717937e-001
 4.2498333782e+000	 3.7633202065e-002	 2.2226253452e-001
 4.2493311008e+000	 7.5400235934e-002	 2.3706380372e-001
 4.2484895807e+000	 1.1329731804e-001	 2.5074827696e-001
 4.2473052732e+000	 1.5132057376e-001	 2.6214782529e-001
 4.2457746785e+000	 1.8946603763e-001	 2.7047502419e-001
 4.2438943442e+000	 2.2772965353e-001	 2.7533904527e-001
 4.2416608679e+000	 2.6610727498e-001	 2.7676127122e-001
 4.2390708994e+000	 3.0459466554e-001	 2.7519058805e-001
 4.2361211433e+000	 3.4318749924e-001	 2.7151830756e-001
 4.2328083616e+000	 3.8188136106e-001	 2.6709267235e-001
 3.9838196344e+000	 3.5941775158e-001	 7.5820859058e-001
 3.9803570600e+000	 3.9592635063e-001	 7.2430620408e-001
 3.9765468906e+000	 4.3252147529e-001	 6.9996166991e-001
 3.9723862550e+000	 4.6919872246e-001	 6.8791377249e-001
 3.9678723450e+000	 5.0595360791e-001	 6.9133712251e-001
 3.9630024187e+000	 5.4278156711e-001	 7.1385182850e-001
 3.9577738019e+000	 5.7967795609e-001	 7.5953255681e-001
 3.9521838915e+000	 6.1663805252e-001	 8.3291693777e-001
 3.9462301570e+000	 6.5365705668e-001	 8.6312958151e-001
 3.9399101435e+000	 6.9073009268e-001	 8.0002724163e-001
 3.9332214737e+000	 7.2785220965e-001	 6.5190327806e-001
 4.0087185072e+000	 3.6166411252e-001	 7.0331000523e-001
 4.0052342916e+000	 3.9840089032e-001	 6.7550586380e-001
 4.0014003087e+000	 4.3522473450e-001	 6.5732647178e-001
 3.9972136691e+000	 4.7213121447e-001	 6.5152076299e-001
 3.9926715472e+000	 5.0911581796e-001	 6.6128018259e-001
 3.9877711838e+000	 5.4617395190e-001	 6.9024853951e-001
 3.9825098882e+000	 5.8330094331e-001	 7.4253123763e-001
 3.9768850408e+000	 6.2049204034e-001	 8.2270384285e-001
 3.9708940955e+000	 6.5774241328e-001	 8.5461015267e-001
 3.9645345819e+000	 6.9504715575e-001	 8.0277280904e-001
 3.9578041079e+000	 7.3240128595e-001	 6.7105620633e-001
 4.0336173799e+000	 3.6391047346e-001	 6.4976177461e-001
 4.0301115232e+000	 4.0087543001e-001	 6.2745808023e-001
 4.0262537268e+000	 4.3792799372e-001	 6.1469557798e-001
 4.0220410832e+000	 4.7506370648e-001	 6.1423261924e-001
 4.0174707494e+000	 5.1227802800e-001	 6.2927691759e-001
 4.0125399489e+000	 5.4956633669e-001	 6.6349558672e-001
 4.0072459744e+000	 5.8692393053e-001	 7.2102454716e-001
 4.0015861901e+000	 6.2434602816e-001	 8.0647725839e-001
 3.9955580340e+000	 6.6182776988e-001	 8.3983409769e-001
 3.9891590203e+000	 6.9936421883e-001	 7.9833369554e-001
 3.9823867421e+000	 7.3695036226e-001	 6.8209698399e-001
 4.0585162526e+000	 3.6615683441e-001	 5.9753533179e-001
 4.0549887548e+000	 4.0334996970e-001	 5.8014959843e-001
 4.0511071448e+000	 4.4063125294e-001	 5.7207075942e-001
 4.0468684973e+000	 4.7799619849e-001	 5.7606584573e-001
 4.0422699515e+000	 5.1544023805e-001	 5.9535826801e-001
 4.0373087140e+000	 5.5295872148e-001	 6.3363804435e-001
 4.0319820607e+000	 5.9054691776e-001	 6.9507138703e-001
 4.0262873394e+000	 6.2820001599e-001	 7.8184543828e-001
 4.0202219725e+000	 6.6591312648e-001	 8.1890260761e-001
 4.0137834587e+000	 7.0368128190e-001	 7.8683914979e-001
 4.0069693763e+000	 7.4149943857e-001	 6.8518412774e-001
 4.0834151253e+000	 3.6840319536e-001	 5.4660473585e-001
 4.0798659865e+000	 4.0582450939e-001	 5.3356947002e-001
 4.0759605629e+000	 4.4333451216e-001	 5.2945575462e-001
 4.0716959114e+000	 4.8092869050e-001	 5.3703855624e-001
 4.0670691537e+000	 5.1860244810e-001	 5.5955640578e-001
 4.0620774791e+000	 5.5635110627e-001	 6.0072182066e-001
 4.0567181470e+000	 5.9416990498e-001	 6.6473107596e-001
 4.0509884888e+000	 6.3205400381e-001	 7.5147262029e-001
 4.0448859109e+000	 6.6999848308e-001	 7.9191639787e-001
 4.0384078971e+000	 7.0799834498e-001	 7.6841746918e-001
 4.0315520105e+000	 7.4604851487e-001	 6.8047470780e-001
 4.1083139980e+000	 3.7064955631e-001	 4.9694659236e-001
 4.1047432181e+000	 4.0829904908e-001	 4.8770898326e-001
 4.1008139810e+000	 4.4603777138e-001	 4.8685621013e-001
 4.0965233255e+000	 4.8386118252e-001	 4.9717042507e-001
 4.0918683558e+000	 5.2176465814e-001	 5.2190469694e-001
 4.0868462442e+000	 5.5974349106e-001	 5.6479363267e-001
 4.0814542332e+000	 5.9779289220e-001	 6.3006333708e-001
 4.0756896381e+000	 6.3590799164e-001	 7.1599511928e-001
 4.0695498494e+000	 6.7408383968e-001	 7.5897572276e-001
 4.0630323355e+000	 7.1231540806e-001	 7.4319602863e-001
 4.0561346447e+000	 7.5059759118e-001	 6.6812439170e-001
 4.1332128707e+000	 3.7289591725e-001	 4.4853997665e-001
 4.1296204497e+000	 4.1077358877e-001	 4.4256159572e-001
 4.1256673990e+000	 4.4874103060e-001	 4.4427962305e-001
 4.1213507395e+000	 4.8679367453e-001	 4.5648264002e-001
 4.1166675580e+000	 5.2492686819e-001	 4.8243766567e-001
 4.1116150094e+000	 5.6313587586e-001	 5.2590098176e-001
 4.1061903195e+000	 6.0141587943e-001	 5.9112828575e-001
 4.1003907874e+000	 6.3976197947e-001	 6.7548722746e-001
 4.0942137879e+000	 6.7816919628e-001	 7.2018038926e-001
 4.0876567739e+000	 7.1663247114e-001	 7.1130130844e-001
 4.0807172789e+000	 7.5514666749e-001	 6.4828748655e-001
 4.1581117435e+000	 3.7514227820e-001	 4.0136635989e-001
 4.1544976813e+000	 4.1324812847e-001	 3.9812286927e-001
 4.1505208171e+000	 4.5144428982e-001	 4.0173528564e-001
 4.1461781536e+000	 4.8972616655e-001	 4.1499785711e-001
 4.1414667601e+000	 5.2808907824e-001	 4.4119095963e-001
 4.1363837745e+000	 5.6652826065e-001	 4.8409213026e-001
 4.1309264058e+000	 6.0503886665e-001	 5.4798641787e-001
 4.1250919367e+000	 6.4361596729e-001	 6.3002321928e-001
 4.1188777264e+000	 6.8225455289e-001	 6.7562977047e-001
 4.1122812123e+000	 7.2094953422e-001	 6.7285892100e-001
 4.1052999131e+000	 7.5969574380e-001	 6.2111697978e-001
 4.1830106162e+000	 3.7738863915e-001	 3.5540953773e-001
 4.1793749130e+000	 4.1572266816e-001	 3.5439040749e-001
 4.1753742352e+000	 4.5414754904e-001	 3.5923423185e-001
 4.1710055677e+000	 4.9265865857e-001	 3.7274015687e-001
 4.1662659623e+000	 5.3125128829e-001	 3.9820131649e-001
 4.1611525396e+000	 5.6992064545e-001	 4.3941607872e-001
 4.1556624920e+000	 6.0866185388e-001	 5.0069859849e-001
 4.1497930861e+000	 6.4746995512e-001	 5.7967735193e-001
 4.1435416649e+000	 6.8633990949e-001	 6.2542281852e-001
 4.1369056507e+000	 7.2526659730e-001	 6.2799363669e-001
 4.1298825474e+000	 7.6424482012e-001	 5.8676457839e-001
 4.2079094889e+000	 3.7963500011e-001	 3.1065556161e-001
 4.2042521446e+000	 4.1819720786e-001	 3.1136379527e-001
 4.2002276532e+000	 4.5685080827e-001	 3.1678918582e-001
 4.1958329818e+000	 4.9559115059e-001	 3.2973500217e-001
 4.1910651645e+000	 5.3441349835e-001	 3.5350653172e-001
 4.1859213047e+000	 5.7331303024e-001	 3.9192254416e-001
 4.1803985783e+000	 6.1228484111e-001	 4.4932605092e-001
 4.1744942354e+000	 6.5132394295e-001	 5.2452386589e-001
 4.1682056034e+000	 6.9042526610e-001	 5.6965807702e-001
 4.1615300891e+000	 7.2958366038e-001	 5.7682940872e-001
 4.1544651816e+000	 7.6879389643e-001	 5.4538074685e-001
 4.2328083616e+000	 3.8188136106e-001	 2.6709267235e-001
 4.2291293762e+000	 4.2067174755e-001	 2.6904454053e-001
 4.2250810713e+000	 4.5955406749e-001	 2.7441451218e-001
 4.2206603959e+000	 4.9852364261e-001	 2.8600919760e-001
 4.2158643666e+000	 5.3757570840e-001	 3.0714542745e-001
 4.2106900698e+000	 5.7670541504e-001	 3.4166193889e-001
 4.2051346646e+000	 6.1590782834e-001	 3.9393034620e-001
 4.1991953847e+000	 6.5517793079e-001	 4.6463698543e-001
 4.1928695419e+000	 6.9451062271e-001	 5.0843369305e-001
 4.1861545275e+000	 7.3390072346e-001	 5.1948939724e-001
 4.1790478158e+000	 7.7334297274e-001	 4.9711474364e-001
 3.9332214737e+000	 7.2785220965e-001	 6.5190327806e-001
 3.9261618501e+000	 7.6501838302e-001	 5.7562384808e-001
 3.9187290581e+000	 8.0222351592e-001	 5.1157304455e-001
 3.9109209671e+000	 8.3946244064e-001	 4.5907431033e-001
 3.9027355338e+000	 8.7672992013e-001	 4.1727548505e-001
 3.8941708042e+000	 9.1402064961e-001	 3.8514739475e-001
 3.8852249153e+000	 9.5132925831e-001	 3.6148280084e-001
 3.8758960980e+000	 9.8865031116e-001	 3.4489572007e-001
 3.8661826788e+000	 1.0259783107e+000	 3.3382112651e-001
 3.8560830823e+000	 1.0633076989e+000	 3.2651504572e-001
 3.8455958328e+000	 1.1006328594e+000	 3.2105505046e-001
 3.9578041079e+000	 7.3240128595e-001	 6.7105620633e-001
 3.9507003617e+000	 7.6979974791e-001	 5.9655221370e-001
 3.9432211147e+000	 8.0723741289e-001	 5.3362675678e-001
 3.9353642231e+000	 8.4470908089e-001	 4.8155998063e-001
 3.9271276309e+000	 8.8220948212e-001	 4.3945397685e-001
 3.9185093717e+000	 9.1973327867e-001	 4.0623139789e-001
 3.9095075710e+000	 9.5727506617e-001	 3.8063443738e-001
 3.9001204486e+000	 9.9482937561e-001	 3.6122418820e-001
 3.8903463206e+000	 1.0323906751e+000	 3.4638038951e-001
 3.8801836015e+000	 1.0699533720e+000	 3.3430157290e-001
 3.8696308067e+000	 1.1075118147e+000	 3.2300561732e-001
 3.9823867421e+000	 7.3695036226e-001	 6.8209698399e-001
 3.9752388733e+000	 7.7458111280e-001	 6.0969235527e-001
 3.9677131713e+000	 8.1225130986e-001	 5.4828963799e-001
 3.9598074792e+000	 8.4995572114e-001	 4.9712532135e-001
 3.9515197280e+000	 8.8768904412e-001	 4.5525530664e-001
 3.9428479392e+000	 9.2544590773e-001	 4.2155354550e-001
 3.9337902267e+000	 9.6322087403e-001	 3.9471105095e-001
 3.9243447992e+000	 1.0010084400e+000	 3.7323529316e-001
 3.9145099623e+000	 1.0388030396e+000	 3.5544999114e-001
 3.9042841208e+000	 1.0765990452e+000	 3.3949531081e-001
 3.8936657807e+000	 1.1143907701e+000	 3.2332847895e-001
 4.0069693763e+000	 7.4149943857e-001	 6.8518412774e-001
 3.9997773848e+000	 7.7936247769e-001	 6.1521023438e-001
 3.9922052279e+000	 8.1726520684e-001	 5.5573493678e-001
 3.9842507352e+000	 8.5520236139e-001	 5.0595070070e-001
 3.9759118251e+000	 8.9316860612e-001	 4.6486678502e-001
 3.9671865068e+000	 9.3115853678e-001	 4.3130790325e-001
 3.9580728824e+000	 9.6916668190e-001	 4.0391326469e-001
 3.9485691498e+000	 1.0071875045e+000	 3.8113600740e-001
 3.9386736040e+000	 1.0452154040e+000	 3.6124303426e-001
 3.9283846401e+000	 1.0832447183e+000	 3.4231526274e-001
 3.9177007546e+000	 1.1212697255e+000	 3.2224829790e-001
 4.0315520105e+000	 7.4604851487e-001	 6.8047470780e-001
 4.0243158964e+000	 7.8414384258e-001	 6.1327041300e-001
 4.0166972845e+000	 8.2227910381e-001	 5.5613456260e-001
 4.0086939913e+000	 8.6044900165e-001	 5.0821522188e-001
 4.0003039222e+000	 8.9864816812e-001	 4.6847454548e-001
 3.9915250743e+000	 9.3687116584e-001	 4.3568746147e-001
 3.9823555382e+000	 9.7511248976e-001	 4.0844074206e-001
 3.9727935004e+000	 1.0133665689e+000	 3.8513247330e-001
 3.9628372458e+000	 1.0516277685e+000	 3.6397193526e-001
 3.9524851593e+000	 1.0898903914e+000	 3.4297990326e-001
 3.9417357286e+000	 1.1281486808e+000	 3.1998937987e-001
 4.0561346447e+000	 7.5059759118e-001	 6.6812439170e-001
 4.0488544080e+000	 7.8892520747e-001	 6.0403609591e-001
 4.0411893411e+000	 8.2729300078e-001	 5.4965912637e-001
 4.0331372473e+000	 8.6569564190e-001	 5.0409676146e-001
 4.0246960193e+000	 9.0412773012e-001	 4.6626358011e-001
 4.0158636418e+000	 9.4258379490e-001	 4.3488416773e-001
 4.0066381939e+000	 9.8105829763e-001	 4.0849221588e-001
 3.9970178510e+000	 1.0195456334e+000	 3.8543002833e-001
 3.9870008875e+000	 1.0580401329e+000	 3.6384844494e-001
 3.9765856786e+000	 1.0965360645e+000	 3.4170719425e-001
 3.9657707025e+000	 1.1350276362e+000	 3.1677568449e-001
 4.0807172789e+000	 7.5514666749e-001	 6.4828748655e-001
 4.0733929195e+000	 7.9370657237e-001	 5.8766917155e-001
 4.0656813977e+000	 8.3230689776e-001	 5.3647797956e-001
 4.0575805033e+000	 8.7094228215e-001	 4.9377200629e-001
 4.0490881164e+000	 9.0960729212e-001	 4.5841777396e-001
 4.0402022093e+000	 9.4829642396e-001	 4.2908895824e-001
 4.0309208496e+000	 9.8700410549e-001	 4.0426551641e-001
 4.0212422016e+000	 1.0257246978e+000	 3.8223322927e-001
 4.0111645293e+000	 1.0644524973e+000	 3.6108366848e-001
 4.0006861979e+000	 1.1031817376e+000	 3.3871460034e-001
 3.9898056765e+000	 1.1419065916e+000	 3.1283083576e-001
 4.1052999131e+000	 7.5969574380e-001	 6.2111697978e-001
 4.0979314311e+000	 7.9848793726e-001	 5.6433025147e-001
 4.0901734544e+000	 8.3732079473e-001	 5.1675925188e-001
 4.0820237594e+000	 8.7618892241e-001	 4.7741648914e-001
 4.0734802135e+000	 9.1508685412e-001	 4.4511993819e-001
 4.0645407769e+000	 9.5400905303e-001	 4.1849178815e-001
 4.0552035053e+000	 9.9294991336e-001	 3.9595759833e-001
 4.0454665523e+000	 1.0319037623e+000	 3.7574587558e-001
 4.0353281710e+000	 1.0708648618e+000	 3.5588808483e-001
 4.0247867171e+000	 1.1098274108e+000	 3.3421910381e-001
 4.0138406504e+000	 1.1487855470e+000	 3.0837813211e-001
 4.1298825474e+000	 7.6424482012e-001	 5.8676457839e-001
 4.1224699427e+000	 8.0326930216e-001	 5.3417870832e-001
 4.1146655110e+000	 8.4233469171e-001	 4.9066988770e-001
 4.1064670154e+000	 8.8143556267e-001	 4.5520462302e-001
 4.0978723105e+000	 9.2056641613e-001	 4.2655184201e-001
 4.0888793444e+000	 9.5972168209e-001	 4.0328166072e-001
 4.0794861610e+000	 9.9889572122e-001	 3.8376456682e-001
 4.0696909029e+000	 1.0380828267e+000	 3.6617103199e-001
 4.0594918128e+000	 1.0772772262e+000	 3.4847156532e-001
 4.0488872364e+000	 1.1164730839e+000	 3.2843721895e-001
 4.0378756244e+000	 1.1556645023e+000	 3.0364055607e-001
 4.1544651816e+000	 7.6879389643e-001	 5.4538074685e-001
 4.1470084542e+000	 8.0805066705e-001	 4.9737271248e-001
 4.1391575676e+000	 8.4734858869e-001	 4.5837568106e-001
 4.1309102715e+000	 8.8668220292e-001	 4.2730973435e-001
 4.1222644076e+000	 9.2604597813e-001	 4.0289424356e-001
 4.1132179119e+000	 9.6543431115e-001	 3.8364665552e-001
 4.1037688168e+000	 1.0048415291e+000	 3.6788170269e-001
 4.0939152535e+000	 1.0442618912e+000	 3.5371105016e-001
 4.0836554545e+000	 1.0836895907e+000	 3.3904339163e-001
 4.0729877557e+000	 1.1231187570e+000	 3.2158500587e-001
 4.0619105984e+000	 1.1625434577e+000	 2.9884078363e-001
 4.1790478158e+000	 7.7334297274e-001	 4.9711474364e-001
 4.1715469658e+000	 8.1283203195e-001	 4.5406926746e-001
 4.1636496242e+000	 8.5236248567e-001	 4.2004130955e-001
 4.1553535275e+000	 8.9192884318e-001	 3.9390409488e-001
 4.1466565047e+000	 9.3152554013e-001	 3.7432691960e-001
 4.1375564794e+000	 9.7114694021e-001	 3.5977395557e-001
 4.1280514725e+000	 1.0107873370e+000	 3.4850348664e-001
 4.1181396041e+000	 1.0504409556e+000	 3.3856758970e-001
 4.1078190963e+000	 1.0901019551e+000	 3.2781227317e-001
 4.0970882749e+000	 1.1297644301e+000	 3.1387808390e-001
 4.0859455723e+000	 1.1694224131e+000	 2.9420119322e-001
 3.8455958328e+000	 1.1006328594e+000	 3.2105505046e-001
 3.8347195567e+000	 1.1379481191e+000	 3.6822871142e-001
 3.8234529844e+000	 1.1752477508e+000	 3.9949394140e-001
 3.8117949524e+000	 1.2125259753e+000	 4.1250411343e-001
 3.7997444048e+000	 1.2497769635e+000	 4.0475528833e-001
 3.7873003954e+000	 1.2869948389e+000	 3.4955854604e-001
 3.7744620896e+000	 1.3241736799e+000	 2.9825575991e-001
 3.7612287659e+000	 1.3613075226e+000	 2.5177548702e-001
 3.7475998176e+000	 1.3983903631e+000	 2.0741658362e-001
 3.7335747544e+000	 1.4354161602e+000	 1.5178803504e-001
 3.7191532043e+000	 1.4723788383e+000	 1.0043397116e-001
 3.8696308067e+000	 1.1075118147e+000	 3.2300561732e-001
 3.8586865539e+000	 1.1450602948e+000	 3.6794500671e-001
 3.8473495656e+000	 1.1825930493e+000	 3.9712948854e-001
 3.8356186709e+000	 1.2201042627e+000	 4.0813713690e-001
 3.8234928073e+000	 1.2575880695e+000	 3.9142787782e-001
 3.8109710228e+000	 1.2950385566e+000	 3.3965914171e-001
 3.7980524776e+000	 1.3324497654e+000	 2.9048848338e-001
 3.7847364456e+000	 1.3698156946e+000	 2.4462987088e-001
 3.7710223164e+000	 1.4071303029e+000	 2.0284023174e-001
 3.7569095967e+000	 1.4443875112e+000	 1.6591850967e-001
 3.7423979118e+000	 1.4815812060e+000	 1.2297850951e-001
 3.8936657807e+000	 1.1143907701e+000	 3.2332847895e-001
 3.8826535511e+000	 1.1521724706e+000	 3.6665900812e-001
 3.8712461467e+000	 1.1899383477e+000	 3.9443668578e-001
 3.8594423893e+000	 1.2276825500e+000	 4.0416312694e-001
 3.8472412098e+000	 1.2653991756e+000	 3.8051773587e-001
 3.8346416503e+000	 1.3030822743e+000	 3.3234307008e-001
 3.8216428657e+000	 1.3407258509e+000	 2.8524745715e-001
 3.8082441254e+000	 1.3783238666e+000	 2.3995938238e-001
 3.7944448153e+000	 1.4158702426e+000	 1.9725237187e-001
 3.7802444389e+000	 1.4533588622e+000	 1.5794404657e-001
 3.7656426193e+000	 1.4907835738e+000	 1.2289505822e-001
 3.9177007546e+000	 1.1212697255e+000	 3.2224829790e-001
 3.9066205484e+000	 1.1592846463e+000	 3.6460827274e-001
 3.8951427279e+000	 1.1972836462e+000	 3.9166604276e-001
 3.8832661078e+000	 1.2352608374e+000	 4.0084559080e-001
 3.8709896123e+000	 1.2732102816e+000	 3.7221147681e-001
 3.8583122778e+000	 1.3111259921e+000	 3.2756373051e-001
 3.8452332537e+000	 1.3490019364e+000	 2.8248122930e-001
 3.8317518052e+000	 1.3868320386e+000	 2.3770737903e-001
 3.8178673141e+000	 1.4246101824e+000	 1.9403271650e-001
 3.8035792811e+000	 1.4623302133e+000	 1.5229396049e-001
 3.7888873268e+000	 1.4999859415e+000	 1.1337294094e-001
 3.9417357286e+000	 1.1281486808e+000	 3.1998937987e-001
 3.9305875456e+000	 1.1663968220e+000	 3.6203000418e-001
 3.9190393090e+000	 1.2046289446e+000	 3.8906772527e-001
 3.9070898262e+000	 1.2428391247e+000	 3.9844770797e-001
 3.8947380149e+000	 1.2810213876e+000	 3.6646670474e-001
 3.8819829053e+000	 1.3191697098e+000	 3.2527424590e-001
 3.8688236418e+000	 1.3572780219e+000	 2.8213810680e-001
 3.8552594850e+000	 1.3953402107e+000	 2.3781701905e-001
 3.8412898130e+000	 1.4333501222e+000	 1.9311894457e-001
 3.8269141233e+000	 1.4713015643e+000	 1.4890012301e-001
 3.8121320343e+000	 1.5091883092e+000	 1.0606399373e-001
 3.9657707025e+000	 1.1350276362e+000	 3.1677568449e-001
 3.9545545428e+000	 1.1735089978e+000	 3.5916106325e-001
 3.9429358902e+000	 1.2119742430e+000	 3.8689156570e-001
 3.9309135447e+000	 1.2504174121e+000	 3.9688363493e-001
 3.9184864174e+000	 1.2888324936e+000	 3.6324072766e-001
 3.9056535327e+000	 1.3272134276e+000	 3.2542747107e-001
 3.8924140299e+000	 1.3655541074e+000	 2.8416616278e-001
 3.8787671648e+000	 1.4038483827e+000	 2.4023126742e-001
 3.8647123118e+000	 1.4420900620e+000	 1.9444858867e-001
 3.8502489655e+000	 1.4802729153e+000	 1.4769431260e-001
 3.8353767419e+000	 1.5183906770e+000	 1.0089392204e-001
 3.9898056765e+000	 1.1419065916e+000	 3.1283083576e-001
 3.9785215400e+000	 1.1806211735e+000	 3.5623797828e-001
 3.9668324714e+000	 1.2193195415e+000	 3.8538707307e-001
 3.9547372631e+000	 1.2579956994e+000	 3.9132061986e-001
 3.9422348199e+000	 1.2966435997e+000	 3.6249056639e-001
 3.9293241602e+000	 1.3352571453e+000	 3.2797600081e-001
 3.9160044179e+000	 1.3738301929e+000	 2.8851324363e-001
 3.9022748446e+000	 1.4123565547e+000	 2.4489290172e-001
 3.8881348107e+000	 1.4508300017e+000	 1.9795903943e-001
 3.8735838077e+000	 1.4892442663e+000	 1.4860821743e-001
 3.8586214494e+000	 1.5275930447e+000	 9.7788398784e-002
 4.0138406504e+000	 1.1487855470e+000	 3.0837813211e-001
 4.0024885373e+000	 1.1877333493e+000	 3.5349695511e-001
 3.9907290525e+000	 1.2266648399e+000	 3.8480344271e-001
 3.9785609816e+000	 1.2655739868e+000	 3.8827858794e-001
 3.9659832225e+000	 1.3044547057e+000	 3.6417296319e-001
 3.9529947877e+000	 1.3433008631e+000	 3.3287217769e-001
 3.9395948060e+000	 1.3821062784e+000	 2.9512697572e-001
 3.9257825243e+000	 1.4208647267e+000	 2.5174451768e-001
 3.9115573096e+000	 1.4595699415e+000	 2.0358754982e-001
 3.8969186499e+000	 1.4982156173e+000	 1.5157343805e-001
 3.8818661569e+000	 1.5367954125e+000	 9.6673065369e-002
 4.0378756244e+000	 1.1556645023e+000	 3.0364055607e-001
 4.0264555345e+000	 1.1948455250e+000	 3.5117388663e-001
 4.0146256337e+000	 1.2340101384e+000	 3.8538956563e-001
 4.0023847000e+000	 1.2731522741e+000	 3.8771807267e-001
 3.9897316250e+000	 1.3122658117e+000	 3.6824439004e-001
 3.9766654151e+000	 1.3513445808e+000	 3.4006809957e-001
 3.9631851940e+000	 1.3903823639e+000	 3.0395477201e-001
 3.9492902041e+000	 1.4293728987e+000	 2.6072853466e-001
 3.9349798084e+000	 1.4683098813e+000	 2.1127123919e-001
 3.9202534922e+000	 1.5071869683e+000	 1.5652149004e-001
 3.9051108645e+000	 1.5459977802e+000	 9.7473532611e-002
 4.0619105984e+000	 1.1625434577e+000	 2.9884078363e-001
 4.0504225317e+000	 1.2019577008e+000	 3.4950436210e-001
 4.0385222148e+000	 1.2413554368e+000	 3.8739403746e-001
 4.0262084185e+000	 1.2807305615e+000	 3.8959932603e-001
 4.0134800275e+000	 1.3200769177e+000	 3.7466105662e-001
 4.0003360426e+000	 1.3593882986e+000	 3.4951562679e-001
 3.9867755821e+000	 1.3986584494e+000	 3.1494383834e-001
 3.9727978839e+000	 1.4378810707e+000	 2.7178720082e-001
 3.9584023073e+000	 1.4770498210e+000	 2.2094709727e-001
 3.9435883344e+000	 1.5161583193e+000	 1.6338380649e-001
 3.9283555720e+000	 1.5552001479e+000	 1.0011538164e-001
 4.0859455723e+000	 1.1694224131e+000	 2.9420119322e-001
 4.0743895290e+000	 1.2090698765e+000	 3.4872367604e-001
 4.0624187960e+000	 1.2487007353e+000	 3.9106516721e-001
 4.0500321369e+000	 1.2883088488e+000	 3.9388232670e-001
 4.0372284301e+000	 1.3278880237e+000	 3.8337891804e-001
 4.0240066701e+000	 1.3674320163e+000	 3.6116638925e-001
 4.0103659702e+000	 1.4069345349e+000	 3.2804117950e-001
 3.9963055637e+000	 1.4463892427e+000	 2.8486259820e-001
 3.9818248061e+000	 1.4857897608e+000	 2.3255198796e-001
 3.9669231766e+000	 1.5251296703e+000	 1.7209174044e-001
 3.9516002795e+000	 1.5644025157e+000	 1.0452416478e-001
 3.7191532043e+000	 1.4723788383e+000	 1.0043397116e-001
 3.7043349141e+000	 1.5092722896e+000	 6.8303011053e-002
 3.6891197520e+000	 1.5460903777e+000	 3.9396129280e-002
 3.6735077078e+000	 1.5828269397e+000	 1.3443825505e-002
 3.6574988949e+000	 1.6194757899e+000	-9.8277150693e-003
 3.6410935510e+000	 1.6560307222e+000	-3.0696189603e-002
 3.6242920395e+000	 1.6924855132e+000	-4.9442734219e-002
 3.6070948501e+000	 1.7288339256e+000	-6.6351470177e-002
 3.5895026000e+000	 1.7650697110e+000	-8.1709040561e-002
 3.5715160343e+000	 1.8011866135e+000	-9.5804138436e-002
 3.5531360273e+000	 1.8371783722e+000	-1.0892702749e-001
 3.7423979118e+000	 1.4815812060e+000	 1.2297850951e-001
 3.7274870073e+000	 1.5187052414e+000	 8.6943270711e-002
 3.7121767504e+000	 1.5557534425e+000	 5.4562078983e-002
 3.6964671309e+000	 1.5927196081e+000	 2.5573443751e-002
 3.6803582629e+000	 1.6295975136e+000	-2.8871517880e-004
 3.6638503857e+000	 1.6663809142e+000	-2.3294643032e-002
 3.6469438648e+000	 1.7030635476e+000	-4.3718313913e-002
 3.6296391930e+000	 1.7396391376e+000	-6.1836983968e-002
 3.6119369912e+000	 1.7761013967e+000	-7.7930734771e-002
 3.5938380095e+000	 1.8124440298e+000	-9.2282007911e-002
 3.5753431275e+000	 1.8486607371e+000	-1.0517513175e-001
 3.7656426193e+000	 1.4907835738e+000	 1.2289505822e-001
 3.7506391005e+000	 1.5281381932e+000	 1.0596344256e-001
 3.7352337488e+000	 1.5654165074e+000	 7.1477882529e-002
 3.7194265541e+000	 1.6026122765e+000	 3.9776611597e-002
 3.7032176310e+000	 1.6397192373e+000	 1.1642309184e-002
 3.6866072204e+000	 1.6767311062e+000	-1.3188044835e-002
 3.6695956900e+000	 1.7136415821e+000	-3.4981487469e-002
 3.6521835358e+000	 1.7504443496e+000	-5.4008632481e-002
 3.6343713825e+000	 1.7871330824e+000	-7.0543220215e-002
 3.6161599847e+000	 1.8237014462e+000	-8.4861658319e-002
 3.5975502277e+000	 1.8601431019e+000	-9.7242554362e-002
 3.7888873268e+000	 1.4999859415e+000	 1.1337294094e-001
 3.7737911937e+000	 1.5375711450e+000	 9.0190878402e-002
 3.7582907473e+000	 1.5750795722e+000	 7.5639211092e-002
 3.7423859773e+000	 1.6125049449e+000	 5.6075627838e-002
 3.7260769991e+000	 1.6498409610e+000	 2.5984441266e-002
 3.7093640551e+000	 1.6870812982e+000	-3.6044716162e-004
 3.6922475153e+000	 1.7242196165e+000	-2.3219360719e-002
 3.6747278786e+000	 1.7612495617e+000	-4.2856491998e-002
 3.6568057737e+000	 1.7981647681e+000	-5.9539458893e-002
 3.6384819600e+000	 1.8349588625e+000	-7.3538851198e-002
 3.6197573278e+000	 1.8716254667e+000	-8.5127768801e-002
 3.8121320343e+000	 1.5091883092e+000	 1.0606399373e-001
 3.7969432870e+000	 1.5470040968e+000	 7.6671675779e-002
 3.7813477457e+000	 1.5847426371e+000	 5.6033582903e-002
 3.7653454004e+000	 1.6223976132e+000	 4.5134714447e-002
 3.7489363672e+000	 1.6599626847e+000	 4.2757131588e-002
 3.7321208898e+000	 1.6974314902e+000	 1.5204560200e-002
 3.7148993405e+000	 1.7347976510e+000	-8.4184843130e-003
 3.6972722214e+000	 1.7720547737e+000	-2.8369993108e-002
 3.6792401650e+000	 1.8091964538e+000	-4.4911678976e-002
 3.6608039352e+000	 1.8462162788e+000	-5.8308528540e-002
 3.6419644280e+000	 1.8831078316e+000	-8.3006796126e-002
 3.8353767419e+000	 1.5183906770e+000	 1.0089392204e-001
 3.8200953802e+000	 1.5564370487e+000	 6.5323764410e-002
 3.8044047442e+000	 1.5944057020e+000	 3.8620632600e-002
 3.7883048236e+000	 1.6322902816e+000	 2.1808845950e-002
 3.7717957353e+000	 1.6700844084e+000	 1.5950045192e-002
 3.7548777245e+000	 1.7077816822e+000	 2.2141440098e-002
 3.7375511658e+000	 1.7453756855e+000	 9.4351294575e-003
 3.7198165642e+000	 1.7828599857e+000	-1.0537940275e-002
 3.7016745562e+000	 1.8202281395e+000	-2.6651397043e-002
 3.6831259104e+000	 1.8574736952e+000	-3.9164837632e-002
 3.6641715282e+000	 1.8945901964e+000	-8.2284018155e-002
 3.8586214494e+000	 1.5275930447e+000	 9.7788398784e-002
 3.8432474734e+000	 1.5658700005e+000	 5.6065138916e-002
 3.8274617426e+000	 1.6040687668e+000	 2.3310698304e-002
 3.8112642468e+000	 1.6421829500e+000	 5.8904411691e-004
 3.7946551034e+000	 1.6802061321e+000	-1.0997777934e-002
 3.7776345592e+000	 1.7181318743e+000	-1.0311449758e-002
 3.7602029910e+000	 1.7559537199e+000	 3.8206957790e-003
 3.7423609070e+000	 1.7936651978e+000	 1.0651469298e-002
 3.7241089475e+000	 1.8312598252e+000	-4.7494395184e-003
 3.7054478856e+000	 1.8687311115e+000	-1.6101154988e-002
 3.6863786283e+000	 1.9060725612e+000	-7.7128027241e-002
 3.8818661569e+000	 1.5367954125e+000	 9.6673065369e-002
 3.8663995666e+000	 1.5753029523e+000	 4.8813856877e-002
 3.8505187411e+000	 1.6137318317e+000	 1.0014273724e-002
 3.8342236700e+000	 1.6520756183e+000	-1.8621735282e-002
 3.8175144715e+000	 1.6903278558e+000	-3.5951369285e-002
 3.8003913939e+000	 1.7284820663e+000	-4.0794835785e-002
 3.7828548162e+000	 1.7665317544e+000	-3.1937330677e-002
 3.7649052498e+000	 1.8044704098e+000	-8.1311351727e-003
 3.7465433387e+000	 1.8422915109e+000	 2.0804036670e-002
 3.7277698608e+000	 1.8799885278e+000	 3.0736598811e-003
 3.7085857285e+000	 1.9175549260e+000	-6.7675942964e-002
 3.9051108645e+000	 1.5459977802e+000	 9.7473532611e-002
 3.8895516598e+000	 1.5847359041e+000	 4.3488036956e-002
 3.8735757395e+000	 1.6233948965e+000	-1.3579964705e-003
 3.8571830931e+000	 1.6619682867e+000	-3.5920297496e-002
 3.8403738396e+000	 1.7004495794e+000	-5.9014953953e-002
 3.8231482286e+000	 1.7388322583e+000	-6.9420326760e-002
 3.8055066415e+000	 1.7771097888e+000	-6.5879087153e-002
 3.7874495926e+000	 1.8152756218e+000	-4.7100373223e-002
 3.7689777300e+000	 1.8533231966e+000	-1.1762062486e-002
 3.7500918360e+000	 1.8912459442e+000	 1.6189755314e-002
 3.7307928287e+000	 1.9290372909e+000	-5.4064085782e-002
 3.9283555720e+000	 1.5552001479e+000	 1.0011538164e-001
 3.9127037530e+000	 1.5941688559e+000	 4.0005857096e-002
 3.8966327380e+000	 1.6330579614e+000	-1.0895321116e-002
 3.8801425163e+000	 1.6718609551e+000	-5.1403215864e-002
 3.8632332077e+000	 1.7105713031e+000	-8.0292441543e-002
 3.8459050633e+000	 1.7491824503e+000	-9.6299134297e-002
 3.8281584667e+000	 1.7876878233e+000	-9.8123046918e-002
 3.8099939354e+000	 1.8260808339e+000	-8.4429765522e-002
 3.7914121212e+000	 1.8643548823e+000	-5.3853044626e-002
 3.7724138112e+000	 1.9025033605e+000	-4.7422751686e-002
 3.7529999288e+000	 1.9405196557e+000	-4.8258087822e-002
 3.9516002795e+000	 1.5644025157e+000	 1.0452416478e-001
 3.9358558462e+000	 1.6036018077e+000	 3.8285552774e-002
 3.9196897364e+000	 1.6427210263e+000	-1.8686766867e-002
 3.9031019395e+000	 1.6817536235e+000	-6.5166838631e-002
 3.8860925758e+000	 1.7206930268e+000	-9.9887435456e-002
 3.8686618980e+000	 1.7595326423e+000	-1.2154208453e-001
 3.8508102920e+000	 1.7982658577e+000	-1.2878722037e-001
 3.8325382783e+000	 1.8368860459e+000	-1.2024446216e-001
 3.8138465125e+000	 1.8753865680e+000	-9.5034888731e-002
 3.7947357865e+000	 1.9137607768e+000	-1.0923449513e-001
 3.7752070290e+000	 1.9520020205e+000	-1.1540811536e-001
 3.5531360273e+000	 1.8371783722e+000	-1.0892702749e-001
 3.5343635826e+000	 1.8730387253e+000	-6.4252579064e-002
 3.5151998336e+000	 1.9087614125e+000	-8.6601952482e-002
 3.4956460444e+000	 1.9443401791e+000	-1.1653980940e-001
 3.4757036097e+000	 1.9797687788e+000	-1.4943499255e-001
 3.4553740550e+000	 2.0150409773e+000	-1.8445175958e-001
 3.4346590368e+000	 2.0501505556e+000	-2.2072738699e-001
 3.4135603429e+000	 2.0850913135e+000	-2.5737431093e-001
 3.3920798916e+000	 2.1198570727e+000	-2.9348234600e-001
 3.3702197324e+000	 2.1544416806e+000	-3.2812097663e-001
 3.3479820449e+000	 2.1888390135e+000	-3.6034171573e-001
 3.5753431275e+000	 1.8486607371e+000	-1.0517513175e-001
 3.5564533549e+000	 1.8847452173e+000	-8.0906496823e-002
 3.5371698326e+000	 1.9206911713e+000	-1.0854372275e-001
 3.5174938322e+000	 1.9564923052e+000	-1.3930624650e-001
 3.4974267573e+000	 1.9921423336e+000	-1.7236566355e-001
 3.4769701428e+000	 2.0276349834e+000	-2.0686476775e-001
 3.4561256558e+000	 2.0629639966e+000	-2.4191966245e-001
 3.4348950950e+000	 2.0981231342e+000	-2.7662195492e-001
 3.4132803910e+000	 2.1331061794e+000	-3.1004102922e-001
 3.3912836057e+000	 2.1679069412e+000	-3.4122639198e-001
 3.3689069327e+000	 2.2025192574e+000	-3.6921008574e-001
 3.5975502277e+000	 1.8601431019e+000	-9.7242554362e-002
 3.5785431273e+000	 1.8964517093e+000	-9.6753965177e-002
 3.5591398315e+000	 1.9326209301e+000	-1.2623043307e-001
 3.5393416200e+000	 1.9686444313e+000	-1.5820944911e-001
 3.5191499048e+000	 2.0045158885e+000	-1.9184031004e-001
 3.4985662307e+000	 2.0402289895e+000	-2.2624373135e-001
 3.4775922748e+000	 2.0757774376e+000	-2.6051401214e-001
 3.4562298472e+000	 2.1111549549e+000	-2.9372128407e-001
 3.4344808903e+000	 2.1463552861e+000	-3.2491383912e-001
 3.4123474791e+000	 2.1813722017e+000	-3.5312053077e-001
 3.3898318204e+000	 2.2161995012e+000	-3.7735324293e-001
 3.6197573278e+000	 1.8716254667e+000	-8.5127768801e-002
 3.6006328997e+000	 1.9081582014e+000	-1.0811171054e-001
 3.5811098305e+000	 1.9445506890e+000	-1.3980368650e-001
 3.5611894078e+000	 1.9807965574e+000	-1.7339125081e-001
 3.5408730524e+000	 2.0168894434e+000	-2.0800080034e-001
 3.5201623185e+000	 2.0528229956e+000	-2.4273035375e-001
 3.4990588938e+000	 2.0885908786e+000	-2.7665177107e-001
 3.4775645993e+000	 2.1241867756e+000	-3.0881305786e-001
 3.4556813896e+000	 2.1596043928e+000	-3.3824074892e-001
 3.4334113524e+000	 2.1948374622e+000	-3.6394236569e-001
 3.4107567082e+000	 2.2298797451e+000	-3.8490894179e-001
 3.6419644280e+000	 1.8831078316e+000	-8.3006796126e-002
 3.6227226721e+000	 1.9198646934e+000	-1.1512009754e-001
 3.6030798295e+000	 1.9564804478e+000	-1.4940436196e-001
 3.5830371956e+000	 1.9929486836e+000	-1.8499285814e-001
 3.5625962000e+000	 2.0292629983e+000	-2.2098847796e-001
 3.5417584064e+000	 2.0654170017e+000	-2.5646592095e-001
 3.5205255128e+000	 2.1014043195e+000	-2.9047396933e-001
 3.4988993514e+000	 2.1372185963e+000	-3.2203784842e-001
 3.4768818889e+000	 2.1728534996e+000	-3.5016166703e-001
 3.4544752257e+000	 2.2083027227e+000	-3.7383093217e-001
 3.4316815960e+000	 2.2435599889e+000	-3.9201513210e-001
 3.6641715282e+000	 1.8945901964e+000	-8.2284018155e-002
 3.6448124445e+000	 1.9315711854e+000	-1.1791869948e-001
 3.6250498284e+000	 1.9684102066e+000	-1.5517263617e-001
 3.6048849833e+000	 2.0051008097e+000	-1.9315486961e-001
 3.5843193475e+000	 2.0416365531e+000	-2.3094417756e-001
 3.5633544942e+000	 2.0780110078e+000	-2.6759131417e-001
 3.5419921317e+000	 2.1142177605e+000	-3.0212134135e-001
 3.5202341036e+000	 2.1502504171e+000	-3.3353604618e-001
 3.4980823883e+000	 2.1861026063e+000	-3.6081643907e-001
 3.4755390991e+000	 2.2217679832e+000	-3.8292532658e-001
 3.4526064838e+000	 2.2572402327e+000	-3.9880995306e-001
 3.6863786283e+000	 1.9060725612e+000	-7.7128027241e-002
 3.6669022169e+000	 1.9432776775e+000	-1.1664632216e-001
 3.6470198274e+000	 1.9803399655e+000	-1.5724800482e-001
 3.6267327711e+000	 2.0172529358e+000	-1.9801729399e-001
 3.6060424951e+000	 2.0540101080e+000	-2.3800824023e-001
 3.5849505821e+000	 2.0906050139e+000	-2.7624702211e-001
 3.5634587507e+000	 2.1270312015e+000	-3.1173433478e-001
 3.5415688557e+000	 2.1632822378e+000	-3.4344786537e-001
 3.5192828876e+000	 2.1993517130e+000	-3.7034484970e-001
 3.4966029724e+000	 2.2352332437e+000	-3.9136470432e-001
 3.4735313716e+000	 2.2709204766e+000	-4.0543172750e-001
 3.7085857285e+000	 1.9175549260e+000	-6.7675942964e-002
 3.6889919893e+000	 1.9549841695e+000	-1.1144102686e-001
 3.6689898263e+000	 1.9922697243e+000	-1.5576930292e-001
 3.6485805589e+000	 2.0294050619e+000	-1.9971956801e-001
 3.6277656426e+000	 2.0663836629e+000	-2.4232052829e-001
 3.6065466699e+000	 2.1031990201e+000	-2.8257315263e-001
 3.5849253697e+000	 2.1398446424e+000	-3.1945311909e-001
 3.5629036079e+000	 2.1763140585e+000	-3.5191334927e-001
 3.5404833869e+000	 2.2126008197e+000	-3.7888662452e-001
 3.5176668457e+000	 2.2486985042e+000	-3.9928827806e-001
 3.4944562593e+000	 2.2846007204e+000	-4.1201895649e-001
 3.7307928287e+000	 1.9290372909e+000	-5.4064085782e-002
 3.7110817617e+000	 1.9666906615e+000	-1.0244015251e-001
 3.6909598253e+000	 2.0041994831e+000	-1.5087472452e-001
 3.6704283467e+000	 2.0415571880e+000	-1.9840057332e-001
 3.6494887902e+000	 2.0787572177e+000	-2.4402043953e-001
 3.6281427577e+000	 2.1157930262e+000	-2.8670944412e-001
 3.6063919887e+000	 2.1526580834e+000	-3.2541759384e-001
 3.5842383600e+000	 2.1893458792e+000	-3.5907237532e-001
 3.5616838862e+000	 2.2258499264e+000	-3.8658143176e-001
 3.5387307190e+000	 2.2621637647e+000	-4.0683531608e-001
 3.5153811471e+000	 2.2982809642e+000	-4.1871031396e-001
 3.7529999288e+000	 1.9405196557e+000	-4.8258087822e-002
 3.7331715341e+000	 1.9783971536e+000	-8.9780337054e-002
 3.7129298243e+000	 2.0161292419e+000	-1.4270184160e-001
 3.6922761344e+000	 2.0537093142e+000	-1.9419865299e-001
 3.6712119378e+000	 2.0911307726e+000	-2.4324692097e-001
 3.6497388456e+000	 2.1283870323e+000	-2.8879527645e-001
 3.6278586077e+000	 2.1654715244e+000	-3.2976739669e-001
 3.6055731122e+000	 2.2023776999e+000	-3.6506466003e-001
 3.5828843855e+000	 2.2390990331e+000	-3.9356888401e-001
 3.5597945924e+000	 2.2756290252e+000	-4.1414514059e-001
 3.5363060349e+000	 2.3119612081e+000	-4.2564464160e-001
 3.7752070290e+000	 1.9520020205e+000	-1.1540811536e-001
 3.7552613065e+000	 1.9901036456e+000	-9.6066561467e-002
 3.7348998232e+000	 2.0280590008e+000	-1.3138762246e-001
 3.7141239222e+000	 2.0658614403e+000	-1.8725162728e-001
 3.6929350853e+000	 2.1035043275e+000	-2.4013848208e-001
 3.6713349334e+000	 2.1409810384e+000	-2.8896968148e-001
 3.6493252266e+000	 2.1782849654e+000	-3.3264191107e-001
 3.6269078643e+000	 2.2154095206e+000	-3.7002976367e-001
 3.6040848849e+000	 2.2523481398e+000	-3.9998853985e-001
 3.5808584657e+000	 2.2890942857e+000	-4.2135712613e-001
 3.5572309227e+000	 2.3256414519e+000	-4.3296094395e-001
 3.3479820449e+000	 2.1888390135e+000	-3.6034171573e-001
 3.3253691387e+000	 2.2230429801e+000	-4.1485762695e-001
 3.3023834532e+000	 2.2570475246e+000	-4.6329463752e-001
 3.2790275563e+000	 2.2908466307e+000	-5.0454593093e-001
 3.2553041442e+000	 2.3244343245e+000	-5.3749793080e-001
 3.2312160404e+000	 2.3578046781e+000	-5.6103303713e-001
 3.2067661948e+000	 2.3909518130e+000	-5.7403239133e-001
 3.1819576824e+000	 2.4238699031e+000	-5.7537866255e-001
 3.1567937025e+000	 2.4565531787e+000	-5.6395884845e-001
 3.1312775773e+000	 2.4889959289e+000	-5.3866708257e-001
 3.1054127503e+000	 2.5211925056e+000	-5.6010830165e-001
 3.3689069327e+000	 2.2025192574e+000	-3.6921008574e-001
 3.3461526958e+000	 2.2369369987e+000	-4.1726628516e-001
 3.3230233498e+000	 2.2711540716e+000	-4.6056886945e-001
 3.2995214785e+000	 2.3051644221e+000	-4.9796745031e-001
 3.2756497951e+000	 2.3389620390e+000	-5.2830341299e-001
 3.2514111407e+000	 2.3725409573e+000	-5.5041272245e-001
 3.2268084835e+000	 2.4058952618e+000	-5.6312876043e-001
 3.2018449179e+000	 2.4390190900e+000	-5.6528518631e-001
 3.1765236632e+000	 2.4719066360e+000	-5.5571881422e-001
 3.1508480621e+000	 2.5045521534e+000	-5.3474366684e-001
 3.1248215800e+000	 2.5369499587e+000	-5.1381600562e-001
 3.3898318204e+000	 2.2161995012e+000	-3.7735324293e-001
 3.3669362530e+000	 2.2508310173e+000	-4.1886130295e-001
 3.3436632464e+000	 2.2852606186e+000	-4.5692385177e-001
 3.3200154007e+000	 2.3194822135e+000	-4.9034641947e-001
 3.2959954460e+000	 2.3534897535e+000	-5.1792485252e-001
 3.2716062409e+000	 2.3872772366e+000	-5.3844819073e-001
 3.2468507722e+000	 2.4208387106e+000	-5.5070157744e-001
 3.2217321534e+000	 2.4541682769e+000	-5.5346919573e-001
 3.1962536238e+000	 2.4872600934e+000	-5.4553722300e-001
 3.1704185470e+000	 2.5201083780e+000	-5.3318197237e-001
 3.1442304097e+000	 2.5527074119e+000	-5.1888872190e-001
 3.4107567082e+000	 2.2298797451e+000	-3.8490894179e-001
 3.3877198101e+000	 2.2647250359e+000	-4.1978976729e-001
 3.3643031429e+000	 2.2993671657e+000	-4.5251628115e-001
 3.3405093230e+000	 2.3338000050e+000	-4.8184941506e-001
 3.3163410969e+000	 2.3680174680e+000	-5.0653896919e-001
 3.2918013412e+000	 2.4020135158e+000	-5.2532656078e-001
 3.2668930610e+000	 2.4357821594e+000	-5.3694860850e-001
 3.2416193890e+000	 2.4693174638e+000	-5.4013934500e-001
 3.2159835844e+000	 2.5026135508e+000	-5.3442212221e-001
 3.1899890318e+000	 2.5356646025e+000	-5.3107140295e-001
 3.1636392394e+000	 2.5684648651e+000	-5.2357678865e-001
 3.4316815960e+000	 2.2435599889e+000	-3.9201513210e-001
 3.4085033672e+000	 2.2786190546e+000	-4.2019883515e-001
 3.3849430395e+000	 2.3134737127e+000	-4.4750279157e-001
 3.3610032452e+000	 2.3481177964e+000	-4.7264281106e-001
 3.3366867478e+000	 2.3825451826e+000	-4.9432213280e-001
 3.3119964414e+000	 2.4167497950e+000	-5.1123444684e-001
 3.2869353497e+000	 2.4507256083e+000	-5.2206695349e-001
 3.2615066245e+000	 2.4844666507e+000	-5.2550345320e-001
 3.2357135451e+000	 2.5179670081e+000	-5.2640362807e-001
 3.2095595167e+000	 2.5512208271e+000	-5.2847794442e-001
 3.1830480690e+000	 2.5842223182e+000	-5.2744802599e-001
 3.4526064838e+000	 2.2572402327e+000	-3.9880995306e-001
 3.4292869243e+000	 2.2925130732e+000	-4.2023573140e-001
 3.4055829361e+000	 2.3275802597e+000	-4.4203995626e-001
 3.3814971674e+000	 2.3624355879e+000	-4.6289278486e-001
 3.3570323987e+000	 2.3970728971e+000	-4.8145037376e-001
 3.3321915417e+000	 2.4314860743e+000	-4.9635797392e-001
 3.3069776384e+000	 2.4656690571e+000	-5.0625306622e-001
 3.2813938600e+000	 2.4996158376e+000	-5.0976852957e-001
 3.2554435057e+000	 2.5333204655e+000	-5.1827719668e-001
 3.2291300016e+000	 2.5667770517e+000	-5.2546642487e-001
 3.2024568987e+000	 2.5999797714e+000	-5.3057592285e-001
 3.4735313716e+000	 2.2709204766e+000	-4.0543172750e-001
 3.4500704814e+000	 2.3064070918e+000	-4.2004774673e-001
 3.4262228327e+000	 2.3416868067e+000	-4.3628428949e-001
 3.4019910896e+000	 2.3767533793e+000	-4.5276532325e-001
 3.3773780496e+000	 2.4116006116e+000	-4.6809939330e-001
 3.3523866420e+000	 2.4462223535e+000	-4.8088279250e-001
 3.3270199271e+000	 2.4806125059e+000	-4.8970277385e-001
 3.3012810955e+000	 2.5147650245e+000	-4.9771425751e-001
 3.2751734664e+000	 2.5486739229e+000	-5.1009831635e-001
 3.2487004864e+000	 2.5823332762e+000	-5.2210054955e-001
 3.2218657284e+000	 2.6157372245e+000	-5.3303266680e-001
 3.4944562593e+000	 2.2846007204e+000	-4.1201895649e-001
 3.4708540386e+000	 2.3203011104e+000	-4.1978223572e-001
 3.4468627293e+000	 2.3557933538e+000	-4.3039224834e-001
 3.4224850119e+000	 2.3910711707e+000	-4.4242622807e-001
 3.3977237005e+000	 2.4261283262e+000	-4.5444457334e-001
 3.3725817422e+000	 2.4609586328e+000	-4.6499409274e-001
 3.3470622158e+000	 2.4955559548e+000	-4.7261129572e-001
 3.3211683310e+000	 2.5299142114e+000	-4.8604679005e-001
 3.2949034270e+000	 2.5640273802e+000	-5.0192155299e-001
 3.2682709713e+000	 2.5978895008e+000	-5.1844293445e-001
 3.2412745581e+000	 2.6314946777e+000	-5.3488918302e-001
 3.5153811471e+000	 2.2982809642e+000	-4.1871031396e-001
 3.4916375957e+000	 2.3341951291e+000	-4.1958661489e-001
 3.4675026259e+000	 2.3698999008e+000	-4.2452023441e-001
 3.4429789341e+000	 2.4053889622e+000	-4.3204112176e-001
 3.4180693514e+000	 2.4406560407e+000	-4.4066098599e-001
 3.3927768425e+000	 2.4756949120e+000	-4.4887661821e-001
 3.3671045045e+000	 2.5104994036e+000	-4.5802159277e-001
 3.3410555665e+000	 2.5450633983e+000	-4.7470678087e-001
 3.3146333876e+000	 2.5793808376e+000	-4.9380057758e-001
 3.2878414561e+000	 2.6134457253e+000	-5.1455513873e-001
 3.2606833878e+000	 2.6472521309e+000	-5.3621517182e-001
 3.5363060349e+000	 2.3119612081e+000	-4.2564464160e-001
 3.5124211528e+000	 2.3480891477e+000	-4.1960836091e-001
 3.4881425224e+000	 2.3840064478e+000	-4.1882459549e-001
 3.4634728563e+000	 2.4197067536e+000	-4.2177545263e-001
 3.4384150023e+000	 2.4551837552e+000	-4.2692340270e-001
 3.4129719427e+000	 2.4904311912e+000	-4.3271467907e-001
 3.3871467933e+000	 2.5254428524e+000	-4.4513203316e-001
 3.3609428020e+000	 2.5602125852e+000	-4.6373955283e-001
 3.3343633483e+000	 2.5947342950e+000	-4.8578819264e-001
 3.3074119410e+000	 2.6290019499e+000	-5.1049769602e-001
 3.2800922175e+000	 2.6630095840e+000	-5.3707914496e-001
 3.5572309227e+000	 2.3256414519e+000	-4.3296094395e-001
 3.5332047099e+000	 2.3619831663e+000	-4.1999500880e-001
 3.5087824190e+000	 2.3981129948e+000	-4.1346162707e-001
 3.4839667785e+000	 2.4340245451e+000	-4.1179450004e-001
 3.4587606532e+000	 2.4697114697e+000	-4.1340630315e-001
 3.4331670430e+000	 2.5051674705e+000	-4.1787768343e-001
 3.4071890820e+000	 2.5403863013e+000	-4.3290303421e-001
 3.3808300376e+000	 2.5753617721e+000	-4.5318973252e-001
 3.3540933089e+000	 2.6100877523e+000	-4.7793635779e-001
 3.3269824258e+000	 2.6445581744e+000	-5.0633014451e-001
 3.2995010472e+000	 2.6787670372e+000	-5.3754846053e-001
 3.1054127503e+000	 2.5211925056e+000	-5.6010830165e-001
 3.0792027853e+000	 2.5531373263e+000	-5.6894989041e-001
 3.0526513643e+000	 2.5848248776e+000	-5.8134319128e-001
 3.0257622864e+000	 2.6162497178e+000	-5.9589810270e-001
 2.9985394656e+000	 2.6474064805e+000	-6.1123234980e-001
 2.9709869289e+000	 2.6782898775e+000	-6.2597523819e-001
 2.9431088147e+000	 2.7088947016e+000	-6.3877137538e-001
 2.9149093706e+000	 2.7392158296e+000	-6.4828434924e-001
 2.8863929509e+000	 2.7692482252e+000	-6.5320035381e-001
 2.8575640151e+000	 2.7989869417e+000	-6.5223175206e-001
 2.8284271247e+000	 2.8284271247e+000	-6.4412056622e-001
 3.1248215800e+000	 2.5369499587e+000	-5.1381600562e-001
 3.0984478027e+000	 2.5690944346e+000	-5.3231633584e-001
 3.0717304354e+000	 2.6009800331e+000	-5.5363745387e-001
 3.0446733007e+000	 2.6326012785e+000	-5.7634955851e-001
 3.0172803372e+000	 2.6639527710e+000	-5.9903174997e-001
 2.9895555972e+000	 2.6950291893e+000	-6.2027587016e-001
 2.9615032448e+000	 2.7258252935e+000	-6.3869030832e-001
 2.9331275541e+000	 2.7563359285e+000	-6.5290376206e-001
 2.9044329069e+000	 2.7865560266e+000	-6.6156894297e-001
 2.8754237902e+000	 2.8164806100e+000	-6.6336621701e-001
 2.8461047943e+000	 2.8461047943e+000	-6.5700716950e-001
 3.1442304097e+000	 2.5527074119e+000	-5.1888872190e-001
 3.1176928201e+000	 2.5850515429e+000	-4.9060983191e-001
 3.0908095064e+000	 2.6171351885e+000	-5.2126916063e-001
 3.0635843150e+000	 2.6489528392e+000	-5.5255220550e-001
 3.0360212089e+000	 2.6804990615e+000	-5.8299852945e-001
 3.0081242655e+000	 2.7117685010e+000	-6.1116160195e-001
 2.9798976749e+000	 2.7427558854e+000	-6.3561269064e-001
 2.9513457377e+000	 2.7734560275e+000	-6.5494470610e-001
 2.9224728628e+000	 2.8038638280e+000	-6.6777598901e-001
 2.8932835653e+000	 2.8339742784e+000	-6.7275402938e-001
 2.8637824638e+000	 2.8637824638e+000	-6.6855910773e-001
 3.1636392394e+000	 2.5684648651e+000	-5.2357678865e-001
 3.1369378375e+000	 2.6010086512e+000	-4.8471774696e-001
 3.1098885774e+000	 2.6332903440e+000	-4.8454247568e-001
 3.0824953293e+000	 2.6653044000e+000	-5.2481206303e-001
 3.0547620806e+000	 2.6970453520e+000	-5.6344028203e-001
 3.0266929338e+000	 2.7285078127e+000	-5.9894131560e-001
 2.9982921050e+000	 2.7596864773e+000	-6.2984840114e-001
 2.9695639212e+000	 2.7905761264e+000	-6.5471776050e-001
 2.9405128187e+000	 2.8211716294e+000	-6.7213247014e-001
 2.9111433403e+000	 2.8514679468e+000	-6.8070626068e-001
 2.8814601333e+000	 2.8814601333e+000	-6.7908723569e-001
 3.1830480690e+000	 2.5842223182e+000	-5.2744802599e-001
 3.1561828549e+000	 2.6169657595e+000	-5.0231960232e-001
 3.1289676484e+000	 2.6494454995e+000	-4.5886344637e-001
 3.1014063436e+000	 2.6816559607e+000	-4.9343399741e-001
 3.0735029522e+000	 2.7135916425e+000	-5.4066353376e-001
 3.0452616021e+000	 2.7452471245e+000	-5.8392291481e-001
 3.0166865351e+000	 2.7766170692e+000	-6.2170643375e-001
 2.9877821048e+000	 2.8076962253e+000	-6.5253271700e-001
 2.9585527747e+000	 2.8384794308e+000	-6.7494867867e-001
 2.9290031154e+000	 2.8689616152e+000	-6.8753340201e-001
 2.8991378028e+000	 2.8991378028e+000	-6.8890193713e-001
 3.2024568987e+000	 2.5999797714e+000	-5.3057592285e-001
 3.1754278723e+000	 2.6329228678e+000	-5.1940524818e-001
 3.1480467195e+000	 2.6656006550e+000	-4.8901372131e-001
 3.1203173579e+000	 2.6980075215e+000	-4.5872175689e-001
 3.0922438239e+000	 2.7301379330e+000	-5.1497377528e-001
 3.0638302704e+000	 2.7619864362e+000	-5.6641335451e-001
 3.0350809652e+000	 2.7935476611e+000	-6.1149492433e-001
 3.0060002884e+000	 2.8248163243e+000	-6.4869860383e-001
 2.9765927306e+000	 2.8557872322e+000	-6.7653424185e-001
 2.9468628905e+000	 2.8864552836e+000	-6.9354538163e-001
 2.9168154724e+000	 2.9168154724e+000	-6.9831313897e-001
 3.2218657284e+000	 2.6157372245e+000	-5.3303266680e-001
 3.1946728897e+000	 2.6488799761e+000	-5.3604535680e-001
 3.1671257905e+000	 2.6817558105e+000	-5.1895177632e-001
 3.1392283722e+000	 2.7143590822e+000	-4.8151050119e-001
 3.1109846955e+000	 2.7466842236e+000	-4.8667549306e-001
 3.0823989387e+000	 2.7787257480e+000	-5.4671866955e-001
 3.0534753953e+000	 2.8104782529e+000	-5.9952117649e-001
 3.0242184719e+000	 2.8419364232e+000	-6.4352370870e-001
 2.9946326866e+000	 2.8730950336e+000	-6.7719814187e-001
 2.9647226656e+000	 2.9039489520e+000	-6.9905158192e-001
 2.9344931419e+000	 2.9344931419e+000	-7.0763032515e-001
 3.2412745581e+000	 2.6314946777e+000	-5.3488918302e-001
 3.2139179071e+000	 2.6648370844e+000	-5.5230940436e-001
 3.1862048615e+000	 2.6979109660e+000	-5.4874548017e-001
 3.1581393865e+000	 2.7307106429e+000	-5.2394873346e-001
 3.1297255672e+000	 2.7632305141e+000	-4.7768967612e-001
 3.1009676070e+000	 2.7954650597e+000	-5.2514400214e-001
 3.0718698253e+000	 2.8274088448e+000	-5.8609168654e-001
 3.0424366555e+000	 2.8590565222e+000	-6.3731560097e-001
 3.0126726425e+000	 2.8904028350e+000	-6.7724873515e-001
 2.9825824407e+000	 2.9214426203e+000	-7.0436085577e-001
 2.9521708114e+000	 2.9521708114e+000	-7.1716254983e-001
 3.2606833878e+000	 2.6472521309e+000	-5.3621517182e-001
 3.2331629245e+000	 2.6807941927e+000	-5.6826570653e-001
 3.2052839325e+000	 2.7140661215e+000	-5.7846160923e-001
 3.1770504007e+000	 2.7470622037e+000	-5.6654665668e-001
 3.1484664388e+000	 2.7797768046e+000	-5.3228463222e-001
 3.1195362753e+000	 2.8122043714e+000	-5.0199362849e-001
 3.0902642554e+000	 2.8443394367e+000	-5.7151216749e-001
 3.0606548391e+000	 2.8761766211e+000	-6.3038115301e-001
 3.0307125985e+000	 2.9077106364e+000	-6.7699377103e-001
 3.0004422158e+000	 2.9389362887e+000	-7.0978154224e-001
 2.9698484810e+000	 2.9698484810e+000	-7.2721845020e-001
 3.2800922175e+000	 2.6630095840e+000	-5.3707914496e-001
 3.2524079419e+000	 2.6967513009e+000	-5.8398145285e-001
 3.2243630036e+000	 2.7302212769e+000	-6.0816587975e-001
 3.1959614150e+000	 2.7634137644e+000	-6.0936836216e-001
 3.1672073105e+000	 2.7963230951e+000	-5.8734565568e-001
 3.1381049436e+000	 2.8289436832e+000	-5.4187632022e-001
 3.1086586855e+000	 2.8612700286e+000	-5.5608757226e-001
 3.0788730226e+000	 2.8932967200e+000	-6.2302656086e-001
 3.0487525544e+000	 2.9250184379e+000	-6.7674040967e-001
 3.0183019909e+000	 2.9564299571e+000	-7.1562148188e-001
 2.9875261505e+000	 2.9875261505e+000	-7.3810625881e-001
 3.2995010472e+000	 2.6787670372e+000	-5.3754846053e-001
 3.2716529593e+000	 2.7127084092e+000	-5.9952273981e-001
 3.2434420746e+000	 2.7463764324e+000	-6.3792297909e-001
 3.2148724293e+000	 2.7797653252e+000	-6.5247697993e-001
 3.1859481822e+000	 2.8128693856e+000	-6.4293417039e-001
 3.1566736119e+000	 2.8456829949e+000	-6.0906661111e-001
 3.1270531156e+000	 2.8782006205e+000	-5.5066997468e-001
 3.0970912062e+000	 2.9104168190e+000	-6.1555736410e-001
 3.0667925103e+000	 2.9423262393e+000	-6.7679523941e-001
 3.0361617660e+000	 2.9739236255e+000	-7.2218803128e-001
 3.0052038200e+000	 3.0052038200e+000	-7.5013381551e-001
 2.8284271247e+000	 2.8284271247e+000	-6.4412056622e-001
 2.7989869417e+000	 2.8575640151e+000	-6.6859872250e-001
 2.7692482252e+000	 2.8863929509e+000	-6.9177571336e-001
 2.7392158296e+000	 2.9149093706e+000	-7.1224834824e-001
 2.7088947016e+000	 2.9431088147e+000	-7.2864863214e-001
 2.6782898775e+000	 2.9709869289e+000	-7.3964703741e-001
 2.6474064805e+000	 2.9985394656e+000	-7.4395565932e-001
 2.6162497178e+000	 3.0257622864e+000	-7.4033124760e-001
 2.5848248776e+000	 3.0526513643e+000	-7.2757810623e-001
 2.5531373263e+000	 3.0792027853e+000	-7.0455085437e-001
 2.5211925056e+000	 3.1054127503e+000	-6.7015704160e-001
 2.8461047943e+000	 2.8461047943e+000	-6.5700716950e-001
 2.8164806100e+000	 2.8754237902e+000	-6.7791622511e-001
 2.7865560266e+000	 2.9044329069e+000	-6.9801893036e-001
 2.7563359285e+000	 2.9331275541e+000	-7.1583407812e-001
 2.7258252935e+000	 2.9615032448e+000	-7.2991600250e-001
 2.6950291893e+000	 2.9895555972e+000	-7.3885796835e-001
 2.6639527710e+000	 3.0172803372e+000	-7.4129544271e-001
 2.6326012785e+000	 3.0446733007e+000	-7.3590924008e-001
 2.6009800331e+000	 3.0717304354e+000	-7.2142853344e-001
 2.5690944346e+000	 3.0984478027e+000	-6.9663372382e-001
 2.5369499587e+000	 3.1248215800e+000	-6.6035916130e-001
 2.8637824638e+000	 2.8637824638e+000	-6.6855910773e-001
 2.8339742784e+000	 2.8932835653e+000	-6.8534685718e-001
 2.8038638280e+000	 2.9224728628e+000	-7.0179898973e-001
 2.7734560275e+000	 2.9513457377e+000	-7.1635593245e-001
 2.7427558854e+000	 2.9798976749e+000	-7.2749402760e-001
 2.7117685010e+000	 3.0081242655e+000	-7.3372904071e-001
 2.6804990615e+000	 3.0360212089e+000	-7.3361954873e-001
 2.6489528392e+000	 3.0635843150e+000	-7.2577019960e-001
 2.6171351885e+000	 3.0908095064e+000	-7.0883483525e-001
 2.5850515429e+000	 3.1176928201e+000	-6.8151947031e-001
 2.5527074119e+000	 3.1442304097e+000	-6.5927865611e-001
 2.8814601333e+000	 2.8814601333e+000	-6.7908723569e-001
 2.8514679468e+000	 2.9111433403e+000	-6.9121861945e-001
 2.8211716294e+000	 2.9405128187e+000	-7.0346107901e-001
 2.7905761264e+000	 2.9695639212e+000	-7.1417631411e-001
 2.7596864773e+000	 2.9982921050e+000	-7.2176234204e-001
 2.7285078127e+000	 3.0266929338e+000	-7.2465712516e-001
 2.6970453520e+000	 3.0547620806e+000	-7.2134207640e-001
 2.6653044000e+000	 3.0824953293e+000	-7.1034543398e-001
 2.6332903440e+000	 3.1098885774e+000	-6.9024549692e-001
 2.6010086512e+000	 3.1369378375e+000	-6.6861665720e-001
 2.5684648651e+000	 3.1636392394e+000	-6.5564860614e-001
 2.8991378028e+000	 2.8991378028e+000	-6.8890193713e-001
 2.8689616152e+000	 2.9290031154e+000	-6.9585872368e-001
 2.8384794308e+000	 2.9585527747e+000	-7.0334927383e-001
 2.8076962253e+000	 2.9877821048e+000	-7.0965618639e-001
 2.7766170692e+000	 3.0166865351e+000	-7.1309880855e-001
 2.7452471245e+000	 3.0452616021e+000	-7.1203698367e-001
 2.7135916425e+000	 3.0735029522e+000	-7.0487467497e-001
 2.6816559607e+000	 3.1014063436e+000	-6.9006345602e-001
 2.6494454995e+000	 3.1289676484e+000	-6.6859922268e-001
 2.6169657595e+000	 3.1561828549e+000	-6.5853019225e-001
 2.5842223182e+000	 3.1830480690e+000	-6.4954397570e-001
 2.9168154724e+000	 2.9168154724e+000	-6.9831313897e-001
 2.8864552836e+000	 2.9468628905e+000	-6.9959361655e-001
 2.8557872322e+000	 2.9765927306e+000	-7.0180657165e-001
 2.8248163243e+000	 3.0060002884e+000	-7.0315511663e-001
 2.7935476611e+000	 3.0350809652e+000	-7.0187957163e-001
 2.7619864362e+000	 3.0638302704e+000	-6.9626133342e-001
 2.7301379330e+000	 3.0922438239e+000	-6.8462661812e-001
 2.6980075215e+000	 3.1203173579e+000	-6.6535006818e-001
 2.6656006550e+000	 3.1480467195e+000	-6.5382743880e-001
 2.6329228678e+000	 3.1754278723e+000	-6.4685443122e-001
 2.5999797714e+000	 3.2024568987e+000	-6.4116792780e-001
 2.9344931419e+000	 2.9344931419e+000	-7.0763032515e-001
 2.9039489520e+000	 2.9647226656e+000	-7.0274900269e-001
 2.8730950336e+000	 2.9946326866e+000	-6.9917492421e-001
 2.8419364232e+000	 3.0242184719e+000	-6.9503131830e-001
 2.8104782529e+000	 3.0534753953e+000	-6.8847910936e-001
 2.7787257480e+000	 3.0823989387e+000	-6.7772090843e-001
 2.7466842236e+000	 3.1109846955e+000	-6.6100487556e-001
 2.7143590822e+000	 3.1392283722e+000	-6.4526208541e-001
 2.6817558105e+000	 3.1671257905e+000	-6.3830454774e-001
 2.6488799761e+000	 3.1946728897e+000	-6.3377378752e-001
 2.6157372245e+000	 3.2218657284e+000	-6.3072000094e-001
 2.9521708114e+000	 2.9521708114e+000	-7.1716254983e-001
 2.9214426203e+000	 2.9825824407e+000	-7.0564986693e-001
 2.8904028350e+000	 3.0126726425e+000	-6.9579526885e-001
 2.8590565222e+000	 3.0424366555e+000	-6.8564169150e-001
 2.8274088448e+000	 3.0718698253e+000	-6.7327028330e-001
 2.7954650597e+000	 3.1009676070e+000	-6.5680451886e-001
 2.7632305141e+000	 3.1297255672e+000	-6.3666907059e-001
 2.7307106429e+000	 3.1581393865e+000	-6.2758806336e-001
 2.6979109660e+000	 3.1862048615e+000	-6.2219706543e-001
 2.6648370844e+000	 3.2139179071e+000	-6.1946948394e-001
 2.6314946777e+000	 3.2412745581e+000	-6.1839621757e-001
 2.9698484810e+000	 2.9698484810e+000	-7.2721845020e-001
 2.9389362887e+000	 3.0004422158e+000	-7.0862049569e-001
 2.9077106364e+000	 3.0307125985e+000	-6.9200755869e-001
 2.8761766211e+000	 3.0606548391e+000	-6.7534186204e-001
 2.8443394367e+000	 3.0902642554e+000	-6.5662438652e-001
 2.8122043714e+000	 3.1195362753e+000	-6.3389910835e-001
 2.7797768046e+000	 3.1484664388e+000	-6.1851367150e-001
 2.7470622037e+000	 3.1770504007e+000	-6.1010477434e-001
 2.7140661215e+000	 3.2052839325e+000	-6.0566872459e-001
 2.6807941927e+000	 3.2331629245e+000	-6.0411964756e-001
 2.6472521309e+000	 3.2606833878e+000	-6.0438918882e-001
 2.9875261505e+000	 2.9875261505e+000	-7.3810625881e-001
 2.9564299571e+000	 3.0183019909e+000	-7.1198449763e-001
 2.9250184379e+000	 3.0487525544e+000	-6.8815079178e-001
 2.8932967200e+000	 3.0788730226e+000	-6.6448621918e-001
 2.8612700286e+000	 3.1086586855e+000	-6.3891119010e-001
 2.8289436832e+000	 3.1381049436e+000	-6.1500526584e-001
 2.7963230951e+000	 3.1672073105e+000	-6.0128062506e-001
 2.7634137644e+000	 3.1959614150e+000	-5.9295925413e-001
 2.7302212769e+000	 3.2243630036e+000	-5.8888055705e-001
 2.6967513009e+000	 3.2524079419e+000	-5.8789940140e-001
 2.6630095840e+000	 3.2800922175e+000	-5.8888821536e-001
 3.0052038200e+000	 3.0052038200e+000	-7.5013381551e-001
 2.9739236255e+000	 3.0361617660e+000	-7.1606482365e-001
 2.9423262393e+000	 3.0667925103e+000	-6.8456303912e-001
 2.9104168190e+000	 3.0970912062e+000	-6.5342795197e-001
 2.8782006205e+000	 3.1270531156e+000	-6.2110189859e-001
 2.8456829949e+000	 3.1566736119e+000	-5.9962525504e-001
 2.8128693856e+000	 3.1859481822e+000	-5.8510103208e-001
 2.7797653252e+000	 3.2148724293e+000	-5.7629620820e-001
 2.7463764324e+000	 3.2434420746e+000	-5.7199097325e-001
 2.7127084092e+000	 3.2716529593e+000	-5.7098095270e-001
 2.6787670372e+000	 3.2995010472e+000	-5.7207938479e-001
 2.5211925056e+000	 3.1054127503e+000	-6.7015704160e-001
 2.4889959289e+000	 3.1312775773e+000	-6.4541032831e-001
 2.4565531787e+000	 3.1567937025e+000	-6.0022395705e-001
 2.4238699031e+000	 3.1819576824e+000	-5.6862329124e-001
 2.3909518130e+000	 3.2067661948e+000	-5.4938570540e-001
 2.3578046781e+000	 3.2312160404e+000	-5.4130465929e-001
 2.3244343245e+000	 3.2553041442e+000	-5.4319204081e-001
 2.2908466307e+000	 3.2790275563e+000	-5.5388044552e-001
 2.2570475246e+000	 3.3023834532e+000	-5.7222538755e-001
 2.2230429801e+000	 3.3253691387e+000	-5.9710743702e-001
 2.1888390135e+000	 3.3479820449e+000	-6.2743427938e-001
 2.5369499587e+000	 3.1248215800e+000	-6.6035916130e-001
 2.5045521534e+000	 3.1508480621e+000	-6.6895192306e-001
 2.4719066360e+000	 3.1765236632e+000	-6.2839615719e-001
 2.4390190900e+000	 3.2018449179e+000	-5.9105693665e-001
 2.4058952618e+000	 3.2268084835e+000	-5.6476648728e-001
 2.3725409573e+000	 3.2514111407e+000	-5.4836513766e-001
 2.3389620390e+000	 3.2756497951e+000	-5.4071286778e-001
 2.3051644221e+000	 3.2995214785e+000	-5.4069155333e-001
 2.2711540716e+000	 3.3230233498e+000	-5.4720713957e-001
 2.2369369987e+000	 3.3461526958e+000	-5.5919173995e-001
 2.2025192574e+000	 3.3689069327e+000	-5.7560565486e-001
 2.5527074119e+000	 3.1442304097e+000	-6.5927865611e-001
 2.5201083780e+000	 3.1704185470e+000	-6.6876285597e-001
 2.4872600934e+000	 3.1962536238e+000	-6.5521870328e-001
 2.4541682769e+000	 3.2217321534e+000	-6.1357736422e-001
 2.4208387106e+000	 3.2468507722e+000	-5.8167770487e-001
 2.3872772366e+000	 3.2716062409e+000	-5.5840581778e-001
 2.3534897535e+000	 3.2959954460e+000	-5.4266867433e-001
 2.3194822135e+000	 3.3200154007e+000	-5.3339633507e-001
 2.2852606186e+000	 3.3436632464e+000	-5.2954408788e-001
 2.2508310173e+000	 3.3669362530e+000	-5.3009450895e-001
 2.2161995012e+000	 3.3898318204e+000	-5.3405944222e-001
 2.5684648651e+000	 3.1636392394e+000	-6.5564860614e-001
 2.5356646025e+000	 3.1899890318e+000	-6.6724985281e-001
 2.5026135508e+000	 3.2159835844e+000	-6.7637958862e-001
 2.4693174638e+000	 3.2416193890e+000	-6.3628064352e-001
 2.4357821594e+000	 3.2668930610e+000	-6.0019295548e-001
 2.4020135158e+000	 3.2918013412e+000	-5.7147757482e-001
 2.3680174680e+000	 3.3163410969e+000	-5.4908737256e-001
 2.3338000050e+000	 3.3405093230e+000	-5.3199950804e-001
 2.2993671657e+000	 3.3643031429e+000	-5.1921753247e-001
 2.2647250359e+000	 3.3877198101e+000	-5.0977341360e-001
 2.2298797451e+000	 3.4107567082e+000	-5.0272947706e-001
 2.5842223182e+000	 3.1830480690e+000	-6.4954397570e-001
 2.5512208271e+000	 3.2095595167e+000	-6.6459758529e-001
 2.5179670081e+000	 3.2357135451e+000	-6.7560798335e-001
 2.4844666507e+000	 3.2615066245e+000	-6.5926078731e-001
 2.4507256083e+000	 3.2869353497e+000	-6.2038438978e-001
 2.4167497950e+000	 3.3119964414e+000	-5.8763045256e-001
 2.3825451826e+000	 3.3366867478e+000	-5.5999666330e-001
 2.3481177964e+000	 3.3610032452e+000	-5.3650620277e-001
 2.3134737127e+000	 3.3849430395e+000	-5.1620981521e-001
 2.2786190546e+000	 3.4085033672e+000	-4.9818779789e-001
 2.2435599889e+000	 3.4316815960e+000	-4.8155190544e-001
 2.5999797714e+000	 3.2024568987e+000	-6.4116792780e-001
 2.5667770517e+000	 3.2291300016e+000	-6.6098756322e-001
 2.5333204655e+000	 3.2554435057e+000	-6.7519864402e-001
 2.4996158376e+000	 3.2813938600e+000	-6.8260981387e-001
 2.4656690571e+000	 3.3069776384e+000	-6.4232275567e-001
 2.4314860743e+000	 3.3321915417e+000	-6.0691368867e-001
 2.3970728971e+000	 3.3570323987e+000	-5.7542404246e-001
 2.3624355879e+000	 3.3814971674e+000	-5.4692195046e-001
 2.3275802597e+000	 3.4055829361e+000	-5.2050428830e-001
 2.2925130732e+000	 3.4292869243e+000	-4.9529862946e-001
 2.2572402327e+000	 3.4526064838e+000	-4.7046511388e-001
 2.6157372245e+000	 3.2218657284e+000	-6.3072000094e-001
 2.5823332762e+000	 3.2487004864e+000	-6.5659822969e-001
 2.5486739229e+000	 3.2751734664e+000	-6.7530864409e-001
 2.5147650245e+000	 3.3012810955e+000	-6.8625154669e-001
 2.4806125059e+000	 3.3270199271e+000	-6.6607744050e-001
 2.4462223535e+000	 3.3523866420e+000	-6.2937573891e-001
 2.4116006116e+000	 3.3773780496e+000	-5.9539680720e-001
 2.3767533793e+000	 3.4019910896e+000	-5.6325267093e-001
 2.3416868067e+000	 3.4262228327e+000	-5.3208528381e-001
 2.3064070918e+000	 3.4500704814e+000	-5.0106845074e-001
 2.2709204766e+000	 3.4735313716e+000	-4.6940966189e-001
 2.6314946777e+000	 3.2412745581e+000	-6.1839621757e-001
 2.5978895008e+000	 3.2682709713e+000	-6.5160505294e-001
 2.5640273802e+000	 3.2949034270e+000	-6.7609262875e-001
 2.5299142114e+000	 3.3211683310e+000	-6.9130783590e-001
 2.4955559548e+000	 3.3470622158e+000	-6.9171651184e-001
 2.4609586328e+000	 3.3725817422e+000	-6.5506430057e-001
 2.4261283262e+000	 3.3977237005e+000	-6.1994206194e-001
 2.3910711707e+000	 3.4224850119e+000	-5.8550466099e-001
 2.3557933538e+000	 3.4468627293e+000	-5.5093808435e-001
 2.3203011104e+000	 3.4708540386e+000	-5.1546133178e-001
 2.2846007204e+000	 3.4944562593e+000	-4.7832821687e-001
 2.6472521309e+000	 3.2606833878e+000	-6.0438918882e-001
 2.6134457253e+000	 3.2878414561e+000	-6.4618061485e-001
 2.5793808376e+000	 3.3146333876e+000	-6.7770288716e-001
 2.5450633983e+000	 3.3410555665e+000	-6.9845261087e-001
 2.5104994036e+000	 3.3671045045e+000	-7.0795928745e-001
 2.4756949120e+000	 3.3927768425e+000	-6.8402633506e-001
 2.4406560407e+000	 3.4180693514e+000	-6.4908672401e-001
 2.4053889622e+000	 3.4429789341e+000	-6.1368458321e-001
 2.3698999008e+000	 3.4675026259e+000	-5.7704889480e-001
 2.3341951291e+000	 3.4916375957e+000	-5.3844282477e-001
 2.2982809642e+000	 3.5153811471e+000	-4.9716549144e-001
 2.6630095840e+000	 3.2800922175e+000	-5.8888821536e-001
 2.6290019499e+000	 3.3074119410e+000	-6.4049469640e-001
 2.5947342950e+000	 3.3343633483e+000	-6.8028942219e-001
 2.5602125852e+000	 3.3609428020e+000	-7.0781584641e-001
 2.5254428524e+000	 3.3871467933e+000	-7.2265176126e-001
 2.4904311912e+000	 3.4129719427e+000	-7.1630808964e-001
 2.4551837552e+000	 3.4384150023e+000	-6.8285752927e-001
 2.4197067536e+000	 3.4634728563e+000	-6.4779945510e-001
 2.3840064478e+000	 3.4881425224e+000	-6.1040481500e-001
 2.3480891477e+000	 3.5124211528e+000	-5.6997992020e-001
 2.3119612081e+000	 3.5363060349e+000	-5.2586818287e-001
 2.6787670372e+000	 3.2995010472e+000	-5.7207938479e-001
 2.6445581744e+000	 3.3269824258e+000	-6.3471435996e-001
 2.6100877523e+000	 3.3540933089e+000	-6.8400001765e-001
 2.5753617721e+000	 3.3808300376e+000	-7.1952580250e-001
 2.5403863013e+000	 3.4071890820e+000	-7.4091694417e-001
 2.5051674705e+000	 3.4331670430e+000	-7.4783550930e-001
 2.4697114697e+000	 3.4587606532e+000	-7.2128103738e-001
 2.4340245451e+000	 3.4839667785e+000	-6.8785663870e-001
 2.3981129948e+000	 3.5087824190e+000	-6.5099381343e-001
 2.3619831663e+000	 3.5332047099e+000	-6.1004100456e-001
 2.3256414519e+000	 3.5572309227e+000	-5.6438491473e-001
 2.1888390135e+000	 3.3479820449e+000	-6.2743427938e-001
 2.1544416806e+000	 3.3702197324e+000	-6.7950764729e-001
 2.1198570727e+000	 3.3920798916e+000	-7.2527607725e-001
 2.0850913135e+000	 3.4135603429e+000	-7.6444655463e-001
 2.0501505556e+000	 3.4346590368e+000	-7.9676416906e-001
 2.0150409773e+000	 3.4553740550e+000	-8.2201294702e-001
 1.9797687788e+000	 3.4757036097e+000	-8.4001658781e-001
 1.9443401791e+000	 3.4956460444e+000	-8.5063910200e-001
 1.9087614125e+000	 3.5151998336e+000	-8.5378535114e-001
 1.8730387253e+000	 3.5343635826e+000	-8.2708338695e-001
 1.8371783722e+000	 3.5531360273e+000	-4.1712091734e-001
 2.2025192574e+000	 3.3689069327e+000	-5.7560565486e-001
 2.1679069412e+000	 3.3912836057e+000	-6.2559329532e-001
 2.1331061794e+000	 3.4132803910e+000	-6.6970248095e-001
 2.0981231342e+000	 3.4348950950e+000	-7.0756911841e-001
 2.0629639966e+000	 3.4561256558e+000	-7.3886781557e-001
 2.0276349834e+000	 3.4769701428e+000	-7.6331280058e-001
 1.9921423336e+000	 3.4974267573e+000	-7.8065874212e-001
 1.9564923052e+000	 3.5174938322e+000	-7.9070146946e-001
 1.9206911713e+000	 3.5371698326e+000	-7.9327859121e-001
 1.8847452173e+000	 3.5564533549e+000	-7.8827001213e-001
 1.8486607371e+000	 3.5753431275e+000	-4.8810336014e-001
 2.2161995012e+000	 3.3898318204e+000	-5.3405944222e-001
 2.1813722017e+000	 3.4123474791e+000	-5.8100231352e-001
 2.1463552861e+000	 3.4344808903e+000	-6.2247735514e-001
 2.1111549549e+000	 3.4562298472e+000	-6.5804955744e-001
 2.0757774376e+000	 3.4775922748e+000	-6.8732322455e-001
 2.0402289895e+000	 3.4985662307e+000	-7.0994298000e-001
 2.0045158885e+000	 3.5191499048e+000	-7.2559467109e-001
 1.9686444313e+000	 3.5393416200e+000	-7.3400617058e-001
 1.9326209301e+000	 3.5591398315e+000	-7.3494807443e-001
 1.8964517093e+000	 3.5785431273e+000	-7.2823429476e-001
 1.8601431019e+000	 3.5975502277e+000	-5.5433182191e-001
 2.2298797451e+000	 3.4107567082e+000	-5.0272947706e-001
 2.1948374622e+000	 3.4334113524e+000	-5.4568909737e-001
 2.1596043928e+000	 3.4556813896e+000	-5.8357573647e-001
 2.1241867756e+000	 3.4775645993e+000	-6.1588361864e-001
 2.0885908786e+000	 3.4990588938e+000	-6.4214691020e-001
 2.0528229956e+000	 3.5201623185e+000	-6.6194081163e-001
 2.0168894434e+000	 3.5408730524e+000	-6.7488254615e-001
 1.9807965574e+000	 3.5611894078e+000	-6.8063224293e-001
 1.9445506890e+000	 3.5811098305e+000	-6.7889371376e-001
 1.9081582014e+000	 3.6006328997e+000	-6.6941512205e-001
 1.8716254667e+000	 3.6197573278e+000	-6.1637437181e-001
 2.2435599889e+000	 3.4316815960e+000	-4.8155190544e-001
 2.2083027227e+000	 3.4544752257e+000	-5.1960990458e-001
 2.1728534996e+000	 3.4768818889e+000	-5.5297407206e-001
 2.1372185963e+000	 3.4988993514e+000	-5.8106800433e-001
 2.1014043195e+000	 3.5205255128e+000	-6.0335588383e-001
 2.0654170017e+000	 3.5417584064e+000	-6.1934365783e-001
 2.0292629983e+000	 3.5625962000e+000	-6.2858011098e-001
 1.9929486836e+000	 3.5830371956e+000	-6.3065783014e-001
 1.9564804478e+000	 3.6030798295e+000	-6.2521405983e-001
 1.9198646934e+000	 3.6227226721e+000	-6.1193144731e-001
 1.8831078316e+000	 3.6419644280e+000	-5.9053867632e-001
 2.2572402327e+000	 3.4526064838e+000	-4.7046511388e-001
 2.2217679832e+000	 3.4755390991e+000	-5.0272279868e-001
 2.1861026063e+000	 3.4980823883e+000	-5.3065017677e-001
 2.1502504171e+000	 3.5202341036e+000	-5.5360034318e-001
 2.1142177605e+000	 3.5419921317e+000	-5.7096763885e-001
 2.0780110078e+000	 3.5633544942e+000	-5.8218891591e-001
 2.0416365531e+000	 3.5843193475e+000	-5.8674469449e-001
 2.0051008097e+000	 3.6048849833e+000	-5.8416020896e-001
 1.9684102066e+000	 3.6250498284e+000	-5.7400634224e-001
 1.9315711854e+000	 3.6448124445e+000	-5.5590044666e-001
 1.8945901964e+000	 3.6641715282e+000	-5.2950705079e-001
 2.2709204766e+000	 3.4735313716e+000	-4.6940966189e-001
 2.2352332437e+000	 3.4966029724e+000	-4.9498759467e-001
 2.1993517130e+000	 3.5192828876e+000	-5.1658319198e-001
 2.1632822378e+000	 3.5415688557e+000	-5.3347916242e-001
 2.1270312015e+000	 3.5634587507e+000	-5.4500013618e-001
 2.0906050139e+000	 3.5849505821e+000	-5.5051401705e-001
 2.0540101080e+000	 3.6060424951e+000	-5.4943322329e-001
 2.0172529358e+000	 3.6267327711e+000	-5.4121581545e-001
 1.9803399655e+000	 3.6470198274e+000	-5.2536650930e-001
 1.9432776775e+000	 3.6669022169e+000	-5.0143757260e-001
 1.9060725612e+000	 3.6863786283e+000	-4.6902960475e-001
 2.2846007204e+000	 3.4944562593e+000	-4.7832821687e-001
 2.2486985042e+000	 3.5176668457e+000	-4.9636580650e-001
 2.2126008197e+000	 3.5404833869e+000	-5.1075354593e-001
 2.1763140585e+000	 3.5629036079e+000	-5.2070386086e-001
 2.1398446424e+000	 3.5849253697e+000	-5.2547179032e-001
 2.1031990201e+000	 3.6065466699e+000	-5.2435642528e-001
 2.0663836629e+000	 3.6277656426e+000	-5.1670223376e-001
 2.0294050619e+000	 3.6485805589e+000	-5.0190027006e-001
 1.9922697243e+000	 3.6689898263e+000	-4.7938926644e-001
 1.9549841695e+000	 3.6889919893e+000	-4.4865660562e-001
 1.9175549260e+000	 3.7085857285e+000	-4.0923917317e-001
 2.2982809642e+000	 3.5153811471e+000	-4.9716549144e-001
 2.2621637647e+000	 3.5387307190e+000	-5.0682059659e-001
 2.2258499264e+000	 3.5616838862e+000	-5.1314291533e-001
 2.1893458792e+000	 3.5842383600e+000	-5.1527468297e-001
 2.1526580834e+000	 3.6063919887e+000	-5.1240145580e-001
 2.1157930262e+000	 3.6281427577e+000	-5.0375363655e-001
 2.0787572177e+000	 3.6494887902e+000	-4.8860788365e-001
 2.0415571880e+000	 3.6704283467e+000	-4.6628840199e-001
 2.0041994831e+000	 3.6909598253e+000	-4.3616811319e-001
 1.9666906615e+000	 3.7110817617e+000	-3.9766970391e-001
 1.9290372909e+000	 3.7307928287e+000	-3.5026655082e-001
 2.3119612081e+000	 3.5363060349e+000	-5.2586818287e-001
 2.2756290252e+000	 3.5597945924e+000	-5.2631672698e-001
 2.2390990331e+000	 3.5828843855e+000	-5.2373418854e-001
 2.2023776999e+000	 3.6055731122e+000	-5.1719269389e-001
 2.1654715244e+000	 3.6278586077e+000	-5.0580841421e-001
 2.1283870323e+000	 3.6497388456e+000	-4.8874317774e-001
 2.0911307726e+000	 3.6712119378e+000	-4.6520596329e-001
 2.0537093142e+000	 3.6922761344e+000	-4.3445427251e-001
 2.0161292419e+000	 3.7129298243e+000	-3.9579537884e-001
 1.9783971536e+000	 3.7331715341e+000	-3.4858745142e-001
 1.9405196557e+000	 3.7529999288e+000	-2.9850268998e-001
 2.3256414519e+000	 3.5572309227e+000	-5.6438491473e-001
 2.2890942857e+000	 3.5808584657e+000	-5.5482051235e-001
 2.2523481398e+000	 3.6040848849e+000	-5.4251142981e-001
 2.2154095206e+000	 3.6269078643e+000	-5.2645975525e-001
 2.1782849654e+000	 3.6493252266e+000	-5.0571236160e-001
 2.1409810384e+000	 3.6713349334e+000	-4.7936260576e-001
 2.1035043275e+000	 3.6929350853e+000	-4.4655190637e-001
 2.0658614403e+000	 3.7141239222e+000	-4.0647119763e-001
 2.0280590008e+000	 3.7348998232e+000	-3.5836225687e-001
 1.9901036456e+000	 3.7552613065e+000	-3.1127331138e-001
 1.9520020205e+000	 3.7752070290e+000	-2.9180228851e-001
 1.8371783722e+000	 3.5531360273e+000	-4.1712091734e-001
 1.8011866135e+000	 3.5715160343e+000	-3.4944195230e-001
 1.7650697110e+000	 3.5895026000e+000	-2.8679546188e-001
 1.7288339256e+000	 3.6070948501e+000	-2.3078648366e-001
 1.6924855132e+000	 3.6242920395e+000	-1.8298810400e-001
 1.6560307222e+000	 3.6410935510e+000	-1.4493699314e-001
 1.6194757899e+000	 3.6574988949e+000	-1.1812907631e-001
 1.5828269397e+000	 3.6735077078e+000	-1.0401535087e-001
 1.5460903777e+000	 3.6891197520e+000	-1.0399785884e-001
 1.5092722896e+000	 3.7043349141e+000	-1.1942582336e-001
 1.4723788383e+000	 3.7191532043e+000	-1.5159195729e-001
 1.8486607371e+000	 3.5753431275e+000	-4.8810336014e-001
 1.8124440298e+000	 3.5938380095e+000	-4.0548889115e-001
 1.7761013967e+000	 3.6119369912e+000	-3.3044037068e-001
 1.7396391376e+000	 3.6296391930e+000	-2.6455456194e-001
 1.7030635476e+000	 3.6469438648e+000	-2.0939413877e-001
 1.6663809142e+000	 3.6638503857e+000	-1.6648319416e-001
 1.6295975136e+000	 3.6803582629e+000	-1.3730288860e-001
 1.5927196081e+000	 3.6964671309e+000	-1.2328724805e-001
 1.5557534425e+000	 3.7121767504e+000	-1.2581912121e-001
 1.5187052414e+000	 3.7274870073e+000	-1.4622630455e-001
 1.4815812060e+000	 3.7423979118e+000	-1.8577784340e-001
 1.8601431019e+000	 3.5975502277e+000	-5.5433182191e-001
 1.8237014462e+000	 3.6161599847e+000	-4.5488967464e-001
 1.7871330824e+000	 3.6343713825e+000	-3.6551835234e-001
 1.7504443496e+000	 3.6521835358e+000	-2.8780834072e-001
 1.7136415821e+000	 3.6695956900e+000	-2.2331389953e-001
 1.6767311062e+000	 3.6866072204e+000	-1.7354854187e-001
 1.6397192373e+000	 3.7032176310e+000	-1.3998065702e-001
 1.6026122765e+000	 3.7194265541e+000	-1.2402928681e-001
 1.5654165074e+000	 3.7352337488e+000	-1.2706006497e-001
 1.5281381932e+000	 3.7506391005e+000	-1.5120204935e-001
 1.4907835738e+000	 3.7656426193e+000	-2.1107641089e-001
 1.8716254667e+000	 3.6197573278e+000	-6.1637437181e-001
 1.8349588625e+000	 3.6384819600e+000	-4.9822362094e-001
 1.7981647681e+000	 3.6568057737e+000	-3.9262037304e-001
 1.7612495617e+000	 3.6747278786e+000	-3.0115083190e-001
 1.7242196165e+000	 3.6922475153e+000	-2.2536284006e-001
 1.6870812982e+000	 3.7093640551e+000	-1.6676132629e-001
 1.6498409610e+000	 3.7260769991e+000	-1.2680390026e-001
 1.6125049449e+000	 3.7423859773e+000	-1.0689660465e-001
 1.5750795722e+000	 3.7582907473e+000	-1.2408208192e-001
 1.5375711450e+000	 3.7737911937e+000	-1.7325618368e-001
 1.4999859415e+000	 3.7888873268e+000	-2.3751493175e-001
 1.8831078316e+000	 3.6419644280e+000	-5.9053867632e-001
 1.8462162788e+000	 3.6608039352e+000	-5.3606719701e-001
 1.8091964538e+000	 3.6792401650e+000	-4.1233398945e-001
 1.7720547737e+000	 3.6972722214e+000	-3.0518106795e-001
 1.7347976510e+000	 3.7148993405e+000	-2.1615185356e-001
 1.6974314902e+000	 3.7321208898e+000	-1.4674468480e-001
 1.6599626847e+000	 3.7489363672e+000	-9.8408381634e-002
 1.6223976132e+000	 3.7653454004e+000	-1.0903031046e-001
 1.5847426371e+000	 3.7813477457e+000	-1.4210403711e-001
 1.5470040968e+000	 3.7969432870e+000	-1.9331873020e-001
 1.5091883092e+000	 3.8121320343e+000	-2.6096504583e-001
 1.8945901964e+000	 3.6641715282e+000	-5.2950705079e-001
 1.8574736952e+000	 3.6831259104e+000	-5.6899410500e-001
 1.8202281395e+000	 3.7016745562e+000	-4.2524345206e-001
 1.7828599857e+000	 3.7198165642e+000	-3.0049422257e-001
 1.7453756855e+000	 3.7375511658e+000	-1.9628741085e-001
 1.7077816822e+000	 3.7548777245e+000	-1.2717048951e-001
 1.6700844084e+000	 3.7717957353e+000	-1.1510349110e-001
 1.6322902816e+000	 3.7883048236e+000	-1.2638923028e-001
 1.5944057020e+000	 3.8044047442e+000	-1.5912235894e-001
 1.5564370487e+000	 3.8200953802e+000	-2.1143612188e-001
 1.5183906770e+000	 3.8353767419e+000	-2.8150570666e-001
 1.9060725612e+000	 3.6863786283e+000	-4.6902960475e-001
 1.8687311115e+000	 3.7054478856e+000	-5.9757536554e-001
 1.8312598252e+000	 3.7241089475e+000	-4.3192980474e-001
 1.7936651978e+000	 3.7423609070e+000	-2.8768172683e-001
 1.7559537199e+000	 3.7602029910e+000	-1.9512491891e-001
 1.7181318743e+000	 3.7776345592e+000	-1.5159167399e-001
 1.6802061321e+000	 3.7946551034e+000	-1.3511520587e-001
 1.6421829500e+000	 3.8112642468e+000	-1.4363984299e-001
 1.6040687668e+000	 3.8274617426e+000	-1.7514475975e-001
 1.5658700005e+000	 3.8432474734e+000	-2.2764762146e-001
 1.5275930447e+000	 3.8586214494e+000	-2.9920809391e-001
 1.9175549260e+000	 3.7085857285e+000	-4.0923917317e-001
 1.8799885278e+000	 3.7277698608e+000	-5.7444613922e-001
 1.8422915109e+000	 3.7465433387e+000	-4.3297098076e-001
 1.8044704098e+000	 3.7649052498e+000	-3.0952006408e-001
 1.7665317544e+000	 3.7828548162e+000	-2.2802173524e-001
 1.7284820663e+000	 3.8003913939e+000	-1.7752376164e-001
 1.6903278558e+000	 3.8175144715e+000	-1.5582448051e-001
 1.6520756183e+000	 3.8342236700e+000	-1.6075288711e-001
 1.6137318317e+000	 3.8505187411e+000	-1.9017257346e-001
 1.5753029523e+000	 3.8663995666e+000	-2.4198553613e-001
 1.5367954125e+000	 3.8818661569e+000	-3.1413584615e-001
 1.9290372909e+000	 3.7307928287e+000	-3.5026655082e-001
 1.8912459442e+000	 3.7500918360e+000	-4.9011537127e-001
 1.8533231966e+000	 3.7689777300e+000	-4.8040071812e-001
 1.8152756218e+000	 3.7874495926e+000	-3.5416018093e-001
 1.7771097888e+000	 3.8055066415e+000	-2.6309851344e-001
 1.7388322583e+000	 3.8231482286e+000	-2.0487295203e-001
 1.7004495794e+000	 3.8403738396e+000	-1.7716676133e-001
 1.6619682867e+000	 3.8571830931e+000	-1.7769346401e-001
 1.6233948965e+000	 3.8735757395e+000	-2.0420094536e-001
 1.5847359041e+000	 3.8895516598e+000	-2.5447542455e-001
 1.5459977802e+000	 3.9051108645e+000	-3.2634528523e-001
 1.9405196557e+000	 3.7529999288e+000	-2.9850268998e-001
 1.9025033605e+000	 3.7724138112e+000	-4.6083675767e-001
 1.8643548823e+000	 3.7914121212e+000	-5.4001520027e-001
 1.8260808339e+000	 3.8099939354e+000	-4.0156762543e-001
 1.7876878233e+000	 3.8281584667e+000	-3.0022871652e-001
 1.7491824503e+000	 3.8459050633e+000	-2.3354101861e-001
 1.7105713031e+000	 3.8632332077e+000	-1.9907255079e-001
 1.6718609551e+000	 3.8801425163e+000	-1.9442120465e-001
 1.6330579614e+000	 3.8966327380e+000	-2.1721901524e-001
 1.5941688559e+000	 3.9127037530e+000	-2.6513629646e-001
 1.5552001479e+000	 3.9283555720e+000	-3.3588563284e-001
 1.9520020205e+000	 3.7752070290e+000	-2.9180228851e-001
 1.9137607768e+000	 3.7947357865e+000	-4.3864538689e-001
 1.8753865680e+000	 3.8138465125e+000	-5.9949722445e-001
 1.8368860459e+000	 3.8325382783e+000	-4.5158466986e-001
 1.7982658577e+000	 3.8508102920e+000	-3.3928200520e-001
 1.7595326423e+000	 3.8686618980e+000	-2.6342543892e-001
 1.7206930268e+000	 3.8860925758e+000	-2.2146755295e-001
 1.6817536235e+000	 3.9031019395e+000	-2.1089043046e-001
 1.6427210263e+000	 3.9196897364e+000	-2.2921009399e-001
 1.6036018077e+000	 3.9358558462e+000	-2.7398080537e-001
 1.5644025157e+000	 3.9516002795e+000	-3.4279921927e-001
 1.4723788383e+000	 3.7191532043e+000	-1.5159195729e-001
 1.4354161602e+000	 3.7335747544e+000	-1.3902253299e-001
 1.3983903631e+000	 3.7475998176e+000	-1.5206880463e-001
 1.3613075226e+000	 3.7612287659e+000	-1.7723297074e-001
 1.3241736799e+000	 3.7744620896e+000	-2.1243137599e-001
 1.2869948389e+000	 3.7873003954e+000	-2.5791867411e-001
 1.2497769635e+000	 3.7997444048e+000	-3.1121877425e-001
 1.2125259753e+000	 3.8117949524e+000	-1.8894585240e-001
 1.1752477508e+000	 3.8234529844e+000	-4.4699990047e-002
 1.1379481191e+000	 3.8347195567e+000	 1.1781195600e-001
 1.1006328594e+000	 3.8455958328e+000	 2.9515867008e-001
 1.4815812060e+000	 3.7423979118e+000	-1.8577784340e-001
 1.4443875112e+000	 3.7569095967e+000	-1.7363425116e-001
 1.4071303029e+000	 3.7710223164e+000	-1.7870635316e-001
 1.3698156946e+000	 3.7847364456e+000	-1.9517420892e-001
 1.3324497654e+000	 3.7980524776e+000	-2.2148550064e-001
 1.2950385566e+000	 3.8109710228e+000	-2.5614263037e-001
 1.2575880695e+000	 3.8234928073e+000	-2.9770499238e-001
 1.2201042627e+000	 3.8356186709e+000	-2.0939268163e-001
 1.1825930493e+000	 3.8473495656e+000	-6.8466096812e-002
 1.1450602948e+000	 3.8586865539e+000	 8.9686737311e-002
 1.1075118147e+000	 3.8696308067e+000	 2.6144940047e-001
 1.4907835738e+000	 3.7656426193e+000	-2.1107641089e-001
 1.4533588622e+000	 3.7802444389e+000	-2.0161347375e-001
 1.4158702426e+000	 3.7944448153e+000	-2.0314374113e-001
 1.3783238666e+000	 3.8082441254e+000	-2.1408483423e-001
 1.3407258509e+000	 3.8216428657e+000	-2.3290834180e-001
 1.3030822743e+000	 3.8346416503e+000	-2.5814223305e-001
 1.2653991756e+000	 3.8472412098e+000	-2.8837311423e-001
 1.2276825500e+000	 3.8594423893e+000	-2.2956008627e-001
 1.1899383477e+000	 3.8712461467e+000	-9.1765721451e-002
 1.1521724706e+000	 3.8826535511e+000	 6.2142728817e-002
 1.1143907701e+000	 3.8936657807e+000	 2.2836186085e-001
 1.4999859415e+000	 3.7888873268e+000	-2.3751493175e-001
 1.4623302133e+000	 3.8035792811e+000	-2.2787534630e-001
 1.4246101824e+000	 3.8178673141e+000	-2.2723284222e-001
 1.3868320386e+000	 3.8317518052e+000	-2.3402602173e-001
 1.3490019364e+000	 3.8452332537e+000	-2.4674913895e-001
 1.3111259921e+000	 3.8583122778e+000	-2.6395450104e-001
 1.2732102816e+000	 3.8709896123e+000	-2.8425471025e-001
 1.2352608374e+000	 3.8832661078e+000	-2.5018194752e-001
 1.1972836462e+000	 3.8951427279e+000	-1.1528502741e-001
 1.1592846463e+000	 3.9066205484e+000	 3.4541156846e-002
 1.1212697255e+000	 3.9177007546e+000	 1.9530430650e-001
 1.5091883092e+000	 3.8121320343e+000	-2.6096504583e-001
 1.4713015643e+000	 3.8269141233e+000	-2.5249623120e-001
 1.4333501222e+000	 3.8412898130e+000	-2.5103912376e-001
 1.3953402107e+000	 3.8552594850e+000	-2.5505205826e-001
 1.3572780219e+000	 3.8688236418e+000	-2.6305071635e-001
 1.3191697098e+000	 3.8819829053e+000	-2.7361051735e-001
 1.2810213876e+000	 3.8947380149e+000	-2.8536884727e-001
 1.2428391247e+000	 3.9070898262e+000	-2.7198718781e-001
 1.2046289446e+000	 3.9190393090e+000	-1.3970571654e-001
 1.1663968220e+000	 3.9305875456e+000	 6.2472066894e-003
 1.1281486808e+000	 3.9417357286e+000	 1.6168844387e-001
 1.5183906770e+000	 3.8353767419e+000	-2.8150570666e-001
 1.4802729153e+000	 3.8502489655e+000	-2.7554491395e-001
 1.4420900620e+000	 3.8647123118e+000	-2.7462092157e-001
 1.4038483827e+000	 3.8787671648e+000	-2.7721055121e-001
 1.3655541074e+000	 3.8924140299e+000	-2.8184967735e-001
 1.3272134276e+000	 3.9056535327e+000	-2.8713560899e-001
 1.2888324936e+000	 3.9184864174e+000	-2.9172930701e-001
 1.2504174121e+000	 3.9309135447e+000	-2.9435743439e-001
 1.2119742430e+000	 3.9429358902e+000	-1.6570516433e-001
 1.1735089978e+000	 3.9545545428e+000	-2.3370097370e-002
 1.1350276362e+000	 3.9657707025e+000	 1.2692932602e-001
 1.5275930447e+000	 3.8586214494e+000	-2.9920809391e-001
 1.4892442663e+000	 3.8735838077e+000	-2.9708283132e-001
 1.4508300017e+000	 3.8881348107e+000	-2.9802965466e-001
 1.4123565547e+000	 3.9022748446e+000	-3.0054262971e-001
 1.3738301929e+000	 3.9160044179e+000	-3.0317659186e-001
 1.3352571453e+000	 3.9293241602e+000	-3.0454952034e-001
 1.2966435997e+000	 3.9422348199e+000	-3.0334474523e-001
 1.2579956994e+000	 3.9547372631e+000	-2.9831298454e-001
 1.2193195415e+000	 3.9668324714e+000	-1.9395655019e-001
 1.1806211735e+000	 3.9785215400e+000	-5.4938007688e-002
 1.1419065916e+000	 3.9898056765e+000	 9.0445251789e-002
 1.5367954125e+000	 3.8818661569e+000	-3.1413584615e-001
 1.4982156173e+000	 3.8969186499e+000	-3.1716429141e-001
 1.4595699415e+000	 3.9115573096e+000	-3.2131003240e-001
 1.4208647267e+000	 3.9257825243e+000	-3.2508313856e-001
 1.3821062784e+000	 3.9395948060e+000	-3.2705617693e-001
 1.3433008631e+000	 3.9529947877e+000	-3.2586658031e-001
 1.3044547057e+000	 3.9659832225e+000	-3.2021884523e-001
 1.2655739868e+000	 3.9785609816e+000	-3.0888655724e-001
 1.2266648399e+000	 3.9907290525e+000	-2.2512898307e-001
 1.1877333493e+000	 4.0024885373e+000	-8.9080164734e-002
 1.1487855470e+000	 4.0138406504e+000	 5.1657668642e-002
 1.5459977802e+000	 3.9051108645e+000	-3.2634528523e-001
 1.5071869683e+000	 3.9202534922e+000	-3.3583668582e-001
 1.4683098813e+000	 3.9349798084e+000	-3.4450025418e-001
 1.4293728987e+000	 3.9492902041e+000	-3.5086082527e-001
 1.3903823639e+000	 3.9631851940e+000	-3.5350747097e-001
 1.3513445808e+000	 3.9766654151e+000	-3.5109586349e-001
 1.3122658117e+000	 3.9897316250e+000	-3.4235046580e-001
 1.2731522741e+000	 4.0023847000e+000	-3.2606654643e-001
 1.2340101384e+000	 4.0146256337e+000	-2.5988762265e-001
 1.1948455250e+000	 4.0264555345e+000	-1.2641670459e-001
 1.1556645023e+000	 4.0378756244e+000	 9.9910789409e-003
 1.5552001479e+000	 3.9283555720e+000	-3.3588563284e-001
 1.5161583193e+000	 3.9435883344e+000	-3.5314069424e-001
 1.4770498210e+000	 3.9584023073e+000	-3.6763220202e-001
 1.4378810707e+000	 3.9727978839e+000	-3.7789852051e-001
 1.3986584494e+000	 3.9867755821e+000	-3.8254400174e-001
 1.3593882986e+000	 4.0003360426e+000	-3.8024134561e-001
 1.3200769177e+000	 4.0134800275e+000	-3.6973378400e-001
 1.2807305615e+000	 4.0262084185e+000	-3.4983708648e-001
 1.2413554368e+000	 4.0385222148e+000	-2.9889379615e-001
 1.2019577008e+000	 4.0504225317e+000	-1.6756436264e-001
 1.1625434577e+000	 4.0619105984e+000	-3.5127050425e-002
 1.5644025157e+000	 3.9516002795e+000	-3.4279921927e-001
 1.5251296703e+000	 3.9669231766e+000	-3.6911048190e-001
 1.4857897608e+000	 3.9818248061e+000	-3.9073162636e-001
 1.4463892427e+000	 3.9963055637e+000	-4.0621331203e-001
 1.4069345349e+000	 4.0103659702e+000	-4.1417394845e-001
 1.3674320163e+000	 4.0240066701e+000	-4.1330205352e-001
 1.3278880237e+000	 4.0372284301e+000	-4.0235843284e-001
 1.2883088488e+000	 4.0500321369e+000	-3.8017817751e-001
 1.2487007353e+000	 4.0624187960e+000	-3.4280511104e-001
 1.2090698765e+000	 4.0743895290e+000	-2.1313657358e-001
 1.1694224131e+000	 4.0859455723e+000	-8.4266375234e-002
 1.1006328594e+000	 3.8455958328e+000	 2.9515867008e-001
 1.0633076989e+000	 3.8560830823e+000	 3.9162714410e-001
 1.0259783107e+000	 3.8661826788e+000	 4.7118685693e-001
 9.8865031116e-001	 3.8758960980e+000	 5.3100316288e-001
 9.5132925831e-001	 3.8852249153e+000	 5.6855898244e-001
 9.1402064961e-001	 3.8941708042e+000	 5.8165574413e-001
 8.7672992013e-001	 3.9027355338e+000	 5.6841359419e-001
 8.3946244064e-001	 3.9109209671e+000	 5.2727089071e-001
 8.0222351592e-001	 3.9187290581e+000	 4.5698300010e-001
 7.6501838302e-001	 3.9261618501e+000	 3.5662041542e-001
 7.2785220965e-001	 3.9332214737e+000	 2.2556621743e-001
 1.1075118147e+000	 3.8696308067e+000	 2.6144940047e-001
 1.0699533720e+000	 3.8801836015e+000	 3.4296344903e-001
 1.0323906751e+000	 3.8903463206e+000	 4.1036866728e-001
 9.9482937561e-001	 3.9001204486e+000	 4.6071268337e-001
 9.5727506617e-001	 3.9095075710e+000	 4.9136407041e-001
 9.1973327867e-001	 3.9185093717e+000	 5.0001342600e-001
 8.8220948212e-001	 3.9271276309e+000	 4.8467370664e-001
 8.4470908089e-001	 3.9353642231e+000	 4.4367983369e-001
 8.0723741289e-001	 3.9432211147e+000	 3.7568758893e-001
 7.6979974791e-001	 3.9507003617e+000	 2.7967181940e-001
 7.3240128595e-001	 3.9578041079e+000	 1.5492397263e-001
 1.1143907701e+000	 3.8936657807e+000	 2.2836186085e-001
 1.0765990452e+000	 3.9042841208e+000	 2.9671959727e-001
 1.0388030396e+000	 3.9145099623e+000	 3.5363275116e-001
 1.0010084400e+000	 3.9243447992e+000	 3.9602941126e-001
 9.6322087403e-001	 3.9337902267e+000	 4.2116215619e-001
 9.2544590773e-001	 3.9428479392e+000	 4.2660927161e-001
 8.8768904412e-001	 3.9515197280e+000	 4.1027520908e-001
 8.4995572114e-001	 3.9598074792e+000	 3.7039030319e-001
 8.1225130986e-001	 3.9677131713e+000	 3.0550976547e-001
 7.7458111280e-001	 3.9752388733e+000	 2.1451197466e-001
 7.3695036226e-001	 3.9823867421e+000	 9.6596084704e-002
 1.1212697255e+000	 3.9177007546e+000	 1.9530430650e-001
 1.0832447183e+000	 3.9283846401e+000	 2.5231673395e-001
 1.0452154040e+000	 3.9386736040e+000	 3.0041378922e-001
 1.0071875045e+000	 3.9485691498e+000	 3.3640218426e-001
 9.6916668190e-001	 3.9580728824e+000	 3.5741683232e-001
 9.3115853678e-001	 3.9671865068e+000	 3.6092220267e-001
 8.9316860612e-001	 3.9759118251e+000	 3.4471290356e-001
 8.5520236139e-001	 3.9842507352e+000	 3.0691351015e-001
 8.1726520684e-001	 3.9922052279e+000	 2.4597765577e-001
 7.7936247769e-001	 3.9997773848e+000	 1.6068640662e-001
 7.4149943857e-001	 4.0069693763e+000	 5.0145941243e-002
 1.1281486808e+000	 3.9417357286e+000	 1.6168844387e-001
 1.0898903914e+000	 3.9524851593e+000	 2.0917976577e-001
 1.0516277685e+000	 3.9628372458e+000	 2.5015050331e-001
 1.0133665689e+000	 3.9727935004e+000	 2.8128413036e-001
 9.7511248976e-001	 3.9823555382e+000	 2.9959620019e-001
 9.3687116584e-001	 3.9915250743e+000	 3.0243583793e-001
 8.9864816812e-001	 4.0003039222e+000	 2.8748644731e-001
 8.6044900165e-001	 4.0086939913e+000	 2.5276564878e-001
 8.2227910381e-001	 4.0166972845e+000	 1.9662446742e-001
 7.8414384258e-001	 4.0243158964e+000	 1.1774579099e-001
 7.4604851487e-001	 4.0315520105e+000	 1.5142119553e-002
 1.1350276362e+000	 3.9657707025e+000	 1.2692932602e-001
 1.0965360645e+000	 3.9765856786e+000	 1.6673724701e-001
 1.0580401329e+000	 3.9870008875e+000	 2.0228553410e-001
 1.0195456334e+000	 3.9970178510e+000	 2.3013253781e-001
 9.8105829763e-001	 4.0066381939e+000	 2.4717273341e-001
 9.4258379490e-001	 4.0158636418e+000	 2.5063835094e-001
 9.0412773012e-001	 4.0246960193e+000	 2.3810020561e-001
 8.6569564190e-001	 4.0331372473e+000	 2.0746774555e-001
 8.2729300078e-001	 4.0411893411e+000	 1.5698833564e-001
 7.8892520747e-001	 4.0488544080e+000	 8.5245797754e-002
 7.5059759118e-001	 4.0561346447e+000	-8.8417706108e-003
 1.1419065916e+000	 3.9898056765e+000	 9.0445251789e-002
 1.1031817376e+000	 4.0006861979e+000	 1.2442126966e-001
 1.0644524973e+000	 4.0111645293e+000	 1.5626532292e-001
 1.0257246978e+000	 4.0212422016e+000	 1.8240872982e-001
 9.8700410549e-001	 4.0309208496e+000	 1.9962314610e-001
 9.4829642396e-001	 4.0402022093e+000	 2.0502233278e-001
 9.0960729212e-001	 4.0490881164e+000	 1.9606310996e-001
 8.7094228215e-001	 4.0575805033e+000	 1.7054551367e-001
 8.3230689776e-001	 4.0656813977e+000	 1.2661217481e-001
 7.9370657237e-001	 4.0733929195e+000	 6.2746940706e-002
 7.5514666749e-001	 4.0807172789e+000	-2.2227238627e-002
 1.1487855470e+000	 4.0138406504e+000	 5.1657668642e-002
 1.1098274108e+000	 4.0247867171e+000	 8.1667357499e-002
 1.0708648618e+000	 4.0353281710e+000	 1.1153999810e-001
 1.0319037623e+000	 4.0454665523e+000	 1.3757794376e-001
 9.9294991336e-001	 4.0552035053e+000	 1.5642826594e-001
 9.5400905303e-001	 4.0645407769e+000	 1.6508465986e-001
 9.1508685412e-001	 4.0734802135e+000	 1.6088852141e-001
 8.7618892241e-001	 4.0820237594e+000	 1.4152921270e-001
 8.3732079473e-001	 4.0901734544e+000	 1.0504353538e-001
 7.9848793726e-001	 4.0979314311e+000	 4.9814432444e-002
 7.5969574380e-001	 4.1052999131e+000	-2.5431059141e-002
 1.1556645023e+000	 4.0378756244e+000	 9.9910789409e-003
 1.1164730839e+000	 4.0488872364e+000	 3.7914363962e-002
 1.0772772262e+000	 4.0594918128e+000	 6.7563265137e-002
 1.0380828267e+000	 4.0696909029e+000	 9.5109214640e-002
 9.9889572122e-001	 4.0794861610e+000	 1.1707291176e-001
 9.5972168209e-001	 4.0888793444e+000	 1.3032636633e-001
 9.2056641613e-001	 4.0978723105e+000	 1.3209409867e-001
 8.8143556267e-001	 4.1064670154e+000	 1.1995351330e-001
 8.4233469171e-001	 4.1146655110e+000	 9.1834465940e-002
 8.0326930216e-001	 4.1224699427e+000	 4.6018044516e-002
 7.6424482012e-001	 4.1298825474e+000	-1.8865412978e-002
 1.1625434577e+000	 4.0619105984e+000	-3.5127050425e-002
 1.1231187570e+000	 4.0729877557e+000	-7.3956263689e-003
 1.0836895907e+000	 4.0836554545e+000	 2.3792300904e-002
 1.0442618912e+000	 4.0939152535e+000	 5.4475262791e-002
 1.0048415291e+000	 4.1037688168e+000	 8.1045775425e-002
 9.6543431115e-001	 4.1132179119e+000	 1.0025252111e-001
 9.2604597813e-001	 4.1222644076e+000	 1.0920167101e-001
 8.8668220292e-001	 4.1309102715e+000	 1.0535736672e-001
 8.4734858869e-001	 4.1391575676e+000	 8.6541380077e-002
 8.0805066705e-001	 4.1470084542e+000	 5.0931972543e-002
 7.6879389643e-001	 4.1544651816e+000	-2.9380230564e-003
 1.1694224131e+000	 4.0859455723e+000	-8.4266375234e-002
 1.1297644301e+000	 4.0970882749e+000	-5.4817392802e-002
 1.0901019551e+000	 4.1078190963e+000	-2.0312348447e-002
 1.0504409556e+000	 4.1181396041e+000	 1.5152385443e-002
 1.0107873370e+000	 4.1280514725e+000	 4.7839307951e-002
 9.7114694021e-001	 4.1375564794e+000	 7.4372109177e-002
 9.3152554013e-001	 4.1466565047e+000	 9.1737115581e-002
 8.9192884318e-001	 4.1553535275e+000	 9.7283878865e-002
 8.5236248567e-001	 4.1636496242e+000	 8.8724928036e-002
 8.1283203195e-001	 4.1715469658e+000	 6.4134706098e-002
 7.7334297274e-001	 4.1790478158e+000	 2.1947714497e-002
 7.2785220965e-001	 3.9332214737e+000	 2.2556621743e-001
 6.9073009268e-001	 3.9399101435e+000	-5.1752112509e-002
 6.5365705668e-001	 3.9462301570e+000	-2.2028839600e-001
 6.1663805252e-001	 3.9521838915e+000	-2.2625746435e-001
 5.7967795609e-001	 3.9577738019e+000	-5.4968883004e-002
 5.4278156711e-001	 3.9630024187e+000	 5.1434389838e-002
 5.0595360791e-001	 3.9678723450e+000	 1.0382203993e-001
 4.6919872246e-001	 3.9723862550e+000	 1.1239592718e-001
 4.3252147529e-001	 3.9765468906e+000	 8.6712754767e-002
 3.9592635063e-001	 3.9803570600e+000	 3.5707058999e-002
 3.5941775158e-001	 3.9838196344e+000	-3.2285551950e-002
 7.3240128595e-001	 3.9578041079e+000	 1.5492397263e-001
 6.9504715575e-001	 3.9645345819e+000	-6.0212580800e-002
 6.5774241328e-001	 3.9708940955e+000	-1.7056871954e-001
 6.2049204034e-001	 3.9768850408e+000	-1.5503472127e-001
 5.8330094331e-001	 3.9825098882e+000	 1.2558097505e-002
 5.4617395190e-001	 3.9877711838e+000	 1.1772034769e-001
 5.0911581796e-001	 3.9926715472e+000	 1.7099204763e-001
 4.7213121447e-001	 3.9972136691e+000	 1.8224006059e-001
 4.3522473450e-001	 4.0014003087e+000	 1.6068154265e-001
 3.9840089032e-001	 4.0052342916e+000	 1.1490770021e-001
 3.6166411252e-001	 4.0087185072e+000	 5.2907783678e-002
 7.3695036226e-001	 3.9823867421e+000	 9.6596084704e-002
 6.9936421883e-001	 3.9891590203e+000	-6.1524889097e-002
 6.6182776988e-001	 3.9955580340e+000	-1.1892836283e-001
 6.2434602816e-001	 4.0015861901e+000	-7.2895192463e-002
 5.8692393053e-001	 4.0072459744e+000	 8.9118443655e-002
 5.4956633669e-001	 4.0125399489e+000	 1.9132946580e-001
 5.1227802800e-001	 4.0174707494e+000	 2.4394409688e-001
 4.7506370648e-001	 4.0220410832e+000	 2.5648992122e-001
 4.3792799372e-001	 4.0262537268e+000	 2.3784012286e-001
 4.0087543001e-001	 4.0301115232e+000	 1.9623802184e-001
 3.6391047346e-001	 4.0336173799e+000	 1.3932183413e-001
 7.4149943857e-001	 4.0069693763e+000	 5.0145941243e-002
 7.0368128190e-001	 4.0137834587e+000	-5.6005276910e-002
 6.6591312648e-001	 4.0202219725e+000	-6.5564337846e-002
 6.2820001599e-001	 4.0262873394e+000	 2.2163476210e-002
 5.9054691776e-001	 4.0319820607e+000	 1.7325312000e-001
 5.5295872148e-001	 4.0373087140e+000	 2.7099709474e-001
 5.1544023805e-001	 4.0422699515e+000	 3.2160889153e-001
 4.7799619849e-001	 4.0468684973e+000	 3.3427242560e-001
 4.4063125294e-001	 4.0511071448e+000	 3.1751237630e-001
 4.0334996970e-001	 4.0549887548e+000	 2.7921951375e-001
 3.6615683441e-001	 4.0585162526e+000	 2.2667623634e-001
 7.4604851487e-001	 4.0315520105e+000	 1.5142119553e-002
 7.0799834498e-001	 4.0384078971e+000	-4.3967273247e-002
 6.6999848308e-001	 4.0448859109e+000	-1.0673415915e-002
 6.3205400381e-001	 4.0509884888e+000	 1.1546840438e-001
 5.9416990498e-001	 4.0567181470e+000	 2.6349842379e-001
 5.5635110627e-001	 4.0620774791e+000	 3.5545148140e-001
 5.1860244810e-001	 4.0670691537e+000	 4.0290760846e-001
 4.8092869050e-001	 4.0716959114e+000	 4.1470255368e-001
 4.4333451216e-001	 4.0759605629e+000	 3.9900785234e-001
 4.0582450939e-001	 4.0798659865e+000	 3.6335695480e-001
 3.6840319536e-001	 4.0834151253e+000	 3.1467155293e-001
 7.5059759118e-001	 4.0561346447e+000	-8.8417706108e-003
 7.1231540806e-001	 4.0630323355e+000	-2.5721778747e-002
 6.7408383968e-001	 4.0695498494e+000	 4.5547864995e-002
 6.3590799164e-001	 4.0756896381e+000	 2.0516301921e-001
 5.9779289220e-001	 4.0814542332e+000	 3.5838612636e-001
 5.5974349106e-001	 4.0868462442e+000	 4.4341398434e-001
 5.2176465814e-001	 4.0918683558e+000	 4.8675218626e-001
 4.8386118252e-001	 4.0965233255e+000	 4.9688371058e-001
 4.4603777138e-001	 4.1008139810e+000	 4.8162220316e-001
 4.0829904908e-001	 4.1047432181e+000	 4.4813891922e-001
 3.7064955631e-001	 4.1083139980e+000	 4.0298985025e-001
 7.5514666749e-001	 4.0807172789e+000	-2.2227238627e-002
 7.1663247114e-001	 4.0876567739e+000	-1.5771448479e-003
 6.7816919628e-001	 4.0942137879e+000	 1.0290319324e-001
 6.3976197947e-001	 4.1003907874e+000	 2.9116188615e-001
 6.0141587943e-001	 4.1061903195e+000	 4.5644360951e-001
 5.6313587586e-001	 4.1116150094e+000	 5.3359928121e-001
 5.2492686819e-001	 4.1166675580e+000	 5.7204560345e-001
 4.8679367453e-001	 4.1213507395e+000	 5.7990807520e-001
 4.4874103060e-001	 4.1256673990e+000	 5.6463760229e-001
 4.1077358877e-001	 4.1296204497e+000	 5.3303826471e-001
 3.7289591725e-001	 4.1332128707e+000	 4.9129525549e-001
 7.5969574380e-001	 4.1052999131e+000	-2.5431059141e-002
 7.2094953422e-001	 4.1122812123e+000	 2.8160749889e-002
 6.8225455289e-001	 4.1188777264e+000	 1.6119647673e-001
 6.4361596729e-001	 4.1250919367e+000	 3.7337754626e-001
 6.0503886665e-001	 4.1309264058e+000	 5.5619399690e-001
 5.6652826065e-001	 4.1363837745e+000	 6.2471556880e-001
 5.2808907824e-001	 4.1414667601e+000	 6.5768214680e-001
 4.8972616655e-001	 4.1461781536e+000	 6.6285693634e-001
 4.5144428982e-001	 4.1505208171e+000	 6.4732314821e-001
 4.1324812847e-001	 4.1544976813e+000	 6.1751260300e-001
 3.7514227820e-001	 4.1581117435e+000	 5.7923449375e-001
 7.6424482012e-001	 4.1298825474e+000	-1.8865412978e-002
 7.2526659730e-001	 4.1369056507e+000	 6.3188426181e-002
 6.8633990949e-001	 4.1435416649e+000	 2.2023183639e-001
 6.4746995512e-001	 4.1497930861e+000	 4.5172057645e-001
 6.0866185388e-001	 4.1556624920e+000	 6.5615628076e-001
 5.6992064545e-001	 4.1611525396e+000	 7.1546475592e-001
 5.3125128829e-001	 4.1662659623e+000	 7.4254766999e-001
 4.9265865857e-001	 4.1710055677e+000	 7.4480101680e-001
 4.5414754904e-001	 4.1753742352e+000	 7.2893525344e-001
 4.1572266816e-001	 4.1793749130e+000	 7.0100475361e-001
 3.7738863915e-001	 4.1830106162e+000	 6.6643740602e-001
 7.6879389643e-001	 4.1544651816e+000	-2.9380230564e-003
 7.2958366038e-001	 4.1615300891e+000	 1.0320473304e-001
 6.9042526610e-001	 4.1682056034e+000	 2.7981359987e-001
 6.5132394295e-001	 4.1744942354e+000	 5.2609964761e-001
 6.1228484111e-001	 4.1803985783e+000	 7.5484544417e-001
 5.7331303024e-001	 4.1859213047e+000	 8.0454264945e-001
 5.3441349835e-001	 4.1910651645e+000	 8.2551984309e-001
 4.9559115059e-001	 4.1958329818e+000	 8.2480078603e-001
 4.5685080827e-001	 4.2002276532e+000	 8.0871801989e-001
 4.1819720786e-001	 4.2042521446e+000	 7.8294318145e-001
 3.7963500011e-001	 4.2079094889e+000	 7.5251744865e-001
 7.7334297274e-001	 4.1790478158e+000	 2.1947714497e-002
 7.3390072346e-001	 4.1861545275e+000	 1.4791077930e-001
 6.9451062271e-001	 4.1928695419e+000	 3.3974629543e-001
 6.5517793079e-001	 4.1991953847e+000	 5.9642158063e-001
 6.1590782834e-001	 4.2051346646e+000	 8.5077257892e-001
 5.7670541504e-001	 4.2106900698e+000	 8.9063913377e-001
 5.3757570840e-001	 4.2158643666e+000	 9.0546839328e-001
 4.9852364261e-001	 4.2206603959e+000	 9.0190676163e-001
 4.5955406749e-001	 4.2250810713e+000	 8.8590360093e-001
 4.2067174755e-001	 4.2291293762e+000	 8.6274241906e-001
 3.8188136106e-001	 4.2328083616e+000	 8.3707217528e-001
 3.5941775158e-001	 3.9838196344e+000	-3.2285551950e-002
 3.2299999927e-001	 3.9869375466e+000	-1.1229405513e-001
 2.8667733226e-001	 3.9897137876e+000	-1.8720958131e-001
 2.5045390584e-001	 3.9921514051e+000	-2.5014688732e-001
 2.1433379153e-001	 3.9942535004e+000	-2.9473420416e-001
 1.7832097657e-001	 3.9960232268e+000	-3.1508974979e-001
 1.4241936352e-001	 3.9974637866e+000	-3.0579835935e-001
 1.0663276990e-001	 3.9985784289e+000	-2.6188828599e-001
 7.0964927926e-002	 3.9993704478e+000	-1.7880822257e-001
 3.5419484290e-002	 3.9998431794e+000	-5.2404591788e-002
 0.0000000000e+000	 4.0000000000e+000	 1.2110085089e-001
 3.6166411252e-001	 4.0087185072e+000	 5.2907783678e-002
 3.2501874926e-001	 4.0118559063e+000	-1.3607070998e-002
 2.8846906558e-001	 4.0146494988e+000	-7.5533598573e-002
 2.5201924275e-001	 4.0171023514e+000	-1.2630980671e-001
 2.1567337773e-001	 4.0192175848e+000	-1.5988746374e-001
 1.7943548268e-001	 4.0209983720e+000	-1.7070796086e-001
 1.4330948454e-001	 4.0224479352e+000	-1.5367831017e-001
 1.0729922471e-001	 4.0235695441e+000	-1.0414733270e-001
 7.1408458726e-002	 4.0243665131e+000	-1.7882087525e-002
 3.5640856066e-002	 4.0248421993e+000	 1.0895541003e-001
 0.0000000000e+000	 4.0250000000e+000	 2.7983113598e-001
 3.6391047346e-001	 4.0336173799e+000	 1.3932183413e-001
 3.2703749926e-001	 4.0367742659e+000	 8.6062114525e-002
 2.9026079891e-001	 4.0395852100e+000	 3.7032598865e-002
 2.5358457966e-001	 4.0420532976e+000	-1.5331991355e-003
 2.1701296393e-001	 4.0441816692e+000	-2.3915888483e-002
 1.8054998878e-001	 4.0459735172e+000	-2.4885401814e-002
 1.4419960556e-001	 4.0474320839e+000	 3.2364904264e-004
 1.0796567952e-001	 4.0485606593e+000	 5.6036407938e-002
 7.1851989525e-002	 4.0493625784e+000	 1.4616194786e-001
 3.5862227843e-002	 4.0498412192e+000	 2.7421713421e-001
 0.0000000000e+000	 4.0500000000e+000	 4.4335013227e-001
 3.6615683441e-001	 4.0585162526e+000	 2.2667623634e-001
 3.2905624925e-001	 4.0616926256e+000	 1.8662207186e-001
 2.9205253223e-001	 4.0645209211e+000	 1.5058674932e-001
 2.5514991657e-001	 4.0670042439e+000	 1.2446997662e-001
 2.1835255012e-001	 4.0691457536e+000	 1.1365690243e-001
 1.8166449488e-001	 4.0709486623e+000	 1.2304358712e-001
 1.4508972659e-001	 4.0724162326e+000	 1.5706230023e-001
 1.0863213434e-001	 4.0735517745e+000	 2.1970658838e-001
 7.2295520325e-002	 4.0743586437e+000	 3.1455606127e-001
 3.6083599620e-002	 4.0748402391e+000	 4.4480084616e-001
 0.0000000000e+000	 4.0750000000e+000	 6.1326566465e-001
 3.6840319536e-001	 4.0834151253e+000	 3.1467155293e-001
 3.3107499925e-001	 4.0866109853e+000	 2.8796018613e-001
 2.9384426556e-001	 4.0894566323e+000	 2.6520331478e-001
 2.5671525349e-001	 4.0919551902e+000	 2.5196141508e-001
 2.1969213632e-001	 4.0941098380e+000	 2.5327989390e-001
 1.8277900099e-001	 4.0959238075e+000	 2.7371524241e-001
 1.4597984761e-001	 4.0974003812e+000	 3.1736099698e-001
 1.0929858915e-001	 4.0985428897e+000	 3.8787345049e-001
 7.2739051125e-002	 4.0993547090e+000	 4.8849706091e-001
 3.6304971397e-002	 4.0998392589e+000	 6.2208950677e-001
 0.0000000000e+000	 4.1000000000e+000	 7.9114634274e-001
 3.7064955631e-001	 4.1083139980e+000	 4.0298985025e-001
 3.3309374924e-001	 4.1115293449e+000	 3.8994329912e-001
 2.9563599889e-001	 4.1143923435e+000	 3.8093418625e-001
 2.5828059040e-001	 4.1169061365e+000	 3.8117823212e-001
 2.2103172252e-001	 4.1190739223e+000	 3.9537550513e-001
 1.8389350709e-001	 4.1208989527e+000	 4.2773726883e-001
 1.4686996863e-001	 4.1223845299e+000	 4.8201261682e-001
 1.0996504396e-001	 4.1235340048e+000	 5.6151483791e-001
 7.3182581926e-002	 4.1243507743e+000	 6.6914745728e-001
 3.6526343175e-002	 4.1248382788e+000	 8.0742990286e-001
 0.0000000000e+000	 4.1250000000e+000	 9.7852274929e-001
 3.7289591725e-001	 4.1332128707e+000	 4.9129525549e-001
 3.3511249924e-001	 4.1364477046e+000	 4.9241832804e-001
 2.9742773222e-001	 4.1393280547e+000	 4.9780936361e-001
 2.5984592731e-001	 4.1418570828e+000	 5.1233370529e-001
 2.2237130872e-001	 4.1440380067e+000	 5.4034038976e-001
 1.8500801320e-001	 4.1458740978e+000	 5.8568969884e-001
 1.4776008966e-001	 4.1473686786e+000	 6.5178047927e-001
 1.1063149878e-001	 4.1485251200e+000	 7.4157717199e-001
 7.3626112727e-002	 4.1493468396e+000	 8.5763649626e-001
 3.6747714952e-002	 4.1498372987e+000	 1.0021337367e+000
 0.0000000000e+000	 4.1500000000e+000	 1.1768885855e+000
 3.7514227820e-001	 4.1581117435e+000	 5.7923449375e-001
 3.3713124924e-001	 4.1613660643e+000	 5.9521286212e-001
 2.9921946555e-001	 4.1642637658e+000	 6.1583761103e-001
 2.6141126423e-001	 4.1668080290e+000	 6.4561798759e-001
 2.2371089492e-001	 4.1690020911e+000	 6.8854620730e-001
 1.8612251931e-001	 4.1708492430e+000	 7.4812572112e-001
 1.4865021068e-001	 4.1723528272e+000	 8.2739923071e-001
 1.1129795359e-001	 4.1735162352e+000	 9.2897639252e-001
 7.4069643528e-002	 4.1743429049e+000	 1.0550611550e+000
 3.6969086730e-002	 4.1748363185e+000	 1.2074786767e+000
 0.0000000000e+000	 4.1750000000e+000	 1.3877017754e+000
 3.7738863915e-001	 4.1830106162e+000	 6.6643740602e-001
 3.3914999924e-001	 4.1862844239e+000	 6.9813573780e-001
 3.0101119888e-001	 4.1891994770e+000	 7.3500708899e-001
 2.6297660114e-001	 4.1917589753e+000	 7.8119879561e-001
 2.2505048112e-001	 4.1939661755e+000	 8.4034036702e-001
 1.8723702541e-001	 4.1958243882e+000	 9.1557247947e-001
 1.4954033171e-001	 4.1973369759e+000	 1.0095756978e+000
 1.1196440840e-001	 4.1985073504e+000	 1.1245988650e+000
 7.4513174330e-002	 4.1993389702e+000	 1.2624871025e+000
 3.7190458508e-002	 4.1998353384e+000	 1.4247093697e+000
 0.0000000000e+000	 4.2000000000e+000	 1.6123855304e+000
 3.7963500011e-001	 4.2079094889e+000	 7.5251744865e-001
 3.4116874924e-001	 4.2112027836e+000	 8.0097759356e-001
 3.0280293221e-001	 4.2141351882e+000	 8.5528596385e-001
 2.6454193806e-001	 4.2167099216e+000	 9.1922207342e-001
 2.2639006732e-001	 4.2189302598e+000	 9.9604674539e-001
 1.8835153152e-001	 4.2207995333e+000	 1.0885318434e+000
 1.5043045273e-001	 4.2223211246e+000	 1.1989897106e+000
 1.1263086322e-001	 4.2234984656e+000	 1.3293022554e+000
 7.4956705132e-002	 4.2243350355e+000	 1.4809496256e+000
 3.7411830286e-002	 4.2248343583e+000	 1.6550384188e+000
 0.0000000000e+000	 4.2250000000e+000	 1.8523293766e+000
 3.8188136106e-001	 4.2328083616e+000	 8.3707217528e-001
 3.4318749924e-001	 4.2361211433e+000	 9.0351140515e-001
 3.0459466554e-001	 4.2390708994e+000	 9.7662299592e-001
 2.6610727498e-001	 4.2416608679e+000	 1.0598126329e+000
 2.2772965353e-001	 4.2438943442e+000	 1.1559663782e+000
 1.8946603763e-001	 4.2457746785e+000	 1.2674811514e+000
 1.5132057376e-001	 4.2473052732e+000	 1.3962948965e+000
 1.1329731804e-001	 4.2484895807e+000	 1.5439163745e+000
 7.5400235934e-002	 4.2493311008e+000	 1.7114545227e+000
 3.7633202065e-002	 4.2498333782e+000	 1.8996473252e+000
 0.0000000000e+000	 4.2500000000e+000	 2.1088901451e+000
 4.2500000000e+000	 0.0000000000e+000	 2.0787717937e-001
 4.2498333782e+000	 3.7633202065e-002	 2.2226253452e-001
 4.2493311008e+000	 7.5400235934e-002	 2.3706380372e-001
 4.2484895807e+000	 1.1329731804e-001	 2.5074827696e-001
 4.2473052732e+000	 1.5132057376e-001	 2.6214782529e-001
 4.2457746785e+000	 1.8946603763e-001	 2.7047502419e-001
 4.2438943442e+000	 2.2772965353e-001	 2.7533904527e-001
 4.2416608679e+000	 2.6610727498e-001	 2.7676127122e-001
 4.2390708994e+000	 3.0459466554e-001	 2.7519058805e-001
 4.2361211433e+000	 3.4318749924e-001	 2.7151830756e-001
 4.2328083616e+000	 3.8188136106e-001	 2.6709267235e-001
 4.2750000000e+000	 0.0000000000e+000	 4.5450864568e-001
 4.2748323980e+000	 3.7854573843e-002	 4.6991920209e-001
 4.2743271661e+000	 7.5843766737e-002	 4.8430965957e-001
 4.2734806959e+000	 1.1396377285e-001	 4.9608867336e-001
 4.2722894219e+000	 1.5221069479e-001	 5.0403556399e-001
 4.2707498237e+000	 1.9058054374e-001	 5.0731673603e-001
 4.2688584286e+000	 2.2906923973e-001	 5.0550186176e-001
 4.2666118142e+000	 2.6767261190e-001	 4.9857978401e-001
 4.2640066105e+000	 3.0638639888e-001	 4.8697409125e-001
 4.2610395029e+000	 3.4520624924e-001	 4.7155831720e-001
 4.2577072343e+000	 3.8412772201e-001	 4.5367071624e-001
 4.3000000000e+000	 0.0000000000e+000	 6.9658581746e-001
 4.2998314179e+000	 3.8075945621e-002	 7.1427421191e-001
 4.2993232314e+000	 7.6287297539e-002	 7.2937262144e-001
 4.2984718111e+000	 1.1463022767e-001	 7.4022878186e-001
 4.2972735706e+000	 1.5310081581e-001	 7.4556729437e-001
 4.2957249688e+000	 1.9169504985e-001	 7.4450634542e-001
 4.2938225130e+000	 2.3040882593e-001	 7.3657418803e-001
 4.2915627605e+000	 2.6923794881e-001	 7.2172533810e-001
 4.2889423217e+000	 3.0817813221e-001	 7.0035643789e-001
 4.2859578626e+000	 3.4722499924e-001	 6.7332173821e-001
 4.2826061070e+000	 3.8637408296e-001	 6.4194814965e-001
 4.3250000000e+000	 0.0000000000e+000	 9.3399155395e-001
 4.3248304378e+000	 3.8297317399e-002	 9.5522270815e-001
 4.3243192967e+000	 7.6730828340e-002	 9.7215969343e-001
 4.3234629263e+000	 1.1529668248e-001	 9.8308702995e-001
 4.3222577192e+000	 1.5399093684e-001	 9.8667241984e-001
 4.3207001140e+000	 1.9280955596e-001	 9.8198377384e-001
 4.3187865974e+000	 2.3174841213e-001	 9.6850599594e-001
 4.3165137067e+000	 2.7080328573e-001	 9.4615747876e-001
 4.3138780329e+000	 3.0996986554e-001	 9.1530626108e-001
 4.3108762223e+000	 3.4924374924e-001	 8.7678579799e-001
 4.3075049798e+000	 3.8862044392e-001	 8.3191029350e-001
 4.3500000000e+000	 0.0000000000e+000	 1.1666114073e+000
 4.3498294576e+000	 3.8518689177e-002	 1.1926625297e+000
 4.3493153620e+000	 7.7174359142e-002	 1.2125805641e+000
 4.3484540415e+000	 1.1596313730e-001	 1.2245845073e+000
 4.3472418679e+000	 1.5488105786e-001	 1.2272829714e+000
 4.3456752592e+000	 1.9392406206e-001	 1.2196915233e+000
 4.3437506817e+000	 2.3308799833e-001	 1.2012497783e+000
 4.3414646530e+000	 2.7236862265e-001	 1.1718382001e+000
 4.3388137440e+000	 3.1176159887e-001	 1.1317945579e+000
 4.3357945819e+000	 3.5126249924e-001	 1.0819299904e+000
 4.3324038525e+000	 3.9086680487e-001	 1.0235446246e+000
 4.3750000000e+000	 0.0000000000e+000	 1.3943335456e+000
 4.3748284775e+000	 3.8740060954e-002	 1.4264941332e+000
 4.3743114273e+000	 7.7617889943e-002	 1.4505475299e+000
 4.3734451567e+000	 1.1662959211e-001	 1.4646448895e+000
 4.3722260166e+000	 1.5577117889e-001	 1.4673335323e+000
 4.3706504043e+000	 1.9503856817e-001	 1.4575746026e+000
 4.3687147661e+000	 2.3442758453e-001	 1.4347604770e+000
 4.3664155993e+000	 2.7393395956e-001	 1.3987318752e+000
 4.3637494552e+000	 3.1355333220e-001	 1.3497946221e+000
 4.3607129416e+000	 3.5328124924e-001	 1.2887360108e+000
 4.3573027252e+000	 3.9311316582e-001	 1.2168407140e+000
 4.4000000000e+000	 0.0000000000e+000	 1.1485282157e+000
 4.3998274974e+000	 3.8961432732e-002	 1.1728948718e+000
 4.3993074926e+000	 7.8061420743e-002	 1.1979389701e+000
 4.3984362718e+000	 1.1729604692e-001	 1.2222589921e+000
 4.3972101652e+000	 1.5666129991e-001	 1.2445379989e+000
 4.3956255495e+000	 1.9615307428e-001	 1.2635481031e+000
 4.3936788505e+000	 2.3576717073e-001	 1.2781548822e+000
 4.3913665456e+000	 2.7549929647e-001	 1.2873217219e+000
 4.3886851664e+000	 3.1534506553e-001	 1.2901140770e+000
 4.3856313013e+000	 3.5529999924e-001	 1.2857036383e+000
 4.3822015979e+000	 3.9535952677e-001	 1.2733723919e+000
 4.4250000000e+000	 0.0000000000e+000	 9.0841207304e-001
 4.4248265173e+000	 3.9182804509e-002	 9.2197022521e-001
 4.4243035579e+000	 7.8504951544e-002	 9.3773998621e-001
 4.4234273870e+000	 1.1796250174e-001	 9.5432334704e-001
 4.4221943139e+000	 1.5755142094e-001	 9.7040736418e-001
 4.4206006947e+000	 1.9726758038e-001	 9.8476865732e-001
 4.4186429349e+000	 2.3710675693e-001	 9.9627784762e-001
 4.4163174919e+000	 2.7706463339e-001	 1.0039039244e+000
 4.4136208776e+000	 3.1713679886e-001	 1.0067185285e+000
 4.4105496609e+000	 3.5731874924e-001	 1.0039001388e+000
 4.4071004706e+000	 3.9760588772e-001	 9.9473815133e-001
 4.4500000000e+000	 0.0000000000e+000	 6.7388069749e-001
 4.4498255371e+000	 3.9404176286e-002	 6.7699116940e-001
 4.4492996232e+000	 7.8948482344e-002	 6.8379463579e-001
 4.4484185022e+000	 1.1862895655e-001	 6.9289594031e-001
 4.4471784626e+000	 1.5844154196e-001	 7.0298551685e-001
 4.4455758398e+000	 1.9838208649e-001	 7.1284391478e-001
 4.4436070192e+000	 2.3844634313e-001	 7.2134626349e-001
 4.4412684381e+000	 2.7862997030e-001	 7.2746666418e-001
 4.4385565887e+000	 3.1892853219e-001	 7.3028249650e-001
 4.4354680206e+000	 3.5933749924e-001	 7.2897862753e-001
 4.4319993433e+000	 3.9985224867e-001	 7.2285151044e-001
 4.4750000000e+000	 0.0000000000e+000	 4.4483200251e-001
 4.4748245570e+000	 3.9625548063e-002	 4.3785534316e-001
 4.4742956885e+000	 7.9392013143e-002	 4.3600049528e-001
 4.4734096174e+000	 1.1929541136e-001	 4.3787450084e-001
 4.4721626112e+000	 1.5933166298e-001	 4.4217055579e-001
 4.4705509850e+000	 1.9949659259e-001	 4.4767256433e-001
 4.4685711036e+000	 2.3978592933e-001	 4.5325963134e-001
 4.4662193844e+000	 2.8019530721e-001	 4.5791048066e-001
 4.4634922999e+000	 3.2072026552e-001	 4.6070778678e-001
 4.4603863803e+000	 3.6135624923e-001	 4.6084240728e-001
 4.4568982160e+000	 4.0209860962e-001	 4.5761750310e-001
 4.5000000000e+000	 0.0000000000e+000	 2.2116617013e-001
 4.4998235769e+000	 3.9846919840e-002	 2.0446265541e-001
 4.4992917538e+000	 7.9835543943e-002	 1.9425740265e-001
 4.4984007326e+000	 1.1996186617e-001	 1.8915900028e-001
 4.4971467599e+000	 1.6022178400e-001	 1.8786279340e-001
 4.4955261302e+000	 2.0061109869e-001	 1.8915546875e-001
 4.4935351880e+000	 2.4112551553e-001	 1.9191957646e-001
 4.4911703307e+000	 2.8176064413e-001	 1.9513797645e-001
 4.4884280111e+000	 3.2251199884e-001	 1.9789819666e-001
 4.4853047399e+000	 3.6337499923e-001	 1.9939669033e-001
 4.4817970888e+000	 4.0434497057e-001	 1.9894297936e-001
 4.2328083616e+000	 3.8188136106e-001	 2.6709267235e-001
 4.2291293762e+000	 4.2067174755e-001	 2.6904454053e-001
 4.2250810713e+000	 4.5955406749e-001	 2.7441451218e-001
 4.2206603959e+000	 4.9852364261e-001	 2.8600919760e-001
 4.2158643666e+000	 5.3757570840e-001	 3.0714542745e-001
 4.2106900698e+000	 5.7670541504e-001	 3.4166193889e-001
 4.2051346646e+000	 6.1590782834e-001	 3.9393034620e-001
 4.1991953847e+000	 6.5517793079e-001	 4.6463698543e-001
 4.1928695419e+000	 6.9451062271e-001	 5.0843369305e-001
 4.1861545275e+000	 7.3390072346e-001	 5.1948939724e-001
 4.1790478158e+000	 7.7334297274e-001	 4.9711474364e-001
 4.2577072343e+000	 3.8412772201e-001	 4.5367071624e-001
 4.2540066078e+000	 4.2314628725e-001	 4.4083543460e-001
 4.2499344894e+000	 4.6225732672e-001	 4.3035303231e-001
 4.2454878100e+000	 5.0145613463e-001	 4.2504652232e-001
 4.2406635688e+000	 5.4073791845e-001	 4.2825739442e-001
 4.2354588350e+000	 5.8009779984e-001	 4.4385751314e-001
 4.2298707508e+000	 6.1953081557e-001	 4.7626028869e-001
 4.2238965340e+000	 6.5903191862e-001	 5.2874797713e-001
 4.2175334803e+000	 6.9859597932e-001	 5.5794318659e-001
 4.2107789659e+000	 7.3821778655e-001	 5.6011189995e-001
 4.2036304500e+000	 7.7789204906e-001	 5.3454486513e-001
 4.2826061070e+000	 3.8637408296e-001	 6.4194814965e-001
 4.2788838395e+000	 4.2562082694e-001	 6.1405099011e-001
 4.2747879074e+000	 4.6496058594e-001	 5.8728277545e-001
 4.2703152241e+000	 5.0438862665e-001	 5.6448201062e-001
 4.2654627709e+000	 5.4390012851e-001	 5.4901410744e-001
 4.2602276001e+000	 5.8349018464e-001	 5.4478349927e-001
 4.2546068371e+000	 6.2315380280e-001	 5.5624501681e-001
 4.2485976834e+000	 6.6288590645e-001	 5.8998176056e-001
 4.2421974188e+000	 7.0268133592e-001	 6.0404468980e-001
 4.2354034043e+000	 7.4253484963e-001	 5.9680249173e-001
 4.2282130842e+000	 7.8244112537e-001	 5.6752554501e-001
 4.3075049798e+000	 3.8862044392e-001	 8.3191029350e-001
 4.3037610711e+000	 4.2809536664e-001	 7.8868586413e-001
 4.2996413255e+000	 4.6766384517e-001	 7.4520735822e-001
 4.2951426382e+000	 5.0732111866e-001	 7.0432785756e-001
 4.2902619731e+000	 5.4706233856e-001	 6.6943595522e-001
 4.2849963652e+000	 5.8688256944e-001	 6.4446809176e-001
 4.2793429233e+000	 6.2677679003e-001	 6.3495439595e-001
 4.2732988327e+000	 6.6673989428e-001	 6.4838289929e-001
 4.2668613573e+000	 7.0676669253e-001	 6.4680303456e-001
 4.2600278427e+000	 7.4685191271e-001	 6.2964741006e-001
 4.2527957184e+000	 7.8699020168e-001	 5.9616556070e-001
 4.3324038525e+000	 3.9086680487e-001	 1.0235446246e+000
 4.3286383027e+000	 4.3056990634e-001	 9.6473670580e-001
 4.3244947436e+000	 4.7036710439e-001	 9.0413220933e-001
 4.3199700523e+000	 5.1025361068e-001	 8.4459787408e-001
 4.3150611753e+000	 5.5022454861e-001	 7.8954472970e-001
 4.3097651303e+000	 5.9027495423e-001	 7.4294065923e-001
 4.3040790096e+000	 6.3039977725e-001	 7.1245343723e-001
 4.2979999820e+000	 6.7059388211e-001	 7.0399662327e-001
 4.2915252958e+000	 7.1085204914e-001	 6.8628344032e-001
 4.2846522811e+000	 7.5116897579e-001	 6.5873298458e-001
 4.2773783526e+000	 7.9153927800e-001	 6.2057346971e-001
 4.3573027252e+000	 3.9311316582e-001	 1.2168407140e+000
 4.3535155343e+000	 4.3304444603e-001	 1.1422020995e+000
 4.3493481616e+000	 4.7307036361e-001	 1.0640645179e+000
 4.3447974664e+000	 5.1318610270e-001	 9.8530744082e-001
 4.3398603774e+000	 5.5338675867e-001	 9.0936358594e-001
 4.3345338954e+000	 5.9366733903e-001	 8.4023171088e-001
 4.3288150959e+000	 6.3402276448e-001	 7.8769239908e-001
 4.3227011313e+000	 6.7444786994e-001	 7.5686880977e-001
 4.3161892343e+000	 7.1493740575e-001	 7.2255150306e-001
 4.3092767195e+000	 7.5548603887e-001	 6.8414563446e-001
 4.3019609868e+000	 7.9608835431e-001	 6.4085761587e-001
 4.3822015979e+000	 3.9535952677e-001	 1.2733723919e+000
 4.3783927660e+000	 4.3551898573e-001	 1.2587202177e+000
 4.3742015797e+000	 4.7577362284e-001	 1.2250131833e+000
 4.3696248805e+000	 5.1611859472e-001	 1.1264734635e+000
 4.3646595796e+000	 5.5654896872e-001	 1.0289170034e+000
 4.3593026605e+000	 5.9705972383e-001	 9.3637286411e-001
 4.3535511821e+000	 6.3764575171e-001	 8.6069942308e-001
 4.3474022807e+000	 6.7830185777e-001	 8.0704596500e-001
 4.3408531727e+000	 7.1902276235e-001	 7.5567318458e-001
 4.3339011579e+000	 7.5980310196e-001	 7.0597186586e-001
 4.3265436210e+000	 8.0063743062e-001	 6.5712613542e-001
 4.4071004706e+000	 3.9760588772e-001	 9.9473815133e-001
 4.4032699976e+000	 4.3799352542e-001	 9.8465568682e-001
 4.3990549978e+000	 4.7847688206e-001	 9.7158630960e-001
 4.3944522946e+000	 5.1905108674e-001	 9.5519045683e-001
 4.3894587817e+000	 5.5971117877e-001	 9.3525123506e-001
 4.3840714257e+000	 6.0045210862e-001	 9.1167768365e-001
 4.3782872684e+000	 6.4126873894e-001	 8.9366589374e-001
 4.3721034300e+000	 6.8215584560e-001	 8.5457520636e-001
 4.3655171112e+000	 7.2310811896e-001	 7.8571480216e-001
 4.3585255963e+000	 7.6412016504e-001	 7.2429826945e-001
 4.3511262553e+000	 8.0518650693e-001	 6.6948696289e-001
 4.4319993433e+000	 3.9985224867e-001	 7.2285151044e-001
 4.4281472292e+000	 4.4046806511e-001	 7.1705620745e-001
 4.4239084158e+000	 4.8118014128e-001	 7.1040696104e-001
 4.4192797087e+000	 5.2198357876e-001	 7.0257462625e-001
 4.4142579839e+000	 5.6287338882e-001	 6.9335295210e-001
 4.4088401908e+000	 6.0384449342e-001	 6.8266184262e-001
 4.4030233546e+000	 6.4489172617e-001	 6.8095532603e-001
 4.3968045793e+000	 6.8600983343e-001	 6.8622598558e-001
 4.3901810497e+000	 7.2719347556e-001	 6.8660141501e-001
 4.3831500347e+000	 7.6843722812e-001	 6.8237335502e-001
 4.3757088895e+000	 8.0973558324e-001	 6.7395286541e-001
 4.4568982160e+000	 4.0209860962e-001	 4.5761750310e-001
 4.4530244608e+000	 4.4294260481e-001	 4.5583030616e-001
 4.4487618339e+000	 4.8388340051e-001	 4.5525797443e-001
 4.4441071228e+000	 5.2491607077e-001	 4.5558155320e-001
 4.4390571860e+000	 5.6603559887e-001	 4.5660526319e-001
 4.4336089559e+000	 6.0723687822e-001	 4.5825976049e-001
 4.4277594409e+000	 6.4851471339e-001	 4.7201233834e-001
 4.4215057286e+000	 6.8986382126e-001	 4.9238553318e-001
 4.4148449882e+000	 7.3127883217e-001	 5.1016273630e-001
 4.4077744731e+000	 7.7275429120e-001	 5.2564198122e-001
 4.4002915237e+000	 8.1428465955e-001	 5.3924034268e-001
 4.4817970888e+000	 4.0434497057e-001	 1.9894297936e-001
 4.4779016925e+000	 4.4541714450e-001	 2.0088818780e-001
 4.4736152520e+000	 4.8658665973e-001	 2.0605325439e-001
 4.4689345369e+000	 5.2784856279e-001	 2.1412919052e-001
 4.4638563882e+000	 5.6919780892e-001	 2.2493052125e-001
 4.4583777210e+000	 6.1062926301e-001	 2.3839854550e-001
 4.4524955272e+000	 6.5213770062e-001	 2.6678953885e-001
 4.4462068779e+000	 6.9371780909e-001	 3.0168533112e-001
 4.4395089267e+000	 7.3536418877e-001	 3.3622452347e-001
 4.4323989115e+000	 7.7707135428e-001	 3.7071146668e-001
 4.4248741579e+000	 8.1883373586e-001	 4.0556933046e-001
 4.1790478158e+000	 7.7334297274e-001	 4.9711474364e-001
 4.1715469658e+000	 8.1283203195e-001	 4.5406926746e-001
 4.1636496242e+000	 8.5236248567e-001	 4.2004130955e-001
 4.1553535275e+000	 8.9192884318e-001	 3.9390409488e-001
 4.1466565047e+000	 9.3152554013e-001	 3.7432691960e-001
 4.1375564794e+000	 9.7114694021e-001	 3.5977395557e-001
 4.1280514725e+000	 1.0107873370e+000	 3.4850348664e-001
 4.1181396041e+000	 1.0504409556e+000	 3.3856758970e-001
 4.1078190963e+000	 1.0901019551e+000	 3.2781227317e-001
 4.0970882749e+000	 1.1297644301e+000	 3.1387808390e-001
 4.0859455723e+000	 1.1694224131e+000	 2.9420119322e-001
 4.2036304500e+000	 7.7789204906e-001	 5.3454486513e-001
 4.1960854774e+000	 8.1761339685e-001	 4.8549942275e-001
 4.1881416808e+000	 8.5737638264e-001	 4.4562735978e-001
 4.1797967836e+000	 8.9717548344e-001	 4.1375783558e-001
 4.1710486018e+000	 9.3700510214e-001	 3.8851274793e-001
 4.1618950470e+000	 9.7685956928e-001	 3.6830555227e-001
 4.1523341282e+000	 1.0167331448e+000	 3.5134052057e-001
 4.1423639547e+000	 1.0566200201e+000	 3.3561245322e-001
 4.1319827380e+000	 1.0965143196e+000	 3.1890685647e-001
 4.1211887942e+000	 1.1364101032e+000	 2.9880059688e-001
 4.1099805463e+000	 1.1763013684e+000	 2.7266304338e-001
 4.2282130842e+000	 7.8244112537e-001	 5.6752554501e-001
 4.2206239889e+000	 8.2239476175e-001	 5.1290058575e-001
 4.2126337374e+000	 8.6239027962e-001	 4.6767640829e-001
 4.2042400396e+000	 9.0242212370e-001	 4.3063764065e-001
 4.1954406989e+000	 9.4248466414e-001	 4.0035822973e-001
 4.1862336145e+000	 9.8257219834e-001	 3.7520027463e-001
 4.1766167839e+000	 1.0226789527e+000	 3.5331330759e-001
 4.1665883053e+000	 1.0627990845e+000	 3.3263403627e-001
 4.1561463797e+000	 1.1029266840e+000	 3.1088656001e-001
 4.1452893135e+000	 1.1430557764e+000	 2.8558307165e-001
 4.1340155202e+000	 1.1831803238e+000	 2.5402505564e-001
 4.2527957184e+000	 7.8699020168e-001	 5.9616556070e-001
 4.2451625005e+000	 8.2717612664e-001	 5.3638904054e-001
 4.2371257940e+000	 8.6740417660e-001	 4.8631222269e-001
 4.2286832957e+000	 9.0766876395e-001	 4.4467472963e-001
 4.2198327960e+000	 9.4796422615e-001	 4.1000199612e-001
 4.2105721820e+000	 9.8828482740e-001	 3.8060411585e-001
 4.2008994397e+000	 1.0286247606e+000	 3.5457514403e-001
 4.1908126559e+000	 1.0689781490e+000	 3.2979286968e-001
 4.1803100215e+000	 1.1093390485e+000	 3.0391907041e-001
 4.1693898327e+000	 1.1497014495e+000	 2.7440026156e-001
 4.1580504942e+000	 1.1900592792e+000	 2.3846895045e-001
 4.2773783526e+000	 7.9153927800e-001	 6.2057346971e-001
 4.2697010121e+000	 8.3195749154e-001	 5.5608089403e-001
 4.2616178507e+000	 8.7241807358e-001	 5.0165844590e-001
 4.2531265517e+000	 9.1291540421e-001	 4.5600025965e-001
 4.2442248931e+000	 9.5344378815e-001	 4.1758268784e-001
 4.2349107496e+000	 9.9399745647e-001	 3.8466316069e-001
 4.2251820954e+000	 1.0345705684e+000	 3.5527950968e-001
 4.2150370066e+000	 1.0751572134e+000	 3.2724976953e-001
 4.2044736632e+000	 1.1157514129e+000	 2.9817247134e-001
 4.1934903520e+000	 1.1563471226e+000	 2.6542743887e-001
 4.1820854681e+000	 1.1969382346e+000	 2.2617709904e-001
 4.3019609868e+000	 7.9608835431e-001	 6.4085761587e-001
 4.2942395236e+000	 8.3673885643e-001	 5.7209208103e-001
 4.2861099073e+000	 8.7743197055e-001	 5.1383859972e-001
 4.2775698078e+000	 9.1816204446e-001	 4.6474532716e-001
 4.2686169902e+000	 9.5892335015e-001	 4.2323895501e-001
 4.2592493171e+000	 9.9971008553e-001	 3.8752358285e-001
 4.2494647511e+000	 1.0405163763e+000	 3.5558006247e-001
 4.2392613572e+000	 1.0813362778e+000	 3.2516582900e-001
 4.2286373050e+000	 1.1221637773e+000	 2.9381523220e-001
 4.2175908713e+000	 1.1629927957e+000	 2.5884037993e-001
 4.2061204421e+000	 1.2038171899e+000	 2.1733250487e-001
 4.3265436210e+000	 8.0063743062e-001	 6.5712613542e-001
 4.3187780352e+000	 8.4152022133e-001	 5.8453836914e-001
 4.3106019639e+000	 8.8244586753e-001	 5.2297608827e-001
 4.3020130638e+000	 9.2340868472e-001	 4.7104096970e-001
 4.2930090873e+000	 9.6440291215e-001	 4.2710945681e-001
 4.2835878846e+000	 1.0054227146e+000	 3.8933164250e-001
 4.2737474068e+000	 1.0464621842e+000	 3.5563063351e-001
 4.2634857078e+000	 1.0875153423e+000	 3.2370241049e-001
 4.2528009467e+000	 1.1285761418e+000	 2.9101619716e-001
 4.2416913905e+000	 1.1696384688e+000	 2.5481535087e-001
 4.2301554161e+000	 1.2106961453e+000	 2.1211878567e-001
 4.3511262553e+000	 8.0518650693e-001	 6.6948696289e-001
 4.3433165468e+000	 8.4630158622e-001	 5.9353536346e-001
 4.3350940205e+000	 8.8745976450e-001	 5.2919420134e-001
 4.3264563199e+000	 9.2865532497e-001	 4.7501816754e-001
 4.3174011843e+000	 9.6988247415e-001	 4.2933286127e-001
 4.3079264521e+000	 1.0111353436e+000	 3.9023368375e-001
 4.2980300625e+000	 1.0524079920e+000	 3.5558522211e-001
 4.2877100584e+000	 1.0936944067e+000	 3.2302113803e-001
 4.2769645885e+000	 1.1349885062e+000	 2.8994457457e-001
 4.2657919098e+000	 1.1762841420e+000	 2.5352909374e-001
 4.2541903900e+000	 1.2175751007e+000	 2.1072015607e-001
 4.3757088895e+000	 8.0973558324e-001	 6.7395286541e-001
 4.3678550583e+000	 8.5108295112e-001	 5.9919851119e-001
 4.3595860771e+000	 8.9247366148e-001	 5.3261611755e-001
 4.3508995759e+000	 9.3390196523e-001	 4.7680784530e-001
 4.3417932814e+000	 9.7536203615e-001	 4.3004784502e-001
 4.3322650197e+000	 1.0168479727e+000	 3.9037613237e-001
 4.3223127183e+000	 1.0583537999e+000	 3.5559799111e-001
 4.3119344090e+000	 1.0998734712e+000	 3.2328388993e-001
 4.3011282302e+000	 1.1414008707e+000	 2.9076992673e-001
 4.2898924291e+000	 1.1829298151e+000	 2.5515881318e-001
 4.2782253640e+000	 1.2244540561e+000	 2.1332141084e-001
 4.4002915237e+000	 8.1428465955e-001	 5.3924034268e-001
 4.3923935699e+000	 8.5586431601e-001	 5.2107971123e-001
 4.3840781337e+000	 8.9748755845e-001	 4.9956264852e-001
 4.3753428319e+000	 9.3914860548e-001	 4.7552732275e-001
 4.3661853785e+000	 9.8084159815e-001	 4.2939309301e-001
 4.3566035872e+000	 1.0225606018e+000	 3.8990549345e-001
 4.3465953740e+000	 1.0642996077e+000	 3.5582326229e-001
 4.3361587596e+000	 1.1060525356e+000	 3.2465279165e-001
 4.3252918719e+000	 1.1478132351e+000	 2.9366215998e-001
 4.3139929483e+000	 1.1895754882e+000	 2.5988216345e-001
 4.3022603379e+000	 1.2313330114e+000	 2.2010790870e-001
 4.4248741579e+000	 8.1883373586e-001	 4.0556933046e-001
 4.4169320814e+000	 8.6064568090e-001	 4.1028836462e-001
 4.4085701903e+000	 9.0250145542e-001	 4.0899566930e-001
 4.3997860880e+000	 9.4439524573e-001	 4.0253550724e-001
 4.3905774756e+000	 9.8632116015e-001	 3.9188465749e-001
 4.3809421547e+000	 1.0282732308e+000	 3.7815353696e-001
 4.3708780297e+000	 1.0702454156e+000	 3.5641551194e-001
 4.3603831102e+000	 1.1122316001e+000	 3.2729020898e-001
 4.3494555137e+000	 1.1542255995e+000	 2.9879151521e-001
 4.3380934676e+000	 1.1962211613e+000	 2.6787723597e-001
 4.3262953119e+000	 1.2382119668e+000	 2.3126555663e-001
 4.0859455723e+000	 1.1694224131e+000	 2.9420119322e-001
 4.0743895290e+000	 1.2090698765e+000	 3.4872367604e-001
 4.0624187960e+000	 1.2487007353e+000	 3.9106516721e-001
 4.0500321369e+000	 1.2883088488e+000	 3.9388232670e-001
 4.0372284301e+000	 1.3278880237e+000	 3.8337891804e-001
 4.0240066701e+000	 1.3674320163e+000	 3.6116638925e-001
 4.0103659702e+000	 1.4069345349e+000	 3.2804117950e-001
 3.9963055637e+000	 1.4463892427e+000	 2.8486259820e-001
 3.9818248061e+000	 1.4857897608e+000	 2.3255198796e-001
 3.9669231766e+000	 1.5251296703e+000	 1.7209174044e-001
 3.9516002795e+000	 1.5644025157e+000	 1.0452416478e-001
 4.1099805463e+000	 1.1763013684e+000	 2.7266304338e-001
 4.0983565262e+000	 1.2161820523e+000	 3.2230255014e-001
 4.0863153771e+000	 1.2560460337e+000	 3.5876407256e-001
 4.0738558554e+000	 1.2958871362e+000	 3.6160289598e-001
 4.0609768326e+000	 1.3356991298e+000	 3.5276151629e-001
 4.0476772976e+000	 1.3754757340e+000	 3.3298757825e-001
 4.0339563582e+000	 1.4152106204e+000	 3.0309238728e-001
 4.0198132435e+000	 1.4548974148e+000	 2.6395018827e-001
 4.0052473050e+000	 1.4945297006e+000	 2.1649729668e-001
 3.9902580188e+000	 1.5341010213e+000	 1.6173108096e-001
 3.9748449870e+000	 1.5736048834e+000	 1.0070879612e-001
 4.1340155202e+000	 1.1831803238e+000	 2.5402505564e-001
 4.1223235234e+000	 1.2232942280e+000	 2.9930206793e-001
 4.1102119583e+000	 1.2633913321e+000	 3.2981673463e-001
 4.0976795738e+000	 1.3034654235e+000	 3.3315795421e-001
 4.0847252351e+000	 1.3435102358e+000	 3.2555542801e-001
 4.0713479250e+000	 1.3835194518e+000	 3.0777191316e-001
 4.0575467463e+000	 1.4234867059e+000	 2.8063395491e-001
 4.0433209233e+000	 1.4634055868e+000	 2.4503113490e-001
 4.0286698039e+000	 1.5032696403e+000	 2.0191517017e-001
 4.0135928610e+000	 1.5430723723e+000	 1.5229886196e-001
 3.9980896946e+000	 1.5828072511e+000	 9.7254894048e-002
 4.1580504942e+000	 1.1900592792e+000	 2.3846895045e-001
 4.1462905207e+000	 1.2304064038e+000	 2.7992093191e-001
 4.1341085394e+000	 1.2707366306e+000	 3.0503337577e-001
 4.1215032923e+000	 1.3110437108e+000	 3.0848046013e-001
 4.1084736377e+000	 1.3513213418e+000	 3.0169509730e-001
 4.0950185525e+000	 1.3915631695e+000	 2.8545550511e-001
 4.0811371344e+000	 1.4317627914e+000	 2.6060384476e-001
 4.0668286031e+000	 1.4719137588e+000	 2.2804543845e-001
 4.0520923027e+000	 1.5120095801e+000	 1.8874783607e-001
 4.0369277032e+000	 1.5520437233e+000	 1.4373973004e-001
 4.0213344021e+000	 1.5920096189e+000	 9.4109718217e-002
 4.1820854681e+000	 1.1969382346e+000	 2.2617709904e-001
 4.1702575179e+000	 1.2375185795e+000	 2.6435840455e-001
 4.1580051206e+000	 1.2780819290e+000	 2.8434611165e-001
 4.1453270108e+000	 1.3186219982e+000	 2.8750373292e-001
 4.1322220402e+000	 1.3591324478e+000	 2.8111521993e-001
 4.1186891800e+000	 1.3996068873e+000	 2.6597460209e-001
 4.1047275224e+000	 1.4400388769e+000	 2.4294003529e-001
 4.0903362829e+000	 1.4804219308e+000	 2.1293298866e-001
 4.0755148016e+000	 1.5207495199e+000	 1.7693727865e-001
 4.0602625455e+000	 1.5610150743e+000	 1.3599794981e-001
 4.0445791096e+000	 1.6012119866e+000	 9.1220001775e-002
 4.2061204421e+000	 1.2038171899e+000	 2.1733250487e-001
 4.1942245151e+000	 1.2446307552e+000	 2.5281429240e-001
 4.1819017017e+000	 1.2854272275e+000	 2.6768750792e-001
 4.1691507292e+000	 1.3262002855e+000	 2.7016144189e-001
 4.1559704427e+000	 1.3669435539e+000	 2.6375073608e-001
 4.1423598075e+000	 1.4076506050e+000	 2.4926558502e-001
 4.1283179105e+000	 1.4483149624e+000	 2.2758052060e-001
 4.1138439627e+000	 1.4889301028e+000	 1.9963356774e-001
 4.0989373005e+000	 1.5294894596e+000	 1.6642524580e-001
 4.0835973877e+000	 1.5699864253e+000	 1.2901741481e-001
 4.0678238172e+000	 1.6104143544e+000	 8.8531966409e-002
 4.2301554161e+000	 1.2106961453e+000	 2.1211878567e-001
 4.2181915124e+000	 1.2517429310e+000	 2.4458431666e-001
 4.2057982829e+000	 1.2927725259e+000	 2.5499056745e-001
 4.1929744477e+000	 1.3337785729e+000	 2.5638759654e-001
 4.1797188453e+000	 1.3747546599e+000	 2.4953682346e-001
 4.1660304349e+000	 1.4156943227e+000	 2.3526496402e-001
 4.1519082985e+000	 1.4565910479e+000	 2.1446330996e-001
 4.1373516424e+000	 1.4974382748e+000	 1.8808685350e-001
 4.1223597993e+000	 1.5382293994e+000	 1.5715325573e-001
 4.1069322299e+000	 1.5789577763e+000	 1.2274165809e-001
 4.0910685247e+000	 1.6196167221e+000	 8.5991336873e-002
 4.2541903900e+000	 1.2175751007e+000	 2.1072015607e-001
 4.2421585096e+000	 1.2588551067e+000	 2.3784742995e-001
 4.2296948641e+000	 1.3001178244e+000	 2.4618871794e-001
 4.2167981661e+000	 1.3413568602e+000	 2.4611653694e-001
 4.2034672478e+000	 1.3825657659e+000	 2.3840889057e-001
 4.1897010624e+000	 1.4237380405e+000	 2.2390937468e-001
 4.1754986866e+000	 1.4648671334e+000	 2.0352642737e-001
 4.1608593222e+000	 1.5059464469e+000	 1.7823242224e-001
 4.1457822982e+000	 1.5469693392e+000	 1.4906260346e-001
 4.1302670721e+000	 1.5879291273e+000	 1.1711386235e-001
 4.1143132322e+000	 1.6288190898e+000	 8.3543355028e-002
 4.2782253640e+000	 1.2244540561e+000	 2.1332141084e-001
 4.2661255068e+000	 1.2659672825e+000	 2.3530627577e-001
 4.2535914452e+000	 1.3074631228e+000	 2.4121580005e-001
 4.2406218846e+000	 1.3489351476e+000	 2.3928292445e-001
 4.2272156503e+000	 1.3903768719e+000	 2.3030257023e-001
 4.2133716899e+000	 1.4317817582e+000	 2.1513557462e-001
 4.1990890747e+000	 1.4731432189e+000	 1.9470791122e-001
 4.1843670020e+000	 1.5144546189e+000	 1.7000975162e-001
 4.1692047970e+000	 1.5557092789e+000	 1.4209436709e-001
 4.1536019143e+000	 1.5969004783e+000	 1.1207686981e-001
 4.1375579397e+000	 1.6380214576e+000	 8.1132793403e-002
 4.3022603379e+000	 1.2313330114e+000	 2.2010790870e-001
 4.2900925040e+000	 1.2730794582e+000	 2.3689450739e-001
 4.2774880264e+000	 1.3148084213e+000	 2.4000605578e-001
 4.2644456030e+000	 1.3565134349e+000	 2.3582173274e-001
 4.2509640528e+000	 1.3981879779e+000	 2.2515371328e-001
 4.2370423173e+000	 1.4398254760e+000	 2.0888044002e-001
 4.2226794627e+000	 1.4814193044e+000	 1.8794581378e-001
 4.2078746818e+000	 1.5229627909e+000	 1.6335822342e-001
 4.1926272959e+000	 1.5644492187e+000	 1.3618941386e-001
 4.1769367565e+000	 1.6058718293e+000	 1.0757319169e-001
 4.1608026473e+000	 1.6472238253e+000	 7.8703968308e-002
 4.3262953119e+000	 1.2382119668e+000	 2.3126555663e-001
 4.3140595013e+000	 1.2801916340e+000	 2.4254624986e-001
 4.3013846075e+000	 1.3221537197e+000	 2.4249411741e-001
 4.2882693215e+000	 1.3640917223e+000	 2.3566823913e-001
 4.2747124554e+000	 1.4059990840e+000	 2.2289838256e-001
 4.2607129448e+000	 1.4478691937e+000	 2.0508096236e-001
 4.2462698508e+000	 1.4896953899e+000	 1.8317820091e-001
 4.2313823616e+000	 1.5314709629e+000	 1.5821712623e-001
 4.2160497947e+000	 1.5731891585e+000	 1.3128840602e-001
 4.2002715988e+000	 1.6148431803e+000	 1.0354501746e-001
 4.1840473548e+000	 1.6564261930e+000	 7.6200752507e-002
 3.9516002795e+000	 1.5644025157e+000	 1.0452416478e-001
 3.9358558462e+000	 1.6036018077e+000	 3.8285552774e-002
 3.9196897364e+000	 1.6427210263e+000	-1.8686766867e-002
 3.9031019395e+000	 1.6817536235e+000	-6.5166838631e-002
 3.8860925758e+000	 1.7206930268e+000	-9.9887435456e-002
 3.8686618980e+000	 1.7595326423e+000	-1.2154208453e-001
 3.8508102920e+000	 1.7982658577e+000	-1.2878722037e-001
 3.8325382783e+000	 1.8368860459e+000	-1.2024446216e-001
 3.8138465125e+000	 1.8753865680e+000	-9.5034888731e-002
 3.7947357865e+000	 1.9137607768e+000	-1.0923449513e-001
 3.7752070290e+000	 1.9520020205e+000	-1.1540811536e-001
 3.9748449870e+000	 1.5736048834e+000	 1.0070879612e-001
 3.9590079395e+000	 1.6130347595e+000	 4.0104087082e-002
 3.9427467349e+000	 1.6523840911e+000	-1.2127283421e-002
 3.9260613627e+000	 1.6916462918e+000	-5.4730215811e-002
 3.9089519439e+000	 1.7308147505e+000	-8.6406749818e-002
 3.8914187326e+000	 1.7698828343e+000	-1.0581812542e-001
 3.8734621172e+000	 1.8088438922e+000	-1.1158697441e-001
 3.8550826211e+000	 1.8476912579e+000	-1.0229963944e-001
 3.8362809037e+000	 1.8864182537e+000	-9.2031658639e-002
 3.8170577617e+000	 1.9250181932e+000	-1.0799389210e-001
 3.7974141292e+000	 1.9634843853e+000	-1.1644892619e-001
 3.9980896946e+000	 1.5828072511e+000	 9.7254894048e-002
 3.9821600327e+000	 1.6224677113e+000	 4.2158050852e-002
 3.9658037333e+000	 1.6620471560e+000	-5.4586046588e-003
 3.9490207858e+000	 1.7015389602e+000	-4.4310358414e-002
 3.9318113120e+000	 1.7409364742e+000	-7.3068035444e-002
 3.9141755673e+000	 1.7802330263e+000	-9.0360096589e-002
 3.8961139425e+000	 1.8194219267e+000	-9.4774869163e-002
 3.8776269639e+000	 1.8584964700e+000	-8.4862908476e-002
 3.8587152950e+000	 1.8974499394e+000	-8.9227428979e-002
 3.8393797369e+000	 1.9362756095e+000	-1.0685322368e-001
 3.8196212294e+000	 1.9749667502e+000	-1.1748316539e-001
 4.0213344021e+000	 1.5920096189e+000	 9.4109718217e-002
 4.0053121259e+000	 1.6319006631e+000	 4.4389479581e-002
 3.9888607318e+000	 1.6717102208e+000	 1.2559048398e-003
 3.9719802090e+000	 1.7114316286e+000	-3.3976203194e-002
 3.9546706801e+000	 1.7510581979e+000	-5.9945969354e-002
 3.9369324020e+000	 1.7905832183e+000	-7.5248579219e-002
 3.9187657677e+000	 1.8299999611e+000	-7.8437549552e-002
 3.9001713067e+000	 1.8693016820e+000	-6.8027132945e-002
 3.8811496862e+000	 1.9084816251e+000	-8.6626501643e-002
 3.8617017121e+000	 1.9475330258e+000	-1.0581942698e-001
 3.8418283295e+000	 1.9864491150e+000	-1.1852051764e-001
 4.0445791096e+000	 1.6012119866e+000	 9.1220001775e-002
 4.0284642191e+000	 1.6413336149e+000	 4.6739916527e-002
 4.0119177302e+000	 1.6813732857e+000	 7.9524252896e-003
 3.9949396322e+000	 1.7213242970e+000	-2.3797102310e-002
 3.9775300482e+000	 1.7611799216e+000	-4.7115601413e-002
 3.9596892367e+000	 1.8009334104e+000	-6.0564482039e-002
 3.9414175930e+000	 1.8405779956e+000	-6.2661939962e-002
 3.9227156495e+000	 1.8801068940e+000	-5.7870045251e-002
 3.9035840775e+000	 1.9195133107e+000	-8.4233353606e-002
 3.8840236873e+000	 1.9587904422e+000	-1.0489955795e-001
 3.8640354297e+000	 1.9979314798e+000	-1.1957072738e-001
 4.0678238172e+000	 1.6104143544e+000	 8.8531966409e-002
 4.0516163123e+000	 1.6507665667e+000	 4.9150426775e-002
 4.0349747287e+000	 1.6910363506e+000	 1.4566694706e-002
 4.0178990554e+000	 1.7312169653e+000	-1.3842811463e-002
 4.0003894163e+000	 1.7713016452e+000	-3.4652343683e-002
 3.9824460714e+000	 1.8112836024e+000	-4.6389031944e-002
 3.9640694182e+000	 1.8511560300e+000	-4.7535236246e-002
 3.9452599923e+000	 1.8909121061e+000	-5.4804922265e-002
 3.9260184687e+000	 1.9305449964e+000	-8.2052631924e-002
 3.9063456625e+000	 1.9700478585e+000	-1.0410078792e-001
 3.8862425299e+000	 2.0094138446e+000	-1.2064359717e-001
 4.0910685247e+000	 1.6196167221e+000	 8.5991336873e-002
 4.0747684055e+000	 1.6601995186e+000	 5.1561610821e-002
 4.0580317271e+000	 1.7006994154e+000	 2.1034021469e-002
 4.0408584785e+000	 1.7411096337e+000	-4.1834784269e-003
 4.0232487843e+000	 1.7814233689e+000	-2.2631960132e-002
 4.0052029061e+000	 1.8216337944e+000	-3.2803764962e-002
 3.9867212435e+000	 1.8617340645e+000	-3.3144898019e-002
 3.9678043352e+000	 1.9017173181e+000	-5.2038890856e-002
 3.9484528600e+000	 1.9415766821e+000	-8.0089148903e-002
 3.9286676378e+000	 1.9813052748e+000	-1.0343040035e-001
 3.9084496300e+000	 2.0208962095e+000	-1.2174898601e-001
 4.1143132322e+000	 1.6288190898e+000	 8.3543355028e-002
 4.0979204987e+000	 1.6696324704e+000	 5.3913617695e-002
 4.0810887256e+000	 1.7103624803e+000	 2.7289296458e-002
 4.0638179017e+000	 1.7510023021e+000	 5.1103680246e-003
 4.0461081524e+000	 1.7915450926e+000	-1.1130556691e-002
 4.0279597408e+000	 1.8319839864e+000	-1.9890517520e-002
 4.0093730687e+000	 1.8723120989e+000	-1.9578641206e-002
 3.9903486780e+000	 1.9125225301e+000	-4.9574606926e-002
 3.9708872512e+000	 1.9526083678e+000	-7.8347877428e-002
 3.9509896130e+000	 1.9925626912e+000	-1.0289578768e-001
 3.9306567302e+000	 2.0323785743e+000	-1.2289680776e-001
 4.1375579397e+000	 1.6380214576e+000	 8.1132793403e-002
 4.1210725920e+000	 1.6790654222e+000	 5.6146157645e-002
 4.1041457241e+000	 1.7200255451e+000	 3.3267004778e-002
 4.0867773249e+000	 1.7608949704e+000	 1.3967828821e-002
 4.0689675205e+000	 1.8016668163e+000	-2.2457165058e-004
 4.0507165755e+000	 1.8423341784e+000	-7.7314180078e-003
 4.0320248940e+000	 1.8828901334e+000	-1.4577456176e-002
 4.0128930208e+000	 1.9233277422e+000	-4.7414930187e-002
 3.9933216425e+000	 1.9636400535e+000	-7.6833946455e-002
 3.9733115882e+000	 2.0038201075e+000	-1.0250444822e-001
 3.9528638304e+000	 2.0438609391e+000	-1.2409702957e-001
 4.1608026473e+000	 1.6472238253e+000	 7.8703968308e-002
 4.1442246852e+000	 1.6884983740e+000	 5.8198514391e-002
 4.1272027225e+000	 1.7296886100e+000	 3.8901237098e-002
 4.1097367481e+000	 1.7707876388e+000	 2.2317644937e-002
 4.0918268886e+000	 1.8117885400e+000	 1.0009233623e-002
 4.0734734102e+000	 1.8526843704e+000	 3.5911213803e-003
 4.0546767192e+000	 1.8934681678e+000	-1.2632271073e-002
 4.0354373636e+000	 1.9341329542e+000	-4.5562918468e-002
 4.0157560337e+000	 1.9746717392e+000	-7.5552636650e-002
 3.9956335634e+000	 2.0150775238e+000	-1.0226398325e-001
 3.9750709306e+000	 2.0553433039e+000	-1.2535967043e-001
 4.1840473548e+000	 1.6564261930e+000	 7.6200752507e-002
 4.1673767784e+000	 1.6979313258e+000	 6.0009556973e-002
 4.1502597210e+000	 1.7393516748e+000	 4.4125700606e-002
 4.1326961712e+000	 1.7806803072e+000	 3.0088207395e-002
 4.1146862567e+000	 1.8219102636e+000	 1.9493783662e-002
 4.0962302449e+000	 1.8630345624e+000	 1.3994412526e-002
 4.0773285445e+000	 1.9040462023e+000	-1.1064271243e-002
 4.0579817064e+000	 1.9449381662e+000	-4.4021822213e-002
 4.0381904250e+000	 1.9857034249e+000	-7.4509376179e-002
 4.0179555386e+000	 2.0263349401e+000	-1.0218209413e-001
 3.9972780307e+000	 2.0668256687e+000	-1.2669479971e-001
 3.7752070290e+000	 1.9520020205e+000	-1.1540811536e-001
 3.7552613065e+000	 1.9901036456e+000	-9.6066561467e-002
 3.7348998232e+000	 2.0280590008e+000	-1.3138762246e-001
 3.7141239222e+000	 2.0658614403e+000	-1.8725162728e-001
 3.6929350853e+000	 2.1035043275e+000	-2.4013848208e-001
 3.6713349334e+000	 2.1409810384e+000	-2.8896968148e-001
 3.6493252266e+000	 2.1782849654e+000	-3.3264191107e-001
 3.6269078643e+000	 2.2154095206e+000	-3.7002976367e-001
 3.6040848849e+000	 2.2523481398e+000	-3.9998853985e-001
 3.5808584657e+000	 2.2890942857e+000	-4.2135712613e-001
 3.5572309227e+000	 2.3256414519e+000	-4.3296094395e-001
 3.7974141292e+000	 1.9634843853e+000	-1.1644892619e-001
 3.7773510788e+000	 2.0018101376e+000	-1.0576304957e-001
 3.7568698222e+000	 2.0399887596e+000	-8.1998660498e-002
 3.7359717100e+000	 2.0780135664e+000	-1.1249957631e-001
 3.7146582329e+000	 2.1158778823e+000	-1.7239854603e-001
 3.6929310213e+000	 2.1535750445e+000	-2.2920372775e-001
 3.6707918456e+000	 2.1910984063e+000	-2.8175909936e-001
 3.6482426164e+000	 2.2284413413e+000	-3.2888512670e-001
 3.6252853842e+000	 2.2655972465e+000	-3.6938164114e-001
 3.6019223390e+000	 2.3025595462e+000	-4.0203079788e-001
 3.5781558105e+000	 2.3393216957e+000	-4.2560010768e-001
 3.8196212294e+000	 1.9749667502e+000	-1.1748316539e-001
 3.7994408512e+000	 2.0135166297e+000	-1.1516186452e-001
 3.7788398211e+000	 2.0519185184e+000	-1.0043431444e-001
 3.7578194978e+000	 2.0901656925e+000	-7.3309894135e-002
 3.7363813804e+000	 2.1282514372e+000	-1.0234385672e-001
 3.7145271091e+000	 2.1661690506e+000	-1.6698090362e-001
 3.6922584646e+000	 2.2039118473e+000	-2.2827162912e-001
 3.6695773686e+000	 2.2414731620e+000	-2.8498189239e-001
 3.6464858835e+000	 2.2788463532e+000	-3.3585557446e-001
 3.6229862123e+000	 2.3160248067e+000	-3.7961761745e-001
 3.5990806982e+000	 2.3530019396e+000	-4.1497714005e-001
 3.8418283295e+000	 1.9864491150e+000	-1.1852051764e-001
 3.8215306236e+000	 2.0252231217e+000	-1.2427862208e-001
 3.8008098201e+000	 2.0638482773e+000	-1.1829317638e-001
 3.7796672856e+000	 2.1023178186e+000	-1.0055644240e-001
 3.7581045280e+000	 2.1406249920e+000	-7.1072442105e-002
 3.7361231969e+000	 2.1787630567e+000	-1.0245351968e-001
 3.7137250836e+000	 2.2167252883e+000	-1.7234257056e-001
 3.6909121207e+000	 2.2545049827e+000	-2.3849403616e-001
 3.6676863828e+000	 2.2920954599e+000	-2.9959535832e-001
 3.6440500857e+000	 2.3294900672e+000	-3.5431377649e-001
 3.6200055860e+000	 2.3666821834e+000	-4.0129952789e-001
 3.8640354297e+000	 1.9979314798e+000	-1.1957072738e-001
 3.8436203960e+000	 2.0369296137e+000	-1.3312886553e-001
 3.8227798190e+000	 2.0757780361e+000	-1.3559673509e-001
 3.8015150733e+000	 2.1144699447e+000	-1.2694956411e-001
 3.7798276756e+000	 2.1529985469e+000	-1.0717363701e-001
 3.7577192848e+000	 2.1913570628e+000	-7.6266465822e-002
 3.7351917025e+000	 2.2295387292e+000	-1.1413420685e-001
 3.7122468729e+000	 2.2675368034e+000	-1.8959459326e-001
 3.6888868821e+000	 2.3053445666e+000	-2.6078491466e-001
 3.6651139590e+000	 2.3429553277e+000	-3.2631421045e-001
 3.6409304738e+000	 2.3803624272e+000	-3.8477333906e-001
 3.8862425299e+000	 2.0094138446e+000	-1.2064359717e-001
 3.8657101684e+000	 2.0486361058e+000	-1.4172806771e-001
 3.8447498180e+000	 2.0877077949e+000	-1.5236627686e-001
 3.8233628611e+000	 2.1266220709e+000	-1.5251650011e-001
 3.8015508231e+000	 2.1653721018e+000	-1.4214737234e-001
 3.7793153726e+000	 2.2039510689e+000	-1.2123807126e-001
 3.7566583215e+000	 2.2423521702e+000	-8.9778486918e-002
 3.7335816250e+000	 2.2805686241e+000	-1.3845568562e-001
 3.7100873815e+000	 2.3185936733e+000	-2.1960710016e-001
 3.6861778323e+000	 2.3564205882e+000	-2.9581263448e-001
 3.6618553616e+000	 2.3940426711e+000	-3.6560326302e-001
 3.9084496300e+000	 2.0208962095e+000	-1.2174898601e-001
 3.8877999408e+000	 2.0603425978e+000	-1.5009163300e-001
 3.8667198170e+000	 2.0996375537e+000	-1.6862289130e-001
 3.8452106489e+000	 2.1387741970e+000	-1.7728416292e-001
 3.8232739707e+000	 2.1777456566e+000	-1.7602651907e-001
 3.8009114605e+000	 2.2165450750e+000	-1.6481089572e-001
 3.7781249405e+000	 2.2551656112e+000	-1.4360827627e-001
 3.7549163771e+000	 2.2936004448e+000	-1.1239986062e-001
 3.7312878808e+000	 2.3318427800e+000	-1.7624373653e-001
 3.7072417056e+000	 2.3698858487e+000	-2.6300157808e-001
 3.6827802494e+000	 2.4077229149e+000	-3.4399264995e-001
 3.9306567302e+000	 2.0323785743e+000	-1.2289680776e-001
 3.9098897132e+000	 2.0720490898e+000	-1.5823489928e-001
 3.8886898159e+000	 2.1115673126e+000	-1.8438747680e-001
 3.8670584367e+000	 2.1509263231e+000	-2.0127914597e-001
 3.8449971182e+000	 2.1901192115e+000	-2.0884349800e-001
 3.8225075483e+000	 2.2291390811e+000	-2.0702331749e-001
 3.7995915595e+000	 2.2679790521e+000	-1.9577077813e-001
 3.7762511293e+000	 2.3066322655e+000	-1.7504762593e-001
 3.7524883801e+000	 2.3450918867e+000	-1.4482534925e-001
 3.7283055790e+000	 2.3833511092e+000	-2.2807241861e-001
 3.7037051371e+000	 2.4214031587e+000	-3.2014354862e-001
 3.9528638304e+000	 2.0438609391e+000	-1.2409702957e-001
 3.9319794856e+000	 2.0837555818e+000	-1.6617313981e-001
 3.9106598149e+000	 2.1234970714e+000	-1.9968074601e-001
 3.8889062245e+000	 2.1630784492e+000	-2.2452773257e-001
 3.8667202658e+000	 2.2024927664e+000	-2.4063029237e-001
 3.8441036362e+000	 2.2417330872e+000	-2.4791314676e-001
 3.8210581785e+000	 2.2807924931e+000	-2.4630975446e-001
 3.7975858814e+000	 2.3196640863e+000	-2.3576250876e-001
 3.7736888794e+000	 2.3583409934e+000	-2.1622292263e-001
 3.7493694523e+000	 2.3968163697e+000	-1.9121541366e-001
 3.7246300249e+000	 2.4350834026e+000	-2.9425674294e-001
 3.9750709306e+000	 2.0553433039e+000	-1.2535967043e-001
 3.9540692580e+000	 2.0954620739e+000	-1.7392156498e-001
 3.9326298139e+000	 2.1354268302e+000	-2.1452323095e-001
 3.9107540122e+000	 2.1752305753e+000	-2.4705590460e-001
 3.8884434134e+000	 2.2148663212e+000	-2.7141846009e-001
 3.8656997240e+000	 2.2543270933e+000	-2.8751764159e-001
 3.8425247975e+000	 2.2936059341e+000	-2.9526828525e-001
 3.8189206336e+000	 2.3326959070e+000	-2.9459353058e-001
 3.7948893788e+000	 2.3715901001e+000	-2.8542502040e-001
 3.7704333256e+000	 2.4102816302e+000	-2.6770308911e-001
 3.7455549127e+000	 2.4487636464e+000	-2.6653178726e-001
 3.9972780307e+000	 2.0668256687e+000	-1.2669479971e-001
 3.9761590304e+000	 2.1071685659e+000	-1.8149532412e-001
 3.9545998128e+000	 2.1473565890e+000	-2.2893528805e-001
 3.9326018000e+000	 2.1873827014e+000	-2.6888935086e-001
 3.9101665609e+000	 2.2272398761e+000	-3.0123914559e-001
 3.8872958119e+000	 2.2669210994e+000	-3.2587352314e-001
 3.8639914164e+000	 2.3064193751e+000	-3.4268878744e-001
 3.8402553857e+000	 2.3457277277e+000	-3.5158892080e-001
 3.8160898781e+000	 2.3848392068e+000	-3.5248579887e-001
 3.7914971990e+000	 2.4237468907e+000	-3.4529939469e-001
 3.7664798005e+000	 2.4624438902e+000	-3.2995797126e-001
 3.5572309227e+000	 2.3256414519e+000	-4.3296094395e-001
 3.5332047099e+000	 2.3619831663e+000	-4.1999500880e-001
 3.5087824190e+000	 2.3981129948e+000	-4.1346162707e-001
 3.4839667785e+000	 2.4340245451e+000	-4.1179450004e-001
 3.4587606532e+000	 2.4697114697e+000	-4.1340630315e-001
 3.4331670430e+000	 2.5051674705e+000	-4.1787768343e-001
 3.4071890820e+000	 2.5403863013e+000	-4.3290303421e-001
 3.3808300376e+000	 2.5753617721e+000	-4.5318973252e-001
 3.3540933089e+000	 2.6100877523e+000	-4.7793635779e-001
 3.3269824258e+000	 2.6445581744e+000	-5.0633014451e-001
 3.2995010472e+000	 2.6787670372e+000	-5.3754846053e-001
 3.5781558105e+000	 2.3393216957e+000	-4.2560010768e-001
 3.5539882670e+000	 2.3758771849e+000	-4.1699296085e-001
 3.5294223156e+000	 2.4122195419e+000	-4.1303023236e-001
 3.5044607008e+000	 2.4483423365e+000	-4.1213225055e-001
 3.4791063041e+000	 2.4842391843e+000	-4.1269992583e-001
 3.4533621432e+000	 2.5199037497e+000	-4.1806572382e-001
 3.4272313707e+000	 2.5553297501e+000	-4.3041403140e-001
 3.4007172731e+000	 2.5905109590e+000	-4.4631482303e-001
 3.3738232696e+000	 2.6254412097e+000	-4.6498558426e-001
 3.3465529107e+000	 2.6601143990e+000	-4.8563405005e-001
 3.3189098769e+000	 2.6945244904e+000	-5.0745968045e-001
 3.5990806982e+000	 2.3530019396e+000	-4.1497714005e-001
 3.5747718241e+000	 2.3897712035e+000	-4.1153055075e-001
 3.5500622122e+000	 2.4263260889e+000	-4.1096015378e-001
 3.5249546230e+000	 2.4626601279e+000	-4.1167203129e-001
 3.4994519550e+000	 2.4987668988e+000	-4.1205443975e-001
 3.4735572435e+000	 2.5346400289e+000	-4.1963509659e-001
 3.4472736594e+000	 2.5702731989e+000	-4.3006209697e-001
 3.4206045086e+000	 2.6056601459e+000	-4.4235252240e-001
 3.3935532302e+000	 2.6407946671e+000	-4.5574224247e-001
 3.3661233956e+000	 2.6756706236e+000	-4.6945895559e-001
 3.3383187065e+000	 2.7102819435e+000	-4.8272366248e-001
 3.6200055860e+000	 2.3666821834e+000	-4.0129952789e-001
 3.5955553812e+000	 2.4036652222e+000	-4.0380959136e-001
 3.5707021087e+000	 2.4404326359e+000	-4.0744714241e-001
 3.5454485452e+000	 2.4769779194e+000	-4.1060314228e-001
 3.5197976059e+000	 2.5132946133e+000	-4.1428887709e-001
 3.4937523437e+000	 2.5493763082e+000	-4.2260785169e-001
 3.4673159481e+000	 2.5852166478e+000	-4.3185887316e-001
 3.4404917441e+000	 2.6208093328e+000	-4.4130373131e-001
 3.4132831908e+000	 2.6561481244e+000	-4.5019616105e-001
 3.3856938804e+000	 2.6912268481e+000	-4.5778329064e-001
 3.3577275362e+000	 2.7260393967e+000	-4.6330711373e-001
 3.6409304738e+000	 2.3803624272e+000	-3.8477333906e-001
 3.6163389384e+000	 2.4175592408e+000	-3.9403070349e-001
 3.5913420053e+000	 2.4545391829e+000	-4.0268599244e-001
 3.5659424674e+000	 2.4912957108e+000	-4.0911417010e-001
 3.5401432568e+000	 2.5278223278e+000	-4.1746140838e-001
 3.5139474440e+000	 2.5641125874e+000	-4.2700583688e-001
 3.4873582368e+000	 2.6001600966e+000	-4.3581606768e-001
 3.4603789796e+000	 2.6359585197e+000	-4.4316969142e-001
 3.4330131515e+000	 2.6715015818e+000	-4.4833779277e-001
 3.4052643653e+000	 2.7067830727e+000	-4.5058639966e-001
 3.3771363659e+000	 2.7417968498e+000	-4.4917795452e-001
 3.6618553616e+000	 2.3940426711e+000	-3.6560326302e-001
 3.6371224955e+000	 2.4314532594e+000	-3.8239334989e-001
 3.6119819019e+000	 2.4686457300e+000	-3.9687056855e-001
 3.5864363897e+000	 2.5056135023e+000	-4.0821855839e-001
 3.5604889077e+000	 2.5423500424e+000	-4.2137483685e-001
 3.5341425442e+000	 2.5788488667e+000	-4.3285070359e-001
 3.5074005255e+000	 2.6151035454e+000	-4.4194545185e-001
 3.4802662151e+000	 2.6511077066e+000	-4.4795197559e-001
 3.4527431121e+000	 2.6868550392e+000	-4.5015819669e-001
 3.4248348501e+000	 2.7223392972e+000	-4.4784851592e-001
 3.3965451956e+000	 2.7575543030e+000	-4.4030528374e-001
 3.6827802494e+000	 2.4077229149e+000	-3.4399264995e-001
 3.6579060526e+000	 2.4453472780e+000	-3.6909586820e-001
 3.6326217985e+000	 2.4827522770e+000	-3.9019383226e-001
 3.6069303119e+000	 2.5199312937e+000	-4.0863434565e-001
 3.5808345586e+000	 2.5568777569e+000	-4.2605993694e-001
 3.5543376445e+000	 2.5935851459e+000	-4.4016391246e-001
 3.5274428143e+000	 2.6300469942e+000	-4.5025885882e-001
 3.5001534506e+000	 2.6662568934e+000	-4.5565247845e-001
 3.4724730728e+000	 2.7022084965e+000	-4.5564902098e-001
 3.4444053350e+000	 2.7378955218e+000	-4.4955073621e-001
 3.4159540253e+000	 2.7733117562e+000	-4.3665934534e-001
 3.7037051371e+000	 2.4214031587e+000	-3.2014354862e-001
 3.6786896097e+000	 2.4592412967e+000	-3.5433550272e-001
 3.6532616951e+000	 2.4968588240e+000	-3.8284786749e-001
 3.6274242341e+000	 2.5342490851e+000	-4.0918374111e-001
 3.6011802095e+000	 2.5714054714e+000	-4.3154705948e-001
 3.5745327447e+000	 2.6083214251e+000	-4.4896673873e-001
 3.5474851030e+000	 2.6449904431e+000	-4.6076818175e-001
 3.5200406862e+000	 2.6814060803e+000	-4.6627340737e-001
 3.4922030334e+000	 2.7175619539e+000	-4.6480248622e-001
 3.4639758198e+000	 2.7534517463e+000	-4.5567499649e-001
 3.4353628550e+000	 2.7890692093e+000	-4.3821149602e-001
 3.7246300249e+000	 2.4350834026e+000	-2.9425674294e-001
 3.6994731668e+000	 2.4731353153e+000	-3.3830843509e-001
 3.6739015917e+000	 2.5109653711e+000	-3.7605646263e-001
 3.6479181564e+000	 2.5485668766e+000	-4.0990522641e-001
 3.6215258604e+000	 2.5859331860e+000	-4.3786614369e-001
 3.5947278450e+000	 2.6230577044e+000	-4.5928027745e-001
 3.5675273917e+000	 2.6599338919e+000	-4.7348537222e-001
 3.5399279217e+000	 2.6965552672e+000	-4.7981727363e-001
 3.5119329941e+000	 2.7329154113e+000	-4.7761136937e-001
 3.4835463047e+000	 2.7690079709e+000	-4.6620404830e-001
 3.4547716847e+000	 2.8048266625e+000	-4.4493417394e-001
 3.7455549127e+000	 2.4487636464e+000	-2.6653178726e-001
 3.7202567240e+000	 2.4870293339e+000	-3.2120981405e-001
 3.6945414883e+000	 2.5250719181e+000	-3.6914378850e-001
 3.6684120786e+000	 2.5628846680e+000	-4.1083666498e-001
 3.6418715113e+000	 2.6004609005e+000	-4.4504672860e-001
 3.6149229452e+000	 2.6377939836e+000	-4.7112544851e-001
 3.5875696804e+000	 2.6748773408e+000	-4.8842243852e-001
 3.5598151572e+000	 2.7117044541e+000	-4.9628688392e-001
 3.5316629547e+000	 2.7482688687e+000	-4.9406898821e-001
 3.5031167896e+000	 2.7845641955e+000	-4.8112143597e-001
 3.4741805144e+000	 2.8205841157e+000	-4.5680086851e-001
 3.7664798005e+000	 2.4624438902e+000	-3.2995797126e-001
 3.7410402811e+000	 2.5009233526e+000	-3.0326970516e-001
 3.7151813848e+000	 2.5391784651e+000	-3.6185364655e-001
 3.6889060008e+000	 2.5772024595e+000	-4.1201531928e-001
 3.6622171622e+000	 2.6149886150e+000	-4.5311796421e-001
 3.6351180455e+000	 2.6525302629e+000	-4.8452300153e-001
 3.6076119692e+000	 2.6898207896e+000	-5.0559144410e-001
 3.5797023927e+000	 2.7268536410e+000	-5.1568533218e-001
 3.5513929153e+000	 2.7636223260e+000	-5.1416918630e-001
 3.5226872744e+000	 2.8001204200e+000	-5.0041147463e-001
 3.4935893441e+000	 2.8363415688e+000	-4.7378609122e-001
 3.2995010472e+000	 2.6787670372e+000	-5.3754846053e-001
 3.2716529593e+000	 2.7127084092e+000	-5.9952273981e-001
 3.2434420746e+000	 2.7463764324e+000	-6.3792297909e-001
 3.2148724293e+000	 2.7797653252e+000	-6.5247697993e-001
 3.1859481822e+000	 2.8128693856e+000	-6.4293417039e-001
 3.1566736119e+000	 2.8456829949e+000	-6.0906661111e-001
 3.1270531156e+000	 2.8782006205e+000	-5.5066997468e-001
 3.0970912062e+000	 2.9104168190e+000	-6.1555736410e-001
 3.0667925103e+000	 2.9423262393e+000	-6.7679523941e-001
 3.0361617660e+000	 2.9739236255e+000	-7.2218803128e-001
 3.0052038200e+000	 3.0052038200e+000	-7.5013381551e-001
 3.3189098769e+000	 2.6945244904e+000	-5.0745968045e-001
 3.2908979767e+000	 2.7286655175e+000	-5.7021162587e-001
 3.2625211456e+000	 2.7625315879e+000	-6.1185239545e-001
 3.2337834436e+000	 2.7961168859e+000	-6.3203914319e-001
 3.2046890538e+000	 2.8294156761e+000	-6.3044818908e-001
 3.1752422802e+000	 2.8624223067e+000	-6.0677610855e-001
 3.1454475457e+000	 2.8951312124e+000	-5.6074079875e-001
 3.1153093898e+000	 2.9275369179e+000	-5.4371883731e-001
 3.0848324663e+000	 2.9596340407e+000	-6.2015740910e-001
 3.0540215411e+000	 2.9914172939e+000	-6.8254430002e-001
 3.0228814896e+000	 3.0228814896e+000	-7.2915467205e-001
 3.3383187065e+000	 2.7102819435e+000	-4.8272366248e-001
 3.3101429941e+000	 2.7446226258e+000	-5.4527017651e-001
 3.2816002166e+000	 2.7786867434e+000	-5.8913701759e-001
 3.2526944579e+000	 2.8124684466e+000	-6.1391094029e-001
 3.2234299255e+000	 2.8459619666e+000	-6.1919542500e-001
 3.1938109485e+000	 2.8791616184e+000	-6.0461185085e-001
 3.1638419758e+000	 2.9120618043e+000	-5.6980064870e-001
 3.1335275733e+000	 2.9446570169e+000	-5.1442243098e-001
 3.1028724222e+000	 2.9769418421e+000	-5.5941131204e-001
 3.0718813162e+000	 3.0089109623e+000	-6.3772285331e-001
 3.0405591591e+000	 3.0405591591e+000	-7.0188939112e-001
 3.3577275362e+000	 2.7260393967e+000	-4.6330711373e-001
 3.3293880115e+000	 2.7605797341e+000	-5.2468483431e-001
 3.3006792877e+000	 2.7948418989e+000	-5.6978354786e-001
 3.2716054722e+000	 2.8288200074e+000	-5.9811984743e-001
 3.2421707971e+000	 2.8625082571e+000	-6.0922463179e-001
 3.2123796169e+000	 2.8959009301e+000	-6.0264436171e-001
 3.1822364059e+000	 2.9289923962e+000	-5.7794229981e-001
 3.1517457569e+000	 2.9617771158e+000	-5.3469973030e-001
 3.1209123782e+000	 2.9942496435e+000	-4.9494910958e-001
 3.0897410913e+000	 3.0264046307e+000	-5.8814270170e-001
 3.0582368286e+000	 3.0582368286e+000	-6.6878413111e-001
 3.3771363659e+000	 2.7417968498e+000	-4.4917795452e-001
 3.3486330290e+000	 2.7765368424e+000	-5.0844283018e-001
 3.3197583587e+000	 2.8109970544e+000	-5.5379903998e-001
 3.2905164865e+000	 2.8451715681e+000	-5.8469324335e-001
 3.2609116688e+000	 2.8790545476e+000	-6.0058400505e-001
 3.2309482852e+000	 2.9126402419e+000	-6.0094313484e-001
 3.2006308360e+000	 2.9459229881e+000	-5.8525701407e-001
 3.1699639405e+000	 2.9788972147e+000	-5.5302790539e-001
 3.1389523341e+000	 3.0115574449e+000	-5.0377524238e-001
 3.1076008664e+000	 3.0438982991e+000	-5.3421982733e-001
 3.0759144982e+000	 3.0759144982e+000	-6.3028149604e-001
 3.3965451956e+000	 2.7575543030e+000	-4.4030528374e-001
 3.3678780464e+000	 2.7924939507e+000	-4.9653216088e-001
 3.3388374297e+000	 2.8271522099e+000	-5.4119088901e-001
 3.3094275008e+000	 2.8615231289e+000	-5.7365841209e-001
 3.2796525405e+000	 2.8956008381e+000	-5.9332119834e-001
 3.2495169535e+000	 2.9293795536e+000	-5.9957666335e-001
 3.2190252661e+000	 2.9628535800e+000	-5.9183458340e-001
 3.1881821241e+000	 2.9960173137e+000	-5.6951849514e-001
 3.1569922901e+000	 3.0288652463e+000	-5.3206707809e-001
 3.1254606415e+000	 3.0613919675e+000	-4.7893551630e-001
 3.0935921677e+000	 3.0935921677e+000	-5.8682063703e-001
 3.4159540253e+000	 2.7733117562e+000	-4.3665934534e-001
 3.3871230638e+000	 2.8084510590e+000	-4.8894156719e-001
 3.3579165007e+000	 2.8433073654e+000	-5.3196682166e-001
 3.3283385151e+000	 2.8778746896e+000	-5.6504254571e-001
 3.2983934121e+000	 2.9121471286e+000	-5.8748333853e-001
 3.2680856218e+000	 2.9461188654e+000	-5.9861246816e-001
 3.2374196962e+000	 2.9797841718e+000	-5.9776337143e-001
 3.2064003076e+000	 3.0131374126e+000	-5.8428114364e-001
 3.1750322460e+000	 3.0461730477e+000	-5.5752401389e-001
 3.1433204166e+000	 3.0788856359e+000	-5.1686480249e-001
 3.1112698372e+000	 3.1112698372e+000	-5.3883735046e-001
 3.4353628550e+000	 2.7890692093e+000	-4.3821149602e-001
 3.4063680812e+000	 2.8244081673e+000	-4.8566051296e-001
 3.3769955718e+000	 2.8594625209e+000	-5.2613488690e-001
 3.3472495294e+000	 2.8942262503e+000	-5.5887274685e-001
 3.3171342838e+000	 2.9286934191e+000	-5.8311704073e-001
 3.2866542901e+000	 2.9628581771e+000	-5.9811712549e-001
 3.2558141263e+000	 2.9967147637e+000	-6.0313035380e-001
 3.2246184912e+000	 3.0302575116e+000	-5.9742365360e-001
 3.1930722020e+000	 3.0634808491e+000	-5.8027509628e-001
 3.1611801917e+000	 3.0963793042e+000	-5.5097544973e-001
 3.1289475068e+000	 3.1289475068e+000	-5.0841711667e-001
 3.4547716847e+000	 2.8048266625e+000	-4.4493417394e-001
 3.4256130986e+000	 2.8403652756e+000	-4.8667916478e-001
 3.3960746428e+000	 2.8756176763e+000	-5.2370344695e-001
 3.3661605437e+000	 2.9105778111e+000	-5.5517603128e-001
 3.3358751555e+000	 2.9452397096e+000	-5.8026842261e-001
 3.3052229584e+000	 2.9795974888e+000	-5.9815629340e-001
 3.2742085564e+000	 3.0136453556e+000	-6.0802115722e-001
 3.2428366748e+000	 3.0473776105e+000	-6.0905203817e-001
 3.2111121579e+000	 3.0807886506e+000	-6.0044713189e-001
 3.1790399668e+000	 3.1138729726e+000	-5.8141545417e-001
 3.1466251763e+000	 3.1466251763e+000	-5.4955403381e-001
 3.4741805144e+000	 2.8205841157e+000	-4.5680086851e-001
 3.4448581160e+000	 2.8563223839e+000	-4.9198837231e-001
 3.4151537138e+000	 2.8917728318e+000	-5.2468116848e-001
 3.3850715580e+000	 2.9269293718e+000	-5.5397933031e-001
 3.3546160271e+000	 2.9617860002e+000	-5.7898311834e-001
 3.3237916267e+000	 2.9963368006e+000	-5.9879473741e-001
 3.2926029865e+000	 3.0305759475e+000	-6.1252009710e-001
 3.2610548583e+000	 3.0644977094e+000	-6.1927057088e-001
 3.2291521139e+000	 3.0980964520e+000	-6.1816475005e-001
 3.1968997419e+000	 3.1313666410e+000	-6.0703149523e-001
 3.1643028458e+000	 3.1643028458e+000	-5.8704660987e-001
 3.4935893441e+000	 2.8363415688e+000	-4.7378609122e-001
 3.4641031334e+000	 2.8722794922e+000	-5.0157964938e-001
 3.4342327849e+000	 2.9079279873e+000	-5.2907701418e-001
 3.4039825722e+000	 2.9432809326e+000	-5.5530949314e-001
 3.3733568988e+000	 2.9783322907e+000	-5.7930629198e-001
 3.3423602950e+000	 3.0130761123e+000	-6.0009635532e-001
 3.3109974166e+000	 3.0475065394e+000	-6.1671021396e-001
 3.2792730419e+000	 3.0816178084e+000	-6.2818183394e-001
 3.2471920698e+000	 3.1154042534e+000	-6.3355046327e-001
 3.2147595170e+000	 3.1488603094e+000	-6.2765640648e-001
 3.1819805154e+000	 3.1819805154e+000	-6.2097498648e-001
 3.0052038200e+000	 3.0052038200e+000	-7.5013381551e-001
 2.9739236255e+000	 3.0361617660e+000	-7.1606482365e-001
 2.9423262393e+000	 3.0667925103e+000	-6.8456303912e-001
 2.9104168190e+000	 3.0970912062e+000	-6.5342795197e-001
 2.8782006205e+000	 3.1270531156e+000	-6.2110189859e-001
 2.8456829949e+000	 3.1566736119e+000	-5.9962525504e-001
 2.8128693856e+000	 3.1859481822e+000	-5.8510103208e-001
 2.7797653252e+000	 3.2148724293e+000	-5.7629620820e-001
 2.7463764324e+000	 3.2434420746e+000	-5.7199097325e-001
 2.7127084092e+000	 3.2716529593e+000	-5.7098095270e-001
 2.6787670372e+000	 3.2995010472e+000	-5.7207938479e-001
 3.0228814896e+000	 3.0228814896e+000	-7.2915467205e-001
 2.9914172939e+000	 3.0540215411e+000	-7.0084897662e-001
 2.9596340407e+000	 3.0848324663e+000	-6.7232064182e-001
 2.9275369179e+000	 3.1153093898e+000	-6.4137293503e-001
 2.8951312124e+000	 3.1454475457e+000	-6.1325396622e-001
 2.8624223067e+000	 3.1752422802e+000	-5.9253488062e-001
 2.8294156761e+000	 3.2046890538e+000	-5.7644489039e-001
 2.7961168859e+000	 3.2337834436e+000	-5.6378805124e-001
 2.7625315879e+000	 3.2625211456e+000	-5.5338386634e-001
 2.7286655175e+000	 3.2908979767e+000	-5.4406948074e-001
 2.6945244904e+000	 3.3189098769e+000	-5.3470182551e-001
 3.0405591591e+000	 3.0405591591e+000	-7.0188939112e-001
 3.0089109623e+000	 3.0718813162e+000	-6.8048492428e-001
 2.9769418421e+000	 3.1028724222e+000	-6.5607802754e-001
 2.9446570169e+000	 3.1335275733e+000	-6.2837139540e-001
 2.9120618043e+000	 3.1638419758e+000	-6.0605459762e-001
 2.8791616184e+000	 3.1938109485e+000	-5.8723683990e-001
 2.8459619666e+000	 3.2234299255e+000	-5.7074292618e-001
 2.8124684466e+000	 3.2526944579e+000	-5.5541312305e-001
 2.7786867434e+000	 3.2816002166e+000	-5.4010537396e-001
 2.7446226258e+000	 3.3101429941e+000	-5.2369746487e-001
 2.7102819435e+000	 3.3383187065e+000	-5.0508913631e-001
 3.0582368286e+000	 3.0582368286e+000	-6.6878413111e-001
 3.0264046307e+000	 3.0897410913e+000	-6.5540662161e-001
 2.9942496435e+000	 3.1209123782e+000	-6.3625635674e-001
 2.9617771158e+000	 3.1517457569e+000	-6.1660077790e-001
 2.9289923962e+000	 3.1822364059e+000	-5.9963353291e-001
 2.8959009301e+000	 3.2123796169e+000	-5.8384462011e-001
 2.8625082571e+000	 3.2421707971e+000	-5.6809194717e-001
 2.8288200074e+000	 3.2716054722e+000	-5.5125113194e-001
 2.7948418989e+000	 3.3006792877e+000	-5.3221769209e-001
 2.7605797341e+000	 3.3293880115e+000	-5.0990918303e-001
 2.7260393967e+000	 3.3577275362e+000	-4.8326727898e-001
 3.0759144982e+000	 3.0759144982e+000	-6.3028149604e-001
 3.0438982991e+000	 3.1076008664e+000	-6.2604484419e-001
 3.0115574449e+000	 3.1389523341e+000	-6.1516996622e-001
 2.9788972147e+000	 3.1699639405e+000	-6.0464260666e-001
 2.9459229881e+000	 3.2006308360e+000	-5.9411851631e-001
 2.9126402419e+000	 3.2309482852e+000	-5.8247012591e-001
 2.8790545476e+000	 3.2609116688e+000	-5.6858760090e-001
 2.8451715681e+000	 3.2905164865e+000	-5.5138105727e-001
 2.8109970544e+000	 3.3197583587e+000	-5.2978272762e-001
 2.7765368424e+000	 3.3486330290e+000	-5.0274907240e-001
 2.7417968498e+000	 3.3771363659e+000	-4.6926283104e-001
 3.0935921677e+000	 3.0935921677e+000	-5.8682063703e-001
 3.0613919675e+000	 3.1254606415e+000	-5.9282596998e-001
 3.0288652463e+000	 3.1569922901e+000	-5.9332920011e-001
 2.9960173137e+000	 3.1881821241e+000	-5.9263771033e-001
 2.9628535800e+000	 3.2190252661e+000	-5.8963535319e-001
 2.9293795536e+000	 3.2495169535e+000	-5.8322372460e-001
 2.8956008381e+000	 3.2796525405e+000	-5.7232440787e-001
 2.8615231289e+000	 3.3094275008e+000	-5.5588117026e-001
 2.8271522099e+000	 3.3388374297e+000	-5.3286210663e-001
 2.7924939507e+000	 3.3678780464e+000	-5.0226172484e-001
 2.7575543030e+000	 3.3965451956e+000	-4.6310296811e-001
 3.1112698372e+000	 3.1112698372e+000	-5.3883735046e-001
 3.0788856359e+000	 3.1433204166e+000	-5.5682732788e-001
 3.0461730477e+000	 3.1750322460e+000	-5.7053441710e-001
 3.0131374126e+000	 3.2064003076e+000	-5.8072465244e-001
 2.9797841718e+000	 3.2374196962e+000	-5.8630796513e-001
 2.9461188654e+000	 3.2680856218e+000	-5.8621428980e-001
 2.9121471286e+000	 3.2983934121e+000	-5.7939579353e-001
 2.8778746896e+000	 3.3283385151e+000	-5.6482905415e-001
 2.8433073654e+000	 3.3579165007e+000	-5.4151718234e-001
 2.8084510590e+000	 3.3871230638e+000	-5.0849188246e-001
 2.7733117562e+000	 3.4159540253e+000	-4.6481544694e-001
 3.1289475068e+000	 3.1289475068e+000	-5.0841711667e-001
 3.0963793042e+000	 3.1611801917e+000	-5.1901140392e-001
 3.0634808491e+000	 3.1930722020e+000	-5.4693584807e-001
 3.0302575116e+000	 3.2246184912e+000	-5.6903979540e-001
 2.9967147637e+000	 3.2558141263e+000	-5.8425844316e-001
 2.9628581771e+000	 3.2866542901e+000	-5.9154924365e-001
 2.9286934191e+000	 3.3171342838e+000	-5.8989411928e-001
 2.8942262503e+000	 3.3472495294e+000	-5.7830162356e-001
 2.8594625209e+000	 3.3769955718e+000	-5.5580904285e-001
 2.8244081673e+000	 3.4063680812e+000	-5.2148443342e-001
 2.7890692093e+000	 3.4353628550e+000	-4.7442858899e-001
 3.1466251763e+000	 3.1466251763e+000	-5.4955403381e-001
 3.1138729726e+000	 3.1790399668e+000	-4.7953905542e-001
 3.0807886506e+000	 3.2111121579e+000	-5.2268123291e-001
 3.0473776105e+000	 3.2428366748e+000	-5.5771736230e-001
 3.0136453556e+000	 3.2742085564e+000	-5.8360709915e-001
 2.9795974888e+000	 3.3052229584e+000	-5.9933459756e-001
 2.9452397096e+000	 3.3358751555e+000	-6.0391071226e-001
 2.9105778111e+000	 3.3661605437e+000	-5.9637514336e-001
 2.8756176763e+000	 3.3960746428e+000	-5.7579851860e-001
 2.8403652756e+000	 3.4256130986e+000	-5.4128440781e-001
 2.8048266625e+000	 3.4547716847e+000	-4.9197126457e-001
 3.1643028458e+000	 3.1643028458e+000	-5.8704660987e-001
 3.1313666410e+000	 3.1968997419e+000	-4.7387209840e-001
 3.0980964520e+000	 3.2291521139e+000	-4.9791589008e-001
 3.0644977094e+000	 3.2610548583e+000	-5.4688949670e-001
 3.0305759475e+000	 3.2926029865e+000	-5.8447251553e-001
 2.9963368006e+000	 3.3237916267e+000	-6.0967499164e-001
 2.9617860002e+000	 3.3546160271e+000	-6.2153589435e-001
 2.9269293718e+000	 3.3850715580e+000	-6.1912524674e-001
 2.8917728318e+000	 3.4151537138e+000	-6.0154618950e-001
 2.8563223839e+000	 3.4448581160e+000	-5.6793697367e-001
 2.8205841157e+000	 3.4741805144e+000	-5.1747287751e-001
 3.1819805154e+000	 3.1819805154e+000	-6.2097498648e-001
 3.1488603094e+000	 3.2147595170e+000	-5.2758267328e-001
 3.1154042534e+000	 3.2471920698e+000	-4.7278278383e-001
 3.0816178084e+000	 3.2792730419e+000	-5.3668632037e-001
 3.0475065394e+000	 3.3109974166e+000	-5.8697159332e-001
 3.0130761123e+000	 3.3423602950e+000	-6.2267373277e-001
 2.9783322907e+000	 3.3733568988e+000	-6.4285900999e-001
 2.9432809326e+000	 3.4039825722e+000	-6.4662695282e-001
 2.9079279873e+000	 3.4342327849e+000	-6.3311239196e-001
 2.8722794922e+000	 3.4641031334e+000	-6.0148743320e-001
 2.8363415688e+000	 3.4935893441e+000	-5.5096335031e-001
 2.6787670372e+000	 3.2995010472e+000	-5.7207938479e-001
 2.6445581744e+000	 3.3269824258e+000	-6.3471435996e-001
 2.6100877523e+000	 3.3540933089e+000	-6.8400001765e-001
 2.5753617721e+000	 3.3808300376e+000	-7.1952580250e-001
 2.5403863013e+000	 3.4071890820e+000	-7.4091694417e-001
 2.5051674705e+000	 3.4331670430e+000	-7.4783550930e-001
 2.4697114697e+000	 3.4587606532e+000	-7.2128103738e-001
 2.4340245451e+000	 3.4839667785e+000	-6.8785663870e-001
 2.3981129948e+000	 3.5087824190e+000	-6.5099381343e-001
 2.3619831663e+000	 3.5332047099e+000	-6.1004100456e-001
 2.3256414519e+000	 3.5572309227e+000	-5.6438491473e-001
 2.6945244904e+000	 3.3189098769e+000	-5.3470182551e-001
 2.6601143990e+000	 3.3465529107e+000	-5.9778941905e-001
 2.6254412097e+000	 3.3738232696e+000	-6.4831696280e-001
 2.5905109590e+000	 3.4007172731e+000	-6.8581004973e-001
 2.5553297501e+000	 3.4272313707e+000	-7.0982986508e-001
 2.5199037497e+000	 3.4533621432e+000	-7.1997432193e-001
 2.4842391843e+000	 3.4791063041e+000	-7.0694200698e-001
 2.4483423365e+000	 3.5044607008e+000	-6.7691779051e-001
 2.4122195419e+000	 3.5294223156e+000	-6.4400021046e-001
 2.3758771849e+000	 3.5539882670e+000	-6.0746188883e-001
 2.3393216957e+000	 3.5781558105e+000	-5.6661400254e-001
 2.7102819435e+000	 3.3383187065e+000	-5.0508913631e-001
 2.6756706236e+000	 3.3661233956e+000	-5.6790064766e-001
 2.6407946671e+000	 3.3935532302e+000	-6.1892162392e-001
 2.6056601459e+000	 3.4206045086e+000	-6.5761393392e-001
 2.5702731989e+000	 3.4472736594e+000	-6.8347486266e-001
 2.5346400289e+000	 3.4735572435e+000	-6.9603833052e-001
 2.4987668988e+000	 3.4994519550e+000	-6.9424008391e-001
 2.4626601279e+000	 3.5249546230e+000	-6.6683222000e-001
 2.4263260889e+000	 3.5500622122e+000	-6.3705851078e-001
 2.3897712035e+000	 3.5747718241e+000	-6.0411578562e-001
 2.3530019396e+000	 3.5990806982e+000	-5.6723974086e-001
 2.7260393967e+000	 3.3577275362e+000	-4.8326727898e-001
 2.6912268481e+000	 3.3856938804e+000	-5.4508942478e-001
 2.6561481244e+000	 3.4132831908e+000	-5.9587097928e-001
 2.6208093328e+000	 3.4404917441e+000	-6.3501020540e-001
 2.5852166478e+000	 3.4673159481e+000	-6.6194062263e-001
 2.5493763082e+000	 3.4937523437e+000	-6.7613230995e-001
 2.5132946133e+000	 3.5197976059e+000	-6.7709312384e-001
 2.4769779194e+000	 3.5454485452e+000	-6.5769678535e-001
 2.4404326359e+000	 3.5707021087e+000	-6.3028329515e-001
 2.4036652222e+000	 3.5955553812e+000	-6.0013511875e-001
 2.3666821834e+000	 3.6200055860e+000	-5.6641250593e-001
 2.7417968498e+000	 3.3771363659e+000	-4.6926283104e-001
 2.7067830727e+000	 3.4052643653e+000	-5.2939742510e-001
 2.6715015818e+000	 3.4330131515e+000	-5.7922197763e-001
 2.6359585197e+000	 3.4603789796e+000	-6.1807125462e-001
 2.6001600966e+000	 3.4873582368e+000	-6.4531513553e-001
 2.5641125874e+000	 3.5139474440e+000	-6.6035999995e-001
 2.5278223278e+000	 3.5401432568e+000	-6.6265002858e-001
 2.4912957108e+000	 3.5659424674e+000	-6.4960661605e-001
 2.4545391829e+000	 3.5913420053e+000	-6.2378706241e-001
 2.4175592408e+000	 3.6163389384e+000	-5.9564987287e-001
 2.3803624272e+000	 3.6409304738e+000	-5.6427987371e-001
 2.7575543030e+000	 3.3965451956e+000	-4.6310296811e-001
 2.7223392972e+000	 3.4248348501e+000	-5.2086661055e-001
 2.6868550392e+000	 3.4527431121e+000	-5.6903153901e-001
 2.6511077066e+000	 3.4802662151e+000	-6.0686912242e-001
 2.6151035454e+000	 3.5074005255e+000	-6.3368571661e-001
 2.5788488667e+000	 3.5341425442e+000	-6.4882413469e-001
 2.5423500424e+000	 3.5604889077e+000	-6.5166503094e-001
 2.5056135023e+000	 3.5864363897e+000	-6.4162819486e-001
 2.4686457300e+000	 3.6119819019e+000	-6.1768028897e-001
 2.4314532594e+000	 3.6371224955e+000	-5.9078766317e-001
 2.3940426711e+000	 3.6618553616e+000	-5.6098669993e-001
 2.7733117562e+000	 3.4159540253e+000	-4.6481544694e-001
 2.7378955218e+000	 3.4444053350e+000	-5.1953922220e-001
 2.7022084965e+000	 3.4724730728e+000	-5.6535655555e-001
 2.6662568934e+000	 3.5001534506e+000	-6.0147550996e-001
 2.6300469942e+000	 3.5274428143e+000	-6.2713902503e-001
 2.5935851459e+000	 3.5543376445e+000	-6.4162647130e-001
 2.5568777569e+000	 3.5808345586e+000	-6.4425511704e-001
 2.5199312937e+000	 3.6069303119e+000	-6.3438150424e-001
 2.4827522770e+000	 3.6326217985e+000	-6.1207148624e-001
 2.4453472780e+000	 3.6579060526e+000	-5.8567380268e-001
 2.4077229149e+000	 3.6827802494e+000	-5.5667519735e-001
 2.7890692093e+000	 3.4353628550e+000	-4.7442858899e-001
 2.7534517463e+000	 3.4639758198e+000	-5.2545777228e-001
 2.7175619539e+000	 3.4922030334e+000	-5.6825389230e-001
 2.6814060803e+000	 3.5200406862e+000	-6.0196178831e-001
 2.6449904431e+000	 3.5474851030e+000	-6.2576108236e-001
 2.6083214251e+000	 3.5745327447e+000	-6.3886781750e-001
 2.5714054714e+000	 3.6011802095e+000	-6.4053600752e-001
 2.5342490851e+000	 3.6274242341e+000	-6.3005909495e-001
 2.4968588240e+000	 3.6532616951e+000	-6.0706725619e-001
 2.4592412967e+000	 3.6786896097e+000	-5.8043136733e-001
 2.4214031587e+000	 3.7037051371e+000	-5.5148501040e-001
 2.8048266625e+000	 3.4547716847e+000	-4.9197126457e-001
 2.7690079709e+000	 3.4835463047e+000	-5.3866503665e-001
 2.7329154113e+000	 3.5119329941e+000	-5.7778038795e-001
 2.6965552672e+000	 3.5399279217e+000	-6.0839900774e-001
 2.6599338919e+000	 3.5675273917e+000	-6.2963729053e-001
 2.6230577044e+000	 3.5947278450e+000	-6.4064805825e-001
 2.5859331860e+000	 3.6215258604e+000	-6.4062219312e-001
 2.5485668766e+000	 3.6479181564e+000	-6.2879017750e-001
 2.5109653711e+000	 3.6739015917e+000	-6.0442353763e-001
 2.4731353153e+000	 3.6994731668e+000	-5.7518125874e-001
 2.4350834026e+000	 3.7246300249e+000	-5.4555328737e-001
 2.8205841157e+000	 3.4741805144e+000	-5.1747287751e-001
 2.7845641955e+000	 3.5031167896e+000	-5.5920404739e-001
 2.7482688687e+000	 3.5316629547e+000	-5.9399285560e-001
 2.7117044541e+000	 3.5598151572e+000	-6.2085790667e-001
 2.6748773408e+000	 3.5875696804e+000	-6.3885244909e-001
 2.6377939836e+000	 3.6149229452e+000	-6.4706618157e-001
 2.6004609005e+000	 3.6418715113e+000	-6.4462696905e-001
 2.5628846680e+000	 3.6684120786e+000	-6.3070246447e-001
 2.5250719181e+000	 3.6945414883e+000	-6.0450163331e-001
 2.4870293339e+000	 3.7202567240e+000	-5.7004226500e-001
 2.4487636464e+000	 3.7455549127e+000	-5.3901475010e-001
 2.8363415688e+000	 3.4935893441e+000	-5.5096335031e-001
 2.8001204200e+000	 3.5226872744e+000	-5.8711808569e-001
 2.7636223260e+000	 3.5513929153e+000	-6.1694808345e-001
 2.7268536410e+000	 3.5797023927e+000	-6.3940892033e-001
 2.6898207896e+000	 3.6076119692e+000	-6.5349077197e-001
 2.6525302629e+000	 3.6351180455e+000	-6.5822030339e-001
 2.6149886150e+000	 3.6622171622e+000	-6.5266246813e-001
 2.5772024595e+000	 3.6889060008e+000	-6.3592221209e-001
 2.5391784651e+000	 3.7151813848e+000	-6.0714607875e-001
 2.5009233526e+000	 3.7410402811e+000	-5.6552371228e-001
 2.4624438902e+000	 3.7664798005e+000	-5.3148532366e-001
 2.3256414519e+000	 3.5572309227e+000	-5.6438491473e-001
 2.2890942857e+000	 3.5808584657e+000	-5.5482051235e-001
 2.2523481398e+000	 3.6040848849e+000	-5.4251142981e-001
 2.2154095206e+000	 3.6269078643e+000	-5.2645975525e-001
 2.1782849654e+000	 3.6493252266e+000	-5.0571236160e-001
 2.1409810384e+000	 3.6713349334e+000	-4.7936260576e-001
 2.1035043275e+000	 3.6929350853e+000	-4.4655190637e-001
 2.0658614403e+000	 3.7141239222e+000	-4.0647119763e-001
 2.0280590008e+000	 3.7348998232e+000	-3.5836225687e-001
 1.9901036456e+000	 3.7552613065e+000	-3.1127331138e-001
 1.9520020205e+000	 3.7752070290e+000	-2.9180228851e-001
 2.3393216957e+000	 3.5781558105e+000	-5.6661400254e-001
 2.3025595462e+000	 3.6019223390e+000	-5.5299664356e-001
 2.2655972465e+000	 3.6252853842e+000	-5.3612550263e-001
 2.2284413413e+000	 3.6482426164e+000	-5.1497162381e-001
 2.1910984063e+000	 3.6707918456e+000	-4.8855190919e-001
 2.1535750445e+000	 3.6929310213e+000	-4.5593086124e-001
 2.1158778823e+000	 3.7146582329e+000	-4.1622220118e-001
 2.0780135664e+000	 3.7359717100e+000	-3.6859036064e-001
 2.0399887596e+000	 3.7568698222e+000	-3.2338929887e-001
 2.0018101376e+000	 3.7773510788e+000	-3.0121596793e-001
 1.9634843853e+000	 3.7974141292e+000	-2.8409082557e-001
 2.3530019396e+000	 3.5990806982e+000	-5.6723974086e-001
 2.3160248067e+000	 3.6229862123e+000	-5.4947998334e-001
 2.2788463532e+000	 3.6464858835e+000	-5.2794817659e-001
 2.2414731620e+000	 3.6695773686e+000	-5.0158402482e-001
 2.2039118473e+000	 3.6922584646e+000	-4.6937417807e-001
 2.1661690506e+000	 3.7145271091e+000	-4.3035401821e-001
 2.1282514372e+000	 3.7363813804e+000	-3.8360931819e-001
 2.0901656925e+000	 3.7578194978e+000	-3.3914592294e-001
 2.0519185184e+000	 3.7788398211e+000	-3.1435317266e-001
 2.0135166297e+000	 3.7994408512e+000	-2.9477242852e-001
 1.9749667502e+000	 3.8196212294e+000	-2.7999142366e-001
 2.3666821834e+000	 3.6200055860e+000	-5.6641250593e-001
 2.3294900672e+000	 3.6440500857e+000	-5.4442570432e-001
 2.2920954599e+000	 3.6676863828e+000	-5.1813936632e-001
 2.2545049827e+000	 3.6909121207e+000	-4.8646155623e-001
 2.2167252883e+000	 3.7137250836e+000	-4.4834838676e-001
 2.1787630567e+000	 3.7361231969e+000	-4.0280584890e-001
 2.1406249920e+000	 3.7581045280e+000	-3.5829899027e-001
 2.1023178186e+000	 3.7796672856e+000	-3.3090940164e-001
 2.0638482773e+000	 3.8008098201e+000	-3.0893839706e-001
 2.0252231217e+000	 3.8215306236e+000	-2.9195170528e-001
 1.9864491150e+000	 3.8418283295e+000	-2.7951799750e-001
 2.3803624272e+000	 3.6409304738e+000	-5.6427987371e-001
 2.3429553277e+000	 3.6651139590e+000	-5.3798611880e-001
 2.3053445666e+000	 3.6888868821e+000	-5.0685606577e-001
 2.2675368034e+000	 3.7122468729e+000	-4.6976583484e-001
 2.2295387292e+000	 3.7351917025e+000	-4.2564071189e-001
 2.1913570628e+000	 3.7577192848e+000	-3.8067208687e-001
 2.1529985469e+000	 3.7798276756e+000	-3.5064774292e-001
 2.1144699447e+000	 3.8015150733e+000	-3.2629077749e-001
 2.0757780361e+000	 3.8227798190e+000	-3.0714585335e-001
 2.0369296137e+000	 3.8436203960e+000	-2.9275946328e-001
 1.9979314798e+000	 3.8640354297e+000	-2.8268105357e-001
 2.3940426711e+000	 3.6618553616e+000	-5.6098669993e-001
 2.3564205882e+000	 3.6861778323e+000	-5.3031076046e-001
 2.3185936733e+000	 3.7100873815e+000	-4.9425243172e-001
 2.2805686241e+000	 3.7335816250e+000	-4.5165558143e-001
 2.2423521702e+000	 3.7566583215e+000	-4.0615790679e-001
 2.2039510689e+000	 3.7793153726e+000	-3.7340038401e-001
 2.1653721018e+000	 3.8015508231e+000	-3.4660055804e-001
 2.1266220709e+000	 3.8233628611e+000	-3.2528307637e-001
 2.0877077949e+000	 3.8447498180e+000	-3.0897323082e-001
 2.0486361058e+000	 3.8657101684e+000	-2.9719811618e-001
 2.0094138446e+000	 3.8862425299e+000	-2.8948778754e-001
 2.4077229149e+000	 3.6827802494e+000	-5.5667519735e-001
 2.3698858487e+000	 3.7072417056e+000	-5.2154646331e-001
 2.3318427800e+000	 3.7312878808e+000	-4.8047986433e-001
 2.2936004448e+000	 3.7549163771e+000	-4.3471935891e-001
 2.2551656112e+000	 3.7781249405e+000	-3.9906990377e-001
 2.2165450750e+000	 3.8009114605e+000	-3.6970914483e-001
 2.1777456566e+000	 3.8232739707e+000	-3.4614287641e-001
 2.1387741970e+000	 3.8452106489e+000	-3.2787628051e-001
 2.0996375537e+000	 3.8667198170e+000	-3.1441511741e-001
 2.0603425978e+000	 3.8877999408e+000	-3.0526691855e-001
 2.0208962095e+000	 3.9084496300e+000	-2.9994217826e-001
 2.4214031587e+000	 3.7037051371e+000	-5.5148501040e-001
 2.3833511092e+000	 3.7283055790e+000	-5.1183743794e-001
 2.3450918867e+000	 3.7524883801e+000	-4.6639044654e-001
 2.3066322655e+000	 3.7762511293e+000	-4.2763033947e-001
 2.2679790521e+000	 3.7995915595e+000	-3.9552961637e-001
 2.2291390811e+000	 3.8225075483e+000	-3.6957649033e-001
 2.1901192115e+000	 3.8449971182e+000	-3.4925723714e-001
 2.1509263231e+000	 3.8670584367e+000	-3.3405741451e-001
 2.1115673126e+000	 3.8886898159e+000	-3.2346308733e-001
 2.0720490898e+000	 3.9098897132e+000	-3.1696205516e-001
 2.0323785743e+000	 3.9306567302e+000	-3.1404507867e-001
 2.4350834026e+000	 3.7246300249e+000	-5.4555328737e-001
 2.3968163697e+000	 3.7493694523e+000	-5.0132534524e-001
 2.3583409934e+000	 3.7736888794e+000	-4.5912802393e-001
 2.3196640863e+000	 3.7975858814e+000	-4.2404775055e-001
 2.2807924931e+000	 3.8210581785e+000	-3.9550810647e-001
 2.2417330872e+000	 3.8441036362e+000	-3.7297777575e-001
 2.2024927664e+000	 3.8667202658e+000	-3.5592335918e-001
 2.1630784492e+000	 3.8889062245e+000	-3.4381062835e-001
 2.1234970714e+000	 3.9106598149e+000	-3.3610578571e-001
 2.0837555818e+000	 3.9319794856e+000	-3.3227672718e-001
 2.0438609391e+000	 3.9528638304e+000	-3.3179430360e-001
 2.4487636464e+000	 3.7455549127e+000	-5.3901475010e-001
 2.4102816302e+000	 3.7704333256e+000	-4.9368218788e-001
 2.3715901001e+000	 3.7948893788e+000	-4.5532281882e-001
 2.3326959070e+000	 3.8189206336e+000	-4.2393585102e-001
 2.2936059341e+000	 3.8425247975e+000	-3.9897380017e-001
 2.2543270933e+000	 3.8656997240e+000	-3.7988566774e-001
 2.2148663212e+000	 3.8884434134e+000	-3.6611822013e-001
 2.1752305753e+000	 3.9107540122e+000	-3.5711727776e-001
 2.1354268302e+000	 3.9326298139e+000	-3.5232901047e-001
 2.0954620739e+000	 3.9540692580e+000	-3.5120123555e-001
 2.0553433039e+000	 3.9750709306e+000	-3.5318471463e-001
 2.4624438902e+000	 3.7664798005e+000	-5.3148532366e-001
 2.4237468907e+000	 3.7914971990e+000	-4.8948814286e-001
 2.3848392068e+000	 3.8160898781e+000	-4.5493253876e-001
 2.3457277277e+000	 3.8402553857e+000	-4.2725638828e-001
 2.3064193751e+000	 3.8639914164e+000	-4.0589256094e-001
 2.2669210994e+000	 3.8872958119e+000	-3.9027021914e-001
 2.2272398761e+000	 3.9101665609e+000	-3.7981613236e-001
 2.1873827014e+000	 3.9326018000e+000	-3.7395600178e-001
 2.1473565890e+000	 3.9545998128e+000	-3.7211579133e-001
 2.1071685659e+000	 3.9761590304e+000	-3.7372306151e-001
 2.0668256687e+000	 3.9972780307e+000	-3.7820830212e-001
 1.9520020205e+000	 3.7752070290e+000	-2.9180228851e-001
 1.9137607768e+000	 3.7947357865e+000	-4.3864538689e-001
 1.8753865680e+000	 3.8138465125e+000	-5.9949722445e-001
 1.8368860459e+000	 3.8325382783e+000	-4.5158466986e-001
 1.7982658577e+000	 3.8508102920e+000	-3.3928200520e-001
 1.7595326423e+000	 3.8686618980e+000	-2.6342543892e-001
 1.7206930268e+000	 3.8860925758e+000	-2.2146755295e-001
 1.6817536235e+000	 3.9031019395e+000	-2.1089043046e-001
 1.6427210263e+000	 3.9196897364e+000	-2.2921009399e-001
 1.6036018077e+000	 3.9358558462e+000	-2.7398080537e-001
 1.5644025157e+000	 3.9516002795e+000	-3.4279921927e-001
 1.9634843853e+000	 3.7974141292e+000	-2.8409082557e-001
 1.9250181932e+000	 3.8170577617e+000	-4.1509522889e-001
 1.8864182537e+000	 3.8362809037e+000	-5.6011511900e-001
 1.8476912579e+000	 3.8550826211e+000	-4.9133832277e-001
 1.8088438922e+000	 3.8734621172e+000	-3.6278782942e-001
 1.7698828343e+000	 3.8914187326e+000	-2.7095199227e-001
 1.7308147505e+000	 3.9089519439e+000	-2.1327508437e-001
 1.6916462918e+000	 3.9260613627e+000	-1.8723072759e-001
 1.6523840911e+000	 3.9427467349e+000	-1.9032638519e-001
 1.6130347595e+000	 3.9590079395e+000	-2.2010771513e-001
 1.5736048834e+000	 3.9748449870e+000	-2.7416277579e-001
 1.9749667502e+000	 3.8196212294e+000	-2.7999142366e-001
 1.9362756095e+000	 3.8393797369e+000	-3.9612044779e-001
 1.8974499394e+000	 3.8587152950e+000	-5.2626852952e-001
 1.8584964700e+000	 3.8776269639e+000	-5.3464290755e-001
 1.8194219267e+000	 3.8961139425e+000	-3.9108805840e-001
 1.7802330263e+000	 3.9141755673e+000	-2.8451199352e-001
 1.7409364742e+000	 3.9318113120e+000	-2.1234950473e-001
 1.7015389602e+000	 3.9490207858e+000	-1.7206459369e-001
 1.6620471560e+000	 3.9658037333e+000	-1.6115502052e-001
 1.6224677113e+000	 3.9821600327e+000	-1.7715671178e-001
 1.5828072511e+000	 3.9980896946e+000	-2.1764801975e-001
 1.9864491150e+000	 3.8418283295e+000	-2.7951799750e-001
 1.9475330258e+000	 3.8617017121e+000	-3.8172320559e-001
 1.9084816251e+000	 3.8811496862e+000	-4.9794799390e-001
 1.8693016820e+000	 3.9001713067e+000	-5.8130935201e-001
 1.8299999611e+000	 3.9187657677e+000	-4.2398709553e-001
 1.7905832183e+000	 3.9369324020e+000	-3.0390346482e-001
 1.7510581979e+000	 3.9546706801e+000	-2.1848259654e-001
 1.7114316286e+000	 3.9719802090e+000	-1.6517771174e-001
 1.6717102208e+000	 3.9888607318e+000	-1.4147572174e-001
 1.6319006631e+000	 4.0053121259e+000	-1.4490169245e-001
 1.5920096189e+000	 4.0213344021e+000	-1.7302315847e-001
 1.9979314798e+000	 3.8640354297e+000	-2.8268105357e-001
 1.9587904422e+000	 3.8840236873e+000	-3.7190257905e-001
 1.9195133107e+000	 3.9035840775e+000	-4.7514128603e-001
 1.8801068940e+000	 3.9227156495e+000	-5.9110495683e-001
 1.8405779956e+000	 3.9414175930e+000	-4.6128721694e-001
 1.8009334104e+000	 3.9596892367e+000	-3.2892261622e-001
 1.7611799216e+000	 3.9775300482e+000	-2.3146464320e-001
 1.7213242970e+000	 3.9949396322e+000	-1.6635457604e-001
 1.6813732857e+000	 4.0119177302e+000	-1.3106732992e-001
 1.6413336149e+000	 4.0284642191e+000	-1.2311597891e-001
 1.6012119866e+000	 4.0445791096e+000	-1.4005612645e-001
 2.0094138446e+000	 3.8862425299e+000	-2.8948778754e-001
 1.9700478585e+000	 3.9063456625e+000	-3.6665464784e-001
 1.9305449964e+000	 3.9260184687e+000	-4.5783349479e-001
 1.8909121061e+000	 3.9452599923e+000	-5.6175730592e-001
 1.8511560300e+000	 3.9640694182e+000	-5.0278863222e-001
 1.8112836024e+000	 3.9824460714e+000	-3.5936389750e-001
 1.7713016452e+000	 4.0003894163e+000	-2.5108447177e-001
 1.7312169653e+000	 4.0178990554e+000	-1.7537852624e-001
 1.6910363506e+000	 4.0349747287e+000	-1.2970783059e-001
 1.6507665667e+000	 4.0516163123e+000	-1.1157233399e-001
 1.6104143544e+000	 4.0678238172e+000	-1.1851459310e-001
 2.0208962095e+000	 3.9084496300e+000	-2.9994217826e-001
 1.9813052748e+000	 3.9286676378e+000	-3.6597257968e-001
 1.9415766821e+000	 3.9484528600e+000	-4.4600710029e-001
 1.9017173181e+000	 3.9678043352e+000	-5.3880334097e-001
 1.8617340645e+000	 3.9867212435e+000	-5.4828954323e-001
 1.8216337944e+000	 4.0052029061e+000	-3.9502004814e-001
 1.7814233689e+000	 4.0232487843e+000	-2.7712949436e-001
 1.7411096337e+000	 4.0408584785e+000	-1.9203178007e-001
 1.7006994154e+000	 4.0580317271e+000	-1.3717437812e-001
 1.6601995186e+000	 4.0747684055e+000	-1.1004297746e-001
 1.6196167221e+000	 4.0910685247e+000	-1.0816597031e-001
 2.0323785743e+000	 3.9306567302e+000	-3.1404507867e-001
 1.9925626912e+000	 3.9509896130e+000	-3.6984671260e-001
 1.9526083678e+000	 3.9708872512e+000	-4.3964204760e-001
 1.9125225301e+000	 3.9903486780e+000	-5.2221273926e-001
 1.8723120989e+000	 4.0093730687e+000	-5.9758620071e-001
 1.8319839864e+000	 4.0279597408e+000	-4.3568214563e-001
 1.7915450926e+000	 4.0461081524e+000	-3.0938574811e-001
 1.7510023021e+000	 4.0638179017e+000	-2.1609546512e-001
 1.7103624803e+000	 4.0810887256e+000	-1.5324331910e-001
 1.6696324704e+000	 4.0979204987e+000	-1.1829960136e-001
 1.6288190898e+000	 4.1143132322e+000	-1.0877741973e-001
 2.0438609391e+000	 3.9528638304e+000	-3.3179430360e-001
 2.0038201075e+000	 3.9733115882e+000	-3.7826463445e-001
 1.9636400535e+000	 3.9933216425e+000	-4.3871581795e-001
 1.9233277422e+000	 4.0128930208e+000	-5.1195299895e-001
 1.8828901334e+000	 4.0320248940e+000	-5.9678569352e-001
 1.8423341784e+000	 4.0507165755e+000	-4.8113965219e-001
 1.8016668163e+000	 4.0689675205e+000	-3.4763793381e-001
 1.7608949704e+000	 4.0867773249e+000	-2.4734964939e-001
 1.7200255451e+000	 4.1041457241e+000	-1.7769021510e-001
 1.6790654222e+000	 4.1210725920e+000	-1.3611338488e-001
 1.6380214576e+000	 4.1375579397e+000	-1.2011585976e-001
 2.0553433039e+000	 3.9750709306e+000	-3.5318471463e-001
 2.0150775238e+000	 3.9956335634e+000	-3.9121125966e-001
 1.9746717392e+000	 4.0157560337e+000	-4.4320349756e-001
 1.9341329542e+000	 4.0354373636e+000	-5.0798949992e-001
 1.8934681678e+000	 4.0546767192e+000	-5.8440112250e-001
 1.8526843704e+000	 4.0734734102e+000	-5.3118045985e-001
 1.8117885400e+000	 4.0918268886e+000	-3.9166945322e-001
 1.7707876388e+000	 4.1097367481e+000	-2.8557337089e-001
 1.7296886100e+000	 4.1272027225e+000	-2.1028986459e-001
 1.6884983740e+000	 4.1442246852e+000	-1.6325500860e-001
 1.6472238253e+000	 4.1608026473e+000	-1.4194797238e-001
 2.0668256687e+000	 3.9972780307e+000	-3.7820830212e-001
 2.0263349401e+000	 4.0179555386e+000	-4.0866890357e-001
 1.9857034249e+000	 4.0381904250e+000	-4.5307784414e-001
 1.9449381662e+000	 4.0579817064e+000	-5.1028556257e-001
 1.9040462023e+000	 4.0773285445e+000	-5.7914569738e-001
 1.8630345624e+000	 4.0962302449e+000	-5.8559093408e-001
 1.8219102636e+000	 4.1146862567e+000	-4.4126244515e-001
 1.7806803072e+000	 4.1326961712e+000	-3.3054466630e-001
 1.7393516748e+000	 4.1502597210e+000	-2.5081632411e-001
 1.6979313258e+000	 4.1673767784e+000	-1.9949466842e-001
 1.6564261930e+000	 4.1840473548e+000	-1.7404020972e-001
 1.5644025157e+000	 3.9516002795e+000	-3.4279921927e-001
 1.5251296703e+000	 3.9669231766e+000	-3.6911048190e-001
 1.4857897608e+000	 3.9818248061e+000	-3.9073162636e-001
 1.4463892427e+000	 3.9963055637e+000	-4.0621331203e-001
 1.4069345349e+000	 4.0103659702e+000	-4.1417394845e-001
 1.3674320163e+000	 4.0240066701e+000	-4.1330205352e-001
 1.3278880237e+000	 4.0372284301e+000	-4.0235843284e-001
 1.2883088488e+000	 4.0500321369e+000	-3.8017817751e-001
 1.2487007353e+000	 4.0624187960e+000	-3.4280511104e-001
 1.2090698765e+000	 4.0743895290e+000	-2.1313657358e-001
 1.1694224131e+000	 4.0859455723e+000	-8.4266375234e-002
 1.5736048834e+000	 3.9748449870e+000	-2.7416277579e-001
 1.5341010213e+000	 3.9902580188e+000	-2.9825044990e-001
 1.4945297006e+000	 4.0052473050e+000	-3.1850523592e-001
 1.4548974148e+000	 4.0198132435e+000	-3.3342230311e-001
 1.4152106204e+000	 4.0339563582e+000	-3.4156486166e-001
 1.3754757340e+000	 4.0476772976e+000	-3.4156661045e-001
 1.3356991298e+000	 4.0609768326e+000	-3.3213400315e-001
 1.2958871362e+000	 4.0738558554e+000	-3.1204832977e-001
 1.2560460337e+000	 4.0863153771e+000	-2.8016761187e-001
 1.2161820523e+000	 4.0983565262e+000	-1.7183365510e-001
 1.1763013684e+000	 4.1099805463e+000	-5.5984111809e-002
 1.5828072511e+000	 3.9980896946e+000	-2.1764801975e-001
 1.5430723723e+000	 4.0135928610e+000	-2.3981913355e-001
 1.5032696403e+000	 4.0286698039e+000	-2.5899615448e-001
 1.4634055868e+000	 4.0433209233e+000	-2.7361814783e-001
 1.4234867059e+000	 4.0575467463e+000	-2.8219253248e-001
 1.3835194518e+000	 4.0713479250e+000	-2.8329761897e-001
 1.3435102358e+000	 4.0847252351e+000	-2.7558496299e-001
 1.3034654235e+000	 4.0976795738e+000	-2.5778153147e-001
 1.2633913321e+000	 4.1102119583e+000	-2.2869167918e-001
 1.2232942280e+000	 4.1223235234e+000	-1.4120096758e-001
 1.1831803238e+000	 4.1340155202e+000	-3.6691108241e-002
 1.5920096189e+000	 4.0213344021e+000	-1.7302315847e-001
 1.5520437233e+000	 4.0369277032e+000	-1.9359446672e-001
 1.5120095801e+000	 4.0520923027e+000	-2.1199227980e-001
 1.4719137588e+000	 4.0668286031e+000	-2.2659893575e-001
 1.4317627914e+000	 4.0811371344e+000	-2.3586546073e-001
 1.3915631695e+000	 4.0950185525e+000	-2.3831419805e-001
 1.3513213418e+000	 4.1084736377e+000	-2.3254124992e-001
 1.3110437108e+000	 4.1215032923e+000	-2.1721872867e-001
 1.2707366306e+000	 4.1341085394e+000	-1.9109681537e-001
 1.2304064038e+000	 4.1462905207e+000	-1.2175541294e-001
 1.1900592792e+000	 4.1580504942e+000	-2.6882343038e-002
 1.6012119866e+000	 4.0445791096e+000	-1.4005612645e-001
 1.5610150743e+000	 4.0602625455e+000	-1.5935405865e-001
 1.5207495199e+000	 4.0755148016e+000	-1.7728112783e-001
 1.4804219308e+000	 4.0903362829e+000	-1.9216231208e-001
 1.4400388769e+000	 4.1047275224e+000	-2.0239163390e-001
 1.3996068873e+000	 4.1186891800e+000	-2.0643488113e-001
 1.3591324478e+000	 4.1322220402e+000	-2.0283213751e-001
 1.3186219982e+000	 4.1453270108e+000	-1.9020011986e-001
 1.2780819290e+000	 4.1580051206e+000	-1.6723431927e-001
 1.2375185795e+000	 4.1702575179e+000	-1.1401296334e-001
 1.1969382346e+000	 4.1820854681e+000	-2.7051766385e-002
 1.6104143544e+000	 4.0678238172e+000	-1.1851459310e-001
 1.5699864253e+000	 4.0835973877e+000	-1.3687520330e-001
 1.5294894596e+000	 4.0989373005e+000	-1.5464984369e-001
 1.4889301028e+000	 4.1138439627e+000	-1.7010549033e-001
 1.4483149624e+000	 4.1283179105e+000	-1.8157854181e-001
 1.4076506050e+000	 4.1423598075e+000	-1.8747763282e-001
 1.3669435539e+000	 4.1559704427e+000	-1.8628625435e-001
 1.3262002855e+000	 4.1691507292e+000	-1.7656517740e-001
 1.2854272275e+000	 4.1819017017e+000	-1.5695467746e-001
 1.2446307552e+000	 4.1942245151e+000	-1.1848868772e-001
 1.2038171899e+000	 4.2061204421e+000	-3.7692329526e-002
 1.6196167221e+000	 4.0910685247e+000	-1.0816597031e-001
 1.5789577763e+000	 4.1069322299e+000	-1.2593488827e-001
 1.5382293994e+000	 4.1223597993e+000	-1.4388521214e-001
 1.4974382748e+000	 4.1373516424e+000	-1.6022526459e-001
 1.4565910479e+000	 4.1519082985e+000	-1.7323319072e-001
 1.4156943227e+000	 4.1660304349e+000	-1.8125986510e-001
 1.3747546599e+000	 4.1797188453e+000	-1.8273160235e-001
 1.3337785729e+000	 4.1929744477e+000	-1.7615266805e-001
 1.2927725259e+000	 4.2057982829e+000	-1.6010758730e-001
 1.2517429310e+000	 4.2181915124e+000	-1.3326324862e-001
 1.2106961453e+000	 4.2301554161e+000	-5.9296013144e-002
 1.6288190898e+000	 4.1143132322e+000	-1.0877741973e-001
 1.5879291273e+000	 4.1302670721e+000	-1.2630980346e-001
 1.5469693392e+000	 4.1457822982e+000	-1.4477366779e-001
 1.5059464469e+000	 4.1608593222e+000	-1.6231802137e-001
 1.4648671334e+000	 4.1754986866e+000	-1.7716211701e-001
 1.4237380405e+000	 4.1897010624e+000	-1.8759845291e-001
 1.3825657659e+000	 4.2034672478e+000	-1.9199557443e-001
 1.3413568602e+000	 4.2167981661e+000	-1.8880067301e-001
 1.3001178244e+000	 4.2296948641e+000	-1.7654197925e-001
 1.2588551067e+000	 4.2421585096e+000	-1.5383094806e-001
 1.2175751007e+000	 4.2541903900e+000	-9.2353854776e-002
 1.6380214576e+000	 4.1375579397e+000	-1.2011585976e-001
 1.5969004783e+000	 4.1536019143e+000	-1.3777634941e-001
 1.5557092789e+000	 4.1692047970e+000	-1.5710130492e-001
 1.5144546189e+000	 4.1843670020e+000	-1.7617975109e-001
 1.4731432189e+000	 4.1990890747e+000	-1.9317140038e-001
 1.4317817582e+000	 4.2133716899e+000	-2.0630974922e-001
 1.3903768719e+000	 4.2272156503e+000	-2.1390497167e-001
 1.3489351476e+000	 4.2406218846e+000	-2.1434660708e-001
 1.3074631228e+000	 4.2535914452e+000	-2.0610603840e-001
 1.2659672825e+000	 4.2661255068e+000	-1.8773875918e-001
 1.2244540561e+000	 4.2782253640e+000	-1.3735597531e-001
 1.6472238253e+000	 4.1608026473e+000	-1.4194797238e-001
 1.6058718293e+000	 4.1769367565e+000	-1.6011064545e-001
 1.5644492187e+000	 4.1926272959e+000	-1.8065388700e-001
 1.5229627909e+000	 4.2078746818e+000	-2.0160605907e-001
 1.4814193044e+000	 4.2226794627e+000	-2.2106667659e-001
 1.4398254760e+000	 4.2370423173e+000	-2.3720959963e-001
 1.3981879779e+000	 4.2509640528e+000	-2.4828601982e-001
 1.3565134349e+000	 4.2644456030e+000	-2.5262723735e-001
 1.3148084213e+000	 4.2774880264e+000	-2.4864722533e-001
 1.2730794582e+000	 4.2900925040e+000	-2.3484497914e-001
 1.2313330114e+000	 4.3022603379e+000	-1.9479160458e-001
 1.6564261930e+000	 4.1840473548e+000	-1.7404020972e-001
 1.6148431803e+000	 4.2002715988e+000	-1.9308853744e-001
 1.5731891585e+000	 4.2160497947e+000	-2.1521685589e-001
 1.5314709629e+000	 4.2313823616e+000	-2.3839217630e-001
 1.4896953899e+000	 4.2462698508e+000	-2.6065314981e-001
 1.4478691937e+000	 4.2607129448e+000	-2.8011335648e-001
 1.4059990840e+000	 4.2747124554e+000	-2.9496438526e-001
 1.3640917223e+000	 4.2882693215e+000	-3.0347870114e-001
 1.3221537197e+000	 4.3013846075e+000	-3.0401229616e-001
 1.2801916340e+000	 4.3140595013e+000	-2.9500712184e-001
 1.2382119668e+000	 4.3262953119e+000	-2.6514910613e-001
 1.1694224131e+000	 4.0859455723e+000	-8.4266375234e-002
 1.1297644301e+000	 4.0970882749e+000	-5.4817392802e-002
 1.0901019551e+000	 4.1078190963e+000	-2.0312348447e-002
 1.0504409556e+000	 4.1181396041e+000	 1.5152385443e-002
 1.0107873370e+000	 4.1280514725e+000	 4.7839307951e-002
 9.7114694021e-001	 4.1375564794e+000	 7.4372109177e-002
 9.3152554013e-001	 4.1466565047e+000	 9.1737115581e-002
 8.9192884318e-001	 4.1553535275e+000	 9.7283878865e-002
 8.5236248567e-001	 4.1636496242e+000	 8.8724928036e-002
 8.1283203195e-001	 4.1715469658e+000	 6.4134706098e-002
 7.7334297274e-001	 4.1790478158e+000	 2.1947714497e-002
 1.1763013684e+000	 4.1099805463e+000	-5.5984111809e-002
 1.1364101032e+000	 4.1211887942e+000	-3.5320352353e-002
 1.0965143196e+000	 4.1319827380e+000	-9.3148566725e-003
 1.0566200201e+000	 4.1423639547e+000	 1.7787070988e-002
 1.0167331448e+000	 4.1523341282e+000	 4.2105293977e-002
 9.7685956928e-001	 4.1618950470e+000	 6.0127291423e-002
 9.3700510214e-001	 4.1710486018e+000	 6.8709715138e-002
 8.9717548344e-001	 4.1797967836e+000	 6.5079073163e-002
 8.5737638264e-001	 4.1881416808e+000	 4.6831559869e-002
 8.1761339685e-001	 4.1960854774e+000	 1.1932054330e-002
 7.7789204906e-001	 4.2036304500e+000	-4.1287689575e-002
 1.1831803238e+000	 4.1340155202e+000	-3.6691108241e-002
 1.1430557764e+000	 4.1452893135e+000	-2.3367630805e-002
 1.1029266840e+000	 4.1561463797e+000	-4.5327523489e-003
 1.0627990845e+000	 4.1665883053e+000	 1.5417336003e-002
 1.0226789527e+000	 4.1766167839e+000	 3.2458067102e-002
 9.8257219834e-001	 4.1862336145e+000	 4.2939074855e-002
 9.4248466414e-001	 4.1954406989e+000	 4.3585862647e-002
 9.0242212370e-001	 4.2042400396e+000	 3.1500581261e-002
 8.6239027962e-001	 4.2126337374e+000	 4.1619364381e-003
 8.2239476175e-001	 4.2206239889e+000	-4.0575751881e-002
 7.8244112537e-001	 4.2282130842e+000	-1.0448431488e-001
 1.1900592792e+000	 4.1580504942e+000	-2.6882343038e-002
 1.1497014495e+000	 4.1693898327e+000	-1.9430014782e-002
 1.1093390485e+000	 4.1803100215e+000	-6.4125050514e-003
 1.0689781490e+000	 4.1908126559e+000	 7.6211284077e-003
 1.0286247606e+000	 4.2008994397e+000	 1.8500069099e-002
 9.8828482740e-001	 4.2105721820e+000	 2.2434448014e-002
 9.4796422615e-001	 4.2198327960e+000	 1.6017123565e-002
 9.0766876395e-001	 4.2286832957e+000	-3.7754464268e-003
 8.6740417660e-001	 4.2371257940e+000	-3.9583220244e-002
 8.2717612664e-001	 4.2451625005e+000	-9.3663452992e-002
 7.8699020168e-001	 4.2527957184e+000	-1.6789241839e-001
 1.1969382346e+000	 4.1820854681e+000	-2.7051766385e-002
 1.1563471226e+000	 4.1934903520e+000	-2.3977229853e-002
 1.1157514129e+000	 4.2044736632e+000	-1.5399507562e-002
 1.0751572134e+000	 4.2150370066e+000	-6.0225282227e-003
 1.0345705684e+000	 4.2251820954e+000	-1.6520048139e-004
 9.9399745647e-001	 4.2349107496e+000	-1.7585772504e-003
 9.5344378815e-001	 4.2442248931e+000	-1.4343964274e-002
 9.1291540421e-001	 4.2531265517e+000	-4.1071954324e-002
 8.7241807358e-001	 4.2616178507e+000	-8.4702366352e-002
 8.3195749154e-001	 4.2697010121e+000	-1.4760506695e-001
 7.9153927800e-001	 4.2773783526e+000	-2.3176164967e-001
 1.2038171899e+000	 4.2061204421e+000	-3.7692329526e-002
 1.1629927957e+000	 4.2175908713e+000	-3.7477970845e-002
 1.1221637773e+000	 4.2286373050e+000	-3.1938106636e-002
 1.0813362778e+000	 4.2392613572e+000	-2.5933565387e-002
 1.0405163763e+000	 4.2494647511e+000	-2.3933214525e-002
 9.9971008553e-001	 4.2592493171e+000	-3.0010995021e-002
 9.5892335015e-001	 4.2686169902e+000	-4.7843918430e-002
 9.1816204446e-001	 4.2775698078e+000	-8.0711007551e-002
 8.7743197055e-001	 4.2861099073e+000	-1.3149315972e-001
 8.3673885643e-001	 4.2942395236e+000	-2.0267390983e-001
 7.9608835431e-001	 4.3019609868e+000	-2.9634106822e-001
 1.2106961453e+000	 4.2301554161e+000	-5.9296013144e-002
 1.1696384688e+000	 4.2416913905e+000	-6.0399931128e-002
 1.1285761418e+000	 4.2528009467e+000	-5.6471632717e-002
 1.0875153423e+000	 4.2634857078e+000	-5.2530899345e-002
 1.0464621842e+000	 4.2737474068e+000	-5.3198447552e-002
 1.0054227146e+000	 4.2835878846e+000	-6.2692833548e-002
 9.6440291215e-001	 4.2930090873e+000	-8.4828338705e-002
 9.2340868472e-001	 4.3020130638e+000	-1.2301381691e-001
 8.8244586753e-001	 4.3106019639e+000	-1.8025248254e-001
 8.4152022133e-001	 4.3187780352e+000	-2.5914261581e-001
 8.0063743062e-001	 4.3265436210e+000	-3.6187916024e-001
 1.2175751007e+000	 4.2541903900e+000	-9.2353854776e-002
 1.1762841420e+000	 4.2657919098e+000	-9.3209830907e-002
 1.1349885062e+000	 4.2769645885e+000	-8.9442428649e-002
 1.0936944067e+000	 4.2877100584e+000	-8.6232459797e-002
 1.0524079920e+000	 4.2980300625e+000	-8.8354403918e-002
 1.0111353436e+000	 4.3079264521e+000	-1.0017318254e-001
 9.6988247415e-001	 4.3174011843e+000	-1.2564193306e-001
 9.2865532497e-001	 4.3264563199e+000	-1.6830076301e-001
 8.8745976450e-001	 4.3350940205e+000	-2.3127646325e-001
 8.4630158622e-001	 4.3433165468e+000	-3.1728315637e-001
 8.0518650693e-001	 4.3511262553e+000	-4.2862385480e-001
 1.2244540561e+000	 4.2782253640e+000	-1.3735597531e-001
 1.1829298151e+000	 4.2898924291e+000	-1.3637344455e-001
 1.1414008707e+000	 4.3011282302e+000	-1.3129187741e-001
 1.0998734712e+000	 4.3119344090e+000	-1.2745521760e-001
 1.0583537999e+000	 4.3223127183e+000	-1.2979364506e-001
 1.0168479727e+000	 4.3322650197e+000	-1.4282021952e-001
 9.7536203615e-001	 4.3417932814e+000	-1.7062854266e-001
 9.3390196523e-001	 4.3508995759e+000	-2.1689141960e-001
 8.9247366148e-001	 4.3595860771e+000	-2.8486049773e-001
 8.5108295112e-001	 4.3678550583e+000	-3.7736685896e-001
 8.0973558324e-001	 4.3757088895e+000	-4.9091567821e-001
 1.2313330114e+000	 4.3022603379e+000	-1.9479160458e-001
 1.1895754882e+000	 4.3139929483e+000	-1.9035562702e-001
 1.1478132351e+000	 4.3252918719e+000	-1.8246042895e-001
 1.1060525356e+000	 4.3361587596e+000	-1.7661521153e-001
 1.0642996077e+000	 4.3465953740e+000	-1.7790781585e-001
 1.0225606018e+000	 4.3566035872e+000	-1.9100123531e-001
 9.8084159815e-001	 4.3661853785e+000	-2.2013116610e-001
 9.3914860548e-001	 4.3753428319e+000	-2.6858052525e-001
 8.9748755845e-001	 4.3840781337e+000	-3.0939802251e-001
 8.5586431601e-001	 4.3923935699e+000	-3.3894281890e-001
 8.1428465955e-001	 4.4002915237e+000	-3.5535281722e-001
 1.2382119668e+000	 4.3262953119e+000	-2.6514910613e-001
 1.1962211613e+000	 4.3380934676e+000	-2.5562033941e-001
 1.1542255995e+000	 4.3494555137e+000	-2.4338762605e-001
 1.1122316001e+000	 4.3603831102e+000	-2.3412757421e-001
 1.0702454156e+000	 4.3708780297e+000	-2.3308767004e-001
 1.0282732308e+000	 4.3809421547e+000	-2.5351956902e-001
 9.8632116015e-001	 4.3905774756e+000	-2.7527009973e-001
 9.4439524573e-001	 4.3997860880e+000	-2.8519115220e-001
 9.0250145542e-001	 4.4085701903e+000	-2.8075200782e-001
 8.6064568090e-001	 4.4169320814e+000	-2.5976255216e-001
 8.1883373586e-001	 4.4248741579e+000	-2.2036933417e-001
 7.7334297274e-001	 4.1790478158e+000	 2.1947714497e-002
 7.3390072346e-001	 4.1861545275e+000	 1.4791077930e-001
 6.9451062271e-001	 4.1928695419e+000	 3.3974629543e-001
 6.5517793079e-001	 4.1991953847e+000	 5.9642158063e-001
 6.1590782834e-001	 4.2051346646e+000	 8.5077257892e-001
 5.7670541504e-001	 4.2106900698e+000	 8.9063913377e-001
 5.3757570840e-001	 4.2158643666e+000	 9.0546839328e-001
 4.9852364261e-001	 4.2206603959e+000	 9.0190676163e-001
 4.5955406749e-001	 4.2250810713e+000	 8.8590360093e-001
 4.2067174755e-001	 4.2291293762e+000	 8.6274241906e-001
 3.8188136106e-001	 4.2328083616e+000	 8.3707217528e-001
 7.7789204906e-001	 4.2036304500e+000	-4.1287689575e-002
 7.3821778655e-001	 4.2107789659e+000	 7.4670087166e-002
 6.9859597932e-001	 4.2175334803e+000	 2.4663516519e-001
 6.5903191862e-001	 4.2238965340e+000	 4.7346156469e-001
 6.1953081557e-001	 4.2298707508e+000	 7.1244584716e-001
 5.8009779984e-001	 4.2354588350e+000	 6.9676457304e-001
 5.4073791845e-001	 4.2406635688e+000	 6.5523710403e-001
 5.0145613463e-001	 4.2454878100e+000	 5.9426435641e-001
 4.6225732672e-001	 4.2499344894e+000	 5.1954571465e-001
 4.2314628725e-001	 4.2540066078e+000	 4.3611094429e-001
 3.8412772201e-001	 4.2577072343e+000	 3.4835221080e-001
 7.8244112537e-001	 4.2282130842e+000	-1.0448431488e-001
 7.4253484963e-001	 4.2354034043e+000	-9.2714665256e-004
 7.0268133592e-001	 4.2421974188e+000	 1.4875519301e-001
 6.6288590645e-001	 4.2485976834e+000	 3.4330308110e-001
 6.2315380280e-001	 4.2546068371e+000	 5.6725113600e-001
 5.8349018464e-001	 4.2602276001e+000	 4.9803882581e-001
 5.4390012851e-001	 4.2654627709e+000	 4.0240120167e-001
 5.0438862665e-001	 4.2703152241e+000	 2.8648711413e-001
 4.6496058594e-001	 4.2747879074e+000	 1.5573924328e-001
 4.2562082694e-001	 4.2788838395e+000	 1.4926750023e-002
 3.8637408296e-001	 4.2826061070e+000	-1.3182197825e-001
 7.8699020168e-001	 4.2527957184e+000	-1.6789241839e-001
 7.4685191271e-001	 4.2600278427e+000	-7.9061484516e-002
 7.0676669253e-001	 4.2668613573e+000	 4.5993487562e-002
 6.6673989428e-001	 4.2732988327e+000	 2.0589886767e-001
 6.2677679003e-001	 4.2793429233e+000	 3.9960733021e-001
 5.8688256944e-001	 4.2849963652e+000	 2.9312171432e-001
 5.4706233856e-001	 4.2902619731e+000	 1.4576108256e-001
 5.0732111866e-001	 4.2951426382e+000	-2.2483868227e-002
 4.6766384517e-001	 4.2996413255e+000	-2.0643396764e-001
 4.2809536664e-001	 4.3037610711e+000	-4.0158759969e-001
 3.8862044392e-001	 4.3075049798e+000	-6.0408721690e-001
 7.9153927800e-001	 4.2773783526e+000	-2.3176164967e-001
 7.5116897579e-001	 4.2846522811e+000	-1.5991405307e-001
 7.1085204914e-001	 4.2915252958e+000	-6.1764549479e-002
 6.7059388211e-001	 4.2979999820e+000	 6.1198841732e-002
 6.3039977725e-001	 4.3040790096e+000	 2.0782961329e-001
 5.9027495423e-001	 4.3097651303e+000	 8.0668101683e-002
 5.5022454861e-001	 4.3150611753e+000	-1.1588884080e-001
 5.1025361068e-001	 4.3199700523e+000	-3.3371447251e-001
 4.7036710439e-001	 4.3244947436e+000	-5.6790001639e-001
 4.3056990634e-001	 4.3286383027e+000	-8.1421841957e-001
 3.9086680487e-001	 4.3324038525e+000	-1.0690901137e+000
 7.9608835431e-001	 4.3019609868e+000	-2.9634106822e-001
 7.5548603887e-001	 4.3092767195e+000	-2.4366652714e-001
 7.1493740575e-001	 4.3161892343e+000	-1.7463517466e-001
 6.7444786994e-001	 4.3227011313e+000	-9.0849819286e-002
 6.3402276448e-001	 4.3288150959e+000	 6.4435428290e-003
 5.9366733903e-001	 4.3345338954e+000	-1.4067196638e-001
 5.5338675867e-001	 4.3398603774e+000	-3.8375996888e-001
 5.1318610270e-001	 4.3447974664e+000	-6.4827736004e-001
 4.7307036361e-001	 4.3493481616e+000	-9.2959271810e-001
 4.3304444603e-001	 4.3535155343e+000	-1.2237606494e+000
 3.9311316582e-001	 4.3573027252e+000	-1.5274867812e+000
 8.0063743062e-001	 4.3265436210e+000	-3.6187916024e-001
 7.5980310196e-001	 4.3339011579e+000	-3.3050111412e-001
 7.1902276235e-001	 4.3408531727e+000	-2.9273625562e-001
 6.7830185777e-001	 4.3474022807e+000	-2.5030260001e-001
 6.3764575171e-001	 4.3535511821e+000	-2.0454595539e-001
 5.9705972383e-001	 4.3593026605e+000	-3.7225312468e-001
 5.5654896872e-001	 4.3646595796e+000	-6.5906934988e-001
 5.1611859472e-001	 4.3696248805e+000	-9.6725177897e-001
 4.7577362284e-001	 4.3742015797e+000	-1.2924533856e+000
 4.3551898573e-001	 4.3783927660e+000	-1.4922373317e+000
 3.9535952677e-001	 4.3822015979e+000	-1.6587809180e+000
 8.0518650693e-001	 4.3511262553e+000	-4.2862385480e-001
 7.6412016504e-001	 4.3585255963e+000	-4.2060053896e-001
 7.2310811896e-001	 4.3655171112e+000	-4.1618722562e-001
 6.8215584560e-001	 4.3721034300e+000	-4.1721757191e-001
 6.4126873894e-001	 4.3782872684e+000	-3.5442970233e-001
 6.0045210862e-001	 4.3840714257e+000	-3.8487603558e-001
 5.5971117877e-001	 4.3894587817e+000	-5.2006119018e-001
 5.1905108674e-001	 4.3944522946e+000	-6.4949914772e-001
 4.7847688206e-001	 4.3990549978e+000	-7.7446012484e-001
 4.3799352542e-001	 4.4032699976e+000	-8.9657159435e-001
 3.9760588772e-001	 4.4071004706e+000	-1.0178098729e+000
 8.0973558324e-001	 4.3757088895e+000	-4.9091567821e-001
 7.6843722812e-001	 4.3831500347e+000	-4.2286194633e-001
 7.2719347556e-001	 4.3901810497e+000	-3.2722344162e-001
 6.8600983343e-001	 4.3968045793e+000	-2.0383541444e-001
 6.4489172617e-001	 4.4030233546e+000	-5.2833131261e-002
 6.0384449342e-001	 4.4088401908e+000	-1.3787459624e-002
 5.6287338882e-001	 4.4142579839e+000	-9.5827230457e-002
 5.2198357876e-001	 4.4192797087e+000	-1.7457277582e-001
 4.8118014128e-001	 4.4239084158e+000	-2.5132293522e-001
 4.4046806511e-001	 4.4281472292e+000	-3.2773671716e-001
 3.9985224867e-001	 4.4319993433e+000	-4.0582482007e-001
 8.1428465955e-001	 4.4002915237e+000	-3.5535281722e-001
 7.7275429120e-001	 4.4077744731e+000	-2.4384718169e-001
 7.3127883217e-001	 4.4148449882e+000	-1.0767400092e-001
 6.8986382126e-001	 4.4215057286e+000	 5.3265994536e-002
 6.4851471339e-001	 4.4277594409e+000	 2.3877166310e-001
 6.0723687822e-001	 4.4336089559e+000	 3.4102878875e-001
 5.6603559887e-001	 4.4390571860e+000	 3.0939022805e-001
 5.2491607077e-001	 4.4441071228e+000	 2.7874302934e-001
 4.8388340051e-001	 4.4487618339e+000	 2.4776072789e-001
 4.4294260481e-001	 4.4530244608e+000	 2.1475360581e-001
 4.0209860962e-001	 4.4568982160e+000	 1.7767724028e-001
 8.1883373586e-001	 4.4248741579e+000	-2.2036933417e-001
 7.7707135428e-001	 4.4323989115e+000	-6.7918203404e-002
 7.3536418877e-001	 4.4395089267e+000	 1.0640623124e-001
 6.9371780909e-001	 4.4462068779e+000	 3.0263830833e-001
 6.5213770062e-001	 4.4524955272e+000	 5.2051143027e-001
 6.1062926301e-001	 4.4583777210e+000	 6.7998444599e-001
 5.6919780892e-001	 4.4638563882e+000	 6.9602020685e-001
 5.2784856279e-001	 4.4689345369e+000	 7.1089422972e-001
 4.8658665973e-001	 4.4736152520e+000	 7.2325342666e-001
 4.4541714450e-001	 4.4779016925e+000	 7.3137820072e-001
 4.0434497057e-001	 4.4817970888e+000	 7.3319106585e-001
 3.8188136106e-001	 4.2328083616e+000	 8.3707217528e-001
 3.4318749924e-001	 4.2361211433e+000	 9.0351140515e-001
 3.0459466554e-001	 4.2390708994e+000	 9.7662299592e-001
 2.6610727498e-001	 4.2416608679e+000	 1.0598126329e+000
 2.2772965353e-001	 4.2438943442e+000	 1.1559663782e+000
 1.8946603763e-001	 4.2457746785e+000	 1.2674811514e+000
 1.5132057376e-001	 4.2473052732e+000	 1.3962948965e+000
 1.1329731804e-001	 4.2484895807e+000	 1.5439163745e+000
 7.5400235934e-002	 4.2493311008e+000	 1.7114545227e+000
 3.7633202065e-002	 4.2498333782e+000	 1.8996473252e+000
 0.0000000000e+000	 4.2500000000e+000	 2.1088901451e+000
 3.8412772201e-001	 4.2577072343e+000	 3.4835221080e-001
 3.4520624924e-001	 4.2610395029e+000	 3.6303521013e-001
 3.0638639888e-001	 4.2640066105e+000	 3.8543908490e-001
 2.6767261190e-001	 4.2666118142e+000	 4.1856223371e-001
 2.2906923973e-001	 4.2688584286e+000	 4.6488322281e-001
 1.9058054374e-001	 4.2707498237e+000	 5.2639203523e-001
 1.5221069479e-001	 4.2722894219e+000	 6.0462098485e-001
 1.1396377285e-001	 4.2734806959e+000	 7.0067523256e-001
 7.5843766737e-002	 4.2743271661e+000	 8.1526284502e-001
 3.7854573843e-002	 4.2748323980e+000	 9.4872434088e-001
 0.0000000000e+000	 4.2750000000e+000	 1.1010616728e+000
 3.8637408296e-001	 4.2826061070e+000	-1.3182197825e-001
 3.4722499924e-001	 4.2859578626e+000	-1.6819634960e-001
 3.0817813221e-001	 4.2889423217e+000	-1.9564453253e-001
 2.6923794881e-001	 4.2915627605e+000	-2.1158134962e-001
 2.3040882593e-001	 4.2938225130e+000	-2.1394173971e-001
 1.9169504985e-001	 4.2957249688e+000	-2.0114872859e-001
 1.5310081581e-001	 4.2972735706e+000	-1.7208175697e-001
 1.1463022767e-001	 4.2984718111e+000	-1.2604542983e-001
 7.6287297539e-002	 4.2993232314e+000	-6.2738747059e-002
 3.8075945621e-002	 4.2998314179e+000	 1.7775128289e-002
 0.0000000000e+000	 4.3000000000e+000	 1.1509851200e-001
 3.8862044392e-001	 4.3075049798e+000	-6.0408721690e-001
 3.4924374924e-001	 4.3108762223e+000	-6.9063466952e-001
 3.0996986554e-001	 4.3138780329e+000	-7.6689353574e-001
 2.7080328573e-001	 4.3165137067e+000	-8.3069789234e-001
 2.3174841213e-001	 4.3187865974e+000	-8.8040228998e-001
 1.9280955596e-001	 4.3207001140e+000	-9.1484893219e-001
 1.5399093684e-001	 4.3222577192e+000	-9.3333523423e-001
 1.1529668248e-001	 4.3234629263e+000	-9.3558182677e-001
 7.6730828340e-002	 4.3243192967e+000	-9.2170106536e-001
 3.8297317399e-002	 4.3248304378e+000	-8.9216610264e-001
 0.0000000000e+000	 4.3250000000e+000	-8.4778057620e-001
 3.9086680487e-001	 4.3324038525e+000	-1.0690901137e+000
 3.5126249924e-001	 4.3357945819e+000	-1.2047428378e+000
 3.1176159887e-001	 4.3388137440e+000	-1.3285871883e+000
 2.7236862265e-001	 4.3414646530e+000	-1.4388826271e+000
 2.3308799833e-001	 4.3437506817e+000	-1.5344095206e+000
 1.9392406206e-001	 4.3456752592e+000	-1.6144355149e+000
 1.5488105786e-001	 4.3472418679e+000	-1.6786823148e+000
 1.1596313730e-001	 4.3484540415e+000	-1.7272929303e+000
 7.7174359142e-002	 4.3493153620e+000	-1.7607994542e+000
 3.8518689177e-002	 4.3498294576e+000	-1.7800914277e+000
 0.0000000000e+000	 4.3500000000e+000	-1.7863848483e+000
 3.9311316582e-001	 4.3573027252e+000	-1.5274867812e+000
 3.5328124924e-001	 4.3607129416e+000	-1.7109953012e+000
 3.1355333220e-001	 4.3637494552e+000	-1.8810179497e+000
 2.7393395956e-001	 4.3664155993e+000	-2.0362458024e+000
 2.3442758453e-001	 4.3687147661e+000	-2.1758913414e+000
 1.9503856817e-001	 4.3706504043e+000	-2.2996540163e+000
 1.5577117889e-001	 4.3722260166e+000	-2.4076862304e+000
 1.1662959211e-001	 4.3734451567e+000	-2.5005598201e+000
 7.7617889943e-002	 4.3743114273e+000	-2.5792330892e+000
 3.8740060954e-002	 4.3748284775e+000	-2.6450184575e+000
 0.0000000000e+000	 4.3750000000e+000	-2.6995507777e+000
 3.9535952677e-001	 4.3822015979e+000	-1.6587809180e+000
 3.5529999924e-001	 4.3856313013e+000	-1.6970616286e+000
 3.1534506553e-001	 4.3886851664e+000	-1.7151540131e+000
 2.7549929647e-001	 4.3913665456e+000	-1.7163630423e+000
 2.3576717073e-001	 4.3936788505e+000	-1.7043103549e+000
 1.9615307428e-001	 4.3956255495e+000	-1.6829229222e+000
 1.5666129991e-001	 4.3972101652e+000	-1.6564213371e+000
 1.1729604692e-001	 4.3984362718e+000	-1.6293077639e+000
 7.8061420743e-002	 4.3993074926e+000	-1.6063535872e+000
 3.8961432732e-002	 4.3998274974e+000	-1.5925867931e+000
 0.0000000000e+000	 4.4000000000e+000	-1.5932791220e+000
 3.9760588772e-001	 4.4071004706e+000	-1.0178098729e+000
 3.5731874924e-001	 4.4105496609e+000	-1.0160333066e+000
 3.1713679886e-001	 4.4136208776e+000	-9.9364464303e-001
 2.7706463339e-001	 4.4163174919e+000	-9.5412925524e-001
 2.3710675693e-001	 4.4186429349e+000	-9.0129142630e-001
 1.9726758038e-001	 4.4206006947e+000	-8.3924278862e-001
 1.5755142094e-001	 4.4221943139e+000	-7.7239038618e-001
 1.1796250174e-001	 4.4234273870e+000	-7.0542439661e-001
 7.8504951544e-002	 4.4243035579e+000	-6.4330555025e-001
 3.9182804509e-002	 4.4248265173e+000	-5.9125228293e-001
 0.0000000000e+000	 4.4250000000e+000	-5.5472765842e-001
 3.9985224867e-001	 4.4319993433e+000	-4.0582482007e-001
 3.5933749924e-001	 4.4354680206e+000	-3.6833276966e-001
 3.1892853219e-001	 4.4385565887e+000	-3.0967953972e-001
 2.7862997030e-001	 4.4412684381e+000	-2.3352953627e-001
 2.3844634313e-001	 4.4436070192e+000	-1.4386847816e-001
 1.9838208649e-001	 4.4455758398e+000	-4.4991609266e-002
 1.5844154196e-001	 4.4471784626e+000	 5.8508468646e-002
 1.1862895655e-001	 4.4484185022e+000	 1.6175430486e-001
 7.8948482344e-002	 4.4492996232e+000	 2.5959641260e-001
 3.9404176286e-002	 4.4498255371e+000	 3.4662634876e-001
 0.0000000000e+000	 4.4500000000e+000	 4.1719002392e-001
 4.0209860962e-001	 4.4568982160e+000	 1.7767724028e-001
 3.6135624923e-001	 4.4603863803e+000	 2.4659854099e-001
 3.2072026552e-001	 4.4634922999e+000	 3.3735553999e-001
 2.8019530721e-001	 4.4662193844e+000	 4.4610615067e-001
 2.3978592933e-001	 4.4685711036e+000	 5.6868440933e-001
 1.9949659259e-001	 4.4705509850e+000	 7.0061249259e-001
 1.5933166298e-001	 4.4721626112e+000	 8.3711311659e-001
 1.1929541136e-001	 4.4734096174e+000	 9.7312227965e-001
 7.9392013143e-002	 4.4742956885e+000	 1.1033023101e+000
 3.9625548063e-002	 4.4748245570e+000	 1.2220551815e+000
 0.0000000000e+000	 4.4750000000e+000	 1.3235360587e+000
 4.0434497057e-001	 4.4817970888e+000	 7.3319106585e-001
 3.6337499923e-001	 4.4853047399e+000	 8.2930933363e-001
 3.2251199884e-001	 4.4884280111e+000	 9.4806339545e-001
 2.8176064413e-001	 4.4911703307e+000	 1.0854348197e+000
 2.4112551553e-001	 4.4935351880e+000	 1.2370785717e+000
 2.0061109869e-001	 4.4955261302e+000	 1.3983352634e+000
 1.6022178400e-001	 4.4971467599e+000	 1.5642437871e+000
 1.1996186617e-001	 4.4984007326e+000	 1.7295542948e+000
 7.9835543943e-002	 4.4992917538e+000	 1.8887414839e+000
 3.9846919840e-002	 4.4998235769e+000	 2.0360181509e+000
 0.0000000000e+000	 4.5000000000e+000	 2.1653489766e+000
 4.5000000000e+000	 0.0000000000e+000	 2.2116617013e-001
 4.4998235769e+000	 3.9846919840e-002	 2.0446265541e-001
 4.4992917538e+000	 7.9835543943e-002	 1.9425740265e-001
 4.4984007326e+000	 1.1996186617e-001	 1.8915900028e-001
 4.4971467599e+000	 1.6022178400e-001	 1.8786279340e-001
 4.4955261302e+000	 2.0061109869e-001	 1.8915546875e-001
 4.4935351880e+000	 2.4112551553e-001	 1.9191957646e-001
 4.4911703307e+000	 2.8176064413e-001	 1.9513797645e-001
 4.4884280111e+000	 3.2251199884e-001	 1.9789819666e-001
 4.4853047399e+000	 3.6337499923e-001	 1.9939669033e-001
 4.4817970888e+000	 4.0434497057e-001	 1.9894297936e-001
 4.5250000000e+000	 0.0000000000e+000	 2.6444087300e-001
 4.5248225967e+000	 4.0068291616e-002	 2.4737666662e-001
 4.5242878191e+000	 8.0279074742e-002	 2.3656959749e-001
 4.5233918477e+000	 1.2062832098e-001	 2.3062212385e-001
 4.5221309085e+000	 1.6111190503e-001	 2.2822523534e-001
 4.5205012753e+000	 2.0172560480e-001	 2.2816310222e-001
 4.5184992724e+000	 2.4246510172e-001	 2.2931765971e-001
 4.5161212770e+000	 2.8332598104e-001	 2.3067311490e-001
 4.5133637222e+000	 3.2430373217e-001	 2.3132036344e-001
 4.5102230996e+000	 3.6539374923e-001	 2.3046130289e-001
 4.5066959615e+000	 4.0659133152e-001	 2.2741302952e-001
 4.5500000000e+000	 0.0000000000e+000	 3.0638446694e-001
 4.5498216166e+000	 4.0289663393e-002	 2.8955648964e-001
 4.5492838844e+000	 8.0722605541e-002	 2.7870972450e-001
 4.5483829629e+000	 1.2129477580e-001	 2.7243994362e-001
 4.5471150572e+000	 1.6200202605e-001	 2.6943325644e-001
 4.5454764205e+000	 2.0284011090e-001	 2.6847082464e-001
 4.5434633567e+000	 2.4380468792e-001	 2.6843351028e-001
 4.5410722233e+000	 2.8489131795e-001	 2.6830644466e-001
 4.5382994334e+000	 3.2609546550e-001	 2.6718350465e-001
 4.5351414592e+000	 3.6741249922e-001	 2.6427168334e-001
 4.5315948342e+000	 4.0883769246e-001	 2.5889534161e-001
 4.5750000000e+000	 0.0000000000e+000	 3.4701047178e-001
 4.5748206365e+000	 4.0511035169e-002	 3.3101148724e-001
 4.5742799497e+000	 8.1166136340e-002	 3.2068288102e-001
 4.5733740781e+000	 1.2196123061e-001	 3.1461318371e-001
 4.5720992059e+000	 1.6289214707e-001	 3.1148310067e-001
 4.5704515657e+000	 2.0395461700e-001	 3.1007029387e-001
 4.5684274411e+000	 2.4514427412e-001	 3.0925409522e-001
 4.5660231695e+000	 2.8645665486e-001	 3.0802013859e-001
 4.5632351446e+000	 3.2788719882e-001	 3.0546489717e-001
 4.5600598189e+000	 3.6943124922e-001	 3.0080011270e-001
 4.5564937069e+000	 4.1108405341e-001	 2.9335710288e-001
 4.6000000000e+000	 0.0000000000e+000	 3.8633211346e-001
 4.5998196564e+000	 4.0732406946e-002	 3.7175081418e-001
 4.5992760150e+000	 8.1609667139e-002	 3.6249403930e-001
 4.5983651933e+000	 1.2262768542e-001	 3.5714252314e-001
 4.5970833545e+000	 1.6378226809e-001	 3.5437104382e-001
 4.5954267108e+000	 2.0506912311e-001	 3.5295327339e-001
 4.5933915255e+000	 2.4648386031e-001	 3.5176655773e-001
 4.5909741158e+000	 2.8802199177e-001	 3.4979661305e-001
 4.5881708558e+000	 3.2967893215e-001	 3.4614212553e-001
 4.5849781786e+000	 3.7144999921e-001	 3.4001924030e-001
 4.5813925796e+000	 4.1333041436e-001	 3.3076592614e-001
 4.6250000000e+000	 0.0000000000e+000	 4.2436233195e-001
 4.6248186762e+000	 4.0953778723e-002	 4.1178342281e-001
 4.6242720803e+000	 8.2053197938e-002	 4.0414804995e-001
 4.6233563085e+000	 1.2329414023e-001	 4.0002859708e-001
 4.6220675032e+000	 1.6467238911e-001	 3.9809339261e-001
 4.6204018560e+000	 2.0618362921e-001	 3.9711162940e-001
 4.6183556099e+000	 2.4782344651e-001	 3.9595821248e-001
 4.6159250621e+000	 2.8958732868e-001	 3.9361852142e-001
 4.6131065669e+000	 3.3147066547e-001	 3.8919307348e-001
 4.6098965382e+000	 3.7346874920e-001	 3.8190207377e-001
 4.6062914523e+000	 4.1557677530e-001	 3.7108983822e-001
 4.6500000000e+000	 0.0000000000e+000	 4.6111378892e-001
 4.6498176961e+000	 4.1175150499e-002	 4.5111806856e-001
 4.6492681456e+000	 8.2496728737e-002	 4.4564964514e-001
 4.6483474236e+000	 1.2396059504e-001	 4.4327199799e-001
 4.6470516519e+000	 1.6556251013e-001	 4.4264648392e-001
 4.6453770012e+000	 2.0729813531e-001	 4.4253732810e-001
 4.6433196943e+000	 2.4916303270e-001	 4.4181654095e-001
 4.6408760084e+000	 2.9115266559e-001	 4.3946874762e-001
 4.6380422781e+000	 3.3326239880e-001	 4.3459591604e-001
 4.6348148979e+000	 3.7548749920e-001	 4.2642196942e-001
 4.6311903250e+000	 4.1782313625e-001	 4.1429726885e-001
 4.6750000000e+000	 0.0000000000e+000	 4.9659887524e-001
 4.6748167160e+000	 4.1396522276e-002	 4.8976331514e-001
 4.6742642109e+000	 8.2940259537e-002	 4.8700344186e-001
 4.6733385388e+000	 1.2462704985e-001	 4.8687327679e-001
 4.6720358005e+000	 1.6645263115e-001	 4.8802668393e-001
 4.6703521463e+000	 2.0841264141e-001	 4.8922243300e-001
 4.6682837786e+000	 2.5050261890e-001	 4.8932918698e-001
 4.6658269547e+000	 2.9271800250e-001	 4.8733040002e-001
 4.6629779893e+000	 3.3505413212e-001	 4.8232911166e-001
 4.6597332576e+000	 3.7750624919e-001	 4.7355262295e-001
 4.6560891977e+000	 4.2006949719e-001	 4.6035703991e-001
 4.7000000000e+000	 0.0000000000e+000	 5.3082971812e-001
 4.6998157358e+000	 4.1617894052e-002	 5.2772753971e-001
 4.6992602762e+000	 8.3383790336e-002	 5.2821394488e-001
 4.6983296540e+000	 1.2529350466e-001	 5.3083294397e-001
 4.6970199492e+000	 1.6734275217e-001	 5.3423038734e-001
 4.6953272915e+000	 2.0952714752e-001	 5.3715910230e-001
 4.6932478630e+000	 2.5184220510e-001	 5.3848395244e-001
 4.6907779010e+000	 2.9428333941e-001	 5.3718680545e-001
 4.6879137004e+000	 3.3684586545e-001	 5.3237139470e-001
 4.6846516172e+000	 3.7952499918e-001	 5.2326806037e-001
 4.6809880705e+000	 4.2231585814e-001	 5.0923835496e-001
 4.7250000000e+000	 0.0000000000e+000	 5.6381818811e-001
 4.7248147557e+000	 4.1839265829e-002	 5.6501893776e-001
 4.7242563415e+000	 8.3827321135e-002	 5.6928554979e-001
 4.7233207692e+000	 1.2595995947e-001	 5.7515147062e-001
 4.7220040979e+000	 1.6823287319e-001	 5.8125401667e-001
 4.7203024367e+000	 2.1064165362e-001	 5.8633958643e-001
 4.7182119474e+000	 2.5318179129e-001	 5.8926879309e-001
 4.7157288472e+000	 2.9584867632e-001	 5.8902150339e-001
 4.7128494116e+000	 3.3863759877e-001	 5.8470176812e-001
 4.7095699769e+000	 3.8154374918e-001	 5.7554262931e-001
 4.7058869432e+000	 4.2456221908e-001	 5.6091078919e-001
 4.7500000000e+000	 0.0000000000e+000	 5.9557590586e-001
 4.7498137756e+000	 4.2060637605e-002	 6.0164552790e-001
 4.7492524068e+000	 8.4270851934e-002	 6.1022254584e-001
 4.7483118844e+000	 1.2662641428e-001	 6.1982928951e-001
 4.7469882465e+000	 1.6912299422e-001	 6.2909402146e-001
 4.7452775818e+000	 2.1175615972e-001	 6.3675622562e-001
 4.7431760318e+000	 2.5452137749e-001	 6.4167181448e-001
 4.7406797935e+000	 2.9741401323e-001	 6.4281824045e-001
 4.7377851228e+000	 3.4042933210e-001	 6.3929949643e-001
 4.7344883366e+000	 3.8356249917e-001	 6.3035099053e-001
 4.7307858159e+000	 4.2680858003e-001	 6.1534427958e-001
 4.4817970888e+000	 4.0434497057e-001	 1.9894297936e-001
 4.4779016925e+000	 4.4541714450e-001	 2.0088818780e-001
 4.4736152520e+000	 4.8658665973e-001	 2.0605325439e-001
 4.4689345369e+000	 5.2784856279e-001	 2.1412919052e-001
 4.4638563882e+000	 5.6919780892e-001	 2.2493052125e-001
 4.4583777210e+000	 6.1062926301e-001	 2.3839854550e-001
 4.4524955272e+000	 6.5213770062e-001	 2.6678953885e-001
 4.4462068779e+000	 6.9371780909e-001	 3.0168533112e-001
 4.4395089267e+000	 7.3536418877e-001	 3.3622452347e-001
 4.4323989115e+000	 7.7707135428e-001	 3.7071146668e-001
 4.4248741579e+000	 8.1883373586e-001	 4.0556933046e-001
 4.5066959615e+000	 4.0659133152e-001	 2.2741302952e-001
 4.5027789241e+000	 4.4789168419e-001	 2.2585352580e-001
 4.4984686700e+000	 4.8928991895e-001	 2.2738785097e-001
 4.4937619509e+000	 5.3078105481e-001	 2.3172752984e-001
 4.4886555903e+000	 5.7236001898e-001	 2.3870993888e-001
 4.4831464861e+000	 6.1402164781e-001	 2.4830159804e-001
 4.4772316134e+000	 6.5576068785e-001	 2.7336055775e-001
 4.4709080272e+000	 6.9757179692e-001	 3.0303686899e-001
 4.4641728651e+000	 7.3944954538e-001	 3.3256330876e-001
 4.4570233499e+000	 7.8138841736e-001	 3.6227341571e-001
 4.4494567921e+000	 8.2338281217e-001	 3.9262147827e-001
 4.5315948342e+000	 4.0883769246e-001	 2.5889534161e-001
 4.5276561557e+000	 4.5036622388e-001	 2.5417822911e-001
 4.5233220881e+000	 4.9199317817e-001	 2.5238952387e-001
 4.5185893650e+000	 5.3371354682e-001	 2.5326102512e-001
 4.5134547925e+000	 5.7552222903e-001	 2.5665276478e-001
 4.5079152512e+000	 6.1741403260e-001	 2.6255633202e-001
 4.5019676997e+000	 6.5938367507e-001	 2.8424798476e-001
 4.4956091766e+000	 7.0142578475e-001	 3.0889700451e-001
 4.4888368036e+000	 7.4353490198e-001	 3.3356723619e-001
 4.4816477883e+000	 7.8570548043e-001	 3.5862132809e-001
 4.4740394263e+000	 8.2793188848e-001	 3.8454464966e-001
 4.5564937069e+000	 4.1108405341e-001	 2.9335710288e-001
 4.5525333873e+000	 4.5284076358e-001	 2.8582234183e-001
 4.5481755061e+000	 4.9469643739e-001	 2.8101109056e-001
 4.5434167791e+000	 5.3664603884e-001	 2.7867518729e-001
 4.5382539946e+000	 5.7868443908e-001	 2.7869712726e-001
 4.5326840163e+000	 6.2080641740e-001	 2.8109342109e-001
 4.5267037859e+000	 6.6300666230e-001	 2.9939535706e-001
 4.5203103259e+000	 7.0527977258e-001	 3.1920333127e-001
 4.5135007421e+000	 7.4762025859e-001	 3.3916793626e-001
 4.5062722267e+000	 7.9002254351e-001	 3.5968085573e-001
 4.4986220605e+000	 8.3248096479e-001	 3.8125850656e-001
 4.5813925796e+000	 4.1333041436e-001	 3.3076592614e-001
 4.5774106189e+000	 4.5531530327e-001	 3.2074642982e-001
 4.5730289242e+000	 4.9739969661e-001	 3.1320598278e-001
 4.5682441932e+000	 5.3957853085e-001	 3.0791623027e-001
 4.5630531968e+000	 5.8184664912e-001	 3.0478194244e-001
 4.5574527815e+000	 6.2419880219e-001	 3.0384440749e-001
 4.5514398722e+000	 6.6662964952e-001	 3.1874715722e-001
 4.5450114752e+000	 7.0913376041e-001	 3.3389446099e-001
 4.5381646806e+000	 7.5170561519e-001	 3.4929812614e-001
 4.5308966650e+000	 7.9433960659e-001	 3.6537880144e-001
 4.5232046947e+000	 8.3703004110e-001	 3.8268392181e-001
 4.6062914523e+000	 4.1557677530e-001	 3.7108983822e-001
 4.6022878506e+000	 4.5778984296e-001	 3.5891156664e-001
 4.5978823423e+000	 5.0010295583e-001	 3.4892822998e-001
 4.5930716073e+000	 5.4251102287e-001	 3.4093105198e-001
 4.5878523989e+000	 5.8500885917e-001	 3.3484689290e-001
 4.5822215466e+000	 6.2759118699e-001	 3.3158506683e-001
 4.5761759585e+000	 6.7025263675e-001	 3.4224878768e-001
 4.5697126245e+000	 7.1298774823e-001	 3.5290999595e-001
 4.5628286191e+000	 7.5579097179e-001	 3.6389158022e-001
 4.5555211034e+000	 7.9865666967e-001	 3.7564308785e-001
 4.5477873289e+000	 8.4157911741e-001	 3.8874294640e-001
 4.6311903250e+000	 4.1782313625e-001	 4.1429726885e-001
 4.6271650822e+000	 4.6026438265e-001	 4.0027931989e-001
 4.6227357603e+000	 5.0280621505e-001	 3.8813244323e-001
 4.6178990214e+000	 5.4544351488e-001	 3.7766721593e-001
 4.6126516011e+000	 5.8817106922e-001	 3.6883240715e-001
 4.6069903117e+000	 6.3098357178e-001	 3.6350162985e-001
 4.6009120447e+000	 6.7387562397e-001	 3.6984654601e-001
 4.5944137738e+000	 7.1684173606e-001	 3.7619050244e-001
 4.5874925575e+000	 7.5987632840e-001	 3.8288310176e-001
 4.5801455418e+000	 8.0297373275e-001	 3.9040272730e-001
 4.5723699631e+000	 8.4612819372e-001	 3.9935877785e-001
 4.6560891977e+000	 4.2006949719e-001	 4.6035703991e-001
 4.6520423138e+000	 4.6273892234e-001	 4.4481173800e-001
 4.6475891784e+000	 5.0550947427e-001	 4.3077379971e-001
 4.6427264355e+000	 5.4837600689e-001	 4.1807293344e-001
 4.6374508033e+000	 5.9133327927e-001	 4.0667963963e-001
 4.6317590768e+000	 6.3437595657e-001	 3.9926262652e-001
 4.6256481310e+000	 6.7749861120e-001	 4.0148760101e-001
 4.6191149232e+000	 7.2069572389e-001	 4.0367748492e-001
 4.6121564960e+000	 7.6396168500e-001	 4.0620849535e-001
 4.6047699802e+000	 8.0729079583e-001	 4.0958779268e-001
 4.5969525973e+000	 8.5067727003e-001	 4.1445572949e-001
 4.6809880705e+000	 4.2231585814e-001	 5.0923835496e-001
 4.6769195454e+000	 4.6521346202e-001	 4.9247133745e-001
 4.6724425965e+000	 5.0821273349e-001	 4.7680802758e-001
 4.6675538496e+000	 5.5130849891e-001	 4.6209704643e-001
 4.6622500054e+000	 5.9449548931e-001	 4.4833045140e-001
 4.6565278419e+000	 6.3776834136e-001	 4.3882163000e-001
 4.6503842172e+000	 6.8112159842e-001	 4.3711996949e-001
 4.6438160725e+000	 7.2454971171e-001	 4.3531336108e-001
 4.6368204345e+000	 7.6804704160e-001	 4.3380454028e-001
 4.6293944186e+000	 8.1160785890e-001	 4.3312938928e-001
 4.6215352316e+000	 8.5522634634e-001	 4.3395920083e-001
 4.7058869432e+000	 4.2456221908e-001	 5.6091078919e-001
 4.7017967771e+000	 4.6768800171e-001	 5.4322109037e-001
 4.6972960145e+000	 5.1091599270e-001	 5.2619139149e-001
 4.6923812637e+000	 5.5424099092e-001	 5.0968901069e-001
 4.6870492076e+000	 5.9765769936e-001	 4.9372739150e-001
 4.6812966070e+000	 6.4116072615e-001	 4.8213297196e-001
 4.6751203035e+000	 6.8474458564e-001	 4.7669249386e-001
 4.6685172218e+000	 7.2840369954e-001	 4.7104143769e-001
 4.6614843730e+000	 7.7213239820e-001	 4.6560896474e-001
 4.6540188570e+000	 8.1592492198e-001	 4.6095962742e-001
 4.6461178658e+000	 8.5977542265e-001	 4.5779564884e-001
 4.7307858159e+000	 4.2680858003e-001	 6.1534427958e-001
 4.7266740087e+000	 4.7016254140e-001	 5.9702441258e-001
 4.7221494326e+000	 5.1361925192e-001	 5.7888067839e-001
 4.7172086778e+000	 5.5717348293e-001	 5.6079887976e-001
 4.7118484097e+000	 6.0081990940e-001	 5.4281367880e-001
 4.7060653722e+000	 6.4455311094e-001	 5.2915172267e-001
 4.6998563898e+000	 6.8836757286e-001	 5.2015482041e-001
 4.6932183711e+000	 7.3225768736e-001	 5.1080588723e-001
 4.6861483115e+000	 7.7621775480e-001	 5.0156042091e-001
 4.6786432954e+000	 8.2024198506e-001	 4.9301159602e-001
 4.6707005000e+000	 8.6432449896e-001	 4.8589256006e-001
 4.4248741579e+000	 8.1883373586e-001	 4.0556933046e-001
 4.4169320814e+000	 8.6064568090e-001	 4.1028836462e-001
 4.4085701903e+000	 9.0250145542e-001	 4.0899566930e-001
 4.3997860880e+000	 9.4439524573e-001	 4.0253550724e-001
 4.3905774756e+000	 9.8632116015e-001	 3.9188465749e-001
 4.3809421547e+000	 1.0282732308e+000	 3.7815353696e-001
 4.3708780297e+000	 1.0702454156e+000	 3.5641551194e-001
 4.3603831102e+000	 1.1122316001e+000	 3.2729020898e-001
 4.3494555137e+000	 1.1542255995e+000	 2.9879151521e-001
 4.3380934676e+000	 1.1962211613e+000	 2.6787723597e-001
 4.3262953119e+000	 1.2382119668e+000	 2.3126555663e-001
 4.4494567921e+000	 8.2338281217e-001	 3.9262147827e-001
 4.4414705930e+000	 8.6542704580e-001	 3.9527873692e-001
 4.4330622469e+000	 9.0751535240e-001	 3.9226310384e-001
 4.4242293440e+000	 9.4964188598e-001	 3.8444978503e-001
 4.4149695727e+000	 9.9180072215e-001	 3.7284835326e-001
 4.4052807222e+000	 1.0339858599e+000	 3.5860386282e-001
 4.3951606854e+000	 1.0761912235e+000	 3.4299769934e-001
 4.3846074608e+000	 1.1184106645e+000	 3.2744815572e-001
 4.3736191554e+000	 1.1606379640e+000	 3.1168907436e-001
 4.3621939868e+000	 1.2028668344e+000	 2.8427553182e-001
 4.3503302858e+000	 1.2450909222e+000	 2.5465043535e-001
 4.4740394263e+000	 8.2793188848e-001	 3.8454464966e-001
 4.4660091046e+000	 8.7020841069e-001	 3.8506181694e-001
 4.4575543036e+000	 9.1252924937e-001	 3.8020885704e-001
 4.4486726001e+000	 9.5488852624e-001	 3.7089205772e-001
 4.4393616698e+000	 9.9728028415e-001	 3.5815396804e-001
 4.4296192898e+000	 1.0396984889e+000	 3.4317450661e-001
 4.4194433411e+000	 1.0821370313e+000	 3.2727180062e-001
 4.4088318115e+000	 1.1245897290e+000	 3.1190274634e-001
 4.3977827972e+000	 1.1670503284e+000	 2.9866328228e-001
 4.3862945061e+000	 1.2095125075e+000	 2.8928836671e-001
 4.3743652598e+000	 1.2519698775e+000	 2.8371083138e-001
 4.4986220605e+000	 8.3248096479e-001	 3.8125850656e-001
 4.4905476161e+000	 8.7498977558e-001	 3.7955336177e-001
 4.4820463602e+000	 9.1754314634e-001	 3.7274478459e-001
 4.4731158561e+000	 9.6013516649e-001	 3.6177028698e-001
 4.4637537669e+000	 1.0027598461e+000	 3.4770558087e-001
 4.4539578573e+000	 1.0454111180e+000	 3.3176568039e-001
 4.4437259969e+000	 1.0880828392e+000	 3.1530573054e-001
 4.4330561621e+000	 1.1307687934e+000	 2.9982155255e-001
 4.4219464389e+000	 1.1734626929e+000	 2.8694989726e-001
 4.4103950254e+000	 1.2161581807e+000	 2.7846839799e-001
 4.3984002337e+000	 1.2588488329e+000	 2.7235179845e-001
 4.5232046947e+000	 8.3703004110e-001	 3.8268392181e-001
 4.5150861277e+000	 8.7977114048e-001	 3.7867034953e-001
 4.5065384168e+000	 9.2255704332e-001	 3.6978396879e-001
 4.4975591122e+000	 9.6538180674e-001	 3.5699366209e-001
 4.4881458639e+000	 1.0082394081e+000	 3.4140849474e-001
 4.4782964248e+000	 1.0511237471e+000	 3.2427881184e-001
 4.4680086526e+000	 1.0940286471e+000	 3.0699705674e-001
 4.4572805127e+000	 1.1369478578e+000	 2.9109830177e-001
 4.4461100807e+000	 1.1798750573e+000	 2.7826048205e-001
 4.4344955446e+000	 1.2228038538e+000	 2.7030432388e-001
 4.4224352077e+000	 1.2657277883e+000	 2.6152930502e-001
 4.5477873289e+000	 8.4157911741e-001	 3.8874294640e-001
 4.5396246393e+000	 8.8455250537e-001	 3.8233094634e-001
 4.5310304734e+000	 9.2757094029e-001	 3.7124068543e-001
 4.5220023682e+000	 9.7062844700e-001	 3.5647256670e-001
 4.5125379610e+000	 1.0137189701e+000	 3.3916920351e-001
 4.5026349923e+000	 1.0568363761e+000	 3.2061651137e-001
 4.4922913083e+000	 1.0999744549e+000	 3.0224451693e-001
 4.4815048633e+000	 1.1431269223e+000	 2.8562787421e-001
 4.4702737224e+000	 1.1862874218e+000	 2.7248607916e-001
 4.4585960639e+000	 1.2294495269e+000	 2.6468337379e-001
 4.4464701816e+000	 1.2726067437e+000	 2.5237791146e-001
 4.5723699631e+000	 8.4612819372e-001	 3.9935877785e-001
 4.5641631508e+000	 8.8933387026e-001	 3.9045447447e-001
 4.5555225300e+000	 9.3258483726e-001	 3.7703037164e-001
 4.5464456242e+000	 9.7587508725e-001	 3.6011854682e-001
 4.5369300581e+000	 1.0191985321e+000	 3.4089535985e-001
 4.5269735599e+000	 1.0625490052e+000	 3.2068254036e-001
 4.5165739640e+000	 1.1059202628e+000	 3.0094798743e-001
 4.5057292139e+000	 1.1493059867e+000	 2.8330627183e-001
 4.4944373641e+000	 1.1926997862e+000	 2.6951883149e-001
 4.4826965832e+000	 1.2360952000e+000	 2.6149385166e-001
 4.4705051556e+000	 1.2794856990e+000	 2.4487901484e-001
 4.5969525973e+000	 8.5067727003e-001	 4.1445572949e-001
 4.5887016624e+000	 8.9411523516e-001	 4.0296138133e-001
 4.5800145866e+000	 9.3759873424e-001	 3.8706959490e-001
 4.5708888803e+000	 9.8112172750e-001	 3.6784427965e-001
 4.5613221552e+000	 1.0246780942e+000	 3.4649574434e-001
 4.5513121274e+000	 1.0682616342e+000	 3.2438178039e-001
 4.5408566198e+000	 1.1118660707e+000	 3.0300845275e-001
 4.5299535645e+000	 1.1554850512e+000	 2.8403058837e-001
 4.5186010059e+000	 1.1991121506e+000	 2.6925195295e-001
 4.5067971024e+000	 1.2427408731e+000	 2.6062510721e-001
 4.4945401296e+000	 1.2863646544e+000	 2.3901502836e-001
 4.6215352316e+000	 8.5522634634e-001	 4.3395920083e-001
 4.6132401739e+000	 8.9889660005e-001	 4.1977320962e-001
 4.6045066432e+000	 9.4261263121e-001	 4.0127602295e-001
 4.5953321363e+000	 9.8636836776e-001	 3.7956354355e-001
 4.5857142523e+000	 1.0301576562e+000	 3.5588023538e-001
 4.5756506949e+000	 1.0739742633e+000	 3.3162020340e-001
 4.5651392755e+000	 1.1178118785e+000	 3.0832797605e-001
 4.5541779151e+000	 1.1616641156e+000	 2.8769898031e-001
 4.5427646476e+000	 1.2055245151e+000	 2.7157969995e-001
 4.5308976217e+000	 1.2493865463e+000	 2.6196750811e-001
 4.5185751035e+000	 1.2932436098e+000	 2.3476935430e-001
 4.6461178658e+000	 8.5977542265e-001	 4.5779564884e-001
 4.6377786855e+000	 9.0367796494e-001	 4.4081256830e-001
 4.6289986998e+000	 9.4762652819e-001	 4.1956839467e-001
 4.6197753924e+000	 9.9161500801e-001	 3.9519118889e-001
 4.6101063494e+000	 1.0356372182e+000	 3.6895978020e-001
 4.5999892625e+000	 1.0796868924e+000	 3.4230484289e-001
 4.5894219312e+000	 1.1237576864e+000	 3.1680967068e-001
 4.5784022658e+000	 1.1678431801e+000	 2.9421063876e-001
 4.5669282894e+000	 1.2119368795e+000	 2.7639734382e-001
 4.5549981410e+000	 1.2560322194e+000	 2.6360161532e-001
 4.5426100775e+000	 1.3001225651e+000	 2.3212635788e-001
 4.6707005000e+000	 8.6432449896e-001	 4.8589256006e-001
 4.6623171971e+000	 9.0845932984e-001	 4.6600310457e-001
 4.6534907565e+000	 9.5264042516e-001	 4.4186649194e-001
 4.6442186484e+000	 9.9686164827e-001	 4.1464310984e-001
 4.6344984465e+000	 1.0411167802e+000	 3.8564636675e-001
 4.6243278300e+000	 1.0853995214e+000	 3.5634376597e-001
 4.6137045869e+000	 1.1297034943e+000	 3.2835767249e-001
 4.6026266164e+000	 1.1740222445e+000	 3.0346576222e-001
 4.5910919311e+000	 1.2183492440e+000	 2.8360114411e-001
 4.5790986602e+000	 1.2626778925e+000	 2.6670323681e-001
 4.5666450514e+000	 1.3070015205e+000	 2.3107134189e-001
 4.3262953119e+000	 1.2382119668e+000	 2.3126555663e-001
 4.3140595013e+000	 1.2801916340e+000	 2.4254624986e-001
 4.3013846075e+000	 1.3221537197e+000	 2.4249411741e-001
 4.2882693215e+000	 1.3640917223e+000	 2.3566823913e-001
 4.2747124554e+000	 1.4059990840e+000	 2.2289838256e-001
 4.2607129448e+000	 1.4478691937e+000	 2.0508096236e-001
 4.2462698508e+000	 1.4896953899e+000	 1.8317820091e-001
 4.2313823616e+000	 1.5314709629e+000	 1.5821712623e-001
 4.2160497947e+000	 1.5731891585e+000	 1.3128840602e-001
 4.2002715988e+000	 1.6148431803e+000	 1.0354501746e-001
 4.1840473548e+000	 1.6564261930e+000	 7.6200752507e-002
 4.3503302858e+000	 1.2450909222e+000	 2.5465043535e-001
 4.3380264985e+000	 1.2873038097e+000	 2.6388132130e-001
 4.3252811887e+000	 1.3294990181e+000	 2.6325363341e-001
 4.3120930399e+000	 1.3716700096e+000	 2.5528783729e-001
 4.2984608579e+000	 1.4138101900e+000	 2.4083260607e-001
 4.2843835723e+000	 1.4559129115e+000	 2.2080468097e-001
 4.2698602388e+000	 1.4979714754e+000	 1.9618801601e-001
 4.2548900414e+000	 1.5399791349e+000	 1.6803275682e-001
 4.2394722936e+000	 1.5819290983e+000	 1.3745405250e-001
 4.2236064410e+000	 1.6238145313e+000	 1.0563070005e-001
 4.2072920623e+000	 1.6656285608e+000	 7.3803621220e-002
 4.3743652598e+000	 1.2519698775e+000	 2.8371083138e-001
 4.3619934957e+000	 1.2944159855e+000	 2.9101260534e-001
 4.3491777698e+000	 1.3368443166e+000	 2.8960255052e-001
 4.3359167584e+000	 1.3792482970e+000	 2.8027839169e-001
 4.3222092604e+000	 1.4216212960e+000	 2.6390806708e-001
 4.3080541997e+000	 1.4639566292e+000	 2.4142902447e-001
 4.2934506269e+000	 1.5062475609e+000	 2.1384734971e-001
 4.2783977212e+000	 1.5484873069e+000	 1.8223672614e-001
 4.2628947925e+000	 1.5906690380e+000	 1.4773722393e-001
 4.2469412832e+000	 1.6327858823e+000	 1.1155391873e-001
 4.2305367698e+000	 1.6748309285e+000	 7.4955339609e-002
 4.3984002337e+000	 1.2588488329e+000	 2.7235179845e-001
 4.3859604930e+000	 1.3015281612e+000	 2.9913120848e-001
 4.3730743510e+000	 1.3441896150e+000	 3.2144347399e-001
 4.3597404768e+000	 1.3868265843e+000	 3.1054010977e-001
 4.3459576629e+000	 1.4294324020e+000	 2.9202249605e-001
 4.3317248272e+000	 1.4720003470e+000	 2.6684916969e-001
 4.3170410149e+000	 1.5145236464e+000	 2.3604875118e-001
 4.3019054009e+000	 1.5569954790e+000	 2.0071888446e-001
 4.2863172913e+000	 1.5994089778e+000	 1.6202500328e-001
 4.2702761254e+000	 1.6417572333e+000	 1.2119892378e-001
 4.2537814774e+000	 1.6840332963e+000	 7.9537263074e-002
 4.4224352077e+000	 1.2657277883e+000	 2.6152930502e-001
 4.4099274902e+000	 1.3086403370e+000	 2.8067472565e-001
 4.3969709321e+000	 1.3515349135e+000	 3.0047231150e-001
 4.3835641953e+000	 1.3944048717e+000	 3.2089072557e-001
 4.3697060655e+000	 1.4372435081e+000	 3.2507465952e-001
 4.3553954547e+000	 1.4800440647e+000	 2.9696131273e-001
 4.3406314030e+000	 1.5227997319e+000	 2.6268577205e-001
 4.3254130807e+000	 1.5655036510e+000	 2.2337006761e-001
 4.3097397902e+000	 1.6081489176e+000	 1.8020544219e-001
 4.2936109676e+000	 1.6507285843e+000	 1.3445091728e-001
 4.2770261849e+000	 1.6932356640e+000	 8.7431681827e-002
 4.4464701816e+000	 1.2726067437e+000	 2.5237791146e-001
 4.4338944874e+000	 1.3157525127e+000	 2.6387592920e-001
 4.4208675133e+000	 1.3588802119e+000	 2.7619504894e-001
 4.4073879137e+000	 1.4019831590e+000	 2.8929796448e-001
 4.3934544680e+000	 1.4450546141e+000	 3.0313296158e-001
 4.3790660822e+000	 1.4880877825e+000	 3.1763415137e-001
 4.3642217911e+000	 1.5310758174e+000	 2.9365293929e-001
 4.3489207605e+000	 1.5740118230e+000	 2.5008207036e-001
 4.3331622890e+000	 1.6168888573e+000	 2.0216753480e-001
 4.3169458098e+000	 1.6596999353e+000	 1.5119602731e-001
 4.3002708924e+000	 1.7024380317e+000	 9.8521795624e-002
 4.4705051556e+000	 1.2794856990e+000	 2.4487901484e-001
 4.4578614846e+000	 1.3228646884e+000	 2.4871824851e-001
 4.4447640944e+000	 1.3662255104e+000	 2.5354951669e-001
 4.4312116322e+000	 1.4095614464e+000	 2.5932944697e-001
 4.4172028705e+000	 1.4528657201e+000	 2.6599989935e-001
 4.4027367096e+000	 1.4961315002e+000	 2.7348820845e-001
 4.3878121791e+000	 1.5393519029e+000	 2.8170746568e-001
 4.3724284403e+000	 1.5825199950e+000	 2.8074762065e-001
 4.3565847879e+000	 1.6256287971e+000	 2.2780119241e-001
 4.3402806520e+000	 1.6686712863e+000	 1.7132128308e-001
 4.3235155999e+000	 1.7116403995e+000	 1.1269168931e-001
 4.4945401296e+000	 1.2863646544e+000	 2.3901502836e-001
 4.4818284819e+000	 1.3299768642e+000	 2.3518611386e-001
 4.4686606756e+000	 1.3735708088e+000	 2.3252217938e-001
 4.4550353506e+000	 1.4171397337e+000	 2.3097368795e-001
 4.4409512731e+000	 1.4606768261e+000	 2.3047597123e-001
 4.4264073371e+000	 1.5041752179e+000	 2.3094948068e-001
 4.4114025672e+000	 1.5476279884e+000	 2.3230007957e-001
 4.3959361201e+000	 1.5910281670e+000	 2.3441937552e-001
 4.3800072868e+000	 1.6343687369e+000	 2.3718509366e-001
 4.3636154943e+000	 1.6776426373e+000	 1.9471459086e-001
 4.3467603075e+000	 1.7208427672e+000	 1.2982630918e-001
 4.5185751035e+000	 1.2932436098e+000	 2.3476935430e-001
 4.5057954791e+000	 1.3370890399e+000	 2.2326492974e-001
 4.4925572567e+000	 1.3809161073e+000	 2.1310046097e-001
 4.4788590691e+000	 1.4247180211e+000	 2.0422014670e-001
 4.4646996756e+000	 1.4684879322e+000	 1.9655268625e-001
 4.4500779646e+000	 1.5122189357e+000	 1.9001153984e-001
 4.4349929552e+000	 1.5559040739e+000	 1.8449523049e-001
 4.4194437999e+000	 1.5995363390e+000	 1.7988768749e-001
 4.4034297856e+000	 1.6431086766e+000	 1.7605863116e-001
 4.3869503365e+000	 1.6866139883e+000	 1.7286399860e-001
 4.3700050150e+000	 1.7300451349e+000	 1.4981144002e-001
 4.5426100775e+000	 1.3001225651e+000	 2.3212635788e-001
 4.5297624763e+000	 1.3442012157e+000	 2.1294104915e-001
 4.5164538379e+000	 1.3882614057e+000	 1.9527271941e-001
 4.5026827875e+000	 1.4322963084e+000	 1.7905920189e-001
 4.4884480781e+000	 1.4762990382e+000	 1.6422245822e-001
 4.4737485920e+000	 1.5202626534e+000	 1.5066884780e-001
 4.4585833433e+000	 1.5641801594e+000	 1.3828943986e-001
 4.4429514797e+000	 1.6080445111e+000	 1.2696036792e-001
 4.4268522845e+000	 1.6518486164e+000	 1.1654322640e-001
 4.4102851787e+000	 1.6955853393e+000	 1.0688550908e-001
 4.3932497225e+000	 1.7392475027e+000	 9.7821088907e-002
 4.5666450514e+000	 1.3070015205e+000	 2.3107134189e-001
 4.5537294736e+000	 1.3513133914e+000	 2.0420174860e-001
 4.5403504190e+000	 1.3956067041e+000	 1.7902822201e-001
 4.5265065060e+000	 1.4398745957e+000	 1.5548212743e-001
 4.5121964807e+000	 1.4841101442e+000	 1.3347858192e-001
 4.4974192195e+000	 1.5283063712e+000	 1.1291673312e-001
 4.4821737314e+000	 1.5724562449e+000	 9.3680081457e-002
 4.4664591594e+000	 1.6165526831e+000	 7.5636845735e-002
 4.4502747833e+000	 1.6605885562e+000	 5.8640371798e-002
 4.4336200209e+000	 1.7045566903e+000	 4.2529583898e-002
 4.4164944300e+000	 1.7484498704e+000	 2.7129478230e-002
 4.1840473548e+000	 1.6564261930e+000	 7.6200752507e-002
 4.1673767784e+000	 1.6979313258e+000	 6.0009556973e-002
 4.1502597210e+000	 1.7393516748e+000	 4.4125700606e-002
 4.1326961712e+000	 1.7806803072e+000	 3.0088207395e-002
 4.1146862567e+000	 1.8219102636e+000	 1.9493783662e-002
 4.0962302449e+000	 1.8630345624e+000	 1.3994412526e-002
 4.0773285445e+000	 1.9040462023e+000	-1.1064271243e-002
 4.0579817064e+000	 1.9449381662e+000	-4.4021822213e-002
 4.0381904250e+000	 1.9857034249e+000	-7.4509376179e-002
 4.0179555386e+000	 2.0263349401e+000	-1.0218209413e-001
 3.9972780307e+000	 2.0668256687e+000	-1.2669479971e-001
 4.2072920623e+000	 1.6656285608e+000	 7.3803621220e-002
 4.1905288716e+000	 1.7073642776e+000	 5.6173385498e-002
 4.1733167194e+000	 1.7490147397e+000	 3.9631844898e-002
 4.1556555944e+000	 1.7905729755e+000	 2.5726193635e-002
 4.1375456248e+000	 1.8320319873e+000	 1.6061179408e-002
 4.1189870796e+000	 1.8733847544e+000	 1.2296661576e-002
 4.0999803697e+000	 1.9146242367e+000	-1.8412527324e-002
 4.0805260492e+000	 1.9557433782e+000	-4.7235259323e-002
 4.0606248162e+000	 1.9967351106e+000	-7.2551052122e-002
 4.0402775138e+000	 2.0375923565e+000	-9.4044400638e-002
 4.0194851309e+000	 2.0783080336e+000	-1.1140074307e-001
 4.2305367698e+000	 1.6748309285e+000	 7.4955339609e-002
 4.2136809648e+000	 1.7167972294e+000	 5.5058169064e-002
 4.1963737179e+000	 1.7586778046e+000	 3.7009893942e-002
 4.1786150176e+000	 1.8004656439e+000	 2.2366576019e-002
 4.1604049929e+000	 1.8421537110e+000	 1.2741728074e-002
 4.1417439143e+000	 1.8837349464e+000	 3.0373073607e-003
 4.1226321950e+000	 1.9252022712e+000	-2.6596239591e-002
 4.1030703921e+000	 1.9665485903e+000	-5.1985757953e-002
 4.0830592075e+000	 2.0077667963e+000	-7.2842964071e-002
 4.0625994891e+000	 2.0488497728e+000	-8.8881405224e-002
 4.0416922311e+000	 2.0897903984e+000	-9.9816843754e-002
 4.2537814774e+000	 1.6840332963e+000	 7.9537263074e-002
 4.2368330580e+000	 1.7262301812e+000	 5.6551014177e-002
 4.2194307163e+000	 1.7683408694e+000	 3.6152870467e-002
 4.2015744408e+000	 1.8103583123e+000	 1.9908459342e-002
 4.1832643610e+000	 1.8522754347e+000	 9.4407830306e-003
 4.1645007490e+000	 1.8940851384e+000	-7.6768982326e-003
 4.1452840202e+000	 1.9357803056e+000	-3.5609781754e-002
 4.1256147349e+000	 1.9773538023e+000	-5.8257130100e-002
 4.1054935987e+000	 2.0187984819e+000	-7.5358157059e-002
 4.0849214643e+000	 2.0601071891e+000	-8.6655184562e-002
 4.0638993313e+000	 2.1012727632e+000	-9.1894012720e-002
 4.2770261849e+000	 1.6932356640e+000	 8.7431681827e-002
 4.2599851512e+000	 1.7356631330e+000	 6.0539755969e-002
 4.2424877148e+000	 1.7780039343e+000	 3.6954314842e-002
 4.2245338639e+000	 1.8202509806e+000	 1.8251250318e-002
 4.2061237291e+000	 1.8623971584e+000	 6.0637791897e-003
 4.1872575837e+000	 1.9044353304e+000	-1.8546392750e-002
 4.1679358455e+000	 1.9463583401e+000	-4.5447900428e-002
 4.1481590777e+000	 1.9881590143e+000	-6.6033794577e-002
 4.1279279900e+000	 2.0298301676e+000	-8.0070521181e-002
 4.1072434395e+000	 2.0713646055e+000	-8.7328902903e-002
 4.0861064314e+000	 2.1127551280e+000	-8.7584495168e-002
 4.3002708924e+000	 1.7024380317e+000	 9.8521795624e-002
 4.2831372445e+000	 1.7450960848e+000	 6.6912938501e-002
 4.2655447132e+000	 1.7876669991e+000	 3.9308271079e-002
 4.2474932871e+000	 1.8301436490e+000	 1.7294649419e-002
 4.2289830972e+000	 1.8725188821e+000	 2.5162307947e-003
 4.2100144184e+000	 1.9147855224e+000	-2.9576185640e-002
 4.1905876707e+000	 1.9569363745e+000	-5.6105705061e-002
 4.1707034205e+000	 1.9989642264e+000	-7.5300760608e-002
 4.1503623812e+000	 2.0408618533e+000	-8.6954768761e-002
 4.1295654147e+000	 2.0826220218e+000	-9.0866782674e-002
 4.1083135316e+000	 2.1242374928e+000	-8.6841834484e-002
 4.3235155999e+000	 1.7116403995e+000	 1.1269168931e-001
 4.3062893377e+000	 1.7545290366e+000	 7.5559795706e-002
 4.2886017116e+000	 1.7973300640e+000	 4.3109273299e-002
 4.2704527103e+000	 1.8400363174e+000	 1.6938642974e-002
 4.2518424653e+000	 1.8826406057e+000	-5.8083284748e-003
 4.2327712531e+000	 1.9251357145e+000	-4.0771422151e-002
 4.2132394960e+000	 1.9675144090e+000	-6.7578658173e-002
 4.1932477633e+000	 2.0097694384e+000	-8.6043611960e-002
 4.1727967725e+000	 2.0518935390e+000	-9.5986412243e-002
 4.1518873899e+000	 2.0938794381e+000	-9.7234076035e-002
 4.1305206318e+000	 2.1357198577e+000	-8.9620837339e-002
 4.3467603075e+000	 1.7208427672e+000	 1.2982630918e-001
 4.3294414309e+000	 1.7639619884e+000	 8.6370232945e-002
 4.3116587101e+000	 1.8069931288e+000	 4.8252332626e-002
 4.2934121334e+000	 1.8499289858e+000	 1.7083495536e-002
 4.2747018334e+000	 1.8927623294e+000	-1.5234155129e-002
 4.2555280878e+000	 1.9354859065e+000	-5.2137379706e-002
 4.2358913212e+000	 1.9780924434e+000	-7.9862565921e-002
 4.2157921061e+000	 2.0205746504e+000	-9.8248491580e-002
 4.1952311637e+000	 2.0629252247e+000	-1.0714174280e-001
 4.1742093651e+000	 2.1051368545e+000	-1.0639703735e-001
 4.1527277319e+000	 2.1472022225e+000	-9.5877539913e-002
 4.3700050150e+000	 1.7300451349e+000	 1.4981144002e-001
 4.3525935241e+000	 1.7733949402e+000	 9.9234809151e-002
 4.3347157085e+000	 1.8166561937e+000	 5.4632924499e-002
 4.3163715566e+000	 1.8598216541e+000	 1.7629742471e-002
 4.2975612015e+000	 1.9028840531e+000	-2.4216036120e-002
 4.2782849225e+000	 1.9458360985e+000	-6.3679464381e-002
 4.2585431465e+000	 1.9886704779e+000	-9.2953568959e-002
 4.2383364489e+000	 2.0313798625e+000	-1.1190208673e-001
 4.2176655550e+000	 2.0739569104e+000	-1.2039780962e-001
 4.1965313403e+000	 2.1163942708e+000	-1.1832289652e-001
 4.1749348321e+000	 2.1586845873e+000	-1.0556917519e-001
 4.3932497225e+000	 1.7392475027e+000	 9.7821088907e-002
 4.3757456173e+000	 1.7828278921e+000	 1.1100744962e-001
 4.3577727070e+000	 1.8263192586e+000	 6.2146976391e-002
 4.3393309798e+000	 1.8697143225e+000	 1.8478182802e-002
 4.3204205696e+000	 1.9130057768e+000	-3.2768380616e-002
 4.3010417572e+000	 1.9561862905e+000	-7.5403207507e-002
 4.2811949717e+000	 1.9992485124e+000	-1.0684813359e-001
 4.2608807917e+000	 2.0421850745e+000	-1.2699161456e-001
 4.2400999462e+000	 2.0849885961e+000	-1.3573239987e-001
 4.2188533156e+000	 2.1276516871e+000	-1.3297983318e-001
 4.1971419323e+000	 2.1701669521e+000	-1.1865414132e-001
 4.4164944300e+000	 1.7484498704e+000	 2.7129478230e-002
 4.3988977105e+000	 1.7922608439e+000	 3.3025634863e-002
 4.3808297054e+000	 1.8359823234e+000	 4.7228787734e-002
 4.3622904030e+000	 1.8796069909e+000	 1.7584873482e-002
 4.3432799376e+000	 1.9231275005e+000	-4.0905528454e-002
 4.3237985918e+000	 1.9665364825e+000	-8.7314262369e-002
 4.3038467969e+000	 2.0098265468e+000	-1.2154304318e-001
 4.2834251345e+000	 2.0529902865e+000	-1.4350480822e-001
 4.2625343375e+000	 2.0960202818e+000	-1.5312401923e-001
 4.2411752908e+000	 2.1389091034e+000	-1.5033695173e-001
 4.2193490324e+000	 2.1816493170e+000	-1.3509197091e-001
 3.9972780307e+000	 2.0668256687e+000	-1.2669479971e-001
 3.9761590304e+000	 2.1071685659e+000	-1.8149532412e-001
 3.9545998128e+000	 2.1473565890e+000	-2.2893528805e-001
 3.9326018000e+000	 2.1873827014e+000	-2.6888935086e-001
 3.9101665609e+000	 2.2272398761e+000	-3.0123914559e-001
 3.8872958119e+000	 2.2669210994e+000	-3.2587352314e-001
 3.8639914164e+000	 2.3064193751e+000	-3.4268878744e-001
 3.8402553857e+000	 2.3457277277e+000	-3.5158892080e-001
 3.8160898781e+000	 2.3848392068e+000	-3.5248579887e-001
 3.7914971990e+000	 2.4237468907e+000	-3.4529939469e-001
 3.7664798005e+000	 2.4624438902e+000	-3.2995797126e-001
 4.0194851309e+000	 2.0783080336e+000	-1.1140074307e-001
 3.9982488028e+000	 2.1188750579e+000	-1.6289835952e-001
 3.9765698118e+000	 2.1592863478e+000	-2.0850160615e-001
 3.9544495878e+000	 2.1995348275e+000	-2.4805823369e-001
 3.9318897085e+000	 2.2396134310e+000	-2.8142142131e-001
 3.9088918997e+000	 2.2795151055e+000	-3.0845003715e-001
 3.8854580354e+000	 2.3192328160e+000	-3.2900889182e-001
 3.8615901379e+000	 2.3587595484e+000	-3.4296898424e-001
 3.8372903774e+000	 2.3980883135e+000	-3.5020773937e-001
 3.8125610723e+000	 2.4372121512e+000	-3.5060923695e-001
 3.7874046883e+000	 2.4761241341e+000	-3.4406443095e-001
 4.0416922311e+000	 2.0897903984e+000	-9.9816843754e-002
 4.0203385752e+000	 2.1305815500e+000	-1.4750574621e-001
 3.9985398108e+000	 2.1712161067e+000	-1.9074865042e-001
 3.9762973756e+000	 2.2116869537e+000	-2.2936655314e-001
 3.9536128561e+000	 2.2519869858e+000	-2.6318434708e-001
 3.9304879876e+000	 2.2921091116e+000	-2.9203109764e-001
 3.9069246544e+000	 2.3320462570e+000	-3.1574031473e-001
 3.8829248900e+000	 2.3717913691e+000	-3.3415021917e-001
 3.8584908768e+000	 2.4113374202e+000	-3.4710400289e-001
 3.8336249456e+000	 2.4506774117e+000	-3.5445008243e-001
 3.8083295761e+000	 2.4898043779e+000	-3.5604234512e-001
 4.0638993313e+000	 2.1012727632e+000	-9.1894012720e-002
 4.0424283476e+000	 2.1422880420e+000	-1.3527756025e-001
 4.0205098097e+000	 2.1831458655e+000	-1.7564593559e-001
 3.9981451634e+000	 2.2238390798e+000	-2.1279353301e-001
 3.9753360036e+000	 2.2643605407e+000	-2.4651712271e-001
 3.9520840754e+000	 2.3047031177e+000	-2.7661614378e-001
 3.9283912734e+000	 2.3448596980e+000	-3.0289299432e-001
 3.9042596422e+000	 2.3848231898e+000	-3.2515331825e-001
 3.8796913761e+000	 2.4245865269e+000	-3.4320628803e-001
 3.8546888190e+000	 2.4641426722e+000	-3.5686488279e-001
 3.8292544638e+000	 2.5034846217e+000	-3.6587628995e-001
 4.0861064314e+000	 2.1127551280e+000	-8.7584495168e-002
 4.0645181200e+000	 2.1539945340e+000	-1.2617501648e-001
 4.0424798087e+000	 2.1950756243e+000	-1.6316391369e-001
 4.0199929511e+000	 2.2359912059e+000	-1.9831912686e-001
 3.9970591512e+000	 2.2767340956e+000	-2.3140946431e-001
 3.9736801633e+000	 2.3172971239e+000	-2.6220491172e-001
 3.9498578924e+000	 2.3576731389e+000	-2.9047694054e-001
 3.9255943943e+000	 2.3978550105e+000	-3.1599881513e-001
 3.9008918754e+000	 2.4378356336e+000	-3.3854589798e-001
 3.8757526923e+000	 2.4776079327e+000	-3.5789595228e-001
 3.8501793516e+000	 2.5171648656e+000	-3.7335150951e-001
 4.1083135316e+000	 2.1242374928e+000	-8.6841834484e-002
 4.0866078923e+000	 2.1657010260e+000	-1.2016043780e-001
 4.0644498076e+000	 2.2070053831e+000	-1.5327394871e-001
 4.0418407389e+000	 2.2481433320e+000	-1.8592399830e-001
 4.0187822988e+000	 2.2891076504e+000	-2.1785159034e-001
 3.9952762511e+000	 2.3298911300e+000	-2.4879742656e-001
 3.9713245114e+000	 2.3704865799e+000	-2.7850223327e-001
 3.9469291465e+000	 2.4108868312e+000	-3.0670708882e-001
 3.9220923747e+000	 2.4510847403e+000	-3.3315375119e-001
 3.8968165656e+000	 2.4910731932e+000	-3.5758498502e-001
 3.8711042394e+000	 2.5308451094e+000	-3.7865342452e-001
 4.1305206318e+000	 2.1357198577e+000	-8.9620837339e-002
 4.1086976647e+000	 2.1774075181e+000	-1.1719722533e-001
 4.0864198066e+000	 2.2189351420e+000	-1.4594829210e-001
 4.0636885267e+000	 2.2602954581e+000	-1.7558950191e-001
 4.0405054463e+000	 2.3014812053e+000	-2.0583420813e-001
 4.0168723389e+000	 2.3424851361e+000	-2.3639399459e-001
 3.9927911303e+000	 2.3833000209e+000	-2.6697902041e-001
 3.9682638986e+000	 2.4239186519e+000	-2.9729836776e-001
 3.9432928740e+000	 2.4643338470e+000	-3.2706039170e-001
 3.9178804389e+000	 2.5045384537e+000	-3.5566755828e-001
 3.8920291272e+000	 2.5445253532e+000	-3.8184418607e-001
 4.1527277319e+000	 2.1472022225e+000	-9.5877539913e-002
 4.1307874371e+000	 2.1891140101e+000	-1.1724982965e-001
 4.1083898056e+000	 2.2308649008e+000	-1.4116005904e-001
 4.0855363145e+000	 2.2724475842e+000	-1.6729766476e-001
 4.0622285939e+000	 2.3138547601e+000	-1.9534850077e-001
 4.0384684268e+000	 2.3550791422e+000	-2.2499519574e-001
 4.0142577493e+000	 2.3961134619e+000	-2.5591751609e-001
 3.9895986507e+000	 2.4369504726e+000	-2.8779273393e-001
 3.9644933734e+000	 2.4775829537e+000	-3.2029599918e-001
 3.9389443123e+000	 2.5180037142e+000	-3.5178291108e-001
 3.9129540150e+000	 2.5582055971e+000	-3.8298512991e-001
 4.1749348321e+000	 2.1586845873e+000	-1.0556917519e-001
 4.1528772095e+000	 2.2008205021e+000	-1.2028372281e-001
 4.1303598045e+000	 2.2427946596e+000	-1.3888320546e-001
 4.1073841022e+000	 2.2845997104e+000	-1.6103116854e-001
 4.0839517414e+000	 2.3262283150e+000	-1.8638611449e-001
 4.0600645146e+000	 2.3676731483e+000	-2.1460187634e-001
 4.0357243683e+000	 2.4089269028e+000	-2.4532799886e-001
 4.0109334029e+000	 2.4499822933e+000	-2.7821012667e-001
 3.9856938727e+000	 2.4908320604e+000	-3.1289039858e-001
 3.9600081856e+000	 2.5314689747e+000	-3.4652773412e-001
 3.9338789027e+000	 2.5718858409e+000	-3.8213679812e-001
 4.1971419323e+000	 2.1701669521e+000	-1.1865414132e-001
 4.1749669819e+000	 2.2125269942e+000	-1.2626537136e-001
 4.1523298035e+000	 2.2547244184e+000	-1.3909250580e-001
 4.1292318900e+000	 2.2967518365e+000	-1.5677333221e-001
 4.1056748890e+000	 2.3386018699e+000	-1.7893914639e-001
 4.0816606025e+000	 2.3802671544e+000	-2.0521514205e-001
 4.0571909873e+000	 2.4217403438e+000	-2.3522081002e-001
 4.0322681550e+000	 2.4630141140e+000	-2.6857034653e-001
 4.0068943720e+000	 2.5040811671e+000	-3.0445550442e-001
 3.9810720589e+000	 2.5449342352e+000	-3.3995208655e-001
 3.9548037905e+000	 2.5855660847e+000	-3.7935896012e-001
 4.2193490324e+000	 2.1816493170e+000	-1.3509197091e-001
 4.1970567543e+000	 2.2242334862e+000	-1.3516221017e-001
 4.1742998024e+000	 2.2666541773e+000	-1.4176353148e-001
 4.1510796778e+000	 2.3089039626e+000	-1.5450809524e-001
 4.1273980366e+000	 2.3509754247e+000	-1.7300013257e-001
 4.1032566903e+000	 2.3928611605e+000	-1.9683635104e-001
 4.0786576062e+000	 2.4345537848e+000	-2.2560635199e-001
 4.0536029072e+000	 2.4760459347e+000	-2.5889305884e-001
 4.0280948713e+000	 2.5173302738e+000	-2.9443311323e-001
 4.0021359322e+000	 2.5583994957e+000	-3.3210548554e-001
 3.9757286783e+000	 2.5992463286e+000	-3.7471063300e-001
 3.7664798005e+000	 2.4624438902e+000	-3.2995797126e-001
 3.7410402811e+000	 2.5009233526e+000	-3.0326970516e-001
 3.7151813848e+000	 2.5391784651e+000	-3.6185364655e-001
 3.6889060008e+000	 2.5772024595e+000	-4.1201531928e-001
 3.6622171622e+000	 2.6149886150e+000	-4.5311796421e-001
 3.6351180455e+000	 2.6525302629e+000	-4.8452300153e-001
 3.6076119692e+000	 2.6898207896e+000	-5.0559144410e-001
 3.5797023927e+000	 2.7268536410e+000	-5.1568533218e-001
 3.5513929153e+000	 2.7636223260e+000	-5.1416918630e-001
 3.5226872744e+000	 2.8001204200e+000	-5.0041147463e-001
 3.4935893441e+000	 2.8363415688e+000	-4.7378609122e-001
 3.7874046883e+000	 2.4761241341e+000	-3.4406443095e-001
 3.7618238382e+000	 2.5148173712e+000	-2.7840878351e-001
 3.7358212814e+000	 2.5532850122e+000	-2.8175254304e-001
 3.7093999231e+000	 2.5915202509e+000	-3.4233926704e-001
 3.6825628131e+000	 2.6295163296e+000	-3.9341273562e-001
 3.6553131458e+000	 2.6672665421e+000	-4.3432179720e-001
 3.6276542579e+000	 2.7047642384e+000	-4.6441516524e-001
 3.5995896282e+000	 2.7420028279e+000	-4.8304287955e-001
 3.5711228760e+000	 2.7789757834e+000	-4.8955778562e-001
 3.5422577593e+000	 2.8156766446e+000	-4.8331702828e-001
 3.5129981738e+000	 2.8520990220e+000	-4.6368355602e-001
 3.8083295761e+000	 2.4898043779e+000	-3.5604234512e-001
 3.7826073953e+000	 2.5287113898e+000	-3.0170793682e-001
 3.7564611780e+000	 2.5673915592e+000	-2.3682255421e-001
 3.7298938453e+000	 2.6058380424e+000	-2.7230453570e-001
 3.7029084640e+000	 2.6440440441e+000	-3.3355220546e-001
 3.6755082460e+000	 2.6820028213e+000	-3.8417402997e-001
 3.6476965466e+000	 2.7197076873e+000	-4.2350613534e-001
 3.6194768638e+000	 2.7571520148e+000	-4.5088626725e-001
 3.5908528366e+000	 2.7943292408e+000	-4.6565529710e-001
 3.5618282442e+000	 2.8312328691e+000	-4.6715874250e-001
 3.5324070035e+000	 2.8678564751e+000	-4.5474829813e-001
 3.8292544638e+000	 2.5034846217e+000	-3.6587628995e-001
 3.8033909524e+000	 2.5426054084e+000	-3.2280875384e-001
 3.7771010746e+000	 2.5814981062e+000	-2.6874705458e-001
 3.7503877675e+000	 2.6201558338e+000	-2.0407166624e-001
 3.7232541150e+000	 2.6585717586e+000	-2.7358250371e-001
 3.6957033463e+000	 2.6967391006e+000	-3.3412521131e-001
 3.6677388353e+000	 2.7346511361e+000	-3.8290918062e-001
 3.6393640993e+000	 2.7723012017e+000	-4.1925956850e-001
 3.6105827973e+000	 2.8096826981e+000	-4.4250497240e-001
 3.5813987290e+000	 2.8467890937e+000	-4.5197897795e-001
 3.5518158332e+000	 2.8836139283e+000	-4.4702171685e-001
 3.8501793516e+000	 2.5171648656e+000	-3.7335150951e-001
 3.8241745096e+000	 2.5564994271e+000	-3.4177327974e-001
 3.7977409712e+000	 2.5956046532e+000	-2.9863752523e-001
 3.7708816897e+000	 2.6344736253e+000	-2.4433309294e-001
 3.7435997659e+000	 2.6730994731e+000	-2.1354901913e-001
 3.7158984465e+000	 2.7114753798e+000	-2.8422015149e-001
 3.6877811240e+000	 2.7495945849e+000	-3.4266846777e-001
 3.6592513348e+000	 2.7874503886e+000	-3.8820624042e-001
 3.6303127579e+000	 2.8250361555e+000	-4.2014949206e-001
 3.6009692139e+000	 2.8623453183e+000	-4.3781957070e-001
 3.5712246628e+000	 2.8993713815e+000	-4.4054473504e-001
 3.8711042394e+000	 2.5308451094e+000	-3.7865342452e-001
 3.8449580667e+000	 2.5703934457e+000	-3.5866273128e-001
 3.8183808678e+000	 2.6097112003e+000	-3.2655331439e-001
 3.7913756120e+000	 2.6487914167e+000	-2.8272243180e-001
 3.7639454168e+000	 2.6876271877e+000	-2.2758921882e-001
 3.7360935468e+000	 2.7262116591e+000	-2.3450297855e-001
 3.7078234128e+000	 2.7645380338e+000	-3.0282752188e-001
 3.6791385703e+000	 2.8025995755e+000	-3.5776914066e-001
 3.6500427186e+000	 2.8403896129e+000	-3.9863098090e-001
 3.6205396987e+000	 2.8779015428e+000	-4.2472184638e-001
 3.5906334925e+000	 2.9151288346e+000	-4.3535781194e-001
 3.8920291272e+000	 2.5445253532e+000	-3.8184418607e-001
 3.8657416238e+000	 2.5842874643e+000	-3.7353751900e-001
 3.8390207644e+000	 2.6238177473e+000	-3.5255299730e-001
 3.8118695342e+000	 2.6631092081e+000	-3.1929632896e-001
 3.7842910677e+000	 2.7021549022e+000	-2.7419582555e-001
 3.7562886470e+000	 2.7409479383e+000	-2.1770180125e-001
 3.7278657015e+000	 2.7794814826e+000	-2.6342924363e-001
 3.6990258058e+000	 2.8177487624e+000	-3.2799054353e-001
 3.6697726792e+000	 2.8557430702e+000	-3.7799102293e-001
 3.6401101836e+000	 2.8934577674e+000	-4.1272663394e-001
 3.6100423222e+000	 2.9308862878e+000	-4.3150095570e-001
 3.9129540150e+000	 2.5582055971e+000	-3.8298512991e-001
 3.8865251809e+000	 2.5981814829e+000	-3.8645726887e-001
 3.8596606609e+000	 2.6379242943e+000	-3.7669439687e-001
 3.8323634564e+000	 2.6774269996e+000	-3.5411071209e-001
 3.8046367186e+000	 2.7166826167e+000	-3.1914374343e-001
 3.7764837473e+000	 2.7556842175e+000	-2.7225373878e-001
 3.7479079902e+000	 2.7944249314e+000	-2.2451592600e-001
 3.7189130413e+000	 2.8328979493e+000	-2.9891215557e-001
 3.6895026398e+000	 2.8710965276e+000	-3.5827067589e-001
 3.6596806685e+000	 2.9090139919e+000	-4.0187427892e-001
 3.6294511519e+000	 2.9466437410e+000	-4.2901373540e-001
 3.9338789027e+000	 2.5718858409e+000	-3.8213679812e-001
 3.9073087380e+000	 2.6120755016e+000	-3.9748084307e-001
 3.8803005575e+000	 2.6520308414e+000	-3.9903460372e-001
 3.8528573787e+000	 2.6917447910e+000	-3.8722080949e-001
 3.8249823695e+000	 2.7312103313e+000	-3.6248624883e-001
 3.7966788475e+000	 2.7704204968e+000	-3.2530114646e-001
 3.7679502789e+000	 2.8093683802e+000	-2.7615849093e-001
 3.7388002768e+000	 2.8480471362e+000	-2.7057513067e-001
 3.7092326005e+000	 2.8864499850e+000	-3.3951048516e-001
 3.6792511533e+000	 2.9245702165e+000	-3.9220465629e-001
 3.6488599816e+000	 2.9624011941e+000	-4.2793529274e-001
 3.9548037905e+000	 2.5855660847e+000	-3.7935896012e-001
 3.9280922951e+000	 2.6259695202e+000	-4.0666636028e-001
 3.9009404541e+000	 2.6661373884e+000	-4.1962999552e-001
 3.8733513009e+000	 2.7060625825e+000	-4.1868116863e-001
 3.8453280204e+000	 2.7457380458e+000	-4.0427597081e-001
 3.8168739478e+000	 2.7851567760e+000	-3.7689464797e-001
 3.7879925676e+000	 2.8243118291e+000	-3.3704091588e-001
 3.7586875124e+000	 2.8631963231e+000	-2.8524122559e-001
 3.7289625611e+000	 2.9018034423e+000	-3.2175049738e-001
 3.6988216382e+000	 2.9401264410e+000	-3.8375718292e-001
 3.6682688113e+000	 2.9781586473e+000	-4.2830435337e-001
 3.9757286783e+000	 2.5992463286e+000	-3.7471063300e-001
 3.9488758523e+000	 2.6398635388e+000	-4.1407121517e-001
 3.9215803507e+000	 2.6802439354e+000	-4.3853625575e-001
 3.8938452231e+000	 2.7203803739e+000	-4.4854567399e-001
 3.8656736713e+000	 2.7602657603e+000	-4.4456490815e-001
 3.8370690480e+000	 2.7998930552e+000	-4.2708427073e-001
 3.8080348563e+000	 2.8392552779e+000	-3.9661825120e-001
 3.7785747479e+000	 2.8783455100e+000	-3.5370476780e-001
 3.7486925218e+000	 2.9171568997e+000	-3.0503027352e-001
 3.7183921230e+000	 2.9556826656e+000	-3.7657082962e-001
 3.6876776410e+000	 2.9939161004e+000	-4.3015923776e-001
 3.4935893441e+000	 2.8363415688e+000	-4.7378609122e-001
 3.4641031334e+000	 2.8722794922e+000	-5.0157964938e-001
 3.4342327849e+000	 2.9079279873e+000	-5.2907701418e-001
 3.4039825722e+000	 2.9432809326e+000	-5.5530949314e-001
 3.3733568988e+000	 2.9783322907e+000	-5.7930629198e-001
 3.3423602950e+000	 3.0130761123e+000	-6.0009635532e-001
 3.3109974166e+000	 3.0475065394e+000	-6.1671021396e-001
 3.2792730419e+000	 3.0816178084e+000	-6.2818183394e-001
 3.2471920698e+000	 3.1154042534e+000	-6.3355046327e-001
 3.2147595170e+000	 3.1488603094e+000	-6.2765640648e-001
 3.1819805154e+000	 3.1819805154e+000	-6.2097498648e-001
 3.5129981738e+000	 2.8520990220e+000	-4.6368355602e-001
 3.4833481508e+000	 2.8882366005e+000	-4.9183181073e-001
 3.4533118559e+000	 2.9240831428e+000	-5.1960371742e-001
 3.4228935865e+000	 2.9596324933e+000	-5.4600960577e-001
 3.3920977704e+000	 2.9948785812e+000	-5.7005766047e-001
 3.3609289633e+000	 3.0298154240e+000	-5.9075579782e-001
 3.3293918467e+000	 3.0644371313e+000	-6.0711354895e-001
 3.2974912255e+000	 3.0987379073e+000	-6.1814394495e-001
 3.2652320257e+000	 3.1327120548e+000	-6.2062578270e-001
 3.2326192921e+000	 3.1663539778e+000	-6.1409554826e-001
 3.1996581849e+000	 3.1996581849e+000	-6.0976648614e-001
 3.5324070035e+000	 2.8678564751e+000	-4.5474829813e-001
 3.5025931682e+000	 2.9041937088e+000	-4.8330689936e-001
 3.4723909269e+000	 2.9402382983e+000	-5.1140694985e-001
 3.4418046008e+000	 2.9759840540e+000	-5.3803756399e-001
 3.4108386421e+000	 3.0114248717e+000	-5.6218566888e-001
 3.3794976316e+000	 3.0465547358e+000	-5.8283791723e-001
 3.3477862768e+000	 3.0813677232e+000	-5.9898260690e-001
 3.3157094090e+000	 3.1158580062e+000	-6.0961160255e-001
 3.2832719817e+000	 3.1500198562e+000	-6.0711422601e-001
 3.2504790672e+000	 3.1838476462e+000	-6.0293357099e-001
 3.2173358544e+000	 3.2173358544e+000	-6.0088909302e-001
 3.5518158332e+000	 2.8836139283e+000	-4.4702171685e-001
 3.5218381856e+000	 2.9201508170e+000	-4.7604821690e-001
 3.4914699980e+000	 2.9563934538e+000	-5.0453193023e-001
 3.4607156151e+000	 2.9923356148e+000	-5.3144051641e-001
 3.4295795138e+000	 3.0279711622e+000	-5.5573940637e-001
 3.3980662999e+000	 3.0632940475e+000	-5.7639375185e-001
 3.3661807068e+000	 3.0982983150e+000	-5.9237038178e-001
 3.3339275926e+000	 3.1329781052e+000	-5.9974767540e-001
 3.3013119376e+000	 3.1673276576e+000	-5.9604736891e-001
 3.2683388423e+000	 3.2013413146e+000	-5.9414822057e-001
 3.2350135239e+000	 3.2350135239e+000	-5.9432029246e-001
 3.5712246628e+000	 2.8993713815e+000	-4.4054473504e-001
 3.5410832031e+000	 2.9361079253e+000	-4.7009857441e-001
 3.5105490690e+000	 2.9725486093e+000	-4.9902337227e-001
 3.4796266294e+000	 3.0086871755e+000	-5.2626509184e-001
 3.4483203854e+000	 3.0445174527e+000	-5.5076742715e-001
 3.4166349682e+000	 3.0800333592e+000	-5.7147378956e-001
 3.3845751369e+000	 3.1152289069e+000	-5.8732930132e-001
 3.3521457762e+000	 3.1500982041e+000	-5.8881639476e-001
 3.3193518936e+000	 3.1846354590e+000	-5.8740265873e-001
 3.2861986174e+000	 3.2188349829e+000	-5.8771662743e-001
 3.2526911935e+000	 3.2526911935e+000	-5.9003693729e-001
 3.5906334925e+000	 2.9151288346e+000	-4.3535781194e-001
 3.5603282205e+000	 2.9520650336e+000	-4.6550030563e-001
 3.5296281400e+000	 2.9887037647e+000	-4.9492549831e-001
 3.4985376437e+000	 3.0250387362e+000	-5.2255741327e-001
 3.4670612571e+000	 3.0610637432e+000	-5.4731776489e-001
 3.4352036365e+000	 3.0967726710e+000	-5.6812798264e-001
 3.4029695670e+000	 3.1321594988e+000	-5.8091143982e-001
 3.3703639597e+000	 3.1672183030e+000	-5.8035274624e-001
 3.3373918495e+000	 3.2019432604e+000	-5.8115696020e-001
 3.3040583925e+000	 3.2363286513e+000	-5.8361532309e-001
 3.2703688630e+000	 3.2703688630e+000	-5.8801526492e-001
 3.6100423222e+000	 2.9308862878e+000	-4.3150095570e-001
 3.5795732379e+000	 2.9680221419e+000	-4.6229527982e-001
 3.5487072110e+000	 3.0048589202e+000	-4.9228205252e-001
 3.5174486580e+000	 3.0413902970e+000	-5.2036311151e-001
 3.4858021287e+000	 3.0776100337e+000	-5.4543794672e-001
 3.4537723048e+000	 3.1135119827e+000	-5.6640576222e-001
 3.4213639971e+000	 3.1490900907e+000	-5.7266039406e-001
 3.3885821433e+000	 3.1843384020e+000	-5.7433341425e-001
 3.3554318055e+000	 3.2192510618e+000	-5.7728657113e-001
 3.3219181675e+000	 3.2538223197e+000	-5.8182025633e-001
 3.2880465325e+000	 3.2880465325e+000	-5.8823091386e-001
 3.6294511519e+000	 2.9466437410e+000	-4.2901373540e-001
 3.5988182553e+000	 2.9839792502e+000	-4.6052491419e-001
 3.5677862821e+000	 3.0210140757e+000	-4.9113631368e-001
 3.5363596723e+000	 3.0577418577e+000	-5.1972733835e-001
 3.5045430004e+000	 3.0941563242e+000	-5.4517500683e-001
 3.4723409732e+000	 3.1302512944e+000	-5.6394779684e-001
 3.4397584272e+000	 3.1660206826e+000	-5.6689897051e-001
 3.4068003269e+000	 3.2014585009e+000	-5.7073454657e-001
 3.3734717614e+000	 3.2365588632e+000	-5.7576723752e-001
 3.3397779426e+000	 3.2713159881e+000	-5.8230680874e-001
 3.3057242021e+000	 3.3057242021e+000	-5.9065893977e-001
 3.6488599816e+000	 2.9624011941e+000	-4.2793529274e-001
 3.6180632727e+000	 2.9999363585e+000	-4.6023018591e-001
 3.5868653531e+000	 3.0371692312e+000	-4.9153110758e-001
 3.5552706866e+000	 3.0740934184e+000	-5.2069477928e-001
 3.5232838721e+000	 3.1107026147e+000	-5.4657549950e-001
 3.4909096415e+000	 3.1469906062e+000	-5.5846617578e-001
 3.4581528573e+000	 3.1829512745e+000	-5.6360324686e-001
 3.4250185104e+000	 3.2185785998e+000	-5.6953176859e-001
 3.3915117174e+000	 3.2538666646e+000	-5.7657416831e-001
 3.3576377177e+000	 3.2888096565e+000	-5.8504980979e-001
 3.3234018716e+000	 3.3234018716e+000	-5.9527383093e-001
 3.6682688113e+000	 2.9781586473e+000	-4.2830435337e-001
 3.6373082901e+000	 3.0158934668e+000	-4.6145164375e-001
 3.6059444241e+000	 3.0533243867e+000	-4.9350881895e-001
 3.5741817009e+000	 3.0904449792e+000	-5.2330966585e-001
 3.5420247437e+000	 3.1272489052e+000	-5.4860594830e-001
 3.5094783098e+000	 3.1637299179e+000	-5.5549550731e-001
 3.4765472874e+000	 3.1998818664e+000	-5.6274880629e-001
 3.4432366940e+000	 3.2356986988e+000	-5.7070019714e-001
 3.4095516733e+000	 3.2711744660e+000	-5.7968204950e-001
 3.3754974928e+000	 3.3063033249e+000	-5.9002355145e-001
 3.3410795411e+000	 3.3410795411e+000	-6.0204952327e-001
 3.6876776410e+000	 2.9939161004e+000	-4.3015923776e-001
 3.6565533075e+000	 3.0318505751e+000	-4.6422941937e-001
 3.6250234951e+000	 3.0694795422e+000	-4.9711140314e-001
 3.5930927152e+000	 3.1067965399e+000	-5.2761578759e-001
 3.5607656154e+000	 3.1437951957e+000	-5.4597180610e-001
 3.5280469781e+000	 3.1804692296e+000	-5.5501140721e-001
 3.4949417175e+000	 3.2168124582e+000	-5.6431075054e-001
 3.4614548776e+000	 3.2528187977e+000	-5.7421445390e-001
 3.4275916292e+000	 3.2884822674e+000	-5.8506505798e-001
 3.3933572679e+000	 3.3237969933e+000	-5.9720180236e-001
 3.3587572107e+000	 3.3587572106e+000	-6.1095941489e-001
 3.1819805154e+000	 3.1819805154e+000	-6.2097498648e-001
 3.1488603094e+000	 3.2147595170e+000	-5.2758267328e-001
 3.1154042534e+000	 3.2471920698e+000	-4.7278278383e-001
 3.0816178084e+000	 3.2792730419e+000	-5.3668632037e-001
 3.0475065394e+000	 3.3109974166e+000	-5.8697159332e-001
 3.0130761123e+000	 3.3423602950e+000	-6.2267373277e-001
 2.9783322907e+000	 3.3733568988e+000	-6.4285900999e-001
 2.9432809326e+000	 3.4039825722e+000	-6.4662695282e-001
 2.9079279873e+000	 3.4342327849e+000	-6.3311239196e-001
 2.8722794922e+000	 3.4641031334e+000	-6.0148743320e-001
 2.8363415688e+000	 3.4935893441e+000	-5.5096335031e-001
 3.1996581849e+000	 3.1996581849e+000	-6.0976648614e-001
 3.1663539778e+000	 3.2326192921e+000	-5.2633490313e-001
 3.1327120548e+000	 3.2652320257e+000	-4.2874330636e-001
 3.0987379073e+000	 3.2974912255e+000	-4.6015416236e-001
 3.0644371313e+000	 3.3293918467e+000	-5.1981139222e-001
 3.0298154240e+000	 3.3609289633e+000	-5.6467506041e-001
 2.9948785812e+000	 3.3920977704e+000	-5.9377599849e-001
 2.9596324933e+000	 3.4228935865e+000	-6.0617875803e-001
 2.9240831428e+000	 3.4533118559e+000	-6.0098371214e-001
 2.8882366005e+000	 3.4833481508e+000	-5.7732908153e-001
 2.8520990220e+000	 3.5129981738e+000	-5.3439288026e-001
 3.2173358544e+000	 3.2173358544e+000	-6.0088909302e-001
 3.1838476462e+000	 3.2504790672e+000	-5.2724099254e-001
 3.1500198562e+000	 3.2832719817e+000	-4.3946103409e-001
 3.1158580062e+000	 3.3157094090e+000	-3.8732318741e-001
 3.0813677232e+000	 3.3477862768e+000	-4.5631833104e-001
 3.0465547358e+000	 3.3794976316e+000	-5.1030345256e-001
 3.0114248717e+000	 3.4108386421e+000	-5.4827365656e-001
 2.9759840540e+000	 3.4418046008e+000	-5.6925823852e-001
 2.9402382983e+000	 3.4723909269e+000	-5.7232284194e-001
 2.9041937088e+000	 3.5025931682e+000	-5.5657153891e-001
 2.8678564751e+000	 3.5324070035e+000	-5.2114882895e-001
 3.2350135239e+000	 3.2350135239e+000	-5.9432029246e-001
 3.2013413146e+000	 3.2683388423e+000	-5.3028000520e-001
 3.1673276576e+000	 3.3013119376e+000	-4.5213563214e-001
 3.1329781052e+000	 3.3339275926e+000	-3.6060634282e-001
 3.0982983150e+000	 3.3661807068e+000	-3.9657495663e-001
 3.0632940475e+000	 3.3980662999e+000	-4.5964587594e-001
 3.0279711622e+000	 3.4295795138e+000	-5.0644336035e-001
 2.9923356148e+000	 3.4607156151e+000	-5.3596116558e-001
 2.9563934538e+000	 3.4914699980e+000	-5.4722992979e-001
 2.9201508170e+000	 3.5218381856e+000	-5.3931930908e-001
 2.8836139283e+000	 3.5518158332e+000	-5.1134003000e-001
 3.2526911935e+000	 3.2526911935e+000	-5.9003693729e-001
 3.2188349829e+000	 3.2861986174e+000	-5.3543031586e-001
 3.1846354590e+000	 3.3193518936e+000	-4.6674705264e-001
 3.1500982041e+000	 3.3521457762e+000	-3.8470932664e-001
 3.1152289069e+000	 3.3845751369e+000	-3.4066295438e-001
 3.0800333592e+000	 3.4166349682e+000	-4.1278837722e-001
 3.0445174527e+000	 3.4483203854e+000	-4.6837550692e-001
 3.0086871755e+000	 3.4796266294e+000	-5.0638227198e-001
 2.9725486093e+000	 3.5105490690e+000	-5.2580402569e-001
 2.9361079253e+000	 3.5410832031e+000	-5.2567573711e-001
 2.8993713815e+000	 3.5712246628e+000	-5.0507409770e-001
 3.2703688630e+000	 3.2703688630e+000	-5.8801526492e-001
 3.2363286513e+000	 3.3040583925e+000	-5.4266962900e-001
 3.2019432604e+000	 3.3373918495e+000	-4.8327452198e-001
 3.1672183030e+000	 3.3703639597e+000	-4.1055539501e-001
 3.1321594988e+000	 3.4029695670e+000	-3.2524478920e-001
 3.0967726710e+000	 3.4352036365e+000	-3.6981610794e-001
 3.0610637432e+000	 3.4670612571e+000	-4.3415954077e-001
 3.0250387362e+000	 3.4985376437e+000	-4.8061528003e-001
 2.9887037647e+000	 3.5296281400e+000	-5.0814311091e-001
 2.9520650336e+000	 3.5603282205e+000	-5.1574304071e-001
 2.9151288346e+000	 3.5906334925e+000	-5.0245745997e-001
 3.2880465325e+000	 3.2880465325e+000	-5.8823091386e-001
 3.2538223197e+000	 3.3219181675e+000	-5.5197499683e-001
 3.2192510618e+000	 3.3554318055e+000	-5.0169656035e-001
 3.1843384020e+000	 3.3885821433e+000	-4.3812459062e-001
 3.1490900907e+000	 3.4213639971e+000	-3.6199493073e-001
 3.1135119827e+000	 3.4537723048e+000	-3.3081334852e-001
 3.0776100337e+000	 3.4858021287e+000	-4.0388397938e-001
 3.0413902970e+000	 3.5174486580e+000	-4.5875292873e-001
 3.0048589202e+000	 3.5487072110e+000	-4.9434412673e-001
 2.9680221419e+000	 3.5795732379e+000	-5.0962234048e-001
 2.9308862878e+000	 3.6100423222e+000	-5.0359539028e-001
 3.3057242021e+000	 3.3057242021e+000	-5.9065893977e-001
 3.2713159881e+000	 3.3397779426e+000	-5.6332283672e-001
 3.2365588632e+000	 3.3734717614e+000	-5.2199100061e-001
 3.2014585009e+000	 3.4068003269e+000	-4.6739621586e-001
 3.1660206826e+000	 3.4397584272e+000	-4.0027788788e-001
 3.1302512944e+000	 3.4723409732e+000	-3.2138051289e-001
 3.0941563242e+000	 3.5045430004e+000	-3.7763643803e-001
 3.0577418577e+000	 3.5363596723e+000	-4.4088700006e-001
 3.0210140757e+000	 3.5677862821e+000	-4.8450300222e-001
 2.9839792502e+000	 3.5988182553e+000	-5.0741368934e-001
 2.9466437410e+000	 3.6294511519e+000	-5.0859203848e-001
 3.3234018716e+000	 3.3234018716e+000	-5.9527383093e-001
 3.2888096565e+000	 3.3576377177e+000	-5.7668894808e-001
 3.2538666646e+000	 3.3915117174e+000	-5.4413500654e-001
 3.2185785998e+000	 3.4250185104e+000	-4.9834885243e-001
 3.1829512745e+000	 3.4581528573e+000	-4.4007371407e-001
 3.1469906062e+000	 3.4909096415e+000	-3.7005765535e-001
 3.1107026147e+000	 3.5232838721e+000	-3.5550365378e-001
 3.0740934184e+000	 3.5552706866e+000	-4.2710834447e-001
 3.0371692312e+000	 3.5868653531e+000	-4.7871468116e-001
 2.9999363585e+000	 3.6180632727e+000	-5.0921610084e-001
 2.9624011941e+000	 3.6488599816e+000	-5.1755046073e-001
 3.3410795411e+000	 3.3410795411e+000	-6.0204952327e-001
 3.3063033249e+000	 3.3754974928e+000	-5.9204852875e-001
 3.2711744660e+000	 3.4095516733e+000	-5.6810509060e-001
 3.2356986988e+000	 3.4432366940e+000	-5.3096038046e-001
 3.1998818664e+000	 3.4765472874e+000	-4.8136171043e-001
 3.1637299179e+000	 3.5094783098e+000	-4.2006096964e-001
 3.1272489052e+000	 3.5420247437e+000	-3.4781307426e-001
 3.0904449792e+000	 3.5741817009e+000	-4.1750690546e-001
 3.0533243867e+000	 3.6059444241e+000	-4.7707314816e-001
 3.0158934668e+000	 3.6373082901e+000	-5.1512757668e-001
 2.9781586473e+000	 3.6682688113e+000	-5.3057264838e-001
 3.3587572107e+000	 3.3587572106e+000	-6.1095941489e-001
 3.3237969933e+000	 3.3933572679e+000	-6.0937619078e-001
 3.2884822674e+000	 3.4275916292e+000	-5.9387713101e-001
 3.2528187977e+000	 3.4614548776e+000	-5.6520799692e-001
 3.2168124582e+000	 3.4949417175e+000	-5.2412044559e-001
 3.1804692296e+000	 3.5280469781e+000	-4.7137044916e-001
 3.1437951957e+000	 3.5607656154e+000	-4.0771672833e-001
 3.1067965399e+000	 3.5930927152e+000	-4.1217174352e-001
 3.0694795422e+000	 3.6250234951e+000	-4.7967145383e-001
 3.0318505751e+000	 3.6565533075e+000	-5.2524513337e-001
 2.9939161004e+000	 3.6876776410e+000	-5.4775955603e-001
 2.8363415688e+000	 3.4935893441e+000	-5.5096335031e-001
 2.8001204200e+000	 3.5226872744e+000	-5.8711808569e-001
 2.7636223260e+000	 3.5513929153e+000	-6.1694808345e-001
 2.7268536410e+000	 3.5797023927e+000	-6.3940892033e-001
 2.6898207896e+000	 3.6076119692e+000	-6.5349077197e-001
 2.6525302629e+000	 3.6351180455e+000	-6.5822030339e-001
 2.6149886150e+000	 3.6622171622e+000	-6.5266246813e-001
 2.5772024595e+000	 3.6889060008e+000	-6.3592221209e-001
 2.5391784651e+000	 3.7151813848e+000	-6.0714607875e-001
 2.5009233526e+000	 3.7410402811e+000	-5.6552371228e-001
 2.4624438902e+000	 3.7664798005e+000	-5.3148532366e-001
 2.8520990220e+000	 3.5129981738e+000	-5.3439288026e-001
 2.8156766446e+000	 3.5422577593e+000	-5.7202840844e-001
 2.7789757834e+000	 3.5711228760e+000	-6.0274042850e-001
 2.7420028279e+000	 3.5995896282e+000	-6.2546027347e-001
 2.7047642384e+000	 3.6276542579e+000	-6.3915476852e-001
 2.6672665421e+000	 3.6553131458e+000	-6.4282815904e-001
 2.6295163296e+000	 3.6825628131e+000	-6.3552394538e-001
 2.5915202509e+000	 3.7093999231e+000	-6.1632662035e-001
 2.5532850122e+000	 3.7358212814e+000	-5.8436330598e-001
 2.5148173712e+000	 3.7618238382e+000	-5.3611124186e-001
 2.4761241341e+000	 3.7874046883e+000	-4.9616607778e-001
 2.8678564751e+000	 3.5324070035e+000	-5.2114882895e-001
 2.8312328691e+000	 3.5618282442e+000	-5.6031033515e-001
 2.7943292408e+000	 3.5908528366e+000	-5.9194333669e-001
 2.7571520148e+000	 3.6194768638e+000	-6.1495463256e-001
 2.7197076873e+000	 3.6476965466e+000	-6.2828741689e-001
 2.6820028213e+000	 3.6755082460e+000	-6.3092324499e-001
 2.6440440441e+000	 3.7029084640e+000	-6.2188390419e-001
 2.6058380424e+000	 3.7298938453e+000	-6.0023318538e-001
 2.5673915592e+000	 3.7564611780e+000	-5.6242606042e-001
 2.5287113898e+000	 3.7826073953e+000	-5.1074747904e-001
 2.4898043779e+000	 3.8083295761e+000	-4.6623224679e-001
 2.8836139283e+000	 3.5518158332e+000	-5.1134003000e-001
 2.8467890937e+000	 3.5813987290e+000	-5.5207491470e-001
 2.8096826981e+000	 3.6105827973e+000	-5.8467001247e-001
 2.7723012017e+000	 3.6393640993e+000	-6.0800729543e-001
 2.7346511361e+000	 3.6677388353e+000	-6.2100604364e-001
 2.6967391006e+000	 3.6957033463e+000	-6.2262484959e-001
 2.6585717586e+000	 3.7232541150e+000	-6.1186352551e-001
 2.6201558338e+000	 3.7503877675e+000	-5.8754251303e-001
 2.5814981062e+000	 3.7771010746e+000	-5.4025142921e-001
 2.5426054084e+000	 3.8033909524e+000	-4.9205403834e-001
 2.5034846217e+000	 3.8292544638e+000	-4.4413089222e-001
 2.8993713815e+000	 3.5712246628e+000	-5.0507409770e-001
 2.8623453183e+000	 3.6009692139e+000	-5.4743196104e-001
 2.8250361555e+000	 3.6303127579e+000	-5.8103241003e-001
 2.7874503886e+000	 3.6592513348e+000	-6.0473229462e-001
 2.7495945849e+000	 3.6877811240e+000	-6.1742669536e-001
 2.7114753798e+000	 3.7158984465e+000	-6.1805096682e-001
 2.6730994731e+000	 3.7435997659e+000	-6.0558268180e-001
 2.6344736253e+000	 3.7708816897e+000	-5.6842916170e-001
 2.5956046532e+000	 3.7977409712e+000	-5.2457455120e-001
 2.5564994271e+000	 3.8241745096e+000	-4.7985017573e-001
 2.5171648656e+000	 3.8501793516e+000	-4.3545580228e-001
 2.9151288346e+000	 3.5906334925e+000	-5.0245745997e-001
 2.8779015428e+000	 3.6205396987e+000	-5.4649008659e-001
 2.8403896129e+000	 3.6500427186e+000	-5.8114126713e-001
 2.8025995755e+000	 3.6791385703e+000	-6.0524243158e-001
 2.7645380338e+000	 3.7078234128e+000	-6.1766417319e-001
 2.7262116591e+000	 3.7360935468e+000	-6.1731833120e-001
 2.6876271877e+000	 3.7639454168e+000	-5.9399905912e-001
 2.6487914167e+000	 3.7913756120e+000	-5.5565250697e-001
 2.6097112003e+000	 3.8183808678e+000	-5.1521304044e-001
 2.5703934457e+000	 3.8449580667e+000	-4.7395383482e-001
 2.5308451094e+000	 3.8711042394e+000	-4.3309411029e-001
 2.9308862878e+000	 3.6100423222e+000	-5.0359539028e-001
 2.8934577674e+000	 3.6401101836e+000	-5.4935673449e-001
 2.8557430702e+000	 3.6697726792e+000	-5.8510613773e-001
 2.8177487624e+000	 3.6990258058e+000	-6.0964930979e-001
 2.7794814826e+000	 3.7278657015e+000	-6.2183206639e-001
 2.7409479383e+000	 3.7562886470e+000	-6.1562120799e-001
 2.7021549022e+000	 3.7842910677e+000	-5.8402393172e-001
 2.6631092081e+000	 3.8118695342e+000	-5.4902873028e-001
 2.6238177473e+000	 3.8390207644e+000	-5.1198324630e-001
 2.5842874643e+000	 3.8657416238e+000	-4.7418168211e-001
 2.5445253532e+000	 3.8920291272e+000	-4.3686294999e-001
 2.9466437410e+000	 3.6294511519e+000	-5.0859203848e-001
 2.9090139919e+000	 3.6596806685e+000	-5.5613820990e-001
 2.8710965276e+000	 3.6895026398e+000	-5.9303542370e-001
 2.8328979493e+000	 3.7189130413e+000	-6.1806336677e-001
 2.7944249314e+000	 3.7479079902e+000	-6.3004278466e-001
 2.7556842175e+000	 3.7764837473e+000	-6.0836514235e-001
 2.7166826167e+000	 3.8046367186e+000	-5.8005116884e-001
 2.6774269996e+000	 3.8323634564e+000	-5.4837279459e-001
 2.6379242943e+000	 3.8596606609e+000	-5.1470028731e-001
 2.5981814829e+000	 3.8865251809e+000	-4.8034914115e-001
 2.5582055971e+000	 3.9129540150e+000	-4.4657820038e-001
 2.9624011941e+000	 3.6488599816e+000	-5.1755046073e-001
 2.9245702165e+000	 3.6792511533e+000	-5.6693971028e-001
 2.8864499850e+000	 3.7092326005e+000	-6.0503640545e-001
 2.8480471362e+000	 3.7388002768e+000	-6.3059390507e-001
 2.8093683802e+000	 3.7679502789e+000	-6.2728697342e-001
 2.7704204968e+000	 3.7966788475e+000	-6.0697312763e-001
 2.7312103313e+000	 3.8249823695e+000	-5.8189455260e-001
 2.6917447910e+000	 3.8528573787e+000	-5.5349847679e-001
 2.6520308414e+000	 3.8803005575e+000	-5.2317808383e-001
 2.6120755016e+000	 3.9073087380e+000	-4.9227042561e-001
 2.5718858409e+000	 3.9338789027e+000	-4.6205451913e-001
 2.9781586473e+000	 3.6682688113e+000	-5.3057264838e-001
 2.9401264410e+000	 3.6988216382e+000	-5.8186535463e-001
 2.9018034423e+000	 3.7289625611e+000	-6.2121527157e-001
 2.8631963231e+000	 3.7586875124e+000	-6.3932897653e-001
 2.8243118291e+000	 3.7879925676e+000	-6.2842034767e-001
 2.7851567760e+000	 3.8168739478e+000	-6.1125796829e-001
 2.7457380458e+000	 3.8453280204e+000	-5.8936672246e-001
 2.7060625825e+000	 3.8733513009e+000	-5.6421839909e-001
 2.6661373884e+000	 3.9009404541e+000	-5.3722938981e-001
 2.6259695202e+000	 3.9280922951e+000	-5.0975857127e-001
 2.5855660847e+000	 3.9548037905e+000	-4.8310537487e-001
 2.9939161004e+000	 3.6876776410e+000	-5.4775955603e-001
 2.9556826656e+000	 3.7183921230e+000	-6.0101821193e-001
 2.9171568997e+000	 3.7486925218e+000	-6.4167714759e-001
 2.8783455100e+000	 3.7785747479e+000	-6.4294563631e-001
 2.8392552779e+000	 3.8080348563e+000	-6.3510388029e-001
 2.7998930552e+000	 3.8370690480e+000	-6.2103136812e-001
 2.7602657603e+000	 3.8656736713e+000	-6.0227920525e-001
 2.7203803739e+000	 3.8938452231e+000	-5.8034405937e-001
 2.6802439354e+000	 3.9215803507e+000	-5.5666582345e-001
 2.6398635388e+000	 3.9488758523e+000	-5.3262546703e-001
 2.5992463286e+000	 3.9757286783e+000	-5.0954307850e-001
 2.4624438902e+000	 3.7664798005e+000	-5.3148532366e-001
 2.4237468907e+000	 3.7914971990e+000	-4.8948814286e-001
 2.3848392068e+000	 3.8160898781e+000	-4.5493253876e-001
 2.3457277277e+000	 3.8402553857e+000	-4.2725638828e-001
 2.3064193751e+000	 3.8639914164e+000	-4.0589256094e-001
 2.2669210994e+000	 3.8872958119e+000	-3.9027021914e-001
 2.2272398761e+000	 3.9101665609e+000	-3.7981613236e-001
 2.1873827014e+000	 3.9326018000e+000	-3.7395600178e-001
 2.1473565890e+000	 3.9545998128e+000	-3.7211579133e-001
 2.1071685659e+000	 3.9761590304e+000	-3.7372306151e-001
 2.0668256687e+000	 3.9972780307e+000	-3.7820830212e-001
 2.4761241341e+000	 3.7874046883e+000	-4.9616607778e-001
 2.4372121512e+000	 3.8125610723e+000	-4.5564077484e-001
 2.3980883135e+000	 3.8372903774e+000	-4.2263406482e-001
 2.3587595484e+000	 3.8615901379e+000	-3.9655854414e-001
 2.3192328160e+000	 3.8854580354e+000	-3.7682150045e-001
 2.2795151055e+000	 3.9088918997e+000	-3.6282625460e-001
 2.2396134310e+000	 3.9318897085e+000	-3.5397351717e-001
 2.1995348275e+000	 3.9544495878e+000	-3.4966275555e-001
 2.1592863478e+000	 3.9765698118e+000	-3.4929356781e-001
 2.1188750579e+000	 3.9982488028e+000	-3.5226705931e-001
 2.0783080336e+000	 4.0194851309e+000	-3.5798721833e-001
 2.4898043779e+000	 3.8083295761e+000	-4.6623224679e-001
 2.4506774117e+000	 3.8336249456e+000	-4.2710078465e-001
 2.4113374202e+000	 3.8584908768e+000	-3.9556748967e-001
 2.3717913691e+000	 3.8829248900e+000	-3.7101957815e-001
 2.3320462570e+000	 3.9069246544e+000	-3.5283864969e-001
 2.2921091116e+000	 3.9304879876e+000	-3.4040207134e-001
 2.2519869858e+000	 3.9536128561e+000	-3.3308437667e-001
 2.2116869537e+000	 3.9762973756e+000	-3.3025867571e-001
 2.1712161067e+000	 3.9985398108e+000	-3.3129807187e-001
 2.1305815500e+000	 4.0203385752e+000	-3.3557708180e-001
 2.0897903984e+000	 4.0416922311e+000	-3.4247305421e-001
 2.5034846217e+000	 3.8292544638e+000	-4.4413089222e-001
 2.4641426722e+000	 3.8546888190e+000	-4.0378219285e-001
 2.4245865269e+000	 3.8796913761e+000	-3.7365224873e-001
 2.3848231898e+000	 3.9042596422e+000	-3.5056443505e-001
 2.3448596980e+000	 3.9283912734e+000	-3.3387455359e-001
 2.3047031177e+000	 3.9520840754e+000	-3.2293390162e-001
 2.2643605407e+000	 3.9753360036e+000	-3.1709071378e-001
 2.2238390798e+000	 3.9981451634e+000	-3.1569161529e-001
 2.1831458655e+000	 4.0205098097e+000	-3.1808308228e-001
 2.1422880420e+000	 4.0424283476e+000	-3.2361290516e-001
 2.1012727632e+000	 4.0638993313e+000	-3.3163165101e-001
 2.5171648656e+000	 3.8501793516e+000	-4.3545580228e-001
 2.4776079327e+000	 3.8757526923e+000	-3.8559757873e-001
 2.4378356336e+000	 3.9008918754e+000	-3.5680625590e-001
 2.3978550105e+000	 3.9255943943e+000	-3.3511645737e-001
 2.3576731389e+000	 3.9498578924e+000	-3.1985807371e-001
 2.3172971239e+000	 3.9736801633e+000	-3.1035621268e-001
 2.2767340956e+000	 3.9970591512e+000	-3.0593268441e-001
 2.2359912059e+000	 4.0199929511e+000	-3.0590749805e-001
 2.1950756243e+000	 4.0424798087e+000	-3.0960036591e-001
 2.1539945340e+000	 4.0645181200e+000	-3.1633221075e-001
 2.1127551280e+000	 4.0861064314e+000	-3.2542667207e-001
 2.5308451094e+000	 3.8711042394e+000	-4.3309411029e-001
 2.4910731932e+000	 3.8968165656e+000	-3.7245811926e-001
 2.4510847403e+000	 3.9220923747e+000	-3.4494594474e-001
 2.4108868312e+000	 3.9469291465e+000	-3.2459742877e-001
 2.3704865799e+000	 3.9713245114e+000	-3.1071643371e-001
 2.3298911300e+000	 3.9952762511e+000	-3.0260175453e-001
 2.2891076504e+000	 4.0187822988e+000	-2.9954864745e-001
 2.2481433320e+000	 4.0418407389e+000	-3.0085037058e-001
 2.2070053831e+000	 4.0644498076e+000	-3.0579973207e-001
 2.1657010260e+000	 4.0866078923e+000	-3.1369064175e-001
 2.1242374928e+000	 4.1083135316e+000	-3.2381966166e-001
 2.5445253532e+000	 3.8920291272e+000	-4.3686294999e-001
 2.5045384537e+000	 3.9178804389e+000	-3.6864362320e-001
 2.4643338470e+000	 3.9432928740e+000	-3.3798630822e-001
 2.4239186519e+000	 3.9682638986e+000	-3.1892761589e-001
 2.3833000209e+000	 3.9927911303e+000	-3.0637526341e-001
 2.3424851361e+000	 4.0168723389e+000	-2.9960160602e-001
 2.3014812053e+000	 4.0405054463e+000	-2.9787521305e-001
 2.2602954581e+000	 4.0636885267e+000	-3.0046245279e-001
 2.2189351420e+000	 4.0864198066e+000	-3.0662908517e-001
 2.1774075181e+000	 4.1086976647e+000	-3.1564185794e-001
 2.1357198577e+000	 4.1305206318e+000	-3.2677010196e-001
 2.5582055971e+000	 3.9129540150e+000	-4.4657820038e-001
 2.5180037142e+000	 3.9389443123e+000	-3.7889667081e-001
 2.4775829537e+000	 3.9644933734e+000	-3.3584093728e-001
 2.4369504726e+000	 3.9895986507e+000	-3.1802580894e-001
 2.3961134619e+000	 4.0142577493e+000	-3.0675864139e-001
 2.3550791422e+000	 4.0384684268e+000	-3.0128521961e-001
 2.3138547601e+000	 4.0622285939e+000	-3.0084728938e-001
 2.2724475842e+000	 4.0855363145e+000	-3.0468418676e-001
 2.2308649008e+000	 4.1083898056e+000	-3.1203447561e-001
 2.1891140101e+000	 4.1307874371e+000	-3.2213758872e-001
 2.1472022225e+000	 4.1527277319e+000	-3.3423546819e-001
 2.5718858409e+000	 3.9338789027e+000	-4.6205451913e-001
 2.5314689747e+000	 3.9600081856e+000	-3.9476130749e-001
 2.4908320604e+000	 3.9856938727e+000	-3.3842205806e-001
 2.4499822933e+000	 4.0109334029e+000	-3.2180936097e-001
 2.4089269028e+000	 4.0357243683e+000	-3.1178913625e-001
 2.3676731483e+000	 4.0600645146e+000	-3.0758046454e-001
 2.3262283150e+000	 4.0839517414e+000	-3.0839812787e-001
 2.2845997104e+000	 4.1073841022e+000	-3.1345428400e-001
 2.2427946596e+000	 4.1303598045e+000	-3.2196014913e-001
 2.2008205021e+000	 4.1528772095e+000	-3.3312768448e-001
 2.1586845873e+000	 4.1749348321e+000	-3.4617128200e-001
 2.5855660847e+000	 3.9548037905e+000	-4.8310537487e-001
 2.5449342352e+000	 3.9810720589e+000	-4.1605430252e-001
 2.5040811671e+000	 4.0068943720e+000	-3.5023473626e-001
 2.4630141140e+000	 4.0322681550e+000	-3.3019422590e-001
 2.4217403438e+000	 4.0571909873e+000	-3.2138784653e-001
 2.3802671544e+000	 4.0816606025e+000	-3.1841366878e-001
 2.3386018699e+000	 4.1056748890e+000	-3.2045936710e-001
 2.2967518365e+000	 4.1292318900e+000	-3.2670977124e-001
 2.2547244184e+000	 4.1523298035e+000	-3.3634859454e-001
 2.2125269942e+000	 4.1749669819e+000	-3.4856016628e-001
 2.1701669521e+000	 4.1971419323e+000	-3.6253116313e-001
 2.5992463286e+000	 3.9757286783e+000	-5.0954307850e-001
 2.5583994957e+000	 4.0021359322e+000	-4.4259119966e-001
 2.5173302738e+000	 4.0280948713e+000	-3.7727167998e-001
 2.4760459347e+000	 4.0536029072e+000	-3.4309499529e-001
 2.4345537848e+000	 4.0786576062e+000	-3.3547443944e-001
 2.3928611605e+000	 4.1032566903e+000	-3.3370965956e-001
 2.3509754247e+000	 4.1273980366e+000	-3.3696107518e-001
 2.3089039626e+000	 4.1510796778e+000	-3.4438603476e-001
 2.2666541773e+000	 4.1742998024e+000	-3.5514058995e-001
 2.2242334862e+000	 4.1970567543e+000	-3.6838127399e-001
 2.1816493170e+000	 4.2193490324e+000	-3.8326687947e-001
 2.0668256687e+000	 3.9972780307e+000	-3.7820830212e-001
 2.0263349401e+000	 4.0179555386e+000	-4.0866890357e-001
 1.9857034249e+000	 4.0381904250e+000	-4.5307784414e-001
 1.9449381662e+000	 4.0579817064e+000	-5.1028556257e-001
 1.9040462023e+000	 4.0773285445e+000	-5.7914569738e-001
 1.8630345624e+000	 4.0962302449e+000	-5.8559093408e-001
 1.8219102636e+000	 4.1146862567e+000	-4.4126244515e-001
 1.7806803072e+000	 4.1326961712e+000	-3.3054466630e-001
 1.7393516748e+000	 4.1502597210e+000	-2.5081632411e-001
 1.6979313258e+000	 4.1673767784e+000	-1.9949466842e-001
 1.6564261930e+000	 4.1840473548e+000	-1.7404020972e-001
 2.0783080336e+000	 4.0194851309e+000	-3.5798721833e-001
 2.0375923565e+000	 4.0402775138e+000	-3.8027089821e-001
 1.9967351106e+000	 4.0606248162e+000	-4.1522981193e-001
 1.9557433782e+000	 4.0805260492e+000	-4.6178456747e-001
 1.9146242367e+000	 4.0999803697e+000	-5.1885907481e-001
 1.8733847544e+000	 4.1189870796e+000	-5.7584207629e-001
 1.8320319873e+000	 4.1375456248e+000	-4.2062630061e-001
 1.7905729755e+000	 4.1556555944e+000	-2.9820581567e-001
 1.7490147397e+000	 4.1733167194e+000	-2.0599045399e-001
 1.7073642776e+000	 4.1905288716e+000	-1.4142908000e-001
 1.6656285608e+000	 4.2072920623e+000	-1.0201433561e-001
 2.0897903984e+000	 4.0416922311e+000	-3.4247305421e-001
 2.0488497728e+000	 4.0625994891e+000	-3.5817759952e-001
 2.0077667963e+000	 4.0830592075e+000	-3.8529535109e-001
 1.9665485903e+000	 4.1030703921e+000	-4.2281612153e-001
 1.9252022712e+000	 4.1226321950e+000	-4.6973312539e-001
 1.8837349464e+000	 4.1417439143e+000	-5.2504481426e-001
 1.8421537110e+000	 4.1604049929e+000	-4.1082870638e-001
 1.8004656439e+000	 4.1786150176e+000	-2.7869467899e-001
 1.7586778046e+000	 4.1963737179e+000	-1.7598535044e-001
 1.7167972294e+000	 4.2136809648e+000	-1.0017961717e-001
 1.6748309285e+000	 4.2305367698e+000	-4.8800685060e-002
 2.1012727632e+000	 4.0638993313e+000	-3.3163165101e-001
 2.0601071891e+000	 4.0849214643e+000	-3.4233383919e-001
 2.0187984819e+000	 4.1054935987e+000	-3.6319818321e-001
 1.9773538023e+000	 4.1256147349e+000	-3.9328274502e-001
 1.9357803056e+000	 4.1452840202e+000	-4.3164908611e-001
 1.8940851384e+000	 4.1645007490e+000	-4.7736404717e-001
 1.8522754347e+000	 4.1832643610e+000	-4.1155450493e-001
 1.8103583123e+000	 4.2015744408e+000	-2.7167945186e-001
 1.7683408694e+000	 4.2194307163e+000	-1.6045250572e-001
 1.7262301812e+000	 4.2368330580e+000	-7.5381016677e-002
 1.6840332963e+000	 4.2537814774e+000	-1.4017191330e-002
 2.1127551280e+000	 4.0861064314e+000	-3.2542667207e-001
 2.0713646055e+000	 4.1072434395e+000	-3.3268277764e-001
 2.0298301676e+000	 4.1279279900e+000	-3.4886086865e-001
 1.9881590143e+000	 4.1481590777e+000	-3.7308631007e-001
 1.9463583401e+000	 4.1679358455e+000	-4.0448806171e-001
 1.9044353304e+000	 4.1872575837e+000	-4.4220040350e-001
 1.8623971584e+000	 4.2061237291e+000	-4.2248944582e-001
 1.8202509806e+000	 4.2245338639e+000	-2.7682975992e-001
 1.7780039343e+000	 4.2424877148e+000	-1.5904536690e-001
 1.7356631330e+000	 4.2599851512e+000	-6.6670496398e-002
 1.6932356640e+000	 4.2770261849e+000	 2.7152035217e-003
 2.1242374928e+000	 4.1083135316e+000	-3.2381966166e-001
 2.0826220218e+000	 4.1295654147e+000	-3.2916594922e-001
 2.0408618533e+000	 4.1503623812e+000	-3.4220483789e-001
 1.9989642264e+000	 4.1707034205e+000	-3.6212805816e-001
 1.9569363745e+000	 4.1905876707e+000	-3.8813102829e-001
 1.9147855224e+000	 4.2100144184e+000	-4.1941452626e-001
 1.8725188821e+000	 4.2289830972e+000	-4.4332016123e-001
 1.8301436490e+000	 4.2474932871e+000	-2.9381662016e-001
 1.7876669991e+000	 4.2655447132e+000	-1.7141928299e-001
 1.7450960848e+000	 4.2831372445e+000	-7.3687688263e-002
 1.7024380317e+000	 4.3002708924e+000	 1.7726299549e-003
 2.1357198577e+000	 4.1305206318e+000	-3.2677010196e-001
 2.0938794381e+000	 4.1518873899e+000	-3.3172330591e-001
 2.0518935390e+000	 4.1727967725e+000	-3.4315042193e-001
 2.0097694384e+000	 4.1932477633e+000	-3.6030861706e-001
 1.9675144090e+000	 4.2132394960e+000	-3.8245883671e-001
 1.9251357145e+000	 4.2327712531e+000	-4.0886742419e-001
 1.8826406057e+000	 4.2518424653e+000	-4.3880771974e-001
 1.8400363174e+000	 4.2704527103e+000	-3.2231240357e-001
 1.7973300640e+000	 4.2886017116e+000	-1.9723145383e-001
 1.7545290366e+000	 4.3062893377e+000	-9.6074573379e-002
 1.7116403995e+000	 4.3235155999e+000	-1.6471630358e-002
 2.1472022225e+000	 4.1527277319e+000	-3.3423546819e-001
 2.1051368545e+000	 4.1742093651e+000	-3.4029325962e-001
 2.0629252247e+000	 4.1952311637e+000	-3.5161688166e-001
 2.0205746504e+000	 4.2157921061e+000	-3.6752801728e-001
 1.9780924434e+000	 4.2358913212e+000	-3.8735221599e-001
 1.9354859065e+000	 4.2555280878e+000	-4.1042046199e-001
 1.8927623294e+000	 4.2747018334e+000	-4.3607072273e-001
 1.8499289858e+000	 4.2934121334e+000	-3.6199079891e-001
 1.8069931288e+000	 4.3116587101e+000	-2.3614088058e-001
 1.7639619884e+000	 4.3294414309e+000	-1.3347541921e-001
 1.7208427672e+000	 4.3467603075e+000	-5.1647068358e-002
 2.1586845873e+000	 4.1749348321e+000	-3.4617128200e-001
 2.1163942708e+000	 4.1965313403e+000	-3.5481272317e-001
 2.0739569104e+000	 4.2176655550e+000	-3.6752243634e-001
 2.0313798625e+000	 4.2383364489e+000	-3.8368570794e-001
 1.9886704779e+000	 4.2585431465e+000	-4.0269177654e-001
 1.9458360985e+000	 4.2782849225e+000	-4.2393535083e-001
 1.9028840531e+000	 4.2975612015e+000	-4.4681810863e-001
 1.8598216541e+000	 4.3163715566e+000	-4.1252677766e-001
 1.8166561937e+000	 4.3347157085e+000	-2.8780831785e-001
 1.7733949402e+000	 4.3525935241e+000	-1.8553671877e-001
 1.7300451349e+000	 4.3700050150e+000	-1.0338587386e-001
 2.1701669521e+000	 4.1971419323e+000	-3.6253116313e-001
 2.1276516871e+000	 4.2188533156e+000	-3.7521714990e-001
 2.0849885961e+000	 4.2400999462e+000	-3.9078429117e-001
 2.0421850745e+000	 4.2608807917e+000	-4.0868057213e-001
 1.9992485124e+000	 4.2811949717e+000	-4.2835801328e-001
 1.9561862905e+000	 4.3010417572e+000	-4.4927413919e-001
 1.9130057768e+000	 4.3204205696e+000	-4.7089342896e-001
 1.8697143225e+000	 4.3393309798e+000	-4.7359656009e-001
 1.8263192586e+000	 4.3577727070e+000	-3.5189622727e-001
 1.7828278921e+000	 4.3757456173e+000	-2.5113918951e-001
 1.7392475027e+000	 4.3932497225e+000	-1.5362104594e-001
 2.1816493170e+000	 4.2193490324e+000	-3.8326687947e-001
 2.1389091034e+000	 4.2411752908e+000	-4.0144057216e-001
 2.0960202818e+000	 4.2625343375e+000	-4.2131866395e-001
 2.0529902865e+000	 4.2834251345e+000	-4.4241094181e-001
 2.0098265468e+000	 4.3038467969e+000	-4.6423130870e-001
 1.9665364825e+000	 4.3237985918e+000	-4.8629920400e-001
 1.9231275005e+000	 4.3432799376e+000	-5.0814100658e-001
 1.8796069909e+000	 4.3622904030e+000	-5.2929141665e-001
 1.8359823234e+000	 4.3808297054e+000	-4.2084047675e-001
 1.7922608439e+000	 4.3988977105e+000	-3.0331413230e-001
 1.7484498704e+000	 4.4164944300e+000	-2.0677179761e-001
 1.6564261930e+000	 4.1840473548e+000	-1.7404020972e-001
 1.6148431803e+000	 4.2002715988e+000	-1.9308853744e-001
 1.5731891585e+000	 4.2160497947e+000	-2.1521685589e-001
 1.5314709629e+000	 4.2313823616e+000	-2.3839217630e-001
 1.4896953899e+000	 4.2462698508e+000	-2.6065314981e-001
 1.4478691937e+000	 4.2607129448e+000	-2.8011335648e-001
 1.4059990840e+000	 4.2747124554e+000	-2.9496438526e-001
 1.3640917223e+000	 4.2882693215e+000	-3.0347870114e-001
 1.3221537197e+000	 4.3013846075e+000	-3.0401229616e-001
 1.2801916340e+000	 4.3140595013e+000	-2.9500712184e-001
 1.2382119668e+000	 4.3262953119e+000	-2.6514910613e-001
 1.6656285608e+000	 4.2072920623e+000	-1.0201433561e-001
 1.6238145313e+000	 4.2236064410e+000	-1.1085669029e-001
 1.5819290983e+000	 4.2394722936e+000	-1.2303328687e-001
 1.5399791349e+000	 4.2548900414e+000	-1.3651307507e-001
 1.4979714754e+000	 4.2698602388e+000	-1.4933681650e-001
 1.4559129115e+000	 4.2843835723e+000	-1.5962041132e-001
 1.4138101900e+000	 4.2984608579e+000	-1.6555801411e-001
 1.3716700096e+000	 4.3120930399e+000	-1.6542493487e-001
 1.3294990181e+000	 4.3252811887e+000	-1.5758032202e-001
 1.2873038097e+000	 4.3380264985e+000	-1.4046962474e-001
 1.2450909222e+000	 4.3503302858e+000	-1.0822889098e-001
 1.6748309285e+000	 4.2305367698e+000	-4.8800685060e-002
 1.6327858823e+000	 4.2469412832e+000	-4.8945999304e-002
 1.5906690380e+000	 4.2628947925e+000	-5.2668306208e-002
 1.5484873069e+000	 4.2783977212e+000	-5.7937261413e-002
 1.5062475609e+000	 4.2934506269e+000	-6.2794528890e-002
 1.4639566292e+000	 4.3080541997e+000	-6.5357146535e-002
 1.4216212960e+000	 4.3222092604e+000	-6.3820679053e-002
 1.3792482970e+000	 4.3359167584e+000	-5.6462154088e-002
 1.3368443166e+000	 4.3491777698e+000	-4.1642778241e-002
 1.2944159855e+000	 4.3619934957e+000	-1.7810430321e-002
 1.2519698775e+000	 4.3743652598e+000	 1.6498070160e-002
 1.6840332963e+000	 4.2537814774e+000	-1.4017191330e-002
 1.6417572333e+000	 4.2702761254e+000	-6.9655235636e-003
 1.5994089778e+000	 4.2863172913e+000	-3.7222094517e-003
 1.5569954790e+000	 4.3019054009e+000	-2.2563777141e-003
 1.5145236464e+000	 4.3170410149e+000	-6.0938621212e-004
 1.4720003470e+000	 4.3317248272e+000	 3.1017722229e-003
 1.4294324020e+000	 4.3459576629e+000	 1.0681278632e-002
 1.3868265843e+000	 4.3597404768e+000	 2.3851515565e-002
 1.3441896150e+000	 4.3730743510e+000	 4.4250316930e-002
 1.3015281612e+000	 4.3859604930e+000	 4.7156538288e-002
 1.2588488329e+000	 4.3984002337e+000	 4.9005597210e-002
 1.6932356640e+000	 4.2770261849e+000	 2.7152035217e-003
 1.6507285843e+000	 4.2936109676e+000	 1.5472313610e-002
 1.6081489176e+000	 4.3097397902e+000	 2.4200990554e-002
 1.5655036510e+000	 4.3254130807e+000	 3.0933865874e-002
 1.5227997319e+000	 4.3406314030e+000	 3.7631096776e-002
 1.4800440647e+000	 4.3553954547e+000	 4.6176918806e-002
 1.4372435081e+000	 4.3697060655e+000	 5.8376415196e-002
 1.3944048717e+000	 4.3835641953e+000	 6.3277676909e-002
 1.3515349135e+000	 4.3969709321e+000	 6.1949649264e-002
 1.3086403370e+000	 4.4099274902e+000	 6.1950068676e-002
 1.2657277883e+000	 4.4224352077e+000	 6.4294892208e-002
 1.7024380317e+000	 4.3002708924e+000	 1.7726299549e-003
 1.6596999353e+000	 4.3169458098e+000	 1.8751815574e-002
 1.6168888573e+000	 4.3331622890e+000	 3.1493664161e-002
 1.5740118230e+000	 4.3489207605e+000	 4.2033801388e-002
 1.5310758174e+000	 4.3642217911e+000	 5.2335109118e-002
 1.4880877825e+000	 4.3790660822e+000	 6.1439600840e-002
 1.4450546141e+000	 4.3934544680e+000	 6.2656726989e-002
 1.4019831590e+000	 4.4073879137e+000	 6.2498138002e-002
 1.3588802119e+000	 4.4208675133e+000	 6.2067547673e-002
 1.3157525127e+000	 4.4338944874e+000	 6.2405460226e-002
 1.2726067437e+000	 4.4464701816e+000	 6.4489964746e-002
 1.7116403995e+000	 4.3235155999e+000	-1.6471630358e-002
 1.6686712863e+000	 4.3402806520e+000	 3.2541003573e-003
 1.6256287971e+000	 4.3565847879e+000	 1.8544662136e-002
 1.5825199950e+000	 4.3724284403e+000	 3.1439909445e-002
 1.5393519029e+000	 4.3878121791e+000	 4.1017317778e-002
 1.4961315002e+000	 4.4027367096e+000	 4.6291547848e-002
 1.4528657201e+000	 4.4172028705e+000	 4.8595465626e-002
 1.4095614464e+000	 4.4312116322e+000	 4.9058836207e-002
 1.3662255104e+000	 4.4447640944e+000	 4.8747519171e-002
 1.3228646884e+000	 4.4578614846e+000	 4.8664203722e-002
 1.2794856990e+000	 4.4705051556e+000	 4.9749255434e-002
 1.7208427672e+000	 4.3467603075e+000	-5.1647068358e-002
 1.6776426373e+000	 4.3636154943e+000	-3.0642814169e-002
 1.6343687369e+000	 4.3800072868e+000	-1.2569063566e-002
 1.5910281670e+000	 4.3959361201e+000	 3.6926344918e-003
 1.5476279884e+000	 4.4114025672e+000	 1.4197230006e-002
 1.5041752179e+000	 4.4264073371e+000	 2.0166631335e-002
 1.4606768261e+000	 4.4409512731e+000	 2.2757584990e-002
 1.4171397337e+000	 4.4550353506e+000	 2.3062223676e-002
 1.3735708088e+000	 4.4686606756e+000	 2.2108737133e-002
 1.3299768642e+000	 4.4818284819e+000	 2.0862160159e-002
 1.2863646544e+000	 4.4945401296e+000	 2.0225272045e-002
 1.7300451349e+000	 4.3700050150e+000	-1.0338587386e-001
 1.6866139883e+000	 4.3869503365e+000	-7.4448041579e-002
 1.6431086766e+000	 4.4034297856e+000	-5.0304029602e-002
 1.5995363390e+000	 4.4194437999e+000	-3.3482506849e-002
 1.5559040739e+000	 4.4349929552e+000	-2.2732910593e-002
 1.5122189357e+000	 4.4500779646e+000	-1.6870480774e-002
 1.4684879322e+000	 4.4646996756e+000	-1.4775787202e-002
 1.4247180211e+000	 4.4788590691e+000	-1.5394128309e-002
 1.3809161073e+000	 4.4925572567e+000	-1.7734807027e-002
 1.3370890399e+000	 4.5057954791e+000	-2.0870289526e-002
 1.2932436098e+000	 4.5185751035e+000	-2.3935252696e-002
 1.7392475027e+000	 4.3932497225e+000	-1.5362104594e-001
 1.6955853393e+000	 4.4102851787e+000	-1.2061777934e-001
 1.6518486164e+000	 4.4268522845e+000	-9.6477132306e-002
 1.6080445111e+000	 4.4429514797e+000	-7.9918760664e-002
 1.5641801594e+000	 4.4585833433e+000	-6.9728760791e-002
 1.5202626534e+000	 4.4737485920e+000	-6.4759277713e-002
 1.4762990382e+000	 4.4884480781e+000	-6.3927979038e-002
 1.4322963084e+000	 4.5026827875e+000	-6.6217400211e-002
 1.3882614057e+000	 4.5164538379e+000	-7.0674166772e-002
 1.3442012157e+000	 4.5297624763e+000	-7.6408099483e-002
 1.3001225651e+000	 4.5426100775e+000	-8.2591208335e-002
 1.7484498704e+000	 4.4164944300e+000	-2.0677179761e-001
 1.7045566903e+000	 4.4336200209e+000	-1.7439155420e-001
 1.6605885562e+000	 4.4502747833e+000	-1.5107951483e-001
 1.6165526831e+000	 4.4664591594e+000	-1.3559140925e-001
 1.5724562449e+000	 4.4821737314e+000	-1.2674973182e-001
 1.5283063712e+000	 4.4974192195e+000	-1.2344329647e-001
 1.4841101442e+000	 4.5121964807e+000	-1.2462665715e-001
 1.4398745957e+000	 4.5265065060e+000	-1.2931939919e-001
 1.3956067041e+000	 4.5403504190e+000	-1.3660530768e-001
 1.3513133914e+000	 4.5537294736e+000	-1.4563141855e-001
 1.3070015205e+000	 4.5666450514e+000	-1.5560695873e-001
 1.2382119668e+000	 4.3262953119e+000	-2.6514910613e-001
 1.1962211613e+000	 4.3380934676e+000	-2.5562033941e-001
 1.1542255995e+000	 4.3494555137e+000	-2.4338762605e-001
 1.1122316001e+000	 4.3603831102e+000	-2.3412757421e-001
 1.0702454156e+000	 4.3708780297e+000	-2.3308767004e-001
 1.0282732308e+000	 4.3809421547e+000	-2.5351956902e-001
 9.8632116015e-001	 4.3905774756e+000	-2.7527009973e-001
 9.4439524573e-001	 4.3997860880e+000	-2.8519115220e-001
 9.0250145542e-001	 4.4085701903e+000	-2.8075200782e-001
 8.6064568090e-001	 4.4169320814e+000	-2.5976255216e-001
 8.1883373586e-001	 4.4248741579e+000	-2.2036933417e-001
 1.2450909222e+000	 4.3503302858e+000	-1.0822889098e-001
 1.2028668344e+000	 4.3621939868e+000	-8.2600535389e-002
 1.1606379640e+000	 4.3736191554e+000	-6.2796756181e-002
 1.1184106645e+000	 4.3846074608e+000	-8.3906435257e-002
 1.0761912235e+000	 4.3951606854e+000	-1.1005912780e-001
 1.0339858599e+000	 4.4052807222e+000	-1.3280372289e-001
 9.9180072215e-001	 4.4149695727e+000	-1.4884882904e-001
 9.4964188598e-001	 4.4242293440e+000	-1.5525310726e-001
 9.0751535240e-001	 4.4330622469e+000	-1.4942263865e-001
 8.6542704580e-001	 4.4414705930e+000	-1.2910762586e-001
 8.2338281217e-001	 4.4494567921e+000	-9.2398454054e-002
 1.2519698775e+000	 4.3743652598e+000	 1.6498070160e-002
 1.2095125075e+000	 4.3862945061e+000	 1.9886622512e-002
 1.1670503284e+000	 4.3977827972e+000	 1.2220907228e-002
 1.1245897290e+000	 4.4088318115e+000	-2.0517700817e-003
 1.0821370313e+000	 4.4194433411e+000	-1.8856880713e-002
 1.0396984889e+000	 4.4296192898e+000	-3.4476657576e-002
 9.9728028415e-001	 4.4393616698e+000	-4.5548906655e-002
 9.5488852624e-001	 4.4486726001e+000	-4.9065094355e-002
 9.1252924937e-001	 4.4575543036e+000	-4.2367734279e-002
 8.7020841069e-001	 4.4660091046e+000	-2.3147098179e-002
 8.2793188848e-001	 4.4740394263e+000	 1.0562723067e-002
 1.2588488329e+000	 4.3984002337e+000	 4.9005597210e-002
 1.2161581807e+000	 4.4103950254e+000	 5.8020750629e-002
 1.1734626929e+000	 4.4219464389e+000	 6.3233963467e-002
 1.1307687934e+000	 4.4330561621e+000	 5.9566101574e-002
 1.0880828392e+000	 4.4437259969e+000	 5.1170480029e-002
 1.0454111180e+000	 4.4539578573e+000	 4.1839988365e-002
 1.0027598461e+000	 4.4637537669e+000	 3.5008240746e-002
 9.6013516649e-001	 4.4731158561e+000	 3.3751460660e-002
 9.1754314634e-001	 4.4820463602e+000	 4.0791076318e-002
 8.7498977558e-001	 4.4905476161e+000	 5.8497001745e-002
 8.3248096479e-001	 4.4986220605e+000	 8.8891577406e-002
 1.2657277883e+000	 4.4224352077e+000	 6.4294892208e-002
 1.2228038538e+000	 4.4344955446e+000	 7.8467423076e-002
 1.1798750573e+000	 4.4461100807e+000	 9.5419595899e-002
 1.1369478578e+000	 4.4572805127e+000	 1.0131730857e-001
 1.0940286471e+000	 4.4680086526e+000	 1.0039353621e-001
 1.0511237471e+000	 4.4782964248e+000	 9.6517039763e-002
 1.0082394081e+000	 4.4881458639e+000	 9.3193478747e-002
 9.6538180674e-001	 4.4975591122e+000	 9.3567269167e-002
 9.2255704332e-001	 4.5065384168e+000	 1.0042416242e-001
 8.7977114048e-001	 4.5150861277e+000	 1.1619451993e-001
 8.3703004110e-001	 4.5232046947e+000	 1.4295725706e-001
 1.2726067437e+000	 4.4464701816e+000	 6.4489964746e-002
 1.2294495269e+000	 4.4585960639e+000	 8.1588691839e-002
 1.1862874218e+000	 4.4702737224e+000	 1.0914052357e-001
 1.1431269223e+000	 4.4815048633e+000	 1.2356502692e-001
 1.0999744549e+000	 4.4922913083e+000	 1.2917571886e-001
 1.0568363761e+000	 4.5026349923e+000	 1.2991798851e-001
 1.0137189701e+000	 4.5125379610e+000	 1.2937017353e-001
 9.7062844700e-001	 4.5220023682e+000	 1.3074539231e-001
 9.2757094029e-001	 4.5310304734e+000	 1.3689410780e-001
 8.8455250537e-001	 4.5396246393e+000	 1.5030739713e-001
 8.4157911741e-001	 4.5477873289e+000	 1.7312090049e-001
 1.2794856990e+000	 4.4705051556e+000	 4.9749255434e-002
 1.2360952000e+000	 4.4826965832e+000	 6.7740274295e-002
 1.1926997862e+000	 4.4944373641e+000	 1.0475290754e-001
 1.1493059867e+000	 4.5057292139e+000	 1.2666566671e-001
 1.1059202628e+000	 4.5165739640e+000	 1.3787350047e-001
 1.0625490052e+000	 4.5269735599e+000	 1.4239919071e-001
 1.0191985321e+000	 4.5369300581e+000	 1.4389439345e-001
 9.7587508725e-001	 4.5464456242e+000	 1.4564144664e-001
 9.3258483726e-001	 4.5555225300e+000	 1.5055591999e-001
 8.8933387026e-001	 4.5641631508e+000	 1.6118988130e-001
 8.4612819372e-001	 4.5723699631e+000	 1.7973585185e-001
 1.2863646544e+000	 4.4945401296e+000	 2.0225272045e-002
 1.2427408731e+000	 4.5067971024e+000	 3.7271722587e-002
 1.1991121506e+000	 4.5186010059e+000	 8.2606526275e-002
 1.1554850512e+000	 4.5299535645e+000	 1.1096905301e-001
 1.1118660707e+000	 4.5408566198e+000	 1.2683658105e-001
 1.0682616342e+000	 4.5513121274e+000	 1.3431005741e-001
 1.0246780942e+000	 4.5613221552e+000	 1.3711510422e-001
 9.8112172750e-001	 4.5708888803e+000	 1.3860380317e-001
 9.3759873424e-001	 4.5800145866e+000	 1.4175723291e-001
 8.9411523516e-001	 4.5887016624e+000	 1.4918873335e-001
 8.5067727003e-001	 4.5969525973e+000	 1.6314786937e-001
 1.2932436098e+000	 4.5185751035e+000	-2.3935252696e-002
 1.2493865463e+000	 4.5308976217e+000	-9.4734124074e-003
 1.2055245151e+000	 4.5427646476e+000	 4.3044945344e-002
 1.1616641156e+000	 4.5541779151e+000	 7.6818600967e-002
 1.1178118785e+000	 4.5651392755e+000	 9.6408068269e-002
 1.0739742633e+000	 4.5756506949e+000	 1.0599323940e-001
 1.0301576562e+000	 4.5857142523e+000	 1.0937435774e-001
 9.8636836776e-001	 4.5953321363e+000	 1.0997378009e-001
 9.4261263121e-001	 4.6045066432e+000	 1.1083850293e-001
 8.9889660005e-001	 4.6132401739e+000	 1.1464342623e-001
 8.5522634634e-001	 4.6215352316e+000	 1.2369532714e-001
 1.3001225651e+000	 4.5426100775e+000	-8.2591208335e-002
 1.2560322194e+000	 4.5549981410e+000	-6.7394552126e-002
 1.2119368795e+000	 4.5669282894e+000	-1.3594318186e-002
 1.1678431801e+000	 4.5784022658e+000	 2.4551485436e-002
 1.1237576864e+000	 4.5894219312e+000	 4.6924651813e-002
 1.0796868924e+000	 4.5999892625e+000	 5.7784805974e-002
 1.0356372182e+000	 4.6101063494e+000	 6.1007475038e-002
 9.9161500801e-001	 4.6197753924e+000	 6.0085829318e-002
 9.4762652819e-001	 4.6289986998e+000	 5.8133198740e-002
 9.0367796494e-001	 4.6377786855e+000	 5.7886337719e-002
 8.5977542265e-001	 4.6461178658e+000	 6.1709410424e-002
 1.3070015205e+000	 4.5666450514e+000	-1.5560695873e-001
 1.2626778925e+000	 4.5790986602e+000	-1.3970677505e-001
 1.2183492440e+000	 4.5910919311e+000	-8.6979636588e-002
 1.1740222445e+000	 4.6026266164e+000	-4.5501194843e-002
 1.1297034943e+000	 4.6137045869e+000	-2.1283227677e-002
 1.0853995214e+000	 4.6243278300e+000	-9.9855818133e-003
 1.0411167802e+000	 4.6344984465e+000	-7.6567765896e-003
 9.9686164827e-001	 4.6442186484e+000	-1.0732282780e-002
 9.5264042516e-001	 4.6534907565e+000	-1.6032014708e-002
 9.0845932984e-001	 4.6623171971e+000	-2.0757062816e-002
 8.6432449896e-001	 4.6707005000e+000	-2.2485695141e-002
 8.1883373586e-001	 4.4248741579e+000	-2.2036933417e-001
 7.7707135428e-001	 4.4323989115e+000	-6.7918203404e-002
 7.3536418877e-001	 4.4395089267e+000	 1.0640623124e-001
 6.9371780909e-001	 4.4462068779e+000	 3.0263830833e-001
 6.5213770062e-001	 4.4524955272e+000	 5.2051143027e-001
 6.1062926301e-001	 4.4583777210e+000	 6.7998444599e-001
 5.6919780892e-001	 4.4638563882e+000	 6.9602020685e-001
 5.2784856279e-001	 4.4689345369e+000	 7.1089422972e-001
 4.8658665973e-001	 4.4736152520e+000	 7.2325342666e-001
 4.4541714450e-001	 4.4779016925e+000	 7.3137820072e-001
 4.0434497057e-001	 4.4817970888e+000	 7.3319106585e-001
 8.2338281217e-001	 4.4494567921e+000	-9.2398454054e-002
 7.8138841736e-001	 4.4570233499e+000	 3.8722805275e-002
 7.3944954538e-001	 4.4641728651e+000	 1.8912280541e-001
 6.9757179692e-001	 4.4709080272e+000	 3.5897620413e-001
 6.5576068785e-001	 4.4772316134e+000	 5.4815216940e-001
 6.1402164781e-001	 4.4831464861e+000	 7.0084453641e-001
 5.7236001898e-001	 4.4886555903e+000	 7.0443128300e-001
 5.3078105481e-001	 4.4937619509e+000	 7.0591331680e-001
 4.8928991895e-001	 4.4984686700e+000	 7.0409611058e-001
 4.4789168419e-001	 4.5027789241e+000	 6.9741081885e-001
 4.0659133152e-001	 4.5066959615e+000	 6.8392289640e-001
 8.2793188848e-001	 4.4740394263e+000	 1.0562723067e-002
 7.8570548043e-001	 4.4816477883e+000	 1.2201937757e-001
 7.4353490198e-001	 4.4888368036e+000	 2.5026757676e-001
 7.0142578475e-001	 4.4956091766e+000	 3.9562129281e-001
 6.5938367507e-001	 4.5019676997e+000	 5.5808435488e-001
 6.1741403260e-001	 4.5079152512e+000	 7.0259793536e-001
 5.7552222903e-001	 4.5134547925e+000	 6.9505027452e-001
 5.3371354682e-001	 4.5185893650e+000	 6.8458205933e-001
 4.9199317817e-001	 4.5233220881e+000	 6.7015695274e-001
 4.5036622388e-001	 4.5276561557e+000	 6.5035635149e-001
 4.0883769246e-001	 4.5315948342e+000	 6.2338800612e-001
 8.3248096479e-001	 4.4986220605e+000	 8.8891577406e-002
 7.9002254351e-001	 4.5062722267e+000	 1.8231736591e-001
 7.4762025859e-001	 4.5135007421e+000	 2.9015464552e-001
 7.0527977258e-001	 4.5203103259e+000	 4.1285571667e-001
 6.6300666230e-001	 4.5267037859e+000	 5.5055798377e-001
 6.2080641740e-001	 4.5326840163e+000	 6.8571103984e-001
 5.7868443908e-001	 4.5382539946e+000	 6.6829268528e-001
 5.3664603884e-001	 4.5434167791e+000	 6.4726515564e-001
 4.9469643739e-001	 4.5481755061e+000	 6.2174996086e-001
 4.5284076358e-001	 4.5525333873e+000	 5.9047825708e-001
 4.1108405341e-001	 4.5564937069e+000	 5.5179947089e-001
 8.3703004110e-001	 4.5232046947e+000	 1.4295725706e-001
 7.9433960659e-001	 4.5308966650e+000	 2.1995496766e-001
 7.5170561519e-001	 4.5381646806e+000	 3.0909105049e-001
 7.0913376041e-001	 4.5450114752e+000	 4.1095516657e-001
 6.6662964952e-001	 4.5514398722e+000	 5.2581722747e-001
 6.2419880219e-001	 4.5574527815e+000	 6.5064506251e-001
 5.8184664912e-001	 4.5630531968e+000	 6.2456949109e-001
 5.3957853085e-001	 4.5682441932e+000	 5.9432344706e-001
 4.9739969661e-001	 4.5730289242e+000	 5.5918597093e-001
 4.5531530327e-001	 4.5774106189e+000	 5.1803752136e-001
 4.1333041436e-001	 4.5813925796e+000	 4.6936860644e-001
 8.4157911741e-001	 4.5477873289e+000	 1.7312090049e-001
 7.9865666967e-001	 4.5555211034e+000	 2.3526293197e-001
 7.5579097179e-001	 4.5628286191e+000	 3.0737695996e-001
 7.1298774823e-001	 4.5697126245e+000	 3.9018905629e-001
 6.7025263675e-001	 4.5761759585e+000	 4.8410058923e-001
 6.2759118699e-001	 4.5822215466e+000	 5.8919531470e-001
 5.8500885917e-001	 4.5878523989e+000	 5.6428726216e-001
 5.4251102287e-001	 4.5930716073e+000	 5.2611402214e-001
 5.0010295583e-001	 4.5978823423e+000	 4.8277273288e-001
 4.5778984296e-001	 4.6022878506e+000	 4.3329272423e-001
 4.1557677530e-001	 4.6062914523e+000	 3.7630501593e-001
 8.4612819372e-001	 4.5723699631e+000	 1.7973585185e-001
 8.0297373275e-001	 4.5801455418e+000	 2.2856476006e-001
 7.5987632840e-001	 4.5874925575e+000	 2.8530585633e-001
 7.1684173606e-001	 4.5944137738e+000	 3.5082069126e-001
 6.7387562397e-001	 4.6009120447e+000	 4.2564105644e-001
 6.3098357178e-001	 4.6069903117e+000	 5.0997606235e-001
 5.8817106922e-001	 4.6126516011e+000	 4.8784828148e-001
 5.4544351488e-001	 4.6178990214e+000	 4.4299031757e-001
 5.0280621505e-001	 4.6227357603e+000	 3.9281499357e-001
 4.6026438265e-001	 4.6271650822e+000	 3.3650010444e-001
 4.1782313625e-001	 4.6311903250e+000	 2.7281663597e-001
 8.5067727003e-001	 4.5969525973e+000	 1.6314786937e-001
 8.0729079583e-001	 4.6047699802e+000	 2.0017689894e-001
 7.6396168500e-001	 4.6121564960e+000	 2.4316471494e-001
 7.2069572389e-001	 4.6191149232e+000	 2.9310743190e-001
 6.7749861120e-001	 4.6256481310e+000	 3.5066624821e-001
 6.3437595657e-001	 4.6317590768e+000	 4.1617451346e-001
 5.9133327927e-001	 4.6374508033e+000	 3.9565065949e-001
 5.4837600689e-001	 4.6427264355e+000	 3.4530221576e-001
 5.0550947427e-001	 4.6475891784e+000	 2.8961457705e-001
 4.6273892234e-001	 4.6520423138e+000	 2.2791362213e-001
 4.2006949719e-001	 4.6560891977e+000	 1.5910978120e-001
 8.5522634634e-001	 4.6215352316e+000	 1.2369532714e-001
 8.1160785890e-001	 4.6293944186e+000	 1.5040892908e-001
 7.6804704160e-001	 4.6368204345e+000	 1.8123417710e-001
 7.2454971171e-001	 4.6438160725e+000	 2.1730085171e-001
 6.8112159842e-001	 4.6503842172e+000	 2.5939855805e-001
 6.3776834136e-001	 4.6565278419e+000	 3.0798378541e-001
 5.9449548931e-001	 4.6622500054e+000	 2.8808844498e-001
 5.5130849891e-001	 4.6675538496e+000	 2.3339613941e-001
 5.0821273349e-001	 4.6724425965e+000	 1.7347046235e-001
 4.6521346202e-001	 4.6769195454e+000	 1.0778501952e-001
 4.2231585814e-001	 4.6809880705e+000	 3.5389187429e-002
 8.5977542265e-001	 4.6461178658e+000	 6.1709410424e-002
 8.1592492198e-001	 4.6540188570e+000	 7.9563746039e-002
 7.7213239820e-001	 4.6614843730e+000	 9.9788717644e-002
 7.2840369954e-001	 4.6685172218e+000	 1.2364689039e-001
 6.8474458564e-001	 4.6751203035e+000	 1.5205529217e-001
 6.4116072615e-001	 4.6812966070e+000	 1.8559246824e-001
 5.9765769936e-001	 4.6870492076e+000	 1.6555173265e-001
 5.5424099092e-001	 4.6923812637e+000	 1.0761514304e-001
 5.1091599270e-001	 4.6972960145e+000	 4.4678858698e-002
 4.6768800171e-001	 4.7017967771e+000	-2.3636120516e-002
 4.2456221908e-001	 4.7058869432e+000	-9.8141946632e-002
 8.6432449896e-001	 4.6707005000e+000	-2.2485695141e-002
 8.2024198506e-001	 4.6786432954e+000	-1.2062263614e-002
 7.7621775480e-001	 4.6861483115e+000	-9.0319276315e-004
 7.3225768736e-001	 4.6932183711e+000	 1.2386002068e-002
 6.8836757286e-001	 4.6998563898e+000	 2.8848803359e-002
 6.4455311094e-001	 4.7060653722e+000	 4.9184743836e-002
 6.0081990940e-001	 4.7118484097e+000	 2.8426767059e-002
 5.5717348293e-001	 4.7172086778e+000	-3.1700998397e-002
 5.1361925192e-001	 4.7221494326e+000	-9.6466721584e-002
 4.7016254140e-001	 4.7266740087e+000	-1.6610231753e-001
 4.2680858003e-001	 4.7307858159e+000	-2.4128191888e-001
 4.0434497057e-001	 4.4817970888e+000	 7.3319106585e-001
 3.6337499923e-001	 4.4853047399e+000	 8.2930933363e-001
 3.2251199884e-001	 4.4884280111e+000	 9.4806339545e-001
 2.8176064413e-001	 4.4911703307e+000	 1.0854348197e+000
 2.4112551553e-001	 4.4935351880e+000	 1.2370785717e+000
 2.0061109869e-001	 4.4955261302e+000	 1.3983352634e+000
 1.6022178400e-001	 4.4971467599e+000	 1.5642437871e+000
 1.1996186617e-001	 4.4984007326e+000	 1.7295542948e+000
 7.9835543943e-002	 4.4992917538e+000	 1.8887414839e+000
 3.9846919840e-002	 4.4998235769e+000	 2.0360181509e+000
 0.0000000000e+000	 4.5000000000e+000	 2.1653489766e+000
 4.0659133152e-001	 4.5066959615e+000	 6.8392289640e-001
 3.6539374923e-001	 4.5102230996e+000	 7.5237502952e-001
 3.2430373217e-001	 4.5133637222e+000	 8.4222466119e-001
 2.8332598104e-001	 4.5161212770e+000	 9.4964019709e-001
 2.4246510172e-001	 4.5184992724e+000	 1.0704551781e+000
 2.0172560480e-001	 4.5205012753e+000	 1.2001805527e+000
 1.6111190503e-001	 4.5221309085e+000	 1.3340173481e+000
 1.2062832098e-001	 4.5233918477e+000	 1.4668697005e+000
 8.0279074742e-002	 4.5242878191e+000	 1.5933582048e+000
 4.0068291616e-002	 4.5248225967e+000	 1.7078335455e+000
 0.0000000000e+000	 4.5250000000e+000	 1.8043903700e+000
 4.0883769246e-001	 4.5315948342e+000	 6.2338800612e-001
 3.6741249922e-001	 4.5351414592e+000	 6.6740238759e-001
 3.2609546550e-001	 4.5382994334e+000	 7.3170733236e-001
 2.8489131795e-001	 4.5410722233e+000	 8.1265647279e-001
 2.4380468792e-001	 4.5434633567e+000	 9.0626019666e-001
 2.0284011090e-001	 4.5454764205e+000	 1.0081979462e+000
 1.6200202605e-001	 4.5471150572e+000	 1.1138309306e+000
 1.2129477580e-001	 4.5483829629e+000	 1.2182152109e+000
 8.0722605541e-002	 4.5492838844e+000	 1.3161151185e+000
 4.0289663393e-002	 4.5498216166e+000	 1.4020169664e+000
 0.0000000000e+000	 4.5500000000e+000	 1.4701430155e+000
 4.1108405341e-001	 4.5564937069e+000	 5.5179947089e-001
 3.6943124922e-001	 4.5600598189e+000	 5.7453325672e-001
 3.2788719882e-001	 4.5632351446e+000	 6.1658212403e-001
 2.8645665486e-001	 4.5660231695e+000	 6.7448335355e-001
 2.4514427412e-001	 4.5684274411e+000	 7.4442248269e-001
 2.0395461700e-001	 4.5704515657e+000	 8.2224563508e-001
 1.6289214707e-001	 4.5720992059e+000	 9.0347227801e-001
 1.2196123061e-001	 4.5733740781e+000	 9.8330836674e-001
 8.1166136340e-002	 4.5742799497e+000	 1.0566598351e+000
 4.0511035169e-002	 4.5748206365e+000	 1.1181463919e+000
 0.0000000000e+000	 4.5750000000e+000	 1.1621155844e+000
 4.1333041436e-001	 4.5813925796e+000	 4.6936860644e-001
 3.7144999921e-001	 4.5849781786e+000	 4.7390890848e-001
 3.2967893215e-001	 4.5881708558e+000	 4.9692037208e-001
 2.8802199177e-001	 4.5909741158e+000	 5.3512237973e-001
 2.4648386031e-001	 4.5933915255e+000	 5.8487395184e-001
 2.0506912311e-001	 4.5954267108e+000	 6.4218611070e-001
 1.6378226809e-001	 4.5970833545e+000	 7.0273468695e-001
 1.2262768542e-001	 4.5983651933e+000	 7.6187352697e-001
 8.1609667139e-002	 4.5992760150e+000	 8.1464805992e-001
 4.0732406946e-002	 4.5998196564e+000	 8.5580918362e-001
 0.0000000000e+000	 4.6000000000e+000	 8.7982742880e-001
 4.1557677530e-001	 4.6062914523e+000	 3.7630501593e-001
 3.7346874920e-001	 4.6098965382e+000	 3.6567005274e-001
 3.3147066547e-001	 4.6131065669e+000	 3.7279401641e-001
 2.8958732868e-001	 4.6159250621e+000	 3.9457687561e-001
 2.4782344651e-001	 4.6183556099e+000	 4.2754949730e-001
 2.0618362921e-001	 4.6204018560e+000	 4.6788604885e-001
 1.6467238911e-001	 4.6220675032e+000	 5.1141685753e-001
 1.2329414023e-001	 4.6233563085e+000	 5.5364168499e-001
 8.2053197938e-002	 4.6242720803e+000	 5.8974337495e-001
 4.0953778723e-002	 4.6248186762e+000	 6.1460183239e-001
 0.0000000000e+000	 4.6250000000e+000	 6.2280829340e-001
 4.1782313625e-001	 4.6311903250e+000	 2.7281663597e-001
 3.7548749920e-001	 4.6348148979e+000	 2.4995685277e-001
 3.3326239880e-001	 4.6380422781e+000	 2.4427558470e-001
 2.9115266559e-001	 4.6408760084e+000	 2.5285190154e-001
 2.4916303270e-001	 4.6433196943e+000	 2.7238690983e-001
 2.0729813531e-001	 4.6453770012e+000	 2.9921619703e-001
 1.6556251013e-001	 4.6470516519e+000	 3.2932274790e-001
 1.2396059504e-001	 4.6483474236e+000	 3.5835029014e-001
 8.2496728738e-002	 4.6492681456e+000	 3.8161702680e-001
 4.1175150499e-002	 4.6498176961e+000	 3.9412971306e-001
 0.0000000000e+000	 4.6500000000e+000	 3.9059803583e-001
 4.2006949719e-001	 4.6560891977e+000	 1.5910978120e-001
 3.7750624919e-001	 4.6597332576e+000	 1.2690893987e-001
 3.3505413212e-001	 4.6629779893e+000	 1.1143817671e-001
 2.9271800250e-001	 4.6658269547e+000	 1.0995420747e-001
 2.5050261890e-001	 4.6682837786e+000	 1.1932680026e-001
 2.0841264141e-001	 4.6703521463e+000	 1.3605126562e-001
 1.6645263115e-001	 4.6720358005e+000	 1.5626143368e-001
 1.2462704985e-001	 4.6733385388e+000	 1.7574307504e-001
 8.2940259537e-002	 4.6742642109e+000	 1.8994772197e-001
 4.1396522276e-002	 4.6748167160e+000	 1.9400684696e-001
 0.0000000000e+000	 4.6750000000e+000	 1.8274635632e-001
 4.2231585814e-001	 4.6809880705e+000	 3.5389187429e-002
 3.7952499918e-001	 4.6846516172e+000	-3.3345725267e-003
 3.3684586545e-001	 4.6879137004e+000	-2.5644550964e-002
 2.9428333941e-001	 4.6907779010e+000	-3.4107811998e-002
 2.5184220510e-001	 4.6932478630e+000	-3.1687475510e-002
 2.0952714752e-001	 4.6953272915e+000	-2.1730177501e-002
 1.6734275217e-001	 4.6970199492e+000	-7.9530280904e-003
 1.2529350466e-001	 4.6983296540e+000	 5.5698885600e-003
 8.3383790336e-002	 4.6992602762e+000	 1.4421428361e-002
 4.1617894052e-002	 4.6998157358e+000	 1.3855671839e-002
 0.0000000000e+000	 4.7000000000e+000	-1.1874640175e-003
 4.2456221908e-001	 4.7058869432e+000	-9.8141946632e-002
 3.8154374918e-001	 4.7095699769e+000	-1.4063507510e-001
 3.3863759877e-001	 4.7128494116e+000	-1.6689839961e-001
 2.9584867632e-001	 4.7157288472e+000	-1.7932416108e-001
 2.5318179129e-001	 4.7182119474e+000	-1.8070988914e-001
 2.1064165362e-001	 4.7203024367e+000	-1.7424580902e-001
 1.6823287319e-001	 4.7220040979e+000	-1.6350173078e-001
 1.2595995947e-001	 4.7233207692e+000	-1.5241346604e-001
 8.3827321135e-002	 4.7242563415e+000	-1.4526881678e-001
 4.1839265829e-002	 4.7248147557e+000	-1.4669318068e-001
 0.0000000000e+000	 4.7250000000e+000	-1.6163481671e-001
 4.2680858003e-001	 4.7307858159e+000	-2.4128191888e-001
 3.8356249917e-001	 4.7344883366e+000	-2.8485444942e-001
 3.4042933210e-001	 4.7377851228e+000	-3.1224864264e-001
 2.9741401323e-001	 4.7406797935e+000	-3.2568328496e-001
 2.5452137749e-001	 4.7431760318e+000	-3.2779181018e-001
 2.1175615972e-001	 4.7452775818e+000	-3.2160964901e-001
 1.6912299422e-001	 4.7469882465e+000	-3.1056104578e-001
 1.2662641428e-001	 4.7483118844e+000	-2.9844538777e-001
 8.4270851934e-002	 4.7492524068e+000	-2.8942309293e-001
 4.2060637605e-002	 4.7498137756e+000	-2.8800110080e-001
 0.0000000000e+000	 4.7500000000e+000	-2.9901801134e-001
 4.7500000000e+000	 0.0000000000e+000	 5.9557590586e-001
 4.7498137756e+000	 4.2060637605e-002	 6.0164552790e-001
 4.7492524068e+000	 8.4270851934e-002	 6.1022254584e-001
 4.7483118844e+000	 1.2662641428e-001	 6.1982928951e-001
 4.7469882465e+000	 1.6912299422e-001	 6.2909402146e-001
 4.7452775818e+000	 2.1175615972e-001	 6.3675622562e-001
 4.7431760318e+000	 2.5452137749e-001	 6.4167181448e-001
 4.7406797935e+000	 2.9741401323e-001	 6.4281824045e-001
 4.7377851228e+000	 3.4042933210e-001	 6.3929949643e-001
 4.7344883366e+000	 3.8356249917e-001	 6.3035099053e-001
 4.7307858159e+000	 4.2680858003e-001	 6.1534427958e-001
 4.7750000000e+000	 0.0000000000e+000	 5.7813933427e-001
 4.7748127955e+000	 4.2282009382e-002	 5.7967537082e-001
 4.7742484721e+000	 8.4714382733e-002	 5.8427606295e-001
 4.7733029995e+000	 1.2729286910e-001	 5.9046507771e-001
 4.7719723952e+000	 1.7001311524e-001	 5.9687340831e-001
 4.7702527270e+000	 2.1287066582e-001	 6.0224471259e-001
 4.7681401161e+000	 2.5586096368e-001	 6.0544056825e-001
 4.7656307398e+000	 2.9897935014e-001	 6.0544563024e-001
 4.7627208340e+000	 3.4222106542e-001	 6.0137267513e-001
 4.7594066962e+000	 3.8558124916e-001	 5.9246751723e-001
 4.7556846886e+000	 4.2905494097e-001	 5.7811378095e-001
 4.8000000000e+000	 0.0000000000e+000	 5.6117682625e-001
 4.7998118153e+000	 4.2503381158e-002	 5.5873367763e-001
 4.7992445374e+000	 8.5157913532e-002	 5.5986436132e-001
 4.7982941147e+000	 1.2795932391e-001	 5.6309320391e-001
 4.7969565439e+000	 1.7090323626e-001	 5.6705328926e-001
 4.7952278722e+000	 2.1398517192e-001	 5.7049184834e-001
 4.7931042005e+000	 2.5720054988e-001	 5.7227556409e-001
 4.7905816861e+000	 3.0054468705e-001	 5.7139577638e-001
 4.7876565451e+000	 3.4401279874e-001	 5.6697357168e-001
 4.7843250559e+000	 3.8759999915e-001	 5.5826474210e-001
 4.7805835613e+000	 4.3130130191e-001	 5.4466459800e-001
 4.8250000000e+000	 0.0000000000e+000	 5.4467314147e-001
 4.8248108352e+000	 4.2724752935e-002	 5.3880188457e-001
 4.8242406027e+000	 8.5601444331e-002	 5.3696560705e-001
 4.8232852299e+000	 1.2862577872e-001	 5.3768861937e-001
 4.8219406925e+000	 1.7179335728e-001	 5.3960545810e-001
 4.8202030174e+000	 2.1509967803e-001	 5.4146632884e-001
 4.8180682849e+000	 2.5854013607e-001	 5.4214246219e-001
 4.8155326324e+000	 3.0211002396e-001	 5.4063136781e-001
 4.8125922563e+000	 3.4580453207e-001	 5.3606197098e-001
 4.8092434156e+000	 3.8961874915e-001	 5.2769961595e-001
 4.8054824340e+000	 4.3354766286e-001	 5.1495092029e-001
 4.8500000000e+000	 0.0000000000e+000	 5.2861335381e-001
 4.8498098551e+000	 4.2946124712e-002	 5.1986180642e-001
 4.8492366680e+000	 8.6044975130e-002	 5.1555840295e-001
 4.8482763451e+000	 1.2929223353e-001	 5.1422676397e-001
 4.8469248412e+000	 1.7268347830e-001	 5.1450224292e-001
 4.8451781625e+000	 2.1621418413e-001	 5.1513742366e-001
 4.8430323693e+000	 2.5987972227e-001	 5.1500752917e-001
 4.8404835786e+000	 3.0367536087e-001	 5.1311572623e-001
 4.8375279675e+000	 3.4759626540e-001	 5.0859831034e-001
 4.8341617752e+000	 3.9163749914e-001	 5.0072975495e-001
 4.8303813068e+000	 4.3579402381e-001	 4.8892760895e-001
 4.8750000000e+000	 0.0000000000e+000	 5.1298284334e-001
 4.8748088749e+000	 4.3167496488e-002	 5.0189562674e-001
 4.8742327333e+000	 8.6488505929e-002	 4.9562177729e-001
 4.8732674603e+000	 1.2995868834e-001	 4.9268355369e-001
 4.8719089899e+000	 1.7357359932e-001	 4.9171649240e-001
 4.8701533077e+000	 2.1732869023e-001	 4.9147496125e-001
 4.8679964537e+000	 2.6121930847e-001	 4.9083762253e-001
 4.8654345249e+000	 3.0524069778e-001	 4.8881278980e-001
 4.8624636787e+000	 3.4938799872e-001	 4.8454366272e-001
 4.8590801349e+000	 3.9365624914e-001	 4.7731342360e-001
 4.8552801795e+000	 4.3804038475e-001	 4.6655017952e-001
 4.9000000000e+000	 0.0000000000e+000	 4.9776728849e-001
 4.8998078948e+000	 4.3388868265e-002	 4.8488588851e-001
 4.8992287986e+000	 8.6932036728e-002	 4.7713517296e-001
 4.8982585754e+000	 1.3062514315e-001	 4.7303536851e-001
 4.8968931385e+000	 1.7446372034e-001	 4.7122156256e-001
 4.8951284529e+000	 2.1844319634e-001	 4.7044931470e-001
 4.8929605380e+000	 2.6255889466e-001	 4.6960017557e-001
 4.8903854712e+000	 3.0680603469e-001	 4.6768709748e-001
 4.8873993898e+000	 3.5117973205e-001	 4.6385972054e-001
 4.8839984946e+000	 3.9567499914e-001	 4.5740951817e-001
 4.8801790522e+000	 4.4028674570e-001	 4.4777478519e-001
 4.9250000000e+000	 0.0000000000e+000	 4.8295265849e-001
 4.9248069147e+000	 4.3610240041e-002	 4.6881548499e-001
 4.9242248639e+000	 8.7375567527e-002	 4.6007843697e-001
 4.9232496906e+000	 1.3129159796e-001	 4.5525904054e-001
 4.9218772872e+000	 1.7535384136e-001	 4.5299130386e-001
 4.9201035980e+000	 2.1955770244e-001	 4.5203138789e-001
 4.9179246224e+000	 2.6389848086e-001	 4.5126318279e-001
 4.9153364175e+000	 3.0837137160e-001	 4.4970377371e-001
 4.9123351010e+000	 3.5297146538e-001	 4.4650877995e-001
 4.9089168542e+000	 3.9769374913e-001	 4.4097755068e-001
 4.9050779249e+000	 4.4253310665e-001	 4.3255820068e-001
 4.9500000000e+000	 0.0000000000e+000	 4.6852520601e-001
 4.9498059346e+000	 4.3831611818e-002	 4.5366765085e-001
 4.9492209292e+000	 8.7819098327e-002	 4.4443181021e-001
 4.9482408058e+000	 1.3195805278e-001	 4.3933184271e-001
 4.9468614359e+000	 1.7624396239e-001	 4.3700004871e-001
 4.9450787432e+000	 2.2067220854e-001	 4.3619260212e-001
 4.9428887068e+000	 2.6523806706e-001	 4.3579518569e-001
 4.9402873638e+000	 3.0993670852e-001	 4.3482851370e-001
 4.9372708122e+000	 3.5476319871e-001	 4.3245372557e-001
 4.9338352139e+000	 3.9971249913e-001	 4.2797763335e-001
 4.9299767976e+000	 4.4477946760e-001	 4.2085780649e-001
 4.9750000000e+000	 0.0000000000e+000	 4.5447146007e-001
 4.9748049544e+000	 4.4052983595e-002	 4.3942595365e-001
 4.9742169945e+000	 8.8262629126e-002	 4.3017591760e-001
 4.9732319210e+000	 1.3262450759e-001	 4.2523147760e-001
 4.9718455845e+000	 1.7713408341e-001	 4.2322259939e-001
 4.9700538884e+000	 2.2178671465e-001	 4.2290488308e-001
 4.9678527912e+000	 2.6657765326e-001	 4.2316525905e-001
 4.9652383101e+000	 3.1150204543e-001	 4.2302756905e-001
 4.9622065233e+000	 3.5655493203e-001	 4.2165801572e-001
 4.9587535736e+000	 4.0173124913e-001	 4.1837046349e-001
 4.9548756703e+000	 4.4702582855e-001	 4.1263157368e-001
 5.0000000000e+000	 0.0000000000e+000	 4.4077821908e-001
 4.9998039743e+000	 4.4274355371e-002	 4.2607428545e-001
 4.9992130598e+000	 8.8706159925e-002	 4.1729175842e-001
 4.9982230362e+000	 1.3329096240e-001	 4.1293606676e-001
 4.9968297332e+000	 1.7802420443e-001	 4.1163421627e-001
 4.9950290335e+000	 2.2290122075e-001	 4.1214064825e-001
 4.9928168755e+000	 2.6791723945e-001	 4.1334299760e-001
 4.9901892563e+000	 3.1306738234e-001	 4.1426773383e-001
 4.9871422345e+000	 3.5834666536e-001	 4.1408566810e-001
 4.9836719332e+000	 4.0374999913e-001	 4.1211730891e-001
 4.9797745430e+000	 4.4927218951e-001	 4.0783804918e-001
 4.7307858159e+000	 4.2680858003e-001	 6.1534427958e-001
 4.7266740087e+000	 4.7016254140e-001	 5.9702441258e-001
 4.7221494326e+000	 5.1361925192e-001	 5.7888067839e-001
 4.7172086778e+000	 5.5717348293e-001	 5.6079887976e-001
 4.7118484097e+000	 6.0081990940e-001	 5.4281367880e-001
 4.7060653722e+000	 6.4455311094e-001	 5.2915172267e-001
 4.6998563898e+000	 6.8836757286e-001	 5.2015482041e-001
 4.6932183711e+000	 7.3225768736e-001	 5.1080588723e-001
 4.6861483115e+000	 7.7621775480e-001	 5.0156042091e-001
 4.6786432954e+000	 8.2024198506e-001	 4.9301159602e-001
 4.6707005000e+000	 8.6432449896e-001	 4.8589256006e-001
 4.7556846886e+000	 4.2905494097e-001	 5.7811378095e-001
 4.7515512403e+000	 4.7263708109e-001	 5.6103756349e-001
 4.7470028507e+000	 5.1632251113e-001	 5.4409996245e-001
 4.7420360919e+000	 5.6010597494e-001	 5.2719491935e-001
 4.7366476119e+000	 6.0398211945e-001	 5.1036741550e-001
 4.7308341373e+000	 6.4794549573e-001	 4.9813891640e-001
 4.7245924760e+000	 6.9199056008e-001	 4.8967610952e-001
 4.7179195205e+000	 7.3611167519e-001	 4.8111387068e-001
 4.7108122499e+000	 7.8030311141e-001	 4.7292079783e-001
 4.7032677338e+000	 8.2455904814e-001	 4.6570488737e-001
 4.6952831342e+000	 8.6887357527e-001	 4.6021584841e-001
 4.7805835613e+000	 4.3130130191e-001	 5.4466459800e-001
 4.7764284720e+000	 4.7511162077e-001	 5.2881965017e-001
 4.7718562687e+000	 5.1902577035e-001	 5.1302965952e-001
 4.7668635060e+000	 5.6303846695e-001	 4.9719656193e-001
 4.7614468140e+000	 6.0714432950e-001	 4.8137556308e-001
 4.7556029024e+000	 6.5133788053e-001	 4.7030775031e-001
 4.7493285623e+000	 6.9561354731e-001	 4.6223055388e-001
 4.7426206698e+000	 7.3996566301e-001	 4.5426518535e-001
 4.7354761884e+000	 7.8438846801e-001	 4.4689334328e-001
 4.7278921722e+000	 8.2887611122e-001	 4.4073789217e-001
 4.7198657684e+000	 8.7342265158e-001	 4.3656519576e-001
 4.8054824340e+000	 4.3354766286e-001	 5.1495092029e-001
 4.8013057036e+000	 4.7758616046e-001	 5.0032311415e-001
 4.7967096868e+000	 5.2172902957e-001	 4.8562043590e-001
 4.7916909201e+000	 5.6597095897e-001	 4.7075267329e-001
 4.7862460162e+000	 6.1030653954e-001	 4.5578516370e-001
 4.7803716675e+000	 6.5473026532e-001	 4.4562220580e-001
 4.7740646486e+000	 6.9923653453e-001	 4.3778187428e-001
 4.7673218191e+000	 7.4381965084e-001	 4.3022331567e-001
 4.7601401269e+000	 7.8847382461e-001	 4.2344133148e-001
 4.7525166106e+000	 8.3319317430e-001	 4.1807370272e-001
 4.7444484026e+000	 8.7797172789e-001	 4.1490354284e-001
 4.8303813068e+000	 4.3579402381e-001	 4.8892760895e-001
 4.8261829352e+000	 4.8006070016e-001	 4.7550104860e-001
 4.8215631049e+000	 5.2443228879e-001	 4.6182358487e-001
 4.8165183342e+000	 5.6890345098e-001	 4.4781271684e-001
 4.8110452184e+000	 6.1346874959e-001	 4.3354382291e-001
 4.8051404326e+000	 6.5812265011e-001	 4.2404678866e-001
 4.7988007348e+000	 7.0285952176e-001	 4.1629427205e-001
 4.7920229684e+000	 7.4767363867e-001	 4.0895217786e-001
 4.7848040654e+000	 7.9255918122e-001	 4.0252841486e-001
 4.7771410490e+000	 8.3751023738e-001	 3.9767573091e-001
 4.7690310368e+000	 8.8252080420e-001	 3.9519408649e-001
 4.8552801795e+000	 4.3804038475e-001	 4.6655017952e-001
 4.8510601668e+000	 4.8253523985e-001	 4.5430718164e-001
 4.8464165229e+000	 5.2713554801e-001	 4.4159101065e-001
 4.8413457483e+000	 5.7183594300e-001	 4.2832673821e-001
 4.8358444205e+000	 6.1663095964e-001	 4.1459969519e-001
 4.8299091977e+000	 6.6151503491e-001	 4.0554651561e-001
 4.8235368211e+000	 7.0648250899e-001	 3.9773241670e-001
 4.8167241177e+000	 7.5152762650e-001	 3.9041610890e-001
 4.8094680039e+000	 7.9664453783e-001	 3.8411861432e-001
 4.8017654874e+000	 8.4182730046e-001	 3.7950770009e-001
 4.7936136710e+000	 8.8706988052e-001	 3.7740027312e-001
 4.8801790522e+000	 4.4028674570e-001	 4.4777478519e-001
 4.8759373984e+000	 4.8500977954e-001	 4.3669586014e-001
 4.8712699410e+000	 5.2983880724e-001	 4.2487521277e-001
 4.8661731623e+000	 5.7476843502e-001	 4.1224535045e-001
 4.8606436227e+000	 6.1979316970e-001	 3.9890146998e-001
 4.8546779629e+000	 6.6490741971e-001	 3.9008690126e-001
 4.8482729073e+000	 7.1010549622e-001	 3.8206143403e-001
 4.8414252671e+000	 7.5538161434e-001	 3.7457985573e-001
 4.8341319423e+000	 8.0072989444e-001	 3.6817630983e-001
 4.8263899258e+000	 8.4614436354e-001	 3.6353363706e-001
 4.8181963052e+000	 8.9161895683e-001	 3.6148579236e-001
 4.9050779249e+000	 4.4253310665e-001	 4.3255820068e-001
 4.9008146301e+000	 4.8748431924e-001	 4.2262203399e-001
 4.8961233591e+000	 5.3254206646e-001	 4.1162927097e-001
 4.8910005764e+000	 5.7770092704e-001	 3.9951971962e-001
 4.8854428248e+000	 6.2295537975e-001	 3.8639835806e-001
 4.8794467280e+000	 6.6829980451e-001	 3.7763394552e-001
 4.8730089936e+000	 7.1372848345e-001	 3.6924689451e-001
 4.8661264164e+000	 7.5923560217e-001	 3.6140856490e-001
 4.8587958808e+000	 8.0481525105e-001	 3.5466623132e-001
 4.8510143642e+000	 8.5046142663e-001	 3.4971786444e-001
 4.8427789394e+000	 8.9616803315e-001	 3.4741457084e-001
 4.9299767976e+000	 4.4477946760e-001	 4.2085780649e-001
 4.9256918617e+000	 4.8995885893e-001	 4.1204124090e-001
 4.9209767771e+000	 5.3524532569e-001	 4.0180683058e-001
 4.9158279905e+000	 5.8063341906e-001	 3.9010155080e-001
 4.9102420270e+000	 6.2611758981e-001	 3.7715532856e-001
 4.9042154931e+000	 6.7169218931e-001	 3.6815412126e-001
 4.8977450799e+000	 7.1735147068e-001	 3.5925480205e-001
 4.8908275657e+000	 7.6308959000e-001	 3.5086777246e-001
 4.8834598193e+000	 8.0890060766e-001	 3.4355344985e-001
 4.8756388026e+000	 8.5477848971e-001	 3.3802499313e-001
 4.8673615736e+000	 9.0071710947e-001	 3.3515076627e-001
 4.9548756703e+000	 4.4702582855e-001	 4.1263157368e-001
 4.9505690933e+000	 4.9243339863e-001	 4.0490959162e-001
 4.9458301952e+000	 5.3794858491e-001	 3.9536208826e-001
 4.9406554046e+000	 5.8356591108e-001	 3.8394307460e-001
 4.9350412291e+000	 6.2927979986e-001	 3.7119023836e-001
 4.9289842582e+000	 6.7508457411e-001	 3.6161436251e-001
 4.9224811661e+000	 7.2097445791e-001	 3.5205158315e-001
 4.9155287150e+000	 7.6694357784e-001	 3.4292339415e-001
 4.9081237578e+000	 8.1298596427e-001	 3.3480336904e-001
 4.9002632410e+000	 8.5909555280e-001	 3.2841991512e-001
 4.8919442078e+000	 9.0526618578e-001	 3.2465876155e-001
 4.9797745430e+000	 4.4927218951e-001	 4.0783804918e-001
 4.9754463249e+000	 4.9490793833e-001	 4.0118375562e-001
 4.9706836133e+000	 5.4065184414e-001	 3.9224977827e-001
 4.9654828187e+000	 5.8649840310e-001	 3.8099703396e-001
 4.9598404313e+000	 6.3244200992e-001	 3.6824309050e-001
 4.9537530233e+000	 6.7847695892e-001	 3.5798205290e-001
 4.9472172524e+000	 7.2459744515e-001	 3.4760407627e-001
 4.9402298643e+000	 7.7079756568e-001	 3.3754171595e-001
 4.9327876962e+000	 8.1707132088e-001	 3.2838171674e-001
 4.9248876794e+000	 8.6341261589e-001	 3.2086779644e-001
 4.9165268420e+000	 9.0981526210e-001	 3.1590315922e-001
 4.6707005000e+000	 8.6432449896e-001	 4.8589256006e-001
 4.6623171971e+000	 9.0845932984e-001	 4.6600310457e-001
 4.6534907565e+000	 9.5264042516e-001	 4.4186649194e-001
 4.6442186484e+000	 9.9686164827e-001	 4.1464310984e-001
 4.6344984465e+000	 1.0411167802e+000	 3.8564636675e-001
 4.6243278300e+000	 1.0853995214e+000	 3.5634376597e-001
 4.6137045869e+000	 1.1297034943e+000	 3.2835767249e-001
 4.6026266164e+000	 1.1740222445e+000	 3.0346576222e-001
 4.5910919311e+000	 1.2183492440e+000	 2.8360114411e-001
 4.5790986602e+000	 1.2626778925e+000	 2.6670323681e-001
 4.5666450514e+000	 1.3070015205e+000	 2.3107134189e-001
 4.6952831342e+000	 8.6887357527e-001	 4.6021584841e-001
 4.6868557086e+000	 9.1324069473e-001	 4.4324478459e-001
 4.6779828131e+000	 9.5765432214e-001	 4.2225721538e-001
 4.6686619045e+000	 1.0021082885e+000	 3.9843599778e-001
 4.6588905436e+000	 1.0465963422e+000	 3.7311891064e-001
 4.6486663975e+000	 1.0911121505e+000	 3.4779972882e-001
 4.6379872426e+000	 1.1356493021e+000	 3.2412898557e-001
 4.6268509670e+000	 1.1802013090e+000	 3.0391441274e-001
 4.6152555729e+000	 1.2247616084e+000	 2.8912104902e-001
 4.6031991795e+000	 1.2693235656e+000	 2.7511184047e-001
 4.5906800254e+000	 1.3138804759e+000	 2.4310159599e-001
 4.7198657684e+000	 8.7342265158e-001	 4.3656519576e-001
 4.7113942202e+000	 9.1802205963e-001	 4.2218241157e-001
 4.7024748697e+000	 9.6266821912e-001	 4.0397410225e-001
 4.6931051605e+000	 1.0073549288e+000	 3.8314583080e-001
 4.6832826406e+000	 1.0520759042e+000	 3.6106003162e-001
 4.6730049650e+000	 1.0968247796e+000	 3.3923708525e-001
 4.6622698984e+000	 1.1415951100e+000	 3.1935607673e-001
 4.6510753176e+000	 1.1863803734e+000	 3.0325522703e-001
 4.6394192146e+000	 1.2311739729e+000	 2.9293198767e-001
 4.6272996988e+000	 1.2759692387e+000	 2.8099162152e-001
 4.6147149993e+000	 1.3207594313e+000	 2.5232208174e-001
 4.7444484026e+000	 8.7797172789e-001	 4.1490354284e-001
 4.7359327318e+000	 9.2280342452e-001	 4.0277842495e-001
 4.7269669263e+000	 9.6768211609e-001	 3.8697910724e-001
 4.7175484166e+000	 1.0126015690e+000	 3.6873409789e-001
 4.7076747377e+000	 1.0575554662e+000	 3.4943077476e-001
 4.6973435326e+000	 1.1025374086e+000	 3.3061646107e-001
 4.6865525541e+000	 1.1475409179e+000	 3.1399918013e-001
 4.6752996682e+000	 1.1925594379e+000	 3.0144807832e-001
 4.6635828564e+000	 1.2375863373e+000	 2.9499350641e-001
 4.6514002180e+000	 1.2826149119e+000	 2.8439223925e-001
 4.6387499733e+000	 1.3276383866e+000	 2.5878871456e-001
 4.7690310368e+000	 8.8252080420e-001	 3.9519408649e-001
 4.7604712433e+000	 9.2758478942e-001	 3.8499545975e-001
 4.7514589829e+000	 9.7269601307e-001	 3.7123431542e-001
 4.7419916726e+000	 1.0178482093e+000	 3.5516234869e-001
 4.7320668348e+000	 1.0630350282e+000	 3.3819217142e-001
 4.7216821001e+000	 1.1082500377e+000	 3.2189838936e-001
 4.7108352098e+000	 1.1534867257e+000	 3.0801835358e-001
 4.6995240188e+000	 1.1987385023e+000	 2.9845257531e-001
 4.6877464981e+000	 1.2439987017e+000	 2.9526479415e-001
 4.6755007373e+000	 1.2892605850e+000	 2.8536289808e-001
 4.6627849472e+000	 1.3345173420e+000	 2.6255685287e-001
 4.7936136710e+000	 8.8706988052e-001	 3.7740027312e-001
 4.7850097549e+000	 9.3236615432e-001	 3.6879634155e-001
 4.7759510395e+000	 9.7770991005e-001	 3.5670193897e-001
 4.7664349286e+000	 1.0230948496e+000	 3.4239219194e-001
 4.7564589319e+000	 1.0685145902e+000	 3.2730523960e-001
 4.7460206676e+000	 1.1139626667e+000	 3.1304331291e-001
 4.7351178655e+000	 1.1594325336e+000	 3.0137348312e-001
 4.7237483694e+000	 1.2049175668e+000	 2.9422806891e-001
 4.7119101398e+000	 1.2504110662e+000	 2.9363392059e-001
 4.6996012565e+000	 1.2959062581e+000	 2.8395235917e-001
 4.6868199212e+000	 1.3413962974e+000	 2.6368131236e-001
 4.8181963052e+000	 8.9161895683e-001	 3.6148579236e-001
 4.8095482664e+000	 9.3714751922e-001	 3.5414408160e-001
 4.8004430961e+000	 9.8272380703e-001	 3.4334431389e-001
 4.7908781847e+000	 1.0283414898e+000	 3.3038529398e-001
 4.7808510290e+000	 1.0739941522e+000	 3.1673098429e-001
 4.7703592351e+000	 1.1196752958e+000	 3.0401158645e-001
 4.7594005212e+000	 1.1653783415e+000	 2.9402428738e-001
 4.7479727200e+000	 1.2110966312e+000	 2.8873365884e-001
 4.7360737816e+000	 1.2568234306e+000	 2.8899682005e-001
 4.7237017758e+000	 1.3025519312e+000	 2.8020895177e-001
 4.7108548951e+000	 1.3482752527e+000	 2.6221637985e-001
 4.8427789394e+000	 8.9616803315e-001	 3.4741457084e-001
 4.8340867780e+000	 9.4192888412e-001	 3.4100187215e-001
 4.8249351527e+000	 9.8773770401e-001	 3.3112389685e-001
 4.8153214407e+000	 1.0335881301e+000	 3.1910337729e-001
 4.8052431260e+000	 1.0794737142e+000	 3.0643039778e-001
 4.7946978026e+000	 1.1253879249e+000	 2.9476347898e-001
 4.7836831769e+000	 1.1713241493e+000	 2.8593032183e-001
 4.7721970706e+000	 1.2172756957e+000	 2.8192820001e-001
 4.7602374233e+000	 1.2632357951e+000	 2.8231467146e-001
 4.7478022951e+000	 1.3091976043e+000	 2.7418058413e-001
 4.7348898691e+000	 1.3551542081e+000	 2.5821582671e-001
 4.8673615736e+000	 9.0071710947e-001	 3.3515076627e-001
 4.8586252895e+000	 9.4671024902e-001	 3.2933308187e-001
 4.8494272093e+000	 9.9275160099e-001	 3.2000326218e-001
 4.8397646967e+000	 1.0388347703e+000	 3.0850821906e-001
 4.8296352231e+000	 1.0849532762e+000	 2.9636446001e-001
 4.8190363702e+000	 1.1311005539e+000	 2.8525917583e-001
 4.8079658326e+000	 1.1772699572e+000	 2.7705098291e-001
 4.7964214212e+000	 1.2234547601e+000	 2.7377030870e-001
 4.7844010650e+000	 1.2696481595e+000	 2.7362942010e-001
 4.7719028143e+000	 1.3158432775e+000	 2.6591475419e-001
 4.7589248430e+000	 1.3620331635e+000	 2.5173292184e-001
 4.8919442078e+000	 9.0526618578e-001	 3.2465876155e-001
 4.8831638011e+000	 9.5149161392e-001	 3.1910125138e-001
 4.8739192659e+000	 9.9776549797e-001	 3.0994509888e-001
 4.8642079528e+000	 1.0440814106e+000	 2.9856164983e-001
 4.8540273202e+000	 1.0904328382e+000	 2.8649413885e-001
 4.8433749377e+000	 1.1368131830e+000	 2.7545878085e-001
 4.8322484884e+000	 1.1832157651e+000	 2.6734551199e-001
 4.8206457718e+000	 1.2296338246e+000	 2.6421836853e-001
 4.8085647068e+000	 1.2760605240e+000	 2.6298269692e-001
 4.7960033336e+000	 1.3224889506e+000	 2.5545855984e-001
 4.7829598170e+000	 1.3689121189e+000	 2.4282044436e-001
 4.9165268420e+000	 9.0981526210e-001	 3.1590315922e-001
 4.9077023127e+000	 9.5627297882e-001	 3.1027008902e-001
 4.8984113225e+000	 1.0027793950e+000	 3.0091220778e-001
 4.8886512088e+000	 1.0493280509e+000	 2.8922555214e-001
 4.8784194173e+000	 1.0959124002e+000	 2.7678039042e-001
 4.8677135052e+000	 1.1425258121e+000	 2.6532231840e-001
 4.8565311441e+000	 1.1891615729e+000	 2.5677299929e-001
 4.8448701224e+000	 1.2358128890e+000	 2.5323053633e-001
 4.8327283485e+000	 1.2824728884e+000	 2.5041582646e-001
 4.8201038528e+000	 1.3291346237e+000	 2.4285870896e-001
 4.8069947909e+000	 1.3757910742e+000	 2.3153069580e-001
 4.5666450514e+000	 1.3070015205e+000	 2.3107134189e-001
 4.5537294736e+000	 1.3513133914e+000	 2.0420174860e-001
 4.5403504190e+000	 1.3956067041e+000	 1.7902822201e-001
 4.5265065060e+000	 1.4398745957e+000	 1.5548212743e-001
 4.5121964807e+000	 1.4841101442e+000	 1.3347858192e-001
 4.4974192195e+000	 1.5283063712e+000	 1.1291673312e-001
 4.4821737314e+000	 1.5724562449e+000	 9.3680081457e-002
 4.4664591594e+000	 1.6165526831e+000	 7.5636845735e-002
 4.4502747833e+000	 1.6605885562e+000	 5.8640371798e-002
 4.4336200209e+000	 1.7045566903e+000	 4.2529583898e-002
 4.4164944300e+000	 1.7484498704e+000	 2.7129478230e-002
 4.5906800254e+000	 1.3138804759e+000	 2.4310159599e-001
 4.5776964708e+000	 1.3584255672e+000	 2.1647897431e-001
 4.5642470002e+000	 1.4029520026e+000	 1.9131752552e-001
 4.5503302244e+000	 1.4474528831e+000	 1.6755174159e-001
 4.5359448832e+000	 1.4919212502e+000	 1.4509997317e-001
 4.5210898470e+000	 1.5363500889e+000	 1.2386471455e-001
 4.5057641194e+000	 1.5807323304e+000	 1.0373293227e-001
 4.4899668392e+000	 1.6250608551e+000	 8.4576437368e-002
 4.4736972822e+000	 1.6693284959e+000	 6.6252300918e-002
 4.4569548631e+000	 1.7135280413e+000	 4.8603312439e-002
 4.4397391376e+000	 1.7576522382e+000	 3.1458480664e-002
 4.6147149993e+000	 1.3207594313e+000	 2.5232208174e-001
 4.6016634680e+000	 1.3655377429e+000	 2.2619541089e-001
 4.5881435813e+000	 1.4102973010e+000	 2.0130146331e-001
 4.5741539429e+000	 1.4550311704e+000	 1.7757767383e-001
 4.5596932857e+000	 1.4997323562e+000	 1.5494543499e-001
 4.5447604745e+000	 1.5443938066e+000	 1.3331038834e-001
 4.5293545075e+000	 1.5890084159e+000	 1.1256275964e-001
 4.5134745190e+000	 1.6335690271e+000	 9.2577737921e-002
 4.4971197811e+000	 1.6780684357e+000	 7.3215898075e-002
 4.4802897053e+000	 1.7224993923e+000	 5.4323666520e-002
 4.4629838451e+000	 1.7668546059e+000	 3.5733829429e-002
 4.6387499733e+000	 1.3276383866e+000	 2.5878871456e-001
 4.6256304653e+000	 1.3726499187e+000	 2.3340504514e-001
 4.6120401625e+000	 1.4176425995e+000	 2.0903204299e-001
 4.5979776614e+000	 1.4626094578e+000	 1.8560990178e-001
 4.5834416883e+000	 1.5075434623e+000	 1.6306286417e-001
 4.5684311019e+000	 1.5524375244e+000	 1.4129951951e-001
 4.5529448956e+000	 1.5972845014e+000	 1.2021314579e-001
 4.5369821988e+000	 1.6420771991e+000	 9.9682095756e-002
 4.5205422799e+000	 1.6868083755e+000	 7.9570226652e-002
 4.5036245475e+000	 1.7314707433e+000	 5.9727373432e-002
 4.4862285526e+000	 1.7760569736e+000	 3.9989864631e-002
 4.6627849472e+000	 1.3345173420e+000	 2.6255685287e-001
 4.6495974625e+000	 1.3797620944e+000	 2.3816137384e-001
 4.6359367437e+000	 1.4249878979e+000	 2.1456085039e-001
 4.6218013798e+000	 1.4701877451e+000	 1.9169805095e-001
 4.6071900908e+000	 1.5153545683e+000	 1.6949987634e-001
 4.5921017294e+000	 1.5604812421e+000	 1.4787766411e-001
 4.5765352836e+000	 1.6055605868e+000	 1.2672753744e-001
 4.5604898786e+000	 1.6505853711e+000	 1.0593079838e-001
 4.5439647788e+000	 1.6955483152e+000	 8.5354365059e-002
 4.5269593898e+000	 1.7404420943e+000	 6.4851252551e-002
 4.5094732602e+000	 1.7852593414e+000	 4.4261096663e-002
 4.6868199212e+000	 1.3413962974e+000	 2.6368131236e-001
 4.6735644597e+000	 1.3868742701e+000	 2.4051741629e-001
 4.6598333248e+000	 1.4323331963e+000	 2.1793906048e-001
 4.6456250983e+000	 1.4777660325e+000	 1.9589140379e-001
 4.6309384933e+000	 1.5231656743e+000	 1.7430381313e-001
 4.6157723569e+000	 1.5685249599e+000	 1.5309017455e-001
 4.6001256717e+000	 1.6138366723e+000	 1.3214924922e-001
 4.5839975584e+000	 1.6590935431e+000	 1.1136507401e-001
 4.5673872776e+000	 1.7042882550e+000	 9.0607406343e-002
 4.5502942320e+000	 1.7494134453e+000	 6.9732212971e-002
 4.5327179677e+000	 1.7944617091e+000	 4.8582201838e-002
 4.7108548951e+000	 1.3482752527e+000	 2.6221637985e-001
 4.6975314569e+000	 1.3939864459e+000	 2.4052572650e-001
 4.6837299060e+000	 1.4396784948e+000	 2.1921744776e-001
 4.6694488167e+000	 1.4853443198e+000	 1.9823890843e-001
 4.6546868958e+000	 1.5309767803e+000	 1.7752174924e-001
 4.6394429843e+000	 1.5765686776e+000	 1.5698220485e-001
 4.6237160597e+000	 1.6221127578e+000	 1.3652146710e-001
 4.6075052382e+000	 1.6676017152e+000	 1.1602609307e-001
 4.5908097765e+000	 1.7130281948e+000	 9.5368457822e-002
 4.5736290742e+000	 1.7583847963e+000	 7.4407251218e-002
 4.5559626752e+000	 1.8036640769e+000	 5.2988018158e-002
 4.7348898691e+000	 1.3551542081e+000	 2.5821582671e-001
 4.7214984542e+000	 1.4010986216e+000	 2.3823840500e-001
 4.7076264871e+000	 1.4470237932e+000	 2.1844639647e-001
 4.6932725352e+000	 1.4929226072e+000	 1.9878918715e-001
 4.6784352984e+000	 1.5387878863e+000	 1.7920049911e-001
 4.6631136118e+000	 1.5846123954e+000	 1.5959871560e-001
 4.6473064478e+000	 1.6303888433e+000	 1.3988725160e-001
 4.6310129180e+000	 1.6761098872e+000	 1.1995496968e-001
 4.6142322754e+000	 1.7217681346e+000	 9.9676640716e-002
 4.5969639164e+000	 1.7673561473e+000	 7.8913449030e-002
 4.5792073827e+000	 1.8128664446e+000	 5.7513541204e-002
 4.7589248430e+000	 1.3620331635e+000	 2.5173292184e-001
 4.7454654514e+000	 1.4082107974e+000	 2.3370711031e-001
 4.7315230682e+000	 1.4543690917e+000	 2.1567591046e-001
 4.7170962536e+000	 1.5005008945e+000	 1.9759054463e-001
 4.7021837009e+000	 1.5465989924e+000	 1.7938662360e-001
 4.6867842393e+000	 1.5926561131e+000	 1.6098447891e-001
 4.6708968359e+000	 1.6386649288e+000	 1.4228954102e-001
 4.6545205977e+000	 1.6846180592e+000	 1.2319276306e-001
 4.6376547742e+000	 1.7305080743e+000	 1.0357108980e-001
 4.6202987586e+000	 1.7763274983e+000	 8.3287971206e-002
 4.6024520903e+000	 1.8220688123e+000	 6.2193920165e-002
 4.7829598170e+000	 1.3689121189e+000	 2.4282044436e-001
 4.7694324486e+000	 1.4153229731e+000	 2.2698306999e-001
 4.7554196494e+000	 1.4617143901e+000	 2.1095562269e-001
 4.7409199721e+000	 1.5080791818e+000	 1.9469097593e-001
 4.7259321034e+000	 1.5544100984e+000	 1.7812643627e-001
 4.7104548668e+000	 1.6006998308e+000	 1.6118408309e-001
 4.6944872239e+000	 1.6469410143e+000	 1.4377115445e-001
 4.6780282775e+000	 1.6931262312e+000	 1.2578047894e-001
 4.6610772731e+000	 1.7392480141e+000	 1.0709095305e-001
 4.6436336008e+000	 1.7852988493e+000	 8.7568063517e-002
 4.6256967978e+000	 1.8312711801e+000	 6.7064453973e-002
 4.8069947909e+000	 1.3757910742e+000	 2.3153069580e-001
 4.7933994458e+000	 1.4224351489e+000	 2.1811709148e-001
 4.7793162305e+000	 1.4690596886e+000	 2.0433480456e-001
 4.7647436905e+000	 1.5156574692e+000	 1.9013817421e-001
 4.7496805060e+000	 1.5622212044e+000	 1.7546600963e-001
 4.7341254942e+000	 1.6087435486e+000	 1.6024193731e-001
 4.7180776120e+000	 1.6552170998e+000	 1.4437479479e-001
 4.7015359573e+000	 1.7016344032e+000	 1.2775907084e-001
 4.6844997719e+000	 1.7479879539e+000	 1.1027539135e-001
 4.6669684431e+000	 1.7942702003e+000	 9.1791050685e-002
 4.6489415053e+000	 1.8404735478e+000	 7.2160587562e-002
 4.4164944300e+000	 1.7484498704e+000	 2.7129478230e-002
 4.3988977105e+000	 1.7922608439e+000	 3.3025634863e-002
 4.3808297054e+000	 1.8359823234e+000	 4.7228787734e-002
 4.3622904030e+000	 1.8796069909e+000	 1.7584873482e-002
 4.3432799376e+000	 1.9231275005e+000	-4.0905528454e-002
 4.3237985918e+000	 1.9665364825e+000	-8.7314262369e-002
 4.3038467969e+000	 2.0098265468e+000	-1.2154304318e-001
 4.2834251345e+000	 2.0529902865e+000	-1.4350480822e-001
 4.2625343375e+000	 2.0960202818e+000	-1.5312401923e-001
 4.2411752908e+000	 2.1389091034e+000	-1.5033695173e-001
 4.2193490324e+000	 2.1816493170e+000	-1.3509197091e-001
 4.4397391376e+000	 1.7576522382e+000	 3.1458480664e-002
 4.4220498037e+000	 1.8016937957e+000	 3.3236927867e-002
 4.4038867039e+000	 1.8456453883e+000	 4.2361552690e-002
 4.3852498261e+000	 1.8894996592e+000	 5.3068826319e-002
 4.3661393057e+000	 1.9332492242e+000	 2.6974607963e-002
 4.3465554265e+000	 1.9768866745e+000	-2.8222734572e-002
 4.3264986222e+000	 2.0204045813e+000	-7.2176009800e-002
 4.3059694774e+000	 2.0637954986e+000	-1.0478030960e-001
 4.2849687287e+000	 2.1070519675e+000	-1.2594123544e-001
 4.2634972660e+000	 2.1501665198e+000	-1.3557519611e-001
 4.2415561326e+000	 2.1931316818e+000	-1.3360969341e-001
 4.4629838451e+000	 1.7668546059e+000	 3.5733829429e-002
 4.4452018969e+000	 1.8111267475e+000	 3.3729198429e-002
 4.4269437023e+000	 1.8553084531e+000	 3.8122164416e-002
 4.4082092493e+000	 1.8993923276e+000	 4.0420687359e-002
 4.3889986738e+000	 1.9433709479e+000	 4.3447039309e-002
 4.3693122612e+000	 1.9872368665e+000	 3.3046192900e-002
 4.3491504474e+000	 2.0309826157e+000	-2.0345407280e-002
 4.3285138202e+000	 2.0746007106e+000	-6.3294454881e-002
 4.3074031200e+000	 2.1180836532e+000	-9.5687755088e-002
 4.2858192412e+000	 2.1614239361e+000	-1.1742192213e-001
 4.2637632328e+000	 2.2046140466e+000	-1.2840367475e-001
 4.4862285526e+000	 1.7760569736e+000	 3.9989864631e-002
 4.4683539901e+000	 1.8205596993e+000	 3.4533876051e-002
 4.4500007008e+000	 1.8649715180e+000	 3.4538967031e-002
 4.4311686725e+000	 1.9092849960e+000	 2.9538465900e-002
 4.4118580419e+000	 1.9534926715e+000	 2.8202255097e-002
 4.3920690959e+000	 1.9975870585e+000	 3.3527227401e-002
 4.3718022727e+000	 2.0415606502e+000	 3.3900429857e-002
 4.3510581630e+000	 2.0854059226e+000	-1.9101139743e-002
 4.3298375112e+000	 2.1291153389e+000	-6.2423198693e-002
 4.3081412164e+000	 2.1726813525e+000	-9.5942636941e-002
 4.2859703329e+000	 2.2160964114e+000	-1.1954546856e-001
 4.5094732602e+000	 1.7852593414e+000	 4.4261096663e-002
 4.4915060834e+000	 1.8299926511e+000	 3.5682649589e-002
 4.4730576992e+000	 1.8746345829e+000	 3.1640656715e-002
 4.4541280956e+000	 1.9191776644e+000	 2.0389551354e-002
 4.4347174100e+000	 1.9636143952e+000	 1.4985595380e-002
 4.4148259306e+000	 2.0079372506e+000	 1.5346296115e-002
 4.3944540979e+000	 2.0521386846e+000	 2.1271518476e-002
 4.3736025058e+000	 2.0962111347e+000	 2.7746609624e-002
 4.3522719025e+000	 2.1401470246e+000	-2.6206203209e-002
 4.3304631916e+000	 2.1839387688e+000	-7.1201746623e-002
 4.3081774331e+000	 2.2275787763e+000	-1.0710540643e-001
 4.5327179677e+000	 1.7944617091e+000	 4.8582201838e-002
 4.5146581766e+000	 1.8394256029e+000	 3.7207460599e-002
 4.4961146977e+000	 1.8842976477e+000	 2.7178622802e-002
 4.4770875188e+000	 1.9290703327e+000	 1.2941770033e-002
 4.4575767781e+000	 1.9737361189e+000	 3.7602652198e-003
 4.4375827653e+000	 2.0182874426e+000	-5.4089841514e-004
 4.4171059232e+000	 2.0627167191e+000	-1.5099123988e-004
 4.3961468486e+000	 2.1070163467e+000	 4.7265347051e-003
 4.3747062937e+000	 2.1511787103e+000	 1.2905552744e-002
 4.3527851668e+000	 2.1951961851e+000	-4.3262584409e-002
 4.3303845333e+000	 2.2390611411e+000	-9.1152629304e-002
 4.5559626752e+000	 1.8036640769e+000	 5.2988018158e-002
 4.5378102698e+000	 1.8488585547e+000	 3.9140496892e-002
 4.5191716961e+000	 1.8939607126e+000	 2.4009900460e-002
 4.5000469420e+000	 1.9389630011e+000	 7.1633740052e-003
 4.4804361462e+000	 1.9838578426e+000	-5.5100096757e-003
 4.4603396000e+000	 2.0286376346e+000	-1.4175305388e-002
 4.4397577484e+000	 2.0732947536e+000	-1.9011019485e-002
 4.4186911914e+000	 2.1178215587e+000	-2.0209027854e-002
 4.3971406850e+000	 2.1622103960e+000	-1.7974464574e-002
 4.3751071420e+000	 2.2064536015e+000	-1.2525580937e-002
 4.3525916335e+000	 2.2505435059e+000	-7.1755117813e-002
 4.5792073827e+000	 1.8128664446e+000	 5.7513541204e-002
 4.5609623630e+000	 1.8582915065e+000	 4.1514186286e-002
 4.5422286946e+000	 1.9036237774e+000	 2.2210001225e-002
 4.5230063652e+000	 1.9488556695e+000	 3.0230302846e-003
 4.5032955143e+000	 1.9939795663e+000	-1.2860996170e-002
 4.4830964347e+000	 2.0389878266e+000	-2.5597270779e-002
 4.4624095737e+000	 2.0838727880e+000	-3.5353635452e-002
 4.4412355342e+000	 2.1286267708e+000	-4.2310499261e-002
 4.4195750762e+000	 2.1732420817e+000	-4.6660727891e-002
 4.3974291173e+000	 2.2177110178e+000	-4.8609504352e-002
 4.3747987336e+000	 2.2620258708e+000	-4.8979721735e-002
 4.6024520903e+000	 1.8220688123e+000	 6.2193920165e-002
 4.5841144562e+000	 1.8677244584e+000	 4.4361190541e-002
 4.5652856930e+000	 1.9132868423e+000	 2.1752197286e-002
 4.5459657884e+000	 1.9587483379e+000	 4.8981035609e-004
 4.5261548824e+000	 2.0041012900e+000	-1.8327966510e-002
 4.5058532694e+000	 2.0493380186e+000	-3.4846552579e-002
 4.4850613989e+000	 2.0944508225e+000	-4.9223223774e-002
 4.4637798771e+000	 2.1394319828e+000	-6.1627030496e-002
 4.4420094675e+000	 2.1842737674e+000	-7.2238687855e-002
 4.4197510925e+000	 2.2289684341e+000	-8.1250438048e-002
 4.3970058338e+000	 2.2735082356e+000	-8.8865884664e-002
 4.6256967978e+000	 1.8312711801e+000	 6.7064453973e-002
 4.6072665494e+000	 1.8771574102e+000	 4.7409564671e-002
 4.5883426915e+000	 1.9229499072e+000	 2.2610070426e-002
 4.5689252115e+000	 1.9686410063e+000	-4.6681998829e-004
 4.5490142505e+000	 2.0142230137e+000	-2.1945710755e-002
 4.5286101041e+000	 2.0596882107e+000	-4.1962335559e-002
 4.5077132242e+000	 2.1050288570e+000	-6.0663501721e-002
 4.4863242199e+000	 2.1502371949e+000	-7.8207007937e-002
 4.4644438587e+000	 2.1953054531e+000	-9.4761535305e-002
 4.4420730677e+000	 2.2402258505e+000	-1.1050651134e-001
 4.4192129340e+000	 2.2849906004e+000	-1.2563194681e-001
 4.6489415053e+000	 1.8404735478e+000	 7.2160587562e-002
 4.6304186427e+000	 1.8865903620e+000	 5.0270773585e-002
 4.6113996900e+000	 1.9326129720e+000	 2.4757504280e-002
 4.5918846347e+000	 1.9785336746e+000	 1.2298949290e-004
 4.5718736186e+000	 2.0243447374e+000	-2.3748548829e-002
 4.5513669388e+000	 2.0700384027e+000	-4.6983245610e-002
 4.5303650494e+000	 2.1156068914e+000	-6.9717535884e-002
 4.5088685627e+000	 2.1610424069e+000	-9.2098072474e-002
 4.4868782500e+000	 2.2063371388e+000	-1.1428161779e-001
 4.4643950429e+000	 2.2514832668e+000	-1.3643490949e-001
 4.4414200342e+000	 2.2964729653e+000	-1.5873449979e-001
 4.2193490324e+000	 2.1816493170e+000	-1.3509197091e-001
 4.1970567543e+000	 2.2242334862e+000	-1.3516221017e-001
 4.1742998024e+000	 2.2666541773e+000	-1.4176353148e-001
 4.1510796778e+000	 2.3089039626e+000	-1.5450809524e-001
 4.1273980366e+000	 2.3509754247e+000	-1.7300013257e-001
 4.1032566903e+000	 2.3928611605e+000	-1.9683635104e-001
 4.0786576062e+000	 2.4345537848e+000	-2.2560635199e-001
 4.0536029072e+000	 2.4760459347e+000	-2.5889305884e-001
 4.0280948713e+000	 2.5173302738e+000	-2.9443311323e-001
 4.0021359322e+000	 2.5583994957e+000	-3.3210548554e-001
 3.9757286783e+000	 2.5992463286e+000	-3.7471063300e-001
 4.2415561326e+000	 2.1931316818e+000	-1.3360969341e-001
 4.2191465267e+000	 2.2359399782e+000	-1.3958781912e-001
 4.1962698014e+000	 2.2785839361e+000	-1.5014920867e-001
 4.1729274656e+000	 2.3210560887e+000	-1.6494061028e-001
 4.1491211841e+000	 2.3633489796e+000	-1.8360293681e-001
 4.1248527781e+000	 2.4054551666e+000	-2.0577165363e-001
 4.1001242252e+000	 2.4473672257e+000	-2.3107717524e-001
 4.0749376593e+000	 2.4890777554e+000	-2.5914526975e-001
 4.0492953706e+000	 2.5305793805e+000	-2.8624118434e-001
 4.0231998056e+000	 2.5718647562e+000	-3.1529118774e-001
 3.9966535661e+000	 2.6129265724e+000	-3.4761022582e-001
 4.2637632328e+000	 2.2046140466e+000	-1.2840367475e-001
 4.2412362991e+000	 2.2476464703e+000	-1.4111720013e-001
 4.2182398003e+000	 2.2905136949e+000	-1.5648560191e-001
 4.1947752533e+000	 2.3332082148e+000	-1.7418989830e-001
 4.1708443317e+000	 2.3757225345e+000	-1.9390735239e-001
 4.1464488660e+000	 2.4180491727e+000	-2.1531184235e-001
 4.1215908442e+000	 2.4601806667e+000	-2.3807423747e-001
 4.0962724114e+000	 2.5021095762e+000	-2.6160004271e-001
 4.0704958700e+000	 2.5438284872e+000	-2.8138823497e-001
 4.0442636789e+000	 2.5853300167e+000	-3.0276459638e-001
 4.0175784539e+000	 2.6266068162e+000	-3.2576117011e-001
 4.2859703329e+000	 2.2160964114e+000	-1.1954546856e-001
 4.2633260715e+000	 2.2593529623e+000	-1.3980990818e-001
 4.2402097993e+000	 2.3024434537e+000	-1.6081994667e-001
 4.2166230411e+000	 2.3453603409e+000	-1.8229055870e-001
 4.1925674792e+000	 2.3880960893e+000	-2.0393503052e-001
 4.1680449538e+000	 2.4306431788e+000	-2.2546531280e-001
 4.1430574632e+000	 2.4729941077e+000	-2.4659237621e-001
 4.1176071636e+000	 2.5151413969e+000	-2.6511454212e-001
 4.0916963693e+000	 2.5570775939e+000	-2.7985216601e-001
 4.0653275522e+000	 2.5987952773e+000	-2.9448879706e-001
 4.0385033416e+000	 2.6402870601e+000	-3.0911144038e-001
 4.3081774331e+000	 2.2275787763e+000	-1.0710540643e-001
 4.2854158438e+000	 2.2710594543e+000	-1.3572452726e-001
 4.2621797983e+000	 2.3143732126e+000	-1.6319876496e-001
 4.2384708289e+000	 2.3575124671e+000	-1.8927674126e-001
 4.2142906268e+000	 2.4004696442e+000	-2.1370744299e-001
 4.1896410417e+000	 2.4432371849e+000	-2.3624055756e-001
 4.1645240822e+000	 2.4858075487e+000	-2.5662680847e-001
 4.1389419157e+000	 2.5281732176e+000	-2.7102003014e-001
 4.1128968686e+000	 2.5703267006e+000	-2.8161184074e-001
 4.0863914255e+000	 2.6122605378e+000	-2.9042813787e-001
 4.0594282294e+000	 2.6539673039e+000	-2.9761057938e-001
 4.3303845333e+000	 2.2390611411e+000	-9.1152629304e-002
 4.3075056162e+000	 2.2827659464e+000	-1.2891869523e-001
 4.2841497972e+000	 2.3263029714e+000	-1.6366788354e-001
 4.2603186167e+000	 2.3696645932e+000	-1.9518215773e-001
 4.2360137743e+000	 2.4128431991e+000	-2.2324588679e-001
 4.2112371295e+000	 2.4558311910e+000	-2.4764616373e-001
 4.1859907011e+000	 2.4986209896e+000	-2.6817312106e-001
 4.1602766679e+000	 2.5412050383e+000	-2.7931023965e-001
 4.1340973679e+000	 2.5835758073e+000	-2.8664706007e-001
 4.1074552989e+000	 2.6257257983e+000	-2.9054819698e-001
 4.0803531172e+000	 2.6676475477e+000	-2.9120965784e-001
 4.3525916335e+000	 2.2505435059e+000	-7.1755117813e-002
 4.3295953886e+000	 2.2944724384e+000	-1.1944912802e-001
 4.3061197962e+000	 2.3382327302e+000	-1.6227245174e-001
 4.2821664045e+000	 2.3818167193e+000	-2.0004009290e-001
 4.2577369219e+000	 2.4252167539e+000	-2.3257148856e-001
 4.2328332174e+000	 2.4684251971e+000	-2.5969081052e-001
 4.2074573201e+000	 2.5114344306e+000	-2.7970632851e-001
 4.1816114200e+000	 2.5542368590e+000	-2.8997953779e-001
 4.1552978673e+000	 2.5968249141e+000	-2.9493853871e-001
 4.1285191722e+000	 2.6391910588e+000	-2.9481575130e-001
 4.1012780050e+000	 2.6813277916e+000	-2.8986123558e-001
 4.3747987336e+000	 2.2620258708e+000	-4.8979721735e-002
 4.3516851610e+000	 2.3061789304e+000	-1.0737164295e-001
 4.3280897951e+000	 2.3501624891e+000	-1.5905695859e-001
 4.3040141922e+000	 2.3939688454e+000	-2.0388341554e-001
 4.2794600695e+000	 2.4375903088e+000	-2.4170520891e-001
 4.2544293052e+000	 2.4810192032e+000	-2.7238326689e-001
 4.2289239391e+000	 2.5242478716e+000	-2.9257977243e-001
 4.2029461722e+000	 2.5672686797e+000	-3.0302290986e-001
 4.1764983666e+000	 2.6100740208e+000	-3.0646788192e-001
 4.1495830455e+000	 2.6526563193e+000	-3.0319874603e-001
 4.1222028927e+000	 2.6950080354e+000	-2.9351932363e-001
 4.3970058338e+000	 2.2735082356e+000	-8.8865884664e-002
 4.3737749334e+000	 2.3178854225e+000	-9.2741181494e-002
 4.3500597941e+000	 2.3620922479e+000	-1.5406524950e-001
 4.3258619800e+000	 2.4061209716e+000	-2.0674458884e-001
 4.3011832170e+000	 2.4499638637e+000	-2.5066784665e-001
 4.2760253930e+000	 2.4936132094e+000	-2.8573238928e-001
 4.2503905581e+000	 2.5370613125e+000	-3.0698599012e-001
 4.2242809243e+000	 2.5803005004e+000	-3.1843594372e-001
 4.1976988659e+000	 2.6233231275e+000	-3.2121756303e-001
 4.1706469189e+000	 2.6661215798e+000	-3.1566626517e-001
 4.1431277805e+000	 2.7086882792e+000	-3.0213934764e-001
 4.4192129340e+000	 2.2849906004e+000	-1.2563194681e-001
 4.3958647058e+000	 2.3295919145e+000	-1.3495173553e-001
 4.3720297931e+000	 2.3740220067e+000	-1.4734054247e-001
 4.3477097678e+000	 2.4182730977e+000	-2.0865568061e-001
 4.3229063646e+000	 2.4623374186e+000	-2.5948004278e-001
 4.2976214809e+000	 2.5062072155e+000	-2.9896563559e-001
 4.2718571771e+000	 2.5498747535e+000	-3.2293373731e-001
 4.2456156764e+000	 2.5933323211e+000	-3.3621481462e-001
 4.2188993652e+000	 2.6365722342e+000	-3.3917090163e-001
 4.1917107922e+000	 2.6795868403e+000	-3.3218850291e-001
 4.1640526683e+000	 2.7223685231e+000	-3.1567811232e-001
 4.4414200342e+000	 2.2964729653e+000	-1.5873449979e-001
 4.4179544782e+000	 2.3412984066e+000	-1.7768635029e-001
 4.3939997920e+000	 2.3859517656e+000	-1.8992918624e-001
 4.3695575556e+000	 2.4304252238e+000	-2.0964837319e-001
 4.3446295122e+000	 2.4747109734e+000	-2.6816228452e-001
 4.3192175687e+000	 2.5188012216e+000	-3.1212880377e-001
 4.2933237960e+000	 2.5626881945e+000	-3.4043209505e-001
 4.2669504286e+000	 2.6063641418e+000	-3.5635627056e-001
 4.2400998645e+000	 2.6498213409e+000	-3.6031204245e-001
 4.2127746655e+000	 2.6930521008e+000	-3.5273673587e-001
 4.1849775561e+000	 2.7360487669e+000	-3.3409376693e-001
 3.9757286783e+000	 2.5992463286e+000	-3.7471063300e-001
 3.9488758523e+000	 2.6398635388e+000	-4.1407121517e-001
 3.9215803507e+000	 2.6802439354e+000	-4.3853625575e-001
 3.8938452231e+000	 2.7203803739e+000	-4.4854567399e-001
 3.8656736713e+000	 2.7602657603e+000	-4.4456490815e-001
 3.8370690480e+000	 2.7998930552e+000	-4.2708427073e-001
 3.8080348563e+000	 2.8392552779e+000	-3.9661825120e-001
 3.7785747479e+000	 2.8783455100e+000	-3.5370476780e-001
 3.7486925218e+000	 2.9171568997e+000	-3.0503027352e-001
 3.7183921230e+000	 2.9556826656e+000	-3.7657082962e-001
 3.6876776410e+000	 2.9939161004e+000	-4.3015923776e-001
 3.9966535661e+000	 2.6129265724e+000	-3.4761022582e-001
 3.9696594094e+000	 2.6537575574e+000	-3.8501040744e-001
 3.9422202473e+000	 2.6943504824e+000	-4.0972923534e-001
 3.9143391453e+000	 2.7346981653e+000	-4.2216084906e-001
 3.8860193222e+000	 2.7747934748e+000	-4.2272277906e-001
 3.8572641483e+000	 2.8146293345e+000	-4.1185533483e-001
 3.8280771451e+000	 2.8541987267e+000	-3.9002094354e-001
 3.7984619834e+000	 2.8934946969e+000	-3.5770344018e-001
 3.7684224824e+000	 2.9325103571e+000	-3.1540731071e-001
 3.7379626079e+000	 2.9712388901e+000	-3.1771701754e-001
 3.7070864707e+000	 3.0096735536e+000	-3.8915405757e-001
 4.0175784539e+000	 2.6266068162e+000	-3.2576117011e-001
 3.9904429665e+000	 2.6676515760e+000	-3.6025847701e-001
 3.9628601438e+000	 2.7084570295e+000	-3.8426147140e-001
 3.9348330675e+000	 2.7490159568e+000	-3.9811897690e-001
 3.9063649731e+000	 2.7893211894e+000	-4.0220110120e-001
 3.8774592485e+000	 2.8293656137e+000	-3.9689865679e-001
 3.8481194338e+000	 2.8691421756e+000	-3.8262253492e-001
 3.8183492189e+000	 2.9086438838e+000	-3.5980303381e-001
 3.7881524430e+000	 2.9478638144e+000	-3.2888914259e-001
 3.7575330927e+000	 2.9867951147e+000	-2.9034778212e-001
 3.7264953004e+000	 3.0254310067e+000	-3.4518865221e-001
 4.0385033416e+000	 2.6402870601e+000	-3.0911144038e-001
 4.0112265236e+000	 2.6815455947e+000	-3.3977785365e-001
 3.9835000404e+000	 2.7225635765e+000	-3.6211021004e-001
 3.9553269898e+000	 2.7633337482e+000	-3.7641247552e-001
 3.9267106240e+000	 2.8038489039e+000	-3.8300781425e-001
 3.8976543488e+000	 2.8441018930e+000	-3.8223804163e-001
 3.8681617225e+000	 2.8840856244e+000	-3.7446303313e-001
 3.8382364544e+000	 2.9237930707e+000	-3.6006009026e-001
 3.8078824037e+000	 2.9632172718e+000	-3.3942326462e-001
 3.7771035776e+000	 3.0023513392e+000	-3.1296264168e-001
 3.7459041300e+000	 3.0411884599e+000	-2.9837047177e-001
 4.0594282294e+000	 2.6539673039e+000	-2.9761057938e-001
 4.0320100807e+000	 2.6954396133e+000	-3.2353223103e-001
 4.0041399370e+000	 2.7366701235e+000	-3.4325364910e-001
 3.9758209120e+000	 2.7776515397e+000	-3.5703439467e-001
 3.9470562748e+000	 2.8183766184e+000	-3.6515116200e-001
 3.9178494490e+000	 2.8588381722e+000	-3.6789726338e-001
 3.8882040112e+000	 2.8990290732e+000	-3.6558207261e-001
 3.8581236899e+000	 2.9389422576e+000	-3.5853042806e-001
 3.8276123643e+000	 2.9785707292e+000	-3.4708199659e-001
 3.7966740624e+000	 3.0179075638e+000	-3.3159059973e-001
 3.7653129597e+000	 3.0569459131e+000	-3.1242350339e-001
 4.0803531172e+000	 2.6676475477e+000	-2.9120965784e-001
 4.0527936378e+000	 2.7093336319e+000	-3.1148653434e-001
 4.0247798336e+000	 2.7507766705e+000	-3.2767091371e-001
 3.9963148342e+000	 2.7919693311e+000	-3.3997839966e-001
 3.9674019257e+000	 2.8329043329e+000	-3.4863968458e-001
 3.9380445493e+000	 2.8735744514e+000	-3.5390006596e-001
 3.9082462999e+000	 2.9139725220e+000	-3.5601892393e-001
 3.8780109254e+000	 2.9540914445e+000	-3.5526916118e-001
 3.8473423250e+000	 2.9939241865e+000	-3.5193660621e-001
 3.8162445473e+000	 3.0334637884e+000	-3.4631938137e-001
 3.7847217894e+000	 3.0727033662e+000	-3.3872723701e-001
 4.1012780050e+000	 2.6813277916e+000	-2.8986123558e-001
 4.0735771949e+000	 2.7232276505e+000	-3.0360688888e-001
 4.0454197301e+000	 2.7648832176e+000	-3.1534203269e-001
 4.0168087564e+000	 2.8062871225e+000	-3.2523875565e-001
 3.9877475766e+000	 2.8474320475e+000	-3.3348221094e-001
 3.9582396495e+000	 2.8883107307e+000	-3.4027016386e-001
 3.9282885886e+000	 2.9289159709e+000	-3.4581250311e-001
 3.8978981609e+000	 2.9692406314e+000	-3.5033071705e-001
 3.8670722856e+000	 3.0092776439e+000	-3.5405733590e-001
 3.8358150322e+000	 3.0490200129e+000	-3.5723534116e-001
 3.8041306191e+000	 3.0884608194e+000	-3.6011754366e-001
 4.1222028927e+000	 2.6950080354e+000	-2.9351932363e-001
 4.0943607521e+000	 2.7371216692e+000	-2.9986058955e-001
 4.0660596267e+000	 2.7789897646e+000	-3.0624791554e-001
 4.0373026787e+000	 2.8206049140e+000	-3.1281031240e-001
 4.0080932275e+000	 2.8619597620e+000	-3.1968785147e-001
 3.9784347498e+000	 2.9030470099e+000	-3.2703124295e-001
 3.9483308773e+000	 2.9438594197e+000	-3.3500138061e-001
 3.9177853965e+000	 2.9843898182e+000	-3.4376885396e-001
 3.8868022462e+000	 3.0246311013e+000	-3.5351342886e-001
 3.8553855170e+000	 3.0645762375e+000	-3.6442349793e-001
 3.8235394488e+000	 3.1042182725e+000	-3.7669550202e-001
 4.1431277805e+000	 2.7086882792e+000	-3.0213934764e-001
 4.1151443092e+000	 2.7510156878e+000	-3.0021607139e-001
 4.0866995233e+000	 2.7930963116e+000	-3.0037033028e-001
 4.0577966009e+000	 2.8349227054e+000	-3.0268848955e-001
 4.0284388784e+000	 2.8764874765e+000	-3.0726599090e-001
 3.9986298500e+000	 2.9177832891e+000	-3.1420696117e-001
 3.9683731661e+000	 2.9588028685e+000	-3.2362379010e-001
 3.9376726320e+000	 2.9995390051e+000	-3.3563667797e-001
 3.9065322069e+000	 3.0399845586e+000	-3.5037315426e-001
 3.8749560019e+000	 3.0801324620e+000	-3.6796756852e-001
 3.8429482785e+000	 3.1199757257e+000	-3.8856055469e-001
 4.1640526683e+000	 2.7223685231e+000	-3.1567811232e-001
 4.1359278663e+000	 2.7649097064e+000	-3.0464288085e-001
 4.1073394199e+000	 2.8072028587e+000	-2.9769188180e-001
 4.0782905231e+000	 2.8492404969e+000	-2.9486926227e-001
 4.0487845293e+000	 2.8910151910e+000	-2.9622628143e-001
 4.0188249503e+000	 2.9325195684e+000	-3.0182094925e-001
 3.9884154548e+000	 2.9737463174e+000	-3.1171763685e-001
 3.9575598675e+000	 3.0146881920e+000	-3.2598665929e-001
 3.9262621675e+000	 3.0553380160e+000	-3.4470383175e-001
 3.8945264867e+000	 3.0956886866e+000	-3.6795000043e-001
 3.8623571082e+000	 3.1357331788e+000	-3.9225390635e-001
 4.1849775561e+000	 2.7360487669e+000	-3.3409376693e-001
 4.1567114234e+000	 2.7788037250e+000	-3.1311164809e-001
 4.1279793165e+000	 2.8213094057e+000	-2.9819599101e-001
 4.0987844453e+000	 2.8635582883e+000	-2.8934914739e-001
 4.0691301802e+000	 2.9055429056e+000	-2.8657863602e-001
 4.0390200505e+000	 2.9472558476e+000	-2.8989681136e-001
 4.0084577435e+000	 2.9886897662e+000	-2.9932050599e-001
 3.9774471030e+000	 3.0298373789e+000	-3.1487064818e-001
 3.9459921281e+000	 3.0706914733e+000	-3.3657185517e-001
 3.9140969716e+000	 3.1112449111e+000	-3.6445200364e-001
 3.8817659379e+000	 3.1514906320e+000	-3.9028100653e-001
 3.6876776410e+000	 2.9939161004e+000	-4.3015923776e-001
 3.6565533075e+000	 3.0318505751e+000	-4.6422941937e-001
 3.6250234951e+000	 3.0694795422e+000	-4.9711140314e-001
 3.5930927152e+000	 3.1067965399e+000	-5.2761578759e-001
 3.5607656154e+000	 3.1437951957e+000	-5.4597180610e-001
 3.5280469781e+000	 3.1804692296e+000	-5.5501140721e-001
 3.4949417175e+000	 3.2168124582e+000	-5.6431075054e-001
 3.4614548776e+000	 3.2528187977e+000	-5.7421445390e-001
 3.4275916292e+000	 3.2884822674e+000	-5.8506505798e-001
 3.3933572679e+000	 3.3237969933e+000	-5.9720180236e-001
 3.3587572107e+000	 3.3587572106e+000	-6.1095941489e-001
 3.7070864707e+000	 3.0096735536e+000	-3.8915405757e-001
 3.6757983249e+000	 3.0478076834e+000	-4.3385371245e-001
 3.6441025662e+000	 3.0856346977e+000	-4.7517463267e-001
 3.6120037295e+000	 3.1231481007e+000	-5.1194598993e-001
 3.5795064871e+000	 3.1603414862e+000	-5.2764982820e-001
 3.5466156464e+000	 3.1972085414e+000	-5.4030177724e-001
 3.5133361476e+000	 3.2337430501e+000	-5.5119857855e-001
 3.4796730611e+000	 3.2699388967e+000	-5.6074530533e-001
 3.4456315852e+000	 3.3057900689e+000	-5.6934672341e-001
 3.4112170430e+000	 3.3412906616e+000	-5.7740598917e-001
 3.3764348802e+000	 3.3764348802e+000	-5.8532335857e-001
 3.7264953004e+000	 3.0254310067e+000	-3.4518865221e-001
 3.6950433423e+000	 3.0637647916e+000	-4.0131705562e-001
 3.6631816372e+000	 3.1017898531e+000	-4.5189566871e-001
 3.6309147437e+000	 3.1394996614e+000	-4.8912585370e-001
 3.5982473587e+000	 3.1768877767e+000	-5.1034130595e-001
 3.5651843147e+000	 3.2139478531e+000	-5.2734363111e-001
 3.5317305777e+000	 3.2506736420e+000	-5.4059537158e-001
 3.4978912447e+000	 3.2870589956e+000	-5.5056190335e-001
 3.4636715411e+000	 3.3230978703e+000	-5.5771005057e-001
 3.4290768181e+000	 3.3587843300e+000	-5.6250670523e-001
 3.3941125497e+000	 3.3941125497e+000	-5.6541745598e-001
 3.7459041300e+000	 3.0411884599e+000	-2.9837047177e-001
 3.7142883597e+000	 3.0797218999e+000	-3.6671740352e-001
 3.6822607082e+000	 3.1179450086e+000	-4.2736264958e-001
 3.6498257580e+000	 3.1558512221e+000	-4.6571902115e-001
 3.6169882304e+000	 3.1934340672e+000	-4.9404432534e-001
 3.5837529830e+000	 3.2306871648e+000	-5.1612189951e-001
 3.5501250078e+000	 3.2676042339e+000	-5.3247262620e-001
 3.5161094283e+000	 3.3041790945e+000	-5.4362203890e-001
 3.4817114971e+000	 3.3404056717e+000	-5.5009886068e-001
 3.4469365932e+000	 3.3762779984e+000	-5.5243354570e-001
 3.4117902192e+000	 3.4117902192e+000	-5.5115682760e-001
 3.7653129597e+000	 3.0569459131e+000	-3.1242350339e-001
 3.7335333771e+000	 3.0956790082e+000	-3.3015111864e-001
 3.7013397793e+000	 3.1341001641e+000	-3.9766547628e-001
 3.6687367723e+000	 3.1722027829e+000	-4.4262798877e-001
 3.6357291020e+000	 3.2099803577e+000	-4.7875608417e-001
 3.6023216513e+000	 3.2474264766e+000	-5.0662087236e-001
 3.5685194379e+000	 3.2845348258e+000	-5.2680145173e-001
 3.5343276118e+000	 3.3212991935e+000	-5.3988337518e-001
 3.4997514530e+000	 3.3577134731e+000	-5.4645711274e-001
 3.4647963683e+000	 3.3937716668e+000	-5.4711651475e-001
 3.4294678888e+000	 3.4294678888e+000	-5.4245727989e-001
 3.7847217894e+000	 3.0727033662e+000	-3.3872723701e-001
 3.7527783945e+000	 3.1116361165e+000	-3.0258332483e-001
 3.7204188503e+000	 3.1502553196e+000	-3.6436257268e-001
 3.6876477866e+000	 3.1885543436e+000	-4.1986148229e-001
 3.6544699737e+000	 3.2265266482e+000	-4.6447291487e-001
 3.6208903196e+000	 3.2641657883e+000	-4.9882421519e-001
 3.5869138680e+000	 3.3014654177e+000	-5.2355258010e-001
 3.5525457954e+000	 3.3384192924e+000	-5.3930345096e-001
 3.5177914090e+000	 3.3750212745e+000	-5.4672889996e-001
 3.4826561434e+000	 3.4112653352e+000	-5.4648601509e-001
 3.4471455583e+000	 3.4471455583e+000	-5.3923528767e-001
 3.8041306191e+000	 3.0884608194e+000	-3.6011754366e-001
 3.7720234120e+000	 3.1275932248e+000	-3.3519644977e-001
 3.7394979213e+000	 3.1664104751e+000	-3.3074204853e-001
 3.7065588009e+000	 3.2049059043e+000	-3.9742715521e-001
 3.6732108454e+000	 3.2430729387e+000	-4.5119030658e-001
 3.6394589879e+000	 3.2809051000e+000	-4.9271498509e-001
 3.6053082981e+000	 3.3183960095e+000	-5.2269637556e-001
 3.5707639790e+000	 3.3555393913e+000	-5.4183968371e-001
 3.5358313649e+000	 3.3923290759e+000	-5.5085844634e-001
 3.5005159185e+000	 3.4287590036e+000	-5.5047283779e-001
 3.4648232278e+000	 3.4648232278e+000	-5.4140797707e-001
 3.8235394488e+000	 3.1042182725e+000	-3.7669550202e-001
 3.7912684294e+000	 3.1435503331e+000	-3.5871694065e-001
 3.7585769923e+000	 3.1825656306e+000	-3.2759757870e-001
 3.7254698152e+000	 3.2212574651e+000	-3.7533161606e-001
 3.6919517170e+000	 3.2596192292e+000	-4.3890292653e-001
 3.6580276562e+000	 3.2976444118e+000	-4.8827564616e-001
 3.6237027281e+000	 3.3353266014e+000	-5.2420284392e-001
 3.5889821625e+000	 3.3726594903e+000	-5.4744937272e-001
 3.5538713209e+000	 3.4096368773e+000	-5.5879010335e-001
 3.5183756936e+000	 3.4462526720e+000	-5.5900815245e-001
 3.4825008974e+000	 3.4825008974e+000	-5.4889310901e-001
 3.8429482785e+000	 3.1199757257e+000	-3.8856055469e-001
 3.8105134468e+000	 3.1595074414e+000	-3.7882538266e-001
 3.7776560634e+000	 3.1987207860e+000	-3.6000978838e-001
 3.7443808295e+000	 3.2376090258e+000	-3.5358045474e-001
 3.7106925887e+000	 3.2761655197e+000	-4.2760464078e-001
 3.6765963245e+000	 3.3143837235e+000	-4.8548808449e-001
 3.6420971582e+000	 3.3522571933e+000	-5.2804164167e-001
 3.6072003461e+000	 3.3897795892e+000	-5.5608970205e-001
 3.5719112768e+000	 3.4269446787e+000	-5.7046834673e-001
 3.5362354687e+000	 3.4637463403e+000	-5.7202349758e-001
 3.5001785669e+000	 3.5001785669e+000	-5.6160906318e-001
 3.8623571082e+000	 3.1357331788e+000	-3.9225390635e-001
 3.8297584642e+000	 3.1754645497e+000	-3.9555213506e-001
 3.7967351344e+000	 3.2148759415e+000	-3.8961424608e-001
 3.7632918438e+000	 3.2539605865e+000	-3.7549897184e-001
 3.7294334603e+000	 3.2927118102e+000	-4.1728853441e-001
 3.6951649928e+000	 3.3311230352e+000	-4.8433362264e-001
 3.6604915883e+000	 3.3691877852e+000	-5.3418208474e-001
 3.6254185297e+000	 3.4068996881e+000	-5.6771774345e-001
 3.5899512327e+000	 3.4442524801e+000	-5.8583777333e-001
 3.5540952438e+000	 3.4812400087e+000	-5.8945077143e-001
 3.5178562364e+000	 3.5178562364e+000	-5.7947482246e-001
 3.8817659379e+000	 3.1514906320e+000	-3.9028100653e-001
 3.8490034816e+000	 3.1914216579e+000	-4.0892619204e-001
 3.8158142054e+000	 3.2310310970e+000	-4.1642903204e-001
 3.7822028581e+000	 3.2703121473e+000	-4.1390403386e-001
 3.7481743320e+000	 3.3092581007e+000	-4.0794693098e-001
 3.7137336611e+000	 3.3478623470e+000	-4.8479303379e-001
 3.6788860184e+000	 3.3861183771e+000	-5.4259315699e-001
 3.6436367132e+000	 3.4240197871e+000	-5.8229045916e-001
 3.6079911887e+000	 3.4615602815e+000	-6.0484309814e-001
 3.5719550189e+000	 3.4987336771e+000	-6.1122222288e-001
 3.5355339060e+000	 3.5355339059e+000	-6.0240995787e-001
 3.3587572107e+000	 3.3587572106e+000	-6.1095941489e-001
 3.3237969933e+000	 3.3933572679e+000	-6.0937619078e-001
 3.2884822674e+000	 3.4275916292e+000	-5.9387713101e-001
 3.2528187977e+000	 3.4614548776e+000	-5.6520799692e-001
 3.2168124582e+000	 3.4949417175e+000	-5.2412044559e-001
 3.1804692296e+000	 3.5280469781e+000	-4.7137044916e-001
 3.1437951957e+000	 3.5607656154e+000	-4.0771672833e-001
 3.1067965399e+000	 3.5930927152e+000	-4.1217174352e-001
 3.0694795422e+000	 3.6250234951e+000	-4.7967145383e-001
 3.0318505751e+000	 3.6565533075e+000	-5.2524513337e-001
 2.9939161004e+000	 3.6876776410e+000	-5.4775955603e-001
 3.3764348802e+000	 3.3764348802e+000	-5.8532335857e-001
 3.3412906616e+000	 3.4112170430e+000	-5.8379232728e-001
 3.3057900689e+000	 3.4456315852e+000	-5.6973785234e-001
 3.2699388967e+000	 3.4796730611e+000	-5.4389862577e-001
 3.2337430501e+000	 3.5133361476e+000	-5.0701773494e-001
 3.1972085414e+000	 3.5466156464e+000	-4.5984107984e-001
 3.1603414862e+000	 3.5795064871e+000	-4.0311580703e-001
 3.1231481007e+000	 3.6120037295e+000	-3.4535334849e-001
 3.0856346977e+000	 3.6441025662e+000	-4.2182992148e-001
 3.0478076834e+000	 3.6757983249e+000	-4.7721547626e-001
 3.0096735536e+000	 3.7070864707e+000	-5.1032050882e-001
 3.3941125497e+000	 3.3941125497e+000	-5.6541745598e-001
 3.3587843300e+000	 3.4290768181e+000	-5.6358316651e-001
 3.3230978703e+000	 3.4636715411e+000	-5.5060450712e-001
 3.2870589956e+000	 3.4978912447e+000	-5.2721346760e-001
 3.2506736420e+000	 3.5317305777e+000	-4.9414493807e-001
 3.2139478531e+000	 3.5651843147e+000	-4.5213512388e-001
 3.1768877767e+000	 3.5982473587e+000	-4.0191997930e-001
 3.1394996614e+000	 3.6309147437e+000	-3.4423366411e-001
 3.1017898531e+000	 3.6631816372e+000	-3.7016007435e-001
 3.0637647916e+000	 3.6950433423e+000	-4.3503592259e-001
 3.0254310067e+000	 3.7264953004e+000	-4.7838995843e-001
 3.4117902192e+000	 3.4117902192e+000	-5.5115682760e-001
 3.3762779984e+000	 3.4469365932e+000	-5.4866788502e-001
 3.3404056717e+000	 3.4817114971e+000	-5.3640058729e-001
 3.3041790945e+000	 3.5161094283e+000	-5.1508058788e-001
 3.2676042339e+000	 3.5501250078e+000	-4.8543495086e-001
 3.2306871648e+000	 3.5837529830e+000	-4.4819056278e-001
 3.1934340672e+000	 3.6169882304e+000	-4.0407256584e-001
 3.1558512221e+000	 3.6498257580e+000	-3.5380281609e-001
 3.1179450086e+000	 3.6822607082e+000	-3.2472512684e-001
 3.0797218999e+000	 3.7142883597e+000	-3.9877810174e-001
 3.0411884599e+000	 3.7459041300e+000	-4.5204811274e-001
 3.4294678888e+000	 3.4294678888e+000	-5.4245727989e-001
 3.3937716668e+000	 3.4647963683e+000	-5.3896624076e-001
 3.3577134731e+000	 3.4997514530e+000	-5.2705005688e-001
 3.3212991935e+000	 3.5343276118e+000	-5.0742841019e-001
 3.2845348258e+000	 3.5685194379e+000	-4.8082090856e-001
 3.2474264766e+000	 3.6023216513e+000	-4.4794549423e-001
 3.2099803577e+000	 3.6357291020e+000	-4.0951687581e-001
 3.1722027829e+000	 3.6687367723e+000	-3.6624498775e-001
 3.1341001641e+000	 3.7013397793e+000	-3.1883348105e-001
 3.0956790082e+000	 3.7335333771e+000	-3.6851322191e-001
 3.0569459131e+000	 3.7653129597e+000	-4.1662773106e-001
 3.4471455583e+000	 3.4471455583e+000	-5.3923528767e-001
 3.4112653352e+000	 3.4826561434e+000	-5.3439855814e-001
 3.3750212745e+000	 3.5177914090e+000	-5.2247733986e-001
 3.3384192924e+000	 3.5525457954e+000	-5.0418570696e-001
 3.3014654177e+000	 3.5869138680e+000	-4.8023617974e-001
 3.2641657883e+000	 3.6208903196e+000	-4.5133812912e-001
 3.2265266482e+000	 3.6544699737e+000	-4.1819620713e-001
 3.1885543436e+000	 3.6876477866e+000	-3.8150880695e-001
 3.1502553196e+000	 3.7204188503e+000	-3.4196655677e-001
 3.1116361165e+000	 3.7527783945e+000	-3.4172434815e-001
 3.0727033662e+000	 3.7847217894e+000	-3.8328493382e-001
 3.4648232278e+000	 3.4648232278e+000	-5.4140797707e-001
 3.4287590036e+000	 3.5005159185e+000	-5.3488571361e-001
 3.3923290759e+000	 3.5358313649e+000	-5.2260730845e-001
 3.3555393913e+000	 3.5707639790e+000	-5.0528159061e-001
 3.3183960095e+000	 3.6053082981e+000	-4.8361436025e-001
 3.2809051000e+000	 3.6394589879e+000	-4.5830678870e-001
 3.2430729387e+000	 3.6732108454e+000	-4.3005384676e-001
 3.2049059043e+000	 3.7065588009e+000	-3.9954276505e-001
 3.1664104751e+000	 3.7394979213e+000	-3.6745153036e-001
 3.1275932248e+000	 3.7720234120e+000	-3.1404380786e-001
 3.0884608194e+000	 3.8041306191e+000	-3.5580905291e-001
 3.4825008974e+000	 3.4825008974e+000	-5.4889310901e-001
 3.4462526720e+000	 3.5183756936e+000	-5.4034912164e-001
 3.4096368773e+000	 3.5538713209e+000	-5.2736527171e-001
 3.3726594903e+000	 3.5889821625e+000	-5.1064550490e-001
 3.3353266014e+000	 3.6237027281e+000	-4.9088926754e-001
 3.2976444118e+000	 3.6580276562e+000	-4.6878990172e-001
 3.2596192292e+000	 3.6919517170e+000	-4.4503307100e-001
 3.2212574651e+000	 3.7254698152e+000	-4.2029522045e-001
 3.1825656306e+000	 3.7585769923e+000	-3.8778488647e-001
 3.1435503331e+000	 3.7912684294e+000	-3.3249080299e-001
 3.1042182725e+000	 3.8235394488e+000	-3.3399191335e-001
 3.5001785669e+000	 3.5001785669e+000	-5.6160906318e-001
 3.4637463403e+000	 3.5362354687e+000	-5.5071072113e-001
 3.4269446787e+000	 3.5719112768e+000	-5.3667696455e-001
 3.3897795892e+000	 3.6072003461e+000	-5.2020721660e-001
 3.3522571933e+000	 3.6420971582e+000	-5.0199493499e-001
 3.3143837235e+000	 3.6765963245e+000	-4.8272600176e-001
 3.2761655197e+000	 3.7106925887e+000	-4.6307714574e-001
 3.2376090258e+000	 3.7443808295e+000	-4.4371440191e-001
 3.1987207860e+000	 3.7776560634e+000	-4.0135246502e-001
 3.1595074414e+000	 3.8105134468e+000	-3.5290163748e-001
 3.1199757257e+000	 3.8429482785e+000	-3.1762482945e-001
 3.5178562364e+000	 3.5178562364e+000	-5.7947482246e-001
 3.4812400087e+000	 3.5540952438e+000	-5.6589296222e-001
 3.4442524801e+000	 3.5899512327e+000	-5.5046853697e-001
 3.4068996881e+000	 3.6254185297e+000	-5.3389680730e-001
 3.3691877852e+000	 3.6604915883e+000	-5.1686560655e-001
 3.3311230352e+000	 3.6951649928e+000	-5.0005372459e-001
 3.2927118102e+000	 3.7294334603e+000	-4.8412932672e-001
 3.2539605865e+000	 3.7632918438e+000	-4.5904721302e-001
 3.2148759415e+000	 3.7967351344e+000	-4.1723092784e-001
 3.1754645497e+000	 3.8297584642e+000	-3.7517587350e-001
 3.1357331788e+000	 3.8623571082e+000	-3.3408431895e-001
 3.5355339060e+000	 3.5355339059e+000	-6.0240995787e-001
 3.4987336771e+000	 3.5719550189e+000	-5.8581879354e-001
 3.4615602815e+000	 3.6079911887e+000	-5.6866654374e-001
 3.4240197871e+000	 3.6436367132e+000	-5.5164466564e-001
 3.3861183771e+000	 3.6788860184e+000	-5.3543573142e-001
 3.3478623470e+000	 3.7137336611e+000	-5.2071180557e-001
 3.3092581007e+000	 3.7481743320e+000	-5.0813285980e-001
 3.2703121473e+000	 3.7822028581e+000	-4.7248187145e-001
 3.2310310970e+000	 3.8158142054e+000	-4.3531470891e-001
 3.1914216579e+000	 3.8490034816e+000	-3.9921271210e-001
 3.1514906320e+000	 3.8817659379e+000	-3.6537441752e-001
 2.9939161004e+000	 3.6876776410e+000	-5.4775955603e-001
 2.9556826656e+000	 3.7183921230e+000	-6.0101821193e-001
 2.9171568997e+000	 3.7486925218e+000	-6.4167714759e-001
 2.8783455100e+000	 3.7785747479e+000	-6.4294563631e-001
 2.8392552779e+000	 3.8080348563e+000	-6.3510388029e-001
 2.7998930552e+000	 3.8370690480e+000	-6.2103136812e-001
 2.7602657603e+000	 3.8656736713e+000	-6.0227920525e-001
 2.7203803739e+000	 3.8938452231e+000	-5.8034405937e-001
 2.6802439354e+000	 3.9215803507e+000	-5.5666582345e-001
 2.6398635388e+000	 3.9488758523e+000	-5.3262546703e-001
 2.5992463286e+000	 3.9757286783e+000	-5.0954307850e-001
 3.0096735536e+000	 3.7070864707e+000	-5.1032050882e-001
 2.9712388901e+000	 3.7379626079e+000	-5.6948198642e-001
 2.9325103571e+000	 3.7684224824e+000	-5.9744514759e-001
 2.8934946969e+000	 3.7984619834e+000	-6.0339972696e-001
 2.8541987267e+000	 3.8280771451e+000	-6.0103809808e-001
 2.8146293345e+000	 3.8572641483e+000	-5.9196257982e-001
 2.7747934748e+000	 3.8860193222e+000	-5.7772286329e-001
 2.7346981653e+000	 3.9143391453e+000	-5.5981347803e-001
 2.6943504824e+000	 3.9422202473e+000	-5.3967144542e-001
 2.6537575574e+000	 3.9696594094e+000	-5.1867412279e-001
 2.6129265724e+000	 3.9966535661e+000	-4.9813724151e-001
 3.0254310067e+000	 3.7264953004e+000	-4.7838995843e-001
 2.9867951147e+000	 3.7575330927e+000	-5.3565654181e-001
 2.9478638144e+000	 3.7881524430e+000	-5.5743524425e-001
 2.9086438838e+000	 3.8183492189e+000	-5.6878080948e-001
 2.8691421756e+000	 3.8481194338e+000	-5.7134607642e-001
 2.8293656137e+000	 3.8774592485e+000	-5.6673324839e-001
 2.7893211894e+000	 3.9063649731e+000	-5.5649116066e-001
 2.7490159568e+000	 3.9348330675e+000	-5.4211273374e-001
 2.7084570295e+000	 3.9628601438e+000	-5.2503261645e-001
 2.6676515760e+000	 3.9904429665e+000	-5.0662502262e-001
 2.6266068162e+000	 4.0175784539e+000	-4.8820176432e-001
 3.0411884599e+000	 3.7459041300e+000	-4.5204811274e-001
 3.0023513392e+000	 3.7771035776e+000	-4.9567955515e-001
 2.9632172718e+000	 3.8078824037e+000	-5.2273144588e-001
 2.9237930707e+000	 3.8382364544e+000	-5.3890328622e-001
 2.8840856244e+000	 3.8681617225e+000	-5.4584913824e-001
 2.8441018930e+000	 3.8976543488e+000	-5.4517167549e-001
 2.8038489039e+000	 3.9267106240e+000	-5.3841943433e-001
 2.7633337482e+000	 3.9553269898e+000	-5.2708425352e-001
 2.7225635765e+000	 3.9835000404e+000	-5.1259890659e-001
 2.6815455947e+000	 4.0112265236e+000	-4.9633493049e-001
 2.6402870601e+000	 4.0385033416e+000	-4.7960065371e-001
 3.0569459131e+000	 3.7653129597e+000	-4.1662773106e-001
 3.0179075638e+000	 3.7966740624e+000	-4.6139117560e-001
 2.9785707292e+000	 3.8276123643e+000	-4.9314038954e-001
 2.9389422576e+000	 3.8581236899e+000	-5.1358048877e-001
 2.8990290732e+000	 3.8882040112e+000	-5.2436737130e-001
 2.8588381722e+000	 3.9178494490e+000	-5.2710476535e-001
 2.8183766184e+000	 3.9470562748e+000	-5.2334146361e-001
 2.7776515397e+000	 3.9758209120e+000	-5.1456874875e-001
 2.7366701235e+000	 4.0041399370e+000	-5.0221801444e-001
 2.6954396133e+000	 4.0320100807e+000	-4.8765858552e-001
 2.6539673039e+000	 4.0594282294e+000	-4.7219574058e-001
 3.0727033662e+000	 3.7847217894e+000	-3.8328493382e-001
 3.0334637884e+000	 3.8162445473e+000	-4.3259069138e-001
 2.9939241865e+000	 3.8473423250e+000	-4.6846783099e-001
 2.9540914445e+000	 3.8780109254e+000	-4.9262470535e-001
 2.9139725220e+000	 3.9082462999e+000	-5.0671965992e-001
 2.8735744514e+000	 3.9380445493e+000	-5.1235806055e-001
 2.8329043329e+000	 3.9674019257e+000	-5.1108951009e-001
 2.7919693311e+000	 3.9963148342e+000	-5.0440525914e-001
 2.7507766705e+000	 4.0247798336e+000	-4.9373581518e-001
 2.7093336319e+000	 4.0527936378e+000	-4.8044875390e-001
 2.6676475477e+000	 4.0803531172e+000	-4.6584673573e-001
 3.0884608194e+000	 3.8041306191e+000	-3.5580905291e-001
 3.0490200129e+000	 3.8358150322e+000	-4.0907669161e-001
 3.0092776439e+000	 3.8670722856e+000	-4.4851866721e-001
 2.9692406314e+000	 3.8978981609e+000	-4.7584720747e-001
 2.9289159709e+000	 3.9282885886e+000	-4.9272371562e-001
 2.8883107307e+000	 3.9582396495e+000	-5.0075577681e-001
 2.8474320475e+000	 3.9877475766e+000	-5.0149435640e-001
 2.8062871225e+000	 4.0168087564e+000	-4.9643119537e-001
 2.7648832176e+000	 4.0454197301e+000	-4.8699640708e-001
 2.7232276505e+000	 4.0735771949e+000	-4.7455627922e-001
 2.6813277916e+000	 4.1012780050e+000	-4.6041128391e-001
 3.1042182725e+000	 3.8235394488e+000	-3.3399191335e-001
 3.0645762375e+000	 3.8553855170e+000	-3.9064708407e-001
 3.0246311013e+000	 3.8868022462e+000	-4.3309695816e-001
 2.9843898182e+000	 3.9177853965e+000	-4.6305827573e-001
 2.9438594197e+000	 3.9483308773e+000	-4.8219610694e-001
 2.9030470099e+000	 3.9784347498e+000	-4.9212083664e-001
 2.8619597620e+000	 4.0080932275e+000	-4.9438534368e-001
 2.8206049140e+000	 4.0373026787e+000	-4.9048238043e-001
 2.7789897646e+000	 4.0660596267e+000	-4.8184215658e-001
 2.7371216692e+000	 4.0943607521e+000	-4.6983013126e-001
 2.6950080354e+000	 4.1222028927e+000	-4.5574501632e-001
 3.1199757257e+000	 3.8429482785e+000	-3.1762482945e-001
 3.0801324620e+000	 3.8749560019e+000	-3.7709911239e-001
 3.0399845586e+000	 3.9065322069e+000	-4.2200594796e-001
 2.9995390051e+000	 3.9376726320e+000	-4.5406722483e-001
 2.9588028685e+000	 3.9683731661e+000	-4.7495228825e-001
 2.9177832891e+000	 3.9986298500e+000	-4.8627490197e-001
 2.8764874765e+000	 4.0284388784e+000	-4.8959040804e-001
 2.8349227054e+000	 4.0577966009e+000	-4.8639308975e-001
 2.7930963116e+000	 4.0866995233e+000	-4.7811374205e-001
 2.7510156878e+000	 4.1151443092e+000	-4.6611745332e-001
 2.7086882792e+000	 4.1431277805e+000	-4.5170160142e-001
 3.1357331788e+000	 3.8623571082e+000	-3.3408431895e-001
 3.0956886866e+000	 3.8945264867e+000	-3.6822937277e-001
 3.0553380160e+000	 3.9262621675e+000	-4.1504808533e-001
 3.0146881920e+000	 3.9575598675e+000	-4.4868242786e-001
 2.9737463174e+000	 3.9884154548e+000	-4.7080662779e-001
 2.9325195684e+000	 4.0188249503e+000	-4.8303840587e-001
 2.8910151910e+000	 4.0487845293e+000	-4.8693611581e-001
 2.8492404969e+000	 4.0782905231e+000	-4.8399609003e-001
 2.8072028587e+000	 4.1073394199e+000	-4.7565019619e-001
 2.7649097064e+000	 4.1359278663e+000	-4.6326360809e-001
 2.7223685231e+000	 4.1640526683e+000	-4.4813279422e-001
 3.1514906320e+000	 3.8817659379e+000	-3.6537441752e-001
 3.1112449111e+000	 3.9140969716e+000	-3.6383383013e-001
 3.0706914733e+000	 3.9459921281e+000	-4.1202504351e-001
 3.0298373789e+000	 3.9774471030e+000	-4.4671133982e-001
 2.9886897662e+000	 4.0084577435e+000	-4.6957243479e-001
 2.9472558476e+000	 4.0390200505e+000	-4.8223058326e-001
 2.9055429056e+000	 4.0691301802e+000	-4.8624769784e-001
 2.8635582883e+000	 4.0987844453e+000	-4.8312267701e-001
 2.8213094057e+000	 4.1279793165e+000	-4.7428894715e-001
 2.7788037250e+000	 4.1567114234e+000	-4.6111222222e-001
 2.7360487669e+000	 4.1849775561e+000	-4.4488848418e-001
 2.5992463286e+000	 3.9757286783e+000	-5.0954307850e-001
 2.5583994957e+000	 4.0021359322e+000	-4.4259119966e-001
 2.5173302738e+000	 4.0280948713e+000	-3.7727167998e-001
 2.4760459347e+000	 4.0536029072e+000	-3.4309499529e-001
 2.4345537848e+000	 4.0786576062e+000	-3.3547443944e-001
 2.3928611605e+000	 4.1032566903e+000	-3.3370965956e-001
 2.3509754247e+000	 4.1273980366e+000	-3.3696107518e-001
 2.3089039626e+000	 4.1510796778e+000	-3.4438603476e-001
 2.2666541773e+000	 4.1742998024e+000	-3.5514058995e-001
 2.2242334862e+000	 4.1970567543e+000	-3.6838127399e-001
 2.1816493170e+000	 4.2193490324e+000	-3.8326687947e-001
 2.6129265724e+000	 3.9966535661e+000	-4.9813724151e-001
 2.5718647562e+000	 4.0231998056e+000	-4.3036574382e-001
 2.5305793805e+000	 4.0492953706e+000	-3.6396839847e-001
 2.4890777554e+000	 4.0749376593e+000	-3.1312111102e-001
 2.4473672257e+000	 4.1001242252e+000	-3.0414041379e-001
 2.4054551666e+000	 4.1248527781e+000	-3.0064177303e-001
 2.3633489796e+000	 4.1491211841e+000	-3.0184833262e-001
 2.3210560887e+000	 4.1729274656e+000	-3.0697957112e-001
 2.2785839361e+000	 4.1962698014e+000	-3.1525303140e-001
 2.2359399782e+000	 4.2191465267e+000	-3.2588605610e-001
 2.1931316818e+000	 4.2415561326e+000	-3.3809752412e-001
 2.6266068162e+000	 4.0175784539e+000	-4.8820176432e-001
 2.5853300167e+000	 4.0442636789e+000	-4.2093028944e-001
 2.5438284872e+000	 4.0704958700e+000	-3.5479282028e-001
 2.5021095762e+000	 4.0962724114e+000	-2.9089596969e-001
 2.4601806667e+000	 4.1215908442e+000	-2.7944413288e-001
 2.4180491727e+000	 4.1464488660e+000	-2.7566872667e-001
 2.3757225345e+000	 4.1708443317e+000	-2.7629264476e-001
 2.3332082148e+000	 4.1947752533e+000	-2.8059663692e-001
 2.2905136949e+000	 4.2182398003e+000	-2.8785887619e-001
 2.2476464703e+000	 4.2412362991e+000	-2.9735665233e-001
 2.2046140466e+000	 4.2637632328e+000	-3.0836806811e-001
 2.6402870601e+000	 4.0385033416e+000	-4.7960065371e-001
 2.5987952773e+000	 4.0653275522e+000	-4.1412924630e-001
 2.5570775939e+000	 4.0916963693e+000	-3.4956986702e-001
 2.5151413969e+000	 4.1176071636e+000	-2.8712407882e-001
 2.4729941077e+000	 4.1430574632e+000	-2.6126521067e-001
 2.4306431788e+000	 4.1680449538e+000	-2.5865221502e-001
 2.3880960893e+000	 4.1925674792e+000	-2.6013783279e-001
 2.3453603409e+000	 4.2166230411e+000	-2.6506323343e-001
 2.3024434537e+000	 4.2402097993e+000	-2.7276636633e-001
 2.2593529623e+000	 4.2633260715e+000	-2.8258361333e-001
 2.2160964114e+000	 4.2859703329e+000	-2.9385144557e-001
 2.6539673039e+000	 4.0594282294e+000	-4.7219574058e-001
 2.6122605378e+000	 4.0863914255e+000	-4.0980525409e-001
 2.5703267006e+000	 4.1128968686e+000	-3.4812309713e-001
 2.5281732176e+000	 4.1389419157e+000	-2.8844534580e-001
 2.4858075487e+000	 4.1645240822e+000	-2.4948271463e-001
 2.4432371849e+000	 4.1896410417e+000	-2.4945379551e-001
 2.4004696442e+000	 4.2142906268e+000	-2.5322799052e-001
 2.3575124671e+000	 4.2384708289e+000	-2.6020604448e-001
 2.3143732126e+000	 4.2621797983e+000	-2.6978483643e-001
 2.2710594543e+000	 4.2854158438e+000	-2.8135899210e-001
 2.2275787763e+000	 4.3081774331e+000	-2.9432250244e-001
 2.6676475477e+000	 4.0803531172e+000	-4.6584673573e-001
 2.6257257983e+000	 4.1074552989e+000	-4.0779922773e-001
 2.5835758073e+000	 4.1340973679e+000	-3.5027474083e-001
 2.5412050383e+000	 4.1602766679e+000	-2.9466343695e-001
 2.4986209896e+000	 4.1859907011e+000	-2.4397517977e-001
 2.4558311910e+000	 4.2112371295e+000	-2.4793489190e-001
 2.4128431991e+000	 4.2360137743e+000	-2.5540747738e-001
 2.3696645932e+000	 4.2603186167e+000	-2.6585241899e-001
 2.3263029714e+000	 4.2841497972e+000	-2.7872468560e-001
 2.2827659464e+000	 4.3075056162e+000	-2.9347630547e-001
 2.2390611411e+000	 4.3303845333e+000	-3.0955794747e-001
 2.6813277916e+000	 4.1012780050e+000	-4.6041128391e-001
 2.6391910588e+000	 4.1285191722e+000	-4.0795040141e-001
 2.5968249141e+000	 4.1552978673e+000	-3.5584573400e-001
 2.5542368590e+000	 4.1816114200e+000	-3.0558111161e-001
 2.5114344306e+000	 4.2074573201e+000	-2.5856613554e-001
 2.4684251971e+000	 4.2328332174e+000	-2.5395679778e-001
 2.4252167539e+000	 4.2577369219e+000	-2.6652091163e-001
 2.3818167193e+000	 4.2821664045e+000	-2.8183035396e-001
 2.3382327302e+000	 4.3061197962e+000	-2.9939735033e-001
 2.2944724384e+000	 4.3295953886e+000	-3.1873049679e-001
 2.2505435059e+000	 4.3525916335e+000	-3.3933630464e-001
 2.6950080354e+000	 4.1222028927e+000	-4.5574501632e-001
 2.6526563193e+000	 4.1495830455e+000	-4.1009637124e-001
 2.6100740208e+000	 4.1764983666e+000	-3.6465575104e-001
 2.5672686797e+000	 4.2029461722e+000	-3.2100024515e-001
 2.5242478716e+000	 4.2289239391e+000	-2.8063083167e-001
 2.4810192032e+000	 4.2544293052e+000	-2.6738067980e-001
 2.4375903088e+000	 4.2794600695e+000	-2.8641316378e-001
 2.3939688454e+000	 4.3040141922e+000	-3.0796847804e-001
 2.3501624891e+000	 4.3280897951e+000	-3.3161527818e-001
 2.3061789304e+000	 4.3516851610e+000	-3.5691789969e-001
 2.2620258708e+000	 4.3747987336e+000	-3.8343786716e-001
 2.7086882792e+000	 4.1431277805e+000	-4.5170160142e-001
 2.6661215798e+000	 4.1706469189e+000	-4.1407313660e-001
 2.6233231275e+000	 4.1976988659e+000	-3.7652323670e-001
 2.5803005004e+000	 4.2242809243e+000	-3.4072185129e-001
 2.5370613125e+000	 4.2503905581e+000	-3.0826091011e-001
 2.4936132094e+000	 4.2760253930e+000	-2.8806758089e-001
 2.4499638637e+000	 4.3011832170e+000	-3.1492935029e-001
 2.4061209716e+000	 4.3258619800e+000	-3.4409603558e-001
 2.3620922479e+000	 4.3500597941e+000	-3.7519190219e-001
 2.3178854225e+000	 4.3737749334e+000	-4.0783620295e-001
 2.2735082356e+000	 4.3970058338e+000	-4.0157637280e-001
 2.7223685231e+000	 4.1640526683e+000	-4.4813279422e-001
 2.6795868403e+000	 4.1917107922e+000	-4.1971514028e-001
 2.6365722342e+000	 4.2188993652e+000	-3.9126543703e-001
 2.5933323211e+000	 4.2456156764e+000	-3.6454610375e-001
 2.5498747535e+000	 4.2718571771e+000	-3.4123960548e-001
 2.5062072155e+000	 4.2976214809e+000	-3.2294687885e-001
 2.4623374186e+000	 4.3229063646e+000	-3.5191482728e-001
 2.4182730977e+000	 4.3477097678e+000	-3.9004287116e-001
 2.3740220067e+000	 4.3720297931e+000	-4.2994161620e-001
 2.3295919145e+000	 4.3958647058e+000	-4.3423424041e-001
 2.2849906004e+000	 4.4192129340e+000	-4.2796489771e-001
 2.7360487669e+000	 4.1849775561e+000	-4.4488848418e-001
 2.6930521008e+000	 4.2127746655e+000	-4.2685530737e-001
 2.6498213409e+000	 4.2400998645e+000	-4.0869842928e-001
 2.6063641418e+000	 4.2669504286e+000	-3.9227235726e-001
 2.5626881945e+000	 4.2933237960e+000	-3.7934968382e-001
 2.5188012216e+000	 4.3192175687e+000	-3.7161942686e-001
 2.4747109734e+000	 4.3446295122e+000	-3.9721518465e-001
 2.4304252238e+000	 4.3695575556e+000	-4.4563941459e-001
 2.3859517656e+000	 4.3939997920e+000	-4.6332136646e-001
 2.3412984066e+000	 4.4179544782e+000	-4.6588051130e-001
 2.2964729653e+000	 4.4414200342e+000	-4.6277957535e-001
 2.1816493170e+000	 4.2193490324e+000	-3.8326687947e-001
 2.1389091034e+000	 4.2411752908e+000	-4.0144057216e-001
 2.0960202818e+000	 4.2625343375e+000	-4.2131866395e-001
 2.0529902865e+000	 4.2834251345e+000	-4.4241094181e-001
 2.0098265468e+000	 4.3038467969e+000	-4.6423130870e-001
 1.9665364825e+000	 4.3237985918e+000	-4.8629920400e-001
 1.9231275005e+000	 4.3432799376e+000	-5.0814100658e-001
 1.8796069909e+000	 4.3622904030e+000	-5.2929141665e-001
 1.8359823234e+000	 4.3808297054e+000	-4.2084047675e-001
 1.7922608439e+000	 4.3988977105e+000	-3.0331413230e-001
 1.7484498704e+000	 4.4164944300e+000	-2.0677179761e-001
 2.1931316818e+000	 4.2415561326e+000	-3.3809752412e-001
 2.1501665198e+000	 4.2634972660e+000	-3.5864093515e-001
 2.1070519675e+000	 4.2849687287e+000	-3.8034909711e-001
 2.0637954986e+000	 4.3059694774e+000	-4.0271961955e-001
 2.0204045813e+000	 4.3264986222e+000	-4.2525463136e-001
 1.9768866745e+000	 4.3465554265e+000	-4.4746222554e-001
 1.9332492242e+000	 4.3661393057e+000	-4.6885788576e-001
 1.8894996592e+000	 4.3852498261e+000	-4.7459442464e-001
 1.8456453883e+000	 4.4038867039e+000	-3.8245057217e-001
 1.8016937957e+000	 4.4220498037e+000	-2.6636844120e-001
 1.7576522382e+000	 4.4397391376e+000	-1.7056181526e-001
 2.2046140466e+000	 4.2637632328e+000	-3.0836806811e-001
 2.1614239361e+000	 4.2858192412e+000	-3.3148767564e-001
 2.1180836532e+000	 4.3074031200e+000	-3.5524021692e-001
 2.0746007106e+000	 4.3285138202e+000	-3.7911080860e-001
 2.0309826157e+000	 4.3491504474e+000	-4.0258948428e-001
 1.9872368665e+000	 4.3693122612e+000	-4.2517266393e-001
 1.9433709479e+000	 4.3889986738e+000	-4.2484530167e-001
 1.8993923276e+000	 4.4082092493e+000	-4.1419974870e-001
 1.8553084531e+000	 4.4269437023e+000	-3.4990509293e-001
 1.8111267475e+000	 4.4452018969e+000	-2.3530611995e-001
 1.7668546059e+000	 4.4629838451e+000	-1.4026717012e-001
 2.2160964114e+000	 4.2859703329e+000	-2.9385144557e-001
 2.1726813525e+000	 4.3081412164e+000	-3.1975590943e-001
 2.1291153389e+000	 4.3298375112e+000	-3.4576928694e-001
 2.0854059226e+000	 4.3510581630e+000	-3.7136388472e-001
 2.0415606502e+000	 4.3718022727e+000	-3.9601731800e-001
 1.9975870585e+000	 4.3920690959e+000	-3.9108266116e-001
 1.9534926715e+000	 4.4118580419e+000	-3.7845754367e-001
 1.9092849960e+000	 4.4311686725e+000	-3.6386219571e-001
 1.8649715180e+000	 4.4500007008e+000	-3.2325292887e-001
 1.8205596993e+000	 4.4683539901e+000	-2.1017374323e-001
 1.7760569736e+000	 4.4862285526e+000	-1.1593191809e-001
 2.2275787763e+000	 4.3081774331e+000	-2.9432250244e-001
 2.1839387688e+000	 4.3304631916e+000	-3.2322266649e-001
 2.1401470246e+000	 4.3522719025e+000	-3.5171548913e-001
 2.0962111347e+000	 4.3736025058e+000	-3.7926014798e-001
 2.0521386846e+000	 4.3944540979e+000	-3.7158517094e-001
 2.0079372506e+000	 4.4148259306e+000	-3.5812204618e-001
 1.9636143952e+000	 4.4347174100e+000	-3.4185374719e-001
 1.9191776644e+000	 4.4541280956e+000	-3.2340593340e-001
 1.8746345829e+000	 4.4730576992e+000	-3.0254495017e-001
 1.8299926511e+000	 4.4915060834e+000	-1.9101988239e-001
 1.7852593414e+000	 4.5094732602e+000	-9.7602129748e-002
 2.2390611411e+000	 4.3303845333e+000	-3.0955794747e-001
 2.1951961851e+000	 4.3527851668e+000	-3.4166684192e-001
 2.1511787103e+000	 4.3747062937e+000	-3.7285987459e-001
 2.1070163467e+000	 4.3961468486e+000	-3.6462556769e-001
 2.0627167191e+000	 4.4171059232e+000	-3.5149836174e-001
 2.0182874426e+000	 4.4375827653e+000	-3.3468573906e-001
 1.9737361189e+000	 4.4575767781e+000	-3.1485989648e-001
 1.9290703327e+000	 4.4770875188e+000	-2.9265704481e-001
 1.8842976477e+000	 4.4961146977e+000	-2.6867730103e-001
 1.8394256029e+000	 4.5146581766e+000	-1.7789505424e-001
 1.7944617091e+000	 4.5327179677e+000	-8.5325838719e-002
 2.2505435059e+000	 4.3525916335e+000	-3.3933630464e-001
 2.2064536015e+000	 4.3751071420e+000	-3.7468550824e-001
 2.1622103960e+000	 4.3971406850e+000	-3.6846895955e-001
 2.1178215587e+000	 4.4186911914e+000	-3.5688525895e-001
 2.0732947536e+000	 4.4397577484e+000	-3.4068964661e-001
 2.0286376346e+000	 4.4603396000e+000	-3.2060145955e-001
 1.9838578426e+000	 4.4804361462e+000	-2.9730382991e-001
 1.9389630011e+000	 4.5000469420e+000	-2.7144347934e-001
 1.8939607126e+000	 4.5191716961e+000	-2.4363060750e-001
 1.8488585547e+000	 4.5378102698e+000	-1.7085167145e-001
 1.8036640769e+000	 4.5559626752e+000	-7.9152991577e-002
 2.2620258708e+000	 4.3747987336e+000	-3.8343786716e-001
 2.2177110178e+000	 4.3974291173e+000	-3.8137106210e-001
 2.1732420817e+000	 4.4195750762e+000	-3.7257342149e-001
 2.1286267708e+000	 4.4412355342e+000	-3.5819019926e-001
 2.0838727880e+000	 4.4624095737e+000	-3.3898840669e-001
 2.0389878266e+000	 4.4830964347e+000	-3.1569872407e-001
 1.9939795663e+000	 4.5032955143e+000	-2.8901519291e-001
 1.9488556695e+000	 4.5230063652e+000	-2.5959500546e-001
 1.9036237774e+000	 4.5422286946e+000	-2.2805838972e-001
 1.8582915065e+000	 4.5609623630e+000	-1.6994399440e-001
 1.8128664446e+000	 4.5792073827e+000	-7.9135399301e-002
 2.2735082356e+000	 4.3970058338e+000	-4.0157637280e-001
 2.2289684341e+000	 4.4197510925e+000	-3.9684363265e-001
 2.1842737674e+000	 4.4420094675e+000	-3.8550358124e-001
 2.1394319828e+000	 4.4637798771e+000	-3.6837136367e-001
 2.0944508225e+000	 4.4850613989e+000	-3.4622576588e-001
 2.0493380186e+000	 4.5058532694e+000	-3.1980880037e-001
 2.0041012900e+000	 4.5261548824e+000	-2.8982539234e-001
 1.9587483379e+000	 4.5459657884e+000	-2.5694316470e-001
 1.9132868423e+000	 4.5652856930e+000	-2.2179231978e-001
 1.8677244584e+000	 4.5841144562e+000	-1.7522808453e-001
 1.8220688123e+000	 4.6024520903e+000	-8.5326690192e-002
 2.2849906004e+000	 4.4192129340e+000	-4.2796489771e-001
 2.2402258505e+000	 4.4420730677e+000	-4.2093556391e-001
 2.1953054531e+000	 4.4644438587e+000	-4.0709194655e-001
 2.1502371949e+000	 4.4863242199e+000	-3.8726141941e-001
 2.1050288570e+000	 4.5077132242e+000	-3.6223454707e-001
 2.0596882107e+000	 4.5286101041e+000	-3.3276466346e-001
 2.0142230137e+000	 4.5490142505e+000	-2.9956755221e-001
 1.9686410063e+000	 4.5689252115e+000	-2.6332122718e-001
 1.9229499072e+000	 4.5883426915e+000	-2.2466581118e-001
 1.8771574102e+000	 4.6072665494e+000	-1.8420351056e-001
 1.8312711801e+000	 4.6256967978e+000	-9.7782264214e-002
 2.2964729653e+000	 4.4414200342e+000	-4.6277957535e-001
 2.2514832668e+000	 4.4643950429e+000	-4.5348084109e-001
 2.2063371388e+000	 4.4868782500e+000	-4.3717266994e-001
 2.1610424069e+000	 4.5088685627e+000	-4.1469468358e-001
 2.1156068914e+000	 4.5303650494e+000	-3.8684922963e-001
 2.0700384027e+000	 4.5513669388e+000	-3.5440095302e-001
 2.0243447374e+000	 4.5718736186e+000	-3.1807647076e-001
 1.9785336746e+000	 4.5918846347e+000	-2.7856414831e-001
 1.9326129720e+000	 4.6113996900e+000	-2.3651397535e-001
 1.8865903620e+000	 4.6304186427e+000	-1.9253753895e-001
 1.8404735478e+000	 4.6489415053e+000	-1.1655924870e-001
 1.7484498704e+000	 4.4164944300e+000	-2.0677179761e-001
 1.7045566903e+000	 4.4336200209e+000	-1.7439155420e-001
 1.6605885562e+000	 4.4502747833e+000	-1.5107951483e-001
 1.6165526831e+000	 4.4664591594e+000	-1.3559140925e-001
 1.5724562449e+000	 4.4821737314e+000	-1.2674973182e-001
 1.5283063712e+000	 4.4974192195e+000	-1.2344329647e-001
 1.4841101442e+000	 4.5121964807e+000	-1.2462665715e-001
 1.4398745957e+000	 4.5265065060e+000	-1.2931939919e-001
 1.3956067041e+000	 4.5403504190e+000	-1.3660530768e-001
 1.3513133914e+000	 4.5537294736e+000	-1.4563141855e-001
 1.3070015205e+000	 4.5666450514e+000	-1.5560695873e-001
 1.7576522382e+000	 4.4397391376e+000	-1.7056181526e-001
 1.7135280413e+000	 4.4569548631e+000	-1.3828701778e-001
 1.6693284959e+000	 4.4736972822e+000	-1.1604756038e-001
 1.6250608551e+000	 4.4899668392e+000	-1.0253095582e-001
 1.5807323304e+000	 4.5057641194e+000	-9.6492501782e-002
 1.5363500889e+000	 4.5210898470e+000	-9.6754878143e-002
 1.4919212502e+000	 4.5359448832e+000	-1.0220760663e-001
 1.4474528831e+000	 4.5503302244e+000	-1.1180637864e-001
 1.4029520026e+000	 4.5642470002e+000	-1.2457225704e-001
 1.3584255672e+000	 4.5776964708e+000	-1.3959075787e-001
 1.3138804759e+000	 4.5906800254e+000	-1.5601081832e-001
 1.7668546059e+000	 4.4629838451e+000	-1.4026717012e-001
 1.7224993923e+000	 4.4802897053e+000	-1.0715707012e-001
 1.6780684357e+000	 4.4971197811e+000	-8.5026719664e-002
 1.6335690271e+000	 4.5134745190e+000	-7.2495957091e-002
 1.5890084159e+000	 4.5293545075e+000	-6.8253445534e-002
 1.5443938066e+000	 4.5447604745e+000	-7.1056311529e-002
 1.4997323562e+000	 4.5596932857e+000	-7.9729643131e-002
 1.4550311704e+000	 4.5741539429e+000	-9.3165853201e-002
 1.4102973010e+000	 4.5881435813e+000	-1.1032391373e-001
 1.3655377429e+000	 4.6016634680e+000	-1.3022846726e-001
 1.3207594313e+000	 4.6147149993e+000	-1.5196882173e-001
 1.7760569736e+000	 4.4862285526e+000	-1.1593191809e-001
 1.7314707433e+000	 4.5036245475e+000	-8.1058057852e-002
 1.6868083755e+000	 4.5205422799e+000	-5.8085674954e-002
 1.6420771991e+000	 4.5369821988e+000	-4.5567469950e-002
 1.5972845014e+000	 4.5529448956e+000	-4.2126027641e-002
 1.5524375244e+000	 4.5684311019e+000	-4.6453496227e-002
 1.5075434623e+000	 4.5834416883e+000	-5.7311122957e-002
 1.4626094578e+000	 4.5979776614e+000	-7.3528651989e-002
 1.4176425995e+000	 4.6120401625e+000	-9.4003590351e-002
 1.3726499187e+000	 4.6256304653e+000	-1.1770034815e-001
 1.3276383866e+000	 4.6387499733e+000	-1.4364925927e-001
 1.7852593414e+000	 4.5094732602e+000	-9.7602129748e-002
 1.7404420943e+000	 4.5269593898e+000	-6.0048052463e-002
 1.6955483152e+000	 4.5439647788e+000	-3.5294540171e-002
 1.6505853711e+000	 4.5604898786e+000	-2.1827686455e-002
 1.6055605868e+000	 4.5765352836e+000	-1.8204548314e-002
 1.5604812421e+000	 4.5921017294e+000	-2.3052864993e-002
 1.5153545683e+000	 4.6071900908e+000	-3.5070630294e-002
 1.4701877451e+000	 4.6218013798e+000	-5.3025524111e-002
 1.4249878979e+000	 4.6359367437e+000	-7.5754209126e-002
 1.3797620944e+000	 4.6495974625e+000	-1.0216149884e-001
 1.3345173420e+000	 4.6627849472e+000	-1.3121940328e-001
 1.7944617091e+000	 4.5327179677e+000	-8.5325838719e-002
 1.7494134453e+000	 4.5502942320e+000	-4.4186806094e-002
 1.7042882550e+000	 4.5673872776e+000	-1.6724824184e-002
 1.6590935431e+000	 4.5839975584e+000	-1.3599047585e-003
 1.6138366723e+000	 4.6001256717e+000	 3.4158780163e-003
 1.5685249599e+000	 4.6157723569e+000	-9.6137007058e-004
 1.5231656743e+000	 4.6309384933e+000	-1.3126971377e-002
 1.4777660325e+000	 4.6456250983e+000	-3.1787140718e-002
 1.4323331963e+000	 4.6598333248e+000	-5.5718311890e-002
 1.3868742701e+000	 4.6735644597e+000	-8.3766332613e-002
 1.3413962974e+000	 4.6868199212e+000	-1.1484553427e-001
 1.8036640769e+000	 4.5559626752e+000	-7.9152991577e-002
 1.7583847963e+000	 4.5736290742e+000	-3.3535708653e-002
 1.7130281948e+000	 4.5908097765e+000	-2.4493952199e-003
 1.6676017152e+000	 4.6075052382e+000	 1.5751499116e-002
 1.6221127578e+000	 4.6237160597e+000	 2.2639343471e-002
 1.5765686776e+000	 4.6394429843e+000	 1.9713530058e-002
 1.5309767803e+000	 4.6546868958e+000	 8.4008311759e-003
 1.4853443198e+000	 4.6694488167e+000	-9.9440969900e-003
 1.4396784948e+000	 4.6837299060e+000	-3.4038069811e-002
 1.3939864459e+000	 4.6975314569e+000	-6.2668595141e-002
 1.3482752527e+000	 4.7108548951e+000	-9.4692966181e-002
 1.8128664446e+000	 4.5792073827e+000	-7.9135399301e-002
 1.7673561473e+000	 4.5969639164e+000	-2.8157746251e-002
 1.7217681346e+000	 4.6142322754e+000	 7.4575536337e-003
 1.6761098872e+000	 4.6310129180e+000	 2.9421098633e-002
 1.6303888433e+000	 4.6473064478e+000	 3.9369166862e-002
 1.5846123954e+000	 4.6631136118e+000	 3.8863883522e-002
 1.5387878863e+000	 4.6784352984e+000	 2.9393543855e-002
 1.4929226072e+000	 4.6932725352e+000	 1.2373085931e-002
 1.4470237932e+000	 4.7076264871e+000	-1.0855292793e-002
 1.4010986216e+000	 4.7214984542e+000	-3.9021381477e-002
 1.3551542081e+000	 4.7348898691e+000	-7.0926070943e-002
 1.8220688123e+000	 4.6024520903e+000	-8.5326690192e-002
 1.7763274983e+000	 4.6202987586e+000	-2.8117460891e-002
 1.7305080743e+000	 4.6376547742e+000	 1.2920537888e-002
 1.6846180592e+000	 4.6545205977e+000	 3.9562443270e-002
 1.6386649288e+000	 4.6708968359e+000	 5.3507913218e-002
 1.5926561131e+000	 4.6867842393e+000	 5.6381257525e-002
 1.5465989924e+000	 4.7021837009e+000	 4.9731727586e-002
 1.5005008945e+000	 4.7170962536e+000	 3.5033959077e-002
 1.4543690917e+000	 4.7315230682e+000	 1.3688561401e-002
 1.4082107974e+000	 4.7454654514e+000	-1.2977152461e-002
 1.3620331635e+000	 4.7589248430e+000	-4.3708302254e-002
 1.8312711801e+000	 4.6256967978e+000	-9.7782264214e-002
 1.7852988493e+000	 4.6436336008e+000	-3.3480911380e-002
 1.7392480141e+000	 4.6610772731e+000	 1.3862814100e-002
 1.6931262312e+000	 4.6780282775e+000	 4.6088084246e-002
 1.6469410143e+000	 4.6944872239e+000	 6.4957412726e-002
 1.6006998308e+000	 4.7104548668e+000	 7.2156750422e-002
 1.5544100984e+000	 4.7259321034e+000	 6.9295742895e-002
 1.5080791818e+000	 4.7409199721e+000	 5.7908143834e-002
 1.4617143901e+000	 4.7554196494e+000	 3.9452378299e-002
 1.4153229731e+000	 4.7694324486e+000	 1.5312249338e-002
 1.3689121189e+000	 4.7829598170e+000	-1.3202218650e-002
 1.8404735478e+000	 4.6489415053e+000	-1.1655924870e-001
 1.7942702003e+000	 4.6669684431e+000	-4.4315635404e-002
 1.7479879539e+000	 4.6844997719e+000	 1.0206411344e-002
 1.7016344032e+000	 4.7015359573e+000	 4.8909599480e-002
 1.6552170998e+000	 4.7180776120e+000	 7.3618779101e-002
 1.6087435486e+000	 4.7341254942e+000	 8.6081003446e-002
 1.5622212044e+000	 4.7496805060e+000	 8.7965754917e-002
 1.5156574692e+000	 4.7647436905e+000	 8.0865330190e-002
 1.4690596886e+000	 4.7793162305e+000	 6.6295378144e-002
 1.4224351489e+000	 4.7933994458e+000	 4.5695584166e-002
 1.3757910742e+000	 4.8069947909e+000	 2.0430494112e-002
 1.3070015205e+000	 4.5666450514e+000	-1.5560695873e-001
 1.2626778925e+000	 4.5790986602e+000	-1.3970677505e-001
 1.2183492440e+000	 4.5910919311e+000	-8.6979636588e-002
 1.1740222445e+000	 4.6026266164e+000	-4.5501194843e-002
 1.1297034943e+000	 4.6137045869e+000	-2.1283227677e-002
 1.0853995214e+000	 4.6243278300e+000	-9.9855818133e-003
 1.0411167802e+000	 4.6344984465e+000	-7.6567765896e-003
 9.9686164827e-001	 4.6442186484e+000	-1.0732282780e-002
 9.5264042516e-001	 4.6534907565e+000	-1.6032014708e-002
 9.0845932984e-001	 4.6623171971e+000	-2.0757062816e-002
 8.6432449896e-001	 4.6707005000e+000	-2.2485695141e-002
 1.3138804759e+000	 4.5906800254e+000	-1.5601081832e-001
 1.2693235656e+000	 4.6031991795e+000	-1.4198332422e-001
 1.2247616084e+000	 4.6152555729e+000	-9.2726555729e-002
 1.1802013090e+000	 4.6268509670e+000	-4.8190708877e-002
 1.1356493021e+000	 4.6379872426e+000	-2.0882153449e-002
 1.0911121505e+000	 4.6486663975e+000	-6.3933241198e-003
 1.0465963422e+000	 4.6588905436e+000	-7.1088693168e-004
 1.0021082885e+000	 4.6686619045e+000	-2.1400877057e-004
 9.5765432214e-001	 4.6779828131e+000	-1.6718281198e-003
 9.1324069473e-001	 4.6868557086e+000	-2.2401546505e-003
 8.6887357527e-001	 4.6952831342e+000	 5.4257351004e-004
 1.3207594313e+000	 4.6147149993e+000	-1.5196882173e-001
 1.2759692387e+000	 4.6272996988e+000	-1.4027214163e-001
 1.2311739729e+000	 4.6394192146e+000	-9.6051864002e-002
 1.1863803734e+000	 4.6510753176e+000	-4.9531355103e-002
 1.1415951100e+000	 4.6622698984e+000	-2.0115926017e-002
 1.0968247796e+000	 4.6730049650e+000	-3.3296800845e-003
 1.0520759042e+000	 4.6832826406e+000	 4.9033682521e-003
 1.0073549288e+000	 4.6931051605e+000	 8.2610342790e-003
 9.6266821912e-001	 4.7024748697e+000	 1.0025514757e-002
 9.1802205963e-001	 4.7113942202e+000	 1.3086722632e-002
 8.7342265158e-001	 4.7198657684e+000	 1.9946375450e-002
 1.3276383866e+000	 4.6387499733e+000	-1.4364925927e-001
 1.2826149119e+000	 4.6514002180e+000	-1.3472913773e-001
 1.2375863373e+000	 4.6635828564e+000	-9.6928594208e-002
 1.1925594379e+000	 4.6752996682e+000	-4.9496735136e-002
 1.1475409179e+000	 4.6865525541e+000	-1.8958629007e-002
 1.1025374086e+000	 4.6973435326e+000	-7.6912269157e-004
 1.0575554662e+000	 4.7076747377e+000	 9.2112246920e-003
 1.0126015690e+000	 4.7175484166e+000	 1.4717893885e-002
 9.6768211609e-001	 4.7269669263e+000	 1.9084980876e-002
 9.2280342452e-001	 4.7359327318e+000	 2.5248567224e-002
 8.7797172789e-001	 4.7444484026e+000	 3.5750855653e-002
 1.3345173420e+000	 4.6627849472e+000	-1.3121940328e-001
 1.2892605850e+000	 4.6755007373e+000	-1.2550940079e-001
 1.2439987017e+000	 4.6877464981e+000	-9.5329143970e-002
 1.1987385023e+000	 4.6995240188e+000	-4.8059993650e-002
 1.1534867257e+000	 4.7108352098e+000	-1.7384058561e-002
 1.1082500377e+000	 4.7216821001e+000	 1.3140018736e-003
 1.0630350282e+000	 4.7320668348e+000	 1.2237893012e-002
 1.0178482093e+000	 4.7419916726e+000	 1.9181449321e-002
 9.7269601307e-001	 4.7514589829e+000	 2.5531234561e-002
 9.2758478942e-001	 4.7604712433e+000	 3.4269949044e-002
 8.8252080420e-001	 4.7690310368e+000	 4.7980613891e-002
 1.3413962974e+000	 4.6868199212e+000	-1.1484553427e-001
 1.2959062581e+000	 4.6996012565e+000	-1.1276721796e-001
 1.2504110662e+000	 4.7119101398e+000	-9.1010268708e-002
 1.2049175668e+000	 4.7237483694e+000	-4.5193830093e-002
 1.1594325336e+000	 4.7351178655e+000	-1.5365730717e-002
 1.1139626667e+000	 4.7460206676e+000	 2.9454709730e-003
 1.0685145902e+000	 4.7564589319e+000	 1.4008559371e-002
 1.0230948496e+000	 4.7664349286e+000	 2.1676415930e-002
 9.7770991005e-001	 4.7759510395e+000	 2.9388645273e-002
 9.3236615432e-001	 4.7850097549e+000	 4.0175020724e-002
 8.8706988052e-001	 4.7936136710e+000	 5.6659718718e-002
 1.3482752527e+000	 4.7108548951e+000	-9.4692966181e-002
 1.3025519312e+000	 4.7237017758e+000	-9.6656095741e-002
 1.2568234306e+000	 4.7360737816e+000	-8.0801119824e-002
 1.2110966312e+000	 4.7479727200e+000	-4.0870510043e-002
 1.1653783415e+000	 4.7594005212e+000	-1.2876888545e-002
 1.1196752958e+000	 4.7703592351e+000	 4.1511823640e-003
 1.0739941522e+000	 4.7808510290e+000	 1.4548386091e-002
 1.0283414898e+000	 4.7908781847e+000	 2.2227349304e-002
 9.8272380703e-001	 4.8004430961e+000	 3.0681295126e-002
 9.3714751922e-001	 4.8095482664e+000	 4.2987528252e-002
 8.9161895683e-001	 4.8181963052e+000	 6.1811721016e-002
 1.3551542081e+000	 4.7348898691e+000	-7.0926070943e-002
 1.3091976043e+000	 4.7478022951e+000	-7.7328779763e-002
 1.2632357951e+000	 4.7602374233e+000	-6.7737416843e-002
 1.2172756957e+000	 4.7721970706e+000	-3.5061876226e-002
 1.1713241493e+000	 4.7836831769e+000	-9.8905090808e-003
 1.1253879249e+000	 4.7946978026e+000	 4.9571511444e-003
 1.0794737142e+000	 4.8052431260e+000	 1.3882512260e-002
 1.0335881301e+000	 4.8153214407e+000	 2.0858649347e-002
 9.8773770401e-001	 4.8249351527e+000	 2.9432986186e-002
 9.4192888412e-001	 4.8340867780e+000	 4.2730821293e-002
 8.9616803315e-001	 4.8427789394e+000	 6.3459667137e-002
 1.3620331635e+000	 4.7589248430e+000	-4.3708302254e-002
 1.3158432775e+000	 4.7719028143e+000	-5.4937274014e-002
 1.2696481595e+000	 4.7844010650e+000	-5.1959996598e-002
 1.2234547601e+000	 4.7964214212e+000	-2.7739359189e-002
 1.1772699572e+000	 4.8079658326e+000	-6.3793100432e-003
 1.1311005539e+000	 4.8190363702e+000	 5.3895067883e-003
 1.0849532762e+000	 4.8296352231e+000	 1.2036054317e-002
 1.0388347703e+000	 4.8397646967e+000	 1.7594564196e-002
 9.9275160099e-001	 4.8494272093e+000	 2.5667247537e-002
 9.4671024902e-001	 4.8586252895e+000	 3.9427863195e-002
 9.0071710947e-001	 4.8673615736e+000	 6.1626111646e-002
 1.3689121189e+000	 4.7829598170e+000	-1.3202218650e-002
 1.3224889506e+000	 4.7960033336e+000	-2.9632859477e-002
 1.2760605240e+000	 4.8085647068e+000	-3.3609137361e-002
 1.2296338246e+000	 4.8206457718e+000	-1.8873987655e-002
 1.1832157651e+000	 4.8322484884e+000	-2.3157563481e-003
 1.1368131830e+000	 4.8433749377e+000	 5.4744902733e-003
 1.0904328382e+000	 4.8540273202e+000	 9.0341066237e-003
 1.0440814106e+000	 4.8642079528e+000	 1.2459194041e-002
 9.9776549797e-001	 4.8739192659e+000	 1.9407342144e-002
 9.5149161392e-001	 4.8831638011e+000	 3.3101240700e-002
 9.0526618578e-001	 4.8919442078e+000	 5.6333129670e-002
 1.3757910742e+000	 4.8069947909e+000	 2.0430494112e-002
 1.3291346237e+000	 4.8201038528e+000	-1.5661121970e-003
 1.2824728884e+000	 4.8327283485e+000	-1.2824572811e-002
 1.2358128890e+000	 4.8448701224e+000	-8.4363985743e-003
 1.1891615729e+000	 4.8565311441e+000	 2.3279335700e-003
 1.1425258121e+000	 4.8677135052e+000	 5.2384512920e-003
 1.0959124002e+000	 4.8784194173e+000	 4.9017420158e-003
 1.0493280509e+000	 4.8886512088e+000	 5.4764948224e-003
 1.0027793950e+000	 4.8984113225e+000	 1.0676273504e-002
 9.5627297882e-001	 4.9077023127e+000	 2.3773173355e-002
 9.0981526210e-001	 4.9165268420e+000	 4.7602328892e-002
 8.6432449896e-001	 4.6707005000e+000	-2.2485695141e-002
 8.2024198506e-001	 4.6786432954e+000	-1.2062263614e-002
 7.7621775480e-001	 4.6861483115e+000	-9.0319276315e-004
 7.3225768736e-001	 4.6932183711e+000	 1.2386002068e-002
 6.8836757286e-001	 4.6998563898e+000	 2.8848803359e-002
 6.4455311094e-001	 4.7060653722e+000	 4.9184743836e-002
 6.0081990940e-001	 4.7118484097e+000	 2.8426767059e-002
 5.5717348293e-001	 4.7172086778e+000	-3.1700998397e-002
 5.1361925192e-001	 4.7221494326e+000	-9.6466721584e-002
 4.7016254140e-001	 4.7266740087e+000	-1.6610231753e-001
 4.2680858003e-001	 4.7307858159e+000	-2.4128191888e-001
 8.6887357527e-001	 4.6952831342e+000	 5.4257351004e-004
 8.2455904814e-001	 4.7032677338e+000	 1.5258746857e-002
 7.8030311141e-001	 4.7108122499e+000	 2.9558701428e-002
 7.3611167519e-001	 4.7179195205e+000	 4.4862533483e-002
 6.9199056008e-001	 4.7245924760e+000	 6.2235514109e-002
 6.4794549573e-001	 4.7308341373e+000	 8.2395205349e-002
 6.0398211945e-001	 4.7366476119e+000	 7.1722673086e-002
 5.6010597494e-001	 4.7420360919e+000	 2.1450853983e-002
 5.1632251113e-001	 4.7470028507e+000	-3.3197040536e-002
 4.7263708109e-001	 4.7515512403e+000	-9.2400237036e-002
 4.2905494097e-001	 4.7556846886e+000	-1.5678731886e-001
 8.7342265158e-001	 4.7198657684e+000	 1.9946375450e-002
 8.2887611122e-001	 4.7278921722e+000	 3.8346888273e-002
 7.8438846801e-001	 4.7354761884e+000	 5.5289505852e-002
 7.3996566301e-001	 4.7426206698e+000	 7.2219873254e-002
 6.9561354731e-001	 4.7493285623e+000	 9.0224869746e-002
 6.5133788053e-001	 4.7556029024e+000	 1.1003979105e-001
 6.0714432950e-001	 4.7614468140e+000	 1.0733338610e-001
 5.6303846695e-001	 4.7668635060e+000	 6.5934196978e-002
 5.1902577035e-001	 4.7718562687e+000	 2.0558098450e-002
 4.7511162077e-001	 4.7764284720e+000	-2.8921026165e-002
 4.3130130191e-001	 4.7805835613e+000	-8.3085949750e-002
 8.7797172789e-001	 4.7444484026e+000	 3.5750855653e-002
 8.3319317430e-001	 4.7525166106e+000	 5.7231720417e-002
 7.8847382461e-001	 4.7601401269e+000	 7.6323050772e-002
 7.4381965084e-001	 4.7673218191e+000	 9.4495981092e-002
 6.9923653453e-001	 4.7740646486e+000	 1.1285882145e-001
 6.5473026532e-001	 4.7803716675e+000	 1.3216430841e-001
 6.1030653954e-001	 4.7862460162e+000	 1.3553872545e-001
 5.6597095897e-001	 4.7916909201e+000	 1.0201423947e-001
 5.2172902957e-001	 4.7967096868e+000	 6.5049398885e-002
 4.7758616046e-001	 4.8013057036e+000	 2.4571630424e-002
 4.3354766286e-001	 4.8054824340e+000	-1.9955755718e-002
 8.8252080420e-001	 4.7690310368e+000	 4.7980613891e-002
 8.3751023738e-001	 4.7771410490e+000	 7.1942064081e-002
 7.9255918122e-001	 4.7848040654e+000	 9.2692247806e-002
 7.4767363867e-001	 4.7920229684e+000	 1.1172773250e-001
 7.0285952176e-001	 4.7988007348e+000	 1.3017808465e-001
 6.5812265011e-001	 4.8051404326e+000	 1.4881319155e-001
 6.1346874959e-001	 4.8110452184e+000	 1.5661701349e-001
 5.6890345098e-001	 4.8165183342e+000	 1.2995458349e-001
 5.2443228879e-001	 4.8215631049e+000	 1.0052586125e-001
 4.8006070016e-001	 4.8261829352e+000	 6.8312262509e-002
 4.3579402381e-001	 4.8303813068e+000	 3.2823464505e-002
 8.8706988052e-001	 4.7936136710e+000	 5.6659718718e-002
 8.4182730046e-001	 4.8017654874e+000	 8.2506020010e-002
 7.9664453783e-001	 4.8094680039e+000	 1.0442911348e-001
 7.5152762650e-001	 4.8167241177e+000	 1.2395094659e-001
 7.0648250899e-001	 4.8235368211e+000	 1.4222217075e-001
 6.6151503491e-001	 4.8299091977e+000	 1.6002953652e-001
 6.1663095964e-001	 4.8358444205e+000	 1.7084511397e-001
 5.7183594300e-001	 4.8413457483e+000	 1.5001726536e-001
 5.2713554801e-001	 4.8464165229e+000	 1.2723482668e-001
 4.8253523985e-001	 4.8510601668e+000	 1.0253366009e-001
 4.3804038475e-001	 4.8552801795e+000	 7.5470105168e-002
 8.9161895683e-001	 4.8181963052e+000	 6.1811721016e-002
 8.4614436354e-001	 4.8263899258e+000	 8.8950987277e-002
 8.0072989444e-001	 4.8341319423e+000	 1.1156479208e-001
 7.5538161434e-001	 4.8414252671e+000	 1.3120041300e-001
 7.1010549622e-001	 4.8482729073e+000	 1.4902941780e-001
 6.6490741971e-001	 4.8546779629e+000	 1.6585513543e-001
 6.1979316970e-001	 4.8606436227e+000	 1.7849846922e-001
 5.7476843502e-001	 4.8661731623e+000	 1.6246279571e-001
 5.2983880724e-001	 4.8712699410e+000	 1.4542201925e-001
 4.8500977954e-001	 4.8759373984e+000	 1.2746691778e-001
 4.4028674570e-001	 4.8801790522e+000	 1.0820079960e-001
 8.9616803315e-001	 4.8427789394e+000	 6.3459667137e-002
 8.5046142663e-001	 4.8510143642e+000	 9.1303681083e-002
 8.0481525105e-001	 4.8587958808e+000	 1.1412957776e-001
 7.5923560217e-001	 4.8661264164e+000	 1.3350991805e-001
 7.1372848345e-001	 4.8730089936e+000	 1.5063702029e-001
 6.6829980451e-001	 4.8794467280e+000	 1.6633050948e-001
 6.2295537975e-001	 4.8854428248e+000	 1.7985113629e-001
 5.7770092704e-001	 4.8910005764e+000	 1.6755019816e-001
 5.3254206646e-001	 4.8961233591e+000	 1.5533158706e-001
 4.8748431924e-001	 4.9008146301e+000	 1.4334147780e-001
 4.4253310665e-001	 4.9050779249e+000	 1.3123046489e-001
 9.0071710947e-001	 4.8673615736e+000	 6.1626111646e-002
 8.5477848971e-001	 4.8756388026e+000	 8.9590150035e-002
 8.0890060766e-001	 4.8834598193e+000	 1.1215293602e-001
 7.6308959000e-001	 4.8908275657e+000	 1.3091227007e-001
 7.1735147068e-001	 4.8977450799e+000	 1.4708105803e-001
 6.7169218931e-001	 4.9042154931e+000	 1.6149494113e-001
 6.2611758981e-001	 4.9102420270e+000	 1.7462053026e-001
 5.8063341906e-001	 4.9158279905e+000	 1.6553704687e-001
 5.3524532569e-001	 4.9209767771e+000	 1.5720614204e-001
 4.8995885893e-001	 4.9256918617e+000	 1.5038517176e-001
 4.4477946760e-001	 4.9299767976e+000	 1.4477234526e-001
 9.0526618578e-001	 4.8919442078e+000	 5.6333129670e-002
 8.5909555280e-001	 4.9002632410e+000	 8.3835792891e-002
 8.1298596427e-001	 4.9081237578e+000	 1.0566352456e-001
 7.6694357784e-001	 4.9155287150e+000	 1.2343932397e-001
 7.2097445791e-001	 4.9224811661e+000	 1.3839652418e-001
 6.7508457411e-001	 4.9289842582e+000	 1.5138650518e-001
 6.2927979986e-001	 4.9350412291e+000	 1.6288701988e-001
 5.8356591108e-001	 4.9406554046e+000	 1.5667950295e-001
 5.3794858491e-001	 4.9458301952e+000	 1.5128679848e-001
 4.9243339863e-001	 4.9505690933e+000	 1.4882426108e-001
 4.4702582855e-001	 4.9548756703e+000	 1.4903805406e-001
 9.0981526210e-001	 4.9165268420e+000	 4.7602328892e-002
 8.6341261589e-001	 4.9248876794e+000	 7.4065374806e-002
 8.1707132088e-001	 4.9327876962e+000	 9.4689213414e-002
 7.7079756568e-001	 4.9402298643e+000	 1.1112200506e-001
 7.2459744515e-001	 4.9472172524e+000	 1.2461735237e-001
 6.7847695892e-001	 4.9537530233e+000	 1.3604209897e-001
 6.3244200992e-001	 4.9598404313e+000	 1.4588474986e-001
 5.8649840310e-001	 4.9654828187e+000	 1.4123234984e-001
 5.4065184414e-001	 4.9706836133e+000	 1.3781321056e-001
 4.9490793833e-001	 4.9754463249e+000	 1.3888347626e-001
 4.4927218951e-001	 4.9797745430e+000	 1.4423761456e-001
 4.2680858003e-001	 4.7307858159e+000	-2.4128191888e-001
 3.8356249917e-001	 4.7344883366e+000	-2.8485444942e-001
 3.4042933210e-001	 4.7377851228e+000	-3.1224864264e-001
 2.9741401323e-001	 4.7406797935e+000	-3.2568328496e-001
 2.5452137749e-001	 4.7431760318e+000	-3.2779181018e-001
 2.1175615972e-001	 4.7452775818e+000	-3.2160964901e-001
 1.6912299422e-001	 4.7469882465e+000	-3.1056104578e-001
 1.2662641428e-001	 4.7483118844e+000	-2.9844538777e-001
 8.4270851934e-002	 4.7492524068e+000	-2.8942309293e-001
 4.2060637605e-002	 4.7498137756e+000	-2.8800110080e-001
 0.0000000000e+000	 4.7500000000e+000	-2.9901801134e-001
 4.2905494097e-001	 4.7556846886e+000	-1.5678731886e-001
 3.8558124916e-001	 4.7594066962e+000	-1.9062863434e-001
 3.4222106542e-001	 4.7627208340e+000	-2.1000380649e-001
 2.9897935014e-001	 4.7656307398e+000	-2.1710764865e-001
 2.5586096368e-001	 4.7681401161e+000	-2.1455458582e-001
 2.1287066582e-001	 4.7702527270e+000	-2.0536591034e-001
 1.7001311524e-001	 4.7719723952e+000	-1.9295649524e-001
 1.2729286910e-001	 4.7733029995e+000	-1.8112101169e-001
 8.4714382733e-002	 4.7742484721e+000	-1.7401969641e-001
 4.2282009382e-002	 4.7748127955e+000	-1.7616371491e-001
 0.0000000000e+000	 4.7750000000e+000	-1.9240016548e-001
 4.3130130191e-001	 4.7805835613e+000	-8.3085949750e-002
 3.8759999915e-001	 4.7843250559e+000	-1.0812781666e-001
 3.4401279874e-001	 4.7876565451e+000	-1.2025375870e-001
 3.0054468705e-001	 4.7905816861e+000	-1.2163487524e-001
 2.5720054988e-001	 4.7931042005e+000	-1.1486700218e-001
 2.1398517192e-001	 4.7952278722e+000	-1.0295787001e-001
 1.7090323626e-001	 4.7969565439e+000	-8.9313710153e-002
 1.2795932391e-001	 4.7982941147e+000	-7.7725356364e-002
 8.5157913532e-002	 4.7992445374e+000	-7.2353887900e-002
 4.2503381158e-002	 4.7998118153e+000	-7.7715860715e-002
 0.0000000000e+000	 4.8000000000e+000	-9.8668172427e-002
 4.3354766286e-001	 4.8054824340e+000	-1.9955755718e-002
 3.8961874915e-001	 4.8092434156e+000	-3.7136296702e-002
 3.4580453207e-001	 4.8125922563e+000	-4.2789378496e-002
 3.0211002396e-001	 4.8155326324e+000	-3.9062635191e-002
 2.5854013607e-001	 4.8180682849e+000	-2.8533723277e-002
 2.1509967803e-001	 4.8202030174e+000	-1.4197378476e-002
 1.7179335728e-001	 4.8219406925e+000	 5.4808885968e-004
 1.2862577872e-001	 4.8232852299e+000	 1.1914812296e-002
 8.5601444331e-002	 4.8242406027e+000	 1.5739854535e-002
 4.2724752935e-002	 4.8248108352e+000	 7.5001124368e-003
 0.0000000000e+000	 4.8250000000e+000	-1.7672404534e-002
 4.3579402381e-001	 4.8303813068e+000	 3.2823464505e-002
 3.9163749914e-001	 4.8341617752e+000	 2.2559554976e-002
 3.4759626540e-001	 4.8375279675e+000	 2.2596189984e-002
 3.0367536087e-001	 4.8404835786e+000	 3.0808962309e-002
 2.5987972227e-001	 4.8430323693e+000	 4.4637994972e-002
 2.1621418413e-001	 4.8451781625e+000	 6.1100989346e-002
 1.7268347830e-001	 4.8469248412e+000	 7.6806844510e-002
 1.2929223353e-001	 4.8482763451e+000	 8.7969799740e-002
 8.6044975130e-002	 4.8492366680e+000	 9.0424052226e-002
 4.2946124712e-002	 4.8498098551e+000	 7.9638802527e-002
 0.0000000000e+000	 4.8500000000e+000	 5.0733680761e-002
 4.3804038475e-001	 4.8552801795e+000	 7.5470105168e-002
 3.9365624914e-001	 4.8590801349e+000	 7.1171350647e-002
 3.4938799872e-001	 4.8624636787e+000	 7.6107595739e-002
 3.0524069778e-001	 4.8654345249e+000	 8.8177431822e-002
 2.6121930847e-001	 4.8679964537e+000	 1.0483837121e-001
 2.1732869023e-001	 4.8701533077e+000	 1.2312000392e-001
 1.7357359932e-001	 4.8719089899e+000	 1.3963773557e-001
 1.2995868834e-001	 4.8732674603e+000	 1.5060705787e-001
 8.6488505929e-002	 4.8742327333e+000	 1.5185830287e-001
 4.3167496488e-002	 4.8748088749e+000	 1.3885183314e-001
 0.0000000000e+000	 4.8750000000e+000	 1.0669362001e-001
 4.4028674570e-001	 4.8801790522e+000	 1.0820079960e-001
 3.9567499914e-001	 4.8839984946e+000	 1.0890873689e-001
 3.5117973205e-001	 4.8873993898e+000	 1.1794733722e-001
 3.0680603469e-001	 4.8903854712e+000	 1.3323797230e-001
 2.6255889466e-001	 4.8929605380e+000	 1.5225516309e-001
 2.1844319634e-001	 4.8951284529e+000	 1.7203984881e-001
 1.7446372034e-001	 4.8968931385e+000	 1.8921324740e-001
 1.3062514315e-001	 4.8982585754e+000	 1.9999125781e-001
 8.6932036728e-002	 4.8992287986e+000	 2.0019935508e-001
 4.3388868265e-002	 4.8998078948e+000	 1.8528792932e-001
 0.0000000000e+000	 4.9000000000e+000	 1.5034802046e-001
 4.4253310665e-001	 4.9050779249e+000	 1.3123046489e-001
 3.9769374913e-001	 4.9089168542e+000	 1.3597944446e-001
 3.5297146538e-001	 4.9123351010e+000	 1.4831581689e-001
 3.0837137160e-001	 4.9153364175e+000	 1.6618352586e-001
 2.6389848086e-001	 4.9179246224e+000	 1.8707372967e-001
 2.1955770244e-001	 4.9201035980e+000	 2.0803818633e-001
 1.7535384136e-001	 4.9218772872e+000	 2.2570324027e-001
 1.3129159796e-001	 4.9232496906e+000	 2.3628436054e-001
 8.7375567527e-002	 4.9242248639e+000	 2.3560118074e-001
 4.3610240041e-002	 4.9248069147e+000	 2.1909299118e-001
 0.0000000000e+000	 4.9250000000e+000	 1.8183463436e-001
 4.4477946760e-001	 4.9299767976e+000	 1.4477234526e-001
 3.9971249913e-001	 4.9338352139e+000	 1.5258933671e-001
 3.5476319871e-001	 4.9372708122e+000	 1.6741139420e-001
 3.0993670852e-001	 4.9402873638e+000	 1.8720483477e-001
 2.6523806706e-001	 4.9428887068e+000	 2.0947709207e-001
 2.2067220854e-001	 4.9450787432e+000	 2.3129022124e-001
 1.7624396239e-001	 4.9468614359e+000	 2.4927501569e-001
 1.3195805278e-001	 4.9482408058e+000	 2.5964568525e-001
 8.7819098327e-002	 4.9492209292e+000	 2.5821504508e-001
 4.3831611818e-002	 4.9498059346e+000	 2.4041016521e-001
 0.0000000000e+000	 4.9500000000e+000	 2.0128843112e-001
 4.4702582855e-001	 4.9548756703e+000	 1.4903805406e-001
 4.0173124913e-001	 4.9587535736e+000	 1.5894245644e-001
 3.5655493203e-001	 4.9622065233e+000	 1.7543043685e-001
 3.1150204543e-001	 4.9652383101e+000	 1.9649049669e-001
 2.6657765326e-001	 4.9678527912e+000	 2.1964599216e-001
 2.2178671465e-001	 4.9700538884e+000	 2.4196876247e-001
 1.7713408341e-001	 4.9718455845e+000	 2.6009338069e-001
 1.3262450759e-001	 4.9732319210e+000	 2.7023197581e-001
 8.8262629126e-002	 4.9742169945e+000	 2.6818957472e-001
 4.4052983595e-002	 4.9748049544e+000	 2.4937991344e-001
 0.0000000000e+000	 4.9750000000e+000	 2.0884166718e-001
 4.4927218951e-001	 4.9797745430e+000	 1.4423761456e-001
 4.0374999913e-001	 4.9836719332e+000	 1.5524107150e-001
 3.5834666536e-001	 4.9871422345e+000	 1.7256737065e-001
 3.1306738234e-001	 4.9901892563e+000	 1.9422701837e-001
 2.6791723945e-001	 4.9928168755e+000	 2.1775894955e-001
 2.2290122075e-001	 4.9950290335e+000	 2.4024428300e-001
 1.7802420443e-001	 4.9968297332e+000	 2.5832071017e-001
 1.3329096240e-001	 4.9982230362e+000	 2.6819746508e-001
 8.8706159925e-002	 4.9992130598e+000	 2.6567082361e-001
 4.4274355371e-002	 4.9998039743e+000	 2.4614008060e-001
 0.0000000000e+000	 5.0000000000e+000	 2.0462395385e-001
