label=Stress xy
num_items=720

0:-4.5820420230919617e-01
1:-1.4440206496713973e-01
2:2.9900634085356901e-02
3:-1.9760757931927497e+00
4:-6.7235288486833067e-01
5:1.1685014271861133e-01
6:-3.3163829622576420e+00
7:-1.1120339769413781e+00
8:2.4871586575618670e-01
9:7.9823566655933542e-02
10:1.1337809373452473e-01
11:1.2772703377411346e-01
12:3.1768874858553364e-01
13:3.9293040294537074e-01
14:4.3192889847362842e-01
15:5.8562955477777090e-01
16:6.8376528084758159e-01
17:7.3395292639447918e-01
18:1.2671136706205449e-01
19:1.1926383516481605e-01
20:1.1306629038947254e-01
21:4.2972394458508595e-01
22:4.0472106676631664e-01
23:3.8473369548870423e-01
24:7.2610426193662481e-01
25:6.7978312436003241e-01
26:6.4296433826127741e-01
27:1.0861034256055255e-01
28:1.0006700446280313e-01
29:9.2874963835686164e-02
30:3.6917791255629528e-01
31:3.3797659128763408e-01
32:3.1285588442660767e-01
33:6.1501532685873872e-01
34:5.5951051859289758e-01
35:5.1501248962294499e-01
36:-3.9904267059828102e+00
37:-1.3650634996668851e+00
38:2.7065253889218616e-01
39:-4.9027162178617436e+00
40:-1.7708053545184561e+00
41:2.1068430319811929e-01
42:-5.4421878936568655e+00
43:-2.0080422690157858e+00
44:1.9824699752538355e-01
45:6.6705072849110658e-01
46:7.6124397874563576e-01
47:8.1172830243261695e-01
48:6.6878638491113429e-01
49:7.2515291575928409e-01
50:7.6362022793841355e-01
51:6.8546873952771137e-01
52:6.8357046298592461e-01
53:6.9355973983473584e-01
54:8.0147361481020551e-01
55:7.4750935445058841e-01
56:7.0666868899689583e-01
57:7.5094344297678062e-01
58:6.9424681157417878e-01
59:6.5816512649531511e-01
60:6.7434209154399682e-01
61:6.1483620073833878e-01
62:5.8322765858570602e-01
63:6.7534460544460750e-01
64:6.1198820100662255e-01
65:5.6175522509272646e-01
66:6.2898911658948042e-01
67:5.6577745980478189e-01
68:5.1764132218629366e-01
69:5.5705773702120287e-01
70:4.9687429960814600e-01
71:4.5319823370613377e-01
72:-5.6173701239209821e+00
73:-2.1484512686726709e+00
74:1.1945667472573222e-01
75:-5.7032705999607654e+00
76:-2.4092925879946474e+00
77:-1.6153398919160822e-01
78:-5.4922296193611935e+00
79:-2.5357301648920507e+00
80:-4.3186378026975408e-01
81:6.1242204581881343e-01
82:5.7986187575637660e-01
83:5.7991317767010697e-01
84:3.2376977662048489e-01
85:2.5762374313676206e-01
86:2.6194920613345929e-01
87:1.8003831808084719e-02
88:-7.7147496728196915e-02
89:-6.7329836455971667e-02
90:5.6342348454198421e-01
91:5.1359014817503301e-01
92:4.9252731467603239e-01
93:2.6504209753711572e-01
94:2.5535028217503880e-01
95:2.6975953326056595e-01
96:-4.3104331716854176e-02
97:-7.6900757027455234e-03
98:4.6510809804934272e-02
99:4.7190414657795010e-01
100:4.1852785442098250e-01
101:3.8015812014079897e-01
102:2.6605814395660260e-01
103:2.3277066228728652e-01
104:2.0814092726469088e-01
105:6.1331142552533281e-02
106:4.9743304354138505e-02
107:4.0520252495532219e-02
108:-5.2846152373667419e+00
109:-2.6063034679203434e+00
110:-6.2580721218742086e-01
111:-4.8247042409702567e+00
112:-2.7415627858909035e+00
113:-1.0339150242036554e+00
114:-4.2238069718011673e+00
115:-2.8029723968717617e+00
116:-1.4456938311504048e+00
117:-1.9290289779624684e-01
118:-2.8130550609813110e-01
119:-2.5364671565198671e-01
120:-6.1866628068962226e-01
121:-6.3951975339544387e-01
122:-5.4256610075011358e-01
123:-1.0614487054293085e+00
124:-9.8854184383090060e-01
125:-8.0182367074098637e-01
126:-2.1163518170134890e-01
127:-1.4579648216838953e-01
128:-6.9855410703599061e-02
129:-4.5986900868111408e-01
130:-3.4280622554657575e-01
131:-2.3811290963345397e-01
132:-6.7690020430547404e-01
133:-5.1830892113251092e-01
134:-3.9156445808397428e-01
135:-4.6974305752809399e-02
136:-4.7323392180783512e-02
137:-4.4310090224314841e-02
138:-2.0807025130021148e-01
139:-1.9358607095289468e-01
140:-1.6633466277697082e-01
141:-3.5635378263701112e-01
142:-3.2907884619139532e-01
143:-2.8009569901755277e-01
144:7.5907666988947561e-02
145:3.9500291426417401e-02
146:2.2554218003751993e-02
147:2.6527783289727574e-01
148:1.5763501919651923e-01
149:1.0217857617691388e-01
150:4.4290704672011372e-01
151:2.6791689907002897e-01
152:1.7783819064239609e-01
153:1.9959468938085655e-02
154:1.5537387675936241e-02
155:1.1287104808621265e-02
156:8.7570808925239316e-02
157:6.3211038372678829e-02
158:4.5155577461947614e-02
159:1.5265325613134156e-01
160:1.0940198185261954e-01
161:7.8587528462761194e-02
162:9.1202108510538456e-03
163:6.6116682507383721e-03
164:5.3402850538771408e-03
165:3.8008748547208440e-02
166:2.9447514631713492e-02
167:2.4004400404026138e-02
168:6.6735266506868618e-02
169:5.2018479260556832e-02
170:4.2300771986407852e-02
171:4.7184378781263267e-03
172:2.9285405891467551e-03
173:9.4387114837762073e-04
174:2.0515524824748159e-02
175:1.2154059065875935e-02
176:4.0987905862108660e-03
177:3.6034402378528535e-02
178:2.1511914299239866e-02
179:7.7965929301935313e-03
180:4.9156391694673068e-01
181:3.0590406902414974e-01
182:2.1080814924055821e-01
183:4.8219745940461511e-01
184:3.2595955920403241e-01
185:2.4698524969515331e-01
186:4.6272263140228226e-01
187:3.3784427110597437e-01
188:2.7692916405408086e-01
189:1.8230284390017323e-01
190:1.3090279243375322e-01
191:9.4872346069518582e-02
192:2.1744083473771933e-01
193:1.5748072973789792e-01
194:1.1683620712132711e-01
195:2.4746258869444016e-01
196:1.8084322465501354e-01
197:1.3748542027989663e-01
198:8.1122188901366674e-02
199:6.3649811038485715e-02
200:5.1863768731546293e-02
201:1.0146536231126353e-01
202:8.0800810926930783e-02
203:6.6303382905153752e-02
204:1.2107200129001817e-01
205:9.7301163989017267e-02
206:8.0178237857178772e-02
207:4.4121570495062885e-02
208:2.6299410201328165e-02
209:9.5125928393425211e-03
210:5.6349520229872996e-02
211:3.3510808604852740e-02
212:1.1990596165783820e-02
213:6.8230075761789577e-02
214:4.1035898277396371e-02
215:1.5443376233168394e-02
216:4.1300200756612204e-01
217:3.1956467537318034e-01
218:2.7836415484499671e-01
219:2.7316995820452611e-01
220:2.5208363488306351e-01
221:2.5623664183003564e-01
222:1.4113454555276661e-01
223:1.8761908332958496e-01
224:2.3234546997851283e-01
225:2.5262245000262668e-01
226:1.8700418989938450e-01
227:1.4518322910344236e-01
228:2.4173574100857642e-01
229:1.8546096700347381e-01
230:1.5087857984667680e-01
231:2.2790666124765688e-01
232:1.8170488738038673e-01
233:1.5509058790242694e-01
234:1.2900777458558019e-01
235:1.0422988039344634e-01
236:8.6189506143066474e-02
237:1.3640529555909800e-01
238:1.1148546379224195e-01
239:9.3130303961343280e-02
240:1.4265255623637474e-01
241:1.1800590771902023e-01
242:9.9751083131827109e-02
243:7.3422350094133407e-02
244:4.4288671479328884e-02
245:1.6780442158657552e-02
246:7.9586619674884382e-02
247:4.8080770767753557e-02
248:1.7998982281558645e-02
249:8.5715839703487798e-02
250:5.2401993604036932e-02
251:2.0310819052320548e-02
252:6.6365337673046490e-02
253:1.4406997456293025e-01
254:2.0929059269921377e-01
255:-5.4460357421548533e-02
256:6.2366137745927586e-02
257:1.5684674077356292e-01
258:-1.6116459769285366e-01
259:-1.0917993597566206e-02
260:1.0712084497164913e-01
261:2.1166764083092876e-01
262:1.7391618063874015e-01
263:1.5358083310219189e-01
264:1.7212694204663878e-01
265:1.5236498821253194e-01
266:1.4466219297601277e-01
267:1.3341690172675202e-01
268:1.3086052090949563e-01
269:1.3500634463176497e-01
270:1.4285861127360797e-01
271:1.1908943253722368e-01
272:1.0149278558909780e-01
273:1.3751656939735618e-01
274:1.1648881646762790e-01
275:1.0105284771236962e-01
276:1.3132963241297477e-01
277:1.1345717353011366e-01
278:1.0059575120793458e-01
279:8.7486801298875871e-02
280:5.3634478735181887e-02
281:2.0815206332884216e-02
282:8.7623090022955361e-02
283:5.3674527262528013e-02
284:2.0308771221457401e-02
285:8.8002585971181005e-02
286:5.4438659855706714e-02
287:2.1007297017543176e-02
288:-2.5011805833894285e-01
289:-8.1361958783867996e-02
290:5.3007343809911858e-02
291:-3.2590668709980875e-01
292:-1.7383360173748461e-01
293:-4.7040393825138090e-02
294:-3.7285999227059807e-01
295:-2.4219235595183303e-01
296:-1.2769767757172334e-01
297:9.0664656801272794e-02
298:1.0749918368938612e-01
299:1.2371125238151687e-01
300:-2.3398899236654939e-03
301:3.7706176015694558e-02
302:7.2962560142552299e-02
303:-7.8977569964993680e-02
304:-2.1388062375994048e-02
305:2.7244539783989687e-02
306:1.2327177826807131e-01
307:1.0878878918353373e-01
308:9.8701688406600305e-02
309:8.1251032641491847e-02
310:7.8496049887319619e-02
311:7.7176252749379684e-02
312:4.2465038907512138e-02
313:5.0934495801613917e-02
314:5.7878435620587275e-02
315:8.7185315907527830e-02
316:5.4797243990141103e-02
317:2.2313554627184679e-02
318:6.9364602020891231e-02
319:4.2444464773079095e-02
320:1.4797983004033835e-02
321:5.4114537523414663e-02
322:3.4344724323752379e-02
323:1.3217839527197600e-02
324:-3.6807228856144775e-01
325:-2.5550241375791516e-01
326:-1.5494035444378754e-01
327:-3.2803268566868948e-01
328:-2.4876329156988955e-01
329:-1.7629515512766586e-01
330:-2.9535714986596595e-01
331:-2.4251205134728382e-01
332:-1.9126165265235193e-01
333:-1.0843565217743233e-01
334:-4.7719432644334675e-02
335:3.2589373936588810e-03
336:-1.3829012647188546e-01
337:-8.1092254928729651e-02
338:-3.2148717044450867e-02
339:-1.5992602645112286e-01
340:-1.0683297643532377e-01
341:-6.0510744242176451e-02
342:2.0682179402362888e-02
343:3.4139235320730023e-02
344:4.4923692689792884e-02
345:-1.3241897465345509e-02
346:5.7573038844138235e-03
347:2.1102673441856568e-02
348:-4.0605809684049136e-02
349:-1.7146277518366372e-02
350:1.6781896119805607e-03
351:4.3466502922832530e-02
352:2.8361362827531697e-02
353:1.1647823606433500e-02
354:2.2946635833272149e-02
355:1.5107975120406012e-02
356:5.4279573971202384e-03
357:6.2707786087085032e-03
358:4.8816624314545571e-03
359:1.4182313591517650e-03
360:-2.7229876225189031e-01
361:-2.3018953007525922e-01
362:-1.8831471370307859e-01
363:-2.2590285811028205e-01
364:-1.9640244498486928e-01
365:-1.6766840079134385e-01
366:-1.8713208660673733e-01
367:-1.6667865061895715e-01
368:-1.4752353669050705e-01
369:-1.6076800943671132e-01
370:-1.1173672657848813e-01
371:-6.8761605088523053e-02
372:-1.4670545150199726e-01
373:-1.0618736300421679e-01
374:-7.0753040756280292e-02
375:-1.3167434969213915e-01
376:-9.8179679843279452e-02
377:-6.8796381125851028e-02
378:-4.9460930817545629e-02
379:-2.5279848754015875e-02
380:-5.8697217020399648e-03
381:-5.3974700734086049e-02
382:-3.1216532460340174e-02
383:-1.2715070726872675e-02
384:-5.4170193404129992e-02
385:-3.3052587448788452e-02
386:-1.5677439562458009e-02
387:-3.1149860965893960e-04
388:1.1248203924719357e-03
389:4.9454718120392200e-04
390:-6.5663484891055153e-03
391:-2.3565602588368423e-03
392:4.6132573866640417e-05
393:-9.4586255125600413e-03
394:-4.0460949929245101e-03
395:-1.8116305501892036e-04
396:-1.5914367636409388e-01
397:-1.4210794238429908e-01
398:-1.2740665805357138e-01
399:-9.7017630459470011e-02
400:-8.4497579867123404e-02
401:-7.7340669630822478e-02
402:-3.5212458571877089e-02
403:-2.6462304991517808e-02
404:-2.6103982474166398e-02
405:-1.1445704722975360e-01
406:-8.5645477208412965e-02
407:-6.0699541443262069e-02
408:-7.0009973693928002e-02
409:-5.1090945903658765e-02
410:-3.6165474762482490e-02
411:-2.4112466061498177e-02
412:-1.4870458633203573e-02
413:-9.7499302469024104e-03
414:-4.8191141713445906e-02
415:-2.9641864778216859e-02
416:-1.4167821822082661e-02
417:-2.9037624173395664e-02
418:-1.7727400284860088e-02
419:-7.7137488176107077e-03
420:-8.0273991939772676e-03
421:-4.2568734788267070e-03
422:-4.2586271538366067e-06
423:-8.6315639640393987e-03
424:-3.8161966563459221e-03
425:-1.1771837010980061e-04
426:-4.3622497265035044e-03
427:-1.9546021244302822e-03
428:5.5678945773958758e-04
429:9.9983223813314057e-04
430:7.4146175025130673e-04
431:1.8074682440343457e-03
432:-1.2856225323974280e-01
433:-4.8054545811061750e-01
434:-8.1193347087073764e-01
435:-7.0505290023424122e-02
436:-2.9145762035344219e-01
437:-4.9910499293784216e-01
438:-3.9357336484150844e-02
439:-1.7840734803214514e-01
440:-3.1144263619966861e-01
441:-9.3254492988855464e-01
442:-1.0118589924133308e+00
443:-1.0647247016237162e+00
444:-5.8566929250241007e-01
445:-6.7207761634297458e-01
446:-7.3987995543499518e-01
447:-3.7496300255036852e-01
448:-4.5714952729686004e-01
449:-5.2857243586064528e-01
450:-1.0370535266982082e+00
451:-9.0392744938937908e-01
452:-7.6732971573425246e-01
453:-7.4298686282149740e-01
454:-6.9477803826798246e-01
455:-6.4177684866723517e-01
456:-5.4894343848332938e-01
457:-5.5052722303847412e-01
458:-5.4599793384545248e-01
459:-6.7995437644331014e-01
460:-5.2506554930541915e-01
461:-3.8030398582200109e-01
462:-5.9728910229126864e-01
463:-5.0375022812212467e-01
464:-4.1524351791515490e-01
465:-5.2917270481014123e-01
466:-4.7978758182292391e-01
467:-4.3033952310557305e-01
468:-3.3248313232838209e-02
469:-1.4703259431728746e-01
470:-2.5732498347723082e-01
471:-2.6029026345877570e-02
472:-1.0814595091757997e-01
473:-1.8815043849070051e-01
474:-1.8803632793973742e-02
475:-7.6949815571116284e-02
476:-1.3436301627559596e-01
477:-3.1131128592975110e-01
478:-3.8383925686367043e-01
479:-4.4868768231881578e-01
480:-2.2783209351041511e-01
481:-2.8237872977269013e-01
482:-3.3200183528367866e-01
483:-1.6364043187639468e-01
484:-2.0591283841031663e-01
485:-2.4601772892044013e-01
486:-4.7049056168303877e-01
487:-4.8164701801428206e-01
488:-4.8679623412355472e-01
489:-3.5102790110511695e-01
490:-3.6717545948555952e-01
491:-3.7900018237645527e-01
492:-2.6357358332650110e-01
493:-2.8349526614376924e-01
494:-3.0077851820391399e-01
495:-4.7783360598605090e-01
496:-4.4473820583318985e-01
497:-4.1005667342341501e-01
498:-3.7786765083754809e-01
499:-3.6382757543973526e-01
500:-3.4806201529655484e-01
501:-3.0537709267485891e-01
502:-3.0439615596434966e-01
503:-3.0155038202001844e-01
504:-1.5150241492150732e-02
505:-6.4056803665015066e-02
506:-1.1260902061200594e-01
507:-1.0958702700172523e-02
508:-4.8922929864514471e-02
509:-8.6454539248145612e-02
510:-8.5239098171482602e-03
511:-3.8345110530073098e-02
512:-6.7655420907455271e-02
513:-1.3785155216860417e-01
514:-1.7543415348206945e-01
515:-2.1171595895951975e-01
516:-1.0640158137075657e-01
517:-1.3700100821064184e-01
518:-1.6652210119525809e-01
519:-8.3366341611891645e-02
520:-1.0782379478621303e-01
521:-1.3142537608600355e-01
522:-2.2823909957911492e-01
523:-2.4831683033499002e-01
524:-2.6643985242065016e-01
525:-1.8024056322737131e-01
526:-1.9772653836653015e-01
527:-2.1392300536146561e-01
528:-1.4252108188010526e-01
529:-1.5719927523364818e-01
530:-1.7125316096895776e-01
531:-2.7231362331795828e-01
532:-2.7454088862512949e-01
533:-2.7506925211652766e-01
534:-2.1964137241783330e-01
535:-2.2328980091192782e-01
536:-2.2594891576110990e-01
537:-1.7656609626053385e-01
538:-1.8099249523211999e-01
539:-1.8513916872964992e-01
540:-7.3727790199536875e-03
541:-3.2203026420600148e-02
542:-5.6657239593091983e-02
543:-4.5096228750373677e-03
544:-1.8898205568426446e-02
545:-3.3452458478521671e-02
546:-1.3240439331133978e-03
547:-5.8497781084061069e-03
548:-1.1082886945280512e-02
549:-6.9704584769024872e-02
550:-8.9990063305750753e-02
551:-1.0974861410101777e-01
552:-4.1080718564333096e-02
553:-5.2879928222317338e-02
554:-6.5060161932282784e-02
555:-1.3573965135883295e-02
556:-1.7276847707875537e-02
557:-2.2268706125307406e-02
558:-1.1903684688573229e-01
559:-1.3141403660223142e-01
560:-1.4360017281658996e-01
561:-7.0694383456707685e-02
562:-7.8038509672610085e-02
563:-8.6015256022727193e-02
564:-2.4329519089933596e-02
565:-2.6527630521490583e-02
566:-3.0182035723622099e-02
567:-1.4827883218351962e-01
568:-1.5238482495938305e-01
569:-1.5663122194728352e-01
570:-8.8967803641799126e-02
571:-9.1293652319784396e-02
572:-9.4494089206850249e-02
573:-3.1233022490343113e-02
574:-3.1288748967518543e-02
575:-3.2953247650808343e-02
576:-3.9943393462880215e+00
577:-2.6437226902707134e+00
578:-1.9475362544316217e+00
579:-3.3635264464232435e+00
580:-2.7589206593869258e+00
581:-2.4874598658297780e+00
582:-2.6936490196707235e+00
583:-2.8321171331791910e+00
584:-2.9527211796285067e+00
585:-1.6227006231978554e+00
586:-1.0885298887114243e+00
587:-8.0420167015442368e-01
588:-2.2048107510729538e+00
589:-1.5552703444096365e+00
590:-1.1639311693141665e+00
591:-2.7142917702890910e+00
592:-1.9901963059243839e+00
593:-1.5237231520618404e+00
594:-7.3194282462598381e-01
595:-6.3662377893623068e-01
596:-5.3765210696947241e-01
597:-1.0395058223051272e+00
598:-8.9056497980326210e-01
599:-7.6553963354153687e-01
600:-1.3526449703293961e+00
601:-1.1441981390658795e+00
602:-9.8993780158263411e-01
603:-4.7240892981221388e-01
604:-3.7877280065244617e-01
605:-3.2497770028039819e-01
606:-6.9362339825698027e-01
607:-5.8109906099058317e-01
608:-4.9850913655234902e-01
609:-9.1112452046056680e-01
610:-7.8004114259197099e-01
611:-6.6798956400469456e-01
612:-2.2675391925996831e+00
613:-2.8014843246287486e+00
614:-3.1375893627910210e+00
615:-1.5269398698213170e+00
616:-2.6436581705055544e+00
617:-3.3119154914094744e+00
618:-9.0004738503180370e-01
619:-2.4944041414276992e+00
620:-3.4029338344416766e+00
621:-2.9405508079118436e+00
622:-2.2157762129497671e+00
623:-1.7362048516684312e+00
624:-3.2054247269710734e+00
625:-2.5376436125182513e+00
626:-2.0744797048828381e+00
627:-3.3719663554545054e+00
628:-2.7833609766056635e+00
629:-2.3504865958587673e+00
630:-1.5472136077091627e+00
631:-1.3064618274506155e+00
632:-1.1312503599752579e+00
633:-1.8705311384057577e+00
634:-1.5885284664747885e+00
635:-1.3781302018696640e+00
636:-2.1389434417966782e+00
637:-1.8289798011802079e+00
638:-1.5943453678753827e+00
639:-1.0444862261902084e+00
640:-9.0058109775306028e-01
641:-7.7488039576842860e-01
642:-1.2735421379243117e+00
643:-1.1071431497104969e+00
644:-9.6733504256431924e-01
645:-1.4766080708128004e+00
646:-1.2936790533095865e+00
647:-1.1451465402495820e+00
648:-5.6686128982274275e-01
649:-2.3133022487443409e+00
650:-3.2973976730923451e+00
651:-8.9198745614003455e-02
652:-1.8640164216468489e+00
653:-2.8690806733186136e+00
654:1.5069789710667983e-01
655:-1.4826340587991957e+00
656:-2.4022711242030179e+00
657:-3.3063730970589686e+00
658:-2.7856489925554535e+00
659:-2.3918903937361060e+00
660:-2.9365196604738792e+00
661:-2.5551859387051210e+00
662:-2.2545892270658454e+00
663:-2.5036629605271150e+00
664:-2.2564922120014126e+00
665:-2.0429148452197183e+00
666:-2.1894032450229144e+00
667:-1.8837882802249928e+00
668:-1.6505173136378324e+00
669:-2.0866139111861810e+00
670:-1.8188759372460559e+00
671:-1.6099285960544718e+00
672:-1.9101034679706812e+00
673:-1.6869898902458942e+00
674:-1.5072063217087261e+00
675:-1.5319382500750731e+00
676:-1.3475860541772835e+00
677:-1.1989975023669270e+00
678:-1.5005083121501197e+00
679:-1.3280561630065737e+00
680:-1.1879409819998072e+00
681:-1.4105369736858138e+00
682:-1.2573214814331466e+00
683:-1.1316559633321239e+00
684:2.0458949970240856e-01
685:-1.2133470021913551e+00
686:-2.0068680955380795e+00
687:1.9653170782528945e-01
688:-6.6128514087872636e-01
689:-1.1358121811834159e+00
690:5.1558309186683846e-02
691:-1.6284218458011798e-01
692:-2.7570162805611609e-01
693:-2.1065588484634752e+00
694:-1.9259101597411388e+00
695:-1.7612513599895985e+00
696:-1.2018456034045528e+00
697:-1.1141214001155502e+00
698:-1.0303801371960428e+00
699:-2.9507423984518305e-01
700:-2.8666176992418441e-01
701:-2.7362188455362713e-01
702:-1.6530295339745757e+00
703:-1.4669644408772695e+00
704:-1.3153483543717457e+00
705:-9.7051941757591254e-01
706:-8.6407003125511728e-01
707:-7.7768885385711750e-01
708:-2.5954553191791008e-01
709:-2.3225271488099727e-01
710:-2.1051755145183021e-01
711:-1.2332084254430278e+00
712:-1.1030139447286527e+00
713:-9.9590732068175303e-01
714:-7.3072063052038072e-01
715:-6.5605243550065595e-01
716:-5.9455419504209484e-01
717:-1.9842882603129350e-01
718:-1.7881320995650693e-01
719:-1.6236147624860381e-01
