patch_n	x	y	stress_yy
0	 0.000000000000000e+00	 0.000000000000000e+00	 1.011938292307692e+01
0	 0.000000000000000e+00	 2.500000000000000e+00	 1.010101399000000e+01
0	 0.000000000000000e+00	 5.000000000000000e+00	 1.008268636000000e+01
0	 0.000000000000000e+00	 7.500000000000000e+00	 1.006440003307692e+01
0	 0.000000000000000e+00	 1.000000000000000e+01	 1.004615500923077e+01
0	 0.000000000000000e+00	 1.250000000000000e+01	 1.002795128846154e+01
0	 0.000000000000000e+00	 1.500000000000000e+01	 1.000978887076923e+01
0	 0.000000000000000e+00	 1.750000000000000e+01	 9.991667756153845e+00
0	 0.000000000000000e+00	 2.000000000000000e+01	 9.973587944615382e+00
0	 0.000000000000000e+00	 2.250000000000000e+01	 9.955549436153841e+00
0	 0.000000000000000e+00	 2.500000000000000e+01	 9.937552230769230e+00
0	 2.500000000000000e+00	 0.000000000000000e+00	 1.009452676153846e+01
0	 2.500000000000000e+00	 2.500000000000000e+00	 1.008030235303846e+01
0	 2.500000000000000e+00	 5.000000000000000e+00	 1.006611544984615e+01
0	 2.500000000000000e+00	 7.500000000000002e+00	 1.005196605196154e+01
0	 2.500000000000000e+00	 1.000000000000000e+01	 1.003785415938461e+01
0	 2.500000000000000e+00	 1.250000000000000e+01	 1.002377977211539e+01
0	 2.500000000000000e+00	 1.500000000000000e+01	 1.000974289015384e+01
0	 2.500000000000000e+00	 1.750000000000000e+01	 9.995743513499999e+00
0	 2.500000000000000e+00	 2.000000000000000e+01	 9.981781642153843e+00
0	 2.500000000000000e+00	 2.250000000000000e+01	 9.967857276115382e+00
0	 2.500000000000000e+00	 2.500000000000000e+01	 9.953970415384610e+00
0	 5.000000000000000e+00	 0.000000000000000e+00	 1.007254146153846e+01
0	 5.000000000000001e+00	 2.500000000000000e+00	 1.006196338761538e+01
0	 4.999999999999998e+00	 4.999999999999997e+00	 1.005141902123077e+01
0	 5.000000000000000e+00	 7.500000000000001e+00	 1.004090836238461e+01
0	 5.000000000000000e+00	 1.000000000000000e+01	 1.003043141107692e+01
0	 5.000000000000001e+00	 1.250000000000000e+01	 1.001998816730769e+01
0	 4.999999999999999e+00	 1.500000000000000e+01	 1.000957863107692e+01
0	 5.000000000000001e+00	 1.750000000000000e+01	 9.999202802384611e+00
0	 5.000000000000000e+00	 2.000000000000000e+01	 9.988860681230769e+00
0	 5.000000000000000e+00	 2.250000000000000e+01	 9.978552267615381e+00
0	 5.000000000000000e+00	 2.500000000000000e+01	 9.968277561538457e+00
0	 7.500000000000000e+00	 0.000000000000000e+00	 1.005342702307692e+01
0	 7.500000000000002e+00	 2.500000000000000e+00	 1.004599709373077e+01
0	 7.500000000000003e+00	 5.000000000000002e+00	 1.003859707415384e+01
0	 7.500000000000002e+00	 7.500000000000002e+00	 1.003122696434615e+01
0	 7.500000000000000e+00	 1.000000000000000e+01	 1.002388676430769e+01
0	 7.500000000000001e+00	 1.250000000000000e+01	 1.001657647403846e+01
0	 7.500000000000001e+00	 1.500000000000000e+01	 1.000929609353846e+01
0	 7.500000000000002e+00	 1.750000000000000e+01	 1.000204562280769e+01
0	 7.500000000000001e+00	 1.999999999999999e+01	 9.994825061846154e+00
0	 7.500000000000000e+00	 2.250000000000000e+01	 9.987634410653843e+00
0	 7.500000000000001e+00	 2.500000000000000e+01	 9.980473669230769e+00
0	 1.000000000000000e+01	 0.000000000000000e+00	 1.003718344615384e+01
0	 1.000000000000000e+01	 2.500000000000000e+00	 1.003240347138461e+01
0	 1.000000000000000e+01	 5.000000000000000e+00	 1.002764960861538e+01
0	 1.000000000000000e+01	 7.500000000000000e+00	 1.002292185784615e+01
0	 1.000000000000000e+01	 1.000000000000000e+01	 1.001822021907692e+01
0	 1.000000000000000e+01	 1.250000000000000e+01	 1.001354469230769e+01
0	 1.000000000000000e+01	 1.500000000000000e+01	 1.000889527753846e+01
0	 1.000000000000000e+01	 1.750000000000000e+01	 1.000427197476923e+01
0	 1.000000000000000e+01	 2.000000000000000e+01	 9.999674783999998e+00
0	 9.999999999999998e+00	 2.249999999999999e+01	 9.995103705230768e+00
0	 1.000000000000000e+01	 2.500000000000000e+01	 9.990558738461536e+00
0	 1.250000000000000e+01	 0.000000000000000e+00	 1.002381073076923e+01
0	 1.250000000000000e+01	 2.500000000000000e+00	 1.002118252057692e+01
0	 1.250000000000000e+01	 5.000000000000001e+00	 1.001857662461538e+01
0	 1.250000000000000e+01	 7.500000000000001e+00	 1.001599304288461e+01
0	 1.250000000000000e+01	 1.000000000000000e+01	 1.001343177538461e+01
0	 1.250000000000000e+01	 1.250000000000000e+01	 1.001089282211538e+01
0	 1.250000000000000e+01	 1.500000000000000e+01	 1.000837618307692e+01
0	 1.250000000000000e+01	 1.750000000000000e+01	 1.000588185826923e+01
0	 1.250000000000000e+01	 2.000000000000000e+01	 1.000340984769231e+01
0	 1.250000000000000e+01	 2.250000000000000e+01	 1.000096015134615e+01
0	 1.250000000000000e+01	 2.500000000000000e+01	 9.998532769230769e+00
0	 1.500000000000000e+01	 0.000000000000000e+00	 1.001330887692307e+01
0	 1.500000000000000e+01	 2.500000000000000e+00	 1.001233424130769e+01
0	 1.500000000000000e+01	 4.999999999999999e+00	 1.001137812215384e+01
0	 1.500000000000000e+01	 7.500000000000001e+00	 1.001044051946153e+01
0	 1.500000000000000e+01	 1.000000000000000e+01	 1.000952143323077e+01
0	 1.500000000000000e+01	 1.250000000000000e+01	 1.000862086346154e+01
0	 1.500000000000000e+01	 1.500000000000000e+01	 1.000773881015385e+01
0	 1.500000000000000e+01	 1.750000000000000e+01	 1.000687527330769e+01
0	 1.500000000000000e+01	 2.000000000000000e+01	 1.000603025292308e+01
0	 1.500000000000000e+01	 2.250000000000000e+01	 1.000520374900000e+01
0	 1.500000000000000e+01	 2.500000000000000e+01	 1.000439576153846e+01
0	 1.750000000000000e+01	 0.000000000000000e+00	 1.000567788461538e+01
0	 1.750000000000000e+01	 2.500000000000000e+00	 1.000585863357692e+01
0	 1.750000000000000e+01	 5.000000000000001e+00	 1.000605410123077e+01
0	 1.750000000000000e+01	 7.500000000000002e+00	 1.000626428757692e+01
0	 1.750000000000000e+01	 1.000000000000000e+01	 1.000648919261538e+01
0	 1.750000000000000e+01	 1.250000000000000e+01	 1.000672881634615e+01
0	 1.750000000000000e+01	 1.500000000000000e+01	 1.000698315876923e+01
0	 1.750000000000000e+01	 1.750000000000000e+01	 1.000725221988461e+01
0	 1.750000000000000e+01	 2.000000000000000e+01	 1.000753599969230e+01
0	 1.750000000000000e+01	 2.250000000000000e+01	 1.000783449819230e+01
0	 1.750000000000000e+01	 2.500000000000000e+01	 1.000814771538461e+01
0	 2.000000000000000e+01	 0.000000000000000e+00	 1.000091775384615e+01
0	 1.999999999999999e+01	 2.500000000000000e+00	 1.000175569738461e+01
0	 2.000000000000000e+01	 5.000000000000000e+00	 1.000260456184616e+01
0	 2.000000000000000e+01	 7.499999999999999e+00	 1.000346434723077e+01
0	 2.000000000000000e+01	 1.000000000000000e+01	 1.000433505353846e+01
0	 2.000000000000000e+01	 1.250000000000000e+01	 1.000521668076923e+01
0	 1.999999999999999e+01	 1.500000000000000e+01	 1.000610922892307e+01
0	 2.000000000000000e+01	 1.750000000000000e+01	 1.000701269800000e+01
0	 2.000000000000000e+01	 2.000000000000000e+01	 1.000792708800000e+01
0	 2.000000000000000e+01	 2.250000000000000e+01	 1.000885239892308e+01
0	 2.000000000000000e+01	 2.500000000000000e+01	 1.000978863076923e+01
0	 2.250000000000000e+01	 0.000000000000000e+00	 9.999028484615383e+00
0	 2.250000000000000e+01	 2.500000000000000e+00	 1.000002543273077e+01
0	 2.250000000000000e+01	 5.000000000000001e+00	 1.000102950400000e+01
0	 2.250000000000000e+01	 7.500000000000001e+00	 1.000204069842308e+01
0	 2.250000000000000e+01	 1.000000000000000e+01	 1.000305901599999e+01
0	 2.250000000000000e+01	 1.250000000000000e+01	 1.000408445673077e+01
0	 2.250000000000000e+01	 1.500000000000000e+01	 1.000511702061539e+01
0	 2.250000000000000e+01	 1.750000000000000e+01	 1.000615670765384e+01
0	 2.250000000000000e+01	 2.000000000000000e+01	 1.000720351784615e+01
0	 2.250000000000000e+01	 2.250000000000000e+01	 1.000825745119231e+01
0	 2.250000000000000e+01	 2.500000000000000e+01	 1.000931850769231e+01
0	 2.500000000000000e+01	 0.000000000000000e+00	 1.000001007692307e+01
0	 2.500000000000000e+01	 2.500000000000000e+00	 1.000066783961538e+01
0	 2.500000000000000e+01	 5.000000000000000e+00	 1.000132892769231e+01
0	 2.500000000000000e+01	 7.500000000000000e+00	 1.000199334115385e+01
0	 2.500000000000000e+01	 1.000000000000000e+01	 1.000266108000000e+01
0	 2.500000000000000e+01	 1.250000000000000e+01	 1.000333214423077e+01
0	 2.500000000000000e+01	 1.500000000000000e+01	 1.000400653384615e+01
0	 2.500000000000000e+01	 1.750000000000000e+01	 1.000468424884615e+01
0	 2.500000000000000e+01	 2.000000000000000e+01	 1.000536528923077e+01
0	 2.500000000000000e+01	 2.250000000000000e+01	 1.000604965500000e+01
0	 2.500000000000000e+01	 2.500000000000000e+01	 1.000673734615385e+01
0	 0.000000000000000e+00	 2.500000000000000e+01	 9.937552230769230e+00
0	 0.000000000000000e+00	 2.750000000000000e+01	 9.948021353076921e+00
0	 0.000000000000000e+00	 3.000000000000000e+01	 9.958188596923073e+00
0	 0.000000000000000e+00	 3.250000000000001e+01	 9.968053962307691e+00
0	 0.000000000000000e+00	 3.500000000000001e+01	 9.977617449230767e+00
0	 0.000000000000000e+00	 3.750000000000001e+01	 9.986879057692306e+00
0	 0.000000000000000e+00	 4.000000000000001e+01	 9.995838787692307e+00
0	 0.000000000000000e+00	 4.250000000000001e+01	 1.000449663923077e+01
0	 0.000000000000000e+00	 4.500000000000001e+01	 1.001285261230769e+01
0	 0.000000000000000e+00	 4.750000000000002e+01	 1.002090670692307e+01
0	 0.000000000000000e+00	 5.000000000000000e+01	 1.002865892307692e+01
0	 2.500000000000000e+00	 2.500000000000000e+01	 9.953970415384610e+00
0	 2.499999999999999e+00	 2.750000000000000e+01	 9.961701283961535e+00
0	 2.500000000000000e+00	 3.000000000000001e+01	 9.969181202769233e+00
0	 2.500000000000000e+00	 3.250000000000000e+01	 9.976410171807686e+00
0	 2.500000000000000e+00	 3.500000000000001e+01	 9.983388191076923e+00
0	 2.500000000000000e+00	 3.750000000000001e+01	 9.990115260576921e+00
0	 2.500000000000000e+00	 4.000000000000003e+01	 9.996591380307688e+00
0	 2.500000000000000e+00	 4.250000000000001e+01	 1.000281655026923e+01
0	 2.500000000000000e+00	 4.500000000000002e+01	 1.000879077046154e+01
0	 2.500000000000000e+00	 4.750000000000002e+01	 1.001451404088461e+01
0	 2.500000000000000e+00	 5.000000000000000e+01	 1.001998636153847e+01
0	 5.000000000000000e+00	 2.500000000000000e+01	 9.968277561538457e+00
0	 5.000000000000001e+00	 2.750000000000000e+01	 9.973608335615381e+00
0	 5.000000000000001e+00	 3.000000000000000e+01	 9.978739088615381e+00
0	 5.000000000000001e+00	 3.250000000000001e+01	 9.983669820538459e+00
0	 5.000000000000000e+00	 3.500000000000001e+01	 9.988400531384610e+00
0	 5.000000000000000e+00	 3.750000000000001e+01	 9.992931221153842e+00
0	 5.000000000000000e+00	 4.000000000000002e+01	 9.997261889846150e+00
0	 4.999999999999999e+00	 4.250000000000001e+01	 1.000139253746154e+01
0	 5.000000000000000e+00	 4.500000000000003e+01	 1.000532316400000e+01
0	 5.000000000000001e+00	 4.750000000000002e+01	 1.000905376946154e+01
0	 5.000000000000000e+00	 5.000000000000000e+01	 1.001258435384615e+01
0	 7.500000000000001e+00	 2.500000000000000e+01	 9.980473669230769e+00
0	 7.499999999999999e+00	 2.750000000000000e+01	 9.983742508038459e+00
0	 7.500000000000001e+00	 3.000000000000001e+01	 9.986862254461531e+00
0	 7.500000000000003e+00	 3.250000000000001e+01	 9.989832908499997e+00
0	 7.500000000000003e+00	 3.500000000000002e+01	 9.992654470153845e+00
0	 7.500000000000003e+00	 3.750000000000002e+01	 9.995326939423073e+00
0	 7.500000000000002e+00	 4.000000000000002e+01	 9.997850316307691e+00
0	 7.500000000000002e+00	 4.250000000000001e+01	 1.000022460080769e+01
0	 7.500000000000001e+00	 4.500000000000002e+01	 1.000244979292308e+01
0	 7.500000000000001e+00	 4.750000000000002e+01	 1.000452589265385e+01
0	 7.500000000000000e+00	 5.000000000000000e+01	 1.000645290000000e+01
0	 1.000000000000000e+01	 2.500000000000000e+01	 9.990558738461536e+00
0	 1.000000000000000e+01	 2.750000000000000e+01	 9.992103801230765e+00
0	 1.000000000000000e+01	 3.000000000000001e+01	 9.993550700307692e+00
0	 1.000000000000000e+01	 3.250000000000001e+01	 9.994899435692306e+00
0	 1.000000000000000e+01	 3.500000000000001e+01	 9.996150007384616e+00
0	 1.000000000000000e+01	 3.750000000000001e+01	 9.997302415384619e+00
0	 1.000000000000000e+01	 4.000000000000001e+01	 9.998356659692309e+00
0	 1.000000000000000e+01	 4.250000000000001e+01	 9.999312740307690e+00
0	 1.000000000000000e+01	 4.500000000000002e+01	 1.000017065723077e+01
0	 1.000000000000000e+01	 4.750000000000003e+01	 1.000093041046154e+01
0	 1.000000000000000e+01	 5.000000000000000e+01	 1.000159200000000e+01
0	 1.250000000000000e+01	 2.500000000000000e+01	 9.998532769230769e+00
0	 1.250000000000000e+01	 2.750000000000000e+01	 9.998692215192307e+00
0	 1.250000000000000e+01	 3.000000000000000e+01	 9.998804426153843e+00
0	 1.250000000000000e+01	 3.250000000000001e+01	 9.998869402115385e+00
0	 1.250000000000000e+01	 3.500000000000000e+01	 9.998887143076919e+00
0	 1.250000000000000e+01	 3.750000000000001e+01	 9.998857649038463e+00
0	 1.250000000000000e+01	 4.000000000000001e+01	 9.998780920000000e+00
0	 1.250000000000000e+01	 4.250000000000002e+01	 9.998656955961540e+00
0	 1.250000000000000e+01	 4.500000000000001e+01	 9.998485756923078e+00
0	 1.250000000000000e+01	 4.750000000000001e+01	 9.998267322884608e+00
0	 1.250000000000000e+01	 5.000000000000000e+01	 9.998001653846156e+00
0	 1.500000000000000e+01	 2.500000000000000e+01	 1.000439576153846e+01
0	 1.500000000000000e+01	 2.750000000000000e+01	 1.000350774992308e+01
0	 1.500000000000000e+01	 3.000000000000000e+01	 1.000262343200000e+01
0	 1.500000000000000e+01	 3.250000000000001e+01	 1.000174280776923e+01
0	 1.500000000000000e+01	 3.500000000000001e+01	 1.000086587723077e+01
0	 1.500000000000000e+01	 3.750000000000002e+01	 9.999992640384621e+00
0	 1.500000000000000e+01	 4.000000000000002e+01	 9.999123097230767e+00
0	 1.500000000000000e+01	 4.250000000000002e+01	 9.998257247769232e+00
0	 1.500000000000000e+01	 4.500000000000002e+01	 9.997395092000001e+00
0	 1.500000000000000e+01	 4.750000000000002e+01	 9.996536629923082e+00
0	 1.500000000000000e+01	 4.999999999999999e+01	 9.995681861538467e+00
0	 1.750000000000000e+01	 2.500000000000000e+01	 1.000814771538461e+01
0	 1.750000000000000e+01	 2.749999999999999e+01	 1.000655040542307e+01
0	 1.750000000000000e+01	 3.000000000000001e+01	 1.000500771784615e+01
0	 1.750000000000000e+01	 3.250000000000001e+01	 1.000351965265384e+01
0	 1.750000000000000e+01	 3.500000000000001e+01	 1.000208620984615e+01
0	 1.750000000000000e+01	 3.750000000000002e+01	 1.000070738942308e+01
0	 1.750000000000000e+01	 4.000000000000001e+01	 9.999383191384615e+00
0	 1.750000000000000e+01	 4.250000000000002e+01	 9.998113615730771e+00
0	 1.750000000000000e+01	 4.500000000000002e+01	 9.996898662461543e+00
0	 1.750000000000000e+01	 4.750000000000001e+01	 9.995738331576925e+00
0	 1.750000000000000e+01	 5.000000000000000e+01	 9.994632623076921e+00
0	 2.000000000000000e+01	 2.500000000000000e+01	 1.000978863076923e+01
0	 2.000000000000000e+01	 2.750000000000000e+01	 1.000782018169230e+01
0	 2.000000000000000e+01	 3.000000000000001e+01	 1.000595728369231e+01
0	 2.000000000000000e+01	 3.250000000000001e+01	 1.000419993676923e+01
0	 2.000000000000000e+01	 3.500000000000001e+01	 1.000254814092308e+01
0	 2.000000000000000e+01	 3.750000000000002e+01	 1.000100189615384e+01
0	 2.000000000000000e+01	 4.000000000000001e+01	 9.999561202461537e+00
0	 1.999999999999999e+01	 4.250000000000001e+01	 9.998226059846154e+00
0	 2.000000000000000e+01	 4.500000000000002e+01	 9.996996468307692e+00
0	 2.000000000000000e+01	 4.750000000000003e+01	 9.995872427846153e+00
0	 2.000000000000000e+01	 5.000000000000001e+01	 9.994853938461539e+00
0	 2.250000000000000e+01	 2.500000000000000e+01	 1.000931850769231e+01
0	 2.250000000000000e+01	 2.750000000000000e+01	 1.000731707873077e+01
0	 2.250000000000000e+01	 3.000000000000000e+01	 1.000547212953846e+01
0	 2.250000000000000e+01	 3.250000000000001e+01	 1.000378366011538e+01
0	 2.249999999999999e+01	 3.500000000000000e+01	 1.000225167046154e+01
0	 2.250000000000000e+01	 3.750000000000001e+01	 1.000087616057692e+01
0	 2.250000000000000e+01	 4.000000000000001e+01	 9.999657130461536e+00
0	 2.250000000000000e+01	 4.250000000000001e+01	 9.998594580115382e+00
0	 2.250000000000000e+01	 4.500000000000002e+01	 9.997688509538467e+00
0	 2.250000000000000e+01	 4.750000000000001e+01	 9.996938918730768e+00
0	 2.250000000000000e+01	 5.000000000000000e+01	 9.996345807692313e+00
0	 2.500000000000000e+01	 2.500000000000000e+01	 1.000673734615385e+01
0	 2.500000000000000e+01	 2.750000000000000e+01	 1.000504109653846e+01
0	 2.500000000000000e+01	 3.000000000000000e+01	 1.000355225538461e+01
0	 2.500000000000000e+01	 3.250000000000001e+01	 1.000227082269231e+01
0	 2.500000000000000e+01	 3.500000000000001e+01	 1.000119679846154e+01
0	 2.500000000000000e+01	 3.750000000000001e+01	 1.000033018269231e+01
0	 2.500000000000000e+01	 4.000000000000001e+01	 9.999670975384618e+00
0	 2.500000000000000e+01	 4.250000000000002e+01	 9.999219176538466e+00
0	 2.500000000000000e+01	 4.500000000000001e+01	 9.998974786153845e+00
0	 2.500000000000000e+01	 4.750000000000002e+01	 9.998937804230771e+00
0	 2.500000000000000e+01	 5.000000000000000e+01	 9.999108230769231e+00
0	 2.500000000000000e+01	 0.000000000000000e+00	 1.000001007692307e+01
0	 2.500000000000000e+01	 2.500000000000000e+00	 1.000066783961538e+01
0	 2.500000000000000e+01	 5.000000000000000e+00	 1.000132892769231e+01
0	 2.500000000000000e+01	 7.500000000000000e+00	 1.000199334115385e+01
0	 2.500000000000000e+01	 1.000000000000000e+01	 1.000266108000000e+01
0	 2.500000000000000e+01	 1.250000000000000e+01	 1.000333214423077e+01
0	 2.500000000000000e+01	 1.500000000000000e+01	 1.000400653384615e+01
0	 2.500000000000000e+01	 1.750000000000000e+01	 1.000468424884615e+01
0	 2.500000000000000e+01	 2.000000000000000e+01	 1.000536528923077e+01
0	 2.500000000000000e+01	 2.250000000000000e+01	 1.000604965500000e+01
0	 2.500000000000000e+01	 2.500000000000000e+01	 1.000673734615385e+01
0	 2.750000000000000e+01	 0.000000000000000e+00	 1.000165228461538e+01
0	 2.750000000000001e+01	 2.500000000000000e+00	 1.000191665296154e+01
0	 2.750000000000000e+01	 5.000000000000001e+00	 1.000218398184615e+01
0	 2.750000000000001e+01	 7.500000000000001e+00	 1.000245427126923e+01
0	 2.749999999999999e+01	 9.999999999999998e+00	 1.000272752123076e+01
0	 2.750000000000000e+01	 1.250000000000000e+01	 1.000300373173076e+01
0	 2.750000000000000e+01	 1.500000000000000e+01	 1.000328290276923e+01
0	 2.750000000000000e+01	 1.750000000000000e+01	 1.000356503434615e+01
0	 2.750000000000000e+01	 2.000000000000000e+01	 1.000385012646153e+01
0	 2.750000000000000e+01	 2.250000000000000e+01	 1.000413817911538e+01
0	 2.750000000000000e+01	 2.500000000000000e+01	 1.000442919230769e+01
0	 3.000000000000000e+01	 0.000000000000000e+00	 1.000282430769231e+01
0	 3.000000000000001e+01	 2.500000000000000e+00	 1.000278302400000e+01
0	 3.000000000000000e+01	 5.000000000000000e+00	 1.000274433600000e+01
0	 3.000000000000000e+01	 7.500000000000000e+00	 1.000270824369230e+01
0	 3.000000000000000e+01	 1.000000000000000e+01	 1.000267474707692e+01
0	 3.000000000000001e+01	 1.250000000000000e+01	 1.000264384615385e+01
0	 3.000000000000000e+01	 1.500000000000000e+01	 1.000261554092307e+01
0	 3.000000000000000e+01	 1.750000000000000e+01	 1.000258983138461e+01
0	 3.000000000000000e+01	 2.000000000000000e+01	 1.000256671753846e+01
0	 3.000000000000000e+01	 2.250000000000000e+01	 1.000254619938461e+01
0	 3.000000000000000e+01	 2.500000000000000e+01	 1.000252827692307e+01
0	 3.250000000000001e+01	 0.000000000000000e+00	 1.000352614615385e+01
0	 3.250000000000000e+01	 2.500000000000000e+00	 1.000326695273077e+01
0	 3.250000000000001e+01	 5.000000000000001e+00	 1.000300999015384e+01
0	 3.250000000000000e+01	 7.500000000000001e+00	 1.000275525842308e+01
0	 3.250000000000001e+01	 1.000000000000000e+01	 1.000250275753846e+01
0	 3.250000000000001e+01	 1.250000000000000e+01	 1.000225248750000e+01
0	 3.250000000000001e+01	 1.500000000000000e+01	 1.000200444830769e+01
0	 3.250000000000001e+01	 1.750000000000000e+01	 1.000175863996154e+01
0	 3.250000000000001e+01	 2.000000000000000e+01	 1.000151506246153e+01
0	 3.250000000000001e+01	 2.250000000000000e+01	 1.000127371580769e+01
0	 3.250000000000001e+01	 2.500000000000000e+01	 1.000103460000000e+01
0	 3.500000000000001e+01	 0.000000000000000e+00	 1.000375780000000e+01
0	 3.500000000000001e+01	 2.500000000000000e+00	 1.000336843915384e+01
0	 3.500000000000001e+01	 5.000000000000000e+00	 1.000298094430769e+01
0	 3.500000000000000e+01	 7.500000000000000e+00	 1.000259531546153e+01
0	 3.500000000000002e+01	 1.000000000000000e+01	 1.000221155261538e+01
0	 3.500000000000001e+01	 1.250000000000000e+01	 1.000182965576923e+01
0	 3.500000000000001e+01	 1.500000000000000e+01	 1.000144962492307e+01
0	 3.500000000000001e+01	 1.750000000000000e+01	 1.000107146007692e+01
0	 3.500000000000001e+01	 2.000000000000000e+01	 1.000069516123077e+01
0	 3.500000000000001e+01	 2.250000000000000e+01	 1.000032072838461e+01
0	 3.500000000000001e+01	 2.500000000000000e+01	 9.999948161538462e+00
0	 3.750000000000001e+01	 0.000000000000000e+00	 1.000351926923077e+01
0	 3.750000000000001e+01	 2.500000000000000e+00	 1.000308748326923e+01
0	 3.750000000000001e+01	 5.000000000000000e+00	 1.000265719846153e+01
0	 3.750000000000002e+01	 7.500000000000002e+00	 1.000222841480769e+01
0	 3.750000000000001e+01	 1.000000000000000e+01	 1.000180113230769e+01
0	 3.750000000000001e+01	 1.250000000000000e+01	 1.000137535096154e+01
0	 3.750000000000001e+01	 1.500000000000000e+01	 1.000095107076923e+01
0	 3.750000000000001e+01	 1.750000000000000e+01	 1.000052829173077e+01
0	 3.750000000000001e+01	 2.000000000000000e+01	 1.000010701384615e+01
0	 3.750000000000001e+01	 2.250000000000000e+01	 9.999687237115383e+00
0	 3.750000000000001e+01	 2.500000000000000e+01	 9.999268961538462e+00
0	 4.000000000000001e+01	 0.000000000000000e+00	 1.000281055384615e+01
0	 4.000000000000002e+01	 2.500000000000000e+00	 1.000242408507692e+01
0	 4.000000000000000e+01	 5.000000000000000e+00	 1.000203875261538e+01
0	 4.000000000000001e+01	 7.500000000000002e+00	 1.000165455646153e+01
0	 4.000000000000001e+01	 1.000000000000000e+01	 1.000127149661538e+01
0	 4.000000000000002e+01	 1.250000000000000e+01	 1.000088957307692e+01
0	 4.000000000000002e+01	 1.500000000000000e+01	 1.000050878584615e+01
0	 4.000000000000001e+01	 1.750000000000000e+01	 1.000012913492308e+01
0	 4.000000000000001e+01	 2.000000000000000e+01	 9.999750620307690e+00
0	 4.000000000000001e+01	 2.250000000000000e+01	 9.999373241999999e+00
0	 4.000000000000001e+01	 2.499999999999999e+01	 9.998996999999997e+00
0	 4.250000000000001e+01	 0.000000000000000e+00	 1.000163165384615e+01
0	 4.250000000000001e+01	 2.500000000000000e+00	 1.000137824457692e+01
0	 4.250000000000001e+01	 5.000000000000000e+00	 1.000112560676923e+01
0	 4.250000000000001e+01	 7.500000000000001e+00	 1.000087374042308e+01
0	 4.250000000000002e+01	 1.000000000000000e+01	 1.000062264553846e+01
0	 4.250000000000002e+01	 1.250000000000000e+01	 1.000037232211538e+01
0	 4.250000000000002e+01	 1.500000000000000e+01	 1.000012277015385e+01
0	 4.250000000000001e+01	 1.750000000000000e+01	 9.999873989653842e+00
0	 4.250000000000001e+01	 2.000000000000000e+01	 9.999625980615383e+00
0	 4.250000000000001e+01	 2.250000000000000e+01	 9.999378743038459e+00
0	 4.250000000000001e+01	 2.500000000000000e+01	 9.999132276923072e+00
0	 4.500000000000001e+01	 0.000000000000000e+00	 9.999982569230768e+00
0	 4.500000000000002e+01	 2.500000000000000e+00	 9.999949961769229e+00
0	 4.500000000000002e+01	 5.000000000000001e+00	 9.999917760923072e+00
0	 4.500000000000003e+01	 7.500000000000001e+00	 9.999885966692304e+00
0	 4.500000000000001e+01	 1.000000000000000e+01	 9.999854579076921e+00
0	 4.500000000000002e+01	 1.250000000000000e+01	 9.999823598076919e+00
0	 4.500000000000001e+01	 1.500000000000000e+01	 9.999793023692305e+00
0	 4.500000000000001e+01	 1.750000000000000e+01	 9.999762855923073e+00
0	 4.500000000000002e+01	 2.000000000000000e+01	 9.999733094769228e+00
0	 4.500000000000001e+01	 2.250000000000000e+01	 9.999703740230766e+00
0	 4.500000000000001e+01	 2.500000000000000e+01	 9.999674792307690e+00
0	 4.750000000000002e+01	 0.000000000000000e+00	 9.997863299999999e+00
0	 4.750000000000003e+01	 2.500000000000000e+00	 9.998139236653842e+00
0	 4.750000000000001e+01	 5.000000000000000e+00	 9.998415215076921e+00
0	 4.750000000000001e+01	 7.500000000000000e+00	 9.998691235269227e+00
0	 4.750000000000003e+01	 1.000000000000000e+01	 9.998967297230767e+00
0	 4.750000000000002e+01	 1.250000000000000e+01	 9.999243400961534e+00
0	 4.750000000000002e+01	 1.500000000000000e+01	 9.999519546461537e+00
0	 4.750000000000001e+01	 1.750000000000000e+01	 9.999795733730764e+00
0	 4.750000000000002e+01	 2.000000000000000e+01	 1.000007196276923e+01
0	 4.750000000000002e+01	 2.250000000000000e+01	 1.000034823357692e+01
0	 4.750000000000001e+01	 2.500000000000000e+01	 1.000062454615384e+01
0	 5.000000000000000e+01	 0.000000000000000e+00	 9.995273846153845e+00
0	 5.000000000000000e+01	 2.500000000000000e+00	 9.995946069230769e+00
0	 5.000000000000000e+01	 5.000000000000000e+00	 9.996617969230769e+00
0	 5.000000000000000e+01	 7.500000000000000e+00	 9.997289546153844e+00
0	 5.000000000000000e+01	 1.000000000000000e+01	 9.997960800000000e+00
0	 5.000000000000000e+01	 1.250000000000000e+01	 9.998631730769231e+00
0	 4.999999999999999e+01	 1.500000000000000e+01	 9.999302338461536e+00
0	 5.000000000000000e+01	 1.750000000000000e+01	 9.999972623076921e+00
0	 5.000000000000001e+01	 2.000000000000000e+01	 1.000064258461538e+01
0	 5.000000000000000e+01	 2.250000000000000e+01	 1.000131222307692e+01
0	 5.000000000000000e+01	 2.500000000000000e+01	 1.000198153846154e+01
0	 2.500000000000000e+01	 2.500000000000000e+01	 1.000673734615385e+01
0	 2.500000000000000e+01	 2.750000000000000e+01	 1.000504109653846e+01
0	 2.500000000000000e+01	 3.000000000000000e+01	 1.000355225538461e+01
0	 2.500000000000000e+01	 3.250000000000001e+01	 1.000227082269231e+01
0	 2.500000000000000e+01	 3.500000000000001e+01	 1.000119679846154e+01
0	 2.500000000000000e+01	 3.750000000000001e+01	 1.000033018269231e+01
0	 2.500000000000000e+01	 4.000000000000001e+01	 9.999670975384618e+00
0	 2.500000000000000e+01	 4.250000000000002e+01	 9.999219176538466e+00
0	 2.500000000000000e+01	 4.500000000000001e+01	 9.998974786153845e+00
0	 2.500000000000000e+01	 4.750000000000002e+01	 9.998937804230771e+00
0	 2.500000000000000e+01	 5.000000000000000e+01	 9.999108230769231e+00
0	 2.750000000000000e+01	 2.500000000000000e+01	 1.000442919230769e+01
0	 2.750000000000000e+01	 2.750000000000000e+01	 1.000330251188462e+01
0	 2.750000000000001e+01	 3.000000000000001e+01	 1.000235182369230e+01
0	 2.750000000000000e+01	 3.250000000000001e+01	 1.000157712773077e+01
0	 2.750000000000000e+01	 3.500000000000001e+01	 1.000097842400000e+01
0	 2.750000000000000e+01	 3.750000000000001e+01	 1.000055571250000e+01
0	 2.750000000000000e+01	 4.000000000000001e+01	 1.000030899323077e+01
0	 2.750000000000000e+01	 4.250000000000001e+01	 1.000023826619231e+01
0	 2.750000000000000e+01	 4.500000000000001e+01	 1.000034353138462e+01
0	 2.750000000000000e+01	 4.750000000000002e+01	 1.000062478880769e+01
0	 2.750000000000000e+01	 5.000000000000000e+01	 1.000108203846153e+01
0	 3.000000000000000e+01	 2.500000000000000e+01	 1.000252827692307e+01
0	 3.000000000000001e+01	 2.750000000000000e+01	 1.000187687569231e+01
0	 3.000000000000001e+01	 3.000000000000001e+01	 1.000137005046154e+01
0	 3.000000000000000e+01	 3.250000000000001e+01	 1.000100780123077e+01
0	 3.000000000000001e+01	 3.500000000000001e+01	 1.000079012799999e+01
0	 3.000000000000000e+01	 3.750000000000001e+01	 1.000071703076923e+01
0	 3.000000000000001e+01	 4.000000000000002e+01	 1.000078850953846e+01
0	 3.000000000000000e+01	 4.250000000000001e+01	 1.000100456430769e+01
0	 3.000000000000000e+01	 4.500000000000001e+01	 1.000136519507692e+01
0	 3.000000000000001e+01	 4.750000000000001e+01	 1.000187040184615e+01
0	 3.000000000000000e+01	 5.000000000000000e+01	 1.000252018461539e+01
0	 3.250000000000001e+01	 2.500000000000000e+01	 1.000103460000000e+01
0	 3.250000000000001e+01	 2.750000000000000e+01	 1.000076418796154e+01
0	 3.250000000000001e+01	 3.000000000000000e+01	 1.000060693569231e+01
0	 3.250000000000001e+01	 3.250000000000001e+01	 1.000056284319230e+01
0	 3.250000000000001e+01	 3.500000000000001e+01	 1.000063191046154e+01
0	 3.250000000000001e+01	 3.750000000000001e+01	 1.000081413750000e+01
0	 3.250000000000001e+01	 4.000000000000001e+01	 1.000110952430769e+01
0	 3.250000000000001e+01	 4.250000000000001e+01	 1.000151807088461e+01
0	 3.250000000000001e+01	 4.500000000000001e+01	 1.000203977723077e+01
0	 3.250000000000001e+01	 4.750000000000001e+01	 1.000267464334615e+01
0	 3.250000000000001e+01	 4.999999999999999e+01	 1.000342266923077e+01
0	 3.500000000000001e+01	 2.500000000000000e+01	 9.999948161538462e+00
0	 3.500000000000001e+01	 2.750000000000001e+01	 9.999964448692307e+00
0	 3.500000000000001e+01	 3.000000000000000e+01	 1.000006247938461e+01
0	 3.500000000000001e+01	 3.250000000000001e+01	 1.000024225361538e+01
0	 3.500000000000001e+01	 3.500000000000001e+01	 1.000050377138462e+01
0	 3.500000000000001e+01	 3.750000000000002e+01	 1.000084703269231e+01
0	 3.500000000000001e+01	 4.000000000000001e+01	 1.000127203753846e+01
0	 3.500000000000001e+01	 4.250000000000002e+01	 1.000177878592307e+01
0	 3.500000000000001e+01	 4.500000000000002e+01	 1.000236727784616e+01
0	 3.500000000000001e+01	 4.750000000000001e+01	 1.000303751330769e+01
0	 3.500000000000001e+01	 5.000000000000000e+01	 1.000378949230770e+01
0	 3.750000000000001e+01	 2.500000000000000e+01	 9.999268961538462e+00
0	 3.750000000000001e+01	 2.750000000000000e+01	 9.999477657884611e+00
0	 3.750000000000001e+01	 3.000000000000001e+01	 9.999736681538462e+00
0	 3.750000000000001e+01	 3.250000000000001e+01	 1.000004603250000e+01
0	 3.750000000000001e+01	 3.500000000000001e+01	 1.000040571076923e+01
0	 3.750000000000001e+01	 3.750000000000001e+01	 1.000081571634615e+01
0	 3.750000000000001e+01	 4.000000000000001e+01	 1.000127604923077e+01
0	 3.750000000000001e+01	 4.250000000000001e+01	 1.000178670942307e+01
0	 3.750000000000001e+01	 4.500000000000003e+01	 1.000234769692308e+01
0	 3.750000000000001e+01	 4.750000000000001e+01	 1.000295901173076e+01
0	 3.750000000000001e+01	 5.000000000000000e+01	 1.000362065384615e+01
0	 4.000000000000001e+01	 2.499999999999999e+01	 9.998996999999997e+00
0	 4.000000000000001e+01	 2.750000000000000e+01	 9.999303815538457e+00
0	 4.000000000000002e+01	 3.000000000000001e+01	 9.999629542153844e+00
0	 4.000000000000001e+01	 3.250000000000001e+01	 9.999974179846150e+00
0	 4.000000000000001e+01	 3.500000000000001e+01	 1.000033772861538e+01
0	 4.000000000000001e+01	 3.750000000000000e+01	 1.000072018846154e+01
0	 4.000000000000002e+01	 4.000000000000002e+01	 1.000112155938461e+01
0	 4.000000000000001e+01	 4.250000000000001e+01	 1.000154184138461e+01
0	 4.000000000000001e+01	 4.500000000000001e+01	 1.000198103446154e+01
0	 4.000000000000001e+01	 4.750000000000001e+01	 1.000243913861538e+01
0	 4.000000000000001e+01	 5.000000000000000e+01	 1.000291615384616e+01
0	 4.250000000000001e+01	 2.500000000000000e+01	 9.999132276923072e+00
0	 4.250000000000000e+01	 2.750000000000000e+01	 9.999442921653847e+00
0	 4.250000000000001e+01	 3.000000000000000e+01	 9.999741061230770e+00
0	 4.250000000000001e+01	 3.250000000000001e+01	 1.000002669565384e+01
0	 4.250000000000001e+01	 3.500000000000001e+01	 1.000029982492308e+01
0	 4.250000000000001e+01	 3.750000000000001e+01	 1.000056044903846e+01
0	 4.250000000000001e+01	 4.000000000000001e+01	 1.000080856800000e+01
0	 4.250000000000002e+01	 4.250000000000001e+01	 1.000104418180770e+01
0	 4.250000000000001e+01	 4.500000000000001e+01	 1.000126729046154e+01
0	 4.250000000000001e+01	 4.750000000000001e+01	 1.000147789396155e+01
0	 4.250000000000001e+01	 5.000000000000000e+01	 1.000167599230770e+01
0	 4.500000000000001e+01	 2.500000000000000e+01	 9.999674792307690e+00
0	 4.500000000000002e+01	 2.750000000000000e+01	 9.999894976230767e+00
0	 4.500000000000001e+01	 3.000000000000000e+01	 1.000007123876923e+01
0	 4.500000000000001e+01	 3.250000000000001e+01	 1.000020357992307e+01
0	 4.500000000000001e+01	 3.500000000000001e+01	 1.000029199969231e+01
0	 4.500000000000002e+01	 3.750000000000001e+01	 1.000033649807692e+01
0	 4.500000000000003e+01	 4.000000000000001e+01	 1.000033707507692e+01
0	 4.500000000000001e+01	 4.250000000000001e+01	 1.000029373069231e+01
0	 4.500000000000001e+01	 4.500000000000001e+01	 1.000020646492308e+01
0	 4.500000000000001e+01	 4.750000000000001e+01	 1.000007527776923e+01
0	 4.500000000000001e+01	 5.000000000000000e+01	 9.999900169230772e+00
0	 4.750000000000001e+01	 2.500000000000000e+01	 1.000062454615384e+01
0	 4.750000000000003e+01	 2.750000000000000e+01	 1.000065997926923e+01
0	 4.750000000000002e+01	 3.000000000000001e+01	 1.000062007476923e+01
0	 4.750000000000001e+01	 3.250000000000000e+01	 1.000050483265384e+01
0	 4.750000000000001e+01	 3.500000000000000e+01	 1.000031425292307e+01
0	 4.750000000000002e+01	 3.750000000000001e+01	 1.000004833557693e+01
0	 4.750000000000001e+01	 4.000000000000001e+01	 9.999707080615382e+00
0	 4.750000000000001e+01	 4.250000000000001e+01	 9.999290488038461e+00
0	 4.750000000000002e+01	 4.500000000000002e+01	 9.998798557846158e+00
0	 4.750000000000002e+01	 4.750000000000002e+01	 9.998231290038463e+00
0	 4.750000000000002e+01	 5.000000000000000e+01	 9.997588684615387e+00
0	 5.000000000000000e+01	 2.500000000000000e+01	 1.000198153846154e+01
0	 5.000000000000000e+01	 2.750000000000000e+01	 1.000173793076923e+01
0	 5.000000000000000e+01	 3.000000000000000e+01	 1.000138756923077e+01
0	 4.999999999999999e+01	 3.250000000000001e+01	 1.000093045384615e+01
0	 5.000000000000000e+01	 3.500000000000001e+01	 1.000036658461538e+01
0	 5.000000000000000e+01	 3.750000000000001e+01	 9.999695961538460e+00
0	 5.000000000000000e+01	 4.000000000000001e+01	 9.998918584615383e+00
0	 5.000000000000000e+01	 4.250000000000001e+01	 9.998034453846161e+00
0	 5.000000000000000e+01	 4.500000000000001e+01	 9.997043569230769e+00
0	 5.000000000000000e+01	 4.750000000000002e+01	 9.995945930769235e+00
0	 5.000000000000000e+01	 5.000000000000000e+01	 9.994741538461540e+00
1	 1.000000000000000e+00	 0.000000000000000e+00	 1.022445929269926e+01
1	 9.974284469061117e-01	 7.166933307459909e-02	 1.003775829964208e+01
1	 9.894434504821962e-01	 1.449194890321757e-01	 9.316321168752260e+00
1	 9.756838834622871e-01	 2.191824800466296e-01	 8.105540460541157e+00
1	 9.558632461088633e-01	 2.938119377266979e-01	 6.476381824624226e+00
1	 9.297883010654997e-01	 3.680947095788114e-01	 4.524459169898330e+00
1	 8.973756499999386e-01	 4.412674277705018e-01	 2.366995929904642e+00
1	 8.586647592151359e-01	 5.125376389217220e-01	 1.376274591877362e-01
1	 8.138260360595577e-01	 5.811085811322338e-01	-2.020724345765601e+00
1	 7.631628410951806e-01	 6.462062194133431e-01	-3.964383193642222e+00
1	 7.071067811999999e-01	 7.071067811999999e-01	-5.558087036775198e+00
1	 1.050000000000000e+00	 0.000000000000000e+00	 7.810316868317529e+00
1	 1.047299869251417e+00	 7.525279972832902e-02	 7.785020150577520e+00
1	 1.038915623006306e+00	 1.521654634837845e-01	 7.287469440753659e+00
1	 1.024468077635402e+00	 2.301416040489612e-01	 6.354151196064755e+00
1	 1.003656408414306e+00	 3.085025346130328e-01	 5.043826917970361e+00
1	 9.762777161187748e-01	 3.864994450577520e-01	 3.436884063709170e+00
1	 9.422444324999355e-01	 4.633307991590269e-01	 1.632858142088239e+00
1	 9.015979971758928e-01	 5.381645208678082e-01	-2.539274659165718e-01
1	 8.545173378625356e-01	 6.101640101888454e-01	-2.100419259892244e+00
1	 8.013209831499400e-01	 6.785165303840103e-01	-3.782151835399207e+00
1	 7.424621202600000e-01	 7.424621202600000e-01	-5.181169845953017e+00
1	 1.100000000000000e+00	 0.000000000000000e+00	 5.840129220979067e+00
1	 1.097171291596723e+00	 7.883626638205897e-02	 5.938973202800184e+00
1	 1.088387795530416e+00	 1.594114379353933e-01	 5.623515034225198e+00
1	 1.073252271808516e+00	 2.411007280512926e-01	 4.922071756287066e+00
1	 1.051449570719750e+00	 3.231931314993677e-01	 3.882171752200358e+00
1	 1.022767131172050e+00	 4.049041805366925e-01	 2.570162028856796e+00
1	 9.871132149999328e-01	 4.853941705475520e-01	 1.069252410438831e+00
1	 9.445312351366494e-01	 5.637914028138941e-01	-5.240648402937664e-01
1	 8.952086396655135e-01	 6.392194392454570e-01	-2.105078692984858e+00
1	 8.394791252046989e-01	 7.108268413546777e-01	-3.567047630268743e+00
1	 7.778174593199999e-01	 7.778174593199999e-01	-4.807961899238085e+00
1	 1.150000000000000e+00	 0.000000000000000e+00	 4.255989205852145e+00
1	 1.147042713942029e+00	 8.241973303578898e-02	 4.446570777881285e+00
1	 1.137859968054525e+00	 1.666574123870021e-01	 4.276862646366421e+00
1	 1.122036465981631e+00	 2.520598520536241e-01	 3.767653033638702e+00
1	 1.099242733025193e+00	 3.378837283857026e-01	 2.956081578503271e+00
1	 1.069256546225325e+00	 4.233089160156331e-01	 1.895486142992934e+00
1	 1.031981997499930e+00	 5.074575419360771e-01	 6.539354232824525e-01
1	 9.874644730974065e-01	 5.894182847599803e-01	-6.886217357777884e-01
1	 9.358999414684912e-01	 6.682748683020687e-01	-2.044489881700066e+00
1	 8.776372672594579e-01	 7.431371523253446e-01	-3.323358340888332e+00
1	 8.131727983800001e-01	 8.131727983800001e-01	-4.437979382181633e+00
1	 1.200000000000000e+00	 0.000000000000000e+00	 3.009640868910316e+00
1	 1.196914136287334e+00	 8.600319968951889e-02	 3.263607310463526e+00
1	 1.187332140578636e+00	 1.739033868386109e-01	 3.207849524843617e+00
1	 1.170820660154745e+00	 2.630189760559555e-01	 2.856187438478495e+00
1	 1.147035895330636e+00	 3.525743252720376e-01	 2.236110772869989e+00
1	 1.115745961278600e+00	 4.417136514945736e-01	 1.388850637494022e+00
1	 1.076850779999926e+00	 5.295209133246022e-01	 3.683710875574929e-01
1	 1.030397711058163e+00	 6.150451667060663e-01	-7.607957122303127e-01
1	 9.765912432714694e-01	 6.973302973586805e-01	-1.926808856585044e+00
1	 9.157954093142165e-01	 7.754474632960119e-01	-3.054657102789210e+00
1	 8.485281374399999e-01	 8.485281374400000e-01	-4.070819116076347e+00
1	 1.250000000000000e+00	 0.000000000000000e+00	 2.060549208771373e+00
1	 1.246785558632640e+00	 8.958666634324886e-02	 2.352950125646771e+00
1	 1.236804313102745e+00	 1.811493612902196e-01	 2.383158957696467e+00
1	 1.219604854327859e+00	 2.739781000582870e-01	 2.158520595507865e+00
1	 1.194829057636079e+00	 3.672649221583723e-01	 1.697525011132857e+00
1	 1.162235376331875e+00	 4.601183869735143e-01	 1.030090666716259e+00
1	 1.121719562499923e+00	 5.515842847131273e-01	 1.969890850921664e-01
1	 1.073330949018920e+00	 6.406720486521524e-01	-7.516727199350983e-01
1	 1.017282545074447e+00	 7.263857264152922e-01	-1.758886683299421e+00
1	 9.539535513689759e-01	 8.077577742666791e-01	-2.763945349817618e+00
1	 8.838834765000001e-01	 8.838834765000001e-01	-3.706142430808092e+00
1	 1.300000000000000e+00	 0.000000000000000e+00	 1.374415378111903e+00
1	 1.296656980977945e+00	 9.317013299697879e-02	 1.683179267746287e+00
1	 1.286276485626855e+00	 1.883953357418285e-01	 1.774599880958553e+00
1	 1.268389048500973e+00	 2.849372240606185e-01	 1.649983417935709e+00
1	 1.242622219941523e+00	 3.819555190447073e-01	 1.319395249765398e+00
1	 1.208724791385150e+00	 4.785231224524548e-01	 8.021436689610516e-01
1	 1.166588344999920e+00	 5.736476561016522e-01	 1.266145312795997e-01
1	 1.116264186979677e+00	 6.662989305982384e-01	-6.706331783630501e-01
1	 1.057973846877425e+00	 7.554411554719040e-01	-1.546520417401336e+00
1	 9.921116934237348e-01	 8.400680852373460e-01	-2.453762756766544e+00
1	 9.192388155600000e-01	 9.192388155600000e-01	-3.343662759357200e+00
1	 1.350000000000000e+00	 0.000000000000000e+00	 9.220218403230764e-01
1	 1.346528403323251e+00	 9.675359965070877e-02	 1.227529589326932e+00
1	 1.335748658150965e+00	 1.956413101934372e-01	 1.358157684584401e+00
1	 1.317173242674088e+00	 2.958963480629500e-01	 1.309561498495528e+00
1	 1.290415382246966e+00	 3.966461159310422e-01	 1.083893044282086e+00
1	 1.255214206438424e+00	 4.969278579313953e-01	 6.904748694481211e-01
1	 1.211457127499917e+00	 5.957110274901773e-01	 1.460243762694854e-01
1	 1.159197424940433e+00	 6.919258125443246e-01	-5.256678152115921e-01
1	 1.098665148680403e+00	 7.844965845285155e-01	-1.294648291403289e+00
1	 1.030269835478494e+00	 8.723783962080134e-01	-2.126272750311482e+00
1	 9.545941546199999e-01	 9.545941546199999e-01	-2.983135989077313e+00
1	 1.400000000000000e+00	 0.000000000000000e+00	 6.783249925973246e-01
1	 1.396399825668556e+00	 1.003370663044387e-01	 9.630595354442999e-01
1	 1.385220830675074e+00	 2.028872846450460e-01	 1.113248417106469e+00
1	 1.365957436847202e+00	 3.068554720652816e-01	 1.119242488101753e+00
1	 1.338208544552408e+00	 4.113367128173769e-01	 9.757368708381964e-01
1	 1.301703621491700e+00	 5.153325934103359e-01	 6.826258897943640e-01
1	 1.256325909999914e+00	 6.177743988787024e-01	 2.455988630472721e-01
1	 1.202130662901190e+00	 7.175526944904107e-01	-3.236258256499419e-01
1	 1.139356450483381e+00	 8.135520135851273e-01	-1.007503076030277e+00
1	 1.068427977533253e+00	 9.046887071786804e-01	-1.783329696174284e+00
1	 9.899494936799998e-01	 9.899494936799998e-01	-2.624352880557244e+00
1	 1.450000000000000e+00	 0.000000000000000e+00	 6.217355221695020e-01
1	 1.446271248013862e+00	 1.039205329581687e-01	 8.699919035601090e-01
1	 1.434693003199184e+00	 2.101332590966548e-01	 1.022127292776869e+00
1	 1.414741631020316e+00	 3.178145960676129e-01	 1.063498499611653e+00
1	 1.386001706857852e+00	 4.260273097037119e-01	 9.817530019813723e-01
1	 1.348193036544975e+00	 5.337373288892765e-01	 7.678567486350376e-01
1	 1.301194692499911e+00	 6.398377702672277e-01	 4.170450976349043e-01
1	 1.245063900861947e+00	 7.431795764364967e-01	-7.041168827226264e-02
1	 1.180047752286359e+00	 8.426074426417389e-01	-6.887337115624652e-01
1	 1.106586119588012e+00	 9.369990181493476e-01	-1.426532185494483e+00
1	 1.025304832740000e+00	 1.025304832740000e+00	-2.267133054994252e+00
1	 1.500000000000000e+00	 0.000000000000000e+00	 7.335426913098150e-01
1	 1.496142670359167e+00	 1.075039996118986e-01	 9.311864514745163e-01
1	 1.484165175723294e+00	 2.173792335482636e-01	 1.069415497280769e+00
1	 1.463525825193431e+00	 3.287737200699445e-01	 1.128872030834863e+00
1	 1.433794869163295e+00	 4.407179065900469e-01	 1.090524207252910e+00
1	 1.394682451598249e+00	 5.521420643682171e-01	 9.368594621206996e-01
1	 1.346063474999908e+00	 6.619011416557526e-01	 6.531759052513965e-01
1	 1.287997138822704e+00	 7.688064583825828e-01	 2.288573821398473e-01
1	 1.220739054089337e+00	 8.716628716983507e-01	-3.415026129093371e-01
1	 1.144744261642771e+00	 9.693093291200147e-01	-1.057265663926343e+00
1	 1.060660171800000e+00	 1.060660171800000e+00	-1.911320184092632e+00
1	 7.071067811999999e-01	 7.071067811999999e-01	-5.558087036775198e+00
1	 6.462062194133431e-01	 7.631628410951806e-01	-6.766339109020645e+00
1	 5.811085811322337e-01	 8.138260360595578e-01	-7.960251955433154e+00
1	 5.125376389217218e-01	 8.586647592151362e-01	-9.079092483130934e+00
1	 4.412674277705015e-01	 8.973756499999388e-01	-1.006461095914599e+01
1	 3.680947095788111e-01	 9.297883010654998e-01	-1.086446735767292e+01
1	 2.938119377266974e-01	 9.558632461088634e-01	-1.143503324029344e+01
1	 2.191824800466292e-01	 9.756838834622874e-01	-1.174334783348862e+01
1	 1.449194890321752e-01	 9.894434504821961e-01	-1.176812871095409e+01
1	 7.166933307459851e-02	 9.974284469061118e-01	-1.149985782203750e+01
1	 0.000000000000000e+00	 1.000000000000000e+00	-1.094006283962716e+01
1	 7.424621202600000e-01	 7.424621202600000e-01	-5.181169845953017e+00
1	 6.785165303840103e-01	 8.013209831499398e-01	-6.333381200586428e+00
1	 6.101640101888454e-01	 8.545173378625355e-01	-7.466290306392353e+00
1	 5.381645208678080e-01	 9.015979971758930e-01	-8.524292916739300e+00
1	 4.633307991590265e-01	 9.422444324999355e-01	-9.454339345832553e+00
1	 3.864994450577515e-01	 9.762777161187746e-01	-1.020902927641460e+01
1	 3.085025346130323e-01	 1.003656408414306e+00	-1.074912058360866e+01
1	 2.301416040489606e-01	 1.024468077635402e+00	-1.104525647984685e+01
1	 1.521654634837840e-01	 1.038915623006306e+00	-1.107882673876047e+01
1	 7.525279972832843e-02	 1.047299869251417e+00	-1.084198794057702e+01
1	 0.000000000000000e+00	 1.050000000000000e+00	-1.033695689734871e+01
1	 7.778174593199999e-01	 7.778174593199999e-01	-4.807961899238085e+00
1	 7.108268413546777e-01	 8.394791252046987e-01	-5.918154742170416e+00
1	 6.392194392454570e-01	 8.952086396655136e-01	-7.005207063371641e+00
1	 5.637914028138938e-01	 9.445312351366496e-01	-8.018167821277054e+00
1	 4.853941705475517e-01	 9.871132149999329e-01	-8.908700628191598e+00
1	 4.049041805366921e-01	 1.022767131172050e+00	-9.633874049979745e+00
1	 3.231931314993673e-01	 1.051449570719750e+00	-1.015840146155819e+01
1	 2.411007280512920e-01	 1.073252271808516e+00	-1.045615844013001e+01
1	 1.594114379353928e-01	 1.088387795530416e+00	-1.051090761654911e+01
1	 7.883626638205836e-02	 1.097171291596723e+00	-1.031625977649166e+01
1	 0.000000000000000e+00	 1.100000000000000e+00	-9.874979952914595e+00
1	 8.131727983800001e-01	 8.131727983800001e-01	-4.437979382181633e+00
1	 7.431371523253445e-01	 8.776372672594577e-01	-5.518346935944145e+00
1	 6.682748683020688e-01	 9.358999414684913e-01	-6.572713738629270e+00
1	 5.894182847599800e-01	 9.874644730974066e-01	-7.554368352709874e+00
1	 5.074575419360768e-01	 1.031981997499930e+00	-8.419264428526715e+00
1	 4.233089160156328e-01	 1.069256546225325e+00	-9.128530001652228e+00
1	 3.378837283857022e-01	 1.099242733025193e+00	-9.650459326146201e+00
1	 2.520598520536236e-01	 1.122036465981630e+00	-9.961837195130457e+00
1	 1.666574123870015e-01	 1.137859968054526e+00	-1.004853879867018e+01
1	 8.241973303578828e-02	 1.147042713942028e+00	-9.905437453602060e+00
1	 0.000000000000000e+00	 1.150000000000000e+00	-9.535723876171209e+00
1	 8.485281374399999e-01	 8.485281374400000e-01	-4.070819116076347e+00
1	 7.754474632960119e-01	 9.157954093142165e-01	-5.132030450383897e+00
1	 6.973302973586805e-01	 9.765912432714694e-01	-6.165236592380439e+00
1	 6.150451667060661e-01	 1.030397711058163e+00	-7.127603807675905e+00
1	 5.295209133246019e-01	 1.076850779999927e+00	-7.979005432090898e+00
1	 4.417136514945732e-01	 1.115745961278600e+00	-8.684270734168662e+00
1	 3.525743252720369e-01	 1.147035895330636e+00	-9.214947054042907e+00
1	 2.630189760559550e-01	 1.170820660154745e+00	-9.550445645508580e+00
1	 1.739033868386103e-01	 1.187332140578635e+00	-9.678526497082133e+00
1	 8.600319968951822e-02	 1.196914136287334e+00	-9.595157741758733e+00
1	 0.000000000000000e+00	 1.200000000000000e+00	-9.303848558657213e+00
1	 8.838834765000001e-01	 8.838834765000001e-01	-3.706142430808092e+00
1	 8.077577742666791e-01	 9.539535513689759e-01	-4.757586327009754e+00
1	 7.263857264152920e-01	 1.017282545074447e+00	-5.779773683205930e+00
1	 6.406720486521522e-01	 1.073330949018920e+00	-6.733429995351128e+00
1	 5.515842847131269e-01	 1.121719562499923e+00	-7.582022374496660e+00
1	 4.601183869735139e-01	 1.162235376331875e+00	-8.293766073827753e+00
1	 3.672649221583719e-01	 1.194829057636079e+00	-8.843173061651280e+00
1	 2.739781000582865e-01	 1.219604854327859e+00	-9.212032227819028e+00
1	 1.811493612902190e-01	 1.236804313102745e+00	-9.389787929830053e+00
1	 8.958666634324813e-02	 1.246785558632639e+00	-9.373355527636123e+00
1	 0.000000000000000e+00	 1.250000000000000e+00	-9.166468309265071e+00
1	 9.192388155600000e-01	 9.192388155600000e-01	-3.343662759357200e+00
1	 8.400680852373460e-01	 9.921116934237345e-01	-4.393644677877175e+00
1	 7.554411554719038e-01	 1.057973846877425e+00	-5.413784906827926e+00
1	 6.662989305982382e-01	 1.116264186979677e+00	-6.368086446576807e+00
1	 5.736476561016520e-01	 1.166588344999921e+00	-7.223321878185355e+00
1	 4.785231224524545e-01	 1.208724791385150e+00	-7.950813565959206e+00
1	 3.819555190447068e-01	 1.242622219941523e+00	-8.527782932081488e+00
1	 2.849372240606178e-01	 1.268389048500973e+00	-8.938176388377299e+00
1	 1.883953357418278e-01	 1.286276485626855e+00	-9.172945358336710e+00
1	 9.317013299697806e-02	 1.296656980977945e+00	-9.229821869189538e+00
1	 0.000000000000000e+00	 1.300000000000000e+00	-9.112679850903808e+00
1	 9.545941546199999e-01	 9.545941546199999e-01	-2.983135989077313e+00
1	 8.723783962080134e-01	 1.030269835478494e+00	-4.039038561403746e+00
1	 7.844965845285155e-01	 1.098665148680403e+00	-5.065106470713489e+00
1	 6.919258125443244e-01	 1.159197424940434e+00	-6.028369798736235e+00
1	 5.957110274901771e-01	 1.211457127499917e+00	-6.898650325236661e+00
1	 4.969278579313949e-01	 1.255214206438425e+00	-7.650129638066074e+00
1	 3.966461159310416e-01	 1.290415382246966e+00	-8.262511791686666e+00
1	 2.958963480629493e-01	 1.317173242674088e+00	-8.721705062933653e+00
1	 1.956413101934365e-01	 1.335748658150965e+00	-9.020010338628911e+00
1	 9.675359965070797e-02	 1.346528403323251e+00	-9.155860260232739e+00
1	 0.000000000000000e+00	 1.350000000000000e+00	-9.133195206792220e+00
1	 9.899494936799998e-01	 9.899494936799998e-01	-2.624352880557244e+00
1	 9.046887071786804e-01	 1.068427977533253e+00	-3.692767741947419e+00
1	 8.135520135851272e-01	 1.139356450483381e+00	-4.731883695548661e+00
1	 7.175526944904106e-01	 1.202130662901191e+00	-5.711534312443638e+00
1	 6.177743988787022e-01	 1.256325909999914e+00	-6.604361757433143e+00
1	 5.153325934103354e-01	 1.301703621491700e+00	-7.387185513722434e+00
1	 4.113367128173764e-01	 1.338208544552409e+00	-8.041989748769504e+00
1	 3.068554720652807e-01	 1.365957436847202e+00	-8.556469910702576e+00
1	 2.028872846450453e-01	 1.385220830675075e+00	-8.924135633015361e+00
1	 1.003370663044379e-01	 1.396399825668556e+00	-9.144016552606146e+00
1	 0.000000000000000e+00	 1.400000000000000e+00	-9.220053253974971e+00
1	 1.025304832740000e+00	 1.025304832740000e+00	-2.267133054994252e+00
1	 9.369990181493476e-01	 1.106586119588012e+00	-3.353969947402987e+00
1	 8.426074426417389e-01	 1.180047752286359e+00	-4.412517719855902e+00
1	 7.431795764364966e-01	 1.245063900861947e+00	-5.415212970987165e+00
1	 6.398377702672271e-01	 1.301194692499911e+00	-6.337313107345995e+00
1	 5.337373288892761e-01	 1.348193036544975e+00	-7.158077075319724e+00
1	 4.260273097037113e-01	 1.386001706857852e+00	-7.861587586349541e+00
1	 3.178145960676123e-01	 1.414741631020317e+00	-8.437170637903453e+00
1	 2.101332590966540e-01	 1.434693003199184e+00	-8.879418450382841e+00
1	 1.039205329581678e-01	 1.446271248013862e+00	-9.187864756516934e+00
1	 0.000000000000000e+00	 1.450000000000000e+00	-9.366390955421620e+00
1	 1.060660171800000e+00	 1.060660171800000e+00	-1.911320184092632e+00
1	 9.693093291200148e-01	 1.144744261642771e+00	-3.021897875279251e+00
1	 8.716628716983505e-01	 1.220739054089337e+00	-4.105622863688005e+00
1	 7.688064583825827e-01	 1.287997138822704e+00	-5.137354359883207e+00
1	 6.619011416557522e-01	 1.346063474999908e+00	-6.094780383203598e+00
1	 5.521420643682166e-01	 1.394682451598250e+00	-6.959420754263831e+00
1	 4.407179065900462e-01	 1.433794869163295e+00	-7.717293316377061e+00
1	 3.287737200699437e-01	 1.463525825193431e+00	-8.359213656593090e+00
1	 2.173792335482628e-01	 1.484165175723294e+00	-8.880743038433263e+00
1	 1.075039996118978e-01	 1.496142670359168e+00	-9.281835680811389e+00
1	 0.000000000000000e+00	 1.500000000000000e+00	-9.566260345705778e+00
1	 1.500000000000000e+00	 0.000000000000000e+00	 7.335426913098150e-01
1	 1.496142670359167e+00	 1.075039996118986e-01	 9.311864514745163e-01
1	 1.484165175723294e+00	 2.173792335482636e-01	 1.069415497280769e+00
1	 1.463525825193431e+00	 3.287737200699445e-01	 1.128872030834863e+00
1	 1.433794869163295e+00	 4.407179065900469e-01	 1.090524207252910e+00
1	 1.394682451598249e+00	 5.521420643682171e-01	 9.368594621206996e-01
1	 1.346063474999908e+00	 6.619011416557526e-01	 6.531759052513965e-01
1	 1.287997138822704e+00	 7.688064583825828e-01	 2.288573821398473e-01
1	 1.220739054089337e+00	 8.716628716983507e-01	-3.415026129093371e-01
1	 1.144744261642771e+00	 9.693093291200147e-01	-1.057265663926343e+00
1	 1.060660171800000e+00	 1.060660171800000e+00	-1.911320184092632e+00
1	 1.550000000000000e+00	 0.000000000000000e+00	 5.868972251414687e-01
1	 1.546014092704469e+00	 1.110874662654662e-01	 7.614848090161206e-01
1	 1.533637348247386e+00	 2.246252079995661e-01	 8.887189384148030e-01
1	 1.512310019366504e+00	 3.397328440718470e-01	 9.486057029881401e-01
1	 1.481588031468662e+00	 4.554085034758543e-01	 9.209448362193671e-01
1	 1.441171866651405e+00	 5.705467998465584e-01	 7.865318649147897e-01
1	 1.390932257499730e+00	 6.839645130436354e-01	 5.285017701314121e-01
1	 1.330930376783220e+00	 7.944333403280142e-01	 1.337014427316717e-01
1	 1.261430355891996e+00	 9.007183007543268e-01	-4.060478767926519e-01
1	 1.182902403697125e+00	 1.001619640090098e+00	-1.092945721843993e+00
1	 1.096015510859500e+00	 1.096015510859500e+00	-1.922598845123078e+00
1	 1.600000000000000e+00	 0.000000000000000e+00	 4.847124312239660e-01
1	 1.595885515049761e+00	 1.146709329187088e-01	 6.343726534714748e-01
1	 1.583109520771441e+00	 2.318711824502557e-01	 7.482974579079058e-01
1	 1.561094213539494e+00	 3.506919680728917e-01	 8.058821351489983e-01
1	 1.529381193773880e+00	 4.700991003606070e-01	 7.858023822238496e-01
1	 1.487661281704320e+00	 5.889515353237011e-01	 6.672255984274237e-01
1	 1.435801039999201e+00	 7.060278844302333e-01	 4.312057272480226e-01
1	 1.373863614743253e+00	 8.200602222721357e-01	 6.215047041555413e-02
1	 1.302121657694021e+00	 9.297737298090317e-01	-4.507818972088034e-01
1	 1.221060545750672e+00	 1.033929951059013e+00	-1.112513482234430e+00
1	 1.131370849918000e+00	 1.131370849918000e+00	-1.921254204268224e+00
1	 1.650000000000000e+00	 0.000000000000000e+00	 4.229464302619802e-01
1	 1.645756937395045e+00	 1.182543995716267e-01	 5.459782133030148e-01
1	 1.632581693295462e+00	 2.391171569003328e-01	 6.444896850003168e-01
1	 1.609878407712400e+00	 3.616510920730785e-01	 6.972883491353854e-01
1	 1.577174356078946e+00	 4.847896972443047e-01	 6.819662164455821e-01
1	 1.534150696756996e+00	 6.073562707996453e-01	 5.761205416854885e-01
1	 1.480669822498322e+00	 7.280912558155466e-01	 3.587988591268725e-01
1	 1.416796852702803e+00	 8.456871042149473e-01	 1.205855909422994e-02
1	 1.342812959495410e+00	 9.588291588624651e-01	-4.775056962889517e-01
1	 1.259218687803409e+00	 1.066240262026760e+00	-1.117433699416003e+00
1	 1.166726188975500e+00	 1.166726188975500e+00	-1.908433834424414e+00
1	 1.700000000000000e+00	 0.000000000000000e+00	 3.980328581720085e-01
1	 1.695628359740320e+00	 1.218378662242196e-01	 4.928852195075083e-01
1	 1.682053865819445e+00	 2.463631313497970e-01	 5.740649984338222e-01
1	 1.658662601885224e+00	 3.726102160724075e-01	 6.198128936104789e-01
1	 1.624967518383863e+00	 4.994802941269478e-01	 6.066740193369965e-01
1	 1.580640111809432e+00	 6.257610062743908e-01	 5.107283526539639e-01
1	 1.525538604997093e+00	 7.501546271995752e-01	 3.090850621141213e-01
1	 1.459730090661871e+00	 8.713139861564491e-01	-1.846773778876981e-02
1	 1.383504261296163e+00	 9.878845879146271e-01	-4.878084112077502e-01
1	 1.297376829855338e+00	 1.098550572993339e+00	-1.108998803669719e+00
1	 1.202081528032000e+00	 1.202081528032000e+00	-1.885150299912067e+00
1	 1.750000000000000e+00	 0.000000000000000e+00	 4.068129353377391e-01
1	 1.745499782085586e+00	 1.254213328764877e-01	 4.720678338253743e-01
1	 1.731526038343393e+00	 2.536091057986486e-01	 5.341619908086174e-01
1	 1.707446796057965e+00	 3.835693400708785e-01	 5.707884831047590e-01
1	 1.672760680688627e+00	 5.141708910085359e-01	 5.574791650132489e-01
1	 1.627129526861628e+00	 6.441657417479376e-01	 4.688450712447528e-01
1	 1.570407387495513e+00	 7.722179985823191e-01	 2.801192158306469e-01
1	 1.502663328620456e+00	 8.969408680966412e-01	-3.110547289780083e-02
1	 1.424195563096281e+00	 1.016940016965519e+00	-4.830975634628375e-01
1	 1.335534971906459e+00	 1.130860883958751e+00	-1.088353518958869e+00
1	 1.237436867087500e+00	 1.237436867087500e+00	-1.852300443415086e+00
1	 1.800000000000000e+00	 0.000000000000000e+00	 4.464788576562077e-01
1	 1.795371204430843e+00	 1.290047995284310e-01	 4.808364222484491e-01
1	 1.780998210867304e+00	 2.608550802468874e-01	 5.222371888807077e-01
1	 1.756230990230623e+00	 3.945284640684916e-01	 5.478441972010721e-01
1	 1.720553842993241e+00	 5.288614878890689e-01	 5.322068749101582e-01
1	 1.673618941913585e+00	 6.625704772202859e-01	 4.485116218240475e-01
1	 1.615276169993583e+00	 7.942813699637783e-01	 2.701723243838959e-01
1	 1.545596566578559e+00	 9.225677500355237e-01	-2.734535971233848e-02
1	 1.464886864895762e+00	 1.045995446015138e+00	-4.646242832744097e-01
1	 1.373693113956770e+00	 1.163171194922994e+00	-1.056515377695341e+00
1	 1.272792206142000e+00	 1.272792206142000e+00	-1.810681458430359e+00
1	 1.850000000000000e+00	 0.000000000000000e+00	 5.145263674143165e-01
1	 1.845242626776092e+00	 1.325882661800494e-01	 5.167921220129905e-01
1	 1.830470383391180e+00	 2.681010546945135e-01	 5.360220894867648e-01
1	 1.805015184403198e+00	 4.054875880652470e-01	 5.488654312032060e-01
1	 1.768347005297705e+00	 5.435520847685474e-01	 5.289174816597735e-01
1	 1.720108356965302e+00	 6.809752126914358e-01	 4.479807207184965e-01
1	 1.660144952491302e+00	 8.163447413439524e-01	 2.777023103561826e-01
1	 1.588529804536179e+00	 9.481946319730963e-01	-8.516953497896884e-03
1	 1.505578166694609e+00	 1.075050875063487e+00	-4.335044435416243e-01
1	 1.411851256006274e+00	 1.195481505886069e+00	-1.014391908787115e+00
1	 1.308147545195500e+00	 1.308147545195500e+00	-1.761004355374098e+00
1	 1.900000000000000e+00	 0.000000000000000e+00	 6.087148129743318e-01
1	 1.895114049121331e+00	 1.361717328313430e-01	 5.777885822253739e-01
1	 1.879942555915019e+00	 2.753470291415269e-01	 5.734869792703194e-01
1	 1.853799378575689e+00	 4.164467120611443e-01	 5.719601703831099e-01
1	 1.816140167602018e+00	 5.582426816469710e-01	 5.458754934066457e-01
1	 1.766597772016778e+00	 6.993799481613869e-01	 4.656890088519818e-01
1	 1.705013734988672e+00	 8.384081127228422e-01	 3.013294202685247e-01
1	 1.631463042493317e+00	 9.738215139093591e-01	 2.419014366582317e-02
1	 1.546269468492820e+00	 1.104106304110563e+00	-3.907364568585098e-01
1	 1.450009398054968e+00	 1.227791816847976e+00	-9.627951117834899e-01
1	 1.343502884248000e+00	 1.343502884248000e+00	-1.703905301460876e+00
1	 1.950000000000000e+00	 0.000000000000000e+00	 7.270333531231594e-01
1	 1.944985471466562e+00	 1.397551994823117e-01	 6.618995905453847e-01
1	 1.929414728438823e+00	 2.825930035879277e-01	 6.328103206039417e-01
1	 1.902583572748098e+00	 4.274058360561839e-01	 6.154304528054710e-01
1	 1.863933329906181e+00	 5.729332785243398e-01	 5.815234174600632e-01
1	 1.813087187068016e+00	 7.177846836301395e-01	 5.002334716690473e-01
1	 1.749882517485690e+00	 8.604714841004470e-01	 3.398154138192685e-01
1	 1.674396280449972e+00	 9.994483958443122e-01	 6.970834016880434e-02
1	 1.586960770290395e+00	 1.133161733156369e+00	-3.372163345274476e-01
1	 1.488167540102854e+00	 1.260102127808716e+00	-9.024537042287671e-01
1	 1.378858223299500e+00	 1.378858223299500e+00	-1.639955215985866e+00
1	 2.000000000000000e+00	 0.000000000000000e+00	 8.676722307692307e-01
1	 1.994856893811784e+00	 1.433386661329555e-01	 7.673915558670051e-01
1	 1.978886900962590e+00	 2.898389780337155e-01	 7.123527296230834e-01
1	 1.951367766920423e+00	 4.383649600503655e-01	 6.777481127286157e-01
1	 1.911726492210192e+00	 5.876238754006535e-01	 6.344595103984452e-01
1	 1.859576602119013e+00	 7.361894190976933e-01	 5.503513960698079e-01
1	 1.794751299982358e+00	 8.825348554767669e-01	 3.920458747369266e-01
1	 1.717329518406145e+00	 1.025075277777955e+00	 1.270768035620086e-01
1	 1.627652072087334e+00	 1.162217162200904e+00	-2.737504867206181e-01
1	 1.526325682149930e+00	 1.292412438768286e+00	-8.340235319128581e-01
1	 1.414213562350000e+00	 1.414213562350000e+00	-1.569667926314772e+00
1	 1.060660171800000e+00	 1.060660171800000e+00	-1.911320184092632e+00
1	 9.693093291200148e-01	 1.144744261642771e+00	-3.021897875279251e+00
1	 8.716628716983505e-01	 1.220739054089337e+00	-4.105622863688005e+00
1	 7.688064583825827e-01	 1.287997138822704e+00	-5.137354359883207e+00
1	 6.619011416557522e-01	 1.346063474999908e+00	-6.094780383203598e+00
1	 5.521420643682166e-01	 1.394682451598250e+00	-6.959420754263831e+00
1	 4.407179065900462e-01	 1.433794869163295e+00	-7.717293316377061e+00
1	 3.287737200699437e-01	 1.463525825193431e+00	-8.359213656593090e+00
1	 2.173792335482628e-01	 1.484165175723294e+00	-8.880743038433263e+00
1	 1.075039996118978e-01	 1.496142670359168e+00	-9.281835680811389e+00
1	 0.000000000000000e+00	 1.500000000000000e+00	-9.566260345705778e+00
1	 1.096015510859500e+00	 1.096015510859500e+00	-1.922598845123078e+00
1	 1.001619640090098e+00	 1.182902403697125e+00	-2.996400346139983e+00
1	 9.007183007543265e-01	 1.261430355891997e+00	-4.042248260030362e+00
1	 7.944333403280139e-01	 1.330930376783220e+00	-5.036382846555367e+00
1	 6.839645130436350e-01	 1.390932257499730e+00	-5.957938132520805e+00
1	 5.705467998465579e-01	 1.441171866651405e+00	-6.789855409137536e+00
1	 4.554085034758538e-01	 1.481588031468663e+00	-7.519465423538891e+00
1	 3.397328440718463e-01	 1.512310019366504e+00	-8.138717337844264e+00
1	 2.246252079995652e-01	 1.533637348247386e+00	-8.644074648369070e+00
1	 1.110874662654652e-01	 1.546014092704469e+00	-9.036131864290621e+00
1	 0.000000000000000e+00	 1.550000000000000e+00	-9.319026806804874e+00
1	 1.131370849918000e+00	 1.131370849918000e+00	-1.921254204268224e+00
1	 1.033929951059013e+00	 1.221060545750672e+00	-2.960322005295311e+00
1	 9.297737298090314e-01	 1.302121657694021e+00	-3.970530508287497e+00
1	 8.200602222721353e-01	 1.373863614743253e+00	-4.929430315896457e+00
1	 7.060278844302330e-01	 1.435801039999201e+00	-5.817527990287675e+00
1	 5.889515353237006e-01	 1.487661281704320e+00	-6.619114187564959e+00
1	 4.700991003606063e-01	 1.529381193773880e+00	-7.322765578618927e+00
1	 3.506919680728909e-01	 1.561094213539494e+00	-7.921506118502698e+00
1	 2.318711824502549e-01	 1.583109520771442e+00	-8.412653136363822e+00
1	 1.146709329187079e-01	 1.595885515049761e+00	-8.797404634479870e+00
1	 0.000000000000000e+00	 1.600000000000000e+00	-9.080242596026695e+00
1	 1.166726188975500e+00	 1.166726188975500e+00	-1.908433834424414e+00
1	 1.066240262026760e+00	 1.259218687803409e+00	-2.914624744716730e+00
1	 9.588291588624649e-01	 1.342812959495410e+00	-3.891228076466027e+00
1	 8.456871042149471e-01	 1.416796852702803e+00	-4.817040496754144e+00
1	 7.280912558155463e-01	 1.480669822498323e+00	-5.673874310281343e+00
1	 6.073562707996446e-01	 1.534150696756996e+00	-6.447303987405042e+00
1	 4.847896972443040e-01	 1.577174356078946e+00	-7.127091231806851e+00
1	 3.616510920730777e-01	 1.609878407712401e+00	-7.707281353168328e+00
1	 2.391171569003319e-01	 1.632581693295462e+00	-8.186001513503799e+00
1	 1.182543995716257e-01	 1.645756937395045e+00	-8.565019756224505e+00
1	 0.000000000000000e+00	 1.650000000000000e+00	-8.849139592633806e+00
1	 1.202081528032000e+00	 1.202081528032000e+00	-1.885150299912067e+00
1	 1.098550572993339e+00	 1.297376829855338e+00	-2.860157292614482e+00
1	 9.878845879146270e-01	 1.383504261296163e+00	-3.805010201042432e+00
1	 8.713139861564487e-01	 1.459730090661871e+00	-4.699693149876390e+00
1	 7.501546271995749e-01	 1.525538604997093e+00	-5.527263287011038e+00
1	 6.257610062743901e-01	 1.580640111809432e+00	-6.274519130298005e+00
1	 4.994802941269471e-01	 1.624967518383862e+00	-6.932351897975913e+00
1	 3.726102160724066e-01	 1.658662601885224e+00	-7.495779531194073e+00
1	 2.463631313497961e-01	 1.682053865819445e+00	-7.963698907218139e+00
1	 1.218378662242187e-01	 1.695628359740320e+00	-8.338417610270554e+00
1	 0.000000000000000e+00	 1.700000000000000e+00	-8.625040043034469e+00
1	 1.237436867087500e+00	 1.237436867087500e+00	-1.852300443415086e+00
1	 1.130860883958751e+00	 1.335534971906459e+00	-2.797671379689124e+00
1	 1.016940016965518e+00	 1.424195563096281e+00	-3.712469634324469e+00
1	 8.969408680966411e-01	 1.502663328620456e+00	-4.577813206211407e+00
1	 7.722179985823187e-01	 1.570407387495514e+00	-5.377948407042087e+00
1	 6.441657417479372e-01	 1.627129526861629e+00	-6.100843158268055e+00
1	 5.141708910085352e-01	 1.672760680688627e+00	-6.738467433156731e+00
1	 3.835693400708777e-01	 1.707446796057966e+00	-7.286767257435404e+00
1	 2.536091057986476e-01	 1.731526038343393e+00	-7.745372544658387e+00
1	 1.254213328764867e-01	 1.745499782085586e+00	-8.117102533850295e+00
1	 0.000000000000000e+00	 1.750000000000000e+00	-8.407343651190379e+00
1	 1.272792206142000e+00	 1.272792206142000e+00	-1.810681458430359e+00
1	 1.163171194922994e+00	 1.373693113956771e+00	-2.727835211007869e+00
1	 1.045995446015138e+00	 1.464886864895763e+00	-3.614133267252411e+00
1	 9.225677500355236e-01	 1.545596566578560e+00	-4.451778382157617e+00
1	 7.942813699637779e-01	 1.615276169993583e+00	-5.226154991765888e+00
1	 6.625704772202855e-01	 1.673618941913585e+00	-5.926350330892246e+00
1	 5.288614878890684e-01	 1.720553842993242e+00	-6.545366598265375e+00
1	 3.945284640684907e-01	 1.756230990230623e+00	-7.080037069541619e+00
1	 2.608550802468865e-01	 1.780998210867305e+00	-7.530691072181510e+00
1	 1.290047995284300e-01	 1.795371204430843e+00	-7.900633937836883e+00
1	 0.000000000000000e+00	 1.800000000000000e+00	-8.195516820623130e+00
1	 1.308147545195500e+00	 1.308147545195500e+00	-1.761004355374098e+00
1	 1.195481505886069e+00	 1.411851256006273e+00	-2.651244753252342e+00
1	 1.075050875063486e+00	 1.505578166694609e+00	-3.510471029583824e+00
1	 9.481946319730961e-01	 1.588529804536179e+00	-4.321925559908211e+00
1	 8.163447413439521e-01	 1.660144952491303e+00	-5.072084003504520e+00
1	 6.809752126914352e-01	 1.720108356965302e+00	-5.751106879685269e+00
1	 5.435520847685467e-01	 1.768347005297705e+00	-6.352985855740537e+00
1	 4.054875880652460e-01	 1.805015184403198e+00	-6.875403933524309e+00
1	 2.681010546945126e-01	 1.830470383391180e+00	-7.319358958159990e+00
1	 1.325882661800484e-01	 1.845242626776092e+00	-7.688618864360500e+00
1	 0.000000000000000e+00	 1.850000000000000e+00	-7.989083640960148e+00
1	 1.343502884248000e+00	 1.343502884248000e+00	-1.703905301460876e+00
1	 1.227791816847976e+00	 1.450009398054968e+00	-2.568433239769305e+00
1	 1.104106304110563e+00	 1.546269468492820e+00	-3.401903384786017e+00
1	 9.738215139093589e-01	 1.631463042493317e+00	-4.188556160372904e+00
1	 8.384081127228418e-01	 1.705013734988672e+00	-4.915915250651378e+00
1	 6.993799481613864e-01	 1.766597772016779e+00	-5.575172064423389e+00
1	 5.582426816469702e-01	 1.816140167602018e+00	-6.161268356185255e+00
1	 4.164467120611434e-01	 1.853799378575690e+00	-6.672702292656961e+00
1	 2.753470291415259e-01	 1.879942555915020e+00	-7.111111779558691e+00
1	 1.361717328313419e-01	 1.895114049121332e+00	-7.480705719537670e+00
1	 0.000000000000000e+00	 1.900000000000000e+00	-7.787618297657616e+00
1	 1.378858223299500e+00	 1.378858223299500e+00	-1.639955215985866e+00
1	 1.260102127808716e+00	 1.488167540102854e+00	-2.479879213305855e+00
1	 1.133161733156369e+00	 1.586960770290395e+00	-3.288807671868139e+00
1	 9.994483958443119e-01	 1.674396280449972e+00	-4.051940689496311e+00
1	 8.604714841004467e-01	 1.749882517485690e+00	-4.757810099713391e+00
1	 7.177846836301389e-01	 1.813087187068016e+00	-5.398599066957143e+00
1	 5.729332785243391e-01	 1.863933329906181e+00	-5.970163080909950e+00
1	 4.274058360561829e-01	 1.902583572748098e+00	-6.471783570390207e+00
1	 2.825930035879267e-01	 1.929414728438823e+00	-6.905712233653769e+00
1	 1.397551994823105e-01	 1.944985471466563e+00	-7.276578970396075e+00
1	 0.000000000000000e+00	 1.950000000000000e+00	-7.590738649458310e+00
1	 1.414213562350000e+00	 1.414213562350000e+00	-1.569667926314772e+00
1	 1.292412438768286e+00	 1.526325682149930e+00	-2.386013362334451e+00
1	 1.162217162200904e+00	 1.627652072087334e+00	-3.171523495938453e+00
1	 1.025075277777955e+00	 1.717329518406145e+00	-3.912322602628591e+00
1	 8.825348554767665e-01	 1.794751299982359e+00	-4.597913780546806e+00
1	 7.361894190976928e-01	 1.859576602119014e+00	-5.221435750951970e+00
1	 5.876238754006528e-01	 1.911726492210192e+00	-5.779624113093981e+00
1	 4.383649600503645e-01	 1.951367766920424e+00	-6.272514047829597e+00
1	 2.898389780337144e-01	 1.978886900962590e+00	-6.702946747993820e+00
1	 1.433386661329543e-01	 1.994856893811784e+00	-7.075954637260650e+00
1	 0.000000000000000e+00	 2.000000000000000e+00	-7.398100769230767e+00
