x	y	stress_yy
 0.000000000000000e+00	 2.000000000000000e+00	 2.392363504000015e+00
 3.548246397489054e-02	 1.999685223916798e+00	 2.673082971834197e+00
 7.120968178146665e-02	 1.998731893282386e+00	 2.967047458314475e+00
 1.071668957949588e-01	 1.997126750222366e+00	 3.270872201946350e+00
 1.433386661626860e-01	 1.994856893813928e+00	 3.581466881748235e+00
 1.797088758238814e-01	 1.991909817228721e+00	 3.896068799749831e+00
 2.162607376804590e-01	 1.988273445321150e+00	 4.212274968846949e+00
 2.529768039953392e-01	 1.983936172532344e+00	 4.528072749124809e+00
 2.898389780871680e-01	 1.978886900971149e+00	 4.841868667713712e+00
 3.268285283815027e-01	 1.973115078524969e+00	 5.152515053168646e+00
 3.639261048688338e-01	 1.966610736845282e+00	 5.459334115660912e+00
 0.000000000000000e+00	 1.993750000000000e+00	 2.378920483806271e+00
 3.537158127256500e-02	 1.993436207592045e+00	 2.667110747116842e+00
 7.098715152144358e-02	 1.992485856115827e+00	 2.966605721097993e+00
 1.068319992394523e-01	 1.990885729127804e+00	 3.273852833811954e+00
 1.428907328234585e-01	 1.988622966020549e+00	 3.585590833412692e+00
 1.791472855785187e-01	 1.985685099049550e+00	 3.898883428842299e+00
 2.155849228662364e-01	 1.982060090804042e+00	 4.211151884640310e+00
 2.521862514737188e-01	 1.977736371992524e+00	 4.520206213634426e+00
 2.889332312717482e-01	 1.972702879404751e+00	 4.824274602846159e+00
 3.258071892220600e-01	 1.966949093903479e+00	 5.122030703469557e+00
 3.627888357839317e-01	 1.960465078291276e+00	 5.412618415619531e+00
 0.000000000000000e+00	 1.987500000000000e+00	 2.363011343443022e+00
 3.526069857059851e-02	 1.987187191267293e+00	 2.659228452111353e+00
 7.076462126208509e-02	 1.986239818949267e+00	 2.964790604174070e+00
 1.064971026848612e-01	 1.984644708033241e+00	 3.275976230708243e+00
 1.424427994853410e-01	 1.982389038227170e+00	 3.589351991532868e+00
 1.785856953344031e-01	 1.979460380870380e+00	 3.901806879370181e+00
 2.149091080533394e-01	 1.975846736286935e+00	 4.210585326910017e+00
 2.513956989534424e-01	 1.971536571452704e+00	 4.513318961155922e+00
 2.880274844576302e-01	 1.966518857838353e+00	 4.808056640631123e+00
 3.247858500638147e-01	 1.960783109281990e+00	 5.093292406123091e+00
 3.616515667000589e-01	 1.954319419737269e+00	 5.367990975034898e+00
 0.000000000000000e+00	 1.981250000000000e+00	 2.344611444599545e+00
 3.514981586899107e-02	 1.980938174942540e+00	 2.649416014954089e+00
 7.054209100339122e-02	 1.979993781782708e+00	 2.961586515167228e+00
 1.061622061311854e-01	 1.978403686938679e+00	 3.277231183898351e+00
 1.419948661483333e-01	 1.976155110433792e+00	 3.592743426112572e+00
 1.780241050915345e-01	 1.973235662691210e+00	 3.904836385998383e+00
 2.142332932417680e-01	 1.969633381769827e+00	 4.210576571604523e+00
 2.506051464345102e-01	 1.965336770912883e+00	 4.507416176159742e+00
 2.871217376448141e-01	 1.960334836271955e+00	 4.793223731850937e+00
 3.237645109067664e-01	 1.954617124660500e+00	 5.066312726529491e+00
 3.605142976172153e-01	 1.948173761183263e+00	 5.325467812742589e+00
 0.000000000000000e+00	 1.975000000000000e+00	 2.323695837087937e+00
 3.503893316774269e-02	 1.974689158617787e+00	 2.637653108712274e+00
 7.031956074536193e-02	 1.973747744616148e+00	 2.956977661879780e+00
 1.058273095784249e-01	 1.972162665844117e+00	 3.277606338390063e+00
 1.415469328124355e-01	 1.969921182640412e+00	 3.595758112670260e+00
 1.774625148499129e-01	 1.967010944512039e+00	 3.907969138759124e+00
 2.135574784315221e-01	 1.963420027252718e+00	 4.211126897860194e+00
 2.498145939169221e-01	 1.959136970373063e+00	 4.502503091973104e+00
 2.862159908332995e-01	 1.954150814705557e+00	 4.779784919547175e+00
 3.227431717509153e-01	 1.948451140039011e+00	 5.041104363371391e+00
 3.593770285354012e-01	 1.942028102629256e+00	 5.285065119392311e+00
 0.000000000000000e+00	 1.968750000000000e+00	 2.300239253892869e+00
 3.492805046685335e-02	 1.968440142293034e+00	 2.623919147334824e+00
 7.009703048799722e-02	 1.967501707449589e+00	 2.950948049119694e+00
 1.054924130265796e-01	 1.965921644749554e+00	 3.277090190614587e+00
 1.410989994776476e-01	 1.963687254847034e+00	 3.598388930738919e+00
 1.769009246095383e-01	 1.960786226332869e+00	 3.911202282344238e+00
 2.128816636226017e-01	 1.957206672735610e+00	 4.212237588050808e+00
 2.490240414006783e-01	 1.952937169833243e+00	 4.498584991555002e+00
 2.853102440230868e-01	 1.947966793139160e+00	 4.767749340485626e+00
 3.217218325962616e-01	 1.942285155417521e+00	 5.017680150730028e+00
 3.582397594546164e-01	 1.935882444075250e+00	 5.246799260175042e+00
 0.000000000000000e+00	 1.962500000000000e+00	 2.274216106126167e+00
 3.481716776632306e-02	 1.962191125968281e+00	 2.608193281527353e+00
 6.987450023129713e-02	 1.961255670283030e+00	 2.943481475467918e+00
 1.051575164756497e-01	 1.959680623654992e+00	 3.275671086060564e+00
 1.406510661439696e-01	 1.957453327053655e+00	 3.600628662337475e+00
 1.763393343704109e-01	 1.954561508153698e+00	 3.914532915382973e+00
 2.122058488150070e-01	 1.950993318218502e+00	 4.213909927840243e+00
 2.482334888857786e-01	 1.946737369293422e+00	 4.495667208286848e+00
 2.844044972141758e-01	 1.941782771572761e+00	 4.757126226648045e+00
 3.207004934428048e-01	 1.936119170796031e+00	 4.996053060240206e+00
 3.571024903748611e-01	 1.929736785521244e+00	 5.210686777602534e+00
 0.000000000000000e+00	 1.956250000000000e+00	 2.245600477885440e+00
 3.470628506615182e-02	 1.955942109643528e+00	 2.590454394545361e+00
 6.965196997526162e-02	 1.955009633116471e+00	 2.934561529984620e+00
 1.048226199256351e-01	 1.953439602560430e+00	 3.273337216862525e+00
 1.402031328114014e-01	 1.951219399260276e+00	 3.602469990413570e+00
 1.757777441325304e-01	 1.948336789974528e+00	 3.917958089706014e+00
 2.115300340087377e-01	 1.944779963701394e+00	 4.216145206234307e+00
 2.474429363722231e-01	 1.940537568753602e+00	 4.493755126777975e+00
 2.834987504065667e-01	 1.935598750006363e+00	 4.747924906753740e+00
 3.196791542905453e-01	 1.929953186174542e+00	 4.976236203288473e+00
 3.559652212961348e-01	 1.923591126967237e+00	 5.176744394339754e+00
 0.000000000000000e+00	 1.950000000000000e+00	 2.214366121013190e+00
 3.459540236633964e-02	 1.949693093318776e+00	 2.570681097909417e+00
 6.942943971989068e-02	 1.948763595949911e+00	 2.924171588851055e+00
 1.044877233765358e-01	 1.947198581465867e+00	 3.270076619344087e+00
 1.397551994799432e-01	 1.944985471466898e+00	 3.603905497255163e+00
 1.752161538958970e-01	 1.942112071795358e+00	 3.921474809595625e+00
 2.108542192037939e-01	 1.938566609184286e+00	 4.218944715635034e+00
 2.466523838600118e-01	 1.934337768213782e+00	 4.492854183686419e+00
 2.825930036002593e-01	 1.929414728439965e+00	 4.740154807809605e+00
 3.186578151394830e-01	 1.923787201553052e+00	 4.958242833252430e+00
 3.548279522184382e-01	 1.917445468413230e+00	 5.144989016091913e+00
 0.000000000000000e+00	 1.943750000000000e+00	 2.180486449755346e+00
 3.448451966688649e-02	 1.943444076994023e+00	 2.548851727036348e+00
 6.920690946518437e-02	 1.942517558783352e+00	 2.912294811947199e+00
 1.041528268283517e-01	 1.940957560371305e+00	 3.265877171511899e+00
 1.393072661495947e-01	 1.938751543673519e+00	 3.604927662873036e+00
 1.746545636605105e-01	 1.935887353616187e+00	 3.925080031021428e+00
 2.101784044001758e-01	 1.932353254667179e+00	 4.222309751894205e+00
 2.458618313491447e-01	 1.928137967673962e+00	 4.492969868555645e+00
 2.816872567952537e-01	 1.923230706873567e+00	 4.733825456690221e+00
 3.176364759896179e-01	 1.917621216931563e+00	 4.942086347783520e+00
 3.536906831417708e-01	 1.911299809859224e+00	 5.115437734547388e+00
 0.000000000000000e+00	 1.937500000000000e+00	 2.143934535315918e+00
 3.437363696779240e-02	 1.937195060669269e+00	 2.524944336785313e+00
 6.898437921114264e-02	 1.936271521616793e+00	 2.898914139363025e+00
 1.038179302810830e-01	 1.934716539276743e+00	 3.260726590503006e+00
 1.388593328203562e-01	 1.932517615880140e+00	 3.605528863350172e+00
 1.740929734263712e-01	 1.929662635437017e+00	 3.928770660860550e+00
 2.095025895978831e-01	 1.926139900150071e+00	 4.226241614369883e+00
 2.450712788396217e-01	 1.921938167134141e+00	 4.494107724667942e+00
 2.807815099915498e-01	 1.917046685307169e+00	 4.728946481748751e+00
 3.166151368409499e-01	 1.911455232310073e+00	 4.927780291133926e+00
 3.525534140661327e-01	 1.905154151305217e+00	 5.088107830377404e+00
 3.639261048688338e-01	 1.966610736845282e+00	 5.459334115660912e+00
 4.011117796603632e-01	 1.959364520390886e+00	 5.742677612605215e+00
 4.383650475798750e-01	 1.951367732047175e+00	 5.982044257751528e+00
 4.756648279341188e-01	 1.942612378518484e+00	 6.176291700416173e+00
 5.129895120862494e-01	 1.933091197605625e+00	 6.324893502800769e+00
 5.503169922963288e-01	 1.922797693007436e+00	 6.427956058270850e+00
 5.876246930177277e-01	 1.911726167940638e+00	 6.486231006374678e+00
 6.248896046085050e-01	 1.899871757390207e+00	 6.501122850783050e+00
 6.620883194013223e-01	 1.887230458802351e+00	 6.372148366270514e+00
 6.991970700596118e-01	 1.873799161033412e+00	 6.239253980284751e+00
 7.361917701316998e-01	 1.859575671370661e+00	 6.807365339627615e+00
 3.627888357839317e-01	 1.960465078291276e+00	 5.412618415619531e+00
 3.998583053430279e-01	 1.953241506263059e+00	 5.680667431801655e+00
 4.369951568016142e-01	 1.945269707882764e+00	 5.902408915803490e+00
 4.741783753436062e-01	 1.936541714833776e+00	 6.076757037479723e+00
 5.113864198591492e-01	 1.927050287611280e+00	 6.203247660436691e+00
 5.485972516949918e-01	 1.916788950215059e+00	 6.282055323912328e+00
 5.857883658530870e-01	 1.905752023664278e+00	 6.314005713385959e+00
 6.229368245966250e-01	 1.893934658147091e+00	 6.300583325421750e+00
 6.600192934072273e-01	 1.881332863617687e+00	 6.146876231488108e+00
 6.970120792212526e-01	 1.867943538654731e+00	 6.339109784847506e+00
 7.338911708571875e-01	 1.853764497397723e+00	 6.867322062534368e+00
 3.616515667000589e-01	 1.954319419737269e+00	 5.367990975034898e+00
 3.986048310265217e-01	 1.947118492135233e+00	 5.620465985711335e+00
 4.356252660239821e-01	 1.939171683718353e+00	 5.824278069928657e+00
 4.726919227535217e-01	 1.930471051149068e+00	 5.978398330219290e+00
 5.097833276322755e-01	 1.921009377616935e+00	 6.082425436934093e+00
 5.468775110936797e-01	 1.910780207422680e+00	 6.136602674390820e+00
 5.839520386882702e-01	 1.899777879387919e+00	 6.141830467211146e+00
 6.209840445843680e-01	 1.887997558903976e+00	 6.099674091645349e+00
 6.579502674125541e-01	 1.875435268433023e+00	 5.920829974650474e+00
 6.948270883821142e-01	 1.862087916276050e+00	 6.438305082970487e+00
 7.315905715816960e-01	 1.847953323424784e+00	 6.926320024622292e+00
 3.605142976172153e-01	 1.948173761183263e+00	 5.325467812742589e+00
 3.973513567108449e-01	 1.940995478007405e+00	 5.562086962250493e+00
 4.342553752469785e-01	 1.933073659553942e+00	 5.747662940355661e+00
 4.712054701638647e-01	 1.924400387464360e+00	 5.881224195270805e+00
 5.081802354056282e-01	 1.914968467622590e+00	 5.962432710560635e+00
 5.451577704923927e-01	 1.904771464630302e+00	 5.991601116234092e+00
 5.821157115232770e-01	 1.893803735111559e+00	 5.969705270949905e+00
 6.190312645717330e-01	 1.882060459660859e+00	 5.898392019406156e+00
 6.558812414173023e-01	 1.869537673248358e+00	 6.030718655279045e+00
 6.926420975421966e-01	 1.856232293897368e+00	 6.536813892031441e+00
 7.292899723052247e-01	 1.842142149451846e+00	 6.984328268573519e+00
 3.593770285354012e-01	 1.942028102629256e+00	 5.285065119392311e+00
 3.960978823959972e-01	 1.934872463879578e+00	 5.505544186021016e+00
 4.328854844706035e-01	 1.926975635389531e+00	 5.672574846711955e+00
 4.697190175746352e-01	 1.918329723779651e+00	 5.785243309250598e+00
 5.065771431792077e-01	 1.908927557628246e+00	 5.843275378046414e+00
 5.434380298911307e-01	 1.898762721837923e+00	 5.847053630852544e+00
 5.802793843581076e-01	 1.887829590835200e+00	 5.797630056986990e+00
 6.170784845587208e-01	 1.876123360417745e+00	 5.696733860376703e+00
 6.538122154214719e-01	 1.863640078063693e+00	 6.167009145892521e+00
 6.904571067014997e-01	 1.850376671518687e+00	 6.634610010323136e+00
 7.269893730277742e-01	 1.836330975478908e+00	 7.041315564874849e+00
 3.582397594546164e-01	 1.935882444075250e+00	 5.246799260175042e+00
 3.948444080819787e-01	 1.928749449751751e+00	 5.450851620480255e+00
 4.315155936948574e-01	 1.920877611225119e+00	 5.599025209602193e+00
 4.682325649858336e-01	 1.912259060094943e+00	 5.690464409707548e+00
 5.049740509530132e-01	 1.902886647633901e+00	 5.724959354876833e+00
 5.417182892898940e-01	 1.892753979045545e+00	 5.702963174140433e+00
 5.784430571927620e-01	 1.881855446558840e+00	 5.625604685870063e+00
 6.151257045453307e-01	 1.870186261174629e+00	 5.794352862259798e+00
 6.517431894250629e-01	 1.857742482879029e+00	 6.302862602352105e+00
 6.882721158600237e-01	 1.844521049140006e+00	 6.731667013576130e+00
 7.246887737493445e-01	 1.830519801505970e+00	 7.097250407496955e+00
 3.571024903748611e-01	 1.929736785521244e+00	 5.210686777602534e+00
 3.935909337687896e-01	 1.922626435623924e+00	 5.398023370151920e+00
 4.301457029197397e-01	 1.914779587060709e+00	 5.527025552215528e+00
 4.667461123974596e-01	 1.906188396410234e+00	 5.596896296093385e+00
 5.033709587270454e-01	 1.896845737639556e+00	 5.607490575591338e+00
 5.399985486886825e-01	 1.886745236253167e+00	 5.559332676069650e+00
 5.766067300272399e-01	 1.875881302282481e+00	 5.453628945165578e+00
 6.131729245315634e-01	 1.864249161931514e+00	 5.961666247984276e+00
 6.496741634280755e-01	 1.851844887694365e+00	 6.438257344156526e+00
 6.860871250177683e-01	 1.838665426761325e+00	 6.827958251414278e+00
 7.223881744699350e-01	 1.824708627533032e+00	 7.152101009491280e+00
 3.559652212961348e-01	 1.923591126967237e+00	 5.176744394339754e+00
 3.923374594564296e-01	 1.916503421496097e+00	 5.347073682879692e+00
 4.287758121452508e-01	 1.908681562896297e+00	 5.456587501964616e+00
 4.652596598095134e-01	 1.900117732725527e+00	 5.504547830751555e+00
 5.017678665013041e-01	 1.890804827645212e+00	 5.490874994087859e+00
 5.382788080874960e-01	 1.880736493460788e+00	 5.416165040275699e+00
 5.747704028615418e-01	 1.869907158006121e+00	 5.599628338776323e+00
 6.112201445174184e-01	 1.858312062688398e+00	 6.128734267104666e+00
 6.476051374305094e-01	 1.845947292509701e+00	 6.573171514904784e+00
 6.839021341747334e-01	 1.832809804382643e+00	 6.923456843743422e+00
 7.200875751895462e-01	 1.818897453560094e+00	 7.205835298502491e+00
 3.548279522184382e-01	 1.917445468413230e+00	 5.144989016091913e+00
 3.910839851448988e-01	 1.910380407368270e+00	 5.298016952123952e+00
 4.274059213713904e-01	 1.902583538731887e+00	 5.387722792155811e+00
 4.637732072219948e-01	 1.894047069040818e+00	 5.413427939925159e+00
 5.001647742757892e-01	 1.884763917650866e+00	 5.375118583932966e+00
 5.365590674863345e-01	 1.874727750668410e+00	 5.290378678164821e+00
 5.729340756956677e-01	 1.863933013729762e+00	 5.800560678305660e+00
 6.092673645028958e-01	 1.852374963445282e+00	 6.295529617783333e+00
 6.455361114323646e-01	 1.840049697325036e+00	 6.707583079477649e+00
 6.817171433309196e-01	 1.826954182003962e+00	 7.018135677069580e+00
 7.177869759081776e-01	 1.813086279587156e+00	 7.258420912194917e+00
 3.536906831417708e-01	 1.911299809859224e+00	 5.115437734547388e+00
 3.898305108341973e-01	 1.904257393240444e+00	 5.250867719302797e+00
 4.260360305981588e-01	 1.896485514567475e+00	 5.320443263691706e+00
 4.622867546349038e-01	 1.887976405356110e+00	 5.323545614784106e+00
 4.985616820505008e-01	 1.878723007656522e+00	 5.260227338678041e+00
 5.348393268851983e-01	 1.868719007876031e+00	 5.521273501267265e+00
 5.710977485296169e-01	 1.857958869453402e+00	 6.001378737165219e+00
 6.073145844879960e-01	 1.846437864202167e+00	 6.462024870148927e+00
 6.434670854336413e-01	 1.834152102140371e+00	 6.841469821164248e+00
 6.795321524863265e-01	 1.821098559625280e+00	 7.111967400746579e+00
 7.154863766258298e-01	 1.807275105614218e+00	 7.309825193589971e+00
 3.525534140661327e-01	 1.905154151305217e+00	 5.088107830377404e+00
 3.885770365243251e-01	 1.898134379112617e+00	 5.205640676178637e+00
 4.246661398255557e-01	 1.890387490403064e+00	 5.254760866806418e+00
 4.608003020482406e-01	 1.881905741671401e+00	 5.234909912472408e+00
 4.969585898254388e-01	 1.872682097662176e+00	 5.288383452164505e+00
 5.331195862840871e-01	 1.862710265083652e+00	 5.752224861349150e+00
 5.692614213633899e-01	 1.851984725177042e+00	 6.202060884266614e+00
 6.053618044727185e-01	 1.840500764959051e+00	 6.628192464230500e+00
 6.413980594343396e-01	 1.828254506955707e+00	 6.974809338733273e+00
 6.773471616409540e-01	 1.815242937246599e+00	 7.204924423151307e+00
 7.131857773425027e-01	 1.801463931641279e+00	 7.360015186314277e+00
 7.361917701316998e-01	 1.859575671370661e+00	 6.807365339627615e+00
 7.730470878096263e-01	 1.844559129488828e+00	 7.341611911435429e+00
 8.097393400361760e-01	 1.828748896797731e+00	 7.859641311385907e+00
 8.462437464084783e-01	 1.812145676572882e+00	 8.353395315290882e+00
 8.825353893621116e-01	 1.794751175796618e+00	 8.814597391460333e+00
 9.185892638379058e-01	 1.776568119974871e+00	 9.234813316678057e+00
 9.543803282885299e-01	 1.757600265062279e+00	 9.605515606309513e+00
 9.898835568318245e-01	 1.737852406372564e+00	 9.918151261466216e+00
 1.025073992345847e+00	 1.717330384365551e+00	 1.016421227731047e+01
 1.059926800289803e+00	 1.696041087217984e+00	 1.033530830288554e+01
 1.094417323025598e+00	 1.673992450102209e+00	 1.042324079537900e+01
 7.338911708571875e-01	 1.853764497397723e+00	 6.867322062534368e+00
 7.706313156687551e-01	 1.838794882209806e+00	 7.365134649440394e+00
 8.072089046080732e-01	 1.823034056496289e+00	 7.851784121360451e+00
 8.435992347110247e-01	 1.806482721334942e+00	 8.319232538476667e+00
 8.797774662805719e-01	 1.789142578373786e+00	 8.759206669944655e+00
 9.157186723983504e-01	 1.771016344601540e+00	 9.163257922654283e+00
 9.513978897718606e-01	 1.752107764235487e+00	 9.522826145988457e+00
 9.867901707248212e-01	 1.732421617603992e+00	 9.829306823098337e+00
 1.021870636126293e+00	 1.711963726915440e+00	 1.007412110017477e+01
 1.056614529043419e+00	 1.690740958821022e+00	 1.024878805121829e+01
 1.090997268893221e+00	 1.668761223695673e+00	 1.034499852794135e+01
 7.315905715816960e-01	 1.847953323424784e+00	 6.926320024622292e+00
 7.682155435267284e-01	 1.833030634930785e+00	 7.388233254332484e+00
 8.046784691786866e-01	 1.817319216194845e+00	 7.844072960825423e+00
 8.409547230122076e-01	 1.800819766097002e+00	 8.285820231829126e+00
 8.770195431976389e-01	 1.783533980950953e+00	 8.705203758555156e+00
 9.128480809574211e-01	 1.765464569228210e+00	 9.093759081635202e+00
 9.484154512538872e-01	 1.746615263408696e+00	 9.442891775690120e+00
 9.836967846166342e-01	 1.726990828835419e+00	 9.743944090618397e+00
 1.018667279905727e+00	 1.706597069465328e+00	 9.988264508454257e+00
 1.053302257796245e+00	 1.685440830424061e+00	 1.016727962037063e+01
 1.087577214760330e+00	 1.663529997289136e+00	 1.027256768014828e+01
 7.292899723052247e-01	 1.842142149451846e+00	 6.984328268573519e+00
 7.657997713835463e-01	 1.827266387651764e+00	 7.410879627438034e+00
 8.021480337480160e-01	 1.811604375893402e+00	 7.836482888188724e+00
 8.383102113120278e-01	 1.795156810859063e+00	 8.253136908908418e+00
 8.742616201133120e-01	 1.777925383528119e+00	 8.652570923004186e+00
 9.099774895151178e-01	 1.759912793854879e+00	 9.026303106691547e+00
 9.454330127346090e-01	 1.741122762581905e+00	 9.365703148518325e+00
 9.806033985072634e-01	 1.721560040066847e+00	 9.662058346556858e+00
 1.015463923684147e+00	 1.701230412015217e+00	 9.906642699456743e+00
 1.049989986548281e+00	 1.680140702027100e+00	 1.009078840297009e+01
 1.084157160626922e+00	 1.658298770882600e+00	 1.020595911491038e+01
 7.269893730277742e-01	 1.836330975478908e+00	 7.041315564874849e+00
 7.633839992392083e-01	 1.821502140372742e+00	 7.433045444154018e+00
 7.996175983160623e-01	 1.805889535591960e+00	 7.828988786153470e+00
 8.356656996104844e-01	 1.789493855621123e+00	 8.221160961707584e+00
 8.715036970275918e-01	 1.772316786105285e+00	 8.601290365429954e+00
 9.071068980714402e-01	 1.754361018481548e+00	 8.960876309101909e+00
 9.424505742140267e-01	 1.735630261755113e+00	 9.291250981278035e+00
 9.775100123967078e-01	 1.716129251298274e+00	 9.583645006260706e+00
 1.012260567461555e+00	 1.695863754565105e+00	 9.829256075946113e+00
 1.046677715299527e+00	 1.674840573630139e+00	 1.001932007315458e+01
 1.080737106492998e+00	 1.653067544476064e+00	 1.014518405599926e+01
 7.246887737493445e-01	 1.830519801505970e+00	 7.097250407496955e+00
 7.609682270937146e-01	 1.815737893093720e+00	 7.454702150361618e+00
 7.970871628828241e-01	 1.800174695290516e+00	 7.821565358929560e+00
 8.330211879075777e-01	 1.783830900383183e+00	 8.189870658722690e+00
 8.687457739404782e-01	 1.766708188682452e+00	 8.551344223387586e+00
 9.042363066263885e-01	 1.748809243108218e+00	 8.897464998324464e+00
 9.394681356921403e-01	 1.730137760928321e+00	 9.219526055486341e+00
 9.744166262849687e-01	 1.710698462529702e+00	 9.508699620001789e+00
 1.009057211237951e+00	 1.690497097114994e+00	 9.756105249403767e+00
 1.043365444049983e+00	 1.669540445233178e+00	 9.952880591040730e+00
 1.077317052358558e+00	 1.647836318069528e+00	 1.009025409377488e+01
 7.223881744699350e-01	 1.824708627533032e+00	 7.152101009491280e+00
 7.585524549470657e-01	 1.809973645814698e+00	 7.475820958771725e+00
 7.945567274483027e-01	 1.794459854989073e+00	 7.814187129390467e+00
 8.303766762033079e-01	 1.778167945145243e+00	 8.159244142986198e+00
 8.659878508519709e-01	 1.761099591259620e+00	 8.502714568820908e+00
 9.013657151799630e-01	 1.743257467734887e+00	 8.836055481968399e+00
 9.364856971689494e-01	 1.724645260101530e+00	 9.150519218403097e+00
 9.713232401720455e-01	 1.705267673761129e+00	 9.437217875125022e+00
 1.005853855013334e+00	 1.685130439664883e+00	 9.687191043351215e+00
 1.040053172799649e+00	 1.664240316836217e+00	 9.891476207277826e+00
 1.073896998223602e+00	 1.642605091662992e+00	 1.004118119102338e+01
 7.200875751895462e-01	 1.818897453560094e+00	 7.205835298502490e+00
 7.561366827992609e-01	 1.804209398535677e+00	 7.496372845199993e+00
 7.920262920124976e-01	 1.788745014687630e+00	 7.806828436177218e+00
 8.277321644976752e-01	 1.772504989907304e+00	 8.129259430062966e+00
 8.632299277620704e-01	 1.755490993836786e+00	 8.455383407014175e+00
 8.984951237321637e-01	 1.737705692361556e+00	 8.776634065763760e+00
 9.335032586444538e-01	 1.719152759274738e+00	 9.084221384081067e+00
 9.682298540579383e-01	 1.699836884992557e+00	 9.369195598238626e+00
 1.002650498787703e+00	 1.679763782214771e+00	 9.622514496738335e+00
 1.036740901548524e+00	 1.658940188439256e+00	 9.835113467688519e+00
 1.070476944088131e+00	 1.637373865256455e+00	 9.997977688906213e+00
 7.177869759081776e-01	 1.813086279587156e+00	 7.258420912194917e+00
 7.537209106503007e-01	 1.798445151256655e+00	 7.516328544770685e+00
 7.894958565754087e-01	 1.783030174386187e+00	 7.799463430745701e+00
 8.250876527906786e-01	 1.766842034669364e+00	 8.099894406007399e+00
 8.604720046707760e-01	 1.749882396413953e+00	 8.409332675523745e+00
 8.956245322829900e-01	 1.732153916988226e+00	 8.719187053531948e+00
 9.305208201186541e-01	 1.713660258447946e+00	 9.020623534436204e+00
 9.651364679426471e-01	 1.694406096223985e+00	 9.304628757445419e+00
 9.994471425610608e-01	 1.674397124764660e+00	 9.562076867395310e+00
 1.033428630296610e+00	 1.653640060042294e+00	 9.783799217999700e+00
 1.067056889952143e+00	 1.632142638849919e+00	 9.960656313023975e+00
 7.154863766258298e-01	 1.807275105614218e+00	 7.309825193589971e+00
 7.513051385001849e-01	 1.792680903977633e+00	 7.535658548046717e+00
 7.869654211370359e-01	 1.777315334084744e+00	 7.792066074357250e+00
 8.224431410823191e-01	 1.761179079431424e+00	 8.071126825281439e+00
 8.577140815780885e-01	 1.744273798991120e+00	 8.364544243089444e+00
 8.927539408324424e-01	 1.726602141614896e+00	 8.663700747154577e+00
 9.275383815915500e-01	 1.708167757621155e+00	 8.959716720338990e+00
 9.620430818261717e-01	 1.688975307455412e+00	 9.243513464617974e+00
 9.962437863334054e-01	 1.669030467314548e+00	 9.505879635551413e+00
 1.030116359043906e+00	 1.648339931645333e+00	 9.737540608663629e+00
 1.063636835815639e+00	 1.626911412443383e+00	 9.929230179596846e+00
 7.131857773425027e-01	 1.801463931641279e+00	 7.360015186314277e+00
 7.488893663489132e-01	 1.786916656698612e+00	 7.554333097085378e+00
 7.844349856973795e-01	 1.771600493783301e+00	 7.784610135011009e+00
 8.197986293725965e-01	 1.755516124193484e+00	 8.042934308631814e+00
 8.549561584840074e-01	 1.738665201568287e+00	 8.320999908524225e+00
 8.898833493805206e-01	 1.721050366241565e+00	 8.610161446542364e+00
 9.245559430631417e-01	 1.702675256794363e+00	 8.901492062726202e+00
 9.589496957085124e-01	 1.683544518686839e+00	 9.185845977717044e+00
 9.930404301047372e-01	 1.663663809864437e+00	 9.453924507422562e+00
 1.026804087790411e+00	 1.643039803248372e+00	 9.696345099773181e+00
 1.060216781678620e+00	 1.621680186036846e+00	 9.903712801765113e+00
 1.094417323025598e+00	 1.673992450102209e+00	 1.042324079537900e+01
 1.128521986140153e+00	 1.651192887841636e+00	 1.046162540987680e+01
 1.162215753401898e+00	 1.627652993340450e+00	 1.048064415975875e+01
 1.195474823913349e+00	 1.603383805471852e+00	 1.046717735676453e+01
 1.228275791281850e+00	 1.578397373432715e+00	 1.040824100992358e+01
 1.260595696849128e+00	 1.552706739074786e+00	 1.035033726081188e+01
 1.292412081961584e+00	 1.526325915889082e+00	 1.037937511224548e+01
 1.323703039036798e+00	 1.499269864705394e+00	 1.039338848172220e+01
 1.354447261186396e+00	 1.471554466189197e+00	 1.039579332575543e+01
 1.384624090162071e+00	 1.443196490238191e+00	 1.038991791271324e+01
 1.414213562400000e+00	 1.414213562400000e+00	 1.037893775208611e+01
 1.090997268893221e+00	 1.668761223695673e+00	 1.034499852794135e+01
 1.124995354933050e+00	 1.646032910066529e+00	 1.040704897234725e+01
 1.158583829169950e+00	 1.622566577735001e+00	 1.044768300455337e+01
 1.191738965084242e+00	 1.598373231077814e+00	 1.045402872833782e+01
 1.224437429428254e+00	 1.573464881638100e+00	 1.041335876064839e+01
 1.256656335289518e+00	 1.547854530511819e+00	 1.035013752363866e+01
 1.288373294197733e+00	 1.521556147397831e+00	 1.038964007434625e+01
 1.319566467031675e+00	 1.494584646373332e+00	 1.041244416539465e+01
 1.350214613486996e+00	 1.466955858476719e+00	 1.042203032028847e+01
 1.380297139872417e+00	 1.438686501199762e+00	 1.042180310728224e+01
 1.409794145010250e+00	 1.409794145010250e+00	 1.041502625214945e+01
 1.087577214760330e+00	 1.663529997289136e+00	 1.027256768014828e+01
 1.121468723725712e+00	 1.640872932291425e+00	 1.035806238244871e+01
 1.154951904938007e+00	 1.617480162129572e+00	 1.042006445978484e+01
 1.188003106255344e+00	 1.593362656683821e+00	 1.044594944904279e+01
 1.220599067575028e+00	 1.568532389843565e+00	 1.042324629059109e+01
 1.252716973730402e+00	 1.543002321948978e+00	 1.035468950190383e+01
 1.284334506434459e+00	 1.516786378906760e+00	 1.040415736093055e+01
 1.315429895027169e+00	 1.489899428041515e+00	 1.043524130628339e+01
 1.345981965788215e+00	 1.462357250764562e+00	 1.045148841750191e+01
 1.375970189583342e+00	 1.434176512161740e+00	 1.045638154686057e+01
 1.405374727621000e+00	 1.405374727621000e+00	 1.045327460480516e+01
 1.084157160626922e+00	 1.658298770882600e+00	 1.020595911491038e+01
 1.117942092518139e+00	 1.635712954516328e+00	 1.031467238579767e+01
 1.151319980706071e+00	 1.612393746524164e+00	 1.039779100054190e+01
 1.184267247426654e+00	 1.588352082289873e+00	 1.044293757969855e+01
 1.216760705722173e+00	 1.563599898049109e+00	 1.043789711245968e+01
 1.248777612171779e+00	 1.538150113386261e+00	 1.037070639047643e+01
 1.280295718671760e+00	 1.512016610415869e+00	 1.042296669494037e+01
 1.311293323023281e+00	 1.485214209709943e+00	 1.046181630947331e+01
 1.341749318090052e+00	 1.457758643052724e+00	 1.048420050477430e+01
 1.371643239294847e+00	 1.429666523124121e+00	 1.049368240461267e+01
 1.400955310232250e+00	 1.400955310232250e+00	 1.049370807647368e+01
 1.080737106492998e+00	 1.653067544476064e+00	 1.014518405599926e+01
 1.114415461310331e+00	 1.630552976741235e+00	 1.027688604662788e+01
 1.147688056474141e+00	 1.607307330918774e+00	 1.038086537606691e+01
 1.180531388598173e+00	 1.583341507895969e+00	 1.044499140866555e+01
 1.212922343869688e+00	 1.558667406254733e+00	 1.045730491782351e+01
 1.244838250613649e+00	 1.533297904823669e+00	 1.040610616436201e+01
 1.276256930909635e+00	 1.507246841925156e+00	 1.044610787495902e+01
 1.307156751020010e+00	 1.480528991378615e+00	 1.049220560133631e+01
 1.337516670392510e+00	 1.453160035341206e+00	 1.052019943471955e+01
 1.367316289006931e+00	 1.425156534086907e+00	 1.053373476129604e+01
 1.396535892844000e+00	 1.396535892844000e+00	 1.053635178204371e+01
 1.077317052358558e+00	 1.647836318069528e+00	 1.009025409377488e+01
 1.110888830102287e+00	 1.625392998966146e+00	 1.024471075284713e+01
 1.144056132242217e+00	 1.602220915313404e+00	 1.036929061410636e+01
 1.176795529769900e+00	 1.578330933502110e+00	 1.045210945545786e+01
 1.209083982017575e+00	 1.553734914460437e+00	 1.048146357995314e+01
 1.240898889056013e+00	 1.528445696261201e+00	 1.044591654294723e+01
 1.272218143148087e+00	 1.502477073434624e+00	 1.047362077641174e+01
 1.303020179017357e+00	 1.475843773047533e+00	 1.052644562986922e+01
 1.333284022695586e+00	 1.448561427630009e+00	 1.055951802463545e+01
 1.362989338719596e+00	 1.420646545050099e+00	 1.057656760379352e+01
 1.392116475456250e+00	 1.392116475456250e+00	 1.058123068246659e+01
 1.073896998223602e+00	 1.642605091662992e+00	 1.004118119102338e+01
 1.107362198894008e+00	 1.620233021191064e+00	 1.021815422119183e+01
 1.140424208010300e+00	 1.597134499708055e+00	 1.036307002534657e+01
 1.173059670941835e+00	 1.573320359108296e+00	 1.046429047442367e+01
 1.205245620165832e+00	 1.548802422666220e+00	 1.051036715671321e+01
 1.236959527498870e+00	 1.523593487698859e+00	 1.049012675799834e+01
 1.268179355387114e+00	 1.497707304944271e+00	 1.050554535278943e+01
 1.298883607015322e+00	 1.471158554716695e+00	 1.056457286503781e+01
 1.329051374999280e+00	 1.443962819919131e+00	 1.060218905594106e+01
 1.358662388432839e+00	 1.416136556013695e+00	 1.062220982361975e+01
 1.387697058069000e+00	 1.387697058069000e+00	 1.062836958230536e+01
 1.070476944088131e+00	 1.637373865256455e+00	 9.997977688906213e+00
 1.103835567685493e+00	 1.615073043415986e+00	 1.019722450247997e+01
 1.136792283778389e+00	 1.592048084102726e+00	 1.036220720793309e+01
 1.169323812113979e+00	 1.568309784714527e+00	 1.048153345849687e+01
 1.201407258314461e+00	 1.543869930872084e+00	 1.054400989351109e+01
 1.233020165942221e+00	 1.518741279136640e+00	 1.053872617570196e+01
 1.264140567626718e+00	 1.492937536454099e+00	 1.054192163689556e+01
 1.294747035013904e+00	 1.466473336386102e+00	 1.060662379912788e+01
 1.324818727303593e+00	 1.439364212208572e+00	 1.064824527360360e+01
 1.354335438146663e+00	 1.411626566977697e+00	 1.067069021539629e+01
 1.383277640682250e+00	 1.383277640682250e+00	 1.067779312723623e+01
 1.067056889952143e+00	 1.632142638849919e+00	 9.960656313023975e+00
 1.100308936476744e+00	 1.609913065640914e+00	 1.018192998696441e+01
 1.133160359546484e+00	 1.586961668497416e+00	 1.036670605207723e+01
 1.165587953286331e+00	 1.563299210320802e+00	 1.050383764302025e+01
 1.197568896463460e+00	 1.538937439078027e+00	 1.058238622630309e+01
 1.229080804386065e+00	 1.513889070574546e+00	 1.059170429881931e+01
 1.260101779866896e+00	 1.488167767964106e+00	 1.058278974211732e+01
 1.290610463013103e+00	 1.461788118055754e+00	 1.065263494710300e+01
 1.320586079608525e+00	 1.434765604498333e+00	 1.069771938555436e+01
 1.350008487861067e+00	 1.407116577942103e+00	 1.072203747530022e+01
 1.378858223296000e+00	 1.378858223296000e+00	 1.072952580150272e+01
 1.063636835815639e+00	 1.626911412443383e+00	 9.929230179596848e+00
 1.096782305267759e+00	 1.604753087865845e+00	 1.017227940979037e+01
 1.129528435314585e+00	 1.581875252892126e+00	 1.037657074475204e+01
 1.161852094458891e+00	 1.558288635927123e+00	 1.053120250964286e+01
 1.193730534612830e+00	 1.534004947284049e+00	 1.062549078465717e+01
 1.225141442830401e+00	 1.509036862012577e+00	 1.064905076888204e+01
 1.256062992107650e+00	 1.483397999474292e+00	 1.062818986372107e+01
 1.286473891012920e+00	 1.457102899725650e+00	 1.070264284696908e+01
 1.316353431914077e+00	 1.430166996788415e+00	 1.075064406209331e+01
 1.345681537576050e+00	 1.402606588906915e+00	 1.077628019948034e+01
 1.374438805910250e+00	 1.374438805910250e+00	 1.078359192531994e+01
 1.060216781678620e+00	 1.621680186036846e+00	 9.903712801765112e+00
 1.093255674058538e+00	 1.599593110090781e+00	 1.016828185655820e+01
 1.125896511082692e+00	 1.576788837286856e+00	 1.039180577447846e+01
 1.158116235631660e+00	 1.553278061533488e+00	 1.056362779029283e+01
 1.189892172762570e+00	 1.529072455490151e+00	 1.067331839487600e+01
 1.221202081275231e+00	 1.504184653450733e+00	 1.071075536843016e+01
 1.252024204348980e+00	 1.478628230984658e+00	 1.067816228017310e+01
 1.282337319013354e+00	 1.452417681395792e+00	 1.075668406014610e+01
 1.312120784220246e+00	 1.425568389078816e+00	 1.080705193528202e+01
 1.341354587291613e+00	 1.398096599872131e+00	 1.083344688244443e+01
 1.370019388525000e+00	 1.370019388525000e+00	 1.084001565222908e+01
 1.414213562400000e+00	 1.414213562400000e+00	 1.037893775208611e+01
 1.443196475494775e+00	 1.384624112627405e+00	 1.037760603859657e+01
 1.471554407389304e+00	 1.354447350854096e+00	 1.040117622140812e+01
 1.499269732816743e+00	 1.323703240303628e+00	 1.045309347912037e+01
 1.526325682186112e+00	 1.292412438818763e+00	 1.053633020778136e+01
 1.552706375163437e+00	 1.260596252818672e+00	 1.065333986773141e+01
 1.578396851274028e+00	 1.228276589354776e+00	 1.067084540312409e+01
 1.603383097404348e+00	 1.195475906489922e+00	 1.075135680073549e+01
 1.627652072101263e+00	 1.162217162234145e+00	 1.096215969702693e+01
 1.651191726586391e+00	 1.128523762276803e+00	 1.128426858387910e+01
 1.673991022423631e+00	 1.094419506759631e+00	 1.169953347418154e+01
 1.409794145010250e+00	 1.409794145010250e+00	 1.041502625214945e+01
 1.438686486502420e+00	 1.380297162267547e+00	 1.041498453274573e+01
 1.466955799860576e+00	 1.350214702874484e+00	 1.044079555748269e+01
 1.494584514896834e+00	 1.319566667669546e+00	 1.049581558915849e+01
 1.521555914425182e+00	 1.288373649939733e+00	 1.058293260257689e+01
 1.547854167737693e+00	 1.256656889521658e+00	 1.070452079211158e+01
 1.573464361111159e+00	 1.224438225007201e+00	 1.069312306514947e+01
 1.598372525223021e+00	 1.191740044277763e+00	 1.077551652677242e+01
 1.622565659374686e+00	 1.158585233599595e+00	 1.098965823239069e+01
 1.646031752440206e+00	 1.124997125519274e+00	 1.131667351337613e+01
 1.668759800478591e+00	 1.090999445803085e+00	 1.173850566073746e+01
 1.405374727621000e+00	 1.405374727621000e+00	 1.045327460480516e+01
 1.434176497510469e+00	 1.375970211908267e+00	 1.045447921755746e+01
 1.462357192332168e+00	 1.345982054895492e+00	 1.048249980174763e+01
 1.489899296977169e+00	 1.315430095036082e+00	 1.054060457174313e+01
 1.516786146664433e+00	 1.284334861061279e+00	 1.063159786110874e+01
 1.543001960312075e+00	 1.252717526225137e+00	 1.075777528586814e+01
 1.568531870948370e+00	 1.220599860659997e+00	 1.071417346587090e+01
 1.593361953041738e+00	 1.188004182065813e+00	 1.079853564160520e+01
 1.617479246648130e+00	 1.154953304965052e+00	 1.101608514559832e+01
 1.640871778294027e+00	 1.121470488761509e+00	 1.134805758550303e+01
 1.663528578533550e+00	 1.087579384846024e+00	 1.177648910655503e+01
 1.400955310232250e+00	 1.400955310232250e+00	 1.049370807647368e+01
 1.429666508518924e+00	 1.371643261549568e+00	 1.049611593346247e+01
 1.457758584804081e+00	 1.341749406917118e+00	 1.052631531908579e+01
 1.485214079057749e+00	 1.311293522403235e+00	 1.058748726312037e+01
 1.512016378903863e+00	 1.280296072183401e+00	 1.068235323467170e+01
 1.538149752886581e+00	 1.248778162929109e+00	 1.080147079483129e+01
 1.563599380785660e+00	 1.216761496313164e+00	 1.073392393013192e+01
 1.588351380860502e+00	 1.184268319854071e+00	 1.082034152668165e+01
 1.612392833921593e+00	 1.151321376330515e+00	 1.104136805426899e+01
 1.635711804147851e+00	 1.117943852003509e+00	 1.137834883392703e+01
 1.658297356588509e+00	 1.084159323888447e+00	 1.181341244079820e+01
 1.396535892844000e+00	 1.396535892844000e+00	 1.053635178204371e+01
 1.425156519527784e+00	 1.367316311191449e+00	 1.053992036796390e+01
 1.453159977276312e+00	 1.337516758939363e+00	 1.057226832049072e+01
 1.480528861138574e+00	 1.307156949771005e+00	 1.063649034512090e+01
 1.507246611143473e+00	 1.276257283306099e+00	 1.073522582005525e+01
 1.533297545461212e+00	 1.244838799633575e+00	 1.081898470552988e+01
 1.558666890623029e+00	 1.212923131966702e+00	 1.075230162939301e+01
 1.583340808679309e+00	 1.180532457642538e+00	 1.084086141127445e+01
 1.607306421195077e+00	 1.147689447695984e+00	 1.106543442548078e+01
 1.630551830001681e+00	 1.114417215245273e+00	 1.140747514382900e+01
 1.653066134643469e+00	 1.080739262930355e+00	 1.184920414661383e+01
 1.392116475456250e+00	 1.392116475456250e+00	 1.058123068246659e+01
 1.420646530537048e+00	 1.362989360833908e+00	 1.058591805320992e+01
 1.448561369748864e+00	 1.333284110962227e+00	 1.062038486062421e+01
 1.475843643219643e+00	 1.303020377139393e+00	 1.068764034270922e+01
 1.502476843383263e+00	 1.272218494429372e+00	 1.079024255709086e+01
 1.528445338035967e+00	 1.240899436338534e+00	 1.083494962015144e+01
 1.553734400460479e+00	 1.209084767620611e+00	 1.076923357929735e+01
 1.578330236498161e+00	 1.176796595431214e+00	 1.086002237006588e+01
 1.602220008468580e+00	 1.144057519061460e+00	 1.108821157338108e+01
 1.625391855855515e+00	 1.110890578486802e+00	 1.143536424954637e+01
 1.647834912698428e+00	 1.077319201971746e+00	 1.188379255881406e+01
 1.387697058069000e+00	 1.387697058069000e+00	 1.062836958230536e+01
 1.416136541546718e+00	 1.358662410476948e+00	 1.063413436351977e+01
 1.443962762221735e+00	 1.329051462985710e+00	 1.067069083532682e+01
 1.471158425300958e+00	 1.298883804508399e+00	 1.074096362148563e+01
 1.497707075623232e+00	 1.268179705553221e+00	 1.084743022615258e+01
 1.523593130610847e+00	 1.236960073043986e+00	 1.084929251558272e+01
 1.548801910298009e+00	 1.205246403274891e+00	 1.078464663718912e+01
 1.573319664317057e+00	 1.173060733220097e+00	 1.087775132068593e+01
 1.597133595742103e+00	 1.140425590426941e+00	 1.110962665675143e+01
 1.620231881709355e+00	 1.107363941728096e+00	 1.146194373217134e+01
 1.642603690753387e+00	 1.073899141012621e+00	 1.191710586151419e+01
 1.383277640682250e+00	 1.383277640682250e+00	 1.067779312723623e+01
 1.411626552556792e+00	 1.354335460120568e+00	 1.068459451286288e+01
 1.439364154694927e+00	 1.324818815009812e+00	 1.072321197908076e+01
 1.466473207382516e+00	 1.294747231878022e+00	 1.079648638514053e+01
 1.492937307863381e+00	 1.264140916677645e+00	 1.090681544560998e+01
 1.518740923185851e+00	 1.233020709749931e+00	 1.086194020706745e+01
 1.543869420135618e+00	 1.201408038929541e+00	 1.079846749958519e+01
 1.568309092135999e+00	 1.169324871009189e+00	 1.089397502120378e+01
 1.592047183015646e+00	 1.136793661792429e+00	 1.112960667652560e+01
 1.615071907563200e+00	 1.103837304969154e+00	 1.148714101710282e+01
 1.637372468808346e+00	 1.070479080052981e+00	 1.194907208572548e+01
 1.378858223296000e+00	 1.378858223296000e+00	 1.072952580150272e+01
 1.407116563567272e+00	 1.350008509764767e+00	 1.073732355228877e+01
 1.434765547168438e+00	 1.320586167034532e+00	 1.077797386242418e+01
 1.461787989464320e+00	 1.290610659248263e+00	 1.085423467285973e+01
 1.488167540103710e+00	 1.260102127802645e+00	 1.096842466923187e+01
 1.513888715760981e+00	 1.229081346456370e+00	 1.087281934561602e+01
 1.538936929973307e+00	 1.197569674584562e+00	 1.081062269959749e+01
 1.563298519954986e+00	 1.165589008798489e+00	 1.090862006757059e+01
 1.586960770289208e+00	 1.133161733157924e+00	 1.114807847326001e+01
 1.609911933417050e+00	 1.100310668209978e+00	 1.151088337155124e+01
 1.632141246863306e+00	 1.067059019092824e+00	 1.197961910690143e+01
 1.374438805910250e+00	 1.374438805910250e+00	 1.078359192531994e+01
 1.402606574578157e+00	 1.345681559409546e+00	 1.079234636730786e+01
 1.430166939642269e+00	 1.316353519059872e+00	 1.083500188931522e+01
 1.457102771546368e+00	 1.286474086619120e+00	 1.091423435667965e+01
 1.483397772344218e+00	 1.256063338928221e+00	 1.103228418353991e+01
 1.509036508336235e+00	 1.225141983163301e+00	 1.088185641536476e+01
 1.534004439811075e+00	 1.193731310239954e+00	 1.082103860430615e+01
 1.558287947774017e+00	 1.161853146587998e+00	 1.092161289101306e+01
 1.581874357562791e+00	 1.129529804523424e+00	 1.116496872455529e+01
 1.604751959270904e+00	 1.096784031450565e+00	 1.153309790199547e+01
 1.626910024918265e+00	 1.063638958132152e+00	 1.200867464243700e+01
 1.370019388525000e+00	 1.370019388525000e+00	 1.084001565222908e+01
 1.398096585589446e+00	 1.341354609054905e+00	 1.084968767522180e+01
 1.425568332116420e+00	 1.312120871085830e+00	 1.089432129444530e+01
 1.452417553628661e+00	 1.282337513990595e+00	 1.097651113879131e+01
 1.478628004584906e+00	 1.252024550054371e+00	 1.109842010511107e+01
 1.504184300911613e+00	 1.221202619870727e+00	 1.088897773088469e+01
 1.529071949648923e+00	 1.189892945895716e+00	 1.082964141208139e+01
 1.553277375593093e+00	 1.158117284377715e+00	 1.093287975537674e+01
 1.576787944836393e+00	 1.125897875888931e+00	 1.118020394242796e+01
 1.599591985124763e+00	 1.093257394690918e+00	 1.155371155159030e+01
 1.621678802973224e+00	 1.060218897170963e+00	 1.203616624911920e+01
 1.673991022423631e+00	 1.094419506759631e+00	 1.169953347418154e+01
 1.696039945799453e+00	 1.059928536339529e+00	 1.213048214583704e+01
 1.717329518392415e+00	 1.025075277784627e+00	 1.250861840415020e+01
 1.737851804833332e+00	 9.898843893540328e-01	 1.283088777963944e+01
 1.757599916777820e+00	 9.543807062084536e-01	 1.309549850142257e+01
 1.776568013627593e+00	 9.185891860866670e-01	 1.330188872474779e+01
 1.794751299959490e+00	 8.825348554826673e-01	 1.345068239036928e+01
 1.812146019738171e+00	 8.462427565487523e-01	 1.354363456584378e+01
 1.828749447405341e+00	 8.097378949403903e-01	 1.358356721714153e+01
 1.844559875954101e+00	 7.730451888079130e-01	 1.357429644051193e+01
 1.859576602111558e+00	 7.361894191280726e-01	 1.352055224870747e+01
 1.668759800478591e+00	 1.090999445803085e+00	 1.173850566073746e+01
 1.690739820969426e+00	 1.056616259667989e+00	 1.215126706999304e+01
 1.711962863648469e+00	 1.021871917548076e+00	 1.251380232033331e+01
 1.732421017944570e+00	 9.867910006453980e-01	 1.282282525085495e+01
 1.752107417039417e+00	 9.513982665107845e-01	 1.307629583762439e+01
 1.771016238586598e+00	 9.157185948900840e-01	 1.327338894755682e+01
 1.789142702148648e+00	 8.797769340695007e-01	 1.341445182573225e+01
 1.806483063427840e+00	 8.435982479446105e-01	 1.350095115034758e+01
 1.823034605383249e+00	 8.072074640282118e-01	 1.353541058721392e+01
 1.838795626342375e+00	 7.706294226014222e-01	 1.352133985687198e+01
 1.853765425230055e+00	 7.338888272004465e-01	 1.346315639139844e+01
 1.663528578533550e+00	 1.087579384846024e+00	 1.177648910655503e+01
 1.685439696139397e+00	 1.053303982995660e+00	 1.217169627310589e+01
 1.706596208904524e+00	 1.018668557310514e+00	 1.251924827498551e+01
 1.726990231055807e+00	 9.836976119355788e-01	 1.281562605265970e+01
 1.746614917301015e+00	 9.484158268118109e-01	 1.305854026356792e+01
 1.765464463545603e+00	 9.128480036921273e-01	 1.324690156248371e+01
 1.783534104337806e+00	 8.770190126549408e-01	 1.338077971584320e+01
 1.800820107117509e+00	 8.409537393391047e-01	 1.346135236841306e+01
 1.817319763361157e+00	 8.046770331147493e-01	 1.349084437778199e+01
 1.833031376730649e+00	 7.682136563937756e-01	 1.347245871294621e+01
 1.847954248348551e+00	 7.315882352718411e-01	 1.341029997710613e+01
 1.658297356588509e+00	 1.084159323888447e+00	 1.181341244079820e+01
 1.680139571309369e+00	 1.049991706322540e+00	 1.219170502407908e+01
 1.701229554160579e+00	 1.015465197071938e+00	 1.252489838929678e+01
 1.721559444167045e+00	 9.806042232245757e-01	 1.280923935715989e+01
 1.741122417562612e+00	 9.454333871115330e-01	 1.304218818638267e+01
 1.759912688504608e+00	 9.099774124927966e-01	 1.322239038072455e+01
 1.777925506526964e+00	 8.742610912389874e-01	 1.334963742946997e+01
 1.795157150807178e+00	 8.383092307322364e-01	 1.342481728394159e+01
 1.811604921339065e+00	 8.021466022000032e-01	 1.344985546916352e+01
 1.827267127118924e+00	 7.657978901849736e-01	 1.342764781020950e+01
 1.842143071467048e+00	 7.292876433422564e-01	 1.336198581646852e+01
 1.653066134643469e+00	 1.080739262930355e+00	 1.184920414661383e+01
 1.674839446479340e+00	 1.046679429648631e+00	 1.221122852292840e+01
 1.695862899416634e+00	 1.012261836832350e+00	 1.253069479355545e+01
 1.716128657278283e+00	 9.775108345123884e-01	 1.280361442425006e+01
 1.735629917824209e+00	 9.424509474099509e-01	 1.302719618022779e+01
 1.754360913463612e+00	 9.071068212920916e-01	 1.319981946014568e+01
 1.772316908716122e+00	 8.715031698216406e-01	 1.332099666193953e+01
 1.789494194496846e+00	 8.356647221240047e-01	 1.339132536738113e+01
 1.805890079316973e+00	 7.996161712839736e-01	 1.341243122816195e+01
 1.821502877507198e+00	 7.633821239750158e-01	 1.338690251636779e+01
 1.836331894585545e+00	 7.269870514116921e-01	 1.331821736576482e+01
 1.647834912698428e+00	 1.077319201971746e+00	 1.188379255881406e+01
 1.669539321649312e+00	 1.043367152973931e+00	 1.223020189968845e+01
 1.690496244672689e+00	 1.009058476591749e+00	 1.253657962729259e+01
 1.710697870389520e+00	 9.744174457990173e-01	 1.279870060300655e+01
 1.730137418085807e+00	 9.394685077070648e-01	 1.301352098894338e+01
 1.748809138422616e+00	 9.042362300900125e-01	 1.317915310919905e+01
 1.766708310905280e+00	 8.687452484029002e-01	 1.329482944032131e+01
 1.783831238186515e+00	 8.330202135144096e-01	 1.336085650217940e+01
 1.800175237294881e+00	 7.970857403666602e-01	 1.337855951578825e+01
 1.815738627895473e+00	 7.609663577639029e-01	 1.335021877434594e+01
 1.830520717704041e+00	 7.246864594801485e-01	 1.327899873716381e+01
 1.642603690753387e+00	 1.073899141012621e+00	 1.191710586151419e+01
 1.664239196819284e+00	 1.040054876298442e+00	 1.224856021329839e+01
 1.685129589928743e+00	 1.005855116350135e+00	 1.254249503942913e+01
 1.705267083500758e+00	 9.713240570844621e-01	 1.279444733310758e+01
 1.724644918347405e+00	 9.364860680028740e-01	 1.300111952875242e+01
 1.743257363381621e+00	 9.013656388865600e-01	 1.316035589091255e+01
 1.761099713094437e+00	 8.659873269827660e-01	 1.327110812870983e+01
 1.778168281876184e+00	 8.303757049034514e-01	 1.333339099136029e+01
 1.794460395272789e+00	 7.945553094480629e-01	 1.334822869513058e+01
 1.809974378283747e+00	 7.585505915516340e-01	 1.331759311144724e+01
 1.824709540822537e+00	 7.223858675476253e-01	 1.324433470916789e+01
 1.637372468808346e+00	 1.070479080052981e+00	 1.194907208572547e+01
 1.658939071989255e+00	 1.036742599622162e+00	 1.226623845046614e+01
 1.679762935184797e+00	 1.002651756107509e+00	 1.254838318842599e+01
 1.699836296611995e+00	 9.682306683687231e-01	 1.279080414628057e+01
 1.719152418609002e+00	 9.335036282973788e-01	 1.298994889101446e+01
 1.737705588340626e+00	 8.984950476817326e-01	 1.314339262695660e+01
 1.755491115283595e+00	 8.632294055612384e-01	 1.324980543360845e+01
 1.772505325565852e+00	 8.277311962911299e-01	 1.330890956422638e+01
 1.788745553250697e+00	 7.920248785281819e-01	 1.332142763937462e+01
 1.804210128672021e+00	 7.561348253382099e-01	 1.328902264868852e+01
 1.818898363941034e+00	 7.200852756141226e-01	 1.321423073725740e+01
 1.632141246863306e+00	 1.067059019092824e+00	 1.197961910690143e+01
 1.653638947159227e+00	 1.033430322945092e+00	 1.228317152451085e+01
 1.674396280440852e+00	 9.994483958638704e-01	 1.255418624243687e+01
 1.694405509723233e+00	 9.651372796517999e-01	 1.278772066777731e+01
 1.713659918870599e+00	 9.305211885905795e-01	 1.297996634503229e+01
 1.732153813299630e+00	 8.956244564755317e-01	 1.312822840178913e+01
 1.749882517472753e+00	 8.604714841383178e-01	 1.323089440941670e+01
 1.766842369255521e+00	 8.250866876774454e-01	 1.328739338319031e+01
 1.783030711228606e+00	 7.894944476070176e-01	 1.329814573997822e+01
 1.798445879060295e+00	 7.537190591236298e-01	 1.326450511031484e+01
 1.813087187059531e+00	 7.177846836796408e-01	 1.318869296473962e+01
 1.626910024918265e+00	 1.063638958132152e+00	 1.200867464243700e+01
 1.648338822329199e+00	 1.030118046267232e+00	 1.229929427418307e+01
 1.669029625696906e+00	 9.962450356192187e-01	 1.255984637946411e+01
 1.688974722834470e+00	 9.620438909336927e-01	 1.278514661787751e+01
 1.708167419132196e+00	 9.275387488824757e-01	 1.297112934091281e+01
 1.726602038258635e+00	 8.927538652679567e-01	 1.311482856688045e+01
 1.744273919661911e+00	 8.577135627140031e-01	 1.321434846402346e+01
 1.761179412945190e+00	 8.224421790623976e-01	 1.326882405073797e+01
 1.777315869206514e+00	 7.869640166845692e-01	 1.327837291500380e+01
 1.792681629448570e+00	 7.513032929078942e-01	 1.324403883349764e+01
 1.807276010178027e+00	 7.154840917441793e-01	 1.316772823380717e+01
 1.621678802973224e+00	 1.060218897170963e+00	 1.203616624911920e+01
 1.643038697499171e+00	 1.026805769588582e+00	 1.231454146246194e+01
 1.663662970952962e+00	 9.930416753735546e-01	 1.256530578751750e+01
 1.683543935945708e+00	 9.589505022144016e-01	 1.278303181342158e+01
 1.702674919393794e+00	 9.245563091730674e-01	 1.296339551248316e+01
 1.721050263217639e+00	 8.898832740590078e-01	 1.310315874501989e+01
 1.738665321851069e+00	 8.549556412882954e-01	 1.320014136450838e+01
 1.755516456634858e+00	 8.197976704459866e-01	 1.325318361652645e+01
 1.771601027184422e+00	 7.844335857608370e-01	 1.326209961761190e+01
 1.786917379836844e+00	 7.488875266910032e-01	 1.322762277822070e+01
 1.801464833296524e+00	 7.131834998077383e-01	 1.315134409681021e+01
 1.859576602111558e+00	 7.361894191280726e-01	 1.352055224870747e+01
 1.873799908764660e+00	 6.991951815542734e-01	 1.346842658189136e+01
 1.887231044781073e+00	 6.620868399551338e-01	 1.337959911673432e+01
 1.899872202380815e+00	 6.248884817900889e-01	 1.332121247093928e+01
 1.911726492223089e+00	 5.876238754558704e-01	 1.307092331640675e+01
 1.922797916386281e+00	 5.503164297277902e-01	 1.287122607163887e+01
 1.933091339419748e+00	 5.129891553989844e-01	 1.271679029793956e+01
 1.942612457651407e+00	 4.756646292059358e-01	 1.260237611249554e+01
 1.951367766937804e+00	 4.383649601125787e-01	 1.252283298815649e+01
 1.959364529044608e+00	 4.011117580094508e-01	 1.247309838449704e+01
 1.966610736845282e+00	 3.639261048688338e-01	 1.244819633291256e+01
 1.853765425230055e+00	 7.338888272004465e-01	 1.346315639139844e+01
 1.867944284049319e+00	 6.970101966174933e-01	 1.343098692394710e+01
 1.881333447765224e+00	 6.600178185843083e-01	 1.339697030529110e+01
 1.893935101747104e+00	 6.229357052870169e-01	 1.334086273664547e+01
 1.905752346933347e+00	 5.857875508461104e-01	 1.309525144109115e+01
 1.916789172895843e+00	 5.485966908844795e-01	 1.289893585638892e+01
 1.927050428982234e+00	 5.113860642865320e-01	 1.274685004623103e+01
 1.936541793719408e+00	 4.741781772364490e-01	 1.263401300570670e+01
 1.945269742664360e+00	 4.369950696076533e-01	 1.255552681266816e+01
 1.953241514889738e+00	 3.998582837597746e-01	 1.250657466405327e+01
 1.960465078291276e+00	 3.627888357839317e-01	 1.248241892022090e+01
 1.847954248348551e+00	 7.315882352718411e-01	 1.341029997710613e+01
 1.862088659333977e+00	 6.948252116799342e-01	 1.339717773354743e+01
 1.875435850749376e+00	 6.579487972129046e-01	 1.341950764840634e+01
 1.887998001113393e+00	 6.209829287835666e-01	 1.336390320923054e+01
 1.899778201643604e+00	 5.839512262361745e-01	 1.312222858799564e+01
 1.910780429405406e+00	 5.468769520411941e-01	 1.292854781847709e+01
 1.921009518544720e+00	 5.097829731743058e-01	 1.277806112204122e+01
 1.930471129787410e+00	 4.726917252673900e-01	 1.266604800488030e+01
 1.939171718390916e+00	 4.356251791033565e-01	 1.258786475490745e+01
 1.947118500734868e+00	 3.986048095109275e-01	 1.253894187763862e+01
 1.954319419737269e+00	 3.616515667000589e-01	 1.251478159444803e+01
 1.842143071467048e+00	 7.292876433422564e-01	 1.336198581646852e+01
 1.856233034618636e+00	 6.926402267415954e-01	 1.336699710823591e+01
 1.869538253733528e+00	 6.558797758409218e-01	 1.340897670956648e+01
 1.882060900479682e+00	 6.190301522797395e-01	 1.339035201248356e+01
 1.893804056353863e+00	 5.821149016260621e-01	 1.315186688645257e+01
 1.904771685914969e+00	 5.451572131979338e-01	 1.296006808233496e+01
 1.914968608107206e+00	 5.081798820623064e-01	 1.281042364409572e+01
 1.924400465855411e+00	 4.712052732987584e-01	 1.269847523162803e+01
 1.933073694117472e+00	 4.342552885996881e-01	 1.261983495710024e+01
 1.940995486579999e+00	 3.973513352629099e-01	 1.257018221467853e+01
 1.948173761183262e+00	 3.605142976172154e-01	 1.254526062736677e+01
 1.836331894585545e+00	 7.269870514116921e-01	 1.331821736576482e+01
 1.850377409903294e+00	 6.904552418024777e-01	 1.334044370819166e+01
 1.863640656717680e+00	 6.538107544683607e-01	 1.339817062005219e+01
 1.876123799845970e+00	 6.170773757755347e-01	 1.342022766450834e+01
 1.887829911064120e+00	 5.802785770157733e-01	 1.318417877511012e+01
 1.898762942424532e+00	 5.434374743546986e-01	 1.299350299635972e+01
 1.908927697669692e+00	 5.065767909505332e-01	 1.284393786953687e+01
 1.918329801923412e+00	 4.697188213305547e-01	 1.273128886038022e+01
 1.926975669844028e+00	 4.328853980966485e-01	 1.265142552878977e+01
 1.934872472425129e+00	 3.960978610157211e-01	 1.260027774665348e+01
 1.942028102629256e+00	 3.593770285354013e-01	 1.257383208791993e+01
 1.830520717704041e+00	 7.246864594801485e-01	 1.327899873716381e+01
 1.844521785187952e+00	 6.882702568625806e-01	 1.331751676516017e+01
 1.857743059701832e+00	 6.517417330952210e-01	 1.339004479160880e+01
 1.870186699212259e+00	 6.151245992709521e-01	 1.341647494896367e+01
 1.881855765774378e+00	 5.784422524053084e-01	 1.321917700684202e+01
 1.892754198934095e+00	 5.417177355114887e-01	 1.302885913646920e+01
 1.902886787232178e+00	 5.049736998389867e-01	 1.287860419612086e+01
 1.912259137991414e+00	 4.682323693627786e-01	 1.276448311922423e+01
 1.920877645570584e+00	 4.315155075942375e-01	 1.268262454631785e+01
 1.928749458270260e+00	 3.948443867693620e-01	 1.262921042522702e+01
 1.935882444075250e+00	 3.582397594546164e-01	 1.260047183900085e+01
 1.824709540822537e+00	 7.223858675476253e-01	 1.324433470916789e+01
 1.838666160472611e+00	 6.860852719219046e-01	 1.329821609155463e+01
 1.851845462685985e+00	 6.496727117215029e-01	 1.338459410536893e+01
 1.864249598578548e+00	 6.131718227659925e-01	 1.340502919895561e+01
 1.875881620484636e+00	 5.766059277946672e-01	 1.325687465375121e+01
 1.886745455443657e+00	 5.399979966683036e-01	 1.306614330972487e+01
 1.896845876794664e+00	 5.033706087276666e-01	 1.291442316445682e+01
 1.906188474059415e+00	 4.667459173954303e-01	 1.279805229075886e+01
 1.914779621297140e+00	 4.301456170924553e-01	 1.271342005229619e+01
 1.922626444115390e+00	 3.935909125238318e-01	 1.265696208033771e+01
 1.929736785521244e+00	 3.571024903748611e-01	 1.262515553417223e+01
 1.818898363941034e+00	 7.200852756141226e-01	 1.321423073725740e+01
 1.832810535757269e+00	 6.839002869804489e-01	 1.328254208973177e+01
 1.845947865670136e+00	 6.476036903472060e-01	 1.338181394451150e+01
 1.858312497944836e+00	 6.112190462606550e-01	 1.339432914578538e+01
 1.869907475194894e+00	 5.747696031838500e-01	 1.325502965442857e+01
 1.880736711953221e+00	 5.382782578251437e-01	 1.310536255802414e+01
 1.890804966357150e+00	 5.017675176165729e-01	 1.295139546028876e+01
 1.900117810127416e+00	 4.652594654285095e-01	 1.283199071296514e+01
 1.908681597023696e+00	 4.287757265913015e-01	 1.274380005506759e+01
 1.916503429960519e+00	 3.923374382791309e-01	 1.268351441825470e+01
 1.923591126967237e+00	 3.559652212961348e-01	 1.264785861432231e+01
 1.813087187059531e+00	 7.177846836796408e-01	 1.318869296473962e+01
 1.826954911041928e+00	 6.817153020382143e-01	 1.327049576144608e+01
 1.840050268654289e+00	 6.455346689723306e-01	 1.338170020230735e+01
 1.852375397311125e+00	 6.092662697549400e-01	 1.338442116179200e+01
 1.863933329905151e+00	 5.729332785728564e-01	 1.324623183716754e+01
 1.874727968462783e+00	 5.365585189820092e-01	 1.314419355592125e+01
 1.884764055919636e+00	 5.001644265057056e-01	 1.298952191682154e+01
 1.894047146195418e+00	 4.637730134620164e-01	 1.286629278009389e+01
 1.902583572750251e+00	 4.274058360907767e-01	 1.277375252815671e+01
 1.910380415805650e+00	 3.910839640352594e-01	 1.270884901959581e+01
 1.917445468413230e+00	 3.548279522184382e-01	 1.266855630425657e+01
 1.807276010178027e+00	 7.154840917441793e-01	 1.316772823380717e+01
 1.821099286326586e+00	 6.795303170952003e-01	 1.326207871748647e+01
 1.834152671638440e+00	 6.434656475968767e-01	 1.338424929032012e+01
 1.846438296677414e+00	 6.073134932488476e-01	 1.337535204614705e+01
 1.857959184615409e+00	 5.710969539616865e-01	 1.323764557391315e+01
 1.868719224972346e+00	 5.348387801388995e-01	 1.313459126771054e+01
 1.878723145482122e+00	 4.985613353950650e-01	 1.302880351709154e+01
 1.887976482263419e+00	 4.622865614959512e-01	 1.290095294357033e+01
 1.896485548476808e+00	 4.260359455908804e-01	 1.280326540971037e+01
 1.904257401650780e+00	 3.898304897922170e-01	 1.273294733730751e+01
 1.911299809859224e+00	 3.536906831417708e-01	 1.268722360922373e+01
 1.801464833296524e+00	 7.131834998077383e-01	 1.315134409681021e+01
 1.815243661611244e+00	 6.773453321514069e-01	 1.325729318749942e+01
 1.828255074622592e+00	 6.413966262208440e-01	 1.338945814676580e+01
 1.840501196043703e+00	 6.053607167423776e-01	 1.336716903173913e+01
 1.851985039325666e+00	 5.692606293503404e-01	 1.322930983121279e+01
 1.862710481481908e+00	 5.331190412958150e-01	 1.312460037936428e+01
 1.872682235044608e+00	 4.969582442846507e-01	 1.304856315516889e+01
 1.881905818331420e+00	 4.608001095303135e-01	 1.293596571291631e+01
 1.890387524203362e+00	 4.246660550916125e-01	 1.283232660192686e+01
 1.898134387495910e+00	 3.885770155500037e-01	 1.275579069460552e+01
 1.905154151305217e+00	 3.525534140661327e-01	 1.270383531137450e+01
 1.966610736845282e+00	 3.639261048688338e-01	 1.244819633291256e+01
 1.973115078524969e+00	 3.268285283815016e-01	 1.243993143452529e+01
 1.978886900971149e+00	 2.898389780871670e-01	 1.244230624542927e+01
 1.983936172532344e+00	 2.529768039953384e-01	 1.245369494617880e+01
 1.988273445321150e+00	 2.162607376804582e-01	 1.247245043662140e+01
 1.991909817228721e+00	 1.797088758238808e-01	 1.249689689368009e+01
 1.994856893813928e+00	 1.433386661626854e-01	 1.252532357290271e+01
 1.997126750222366e+00	 1.071668957949584e-01	 1.255597987046017e+01
 1.998731893282386e+00	 7.120968178146636e-02	 1.258707164374805e+01
 1.999685223916798e+00	 3.548246397489040e-02	 1.261675877164941e+01
 2.000000000000000e+00	 0.000000000000000e+00	 1.264315392000000e+01
 1.960465078291276e+00	 3.627888357839317e-01	 1.248241892022090e+01
 1.966949093903480e+00	 3.258071892220590e-01	 1.246700865651445e+01
 1.972702879404751e+00	 2.889332312717472e-01	 1.246316017748507e+01
 1.977736371992524e+00	 2.521862514737179e-01	 1.246905773785335e+01
 1.982060090804042e+00	 2.155849228662357e-01	 1.248286917656091e+01
 1.985685099049551e+00	 1.791472855785181e-01	 1.250273911698762e+01
 1.988622966020549e+00	 1.428907328234580e-01	 1.252678334809859e+01
 1.990885729127804e+00	 1.068319992394520e-01	 1.255308440265400e+01
 1.992485856115827e+00	 7.098715152144330e-02	 1.257968833065933e+01
 1.993436207592045e+00	 3.537158127256485e-02	 1.260460264966844e+01
 1.993750000000000e+00	 0.000000000000000e+00	 1.262579543852462e+01
 1.954319419737269e+00	 3.616515667000589e-01	 1.251478159444803e+01
 1.960783109281990e+00	 3.247858500638137e-01	 1.249265920560268e+01
 1.966518857838353e+00	 2.880274844576293e-01	 1.248302259005272e+01
 1.971536571452704e+00	 2.513956989534414e-01	 1.248386562069087e+01
 1.975846736286935e+00	 2.149091080533387e-01	 1.249317062706948e+01
 1.979460380870381e+00	 1.785856953344024e-01	 1.250890223814656e+01
 1.982389038227170e+00	 1.424427994853404e-01	 1.252900234314251e+01
 1.984644708033242e+00	 1.064971026848608e-01	 1.255138618609432e+01
 1.986239818949267e+00	 7.076462126208481e-02	 1.257393959230740e+01
 1.987187191267293e+00	 3.526069857059837e-02	 1.259451730887278e+01
 1.987500000000000e+00	 0.000000000000000e+00	 1.261094242687716e+01
 1.948173761183262e+00	 3.605142976172154e-01	 1.254526062736677e+01
 1.954617124660500e+00	 3.237645109067654e-01	 1.251686464899048e+01
 1.960334836271955e+00	 2.871217376448130e-01	 1.250188036538443e+01
 1.965336770912883e+00	 2.506051464345092e-01	 1.249811080178089e+01
 1.969633381769826e+00	 2.142332932417672e-01	 1.250335232028431e+01
 1.973235662691210e+00	 1.780241050915338e-01	 1.251538910526349e+01
 1.976155110433792e+00	 1.419948661483328e-01	 1.253198870405214e+01
 1.978403686938679e+00	 1.061622061311850e-01	 1.255089863799848e+01
 1.979993781782708e+00	 7.054209100339093e-02	 1.256984408208885e+01
 1.980938174942540e+00	 3.514981586899093e-02	 1.258652659586664e+01
 1.981250000000000e+00	 0.000000000000000e+00	 1.259862387431704e+01
 1.942028102629256e+00	 3.593770285354013e-01	 1.257383208791993e+01
 1.948451140039011e+00	 3.227431717509143e-01	 1.253960640806236e+01
 1.954150814705558e+00	 2.862159908332985e-01	 1.251972029716849e+01
 1.959136970373063e+00	 2.498145939169212e-01	 1.251178545704230e+01
 1.963420027252718e+00	 2.135574784315213e-01	 1.251341181461190e+01
 1.967010944512039e+00	 1.774625148499122e-01	 1.252220265010930e+01
 1.969921182640413e+00	 1.415469328124350e-01	 1.253575071777008e+01
 1.972162665844117e+00	 1.058273095784245e-01	 1.255163537354917e+01
 1.973747744616148e+00	 7.031956074536165e-02	 1.256742070810269e+01
 1.974689158617787e+00	 3.503893316774255e-02	 1.258065466831120e+01
 1.975000000000000e+00	 0.000000000000000e+00	 1.258886913705614e+01
 1.935882444075250e+00	 3.582397594546164e-01	 1.260047183900085e+01
 1.942285155417521e+00	 3.217218325962605e-01	 1.256086575607222e+01
 1.947966793139159e+00	 2.853102440230859e-01	 1.253652908912341e+01
 1.952937169833243e+00	 2.490240414006774e-01	 1.252488173072851e+01
 1.957206672735611e+00	 2.128816636226010e-01	 1.252334669514506e+01
 1.960786226332869e+00	 1.769009246095377e-01	 1.252934588944701e+01
 1.963687254847034e+00	 1.410989994776471e-01	 1.254029681440059e+01
 1.965921644749555e+00	 1.054924130265792e-01	 1.255361020903654e+01
 1.967501707449590e+00	 7.009703048799697e-02	 1.256668863719352e+01
 1.968440142293034e+00	 3.492805046685321e-02	 1.257692599986217e+01
 1.968750000000000e+00	 0.000000000000000e+00	 1.258170794408340e+01
 1.929736785521244e+00	 3.571024903748611e-01	 1.262515553417223e+01
 1.936119170796032e+00	 3.207004934428038e-01	 1.258062381578467e+01
 1.941782771572762e+00	 2.844044972141749e-01	 1.255229335356538e+01
 1.946737369293422e+00	 2.482334888857778e-01	 1.253739173492334e+01
 1.950993318218503e+00	 2.122058488150062e-01	 1.253315457408791e+01
 1.954561508153698e+00	 1.763393343704102e-01	 1.253682192638522e+01
 1.957453327053656e+00	 1.406510661439691e-01	 1.254563556948938e+01
 1.959680623654992e+00	 1.051575164756493e-01	 1.255683716506079e+01
 1.961255670283030e+00	 6.987450023129683e-02	 1.256766729907133e+01
 1.962191125968281e+00	 3.481716776632292e-02	 1.257536538520128e+01
 1.962500000000000e+00	 0.000000000000000e+00	 1.257717040310083e+01
 1.923591126967237e+00	 3.559652212961348e-01	 1.264785861432231e+01
 1.929953186174542e+00	 3.196791542905442e-01	 1.259886155707094e+01
 1.935598750006363e+00	 2.834987504065657e-01	 1.256699960994811e+01
 1.940537568753602e+00	 2.474429363722223e-01	 1.254930754902703e+01
 1.944779963701394e+00	 2.115300340087370e-01	 1.254283309118889e+01
 1.948336789974529e+00	 1.757777441325298e-01	 1.254463395175741e+01
 1.951219399260276e+00	 1.402031328114009e-01	 1.255177570634691e+01
 1.953439602560430e+00	 1.048226199256347e-01	 1.256133046979567e+01
 1.955009633116471e+00	 6.965196997526132e-02	 1.257037639051093e+01
 1.955942109643528e+00	 3.470628506615169e-02	 1.257599794516476e+01
 1.956250000000000e+00	 0.000000000000000e+00	 1.257528700657315e+01
 1.917445468413230e+00	 3.548279522184382e-01	 1.266855630425657e+01
 1.923787201553052e+00	 3.186578151394820e-01	 1.261555979445873e+01
 1.929414728439965e+00	 2.825930036002583e-01	 1.258063428337468e+01
 1.934337768213782e+00	 2.466523838600109e-01	 1.256062121923253e+01
 1.938566609184287e+00	 2.108542192037932e-01	 1.255237991418219e+01
 1.942112071795358e+00	 1.752161538958963e-01	 1.255278524552782e+01
 1.944985471466898e+00	 1.397551994799426e-01	 1.255872609841634e+01
 1.947198581465868e+00	 1.044877233765354e-01	 1.256710456231503e+01
 1.948763595949912e+00	 6.942943971989041e-02	 1.257483587963157e+01
 1.949693093318775e+00	 3.459540236633950e-02	 1.257884913196998e+01
 1.950000000000000e+00	 0.000000000000000e+00	 1.257608863789395e+01
 1.911299809859224e+00	 3.536906831417708e-01	 1.268722360922373e+01
 1.917621216931563e+00	 3.176364759896169e-01	 1.263069918463475e+01
 1.923230706873567e+00	 2.816872567952527e-01	 1.259318370308062e+01
 1.928137967673962e+00	 2.458618313491438e-01	 1.257132475799155e+01
 1.932353254667179e+00	 2.101784044001750e-01	 1.256179273923773e+01
 1.935887353616187e+00	 1.746545636605099e-01	 1.256127917822441e+01
 1.938751543673519e+00	 1.393072661495942e-01	 1.256649577168733e+01
 1.940957560371305e+00	 1.041528268283514e-01	 1.257417409598362e+01
 1.942517558783353e+00	 6.920690946518410e-02	 1.258106601025968e+01
 1.943444076994023e+00	 3.448451966688636e-02	 1.258394473454329e+01
 1.943750000000000e+00	 0.000000000000000e+00	 1.257960657767062e+01
 1.905154151305217e+00	 3.525534140661327e-01	 1.270383531137450e+01
 1.911455232310073e+00	 3.166151368409488e-01	 1.264426022389883e+01
 1.917046685307169e+00	 2.807815099915488e-01	 1.260463410088771e+01
 1.921938167134141e+00	 2.450712788396208e-01	 1.258141014347042e+01
 1.926139900150070e+00	 2.095025895978823e-01	 1.257106929141973e+01
 1.929662635437016e+00	 1.740929734263706e-01	 1.257011921239953e+01
 1.932517615880140e+00	 1.388593328203557e-01	 1.257509390715639e+01
 1.934716539276743e+00	 1.038179302810827e-01	 1.258255394191330e+01
 1.936271521616793e+00	 6.898437921114235e-02	 1.258908730637551e+01
 1.937195060669269e+00	 3.437363696779226e-02	 1.259131088395058e+01
 1.937500000000000e+00	 0.000000000000000e+00	 1.258587251013112e+01
 0.000000000000000e+00	 1.937500000000000e+00	 2.143934535315918e+00
 3.437363696779240e-02	 1.937195060669269e+00	 2.524944336785313e+00
 6.898437921114264e-02	 1.936271521616793e+00	 2.898914139363025e+00
 1.038179302810830e-01	 1.934716539276743e+00	 3.260726590503006e+00
 1.388593328203562e-01	 1.932517615880140e+00	 3.605528863350172e+00
 1.740929734263712e-01	 1.929662635437017e+00	 3.928770660860550e+00
 2.095025895978831e-01	 1.926139900150071e+00	 4.226241614369883e+00
 2.450712788396217e-01	 1.921938167134141e+00	 4.494107724667942e+00
 2.807815099915498e-01	 1.917046685307169e+00	 4.728946481748751e+00
 3.166151368409499e-01	 1.911455232310073e+00	 4.927780291133926e+00
 3.525534140661327e-01	 1.905154151305217e+00	 5.088107830377404e+00
 0.000000000000000e+00	 1.931250000000000e+00	 2.148290306150852e+00
 3.426275426878808e-02	 1.930946044344516e+00	 2.527026484940619e+00
 6.876184895726706e-02	 1.930025484450234e+00	 2.894366099986690e+00
 1.034830337340431e-01	 1.928475518182180e+00	 3.245094583504665e+00
 1.384113994913951e-01	 1.926283688086761e+00	 3.574269258182046e+00
 1.735313831925436e-01	 1.923437917257845e+00	 3.877257990590959e+00
 2.088267747959218e-01	 1.919926545632962e+00	 4.149777246759752e+00
 2.442807263304348e-01	 1.915738366594321e+00	 4.387929195241028e+00
 2.798757631881713e-01	 1.910862663740771e+00	 4.588237490876937e+00
 3.155937976925812e-01	 1.905289247688583e+00	 4.747681363931450e+00
 3.514161449907519e-01	 1.899008492751211e+00	 4.863727634715906e+00
 0.000000000000000e+00	 1.925000000000000e+00	 2.151981845631481e+00
 3.415187156960422e-02	 1.924697028019764e+00	 2.528658261934877e+00
 6.853931870305917e-02	 1.923779447283674e+00	 2.889545865534174e+00
 1.031481371865456e-01	 1.922234497087618e+00	 3.229331880870918e+00
 1.379634661618791e-01	 1.920049760293383e+00	 3.542982858062783e+00
 1.729697929580925e-01	 1.917213199078676e+00	 3.825783981838741e+00
 2.081509599932978e-01	 1.913713191115854e+00	 4.073377790239410e+00
 2.434901738205758e-01	 1.909538566054500e+00	 4.281801945657595e+00
 2.789700163841421e-01	 1.904678642174373e+00	 4.447525688397491e+00
 3.145724585436140e-01	 1.899123263067094e+00	 4.567484594145709e+00
 3.502788759148565e-01	 1.892862834197204e+00	 4.639113251953999e+00
 0.000000000000000e+00	 1.918750000000000e+00	 2.155001320932548e+00
 3.404098887024084e-02	 1.918448011695011e+00	 2.529833196018513e+00
 6.831678844851900e-02	 1.917533410117115e+00	 2.884448071273987e+00
 1.028132406385904e-01	 1.915993475993055e+00	 3.213433963488778e+00
 1.375155328318082e-01	 1.913815832500004e+00	 3.511665721015699e+00
 1.724082027230179e-01	 1.910988480899505e+00	 3.774344994490848e+00
 2.074751451900110e-01	 1.907499836598746e+00	 3.997039624823278e+00
 2.426996213100447e-01	 1.903338765514681e+00	 4.175722088216137e+00
 2.780642695794620e-01	 1.898494620607976e+00	 4.306806625331753e+00
 3.135511193940482e-01	 1.892957278445604e+00	 4.387184672666932e+00
 3.491416068384464e-01	 1.886717175643198e+00	 4.414258209159124e+00
 0.000000000000000e+00	 1.912500000000000e+00	 2.157340796839089e+00
 3.393010617069794e-02	 1.912198995370258e+00	 2.530544729815953e+00
 6.809425819364653e-02	 1.911287372950556e+00	 2.879067279816686e+00
 1.024783440901776e-01	 1.909752454898493e+00	 3.197396248656210e+00
 1.370675995011824e-01	 1.907581904706625e+00	 3.480313846548735e+00
 1.718466124873197e-01	 1.904763762720335e+00	 3.722937330908235e+00
 2.067993303860614e-01	 1.901286482081638e+00	 3.920759069818380e+00
 2.419090687988414e-01	 1.897138964974860e+00	 4.069685667077593e+00
 2.771585227741308e-01	 1.892310599041578e+00	 4.166075772815239e+00
 3.125297802438837e-01	 1.886791293824114e+00	 4.206776194369666e+00
 3.480043377615215e-01	 1.880571517089191e+00	 4.189155916817416e+00
 0.000000000000000e+00	 1.906250000000000e+00	 2.158992234067361e+00
 3.381922347097552e-02	 1.905949979045505e+00	 2.530786218922177e+00
 6.787172793844175e-02	 1.905041335783996e+00	 2.873397979923485e+00
 1.021434475413071e-01	 1.903511433803931e+00	 3.181214089039790e+00
 1.366196661700015e-01	 1.901347976913246e+00	 3.448923174696637e+00
 1.712850222509980e-01	 1.898539044541164e+00	 3.671557234983337e+00
 2.061235155814491e-01	 1.895073127564530e+00	 3.844532382829009e+00
 2.411185162869663e-01	 1.890939164435040e+00	 3.963688657148519e+00
 2.762527759681488e-01	 1.886126577475180e+00	 4.025328520788257e+00
 3.115084410931207e-01	 1.880625309202625e+00	 4.026253656538943e+00
 3.468670686840821e-01	 1.874425858535185e+00	 3.994751905575216e+00
 0.000000000000000e+00	 1.900000000000000e+00	 2.159947487553713e+00
 3.370834077107357e-02	 1.899700962720753e+00	 2.530550930471413e+00
 6.764919768290469e-02	 1.898795298617437e+00	 2.867434585291781e+00
 1.018085509919790e-01	 1.897270412709369e+00	 3.164882771612185e+00
 1.361717328382658e-01	 1.895114049119868e+00	 3.417489585042284e+00
 1.707234320140529e-01	 1.892314326361993e+00	 3.620200891177709e+00
 2.054477007761739e-01	 1.888859773047423e+00	 3.768355758741869e+00
 2.403279637744189e-01	 1.884739363895219e+00	 3.857726962942038e+00
 2.753470291615159e-01	 1.879942555908782e+00	 3.884560176660010e+00
 3.104871019417592e-01	 1.874459324581135e+00	 3.873214512357125e+00
 3.457297996061280e-01	 1.868280199981179e+00	 4.099782695931916e+00
 0.000000000000000e+00	 1.893750000000000e+00	 2.160198304708922e+00
 3.359745807099208e-02	 1.893451946396000e+00	 2.529832041677208e+00
 6.742666742703532e-02	 1.892549261450878e+00	 2.861171433316442e+00
 1.014736544421932e-01	 1.891029391614806e+00	 3.148397516567495e+00
 1.357237995059751e-01	 1.888880121326489e+00	 3.386008895718775e+00
 1.701618417764842e-01	 1.886089608182823e+00	 3.568864423542003e+00
 2.047718859702360e-01	 1.882646418530315e+00	 3.692225328691114e+00
 2.395374112611994e-01	 1.878539563355399e+00	 3.751796417416561e+00
 2.744412823542322e-01	 1.873758534342384e+00	 3.803123892294999e+00
 3.094657627897989e-01	 1.868293339959646e+00	 4.006542406608478e+00
 3.445925305276593e-01	 1.862134541427172e+00	 4.203318506887704e+00
 0.000000000000000e+00	 1.887500000000000e+00	 2.159736323637913e+00
 3.348657537073110e-02	 1.887202930071247e+00	 2.528622638343865e+00
 6.720413717083368e-02	 1.886303224284319e+00	 2.854602783826438e+00
 1.011387578919497e-01	 1.884788370520244e+00	 3.131753476215989e+00
 1.352758661731295e-01	 1.882646193533110e+00	 3.354476862393118e+00
 1.696002515382920e-01	 1.879864890003653e+00	 3.517543894715306e+00
 2.040960711636354e-01	 1.876433064013206e+00	 3.616137159003133e+00
 2.387468587473079e-01	 1.872339762815579e+00	 3.763482641735081e+00
 2.735355355462977e-01	 1.867574512775986e+00	 3.957190625066549e+00
 3.084444236372402e-01	 1.862127355338156e+00	 4.138454190649375e+00
 3.434552614486758e-01	 1.855988882873165e+00	 4.305343334609314e+00
 0.000000000000000e+00	 1.881250000000000e+00	 2.158553071324024e+00
 3.337569267029056e-02	 1.880953913746494e+00	 2.526915713347456e+00
 6.698160691429972e-02	 1.880057187117760e+00	 2.847722817796683e+00
 1.008038613412486e-01	 1.878547349425681e+00	 3.114945733856265e+00
 1.348279328397289e-01	 1.876412265739731e+00	 3.322889177227209e+00
 1.690386612994762e-01	 1.873640171824482e+00	 3.515218611235892e+00
 2.034202563563720e-01	 1.870219709496099e+00	 3.732427754980265e+00
 2.379563062327442e-01	 1.866139962275758e+00	 3.930722926350664e+00
 2.726297887377122e-01	 1.861390491209588e+00	 4.109912122202362e+00
 3.074230844840827e-01	 1.855961370716666e+00	 4.268936587898882e+00
 3.423179923691778e-01	 1.849843224319159e+00	 4.405841048740253e+00
 0.000000000000000e+00	 1.875000000000000e+00	 2.156639961776765e+00
 3.326480996967050e-02	 1.874704897421741e+00	 2.529348628345511e+00
 6.675907665743346e-02	 1.873811149951200e+00	 2.865815867553250e+00
 1.004689647900899e-01	 1.872306328331119e+00	 3.169319081951707e+00
 1.343799995057734e-01	 1.870178337946352e+00	 3.442522121645058e+00
 1.684770710600369e-01	 1.867415453645311e+00	 3.687422427280786e+00
 2.027444415484457e-01	 1.864006354978990e+00	 3.905301612349807e+00
 2.371657537175085e-01	 1.859940161735938e+00	 4.096680220051004e+00
 2.717240419284757e-01	 1.855206469643190e+00	 4.261277396117420e+00
 3.064017453303267e-01	 1.849795386095177e+00	 4.397976215836135e+00
 3.411807232891650e-01	 1.843697565765152e+00	 4.504795390292403e+00
 3.525534140661327e-01	 1.905154151305217e+00	 5.088107830377404e+00
 3.885770365243251e-01	 1.898134379112617e+00	 5.205640676178637e+00
 4.246661398255557e-01	 1.890387490403064e+00	 5.254760866806418e+00
 4.608003020482406e-01	 1.881905741671401e+00	 5.234909912472408e+00
 4.969585898254388e-01	 1.872682097662176e+00	 5.288383452164505e+00
 5.331195862840871e-01	 1.862710265083652e+00	 5.752224861349150e+00
 5.692614213633899e-01	 1.851984725177042e+00	 6.202060884266614e+00
 6.053618044727185e-01	 1.840500764959051e+00	 6.628192464230500e+00
 6.413980594343396e-01	 1.828254506955707e+00	 6.974809338733273e+00
 6.773471616409540e-01	 1.815242937246599e+00	 7.204924423151307e+00
 7.131857773425027e-01	 1.801463931641279e+00	 7.360015186314277e+00
 3.514161449907519e-01	 1.899008492751211e+00	 4.863727634715906e+00
 3.873235622146577e-01	 1.892011364984790e+00	 4.935378846276373e+00
 4.232962490531004e-01	 1.884289466238654e+00	 4.944222266746112e+00
 4.593138494616631e-01	 1.875835077986693e+00	 4.889760033850096e+00
 4.953554976003954e-01	 1.866641187667831e+00	 5.284421797764054e+00
 5.313998456829224e-01	 1.856701522291275e+00	 5.727257318806847e+00
 5.674250941970324e-01	 1.846010580900682e+00	 6.159590712212182e+00
 6.034090244572280e-01	 1.834563665715935e+00	 6.571861819301051e+00
 6.393290334347377e-01	 1.822356911771042e+00	 6.914020247421730e+00
 6.751621707951894e-01	 1.809387314867918e+00	 7.139548954531000e+00
 7.108851780586859e-01	 1.795652757668342e+00	 7.294980693042627e+00
 3.502788759148565e-01	 1.892862834197204e+00	 4.639113251953999e+00
 3.860700879045711e-01	 1.885888350856963e+00	 4.664971012789704e+00
 4.219263582803120e-01	 1.878191442074242e+00	 4.633654073915180e+00
 4.578273968748290e-01	 1.869764414301985e+00	 4.859232481960667e+00
 4.937524053751625e-01	 1.860600277673486e+00	 5.280096664197880e+00
 5.296801050816254e-01	 1.850692779498896e+00	 5.702332102369808e+00
 5.655887670305898e-01	 1.840036436624323e+00	 6.117624031935495e+00
 6.014562444416898e-01	 1.828626566472820e+00	 6.516549982980735e+00
 6.372600074351145e-01	 1.816459316586377e+00	 6.854813094308470e+00
 6.729771799494191e-01	 1.803531692489236e+00	 7.076242765102053e+00
 7.085845787748687e-01	 1.789841583695404e+00	 7.232542403329074e+00
 3.491416068384464e-01	 1.886717175643198e+00	 4.414258209159124e+00
 3.848166135940653e-01	 1.879765336729136e+00	 4.394411831302515e+00
 4.205564675071902e-01	 1.872093417909832e+00	 4.492885324652265e+00
 4.563409442877383e-01	 1.863693750617277e+00	 4.878196879437292e+00
 4.921493131497401e-01	 1.854559367679141e+00	 5.275391782172116e+00
 5.279603644801963e-01	 1.844684036706518e+00	 5.677433346720296e+00
 5.637524398640622e-01	 1.834062292347963e+00	 6.076145644685013e+00
 5.995034644261034e-01	 1.822689467229704e+00	 6.462242692390422e+00
 6.351909814354697e-01	 1.810561721401713e+00	 6.797186155934814e+00
 6.707921891036436e-01	 1.797676070110554e+00	 7.015006831615766e+00
 7.062839794910519e-01	 1.784030409722465e+00	 7.172704322316134e+00
 3.480043377615215e-01	 1.880571517089191e+00	 4.189155916817416e+00
 3.835631392831401e-01	 1.873642322601309e+00	 4.200232778110616e+00
 4.191865767337355e-01	 1.865995393745421e+00	 4.537816164824045e+00
 4.548544917003914e-01	 1.857623086932569e+00	 4.896415424564157e+00
 4.905462209241286e-01	 1.848518457684797e+00	 5.270290828300881e+00
 5.262406238786349e-01	 1.838675293914140e+00	 5.652545159343346e+00
 5.619161126974493e-01	 1.828088148071603e+00	 6.035140355977220e+00
 5.975506844104691e-01	 1.816752367986589e+00	 6.408925724968624e+00
 6.331219554358037e-01	 1.804664126217049e+00	 6.741137789795333e+00
 6.686071982578626e-01	 1.791820447731873e+00	 6.955842256989195e+00
 7.039833802072347e-01	 1.778219235749527e+00	 7.115470631081070e+00
 3.468670686840821e-01	 1.874425858535185e+00	 3.994751905575216e+00
 3.823096649717956e-01	 1.867519308473482e+00	 4.273840260201856e+00
 4.178166859599476e-01	 1.859897369581010e+00	 4.581692468246782e+00
 4.533680391127878e-01	 1.851552423247860e+00	 4.913871545567311e+00
 4.889431286983275e-01	 1.842477547690452e+00	 5.264777424219569e+00
 5.245208832769414e-01	 1.832666551121761e+00	 5.627651620081068e+00
 5.600797855307517e-01	 1.822114003795244e+00	 5.994592975667199e+00
 5.955979043947863e-01	 1.810815268743473e+00	 6.356584899132730e+00
 6.310529294361162e-01	 1.798766531032385e+00	 6.686666435664847e+00
 6.664222074120766e-01	 1.785964825353192e+00	 6.898750272373309e+00
 7.016827809234180e-01	 1.772408061776589e+00	 7.060845689520553e+00
 3.457297996061280e-01	 1.868280199981179e+00	 4.099782695931916e+00
 3.810561906600319e-01	 1.861396294345655e+00	 4.346143163329406e+00
 4.164467951858264e-01	 1.853799345416598e+00	 4.624497629902590e+00
 4.518815865249279e-01	 1.845481759563152e+00	 4.930548591702459e+00
 4.873400364723369e-01	 1.836436637696107e+00	 5.258835135680796e+00
 5.228011426751156e-01	 1.826657808329383e+00	 5.602736780677496e+00
 5.582434583639688e-01	 1.816139859518884e+00	 5.954488318019784e+00
 5.936451243790557e-01	 1.804878169500358e+00	 6.305206074952573e+00
 6.289839034364069e-01	 1.792868935847720e+00	 6.633770616951827e+00
 6.642372165662850e-01	 1.780109202974510e+00	 6.843732239262230e+00
 6.993821816396011e-01	 1.766596887803651e+00	 7.008834039291227e+00
 3.445925305276593e-01	 1.862134541427172e+00	 4.203318506887704e+00
 3.798027163478487e-01	 1.855273280217828e+00	 4.417125069918056e+00
 4.150769044113722e-01	 1.847701321252188e+00	 4.666214945772079e+00
 4.503951339368114e-01	 1.839411095878444e+00	 4.946429831951878e+00
 4.857369442461569e-01	 1.830395727701762e+00	 5.252447471631741e+00
 5.210814020731577e-01	 1.820649065537004e+00	 5.577784664315706e+00
 5.564071311971012e-01	 1.810165715242525e+00	 5.914811201781952e+00
 5.916923443632770e-01	 1.798941070257242e+00	 6.254775154838257e+00
 6.269148774366765e-01	 1.786971340663055e+00	 6.582448942078332e+00
 6.620522257204879e-01	 1.774253580595829e+00	 6.790789651643889e+00
 6.970815823557841e-01	 1.760785713830713e+00	 6.959440406809319e+00
 3.434552614486758e-01	 1.855988882873165e+00	 4.305343334609314e+00
 3.785492420352463e-01	 1.849150266090002e+00	 4.486769447486049e+00
 4.137070136365847e-01	 1.841603297087777e+00	 4.706827611195373e+00
 4.489086813484385e-01	 1.833340432193735e+00	 4.961498453695427e+00
 4.841338520197875e-01	 1.824354817707417e+00	 5.245597883274189e+00
 5.193616614710673e-01	 1.814640322744626e+00	 5.552779265144101e+00
 5.545708040301484e-01	 1.804191570966166e+00	 5.875546450257523e+00
 5.897395643474503e-01	 1.793003971014127e+00	 6.205278084240717e+00
 6.248458514369243e-01	 1.781073745478391e+00	 6.532263516928760e+00
 6.598672348746856e-01	 1.768397958217148e+00	 6.739924138193945e+00
 6.947809830719671e-01	 1.754974539857775e+00	 6.912669706309499e+00
 3.423179923691778e-01	 1.849843224319159e+00	 4.405841048740253e+00
 3.772957677222246e-01	 1.843027251962175e+00	 4.555059646736582e+00
 4.123371228614642e-01	 1.835505272923366e+00	 4.746318719200048e+00
 4.474222287598091e-01	 1.827269768509027e+00	 4.975737561354968e+00
 4.825307597932286e-01	 1.818313907713072e+00	 5.238269763105071e+00
 5.176419208688450e-01	 1.808631579952248e+00	 5.527704547794822e+00
 5.527344768631105e-01	 1.798217426689806e+00	 5.836678891382727e+00
 5.877867843315755e-01	 1.787066871771011e+00	 6.156700852367038e+00
 6.227768254371510e-01	 1.775176150293727e+00	 6.478184436448098e+00
 6.576822440288778e-01	 1.762542335838467e+00	 6.691137464512821e+00
 6.924803837881501e-01	 1.749163365884837e+00	 6.868527042965091e+00
 3.411807232891650e-01	 1.843697565765152e+00	 4.504795390292403e+00
 3.760422934087836e-01	 1.836904237834347e+00	 4.621978899610752e+00
 4.109672320860102e-01	 1.829407248758954e+00	 4.784671258795939e+00
 4.459357761709229e-01	 1.821199104824319e+00	 4.989130175011693e+00
 4.809276675664804e-01	 1.812272997718727e+00	 5.230446443937877e+00
 5.159221802664901e-01	 1.802622837159869e+00	 5.502544446891538e+00
 5.508981496959874e-01	 1.792243282413446e+00	 5.798193357803185e+00
 5.858340043156527e-01	 1.781129772527895e+00	 6.109029492909443e+00
 6.207077994373560e-01	 1.769278555109062e+00	 6.425590130702365e+00
 6.554972531830644e-01	 1.756686713459785e+00	 6.644431535408151e+00
 6.901797845043331e-01	 1.743352191911899e+00	 6.827017716069832e+00
 7.131857773425027e-01	 1.801463931641279e+00	 7.360015186314277e+00
 7.488893663489132e-01	 1.786916656698612e+00	 7.554333097085378e+00
 7.844349856973795e-01	 1.771600493783301e+00	 7.784610135011009e+00
 8.197986293725965e-01	 1.755516124193484e+00	 8.042934308631814e+00
 8.549561584840074e-01	 1.738665201568287e+00	 8.320999908524225e+00
 8.898833493805206e-01	 1.721050366241565e+00	 8.610161446542364e+00
 9.245559430631417e-01	 1.702675256794363e+00	 8.901492062726202e+00
 9.589496957085124e-01	 1.683544518686839e+00	 9.185845977717044e+00
 9.930404301047372e-01	 1.663663809864437e+00	 9.453924507422562e+00
 1.026804087790411e+00	 1.643039803248372e+00	 9.696345099773181e+00
 1.060216781678620e+00	 1.621680186036846e+00	 9.903712801765113e+00
 7.108851780586859e-01	 1.795652757668342e+00	 7.294980693042627e+00
 7.464735941970667e-01	 1.781152409419593e+00	 7.500882724477524e+00
 7.819045502570909e-01	 1.765885653481868e+00	 7.740567787524945e+00
 8.171541176622141e-01	 1.749853168955566e+00	 8.006217461877991e+00
 8.521982353892681e-01	 1.733056604145493e+00	 8.289631227117207e+00
 8.870127579279732e-01	 1.715498590868295e+00	 8.582279962400104e+00
 9.215735045341693e-01	 1.697182755967659e+00	 8.875363830597882e+00
 9.558563095903816e-01	 1.678113729918387e+00	 9.159874127342238e+00
 9.898370738757203e-01	 1.658297152414483e+00	 9.426658615237699e+00
 1.023491816536721e+00	 1.637739674851611e+00	 9.666489807465592e+00
 1.056796727541590e+00	 1.616448959630558e+00	 9.870135614201995e+00
 7.085845787748687e-01	 1.789841583695404e+00	 7.232542403329072e+00
 7.440578220452246e-01	 1.775388162140578e+00	 7.450115900606711e+00
 7.793741148168220e-01	 1.760170813180453e+00	 7.699285232532645e+00
 8.145096059518752e-01	 1.744190213717692e+00	 7.972324677172891e+00
 8.494403122946071e-01	 1.727448006722776e+00	 8.261138030864370e+00
 8.841421664755474e-01	 1.709946815495148e+00	 8.557311673529073e+00
 9.185910660053735e-01	 1.691690255141133e+00	 8.852171935416258e+00
 9.527629234724913e-01	 1.672682941150175e+00	 9.136846348319480e+00
 9.866337176470187e-01	 1.652930494964844e+00	 9.402328304992821e+00
 1.020179545283431e+00	 1.632439546455249e+00	 9.639544595333644e+00
 1.053376673405054e+00	 1.611217733224764e+00	 9.839425237928994e+00
 7.062839794910519e-01	 1.784030409722465e+00	 7.172704322316134e+00
 7.416420498933872e-01	 1.769623914861568e+00	 7.402035315297081e+00
 7.768436793765719e-01	 1.754455972879059e+00	 7.660763698832745e+00
 8.118650942415803e-01	 1.738527258479861e+00	 7.941255579529702e+00
 8.466823892000240e-01	 1.721839409300138e+00	 8.235518201633775e+00
 8.812715750232440e-01	 1.704395040122122e+00	 8.535252583136778e+00
 9.156086274767538e-01	 1.686197754314781e+00	 8.831910370489577e+00
 9.496695373548419e-01	 1.667252152382205e+00	 9.116754497512989e+00
 9.834303614186323e-01	 1.647563837515521e+00	 9.380923175659531e+00
 1.016867274030541e+00	 1.627139418059288e+00	 9.615496688484891e+00
 1.049956619269014e+00	 1.605986506819464e+00	 9.811566414055692e+00
 7.039833802072347e-01	 1.778219235749527e+00	 7.115470631081070e+00
 7.392262777415548e-01	 1.763859667582564e+00	 7.356643827524415e+00
 7.743132439363415e-01	 1.748741132577684e+00	 7.625004575874346e+00
 8.092205825313286e-01	 1.732864303242074e+00	 7.913009944388435e+00
 8.439244661055184e-01	 1.716230811877577e+00	 8.212769759774782e+00
 8.784009835710626e-01	 1.698843264749218e+00	 8.516098819248795e+00
 9.126261889483098e-01	 1.680705253488607e+00	 8.814573238571324e+00
 9.465761512374326e-01	 1.661821363614474e+00	 9.099590524164224e+00
 9.802270051905606e-01	 1.642197180066512e+00	 9.362432899839645e+00
 1.013555002778051e+00	 1.621839289663725e+00	 9.594333365253000e+00
 1.046536565133467e+00	 1.600755280414659e+00	 9.786543914884126e+00
 7.016827809234180e-01	 1.772408061776589e+00	 7.060845689520551e+00
 7.368105055897272e-01	 1.758095420303563e+00	 7.313944468188675e+00
 7.717828084961303e-01	 1.743026292276328e+00	 7.592009416389720e+00
 8.065760708211206e-01	 1.727201348004331e+00	 7.887587700081690e+00
 8.411665430110908e-01	 1.710622214455094e+00	 8.192890866388227e+00
 8.755303921190034e-01	 1.693291489376437e+00	 8.499846636754915e+00
 9.096437504200431e-01	 1.675212752662609e+00	 8.800154753655367e+00
 9.434827651202642e-01	 1.656390574846985e+00	 9.085346471405959e+00
 9.770236489628047e-01	 1.636830522617819e+00	 9.346847224971523e+00
 1.010242731525961e+00	 1.616539161268563e+00	 9.576041958070643e+00
 1.043116510998416e+00	 1.595524054010350e+00	 9.764342544419563e+00
 6.993821816396011e-01	 1.766596887803651e+00	 7.008834039291227e+00
 7.343947334379046e-01	 1.752331173024568e+00	 7.273940442941623e+00
 7.692523730559384e-01	 1.737311451974992e+00	 7.561779939080287e+00
 8.039315591109566e-01	 1.721538392766631e+00	 7.864988930349424e+00
 8.384086199167412e-01	 1.705013617032689e+00	 8.175879825641278e+00
 8.726598006670659e-01	 1.687739714003778e+00	 8.486492419495962e+00
 9.066613118919522e-01	 1.669720251836787e+00	 8.788649242804659e+00
 9.403893790033364e-01	 1.650959786079735e+00	 9.074014477807090e+00
 9.738202927353634e-01	 1.631463865169441e+00	 9.334155974561956e+00
 1.006930460274270e+00	 1.611239032873802e+00	 9.560609854358885e+00
 1.039696456863860e+00	 1.590292827606534e+00	 9.744947138892741e+00
 6.970815823557841e-01	 1.760785713830713e+00	 6.959440406809318e+00
 7.319789612860867e-01	 1.746566925745578e+00	 7.236635135070948e+00
 7.667219376157656e-01	 1.731596611673673e+00	 7.534318031355741e+00
 8.012870474008360e-01	 1.715875437528975e+00	 7.845213876903349e+00
 8.356506968224694e-01	 1.699405019610362e+00	 8.161735087128566e+00
 8.697892092152505e-01	 1.682187938631241e+00	 8.476032682391356e+00
 9.036788733640375e-01	 1.664227751011141e+00	 8.780051148017783e+00
 9.372959928866493e-01	 1.645528997312727e+00	 9.065586778946942e+00
 9.706169365082372e-01	 1.626097207721378e+00	 9.324349049440531e+00
 1.003618189022979e+00	 1.605938904479439e+00	 9.548024497434769e+00
 1.036276402729798e+00	 1.585061601203213e+00	 9.728342567290941e+00
 6.947809830719671e-01	 1.754974539857775e+00	 6.912669706309502e+00
 7.295631891342734e-01	 1.740802678466592e+00	 7.202032108440924e+00
 7.641915021756124e-01	 1.725881771372376e+00	 7.509625752126460e+00
 7.986425356907589e-01	 1.710212482291362e+00	 7.828262942042640e+00
 8.328927737282755e-01	 1.693796422188113e+00	 8.150455248279828e+00
 8.669186177635574e-01	 1.676636163258826e+00	 8.468464073609622e+00
 9.006964348362991e-01	 1.658735250185671e+00	 8.774355028131378e+00
 9.342026067702029e-01	 1.640098208545959e+00	 9.060055709021656e+00
 9.674135802814262e-01	 1.620730550273630e+00	 9.317416429040444e+00
 1.000305917772088e+00	 1.600638776085477e+00	 9.538273387436575e+00
 1.032856348596230e+00	 1.579830374800387e+00	 9.714513731900540e+00
 6.924803837881501e-01	 1.749163365884837e+00	 6.868527042965091e+00
 7.271474169824653e-01	 1.735038431187612e+00	 7.170135110491772e+00
 7.616610667354786e-01	 1.720166931071097e+00	 7.487705334652994e+00
 7.959980239807256e-01	 1.704549527053794e+00	 7.814136691320951e+00
 8.301348506341594e-01	 1.688187824765942e+00	 8.142039056815253e+00
 8.640480263119861e-01	 1.671084387886532e+00	 8.463783376781681e+00
 8.977139963087371e-01	 1.653242749360379e+00	 8.771555560761190e+00
 9.311092206539970e-01	 1.634667419779432e+00	 9.057413702482496e+00
 9.642102240549305e-01	 1.615363892826198e+00	 9.313348172703691e+00
 9.969936465215971e-01	 1.595338647691914e+00	 9.531344082268166e+00
 1.029436294463158e+00	 1.574599148398056e+00	 9.703445568860456e+00
 6.901797845043331e-01	 1.743352191911899e+00	 6.827017716069828e+00
 7.247316448306619e-01	 1.729274183908636e+00	 7.140948075300150e+00
 7.591306312953636e-01	 1.714452090769837e+00	 7.468559189451820e+00
 7.933535122707360e-01	 1.698886571816269e+00	 7.802835856267835e+00
 8.273769275401210e-01	 1.682579227343848e+00	 8.136485413250790e+00
 8.611774348605369e-01	 1.665532612514361e+00	 8.461987513258293e+00
 8.947315577813513e-01	 1.647750248535261e+00	 8.771647544281695e+00
 9.280158345380317e-01	 1.629236631013145e+00	 9.057653295706308e+00
 9.610068678287497e-01	 1.609997235379079e+00	 9.312134421013457e+00
 9.936813752715054e-01	 1.590038519298751e+00	 9.527224198561026e+00
 1.026016240330579e+00	 1.569367921996219e+00	 9.695123048725662e+00
 1.060216781678620e+00	 1.621680186036846e+00	 9.903712801765112e+00
 1.093255674058538e+00	 1.599593110090781e+00	 1.016828185655820e+01
 1.125896511082692e+00	 1.576788837286856e+00	 1.039180577447846e+01
 1.158116235631660e+00	 1.553278061533488e+00	 1.056362779029283e+01
 1.189892172762570e+00	 1.529072455490151e+00	 1.067331839487600e+01
 1.221202081275231e+00	 1.504184653450733e+00	 1.071075536843016e+01
 1.252024204348980e+00	 1.478628230984658e+00	 1.067816228017310e+01
 1.282337319013354e+00	 1.452417681395792e+00	 1.075668406014610e+01
 1.312120784220246e+00	 1.425568389078816e+00	 1.080705193528202e+01
 1.341354587291613e+00	 1.398096599872131e+00	 1.083344688244443e+01
 1.370019388525000e+00	 1.370019388525000e+00	 1.084001565222908e+01
 1.056796727541590e+00	 1.616448959630558e+00	 9.870135614201994e+00
 1.089729042849495e+00	 1.594433132316016e+00	 1.013558305646023e+01
 1.122264586851141e+00	 1.571702421681933e+00	 1.036194209097550e+01
 1.154380376804909e+00	 1.548267487140250e+00	 1.053868116871545e+01
 1.186053810912905e+00	 1.524139963696702e+00	 1.065548910174153e+01
 1.217262719720745e+00	 1.499332444889387e+00	 1.070235419541372e+01
 1.247985416591056e+00	 1.473858462495574e+00	 1.066964196640156e+01
 1.278200747014574e+00	 1.447732463066532e+00	 1.074309030362861e+01
 1.307888136527215e+00	 1.420969781369867e+00	 1.080171947812772e+01
 1.337027637007963e+00	 1.393586610838047e+00	 1.083786571613321e+01
 1.365599971140500e+00	 1.365599971140500e+00	 1.085556110979037e+01
 1.053376673405054e+00	 1.611217733224764e+00	 9.839425237928994e+00
 1.086202411641042e+00	 1.589273154541840e+00	 1.010585169302407e+01
 1.118632662620264e+00	 1.566616006077686e+00	 1.033514549357696e+01
 1.150644517978908e+00	 1.543256912747764e+00	 1.051689944127636e+01
 1.182215449064057e+00	 1.519207471904069e+00	 1.064091981199531e+01
 1.213323358167131e+00	 1.494480236328914e+00	 1.069730459267558e+01
 1.243946628834052e+00	 1.469088694007407e+00	 1.067652034110911e+01
 1.274064175016748e+00	 1.443047244738227e+00	 1.073361958595533e+01
 1.303655488835164e+00	 1.416371173661898e+00	 1.080048642183423e+01
 1.332700686725308e+00	 1.389076621804958e+00	 1.084637144950017e+01
 1.361180553757000e+00	 1.361180553757000e+00	 1.087519306459297e+01
 1.049956619269014e+00	 1.605986506819464e+00	 9.811566414055694e+00
 1.082675780433178e+00	 1.584113176768255e+00	 1.007907150609462e+01
 1.115000738390063e+00	 1.561529590474115e+00	 1.031139880101283e+01
 1.146908659153659e+00	 1.538246338356029e+00	 1.049826459010397e+01
 1.178377087216025e+00	 1.514274980112254e+00	 1.062959175982550e+01
 1.209383996614389e+00	 1.489628027769314e+00	 1.069558713903324e+01
 1.239907841077965e+00	 1.464318925520160e+00	 1.068681750614869e+01
 1.269927603019876e+00	 1.438362026410875e+00	 1.072830870263049e+01
 1.299422841144092e+00	 1.411772565954908e+00	 1.080339066491131e+01
 1.328373736443648e+00	 1.384566632772864e+00	 1.085900307252368e+01
 1.356761136374500e+00	 1.356761136374500e+00	 1.089895158142962e+01
 1.046536565133467e+00	 1.600755280414659e+00	 9.786543914884126e+00
 1.079149149225904e+00	 1.578953198995258e+00	 1.005522626381722e+01
 1.111368814160538e+00	 1.556443174871219e+00	 1.029068485817958e+01
 1.143172800329161e+00	 1.533235763965045e+00	 1.048275862212533e+01
 1.174538725368810e+00	 1.509342488321254e+00	 1.062148620362370e+01
 1.205444635062520e+00	 1.484775819210586e+00	 1.069718243768919e+01
 1.235869053322797e+00	 1.459549157033830e+00	 1.070051350652654e+01
 1.265791031023958e+00	 1.433676808084478e+00	 1.072719447624444e+01
 1.295190193454000e+00	 1.407173958248898e+00	 1.081047013547304e+01
 1.324046786162983e+00	 1.380056643741765e+00	 1.087579960807926e+01
 1.352341718993000e+00	 1.352341718993000e+00	 1.092687676205161e+01
 1.043116510998416e+00	 1.595524054010350e+00	 9.764342544419559e+00
 1.075622518019221e+00	 1.573793221222852e+00	 1.003429976310122e+01
 1.107736889931687e+00	 1.551356759268998e+00	 1.027298653656914e+01
 1.139436941505414e+00	 1.528225189574812e+00	 1.047036356947278e+01
 1.170700363522412e+00	 1.504409996531072e+00	 1.061658442638169e+01
 1.201505273511524e+00	 1.479923610652731e+00	 1.070207111663069e+01
 1.231830265568548e+00	 1.454779388548419e+00	 1.071758841300997e+01
 1.261654459028994e+00	 1.428991589759036e+00	 1.073031375691746e+01
 1.290957545764888e+00	 1.402575350543867e+00	 1.082176279172344e+01
 1.319719835883313e+00	 1.375546654711661e+00	 1.089680011247884e+01
 1.347922301612500e+00	 1.347922301612500e+00	 1.095900874577521e+01
 1.039696456863860e+00	 1.590292827606534e+00	 9.744947138892741e+00
 1.072095886813127e+00	 1.568633243451036e+00	 1.001627583009374e+01
 1.104104965703512e+00	 1.546270343667452e+00	 1.025828673470644e+01
 1.135701082682418e+00	 1.523214615185331e+00	 1.046106148989864e+01
 1.166862001676831e+00	 1.499477504741707e+00	 1.061486773609614e+01
 1.197565911961400e+00	 1.475071402095749e+00	 1.071023382903724e+01
 1.227791477815217e+00	 1.450009620063927e+00	 1.073802232255140e+01
 1.257517887034985e+00	 1.424306371434547e+00	 1.073770342275290e+01
 1.286724898076755e+00	 1.397976742839816e+00	 1.083730662245106e+01
 1.315392885604638e+00	 1.371036665682552e+00	 1.092204367602109e+01
 1.343502884233000e+00	 1.343502884233000e+00	 1.099538771009911e+01
 1.036276402729798e+00	 1.585061601203213e+00	 9.728342567290941e+00
 1.068569255607623e+00	 1.563473265679809e+00	 1.000113832066181e+01
 1.100473041476013e+00	 1.541183928066582e+00	 1.024656837859517e+01
 1.131965223860172e+00	 1.518204040796600e+00	 1.045483446719775e+01
 1.163023639832066e+00	 1.494545012953159e+00	 1.061631746618117e+01
 1.193626550412150e+00	 1.470219193539639e+00	 1.072165125369665e+01
 1.223752690062804e+00	 1.445239851580352e+00	 1.076179535872023e+01
 1.253381315041929e+00	 1.419621153111012e+00	 1.074940038029866e+01
 1.282492250389601e+00	 1.393378135136744e+00	 1.085713964753373e+01
 1.311065935326957e+00	 1.366526676654437e+00	 1.095156942355186e+01
 1.339083466854500e+00	 1.339083466854500e+00	 1.103605387133468e+01
 1.032856348596230e+00	 1.579830374800387e+00	 9.714513731900540e+00
 1.065042624402709e+00	 1.558313287909173e+00	 9.988871120884301e+00
 1.096841117249189e+00	 1.536097512466387e+00	 1.023781442217323e+01
 1.128229365038678e+00	 1.513193466408620e+00	 1.045166461163871e+01
 1.159185277988119e+00	 1.489612521165428e+00	 1.062091497588927e+01
 1.189687188863772e+00	 1.465366984984402e+00	 1.073630409542862e+01
 1.219713902311310e+00	 1.440470083097696e+00	 1.078888767214346e+01
 1.249244743049828e+00	 1.414935934788431e+00	 1.077010849105688e+01
 1.278259602703428e+00	 1.388779527434652e+00	 1.088129991845338e+01
 1.306738985050272e+00	 1.362016687627318e+00	 1.098541651503620e+01
 1.334664049477000e+00	 1.334664049477000e+00	 1.108104748524855e+01
 1.029436294463158e+00	 1.574599148398056e+00	 9.703445568860458e+00
 1.061515993198384e+00	 1.553153310139126e+00	 9.979458147553791e+00
 1.093209193023039e+00	 1.531011096866867e+00	 1.023200784777611e+01
 1.124493506217935e+00	 1.508182892021392e+00	 1.045153406040377e+01
 1.155346916144988e+00	 1.484680029378513e+00	 1.062864165074036e+01
 1.185747827316266e+00	 1.460514776430038e+00	 1.075417308551757e+01
 1.215675114560733e+00	 1.435700314615959e+00	 1.081927944095545e+01
 1.245108171058681e+00	 1.410250716466804e+00	 1.081548958988242e+01
 1.274026955018234e+00	 1.384180919733540e+00	 1.090982551882107e+01
 1.302412034774581e+00	 1.357506698601193e+00	 1.102362414614188e+01
 1.330244632100500e+00	 1.330244632100500e+00	 1.113040884771794e+01
 1.026016240330579e+00	 1.569367921996219e+00	 9.695123048725662e+00
 1.057989361994650e+00	 1.547993332369669e+00	 9.972883348688738e+00
 1.089577268797566e+00	 1.525924681268023e+00	 1.022913166661082e+01
 1.120757647397943e+00	 1.503172317634914e+00	 1.045442497803723e+01
 1.151508554302674e+00	 1.479747537592415e+00	 1.063947890295966e+01
 1.181808465769633e+00	 1.455662567876546e+00	 1.077523898215324e+01
 1.211636326811076e+00	 1.430930546135140e+00	 1.085295087125598e+01
 1.240971599068487e+00	 1.405565498146131e+00	 1.086422875860372e+01
 1.269794307334019e+00	 1.379582312033407e+00	 1.094275456491227e+01
 1.298085084499885e+00	 1.352996709576064e+00	 1.106623154883426e+01
 1.325825214725000e+00	 1.325825214725000e+00	 1.118417829539929e+01
 1.370019388525000e+00	 1.370019388525000e+00	 1.084001565222908e+01
 1.398096585589446e+00	 1.341354609054905e+00	 1.084968767522180e+01
 1.425568332116420e+00	 1.312120871085830e+00	 1.089432129444530e+01
 1.452417553628661e+00	 1.282337513990595e+00	 1.097651113879131e+01
 1.478628004584906e+00	 1.252024550054371e+00	 1.109842010511107e+01
 1.504184300911613e+00	 1.221202619870727e+00	 1.088897773088469e+01
 1.529071949648923e+00	 1.189892945895716e+00	 1.082964141208139e+01
 1.553277375593093e+00	 1.158117284377715e+00	 1.093287975537674e+01
 1.576787944836393e+00	 1.125897875888931e+00	 1.118020394242796e+01
 1.599591985124763e+00	 1.093257394690918e+00	 1.155371155159030e+01
 1.621678802973224e+00	 1.060218897170963e+00	 1.203616624911920e+01
 1.365599971140500e+00	 1.365599971140500e+00	 1.085556110979037e+01
 1.393586596601436e+00	 1.337027658701051e+00	 1.087884224302510e+01
 1.420969724591221e+00	 1.307888223112588e+00	 1.093658804157524e+01
 1.447732335711554e+00	 1.278200941362857e+00	 1.103131343658836e+01
 1.473858236826143e+00	 1.247985761181269e+00	 1.113270505762829e+01
 1.499332093487490e+00	 1.217263256578835e+00	 1.089884036813310e+01
 1.524139459487219e+00	 1.186054581552073e+00	 1.084603268784761e+01
 1.548266803412567e+00	 1.154381422167912e+00	 1.095545509367797e+01
 1.571701532110343e+00	 1.122265947254778e+00	 1.120876705331072e+01
 1.594432010978920e+00	 1.089730757931447e+00	 1.158820352882078e+01
 1.616447581028431e+00	 1.056798836209764e+00	 1.207665409816560e+01
 1.361180553757000e+00	 1.361180553757000e+00	 1.087519306459297e+01
 1.389076607614420e+00	 1.332700708348192e+00	 1.091203804360372e+01
 1.416371117067001e+00	 1.303655575140325e+00	 1.098285383208098e+01
 1.443047117795401e+00	 1.274064368736072e+00	 1.109007653512066e+01
 1.469088469068298e+00	 1.243946972309086e+00	 1.113495477283225e+01
 1.494479886064240e+00	 1.213323893287816e+00	 1.090819628890152e+01
 1.519206969326333e+00	 1.182216217209247e+00	 1.086196887057442e+01
 1.543256231232791e+00	 1.150645559958859e+00	 1.097760339785902e+01
 1.566615119384968e+00	 1.118634018621301e+00	 1.123690708182343e+01
 1.589272036833667e+00	 1.086204121172567e+00	 1.162225187600678e+01
 1.611216359084132e+00	 1.053378775249060e+00	 1.211665302895090e+01
 1.356761136374500e+00	 1.356761136374500e+00	 1.089895158142962e+01
 1.384566618628399e+00	 1.328373757996328e+00	 1.094931562964245e+01
 1.411772509543761e+00	 1.299422927169042e+00	 1.103315957536971e+01
 1.438361899880202e+00	 1.269927796110241e+00	 1.115284156621949e+01
 1.464318701311373e+00	 1.239908183437820e+00	 1.113656498615277e+01
 1.489627678641863e+00	 1.209384529997670e+00	 1.091698649667104e+01
 1.514274479166263e+00	 1.178377852867237e+00	 1.087739035373621e+01
 1.538245659053768e+00	 1.146909697750558e+00	 1.099926455234822e+01
 1.561528706660269e+00	 1.115002089988499e+00	 1.126456350676169e+01
 1.584112062689004e+00	 1.082677484414277e+00	 1.165579577162120e+01
 1.605985137140328e+00	 1.049958714288850e+00	 1.215610202627170e+01
 1.352341718993000e+00	 1.352341718993000e+00	 1.092687676205161e+01
 1.380056629643373e+00	 1.324046807645458e+00	 1.099071558821805e+01
 1.407173902021500e+00	 1.295190279198739e+00	 1.108754621205513e+01
 1.433676681965957e+00	 1.265791223485365e+00	 1.121964968912503e+01
 1.459548933555365e+00	 1.235869394567474e+00	 1.113747743204535e+01
 1.484775471220358e+00	 1.205445166708397e+00	 1.092515201293599e+01
 1.509341989007010e+00	 1.174539488526045e+00	 1.089223754324359e+01
 1.533235086875494e+00	 1.143173835543008e+00	 1.102037844786342e+01
 1.556442293936246e+00	 1.111370161356373e+00	 1.129167580650840e+01
 1.578952088544930e+00	 1.079150847656576e+00	 1.168877438648186e+01
 1.600753915197019e+00	 1.046538653329136e+00	 1.219494005950365e+01
 1.347922301612500e+00	 1.347922301612500e+00	 1.095900874577521e+01
 1.375546640659343e+00	 1.319719857295584e+00	 1.103627854136286e+01
 1.402575294500219e+00	 1.290957631229414e+00	 1.114605471446870e+01
 1.428991464052666e+00	 1.261654650861442e+00	 1.129054209093569e+01
 1.454779165800276e+00	 1.231830605698046e+00	 1.113763386835060e+01
 1.479923263799726e+00	 1.201505803419996e+00	 1.093263387749966e+01
 1.504409498848573e+00	 1.170701124185669e+00	 1.090645085764759e+01
 1.528224514697972e+00	 1.139437973336209e+00	 1.104088498151522e+01
 1.551355881212897e+00	 1.107738232724922e+00	 1.131818345902693e+01
 1.573792114401447e+00	 1.075624210899465e+00	 1.172112688362589e+01
 1.595522693254205e+00	 1.043118592369916e+00	 1.223310608234838e+01
 1.343502884233000e+00	 1.343502884233000e+00	 1.099538771009911e+01
 1.371036651676306e+00	 1.315392906946705e+00	 1.108604514663977e+01
 1.397976686979918e+00	 1.286724983261070e+00	 1.120872608718136e+01
 1.424306246140329e+00	 1.257518078238474e+00	 1.136555998706632e+01
 1.450009398046105e+00	 1.227791816829536e+00	 1.113697607667903e+01
 1.475071056379967e+00	 1.197566440132467e+00	 1.093937314877499e+01
 1.499477008690954e+00	 1.166862759846110e+00	 1.091997072834732e+01
 1.523213942521201e+00	 1.135702111130161e+00	 1.106072405691210e+01
 1.546269468490224e+00	 1.104106304094146e+00	 1.134402594185439e+01
 1.568632140258553e+00	 1.072097574142944e+00	 1.175279241818168e+01
 1.590291471311885e+00	 1.039698531411190e+00	 1.227053903257595e+01
 1.339083466854500e+00	 1.339083466854500e+00	 1.103605387133468e+01
 1.366526662694265e+00	 1.311065956598820e+00	 1.114005609772857e+01
 1.393378079460596e+00	 1.282492335293705e+00	 1.127560136753566e+01
 1.419621028228947e+00	 1.253381505616459e+00	 1.144474462171542e+01
 1.445239630292853e+00	 1.223753027961944e+00	 1.113544586280339e+01
 1.470218848961080e+00	 1.193627076845812e+00	 1.094531090409200e+01
 1.494544518534152e+00	 1.163024395507368e+00	 1.093273759980205e+01
 1.518203370345182e+00	 1.131966248924865e+00	 1.107983558426766e+01
 1.541183055768226e+00	 1.100474375464046e+00	 1.136914273209439e+01
 1.563472166116249e+00	 1.068570937387014e+00	 1.178371013723868e+01
 1.585060249370059e+00	 1.036278470452960e+00	 1.230717783176172e+01
 1.334664049477000e+00	 1.334664049477000e+00	 1.108104748524855e+01
 1.362016673713218e+00	 1.306739006251930e+00	 1.119835212502406e+01
 1.388779471942253e+00	 1.278259687327320e+00	 1.134672162618825e+01
 1.414935810318518e+00	 1.249244932995399e+00	 1.151054513748389e+01
 1.440469862540519e+00	 1.219714239095272e+00	 1.113298505705857e+01
 1.465366641543066e+00	 1.189687713560029e+00	 1.095038824001093e+01
 1.489612028378166e+00	 1.159186031169442e+00	 1.094469192974733e+01
 1.513192798169912e+00	 1.128230386720319e+00	 1.109815948050987e+01
 1.536096643046904e+00	 1.096842446834621e+00	 1.139347330640996e+01
 1.558312191974536e+00	 1.065044300631673e+00	 1.181381917971385e+01
 1.579829027428729e+00	 1.032858409495223e+00	 1.234296138501842e+01
 1.330244632100500e+00	 1.330244632100500e+00	 1.113040884771794e+01
 1.357506684733167e+00	 1.302412055906035e+00	 1.126097399624554e+01
 1.384180864424891e+00	 1.274027039361914e+00	 1.142212796766334e+01
 1.410250592409043e+00	 1.245108360375293e+00	 1.149864337694386e+01
 1.435700094789103e+00	 1.215675450229517e+00	 1.112953551474957e+01
 1.460514434125925e+00	 1.185748350275119e+00	 1.095454627264156e+01
 1.484679538222998e+00	 1.155347666832334e+00	 1.095577418941585e+01
 1.508182225995395e+00	 1.124494524516524e+00	 1.111563566939286e+01
 1.531010230326257e+00	 1.093210518205871e+00	 1.141695714101641e+01
 1.553152217833411e+00	 1.061517663876921e+00	 1.184305867621648e+01
 1.574597805487893e+00	 1.029438348537982e+00	 1.237782858072259e+01
 1.325825214725000e+00	 1.325825214725000e+00	 1.118417829539929e+01
 1.352996695754110e+00	 1.298085105561135e+00	 1.132796251705931e+01
 1.379582256908508e+00	 1.269794391397488e+00	 1.150186153091712e+01
 1.405565374500521e+00	 1.240971787756141e+00	 1.148560477321406e+01
 1.430930327038606e+00	 1.211636661364681e+00	 1.112503911656778e+01
 1.455662226709656e+00	 1.181808986991081e+00	 1.095772613796902e+01
 1.479747048068645e+00	 1.151509302496042e+00	 1.096592486376207e+01
 1.503171653821628e+00	 1.120758662313480e+00	 1.113220408161033e+01
 1.525923817606285e+00	 1.089578589577797e+00	 1.143953371167343e+01
 1.547992243692877e+00	 1.057991027122760e+00	 1.187136774890910e+01
 1.569366583547552e+00	 1.026018287581235e+00	 1.241171829023562e+01
 1.621678802973224e+00	 1.060218897170963e+00	 1.203616624911920e+01
 1.643038697499171e+00	 1.026805769588582e+00	 1.231454146246194e+01
 1.663662970952962e+00	 9.930416753735546e-01	 1.256530578751750e+01
 1.683543935945708e+00	 9.589505022144016e-01	 1.278303181342158e+01
 1.702674919393794e+00	 9.245563091730674e-01	 1.296339551248316e+01
 1.721050263217639e+00	 8.898832740590078e-01	 1.310315874501989e+01
 1.738665321851069e+00	 8.549556412882954e-01	 1.320014136450838e+01
 1.755516456634858e+00	 8.197976704459866e-01	 1.325318361652645e+01
 1.771601027184422e+00	 7.844335857608370e-01	 1.326209961761190e+01
 1.786917379836844e+00	 7.488875266910032e-01	 1.322762277822070e+01
 1.801464833296524e+00	 7.131834998077383e-01	 1.315134409681021e+01
 1.616447581028431e+00	 1.056798836209764e+00	 1.207665409816560e+01
 1.637738572669342e+00	 1.023493492909737e+00	 1.234140318486638e+01
 1.658296316209174e+00	 9.898383151275415e-01	 1.258059702317204e+01
 1.678113149057066e+00	 9.558571134946388e-01	 1.278875947353874e+01
 1.697182419655479e+00	 9.215738694630954e-01	 1.296150032228233e+01
 1.715498488176705e+00	 8.870126828494326e-01	 1.309549855207400e+01
 1.733056724040265e+00	 8.521977198619295e-01	 1.318847533511517e+01
 1.749853500324548e+00	 8.171531618289158e-01	 1.323915743112523e+01
 1.765886185162340e+00	 7.819031548364729e-01	 1.324723176400895e+01
 1.781153130225121e+00	 7.464717604735365e-01	 1.321329202840381e+01
 1.795653656415021e+00	 7.108829078708078e-01	 1.313877823961663e+01
 1.611216359084132e+00	 1.053378775249060e+00	 1.211665302895090e+01
 1.632438447839913e+00	 1.020181216231292e+00	 1.236798048449068e+01
 1.652929661465701e+00	 9.866349548818438e-01	 1.259579448185128e+01
 1.672682362168664e+00	 9.527637247751165e-01	 1.279456974239796e+01
 1.691689919917341e+00	 9.185914297532998e-01	 1.295984958007610e+01
 1.709946713135892e+00	 8.841420916399797e-01	 1.308822993529986e+01
 1.727448126229540e+00	 8.494397984356415e-01	 1.317733325297463e+01
 1.744190544014282e+00	 8.145086532118886e-01	 1.322577287550188e+01
 1.760171343140277e+00	 7.793727239121280e-01	 1.323310871244306e+01
 1.775388880613402e+00	 7.440559942560749e-01	 1.319979502513252e+01
 1.789842479533517e+00	 7.085823159338770e-01	 1.312712122631099e+01
 1.605985137140328e+00	 1.049958714288850e+00	 1.215610202627170e+01
 1.627138323010885e+00	 1.016868939553246e+00	 1.239421494340838e+01
 1.647563006722544e+00	 9.834315946364609e-01	 1.261084255728373e+01
 1.667251575280503e+00	 9.496703360558348e-01	 1.280041003341850e+01
 1.686197420179379e+00	 9.156089900436800e-01	 1.295839391994960e+01
 1.704394938095203e+00	 8.812715004306492e-01	 1.308130694268525e+01
 1.721839528418892e+00	 8.466818770094315e-01	 1.316667276484115e+01
 1.738527587704060e+00	 8.118641445949052e-01	 1.321299137108118e+01
 1.754456501118234e+00	 7.768422929878025e-01	 1.321969582541527e+01
 1.769624631001689e+00	 7.416402280386184e-01	 1.318710122840652e+01
 1.784031302652014e+00	 7.062817239969467e-01	 1.311634676039883e+01
 1.600753915197019e+00	 1.046538653329136e+00	 1.219494005950365e+01
 1.621838198182256e+00	 1.013556662875601e+00	 1.242004815507919e+01
 1.642196351979701e+00	 9.802282343913935e-01	 1.262568568230009e+01
 1.661820788392583e+00	 9.465769473367940e-01	 1.280622782768754e+01
 1.680704920441593e+00	 9.126265503342368e-01	 1.295708407301157e+01
 1.698843163054634e+00	 8.784009092214403e-01	 1.307468374932576e+01
 1.716230930608323e+00	 8.439239555832997e-01	 1.315645167532734e+01
 1.732864631393882e+00	 8.092196359779653e-01	 1.320077452849981e+01
 1.748741659096209e+00	 7.743118620634961e-01	 1.320695868653184e+01
 1.763860381389980e+00	 7.392244618211662e-01	 1.317518035169974e+01
 1.778220125770510e+00	 7.039811320600161e-01	 1.310642883164084e+01
 1.595522693254205e+00	 1.043118592369916e+00	 1.223310608234838e+01
 1.616538073354026e+00	 1.010244386198355e+00	 1.244542172453569e+01
 1.636829697237174e+00	 9.770248741466409e-01	 1.264026832947412e+01
 1.656390001504903e+00	 9.434835586179937e-01	 1.281197067506951e+01
 1.675212420703984e+00	 9.096441106249700e-01	 1.295587086898493e+01
 1.693291388014188e+00	 8.755303180123534e-01	 1.306831465950849e+01
 1.710622332797832e+00	 8.411660341572456e-01	 1.314662794949193e+01
 1.727201675083747e+00	 8.065751273610690e-01	 1.318908415070815e+01
 1.743026817074204e+00	 7.717814311392094e-01	 1.319486310412882e+01
 1.758096131778276e+00	 7.368086956037191e-01	 1.316400236611567e+01
 1.772408948889007e+00	 7.016805401230853e-01	 1.309734172074558e+01
 1.590291471311885e+00	 1.039698531411190e+00	 1.227053903257595e+01
 1.611237948526197e+00	 1.006932109521509e+00	 1.247027726857369e+01
 1.631463042494961e+00	 9.738215139022035e-01	 1.265453501177636e+01
 1.650959214617464e+00	 9.403901698994342e-01	 1.281758619533728e+01
 1.669719920966551e+00	 9.066616709158792e-01	 1.295470523782867e+01
 1.687739612973864e+00	 8.726597268033888e-01	 1.306215410883700e+01
 1.705013734987417e+00	 8.384081127312690e-01	 1.313715971547868e+01
 1.721538718773656e+00	 8.039306187442163e-01	 1.317788223613339e+01
 1.737311975052219e+00	 7.692510002149416e-01	 1.318337511496835e+01
 1.752331882166577e+00	 7.343929293862765e-01	 1.315353750462463e+01
 1.766597772007503e+00	 6.993799481861548e-01	 1.308906000415477e+01
 1.585060249370059e+00	 1.036278470452960e+00	 1.230717783176172e+01
 1.605937823698768e+00	 1.003619832845063e+00	 1.249455641594631e+01
 1.626096387753065e+00	 9.706181536580815e-01	 1.266843028324079e+01
 1.645528427730266e+00	 9.372967811811151e-01	 1.282302207932580e+01
 1.664227421229294e+00	 9.036792312069650e-01	 1.295353821139195e+01
 1.682187837933662e+00	 8.697891355945460e-01	 1.305615666639813e+01
 1.699405137177082e+00	 8.356501913053704e-01	 1.312800526720748e+01
 1.715875762463608e+00	 8.012861101274074e-01	 1.316713098190516e+01
 1.731597133030253e+00	 7.667205692906938e-01	 1.317246098800800e+01
 1.746567632554883e+00	 7.319771631688392e-01	 1.314375626638508e+01
 1.760786595126000e+00	 6.970793562492242e-01	 1.308155855892342e+01
 1.579829027428729e+00	 1.032858409495223e+00	 1.234296138501842e+01
 1.600637698871738e+00	 1.000307556169017e+00	 1.251820080756197e+01
 1.620729733011483e+00	 9.674147934142743e-01	 1.268189873964460e+01
 1.640097640843308e+00	 9.342033924630365e-01	 1.282822609010854e+01
 1.658734921492214e+00	 9.006967914982271e-01	 1.295232092510101e+01
 1.676636062893582e+00	 8.669185443858255e-01	 1.305027703697212e+01
 1.693796539366823e+00	 8.328922698795498e-01	 1.311912306711907e+01
 1.710212806153604e+00	 7.986416015106422e-01	 1.315679278714535e+01
 1.725882291008306e+00	 7.641901383664648e-01	 1.316208722824514e+01
 1.740803382943193e+00	 7.295613969514065e-01	 1.313462942115062e+01
 1.754975418244497e+00	 6.947787643122938e-01	 1.307481256769681e+01
 1.574597805487893e+00	 1.029438348537982e+00	 1.237782858072259e+01
 1.595337574045109e+00	 9.969952794933700e-01	 1.254115209668633e+01
 1.615363078270216e+00	 9.642114331707826e-01	 1.269488501920177e+01
 1.634666853956591e+00	 9.311100037451990e-01	 1.283314606419759e+01
 1.653242421755309e+00	 8.977143517896652e-01	 1.295100461967976e+01
 1.671084287853624e+00	 8.640479531772268e-01	 1.304447006328650e+01
 1.688187941556642e+00	 8.301343484538068e-01	 1.311047174897433e+01
 1.704549849843644e+00	 7.959970928939208e-01	 1.314683025632348e+01
 1.720167448986378e+00	 7.616597074422550e-01	 1.315222058063777e+01
 1.735039133331508e+00	 7.271456307339783e-01	 1.312612801376501e+01
 1.749164241362994e+00	 6.924781723753630e-01	 1.306879752378682e+01
 1.569366583547552e+00	 1.026018287581235e+00	 1.241171829023562e+01
 1.590037449218878e+00	 9.936830028181231e-01	 1.256335194914812e+01
 1.609996423529265e+00	 9.610080729276055e-01	 1.270733380327003e+01
 1.629236067070115e+00	 9.280166150276019e-01	 1.283772991276747e+01
 1.647749922018581e+00	 8.947319120812796e-01	 1.294954064290461e+01
 1.665532512813788e+00	 8.611773619687502e-01	 1.303869072831535e+01
 1.682579343746540e+00	 8.273764270281421e-01	 1.310201012070969e+01
 1.698886893533727e+00	 7.933525842772428e-01	 1.313720620267907e+01
 1.714452606964470e+00	 7.591292765180646e-01	 1.314282803410396e+01
 1.729274883719828e+00	 7.247298645165553e-01	 1.311822336874696e+01
 1.743353064481490e+00	 6.901775804384324e-01	 1.306348923634961e+01
 1.801464833296524e+00	 7.131834998077383e-01	 1.315134409681021e+01
 1.815243661611244e+00	 6.773453321514069e-01	 1.325729318749942e+01
 1.828255074622592e+00	 6.413966262208440e-01	 1.338945814676580e+01
 1.840501196043703e+00	 6.053607167423776e-01	 1.336716903173913e+01
 1.851985039325666e+00	 5.692606293503404e-01	 1.322930983121279e+01
 1.862710481481908e+00	 5.331190412958150e-01	 1.312460037936428e+01
 1.872682235044608e+00	 4.969582442846507e-01	 1.304856315516889e+01
 1.881905818331420e+00	 4.608001095303135e-01	 1.293596571291631e+01
 1.890387524203362e+00	 4.246660550916125e-01	 1.283232660192686e+01
 1.898134387495910e+00	 3.885770155500037e-01	 1.275579069460552e+01
 1.905154151305217e+00	 3.525534140661327e-01	 1.270383531137450e+01
 1.795653656415021e+00	 7.108829078708078e-01	 1.313877823961663e+01
 1.809388036895903e+00	 6.751603472072213e-01	 1.325823130352115e+01
 1.822357477606744e+00	 6.393276048445118e-01	 1.340299414456823e+01
 1.834564095409992e+00	 6.034079402356949e-01	 1.336960323793772e+01
 1.846010894035924e+00	 5.674243047388637e-01	 1.323511258162221e+01
 1.856701737991471e+00	 5.313993024526770e-01	 1.313214361816316e+01
 1.866641324607093e+00	 4.953551531742550e-01	 1.305631608039706e+01
 1.875835154399422e+00	 4.593136575647614e-01	 1.299588510912464e+01
 1.884289499929918e+00	 4.232961645924926e-01	 1.288760526884160e+01
 1.892011373341040e+00	 3.873235413079956e-01	 1.280503735312930e+01
 1.899008492751211e+00	 3.514161449907519e-01	 1.274568780278940e+01
 1.789842479533517e+00	 7.085823159338770e-01	 1.312712122631099e+01
 1.803532412180562e+00	 6.729753622630307e-01	 1.325989346341100e+01
 1.816459880590896e+00	 6.372585834681578e-01	 1.341704595579053e+01
 1.828626994776280e+00	 6.014551637289641e-01	 1.337165209180887e+01
 1.840036748746182e+00	 5.655879801273019e-01	 1.324064626743243e+01
 1.850692994501034e+00	 5.296795636094068e-01	 1.313952569298437e+01
 1.860600414169580e+00	 4.937520620636699e-01	 1.306400682148768e+01
 1.869764490467423e+00	 4.578272055989529e-01	 1.300994343677246e+01
 1.878191475656474e+00	 4.219262740930394e-01	 1.294482387978878e+01
 1.885888359186171e+00	 3.860700670655682e-01	 1.285613989298665e+01
 1.892862834197204e+00	 3.502788759148565e-01	 1.278930423312874e+01
 1.784031302652014e+00	 7.062817239969467e-01	 1.311634676039883e+01
 1.797676787465220e+00	 6.707903773188341e-01	 1.326225534038522e+01
 1.810562283575048e+00	 6.351895620917827e-01	 1.343159124377053e+01
 1.822689894142569e+00	 5.995023872221852e-01	 1.337335080931471e+01
 1.834062603456439e+00	 5.637516555156550e-01	 1.324594506019691e+01
 1.844684251010596e+00	 5.279598247660042e-01	 1.314677965899561e+01
 1.854559503732065e+00	 4.921489709528953e-01	 1.307166724975417e+01
 1.863693826535425e+00	 4.563407536328880e-01	 1.301655887106847e+01
 1.872093451383030e+00	 4.205563835932531e-01	 1.297757579977517e+01
 1.879765345031301e+00	 3.848165928227212e-01	 1.290911000345089e+01
 1.886717175643198e+00	 3.491416068384464e-01	 1.283469651735758e+01
 1.778220125770510e+00	 7.039811320600161e-01	 1.310642883164084e+01
 1.791821162749879e+00	 6.686053923746326e-01	 1.326529289555396e+01
 1.804664686559200e+00	 6.331205407153857e-01	 1.344660796030771e+01
 1.816752793508858e+00	 5.975496107153585e-01	 1.337473489438929e+01
 1.828088458166697e+00	 5.619153309039231e-01	 1.325104341790865e+01
 1.838675507520159e+00	 5.262400859224697e-01	 1.315393885524665e+01
 1.848518593294551e+00	 4.905458798419312e-01	 1.307932951682905e+01
 1.857623162603426e+00	 4.548543016665665e-01	 1.302326321565581e+01
 1.865995427109586e+00	 4.191864930931336e-01	 1.298195850315128e+01
 1.873642330876431e+00	 3.835631185794552e-01	 1.295183262888363e+01
 1.880571517089191e+00	 3.480043377615216e-01	 1.288187682690664e+01
 1.772408948889007e+00	 7.016805401230853e-01	 1.309734172074558e+01
 1.785965538034537e+00	 6.664204074304255e-01	 1.326898238264070e+01
 1.798767089543353e+00	 6.310515193389675e-01	 1.346207435039221e+01
 1.810815692875146e+00	 5.955968342084834e-01	 1.337584014365932e+01
 1.822114312876955e+00	 5.600790062921064e-01	 1.325597608969589e+01
 1.832666764029722e+00	 5.245203470788028e-01	 1.316103690932323e+01
 1.842477682857037e+00	 4.889427887307778e-01	 1.308702605925942e+01
 1.851552498671427e+00	 4.533678496999886e-01	 1.303008765111819e+01
 1.859897402836142e+00	 4.178166025926809e-01	 1.298653708116571e+01
 1.867519316721562e+00	 3.823096443357698e-01	 1.295288841693132e+01
 1.874425858535185e+00	 3.468670686840821e-01	 1.292587844953816e+01
 1.766597772007503e+00	 6.993799481861548e-01	 1.308906000415477e+01
 1.780109913319195e+00	 6.642354224862130e-01	 1.327330035279506e+01
 1.792869492527504e+00	 6.289824979625276e-01	 1.347796895702698e+01
 1.804878592241436e+00	 5.936440577015606e-01	 1.337670265125828e+01
 1.816140167587212e+00	 5.582426816802042e-01	 1.326077812061049e+01
 1.826658020539285e+00	 5.228006082350036e-01	 1.316810774209262e+01
 1.836436772419524e+00	 4.873396976194351e-01	 1.309478960319295e+01
 1.845481834739428e+00	 4.518813977331541e-01	 1.303706364294229e+01
 1.853799378562698e+00	 4.164467120918952e-01	 1.299134167730103e+01
 1.861396302566692e+00	 3.810561700916651e-01	 1.295423421402263e+01
 1.868280199981178e+00	 3.457297996061280e-01	 1.292257396854588e+01
 1.760786595126000e+00	 6.970793562492242e-01	 1.308155855892342e+01
 1.774254288603854e+00	 6.620504375419951e-01	 1.327822365950079e+01
 1.786971895511656e+00	 6.269134765860667e-01	 1.349427062614546e+01
 1.798941491607725e+00	 5.916912811945895e-01	 1.337735881373572e+01
 1.810166022297470e+00	 5.564063570682174e-01	 1.326548485651124e+01
 1.820649277048847e+00	 5.210808693910723e-01	 1.317518557254333e+01
 1.830395861982010e+00	 4.857366065079028e-01	 1.310265316915688e+01
 1.839411170807430e+00	 4.503949457660634e-01	 1.304422294621905e+01
 1.847701354289253e+00	 4.150768215907761e-01	 1.299640271885965e+01
 1.855273288411822e+00	 3.798026958471411e-01	 1.295589906192903e+01
 1.862134541427172e+00	 3.445925305276593e-01	 1.291964029043487e+01
 1.754975418244497e+00	 6.947787643122938e-01	 1.307481256769681e+01
 1.768398663888512e+00	 6.598654525977722e-01	 1.328372946358133e+01
 1.781074298495809e+00	 6.248444552095839e-01	 1.350927179537041e+01
 1.793004390974013e+00	 5.897385046875702e-01	 1.337784533506419e+01
 1.804191877007728e+00	 5.545700324561452e-01	 1.327013194904398e+01
 1.814640533558410e+00	 5.193611305470088e-01	 1.318230492272078e+01
 1.824354951544496e+00	 4.841335153961810e-01	 1.311065007693175e+01
 1.833340506875431e+00	 4.489084937987159e-01	 1.305159761043851e+01
 1.841603330015809e+00	 4.137069310893240e-01	 1.300175092166295e+01
 1.849150274256952e+00	 3.785492216021978e-01	 1.295791228406138e+01
 1.855988882873165e+00	 3.434552614486758e-01	 1.291710529206989e+01
 1.749164241362994e+00	 6.924781723753630e-01	 1.306879752378682e+01
 1.762543039173171e+00	 6.576804676535434e-01	 1.328979523830506e+01
 1.775176701479960e+00	 6.227754338330798e-01	 1.350356779605421e+01
 1.787067290340302e+00	 5.877857281805030e-01	 1.337819923174588e+01
 1.798217731717986e+00	 5.527337078439883e-01	 1.327475536072127e+01
 1.808631790067973e+00	 5.176413917028130e-01	 1.318950062276162e+01
 1.818314041106981e+00	 4.825304242842698e-01	 1.311881395052250e+01
 1.827269842943432e+00	 4.474220418311121e-01	 1.305921998438009e+01
 1.835505305742365e+00	 4.123370405875387e-01	 1.300741729484387e+01
 1.843027260102082e+00	 3.772957473568351e-01	 1.296030349014828e+01
 1.849843224319159e+00	 3.423179923691778e-01	 1.291499712865239e+01
 1.743353064481490e+00	 6.901775804384324e-01	 1.306348923634961e+01
 1.756687414457829e+00	 6.554954827093094e-01	 1.329639877459281e+01
 1.769279104464112e+00	 6.207064124565539e-01	 1.349765216512326e+01
 1.781130189706590e+00	 5.858329516733874e-01	 1.337845783802151e+01
 1.792243586428243e+00	 5.508973832317460e-01	 1.327939137010334e+01
 1.802623046577536e+00	 5.159216528584849e-01	 1.319680781602848e+01
 1.812273130669467e+00	 4.809273331721693e-01	 1.312717872322874e+01
 1.821199179011433e+00	 4.459355898632516e-01	 1.306712272110084e+01
 1.829407281468920e+00	 4.109671500854201e-01	 1.301343314573543e+01
 1.836904245947212e+00	 3.760422731110533e-01	 1.296310258100812e+01
 1.843697565765152e+00	 3.411807232891650e-01	 1.291334423835945e+01
 1.905154151305217e+00	 3.525534140661327e-01	 1.270383531137450e+01
 1.911455232310073e+00	 3.166151368409488e-01	 1.264426022389883e+01
 1.917046685307169e+00	 2.807815099915488e-01	 1.260463410088771e+01
 1.921938167134141e+00	 2.450712788396208e-01	 1.258141014347042e+01
 1.926139900150070e+00	 2.095025895978823e-01	 1.257106929141973e+01
 1.929662635437016e+00	 1.740929734263706e-01	 1.257011921239953e+01
 1.932517615880140e+00	 1.388593328203557e-01	 1.257509390715639e+01
 1.934716539276743e+00	 1.038179302810827e-01	 1.258255394191330e+01
 1.936271521616793e+00	 6.898437921114235e-02	 1.258908730637551e+01
 1.937195060669269e+00	 3.437363696779226e-02	 1.259131088395058e+01
 1.937500000000000e+00	 0.000000000000000e+00	 1.258587251013112e+01
 1.899008492751211e+00	 3.514161449907519e-01	 1.274568780278940e+01
 1.905289247688583e+00	 3.155937976925802e-01	 1.268127493532312e+01
 1.910862663740772e+00	 2.798757631881704e-01	 1.263694341144893e+01
 1.915738366594321e+00	 2.442807263304339e-01	 1.260917960936014e+01
 1.919926545632962e+00	 2.088267747959210e-01	 1.259449576976751e+01
 1.923437917257845e+00	 1.735313831925430e-01	 1.258942908688985e+01
 1.926283688086761e+00	 1.384113994913946e-01	 1.259054141233028e+01
 1.928475518182181e+00	 1.034830337340428e-01	 1.259441958224752e+01
 1.930025484450234e+00	 6.876184895726677e-02	 1.259767636553627e+01
 1.930946044344517e+00	 3.426275426878794e-02	 1.259695201907033e+01
 1.931250000000000e+00	 0.000000000000000e+00	 1.258891642554912e+01
 1.892862834197204e+00	 3.502788759148565e-01	 1.278930423312874e+01
 1.899123263067094e+00	 3.145724585436130e-01	 1.271988053208912e+01
 1.904678642174373e+00	 2.789700163841411e-01	 1.267067360752960e+01
 1.909538566054501e+00	 2.434901738205749e-01	 1.263820350793538e+01
 1.913713191115855e+00	 2.081509599932970e-01	 1.261901424421480e+01
 1.917213199078675e+00	 1.729697929580919e-01	 1.260967298081428e+01
 1.920049760293382e+00	 1.379634661618786e-01	 1.260676983689030e+01
 1.922234497087618e+00	 1.031481371865452e-01	 1.260691830709814e+01
 1.923779447283674e+00	 6.853931870305892e-02	 1.260675629901244e+01
 1.924697028019764e+00	 3.415187156960408e-02	 1.260294777267982e+01
 1.925000000000000e+00	 0.000000000000000e+00	 1.259218495742996e+01
 1.886717175643198e+00	 3.491416068384464e-01	 1.283469651735758e+01
 1.892957278445604e+00	 3.135511193940471e-01	 1.276008836927970e+01
 1.898494620607975e+00	 2.780642695794609e-01	 1.270583551563319e+01
 1.903338765514681e+00	 2.426996213100439e-01	 1.266849216782411e+01
 1.907499836598747e+00	 2.074751451900103e-01	 1.264463457557396e+01
 1.910988480899505e+00	 1.724082027230172e-01	 1.263086031654690e+01
 1.913815832500004e+00	 1.375155328318078e-01	 1.262378819343525e+01
 1.915993475993055e+00	 1.028132406385900e-01	 1.262005874721175e+01
 1.917533410117115e+00	 6.831678844851873e-02	 1.261633538286167e+01
 1.918448011695011e+00	 3.404098887024071e-02	 1.260930609253751e+01
 1.918750000000000e+00	 0.000000000000000e+00	 1.259568575083955e+01
 1.880571517089191e+00	 3.480043377615216e-01	 1.288187682690664e+01
 1.886791293824115e+00	 3.125297802438828e-01	 1.280191004078060e+01
 1.892310599041578e+00	 2.771585227741298e-01	 1.274244018380170e+01
 1.897138964974860e+00	 2.419090687988407e-01	 1.270005612234786e+01
 1.901286482081638e+00	 2.067993303860606e-01	 1.267136681294432e+01
 1.904763762720334e+00	 1.718466124873191e-01	 1.265300068879829e+01
 1.907581904706625e+00	 1.370675995011818e-01	 1.264160565142211e+01
 1.909752454898493e+00	 1.024783440901772e-01	 1.263384967520143e+01
 1.911287372950556e+00	 6.809425819364626e-02	 1.262642202051657e+01
 1.912198995370258e+00	 3.393010617069781e-02	 1.261603503979617e+01
 1.912500000000000e+00	 0.000000000000000e+00	 1.259942655077926e+01
 1.874425858535185e+00	 3.468670686840821e-01	 1.292587844953816e+01
 1.880625309202625e+00	 3.115084410931198e-01	 1.284535738319514e+01
 1.886126577475179e+00	 2.762527759681478e-01	 1.278049888524742e+01
 1.890939164435040e+00	 2.411185162869654e-01	 1.273290611287725e+01
 1.895073127564530e+00	 2.061235155814483e-01	 1.269922119679883e+01
 1.898539044541164e+00	 1.712850222509974e-01	 1.267610386744068e+01
 1.901347976913246e+00	 1.366196661700011e-01	 1.266023153973741e+01
 1.903511433803931e+00	 1.021434475413067e-01	 1.264830000787252e+01
 1.905041335783997e+00	 6.787172793844150e-02	 1.263702474487238e+01
 1.905949979045505e+00	 3.381922347097539e-02	 1.262314279086200e+01
 1.906250000000000e+00	 0.000000000000000e+00	 1.260341520382437e+01
 1.868280199981178e+00	 3.457297996061280e-01	 1.292257396854588e+01
 1.874459324581136e+00	 3.104871019417581e-01	 1.288595037524911e+01
 1.879942555908781e+00	 2.753470291615150e-01	 1.282002312205646e+01
 1.884739363895220e+00	 2.403279637744180e-01	 1.276705309225405e+01
 1.888859773047423e+00	 2.054477007761732e-01	 1.272820816213171e+01
 1.892314326361993e+00	 1.707234320140522e-01	 1.270017980038883e+01
 1.895114049119867e+00	 1.361717328382653e-01	 1.267967534931939e+01
 1.897270412709368e+00	 1.018085509919786e-01	 1.266341880859418e+01
 1.898795298617437e+00	 6.764919768290442e-02	 1.264815222041671e+01
 1.899700962720753e+00	 3.370834077107342e-02	 1.263063763929006e+01
 1.900000000000000e+00	 0.000000000000000e+00	 1.260765965979456e+01
 1.862134541427172e+00	 3.445925305276593e-01	 1.291964029043487e+01
 1.868293339959646e+00	 3.094657627897979e-01	 1.288074295178635e+01
 1.873758534342384e+00	 2.744412823542313e-01	 1.285129222395069e+01
 1.878539563355399e+00	 2.395374112611985e-01	 1.280250822828060e+01
 1.882646418530315e+00	 2.047718859702354e-01	 1.275833834166827e+01
 1.886089608182823e+00	 1.701618417764836e-01	 1.272523861653819e+01
 1.888880121326489e+00	 1.357237995059746e-01	 1.269994673583226e+01
 1.891029391614806e+00	 1.014736544421928e-01	 1.267921528971787e+01
 1.892549261450878e+00	 6.742666742703507e-02	 1.265981324540080e+01
 1.893451946396000e+00	 3.359745807099196e-02	 1.263852799771747e+01
 1.893750000000000e+00	 0.000000000000000e+00	 1.261216797345764e+01
 1.855988882873165e+00	 3.434552614486758e-01	 1.291710529206989e+01
 1.862127355338156e+00	 3.084444236372391e-01	 1.287589506459183e+01
 1.867574512775986e+00	 2.735355355462967e-01	 1.284460313138235e+01
 1.872339762815579e+00	 2.387468587473070e-01	 1.281995539594127e+01
 1.876433064013207e+00	 2.040960711636347e-01	 1.278962256913875e+01
 1.879864890003653e+00	 1.696002515382913e-01	 1.275129062876112e+01
 1.882646193533110e+00	 1.352758661731290e-01	 1.272105552239334e+01
 1.884788370520244e+00	 1.011387578919494e-01	 1.269569881504399e+01
 1.886303224284319e+00	 6.720413717083339e-02	 1.267201675405424e+01
 1.887202930071247e+00	 3.348657537073094e-02	 1.264682239983508e+01
 1.887500000000000e+00	 0.000000000000000e+00	 1.261694830626710e+01
 1.849843224319159e+00	 3.423179923691778e-01	 1.291499712865239e+01
 1.855961370716666e+00	 3.074230844840817e-01	 1.287143258370243e+01
 1.861390491209588e+00	 2.726297887377112e-01	 1.283825706423213e+01
 1.866139962275759e+00	 2.379563062327434e-01	 1.281228174914020e+01
 1.870219709496099e+00	 2.034202563563712e-01	 1.279058907407390e+01
 1.873640171824482e+00	 1.690386612994756e-01	 1.277054306526206e+01
 1.876412265739731e+00	 1.348279328397284e-01	 1.274301170235467e+01
 1.878547349425681e+00	 1.008038613412482e-01	 1.271287890233767e+01
 1.880057187117760e+00	 6.698160691429945e-02	 1.268477181884365e+01
 1.880953913746494e+00	 3.337569267029043e-02	 1.265552950239814e+01
 1.881250000000000e+00	 0.000000000000000e+00	 1.262200892813436e+01
 1.843697565765152e+00	 3.411807232891650e-01	 1.291334423835945e+01
 1.849795386095177e+00	 3.064017453303257e-01	 1.286738164264207e+01
 1.855206469643190e+00	 2.717240419284748e-01	 1.283227790936538e+01
 1.859940161735938e+00	 2.371657537175077e-01	 1.280492924866508e+01
 1.864006354978990e+00	 2.027444415484450e-01	 1.278249612202698e+01
 1.867415453645311e+00	 1.684770710600363e-01	 1.276241347083652e+01
 1.870178337946352e+00	 1.343799995057729e-01	 1.274239789174422e+01
 1.872306328331119e+00	 1.004689647900895e-01	 1.272045189013543e+01
 1.873811149951200e+00	 6.675907665743318e-02	 1.269486536483589e+01
 1.874704897421741e+00	 3.326480996967037e-02	 1.266421449552909e+01
 1.875000000000000e+00	 0.000000000000000e+00	 1.262735821923636e+01
 0.000000000000000e+00	 1.875000000000000e+00	 2.156639961776765e+00
 3.326480996967050e-02	 1.874704897421741e+00	 2.529348628345511e+00
 6.675907665743346e-02	 1.873811149951200e+00	 2.865815867553250e+00
 1.004689647900899e-01	 1.872306328331119e+00	 3.169319081951707e+00
 1.343799995057734e-01	 1.870178337946352e+00	 3.442522121645058e+00
 1.684770710600369e-01	 1.867415453645311e+00	 3.687422427280786e+00
 2.027444415484457e-01	 1.864006354978990e+00	 3.905301612349807e+00
 2.371657537175085e-01	 1.859940161735938e+00	 4.096680220051004e+00
 2.717240419284757e-01	 1.855206469643190e+00	 4.261277396117420e+00
 3.064017453303267e-01	 1.849795386095177e+00	 4.397976215836135e+00
 3.411807232891650e-01	 1.843697565765152e+00	 4.504795390292403e+00
 0.000000000000000e+00	 1.868750000000000e+00	 2.179699863430977e+00
 3.315392726905046e-02	 1.868455881096990e+00	 2.531402508355547e+00
 6.653654640056721e-02	 1.867565112784650e+00	 2.849613643496431e+00
 1.001340682389311e-01	 1.866065307236577e+00	 3.137674598135431e+00
 1.339320661718179e-01	 1.863944410153010e+00	 3.398312980781739e+00
 1.679154808205977e-01	 1.861190735466199e+00	 3.633589672672539e+00
 2.020686267405195e-01	 1.857793000461968e+00	 3.844849224471439e+00
 2.363752012022729e-01	 1.853740361196235e+00	 4.032674388203740e+00
 2.708182951192394e-01	 1.849022448076945e+00	 4.196845522792353e+00
 3.053804061765708e-01	 1.843629401473883e+00	 4.336305608663650e+00
 3.400434542091522e-01	 1.837551907211388e+00	 4.449131594018557e+00
 0.000000000000000e+00	 1.862500000000000e+00	 2.202167164565337e+00
 3.304304456860992e-02	 1.862206864772245e+00	 2.532635453694787e+00
 6.631401614403326e-02	 1.861319075618118e+00	 2.832416289069215e+00
 9.979917168823002e-02	 1.859824286142078e+00	 3.104916241190280e+00
 1.334841328384173e-01	 1.857710482359744e+00	 3.352927847039340e+00
 1.673538905817819e-01	 1.854966017287206e+00	 3.578576443091510e+00
 2.013928119332561e-01	 1.851579645945115e+00	 3.783270365773733e+00
 2.355846486877092e-01	 1.847540560656765e+00	 3.967655248284219e+00
 2.699125483106539e-01	 1.842838426511008e+00	 4.131573149208819e+00
 3.043590670234134e-01	 1.837463416852979e+00	 4.274027245740109e+00
 3.389061851296540e-01	 1.831406248658110e+00	 4.393152811759162e+00
 0.000000000000000e+00	 1.856250000000000e+00	 2.224038167503340e+00
 3.293216186834892e-02	 1.855957848447503e+00	 2.533042709178708e+00
 6.609148588783161e-02	 1.855073038451605e+00	 2.814218205237506e+00
 9.946427513798656e-02	 1.853583265047620e+00	 3.071037788201174e+00
 1.330361995055717e-01	 1.851476554566552e+00	 3.306360099842782e+00
 1.667923003435897e-01	 1.848741299108329e+00	 3.522375952702376e+00
 2.007169971266555e-01	 1.845366291428433e+00	 3.720558323646469e+00
 2.347940961738178e-01	 1.841340760117528e+00	 3.901616405364838e+00
 2.690068015027193e-01	 1.836654404945377e+00	 4.065454448417865e+00
 3.033377278708546e-01	 1.831297432232467e+00	 4.211136124070504e+00
 3.377689160506706e-01	 1.825260590105317e+00	 4.336855125949191e+00
 0.000000000000000e+00	 1.850000000000000e+00	 2.245309124599862e+00
 3.282127916826744e-02	 1.849708832122766e+00	 2.532619457315461e+00
 6.586895563196224e-02	 1.848827001285110e+00	 2.795013722693395e+00
 9.912937858820077e-02	 1.847342243953204e+00	 3.036032942489858e+00
 1.325882661732810e-01	 1.845242626773435e+00	 3.258603045942770e+00
 1.662307101060210e-01	 1.842516580929570e+00	 3.464981348756325e+00
 2.000411823207176e-01	 1.839152936911922e+00	 3.656706329083117e+00
 2.340035436605982e-01	 1.835140959578525e+00	 3.834551423474541e+00
 2.681010546954355e-01	 1.830470383380053e+00	 3.998483572682762e+00
 3.023163887188944e-01	 1.825131447612345e+00	 4.147627245093211e+00
 3.366316469722018e-01	 1.819114931553009e+00	 4.280234653691263e+00
 0.000000000000000e+00	 1.843750000000000e+00	 2.265976237394579e+00
 3.271039646836550e-02	 1.843459815798034e+00	 2.531360817250677e+00
 6.564642537642516e-02	 1.842580964118634e+00	 2.774797100663718e+00
 9.879448203887262e-02	 1.841101222858830e+00	 2.999895332364620e+00
 1.321403328415453e-01	 1.839008698980392e+00	 3.209649918184253e+00
 1.656691198690758e-01	 1.836291862750929e+00	 3.406385710456227e+00
 1.993653675154424e-01	 1.832939582395581e+00	 3.591707555725165e+00
 2.332129911480509e-01	 1.828941159039756e+00	 3.766453824902222e+00
 2.671953078888027e-01	 1.824286361815036e+00	 3.930654653127374e+00
 3.012950495675327e-01	 1.818965462992614e+00	 4.083495614755028e+00
 3.354943778942477e-01	 1.812969273001186e+00	 4.223287547343274e+00
 0.000000000000000e+00	 1.837500000000000e+00	 2.286035655747192e+00
 3.259951376864308e-02	 1.837210799473307e+00	 2.529261843689577e+00
 6.542389512122038e-02	 1.836334926952176e+00	 2.753562525695250e+00
 9.845958549000217e-02	 1.834860201764497e+00	 2.962618509845187e+00
 1.316923995103645e-01	 1.832774771187425e+00	 3.159493874249415e+00
 1.651075296327542e-01	 1.830067144572405e+00	 3.346582047799790e+00
 1.986895527108301e-01	 1.826726227879411e+00	 3.525555118886483e+00
 2.324224386361756e-01	 1.822741358501219e+00	 3.697317089488147e+00
 2.662895610828208e-01	 1.818102340250326e+00	 3.861961799376454e+00
 3.002737104167698e-01	 1.812799478373273e+00	 4.018736243587279e+00
 3.343571088168084e-01	 1.806823614449849e+00	 4.166009995118123e+00
 0.000000000000000e+00	 1.831250000000000e+00	 2.305483476955888e+00
 3.248863106910016e-02	 1.830961783148583e+00	 2.526317525796563e+00
 6.520136486634792e-02	 1.830088889785737e+00	 2.731304110414097e+00
 9.812468894158934e-02	 1.828619180670207e+00	 2.924195949360213e+00
 1.312444661797386e-01	 1.826540843394533e+00	 3.108127995374764e+00
 1.645459393970560e-01	 1.823842426393999e+00	 3.285563300398914e+00
 1.980137379068805e-01	 1.820512873363410e+00	 3.458242074557853e+00
 2.316318861249724e-01	 1.816541557962917e+00	 3.627134653898421e+00
 2.653838142774897e-01	 1.811918318685923e+00	 3.792399099188720e+00
 2.992523712666053e-01	 1.806633493754324e+00	 3.953344146785000e+00
 3.332198397398836e-01	 1.800677955898998e+00	 4.108398221695462e+00
 0.000000000000000e+00	 1.825000000000000e+00	 2.324315744857013e+00
 3.237774836973679e-02	 1.824712766823865e+00	 2.522522786074651e+00
 6.497883461180776e-02	 1.823842852619316e+00	 2.708015892259967e+00
 9.778979239363414e-02	 1.822378159575957e+00	 2.884621046419016e+00
 1.307965328496677e-01	 1.820306915601714e+00	 3.055545285043060e+00
 1.639843491619814e-01	 1.817617708215711e+00	 3.223322336273727e+00
 1.973379231035937e-01	 1.814299518847581e+00	 3.389761418392214e+00
 2.308413336144414e-01	 1.810341757424848e+00	 3.555899910886387e+00
 2.644780674728095e-01	 1.805734297121827e+00	 3.721960618082546e+00
 2.982310321170395e-01	 1.800467509135765e+00	 3.887314344285969e+00
 3.320825706634735e-01	 1.794532297348631e+00	 4.050448488846270e+00
 0.000000000000000e+00	 1.818750000000000e+00	 2.342528448906871e+00
 3.226686567055295e-02	 1.818463750499151e+00	 2.517872479217948e+00
 6.475630435759988e-02	 1.817596815452913e+00	 2.683691832194210e+00
 9.745489584613659e-02	 1.816137138481750e+00	 2.843887116255162e+00
 1.303485995201517e-01	 1.814072987808971e+00	 3.001738667645971e+00
 1.634227589275303e-01	 1.811392990037540e+00	 3.159851950623186e+00
 1.966621083009697e-01	 1.808086164331922e+00	 3.320106084666079e+00
 2.300507811045823e-01	 1.804141956887012e+00	 3.483606208537715e+00
 2.635723206687802e-01	 1.799550275558037e+00	 3.650640398953444e+00
 2.972096929680723e-01	 1.794301524517597e+00	 3.820641860852539e+00
 3.309453015875781e-01	 1.788386638798750e+00	 3.992157096069728e+00
 0.000000000000000e+00	 1.812500000000000e+00	 2.360117523244082e+00
 3.215598297154861e-02	 1.812214734174441e+00	 2.512361390944309e+00
 6.453377410372427e-02	 1.811350778286528e+00	 2.658325813381692e+00
 9.711999929909672e-02	 1.809896117387584e+00	 2.801987392443301e+00
 1.299006661911906e-01	 1.807839060016302e+00	 2.946700987121724e+00
 1.628611686937027e-01	 1.805168271859486e+00	 3.095144864568940e+00
 1.959862934990084e-01	 1.801872809816433e+00	 3.249268945223162e+00
 2.292602285953954e-01	 1.797942156349410e+00	 3.410246849500892e+00
 2.626665738654017e-01	 1.793366253994554e+00	 3.578432461684533e+00
 2.961883538197036e-01	 1.788135539899820e+00	 3.753321726154913e+00
 3.298080325121973e-01	 1.782240980249354e+00	 3.933520381244380e+00
 3.411807232891650e-01	 1.843697565765152e+00	 4.504795390292403e+00
 3.760422934087836e-01	 1.836904237834347e+00	 4.621978899610752e+00
 4.109672320860102e-01	 1.829407248758954e+00	 4.784671258795939e+00
 4.459357761709229e-01	 1.821199104824319e+00	 4.989130175011693e+00
 4.809276675664804e-01	 1.812272997718727e+00	 5.230446443937877e+00
 5.159221802664901e-01	 1.802622837159869e+00	 5.502544446891538e+00
 5.508981496959874e-01	 1.792243282413446e+00	 5.798193357803185e+00
 5.858340043156527e-01	 1.781129772527895e+00	 6.109029492909443e+00
 6.207077994373560e-01	 1.769278555109062e+00	 6.425590130702365e+00
 6.554972531830644e-01	 1.756686713459785e+00	 6.644431535408151e+00
 6.901797845043331e-01	 1.743352191911899e+00	 6.827017716069832e+00
 3.400434542091522e-01	 1.837551907211388e+00	 4.449131594018557e+00
 3.747888190953449e-01	 1.830781223706806e+00	 4.573461526720996e+00
 4.095973413105659e-01	 1.823309224594859e+00	 4.741805175157132e+00
 4.444493235820585e-01	 1.815128441139940e+00	 4.950480530650475e+00
 4.793245753397701e-01	 1.806232087724712e+00	 5.194653450267889e+00
 5.142024396641954e-01	 1.796614094367805e+00	 5.468338128284786e+00
 5.490618225289512e-01	 1.786269138137370e+00	 5.764408154654242e+00
 5.838812242998481e-01	 1.775192673285019e+00	 6.074618588612894e+00
 6.186387734377163e-01	 1.763380959924576e+00	 6.389639371400976e+00
 6.533122623374487e-01	 1.750831091081206e+00	 6.612580225425451e+00
 6.878791852207612e-01	 1.737541017938971e+00	 6.793368438534312e+00
 3.389061851296540e-01	 1.831406248658110e+00	 4.393152811759162e+00
 3.735353447823303e-01	 1.824658209579837e+00	 4.524750364559060e+00
 4.082274505354737e-01	 1.817211200431391e+00	 4.698892088859964e+00
 4.429628709934931e-01	 1.809057777456219e+00	 4.911955571475344e+00
 4.777214831133256e-01	 1.800191177731354e+00	 5.159180893354741e+00
 5.124826990621523e-01	 1.790605351576369e+00	 5.434671075093477e+00
 5.472254953621729e-01	 1.780294993861863e+00	 5.731402987636176e+00
 5.819284442843287e-01	 1.769255574042621e+00	 6.041249151624753e+00
 6.165697474384090e-01	 1.757483364740447e+00	 6.355010745836065e+00
 6.511272714922334e-01	 1.744975468702831e+00	 6.582338076987524e+00
 6.855785859376787e-01	 1.731729843966064e+00	 6.761513756341772e+00
 3.377689160506706e-01	 1.825260590105317e+00	 4.336855125949191e+00
 3.722818704697395e-01	 1.818535195453438e+00	 4.475840509609839e+00
 4.068575597607331e-01	 1.811113176268553e+00	 4.655926039082246e+00
 4.414764184052267e-01	 1.802987113773156e+00	 4.873548211504007e+00
 4.761183908871466e-01	 1.794150267738654e+00	 5.124020498200482e+00
 5.107629584603612e-01	 1.784596608785562e+00	 5.401533763934430e+00
 5.453891681956532e-01	 1.774320849586926e+00	 5.699167030581095e+00
 5.799756642690940e-01	 1.763318474800700e+00	 6.008909004033572e+00
 6.145007214394339e-01	 1.751585769556675e+00	 6.321690681292962e+00
 6.489422806474183e-01	 1.739119846324661e+00	 6.553702620421594e+00
 6.832779866550860e-01	 1.725918669993177e+00	 6.731450985686727e+00
 3.366316469722018e-01	 1.819114931553009e+00	 4.280234653691263e+00
 3.710283961575729e-01	 1.812412181327611e+00	 4.426727096718293e+00
 4.054876689863449e-01	 1.805015152106344e+00	 4.612901107499297e+00
 4.399899658172595e-01	 1.796916450090752e+00	 4.835251411835833e+00
 4.745152986612334e-01	 1.788109357746613e+00	 5.089164041918476e+00
 5.090432178588219e-01	 1.778587865995384e+00	 5.368916729010706e+00
 5.435528410293914e-01	 1.768346705312556e+00	 5.667689520822653e+00
 5.780228842541444e-01	 1.757381375559260e+00	 5.977586037782896e+00
 6.124316954407908e-01	 1.745688174373260e+00	 6.289665681698372e+00
 6.467572898030038e-01	 1.733264223946696e+00	 6.526671469909873e+00
 6.809773873729831e-01	 1.720107496020311e+00	 6.703177534251340e+00
 3.354943778942477e-01	 1.812969273001186e+00	 4.223287547343274e+00
 3.697749218458301e-01	 1.806289167202354e+00	 4.377405299739507e+00
 4.041177782123087e-01	 1.798917127944764e+00	 4.569811419004644e+00
 4.385035132295913e-01	 1.790845786409005e+00	 4.797058181450007e+00
 4.729122064355858e-01	 1.782068447755230e+00	 5.054603354617285e+00
 5.073234772575347e-01	 1.772579123205833e+00	 5.336810563086886e+00
 5.417165138633878e-01	 1.762372561038756e+00	 5.636959760272311e+00
 5.760701042394794e-01	 1.751444276318296e+00	 5.947268215855608e+00
 6.103626694424802e-01	 1.739790579190203e+00	 6.258922328919686e+00
 6.445722989589900e-01	 1.727408601568936e+00	 6.501242324910424e+00
 6.786767880913700e-01	 1.714296322047465e+00	 6.676690902755834e+00
 3.343571088168084e-01	 1.806823614449849e+00	 4.166009995118123e+00
 3.685214475345115e-01	 1.800166153077670e+00	 4.327870332201710e+00
 4.027478874386242e-01	 1.792819103783813e+00	 4.526651142444622e+00
 4.370170606422223e-01	 1.784775122727918e+00	 4.758961578019683e+00
 4.713091142102037e-01	 1.776027537764505e+00	 5.020330320301531e+00
 5.056037366564993e-01	 1.766570380416912e+00	 5.305205918485142e+00
 5.398801866976425e-01	 1.756398416765523e+00	 5.606967116517725e+00
 5.741173242250993e-01	 1.745507177077811e+00	 5.917943573481406e+00
 6.082936434445017e-01	 1.733892984007502e+00	 6.229447284090264e+00
 6.423873081153761e-01	 1.721552979191380e+00	 6.477412971607732e+00
 6.763761888102465e-01	 1.708485148074641e+00	 6.651988686540678e+00
 3.332198397398836e-01	 1.800677955898998e+00	 4.108398221695462e+00
 3.672679732236167e-01	 1.794043138953557e+00	 4.278117447983888e+00
 4.013779966652921e-01	 1.786721079623492e+00	 4.483414491368542e+00
 4.355306080551524e-01	 1.778704459047488e+00	 4.720954708743117e+00
 4.697060219850872e-01	 1.769986627774439e+00	 4.986336877791616e+00
 5.038839960557157e-01	 1.760561637628618e+00	 5.274093508102298e+00
 5.380438595321555e-01	 1.750424272492860e+00	 5.577701023943409e+00
 5.721645442110040e-01	 1.739570077837804e+00	 5.889600219370602e+00
 6.062246174468552e-01	 1.727995388825158e+00	 6.201227288962270e+00
 6.402023172721628e-01	 1.715697356814028e+00	 6.455181284392321e+00
 6.740755895296129e-01	 1.702673974101836e+00	 6.629068577181657e+00
 3.320825706634735e-01	 1.794532297348631e+00	 4.050448488846270e+00
 3.660144989131459e-01	 1.787920124830015e+00	 4.228141942006141e+00
 4.000081058923117e-01	 1.780623055463799e+00	 4.440095724794186e+00
 4.340441554683817e-01	 1.772633795367717e+00	 4.683030731191479e+00
 4.681029297602363e-01	 1.763945717785030e+00	 4.952615021662663e+00
 5.021642554551839e-01	 1.754552894840953e+00	 5.243464106445943e+00
 5.362075323669266e-01	 1.744450128220765e+00	 5.549150984874313e+00
 5.702117641971940e-01	 1.733632978598276e+00	 5.862226336971369e+00
 6.041555914495410e-01	 1.722097793643172e+00	 6.174249167286895e+00
 6.380173264293501e-01	 1.709841734436881e+00	 6.434545227371556e+00
 6.717749902494689e-01	 1.696862800129052e+00	 6.607928364137372e+00
 3.309453015875781e-01	 1.788386638798750e+00	 3.992157096069728e+00
 3.647610246030992e-01	 1.781797110707044e+00	 4.177939150935424e+00
 3.986382151196835e-01	 1.774525031304736e+00	 4.396689147989337e+00
 4.325577028819100e-01	 1.766563131688604e+00	 4.645182854174345e+00
 4.664998375356511e-01	 1.757904807796280e+00	 4.919156803202089e+00
 5.004445148549043e-01	 1.748544152053917e+00	 5.213308550693958e+00
 5.343712052019559e-01	 1.738475983949239e+00	 5.521306570743656e+00
 5.682589841836686e-01	 1.727695879359226e+00	 5.835810185754681e+00
 6.020865654525590e-01	 1.716200198461543e+00	 6.148499826223610e+00
 6.358323355869375e-01	 1.703986112059939e+00	 6.415502855910868e+00
 6.694743909698143e-01	 1.691051626156288e+00	 6.588565936431237e+00
 3.298080325121973e-01	 1.782240980249354e+00	 3.933520381244380e+00
 3.635075502934763e-01	 1.775674096584645e+00	 4.127504453904904e+00
 3.972683243474071e-01	 1.768427007146301e+00	 4.353189113268493e+00
 4.310712502957372e-01	 1.760492468010148e+00	 4.607404338623541e+00
 4.648967453113315e-01	 1.751863897808187e+00	 4.885954331387871e+00
 4.987247742548762e-01	 1.742535409267508e+00	 5.183617741774755e+00
 5.325348780372434e-01	 1.732501839678281e+00	 5.494157423283940e+00
 5.663062041704281e-01	 1.721758780120654e+00	 5.810340102524462e+00
 6.000175394559092e-01	 1.710302603280270e+00	 6.123966257778032e+00
 6.336473447449253e-01	 1.698130489683200e+00	 6.398052318207156e+00
 6.671737916906499e-01	 1.685240452183546e+00	 6.570979284367802e+00
 6.901797845043331e-01	 1.743352191911899e+00	 6.827017716069828e+00
 7.247316448306619e-01	 1.729274183908636e+00	 7.140948075300150e+00
 7.591306312953636e-01	 1.714452090769837e+00	 7.468559189451820e+00
 7.933535122707360e-01	 1.698886571816269e+00	 7.802835856267835e+00
 8.273769275401210e-01	 1.682579227343848e+00	 8.136485413250790e+00
 8.611774348605369e-01	 1.665532612514361e+00	 8.461987513258293e+00
 8.947315577813513e-01	 1.647750248535261e+00	 8.771647544281695e+00
 9.280158345380317e-01	 1.629236631013145e+00	 9.057653295706308e+00
 9.610068678287497e-01	 1.609997235379079e+00	 9.312134421013457e+00
 9.936813752715054e-01	 1.590038519298751e+00	 9.527224198561026e+00
 1.026016240330579e+00	 1.569367921996219e+00	 9.695123048725662e+00
 6.878791852207612e-01	 1.737541017938971e+00	 6.793368438534310e+00
 7.223158726791483e-01	 1.723509936629577e+00	 7.110316115088443e+00
 7.566001958555753e-01	 1.708737250468417e+00	 7.439674785163156e+00
 7.907090005610981e-01	 1.693223616578518e+00	 7.774514712813350e+00
 8.246190044464506e-01	 1.676970629921480e+00	 8.107636622195418e+00
 8.583068434094616e-01	 1.659980837141881e+00	 8.431621018545973e+00
 8.917491192543356e-01	 1.642257747709816e+00	 8.738881090195436e+00
 9.249224484224225e-01	 1.623805842246526e+00	 9.021718796982668e+00
 9.578035116029011e-01	 1.604630577931640e+00	 9.272383698815199e+00
 9.903691040217116e-01	 1.584738390905293e+00	 9.483134030500041e+00
 1.022596186198255e+00	 1.564136695594130e+00	 9.646299486274597e+00
 6.855785859376787e-01	 1.731729843966064e+00	 6.761513756341772e+00
 7.199001005282104e-01	 1.717745689350349e+00	 7.081592194332333e+00
 7.540697604164183e-01	 1.703022410166654e+00	 7.412805848627155e+00
 7.880644888521199e-01	 1.687560661340274e+00	 7.748309598105939e+00
 8.218610813534380e-01	 1.671362032498485e+00	 8.080996690719243e+00
 8.554362519590126e-01	 1.654429061768660e+00	 8.403547614669675e+00
 8.887666807278841e-01	 1.636765246883538e+00	 8.708482487728062e+00
 9.218290623072853e-01	 1.618375053479001e+00	 8.988216573081226e+00
 9.546001553774011e-01	 1.599263920483244e+00	 9.235118479198611e+00
 9.870568327721125e-01	 1.579438262510845e+00	 9.441570554292346e+00
 1.019176132065940e+00	 1.558905469191040e+00	 9.600030943897432e+00
 6.832779866550860e-01	 1.725918669993177e+00	 6.731450985686727e+00
 7.174843283778478e-01	 1.711981442070950e+00	 7.054772640501777e+00
 7.515393249778939e-01	 1.697307569864550e+00	 7.387947621272371e+00
 7.854199771438017e-01	 1.681897706101535e+00	 7.724214573036315e+00
 8.191031582610834e-01	 1.665753435074863e+00	 8.056558407829238e+00
 8.525656605091895e-01	 1.648877286394700e+00	 8.377758730877391e+00
 8.857842422019967e-01	 1.631272746056426e+00	 8.680441722271665e+00
 9.187356761926200e-01	 1.612944264710570e+00	 8.957135085509266e+00
 9.513967991522503e-01	 1.593897263033889e+00	 9.200325624101728e+00
 9.837445615227091e-01	 1.574138134115408e+00	 9.402518961222428e+00
 1.015756077933636e+00	 1.553674242786951e+00	 9.556300875976369e+00
 6.809773873729831e-01	 1.720107496020311e+00	 6.703177534251338e+00
 7.150685562280603e-01	 1.706217194791381e+00	 7.029853869955277e+00
 7.490088895400016e-01	 1.691592729562104e+00	 7.365095429694623e+00
 7.827754654361430e-01	 1.676234750862302e+00	 7.702223778812968e+00
 8.163452351693864e-01	 1.660144837650613e+00	 8.034314636869704e+00
 8.496950690599924e-01	 1.643325511019999e+00	 8.354245863642470e+00
 8.828018036766733e-01	 1.625780245228481e+00	 8.654748838200543e+00
 9.156422900784257e-01	 1.607513475941233e+00	 8.928462845389035e+00
 9.481934429274476e-01	 1.588530605583575e+00	 9.167992034593411e+00
 9.804322902735002e-01	 1.568838005718982e+00	 9.365964470114868e+00
 1.012336023801343e+00	 1.548443016381862e+00	 9.515092751751720e+00
 6.786767880913700e-01	 1.714296322047465e+00	 6.676690902755832e+00
 7.126527840788484e-01	 1.700452947511643e+00	 7.006832389445854e+00
 7.464784541027416e-01	 1.685877889259318e+00	 7.344244687099840e+00
 7.801309537291443e-01	 1.670571795622575e+00	 7.682331438323427e+00
 8.135873120783472e-01	 1.654536240225737e+00	 8.014258316782051e+00
 8.468244776114211e-01	 1.637773735644558e+00	 8.333000577801922e+00
 8.798193651519139e-01	 1.620287744399703e+00	 8.631393939870778e+00
 9.125489039647033e-01	 1.602082687170990e+00	 8.902188414298262e+00
 9.449900867029940e-01	 1.583163948132304e+00	 9.138104651535704e+00
 9.771200190244870e-01	 1.563537877321566e+00	 9.331892327801576e+00
 1.008915969669060e+00	 1.543211789975772e+00	 9.476390055573255e+00
 6.763761888102465e-01	 1.708485148074641e+00	 6.651988686540678e+00
 7.102370119302122e-01	 1.694688700231734e+00	 6.985704797658387e+00
 7.439480186661138e-01	 1.680163048956188e+00	 7.325390894777527e+00
 7.774864420228054e-01	 1.664908840382354e+00	 7.664531857523583e+00
 8.108293889879660e-01	 1.648927642800234e+00	 7.996382463390668e+00
 8.439538861634761e-01	 1.632221960268377e+00	 8.314014507719417e+00
 8.768369266277182e-01	 1.614795243570092e+00	 8.610367192640382e+00
 9.094555178514526e-01	 1.596651898399842e+00	 8.878300405128741e+00
 9.417867304788894e-01	 1.577797290680074e+00	 9.110650456261657e+00
 9.738077477756689e-01	 1.558237748923161e+00	 9.300287809597640e+00
 1.005495915536788e+00	 1.537980563568683e+00	 9.440176287157218e+00
 6.740755895296129e-01	 1.702673974101836e+00	 6.629068577181657e+00
 7.078212397821509e-01	 1.688924452951656e+00	 6.966467786778868e+00
 7.414175832301181e-01	 1.674448208652717e+00	 7.308529643603816e+00
 7.748419303171262e-01	 1.659245885141639e+00	 7.648819426854868e+00
 8.080714658982426e-01	 1.643319045374103e+00	 7.980680170714775e+00
 8.410832947161568e-01	 1.626670184891456e+00	 8.297279358472258e+00
 8.738544881040869e-01	 1.609302742739647e+00	 8.591658823910583e+00
 9.063621317386739e-01	 1.591221109627787e+00	 8.856787482961535e+00
 9.385833742551332e-01	 1.572430633226886e+00	 9.085616471265345e+00
 9.704954765270456e-01	 1.552937620523766e+00	 9.271136219787657e+00
 1.002075861404526e+00	 1.532749337160594e+00	 9.406434961848960e+00
 6.717749902494689e-01	 1.696862800129052e+00	 6.607928364137372e+00
 7.054054676346654e-01	 1.683160205671407e+00	 6.949118144095015e+00
 7.388871477947546e-01	 1.668733368348905e+00	 7.293656615575167e+00
 7.721974186121067e-01	 1.653582929900429e+00	 7.635188622691116e+00
 8.053135428091769e-01	 1.637710447947345e+00	 7.967144612307592e+00
 8.382127032694637e-01	 1.621118409513795e+00	 8.282786907061340e+00
 8.708720495810195e-01	 1.603810241908370e+00	 8.575259124187660e+00
 9.032687456263666e-01	 1.585790320854827e+00	 8.837638365961105e+00
 9.353800180317260e-01	 1.567063975772741e+00	 9.062989760906818e+00
 9.671832052786176e-01	 1.547637492123382e+00	 9.244422892121461e+00
 9.986558072722751e-01	 1.527518110751505e+00	 9.375149610889901e+00
 6.694743909698143e-01	 1.691051626156288e+00	 6.588565936431237e+00
 7.029896954877551e-01	 1.677395958390988e+00	 6.933652753630240e+00
 7.363567123600233e-01	 1.663018528044751e+00	 7.280767585374352e+00
 7.695529069077470e-01	 1.647919974658726e+00	 7.623634008815538e+00
 8.025556197207688e-01	 1.632101850519960e+00	 7.955769042622443e+00
 8.353421118233962e-01	 1.615566634135393e+00	 8.270529003647590e+00
 8.678896110585161e-01	 1.598317741076259e+00	 8.561158448167710e+00
 9.001753595145310e-01	 1.580359532080960e+00	 8.820841826286978e+00
 9.321766618086674e-01	 1.561697318317637e+00	 9.042757432131243e+00
 9.638709340303847e-01	 1.542337363722008e+00	 9.220133190321109e+00
 9.952357531400349e-01	 1.522286884341415e+00	 9.346303781691551e+00
 6.671737916906499e-01	 1.685240452183546e+00	 6.570979284367800e+00
 7.005739233414201e-01	 1.671631711110399e+00	 6.920068597812103e+00
 7.338262769259241e-01	 1.657303687740254e+00	 7.269858421968468e+00
 7.669083952040473e-01	 1.642257019416528e+00	 7.614150237926890e+00
 7.997976966330189e-01	 1.626493253091949e+00	 7.946546798408089e+00
 8.324715203779550e-01	 1.610014858756251e+00	 8.260497572812989e+00
 8.649071725365766e-01	 1.592825240243314e+00	 8.549347215842946e+00
 8.970819734031671e-01	 1.574928743306188e+00	 8.806386691024787e+00
 9.289733055859576e-01	 1.556330660861575e+00	 9.024906635203839e+00
 9.605586627823469e-01	 1.537037235319645e+00	 9.198252508596671e+00
 9.918156990078052e-01	 1.517055657930326e+00	 9.319881038113044e+00
 1.026016240330579e+00	 1.569367921996219e+00	 9.695123048725662e+00
 1.057989361994650e+00	 1.547993332369669e+00	 9.972883348688738e+00
 1.089577268797566e+00	 1.525924681268023e+00	 1.022913166661082e+01
 1.120757647397943e+00	 1.503172317634914e+00	 1.045442497803723e+01
 1.151508554302674e+00	 1.479747537592415e+00	 1.063947890295966e+01
 1.181808465769633e+00	 1.455662567876546e+00	 1.077523898215324e+01
 1.211636326811076e+00	 1.430930546135140e+00	 1.085295087125598e+01
 1.240971599068487e+00	 1.405565498146131e+00	 1.086422875860372e+01
 1.269794307334019e+00	 1.379582312033407e+00	 1.094275456491227e+01
 1.298085084499885e+00	 1.352996709576064e+00	 1.106623154883426e+01
 1.325825214725000e+00	 1.325825214725000e+00	 1.118417829539929e+01
 1.022596186198255e+00	 1.564136695594130e+00	 9.646299486274600e+00
 1.054462730791121e+00	 1.542833354600007e+00	 9.926011366446842e+00
 1.085945344572255e+00	 1.520838265669017e+00	 1.018648157258698e+01
 1.117021788578076e+00	 1.498161743248312e+00	 1.041837433948891e+01
 1.147670192460452e+00	 1.474815045806225e+00	 1.061250451488888e+01
 1.177869104223064e+00	 1.450810359322990e+00	 1.075990802293564e+01
 1.207597539061459e+00	 1.426160777654281e+00	 1.085191128861563e+01
 1.236835027078316e+00	 1.400880279825436e+00	 1.088019893692250e+01
 1.265561659649815e+00	 1.374983704333264e+00	 1.094612768559062e+01
 1.293758134225192e+00	 1.348486720550931e+00	 1.108161893925520e+01
 1.321405797349500e+00	 1.321405797349500e+00	 1.121328770864838e+01
 1.019176132065940e+00	 1.558905469191040e+00	 9.600030943897432e+00
 1.050936099587412e+00	 1.537673376829346e+00	 9.881811931116768e+00
 1.082313420346593e+00	 1.515751850069011e+00	 1.014662337509289e+01
 1.113285929757706e+00	 1.493151168860709e+00	 1.038523590366676e+01
 1.143831830617597e+00	 1.469882554019036e+00	 1.058856272671435e+01
 1.173929742675749e+00	 1.445958150768435e+00	 1.074772929232206e+01
 1.203558751311006e+00	 1.421391009172421e+00	 1.085414194711041e+01
 1.232698455087238e+00	 1.396195061503740e+00	 1.089955492222077e+01
 1.261329011964651e+00	 1.370385096632121e+00	 1.095408837368923e+01
 1.289431183949509e+00	 1.343976731524799e+00	 1.110163367082816e+01
 1.316986379973000e+00	 1.316986379973000e+00	 1.124707767029236e+01
 1.015756077933636e+00	 1.553674242786951e+00	 9.556300875976369e+00
 1.047409468383523e+00	 1.532513399057684e+00	 9.840267737880994e+00
 1.078681496120580e+00	 1.510665434468004e+00	 1.010953911824442e+01
 1.109550070936834e+00	 1.488140594472108e+00	 1.035499117575231e+01
 1.139993468774107e+00	 1.464950062230846e+00	 1.056763462052699e+01
 1.169990381127689e+00	 1.441105942212880e+00	 1.073868356855479e+01
 1.199519963559716e+00	 1.416621240689562e+00	 1.085962344343821e+01
 1.228561883095251e+00	 1.391509843181044e+00	 1.092227725466203e+01
 1.257096364278528e+00	 1.365786488929978e+00	 1.096667593557999e+01
 1.285104233672836e+00	 1.339466742497667e+00	 1.112631659309909e+01
 1.312566962595500e+00	 1.312566962595500e+00	 1.128559057948274e+01
 1.012336023801343e+00	 1.548443016381862e+00	 9.515092751751721e+00
 1.043882837179454e+00	 1.527353421285021e+00	 9.801361497061585e+00
 1.075049571894217e+00	 1.505579018865997e+00	 1.007521086273986e+01
 1.105814212115461e+00	 1.483130020082505e+00	 1.032762168011831e+01
 1.136155106929983e+00	 1.460017570441656e+00	 1.054970130138373e+01
 1.166051019578884e+00	 1.436253733656324e+00	 1.073275165778005e+01
 1.195481175807588e+00	 1.411851472205702e+00	 1.086833640829704e+01
 1.224425311102357e+00	 1.386824624857349e+00	 1.094834651565531e+01
 1.252863716591447e+00	 1.361187881226836e+00	 1.098392972726404e+01
 1.280777283395173e+00	 1.334956753469534e+00	 1.115570861475168e+01
 1.308147545217000e+00	 1.308147545217000e+00	 1.132886890512399e+01
 1.008915969669060e+00	 1.543211789975772e+00	 9.476390055573255e+00
 1.040356205975206e+00	 1.522193443511359e+00	 9.765075934376149e+00
 1.071417647667503e+00	 1.500492603262991e+00	 1.004362068614122e+01
 1.102078353293585e+00	 1.478119445691903e+00	 1.030310896065412e+01
 1.132316745085227e+00	 1.455085078651467e+00	 1.053474389769607e+01
 1.162111658029334e+00	 1.431401525098769e+00	 1.072991439452039e+01
 1.191442388054624e+00	 1.407081703720842e+00	 1.088026150696041e+01
 1.220288739108554e+00	 1.382139406532654e+00	 1.097774332855420e+01
 1.248631068903406e+00	 1.356589273522693e+00	 1.101469770158038e+01
 1.276450333116521e+00	 1.330446764440402e+00	 1.118985070460992e+01
 1.303728127837500e+00	 1.303728127837500e+00	 1.137695518705543e+01
 1.005495915536788e+00	 1.537980563568683e+00	 9.440176287157218e+00
 1.036829574770778e+00	 1.517033465736698e+00	 9.731393791200706e+00
 1.067785723440438e+00	 1.495406187658984e+00	 1.001475068316133e+01
 1.098342494471207e+00	 1.473108871300301e+00	 1.028143458109744e+01
 1.128478383239836e+00	 1.450152586860278e+00	 1.052274356162805e+01
 1.158172296479038e+00	 1.426549316540213e+00	 1.073015264215770e+01
 1.187403600300823e+00	 1.402311935234983e+00	 1.089537943986626e+01
 1.216152167113843e+00	 1.377454188206958e+00	 1.101044835937042e+01
 1.244398421214406e+00	 1.351990665817550e+00	 1.106775267010008e+01
 1.272123382836879e+00	 1.325936775410270e+00	 1.122878389266092e+01
 1.299308710457000e+00	 1.299308710457000e+00	 1.142989203725819e+01
 1.002075861404526e+00	 1.532749337160594e+00	 9.406434961848960e+00
 1.033302943566170e+00	 1.511873487961036e+00	 9.700297824835934e+00
 1.064153799213022e+00	 1.490319772053978e+00	 9.988582965956043e+00
 1.094606635648326e+00	 1.468098296907699e+00	 1.026258012537315e+01
 1.124640021393811e+00	 1.445220095068088e+00	 1.051368146950074e+01
 1.154232934927997e+00	 1.421697107980658e+00	 1.073344729342545e+01
 1.183364812546185e+00	 1.397542166748123e+00	 1.091367094321637e+01
 1.212015595118223e+00	 1.372768969880262e+00	 1.104644231750131e+01
 1.240165773524446e+00	 1.347392058111406e+00	 1.112420931644902e+01
 1.267796432556247e+00	 1.321426786379137e+00	 1.127254927109865e+01
 1.294889293075500e+00	 1.294889293075500e+00	 1.148772214108565e+01
 9.986558072722751e-01	 1.527518110751505e+00	 9.375149610889901e+00
 1.029776312361383e+00	 1.506713510184374e+00	 9.671770808780188e+00
 1.060521874985256e+00	 1.485233356447971e+00	 9.965099664423040e+00
 1.090870776824944e+00	 1.463087722514097e+00	 1.024652719793892e+01
 1.120801659547154e+00	 1.440287603274899e+00	 1.050753882220661e+01
 1.150293573376211e+00	 1.416844899420103e+00	 1.073977927091130e+01
 1.179326024790711e+00	 1.392772398260263e+00	 1.093511678958901e+01
 1.207879023121696e+00	 1.368083751552567e+00	 1.108570595647308e+01
 1.235933125833528e+00	 1.342793450404263e+00	 1.118404850832919e+01
 1.263469482274626e+00	 1.316916797347005e+00	 1.132118799538892e+01
 1.290469875693000e+00	 1.290469875693000e+00	 1.155048825852037e+01
 9.952357531400349e-01	 1.522286884341415e+00	 9.346303781691551e+00
 1.026249681156415e+00	 1.501553532406712e+00	 9.645795533008092e+00
 1.056889950757139e+00	 1.480146940840965e+00	 9.944282926506940e+00
 1.087134918001060e+00	 1.458077148119495e+00	 1.023325742413803e+01
 1.116963297699862e+00	 1.435355111480709e+00	 1.050429684563147e+01
 1.146354211823679e+00	 1.411992690858547e+00	 1.074912952757035e+01
 1.175287237034399e+00	 1.388002629771404e+00	 1.095969778856395e+01
 1.203742451124260e+00	 1.363398533223871e+00	 1.112822007469921e+01
 1.231700478141650e+00	 1.338194842696121e+00	 1.124725116745403e+01
 1.259142531992014e+00	 1.312406808313873e+00	 1.137474128535678e+01
 1.286050458309500e+00	 1.286050458309500e+00	 1.161823322545629e+01
 9.918156990078052e-01	 1.517055657930326e+00	 9.319881038113044e+00
 1.022723049951268e+00	 1.496393554628050e+00	 9.622354804254025e+00
 1.053258026528671e+00	 1.475060525232958e+00	 9.926114918510024e+00
 1.083399059176674e+00	 1.453066573723892e+00	 1.022275245055957e+01
 1.113124935851936e+00	 1.430422619685520e+00	 1.050393679108514e+01
 1.142414850270402e+00	 1.407140482295992e+00	 1.076147904724826e+01
 1.171248449277251e+00	 1.383232861281543e+00	 1.098739478736059e+01
 1.199605879125917e+00	 1.358713314894176e+00	 1.117396551625384e+01
 1.227467830448813e+00	 1.333596234986977e+00	 1.131379827047983e+01
 1.254815581708413e+00	 1.307896819279740e+00	 1.143325042629600e+01
 1.281631040925000e+00	 1.281631040925000e+00	 1.169099995500707e+01
 1.325825214725000e+00	 1.325825214725000e+00	 1.118417829539929e+01
 1.352996695754110e+00	 1.298085105561135e+00	 1.132796251705931e+01
 1.379582256908508e+00	 1.269794391397488e+00	 1.150186153091712e+01
 1.405565374500521e+00	 1.240971787756141e+00	 1.148560477321406e+01
 1.430930327038606e+00	 1.211636661364681e+00	 1.112503911656778e+01
 1.455662226709656e+00	 1.181808986991081e+00	 1.095772613796902e+01
 1.479747048068645e+00	 1.151509302496042e+00	 1.096592486376207e+01
 1.503171653821628e+00	 1.120758662313480e+00	 1.113220408161033e+01
 1.525923817606285e+00	 1.089578589577797e+00	 1.143953371167343e+01
 1.547992243692877e+00	 1.057991027122760e+00	 1.187136774890910e+01
 1.569366583547552e+00	 1.026018287581235e+00	 1.241171829023562e+01
 1.321405797349500e+00	 1.321405797349500e+00	 1.121328770864838e+01
 1.348486706775051e+00	 1.293758155216238e+00	 1.137302468371454e+01
 1.374983649392115e+00	 1.265561743433072e+00	 1.156260258258153e+01
 1.400880156591978e+00	 1.236835215137011e+00	 1.145115152406999e+01
 1.426160559288068e+00	 1.207597872499885e+00	 1.110249347001117e+01
 1.450810019293324e+00	 1.177869623707107e+00	 1.094630478317083e+01
 1.474814557914201e+00	 1.147670938159842e+00	 1.096497173644122e+01
 1.498161081647737e+00	 1.117022800110561e+00	 1.114118215019634e+01
 1.520837404886151e+00	 1.085946660949885e+00	 1.145801611615534e+01
 1.542832269552138e+00	 1.054464390368804e+00	 1.189902840112828e+01
 1.564135361606958e+00	 1.022598226624741e+00	 1.244832204702551e+01
 1.316986379973000e+00	 1.316986379973000e+00	 1.124707767029236e+01
 1.343976717794992e+00	 1.289431204870351e+00	 1.142280068056991e+01
 1.370385041874721e+00	 1.261329095467697e+00	 1.162809395037129e+01
 1.396194938682435e+00	 1.232698642516974e+00	 1.141586424746021e+01
 1.421390791536530e+00	 1.203559083634253e+00	 1.107927985392600e+01
 1.445957811875991e+00	 1.173930260422388e+00	 1.093436141771682e+01
 1.469882067758759e+00	 1.143832573823008e+00	 1.096362150353219e+01
 1.493150509472846e+00	 1.113286937907139e+00	 1.114986614832462e+01
 1.515750992165016e+00	 1.082314732321622e+00	 1.147628494139880e+01
 1.537672295410399e+00	 1.050937753614668e+00	 1.192653289200659e+01
 1.558904139665364e+00	 1.019178165668258e+00	 1.248480360346259e+01
 1.312566962595500e+00	 1.312566962595500e+00	 1.128559057948274e+01
 1.339466728813933e+00	 1.285104254523474e+00	 1.147733411233557e+01
 1.365786434356328e+00	 1.257096447501362e+00	 1.169838032156539e+01
 1.391509720771891e+00	 1.228562069896028e+00	 1.137968996770601e+01
 1.416621023783992e+00	 1.199520294767784e+00	 1.105534522821466e+01
 1.441105604457658e+00	 1.169990897136923e+00	 1.092184303543373e+01
 1.464949577602315e+00	 1.139994209485541e+00	 1.096182129322967e+01
 1.488139937296955e+00	 1.109551075703216e+00	 1.115820344056821e+01
 1.510664579442883e+00	 1.078682803693009e+00	 1.149428789138908e+01
 1.532512321267659e+00	 1.047411116860351e+00	 1.195382936845403e+01
 1.553672917722771e+00	 1.015758104711785e+00	 1.252111165282853e+01
 1.308147545217000e+00	 1.308147545217000e+00	 1.132886890512399e+01
 1.334956739831874e+00	 1.280777304175607e+00	 1.153666866051916e+01
 1.361187826836934e+00	 1.252863799534069e+00	 1.177350646675579e+01
 1.386824502860348e+00	 1.224425497274175e+00	 1.134257579841578e+01
 1.411851256030454e+00	 1.195481505900478e+00	 1.103063664749006e+01
 1.436253397038326e+00	 1.166051533850713e+00	 1.090869672972056e+01
 1.460017087444871e+00	 1.136155845147440e+00	 1.095951833759449e+01
 1.483129365120064e+00	 1.105815213498790e+00	 1.116614149908492e+01
 1.505578166719750e+00	 1.075050875064045e+00	 1.151197278083576e+01
 1.527352347123920e+00	 1.043884480105856e+00	 1.198086609066194e+01
 1.548441695779177e+00	 1.012338043755323e+00	 1.255719500365883e+01
 1.303728127837500e+00	 1.303728127837500e+00	 1.137695518705543e+01
 1.330446750848815e+00	 1.276450353826751e+00	 1.160084808472711e+01
 1.356589219316541e+00	 1.248631151565816e+00	 1.181026160290219e+01
 1.382139284947804e+00	 1.220288924651413e+00	 1.130446894399876e+01
 1.407081488275916e+00	 1.191442717032335e+00	 1.100510126268045e+01
 1.431401189617994e+00	 1.162112170563758e+00	 1.089486969523662e+01
 1.455084597286428e+00	 1.132317480808704e+00	 1.095665997431411e+01
 1.478118792942172e+00	 1.102079351293862e+00	 1.117362790544135e+01
 1.500491753995615e+00	 1.071418946434730e+00	 1.152928753704968e+01
 1.522192372979181e+00	 1.040357843351181e+00	 1.200759143402293e+01
 1.543210473834584e+00	 1.008917982798871e+00	 1.259300258169585e+01
 1.299308710457000e+00	 1.299308710457000e+00	 1.142989203725819e+01
 1.325936761864756e+00	 1.272123403476904e+00	 1.166991622399322e+01
 1.351990611795148e+00	 1.244398503596605e+00	 1.175735993780464e+01
 1.377454067034261e+00	 1.216152352027743e+00	 1.126531670120924e+01
 1.402311720520379e+00	 1.187403928163356e+00	 1.097868632266797e+01
 1.426548982196661e+00	 1.158172807276057e+00	 1.088030922962346e+01
 1.450152107126984e+00	 1.128479116469336e+00	 1.095319364849893e+01
 1.473108220763282e+00	 1.098343489088433e+00	 1.118061035247307e+01
 1.495405341270481e+00	 1.067787017805064e+00	 1.154618020185782e+01
 1.517032398833442e+00	 1.036831206596325e+00	 1.203395389108998e+01
 1.537979251888990e+00	 1.005497921842430e+00	 1.262848343188243e+01
 1.294889293075500e+00	 1.294889293075500e+00	 1.148772214108565e+01
 1.321426772879696e+00	 1.267796453126069e+00	 1.174391699813383e+01
 1.347392004272755e+00	 1.240165855626433e+00	 1.170317594660043e+01
 1.372768849119717e+00	 1.212015779403165e+00	 1.122506646072204e+01
 1.397541952763841e+00	 1.183365139293539e+00	 1.095133917595964e+01
 1.421696774774329e+00	 1.154233443987611e+00	 1.086496273526228e+01
 1.445219616966541e+00	 1.124640752129334e+00	 1.094906691451550e+01
 1.468097648583390e+00	 1.094607626882501e+00	 1.118703664618392e+01
 1.490318928544347e+00	 1.064155089175048e+00	 1.156259893355744e+01
 1.511872424686703e+00	 1.033304569841291e+00	 1.205990207357601e+01
 1.532748029942396e+00	 1.002077860886000e+00	 1.266358672039593e+01
 1.290469875693000e+00	 1.290469875693000e+00	 1.155048825852037e+01
 1.316916783893638e+00	 1.263469502774242e+00	 1.182289440913128e+01
 1.342793396749361e+00	 1.235933207655303e+00	 1.164765724472393e+01
 1.368083631204174e+00	 1.207879206777679e+00	 1.118366570874118e+01
 1.392772185006303e+00	 1.179326350422886e+00	 1.092300727239388e+01
 1.416844567350997e+00	 1.150294080698420e+00	 1.084877772106742e+01
 1.440287126805097e+00	 1.120802387788698e+00	 1.094422743785715e+01
 1.463087076402499e+00	 1.090871764676067e+00	 1.119285470768321e+01
 1.485232515817213e+00	 1.060523160544681e+00	 1.157849200891063e+01
 1.506712450538963e+00	 1.029777933086076e+00	 1.208538471439390e+01
 1.527516807994802e+00	 9.986577999295800e-01	 1.269826173672415e+01
 1.286050458309500e+00	 1.286050458309500e+00	 1.161823322545629e+01
 1.312406794906578e+00	 1.259142552421427e+00	 1.190689254254550e+01
 1.338194789224968e+00	 1.231700559683215e+00	 1.159075153827780e+01
 1.363398413287630e+00	 1.203742634151284e+00	 1.114106202864120e+01
 1.388002417247765e+00	 1.175287561551396e+00	 1.089363816488102e+01
 1.411992359926664e+00	 1.146354717408483e+00	 1.083170180431695e+01
 1.435354636642654e+00	 1.116964023447428e+00	 1.093862299705374e+01
 1.458076504220608e+00	 1.087135902469131e+00	 1.119801257516416e+01
 1.480146103089079e+00	 1.056891231913963e+00	 1.159380782517962e+01
 1.501552476390224e+00	 1.026251296330682e+00	 1.211035066973942e+01
 1.522285586046209e+00	 9.952377389731709e-01	 1.273245789578412e+01
 1.281631040925000e+00	 1.281631040925000e+00	 1.169099995500707e+01
 1.307896805918519e+00	 1.254815602067621e+00	 1.199595556895513e+01
 1.333596181699575e+00	 1.227467911710166e+00	 1.153240662559639e+01
 1.358713195370086e+00	 1.199606061523981e+00	 1.109720310264219e+01
 1.383232649488227e+00	 1.171248772679068e+00	 1.086317951118082e+01
 1.407140152501332e+00	 1.142415354117801e+00	 1.081368271252076e+01
 1.430422146479210e+00	 1.113125659105525e+00	 1.093220148562044e+01
 1.453065932037716e+00	 1.083400040261693e+00	 1.120245840592206e+01
 1.475059690359945e+00	 1.053259303282895e+00	 1.160849490220436e+01
 1.496392502240485e+00	 1.022724659575108e+00	 1.213474892121650e+01
 1.517054364096615e+00	 9.918176780167720e-01	 1.276612474008452e+01
 1.569366583547552e+00	 1.026018287581235e+00	 1.241171829023562e+01
 1.590037449218878e+00	 9.936830028181231e-01	 1.256335194914812e+01
 1.609996423529265e+00	 9.610080729276055e-01	 1.270733380327003e+01
 1.629236067070115e+00	 9.280166150276019e-01	 1.283772991276747e+01
 1.647749922018581e+00	 8.947319120812796e-01	 1.294954064290461e+01
 1.665532512813788e+00	 8.611773619687502e-01	 1.303869072831535e+01
 1.682579343746540e+00	 8.273764270281421e-01	 1.310201012070969e+01
 1.698886893533727e+00	 7.933525842772428e-01	 1.313720620267907e+01
 1.714452606964470e+00	 7.591292765180646e-01	 1.314282803410396e+01
 1.729274883719828e+00	 7.247298645165553e-01	 1.311822336874696e+01
 1.743353064481490e+00	 6.901775804384324e-01	 1.306348923634961e+01
 1.564135361606958e+00	 1.022598226624741e+00	 1.244832204702551e+01
 1.584737324392353e+00	 9.903707261431735e-01	 1.259135832086216e+01
 1.604629768787992e+00	 9.578047126847606e-01	 1.272789428746908e+01
 1.623805280183306e+00	 9.249232263103612e-01	 1.285199475319303e+01
 1.642257422281525e+00	 8.917494723732641e-01	 1.295864427663115e+01
 1.659980737773643e+00	 8.583067707606478e-01	 1.304373772453655e+01
 1.676970745936163e+00	 8.246185056028449e-01	 1.310406172241716e+01
 1.693223937223586e+00	 7.907080756609164e-01	 1.313726757344023e+01
 1.708737764942401e+00	 7.565988455942003e-01	 1.314183630220946e+01
 1.723510634108066e+00	 7.223140982994222e-01	 1.311703655033863e+01
 1.737541887599997e+00	 6.878769885017468e-01	 1.306287610792518e+01
 1.558904139665364e+00	 1.019178165668258e+00	 1.248480360346259e+01
 1.579437199564838e+00	 9.870584494684195e-01	 1.261935006798889e+01
 1.599263114045761e+00	 9.546013524422645e-01	 1.274853191630656e+01
 1.618374493295591e+00	 9.218298375935918e-01	 1.286641249538688e+01
 1.636764922543636e+00	 8.887670326658130e-01	 1.296796047493372e+01
 1.654428962732758e+00	 8.554361795531712e-01	 1.304904089200019e+01
 1.671362148125159e+00	 8.218605841782054e-01	 1.310639720067805e+01
 1.687560980912949e+00	 7.880635670452496e-01	 1.313762489148225e+01
 1.703022922919990e+00	 7.540684146709679e-01	 1.314113732712936e+01
 1.717746384496133e+00	 7.198983320828647e-01	 1.311612451105016e+01
 1.731730710718524e+00	 6.855763965655506e-01	 1.306250556160343e+01
 1.553672917722771e+00	 1.015758104711785e+00	 1.252111165282853e+01
 1.574137074736334e+00	 9.837461727938606e-01	 1.264727751594543e+01
 1.593896459302572e+00	 9.513979922001172e-01	 1.276919882965353e+01
 1.612943706406970e+00	 9.187364488772942e-01	 1.288093727175595e+01
 1.631272422804912e+00	 8.857845929589255e-01	 1.297744553593258e+01
 1.648877187691133e+00	 8.525655883463208e-01	 1.305455886217726e+01
 1.665753550313527e+00	 8.191026627542239e-01	 1.310897768181113e+01
 1.681898024601819e+00	 7.854190584302433e-01	 1.313824193276627e+01
 1.697308080897237e+00	 7.515379837483676e-01	 1.314069768203919e+01
 1.711982134884031e+00	 7.174825658668823e-01	 1.311545676114428e+01
 1.725919533837072e+00	 6.832758046298444e-01	 1.306235017647759e+01
 1.548441695779177e+00	 1.012338043755323e+00	 1.255719500365883e+01
 1.568836949906841e+00	 9.804338961194966e-01	 1.267509112007284e+01
 1.588529804558424e+00	 9.481946319583187e-01	 1.278984731248171e+01
 1.607512919517443e+00	 9.156430601614683e-01	 1.289552337545821e+01
 1.625779923065357e+00	 8.828021532526026e-01	 1.298705593459038e+01
 1.643325412648767e+00	 8.496949971400962e-01	 1.306025045987975e+01
 1.660144952501270e+00	 8.163447413309004e-01	 1.311176450234764e+01
 1.676235068290195e+00	 7.827745498158964e-01	 1.313908270067571e+01
 1.691593238874142e+00	 7.490075528263997e-01	 1.314048418504983e+01
 1.706217885271758e+00	 7.150667996514753e-01	 1.311500307360046e+01
 1.720108356955641e+00	 6.809752126946278e-01	 1.306238281237200e+01
 1.543210473834584e+00	 1.008917982798871e+00	 1.259300258169585e+01
 1.563536825076358e+00	 9.771216194453277e-01	 1.270274146783853e+01
 1.583163149813318e+00	 9.449912717168687e-01	 1.281042979732281e+01
 1.602082132627010e+00	 9.125496714461142e-01	 1.291012526312741e+01
 1.620287423324968e+00	 8.798197135468434e-01	 1.299674832570958e+01
 1.637773637605662e+00	 8.468244059344978e-01	 1.306607470653759e+01
 1.654536354688384e+00	 8.135868199082344e-01	 1.311471921259412e+01
 1.670572111978076e+00	 7.801300412022090e-01	 1.314011142987082e+01
 1.685878396850706e+00	 7.464771219050641e-01	 1.314046390335903e+01
 1.700453635659316e+00	 7.126510334366440e-01	 1.311473348856770e+01
 1.714297180074230e+00	 6.786746207599009e-01	 1.306257661460034e+01
 1.537979251888990e+00	 1.005497921842430e+00	 1.262848343188243e+01
 1.558236700244886e+00	 9.738093427713543e-01	 1.273017928108313e+01
 1.577796495067255e+00	 9.417879114757677e-01	 1.283089886677812e+01
 1.596651345735672e+00	 9.094562827312317e-01	 1.292469755765312e+01
 1.614794923583745e+00	 8.768372738416480e-01	 1.300647954699084e+01
 1.632221862561816e+00	 8.439538147295252e-01	 1.307199082354236e+01
 1.648927756874871e+00	 8.108288984862264e-01	 1.311780358026816e+01
 1.664909155665464e+00	 7.774855325891817e-01	 1.314129259022198e+01
 1.680163554826929e+00	 7.439466909843606e-01	 1.314060415748750e+01
 1.694689386046702e+00	 7.102352672223878e-01	 1.311461831790834e+01
 1.708486003192840e+00	 6.763740288256638e-01	 1.306290501882079e+01
 1.532748029942396e+00	 1.002077860886000e+00	 1.266358672039593e+01
 1.552936575412424e+00	 9.704970660975756e-01	 1.275735541831361e+01
 1.572429840320234e+00	 9.385845512350158e-01	 1.285120725607934e+01
 1.591220558843427e+00	 9.063628940168208e-01	 1.293919505101807e+01
 1.609302423841690e+00	 8.738548341370168e-01	 1.301620662215425e+01
 1.626670087517230e+00	 8.410832235251786e-01	 1.307795823565982e+01
 1.643319159060732e+00	 8.080709770648762e-01	 1.312097959420837e+01
 1.659246199352357e+00	 7.748410239768142e-01	 1.314259089082348e+01
 1.674448712802809e+00	 7.414162600642894e-01	 1.314087252560189e+01
 1.688925136433920e+00	 7.078195010087072e-01	 1.311462814983468e+01
 1.702674826311470e+00	 6.740734368919163e-01	 1.306334175599078e+01
 1.527516807994802e+00	 9.986577999295800e-01	 1.269826173672415e+01
 1.547636450578973e+00	 9.671847894239922e-01	 1.278422087704349e+01
 1.567063185572254e+00	 9.353811909946125e-01	 1.287130785570224e+01
 1.585789771950277e+00	 9.032695053028816e-01	 1.295357270719335e+01
 1.603809924098801e+00	 8.708723944329497e-01	 1.302588676412452e+01
 1.621118312471904e+00	 8.382126323214582e-01	 1.308393657451216e+01
 1.637710561245965e+00	 8.053130556441837e-01	 1.312420946816079e+01
 1.653583243038756e+00	 7.721965153651066e-01	 1.314397128408993e+01
 1.668733870778348e+00	 7.388858291448502e-01	 1.314123684792650e+01
 1.683160886820968e+00	 7.054037347956018e-01	 1.311473385364107e+01
 1.696863649430121e+00	 6.717728449586589e-01	 1.306386085742341e+01
 1.522285586046209e+00	 9.952377389731709e-01	 1.273245789578412e+01
 1.542336325744532e+00	 9.638725127506039e-01	 1.281072679618119e+01
 1.561696530823317e+00	 9.321778307545576e-01	 1.289115371403394e+01
 1.580358985056221e+00	 9.001761165894142e-01	 1.296778566509369e+01
 1.598317424355079e+00	 8.678899547294465e-01	 1.303547737828196e+01
 1.615566537425837e+00	 8.353420411183635e-01	 1.308988568213232e+01
 1.632101963430571e+00	 8.025551342241491e-01	 1.312745564464321e+01
 1.647920286724661e+00	 7.695520067540585e-01	 1.314539896993689e+01
 1.663019028753545e+00	 7.363553982260431e-01	 1.314166523124602e+01
 1.677396637207845e+00	 7.029879685830718e-01	 1.311490658453348e+01
 1.691052472548792e+00	 6.694722530258906e-01	 1.306443665994830e+01
 1.517054364096615e+00	 9.918176780167720e-01	 1.276612474008452e+01
 1.537036200909102e+00	 9.605602360774108e-01	 1.283682445846787e+01
 1.556329876073421e+00	 9.289744705148516e-01	 1.291069804009562e+01
 1.574928198161258e+00	 8.970827278764183e-01	 1.298178924159371e+01
 1.592824924610523e+00	 8.649075150265073e-01	 1.304493606578067e+01
 1.610014762379030e+00	 8.324714499158946e-01	 1.309576561459172e+01
 1.626493365614551e+00	 7.997972128047723e-01	 1.313068079888957e+01
 1.642257330410071e+00	 7.669074981436702e-01	 1.314683940004822e+01
 1.657304186728400e+00	 7.338249673078682e-01	 1.314212605350135e+01
 1.671632387594552e+00	 7.005722023711173e-01	 1.311511778855898e+01
 1.685241295667484e+00	 6.671716610936124e-01	 1.306504381117901e+01
 1.743353064481490e+00	 6.901775804384324e-01	 1.306348923634961e+01
 1.756687414457829e+00	 6.554954827093094e-01	 1.329639877459281e+01
 1.769279104464112e+00	 6.207064124565539e-01	 1.349765216512326e+01
 1.781130189706590e+00	 5.858329516733874e-01	 1.337845783802151e+01
 1.792243586428243e+00	 5.508973832317460e-01	 1.327939137010334e+01
 1.802623046577536e+00	 5.159216528584849e-01	 1.319680781602848e+01
 1.812273130669467e+00	 4.809273331721693e-01	 1.312717872322874e+01
 1.821199179011433e+00	 4.459355898632516e-01	 1.306712272110084e+01
 1.829407281468920e+00	 4.109671500854201e-01	 1.301343314573543e+01
 1.836904245947212e+00	 3.760422731110533e-01	 1.296310258100812e+01
 1.843697565765152e+00	 3.411807232891650e-01	 1.291334423835945e+01
 1.737541887599997e+00	 6.878769885017468e-01	 1.306287610792518e+01
 1.750831789742590e+00	 6.533104977652728e-01	 1.330572255520287e+01
 1.763381507448442e+00	 6.186373910801837e-01	 1.349280279667266e+01
 1.775193089073118e+00	 5.838801751663907e-01	 1.337977786727791e+01
 1.786269441138785e+00	 5.490610586195905e-01	 1.328591944402744e+01
 1.796614303087412e+00	 5.142019140142168e-01	 1.320766890370813e+01
 1.806232220232282e+00	 4.793242420601067e-01	 1.314158337855481e+01
 1.815128515079764e+00	 4.444491378954126e-01	 1.308436583383530e+01
 1.823309257195791e+00	 4.095972595833111e-01	 1.303289221757139e+01
 1.830781231792628e+00	 3.747887988652737e-01	 1.298423556531786e+01
 1.837551907211388e+00	 3.400434542091521e-01	 1.293568698390528e+01
 1.731730710718524e+00	 6.855763965655506e-01	 1.306250556160343e+01
 1.744976165027555e+00	 6.511255128216368e-01	 1.331508212958460e+01
 1.757483910433130e+00	 6.165683697041459e-01	 1.348732453181956e+01
 1.769255988440124e+00	 5.819273986596787e-01	 1.338055249479759e+01
 1.780295295849896e+00	 5.472247340076932e-01	 1.329198239323706e+01
 1.790605559597918e+00	 5.124821751702006e-01	 1.321814136359927e+01
 1.800191309795755e+00	 4.777211509483100e-01	 1.315567159100987e+01
 1.809057851148753e+00	 4.429626859278728e-01	 1.310135987767613e+01
 1.817211232923290e+00	 4.082273690815539e-01	 1.305216431971787e+01
 1.824658217638615e+00	 3.735353246199181e-01	 1.300523797742630e+01
 1.831406248658110e+00	 3.389061851296541e-01	 1.295794946443464e+01
 1.725919533837072e+00	 6.832758046298444e-01	 1.306235017647759e+01
 1.739120540312725e+00	 6.489405278784007e-01	 1.332445164236097e+01
 1.751586313418175e+00	 6.144993483284400e-01	 1.348125166506169e+01
 1.763318887807609e+00	 5.799746221532517e-01	 1.338081472969625e+01
 1.774321150561575e+00	 5.453884093960540e-01	 1.329761190840309e+01
 1.784596816109052e+00	 5.107624363264360e-01	 1.322825553919560e+01
 1.794150399359887e+00	 4.761180598367787e-01	 1.316947233244978e+01
 1.802987187218400e+00	 4.414762339606319e-01	 1.311813243257612e+01
 1.811113208651419e+00	 4.068574785801490e-01	 1.307127562406218e+01
 1.818535203485174e+00	 3.722818503749865e-01	 1.302613456898821e+01
 1.825260590105317e+00	 3.377689160506706e-01	 1.298015500307645e+01
 1.720108356955641e+00	 6.809752126946278e-01	 1.306238281237200e+01
 1.733264915598100e+00	 6.467555429355658e-01	 1.333380551511821e+01
 1.745688716403577e+00	 6.124303269530665e-01	 1.347461876357093e+01
 1.757381787175572e+00	 5.780218456471092e-01	 1.338059784896786e+01
 1.768347005273823e+00	 5.435520847846732e-01	 1.330283994278748e+01
 1.778588072620814e+00	 5.090426974829235e-01	 1.323804203081930e+01
 1.788109488924676e+00	 4.745149687255130e-01	 1.318301482533792e+01
 1.796916523288705e+00	 4.399897819936903e-01	 1.313471132243387e+01
 1.805015184380177e+00	 4.054875880790960e-01	 1.309025253935330e+01
 1.812412189332304e+00	 3.710283761304790e-01	 1.304695032103209e+01
 1.819114931553009e+00	 3.366316469722019e-01	 1.300232714446106e+01
 1.714297180074230e+00	 6.786746207599009e-01	 1.306257661460034e+01
 1.727409290883679e+00	 6.445705579931307e-01	 1.334311845110015e+01
 1.739791119389336e+00	 6.103613055780249e-01	 1.346746067181500e+01
 1.751444686544013e+00	 5.760690691412519e-01	 1.337993540202511e+01
 1.762372859986640e+00	 5.417157601735506e-01	 1.330769871669391e+01
 1.772579329133205e+00	 5.073229586396628e-01	 1.324753169997405e+01
 1.782068578490124e+00	 4.729118776145131e-01	 1.319632854699276e+01
 1.790845859359669e+00	 4.385033300270478e-01	 1.315112461922852e+01
 1.798917160109564e+00	 4.041176975783948e-01	 1.310912171521651e+01
 1.806289175180005e+00	 3.697749018863954e-01	 1.306771044784796e+01
 1.812969273001186e+00	 3.354943778942477e-01	 1.302448965847448e+01
 1.708486003192840e+00	 6.763740288256638e-01	 1.306290501882079e+01
 1.721553666169463e+00	 6.423855730510962e-01	 1.335236543999826e+01
 1.733893522375452e+00	 6.082922842033156e-01	 1.345981251627329e+01
 1.745507585912933e+00	 5.741162926356795e-01	 1.337886121533234e+01
 1.756398714700024e+00	 5.398794355626859e-01	 1.331222072200935e+01
 1.766570585646224e+00	 5.056032197966541e-01	 1.325675567378688e+01
 1.776027668056231e+00	 4.713087865037789e-01	 1.320944323392219e+01
 1.784775195431290e+00	 4.370168780607043e-01	 1.316740064723875e+01
 1.792819135839580e+00	 4.027478070780458e-01	 1.312791004624993e+01
 1.800166161028278e+00	 3.685214276427358e-01	 1.308844040095432e+01
 1.806823614449849e+00	 3.343571088168084e-01	 1.304666654408923e+01
 1.702674826311470e+00	 6.740734368919163e-01	 1.306334175599078e+01
 1.715698041455451e+00	 6.402005881094620e-01	 1.336152176283983e+01
 1.727995925361925e+00	 6.062232628289387e-01	 1.345170971024941e+01
 1.739570485282330e+00	 5.721635161303921e-01	 1.337740939713335e+01
 1.750424569413979e+00	 5.380431109520797e-01	 1.331643872683864e+01
 1.760561842159872e+00	 5.038834809538972e-01	 1.326574534954101e+01
 1.769986757622995e+00	 4.697056953933101e-01	 1.322238888624646e+01
 1.778704531503571e+00	 4.355304260946600e-01	 1.318356798734835e+01
 1.786721111570225e+00	 4.013779165780489e-01	 1.314664467620485e+01
 1.794043146877121e+00	 3.672679533995000e-01	 1.310916587314642e+01
 1.800677955898998e+00	 3.332198397398836e-01	 1.306888203327363e+01
 1.696863649430121e+00	 6.717728449586589e-01	 1.306386085742341e+01
 1.709842416741644e+00	 6.380156031682285e-01	 1.337056299697671e+01
 1.722098328348754e+00	 6.041542414548937e-01	 1.344318795878249e+01
 1.733633384652206e+00	 5.702107396253893e-01	 1.337561434227642e+01
 1.744450424128501e+00	 5.362067863417315e-01	 1.332038578023409e+01
 1.754553098674148e+00	 5.021637421113924e-01	 1.327453239930182e+01
 1.763945847190417e+00	 4.681026042831070e-01	 1.323519577221218e+01
 1.772633867576508e+00	 4.340439741289147e-01	 1.319965548144000e+01
 1.780623087301499e+00	 4.000080260784040e-01	 1.316535300225217e+01
 1.787920132726537e+00	 3.660144791566884e-01	 1.312991280262784e+01
 1.794532297348631e+00	 3.320825706634735e-01	 1.309116059498162e+01
 1.691052472548792e+00	 6.694722530258906e-01	 1.306443665994830e+01
 1.703986792028041e+00	 6.358306182273951e-01	 1.337946502117662e+01
 1.716200731335942e+00	 6.020852200811811e-01	 1.343428326365994e+01
 1.727696284022561e+00	 5.682579631206716e-01	 1.337351073713879e+01
 1.738476278843592e+00	 5.343704617316417e-01	 1.332409521702293e+01
 1.748544355189053e+00	 5.004440032691392e-01	 1.328314877463813e+01
 1.757904936758497e+00	 4.664995131731694e-01	 1.324789443279924e+01
 1.766563203650105e+00	 4.325575221634686e-01	 1.321569223687990e+01
 1.774525063033403e+00	 3.986381355791110e-01	 1.318406267933666e+01
 1.781797118576523e+00	 3.647610049143007e-01	 1.315070737722686e+01
 1.788386638798750e+00	 3.309453015875781e-01	 1.311352693922447e+01
 1.685241295667484e+00	 6.671716610936124e-01	 1.306504381117901e+01
 1.698131167314643e+00	 6.336456332869620e-01	 1.338820402082010e+01
 1.710303134323485e+00	 6.000161987078005e-01	 1.342503192853365e+01
 1.721759183393393e+00	 5.663051866162384e-01	 1.337113356465301e+01
 1.732502133559252e+00	 5.325341371218100e-01	 1.332760066273435e+01
 1.742535611704586e+00	 4.987242644271380e-01	 1.329162671144131e+01
 1.751864026327236e+00	 4.648964220634975e-01	 1.326051568642315e+01
 1.760492539724360e+00	 4.310710701983215e-01	 1.323170763109496e+01
 1.768427038765936e+00	 3.972682450801699e-01	 1.320280162462127e+01
 1.775674104427080e+00	 3.635075306723370e-01	 1.317157603870062e+01
 1.782240980249354e+00	 3.298080325121973e-01	 1.313600602122708e+01
 1.843697565765152e+00	 3.411807232891650e-01	 1.291334423835945e+01
 1.849795386095177e+00	 3.064017453303257e-01	 1.286738164264207e+01
 1.855206469643190e+00	 2.717240419284748e-01	 1.283227790936538e+01
 1.859940161735938e+00	 2.371657537175077e-01	 1.280492924866508e+01
 1.864006354978990e+00	 2.027444415484450e-01	 1.278249612202698e+01
 1.867415453645311e+00	 1.684770710600363e-01	 1.276241347083652e+01
 1.870178337946352e+00	 1.343799995057729e-01	 1.274239789174422e+01
 1.872306328331119e+00	 1.004689647900895e-01	 1.272045189013543e+01
 1.873811149951200e+00	 6.675907665743318e-02	 1.269486536483589e+01
 1.874704897421741e+00	 3.326480996967037e-02	 1.266421449552909e+01
 1.875000000000000e+00	 0.000000000000000e+00	 1.262735821923636e+01
 1.837551907211388e+00	 3.400434542091521e-01	 1.293568698390528e+01
 1.843629401473883e+00	 3.053804061765698e-01	 1.289257029612979e+01
 1.849022448076946e+00	 2.708182951192385e-01	 1.285913408171315e+01
 1.853740361196235e+00	 2.363752012022720e-01	 1.283232754905129e+01
 1.857793000461968e+00	 2.020686267405188e-01	 1.280936402574400e+01
 1.861190735466200e+00	 1.679154808205971e-01	 1.278773089541701e+01
 1.863944410153010e+00	 1.339320661718174e-01	 1.276519650984220e+01
 1.866065307236578e+00	 1.001340682389307e-01	 1.273981420754854e+01
 1.867565112784650e+00	 6.653654640056693e-02	 1.270992359167667e+01
 1.868455881096991e+00	 3.315392726905032e-02	 1.267414923792111e+01
 1.868750000000000e+00	 0.000000000000000e+00	 1.263139701805366e+01
 1.831406248658110e+00	 3.389061851296541e-01	 1.295794946443464e+01
 1.837463416852980e+00	 3.043590670234124e-01	 1.291783488438727e+01
 1.842838426511008e+00	 2.699125483106529e-01	 1.288620933413249e+01
 1.847540560656765e+00	 2.355846486877083e-01	 1.286007469531434e+01
 1.851579645945116e+00	 2.013928119332554e-01	 1.283669689356534e+01
 1.854966017287206e+00	 1.673538905817813e-01	 1.281361554308404e+01
 1.857710482359744e+00	 1.334841328384168e-01	 1.278865059467425e+01
 1.859824286142078e+00	 9.979917168822966e-02	 1.275990611836552e+01
 1.861319075618118e+00	 6.631401614403298e-02	 1.272577137301270e+01
 1.862206864772244e+00	 3.304304456860979e-02	 1.268491933310986e+01
 1.862500000000000e+00	 0.000000000000000e+00	 1.263630285748127e+01
 1.825260590105317e+00	 3.377689160506706e-01	 1.298015500307645e+01
 1.831297432232467e+00	 3.033377278708536e-01	 1.294319843213103e+01
 1.836654404945377e+00	 2.690068015027183e-01	 1.291352632827021e+01
 1.841340760117528e+00	 2.347940961738169e-01	 1.288819292423910e+01
 1.845366291428434e+00	 2.007169971266547e-01	 1.286451647848567e+01
 1.848741299108329e+00	 1.667923003435891e-01	 1.284008862696466e+01
 1.851476554566553e+00	 1.330361995055712e-01	 1.281278076625038e+01
 1.853583265047620e+00	 9.946427513798620e-02	 1.278074759902552e+01
 1.855073038451605e+00	 6.609148588783131e-02	 1.274242799401267e+01
 1.855957848447503e+00	 3.293216186834879e-02	 1.269654332999993e+01
 1.856250000000000e+00	 0.000000000000000e+00	 1.264209350781635e+01
 1.819114931553009e+00	 3.366316469722019e-01	 1.300232714446106e+01
 1.825131447612345e+00	 3.023163887188934e-01	 1.296868419267500e+01
 1.830470383380053e+00	 2.681010546954347e-01	 1.294110796026062e+01
 1.835140959578525e+00	 2.340035436605974e-01	 1.291670471179483e+01
 1.839152936911922e+00	 2.000411823207168e-01	 1.289284477620202e+01
 1.842516580929570e+00	 1.662307101060204e-01	 1.286717160524457e+01
 1.845242626773435e+00	 1.325882661732805e-01	 1.283760789085255e+01
 1.847342243953204e+00	 9.912937858820041e-02	 1.280235887233065e+01
 1.848827001285110e+00	 6.586895563196196e-02	 1.275991298520011e+01
 1.849708832122766e+00	 3.282127916826732e-02	 1.270904002076745e+01
 1.850000000000000e+00	 0.000000000000000e+00	 1.264878697949518e+01
 1.812969273001186e+00	 3.354943778942477e-01	 1.302448965847448e+01
 1.818965462992614e+00	 3.012950495675318e-01	 1.299431565180507e+01
 1.824286361815036e+00	 2.671953078888017e-01	 1.296897736470007e+01
 1.828941159039756e+00	 2.332129911480501e-01	 1.294563277718920e+01
 1.832939582395581e+00	 1.993653675154417e-01	 1.292170402922760e+01
 1.836291862750929e+00	 1.656691198690752e-01	 1.289488618532158e+01
 1.839008698980393e+00	 1.321403328415448e-01	 1.286315308520857e+01
 1.841101222858829e+00	 9.879448203887230e-02	 1.282476041162173e+01
 1.842580964118634e+00	 6.564642537642491e-02	 1.277824612661188e+01
 1.843459815798034e+00	 3.271039646836537e-02	 1.272242844498340e+01
 1.843750000000000e+00	 0.000000000000000e+00	 1.265640152716317e+01
 1.806823614449849e+00	 3.343571088168084e-01	 1.304666654408923e+01
 1.812799478373274e+00	 3.002737104167688e-01	 1.302011653173267e+01
 1.818102340250326e+00	 2.662895610828198e-01	 1.299715791870246e+01
 1.822741358501220e+00	 2.324224386361748e-01	 1.297500008700504e+01
 1.826726227879411e+00	 1.986895527108294e-01	 1.295111673108918e+01
 1.830067144572405e+00	 1.651075296327535e-01	 1.292325432804398e+01
 1.832774771187425e+00	 1.316923995103640e-01	 1.288943772075149e+01
 1.834860201764497e+00	 9.845958549000178e-02	 1.284797294503903e+01
 1.836334926952176e+00	 6.542389512122014e-02	 1.279744745204160e+01
 1.837210799473306e+00	 3.259951376864294e-02	 1.273672789382086e+01
 1.837500000000000e+00	 0.000000000000000e+00	 1.266495565382830e+01
 1.800677955898998e+00	 3.332198397398836e-01	 1.306888203327363e+01
 1.806633493754324e+00	 2.992523712666044e-01	 1.304611079512934e+01
 1.811918318685923e+00	 2.653838142774887e-01	 1.302567324603766e+01
 1.816541557962917e+00	 2.316318861249716e-01	 1.300482985942165e+01
 1.820512873363411e+00	 1.980137379068798e-01	 1.298110563061067e+01
 1.823842426393999e+00	 1.645459393970554e-01	 1.295229825203562e+01
 1.826540843394532e+00	 1.312444661797381e-01	 1.291648342796616e+01
 1.828619180670206e+00	 9.812468894158895e-02	 1.287201745987049e+01
 1.830088889785737e+00	 6.520136486634764e-02	 1.281753725336999e+01
 1.830961783148584e+00	 3.248863106910004e-02	 1.275195791434870e+01
 1.831250000000000e+00	 0.000000000000000e+00	 1.267446811509922e+01
 1.794532297348631e+00	 3.320825706634735e-01	 1.309116059498162e+01
 1.800467509135765e+00	 2.982310321170384e-01	 1.307232264924422e+01
 1.805734297121827e+00	 2.644780674728086e-01	 1.305454722135509e+01
 1.810341757424848e+00	 2.308413336144405e-01	 1.303514556852308e+01
 1.814299518847581e+00	 1.973379231035930e-01	 1.301169373628460e+01
 1.817617708215711e+00	 1.639843491619808e-01	 1.298204043810984e+01
 1.820306915601714e+00	 1.307965328496672e-01	 1.294431210082489e+01
 1.822378159575957e+00	 9.778979239363375e-02	 1.289691520698913e+01
 1.823842852619315e+00	 6.497883461180748e-02	 1.283853608498421e+01
 1.824712766823865e+00	 3.237774836973666e-02	 1.276813831391325e+01
 1.825000000000000e+00	 0.000000000000000e+00	 1.268495792351068e+01
 1.788386638798750e+00	 3.309453015875781e-01	 1.311352693922447e+01
 1.794301524517597e+00	 2.972096929680713e-01	 1.309877655010641e+01
 1.799550275558037e+00	 2.635723206687793e-01	 1.308380397449443e+01
 1.804141956887012e+00	 2.300507811045815e-01	 1.306597094869507e+01
 1.808086164331922e+00	 1.966621083009689e-01	 1.304290432073393e+01
 1.811392990037540e+00	 1.634227589275297e-01	 1.301250363377448e+01
 1.814072987808971e+00	 1.303485995201512e-01	 1.297294590131483e+01
 1.816137138481749e+00	 9.745489584613623e-02	 1.292268770538199e+01
 1.817596815452913e+00	 6.475630435759960e-02	 1.286046476828823e+01
 1.818463750499151e+00	 3.226686567055281e-02	 1.278528916461057e+01
 1.818750000000000e+00	 0.000000000000000e+00	 1.269644435293804e+01
 1.782240980249354e+00	 3.298080325121973e-01	 1.313600602122708e+01
 1.788135539899820e+00	 2.961883538197025e-01	 1.312549720681423e+01
 1.793366253994555e+00	 2.626665738654008e-01	 1.311346789488547e+01
 1.797942156349410e+00	 2.292602285953946e-01	 1.309732999911300e+01
 1.801872809816433e+00	 1.959862934990077e-01	 1.307476092526579e+01
 1.805168271859486e+00	 1.628611686937021e-01	 1.304371085783004e+01
 1.807839060016302e+00	 1.299006661911901e-01	 1.300240726405892e+01
 1.809896117387584e+00	 9.711999929909637e-02	 1.294935674677282e+01
 1.811350778286529e+00	 6.453377410372400e-02	 1.288334439630648e+01
 1.812214734174441e+00	 3.215598297154848e-02	 1.280343080785088e+01
 1.812500000000000e+00	 0.000000000000000e+00	 1.270894694310311e+01
 0.000000000000000e+00	 1.812500000000000e+00	 2.360117523244082e+00
 3.215598297154861e-02	 1.812214734174441e+00	 2.512361390944309e+00
 6.453377410372427e-02	 1.811350778286528e+00	 2.658325813381692e+00
 9.711999929909672e-02	 1.809896117387584e+00	 2.801987392443301e+00
 1.299006661911906e-01	 1.807839060016302e+00	 2.946700987121724e+00
 1.628611686937027e-01	 1.805168271859486e+00	 3.095144864568940e+00
 1.959862934990084e-01	 1.801872809816433e+00	 3.249268945223162e+00
 2.292602285953954e-01	 1.797942156349410e+00	 3.410246849500892e+00
 2.626665738654017e-01	 1.793366253994554e+00	 3.578432461684533e+00
 2.961883538197036e-01	 1.788135539899820e+00	 3.753321726154913e+00
 3.298080325121973e-01	 1.782240980249354e+00	 3.933520381244380e+00
 0.000000000000000e+00	 1.806250000000000e+00	 2.348609517943045e+00
 3.204510027254429e-02	 1.805965717849732e+00	 2.499597801107880e+00
 6.431124384984871e-02	 1.805104741120145e+00	 2.644255214342345e+00
 9.678510275205680e-02	 1.803655096293418e+00	 2.786552171402782e+00
 1.294527328622295e-01	 1.801605132223633e+00	 2.929844144152843e+00
 1.622995784598750e-01	 1.798943553681433e+00	 3.076817230728460e+00
 1.953104786970471e-01	 1.795659455300944e+00	 3.229436777123960e+00
 2.284696760862085e-01	 1.791742355811808e+00	 3.388899752908205e+00
 2.617608270620233e-01	 1.787182232431072e+00	 3.555591589939086e+00
 2.951670146713349e-01	 1.781969555282042e+00	 3.729048192562876e+00
 3.286707634368164e-01	 1.776095321699958e+00	 3.907923818115622e+00
 0.000000000000000e+00	 1.800000000000000e+00	 2.336730262085914e+00
 3.193421757336043e-02	 1.799716701525018e+00	 2.486249842844902e+00
 6.408871359564081e-02	 1.798858703953742e+00	 2.629419575500030e+00
 9.645020620455930e-02	 1.797414075199211e+00	 2.770204545650948e+00
 1.290047995327136e-01	 1.795371204430890e+00	 2.911961589591891e+00
 1.617379882254240e-01	 1.792718835503262e+00	 3.057385271443306e+00
 1.946346638944231e-01	 1.789446100785285e+00	 3.208456873369614e+00
 2.276791235763495e-01	 1.785542555273973e+00	 3.366397092897402e+00
 2.608550802579940e-01	 1.780998210867283e+00	 3.531623149514576e+00
 2.941456755223676e-01	 1.775803570663875e+00	 3.703711002458797e+00
 3.275334943609211e-01	 1.769949663150077e+00	 3.881363372135090e+00
 0.000000000000000e+00	 1.793750000000000e+00	 2.324478242920353e+00
 3.182333487399705e-02	 1.793467685200299e+00	 2.472315088236802e+00
 6.386618334110064e-02	 1.792612666787321e+00	 2.613815563434599e+00
 9.611530965660409e-02	 1.791173054104961e+00	 2.752940287927649e+00
 1.285568662026426e-01	 1.789137276638072e+00	 2.893048216259871e+00
 1.611763979903493e-01	 1.786494117324974e+00	 3.036843016061234e+00
 1.939588490911363e-01	 1.783232746269455e+00	 3.186322419083422e+00
 2.268885710658184e-01	 1.779342754735904e+00	 3.342731232697341e+00
 2.599493334533138e-01	 1.774814189303187e+00	 3.506518707440116e+00
 2.931243363728019e-01	 1.769637586045316e+00	 3.677300956014228e+00
 3.263962252845110e-01	 1.763804004599711e+00	 3.853829109891509e+00
 0.000000000000000e+00	 1.787500000000000e+00	 2.311851926536743e+00
 3.171245217445415e-02	 1.787218668875576e+00	 2.457791077429161e+00
 6.364365308622817e-02	 1.786366629620882e+00	 2.597439803681064e+00
 9.578041310819126e-02	 1.784932033010671e+00	 2.734755122541602e+00
 1.281089328720167e-01	 1.782903348845179e+00	 2.873098862927516e+00
 1.606148077546512e-01	 1.780269399146568e+00	 3.015184436077472e+00
 1.932830342871867e-01	 1.777019391753456e+00	 3.163026539590314e+00
 2.260980185546151e-01	 1.773142954197601e+00	 3.317894475690316e+00
 2.590435866479827e-01	 1.768630167738783e+00	 3.480269772782651e+00
 2.921029972226374e-01	 1.763471601426366e+00	 3.649808799292191e+00
 3.252589562075862e-01	 1.757658346048858e+00	 3.825311049715199e+00
 0.000000000000000e+00	 1.781250000000000e+00	 2.298849757496791e+00
 3.160156947473173e-02	 1.780969652550849e+00	 2.442675318070743e+00
 6.342112283102339e-02	 1.780120592454423e+00	 2.580288880011131e+00
 9.544551655932076e-02	 1.778691011916338e+00	 2.715644724521038e+00
 1.276609995408359e-01	 1.776669421052212e+00	 2.852108313369401e+00
 1.600532175183295e-01	 1.774044680968043e+00	 2.992403444120321e+00
 1.926072194825743e-01	 1.770806037237285e+00	 3.138562299368207e+00
 2.253074660427400e-01	 1.766943153659065e+00	 3.291879064360522e+00
 2.581378398420008e-01	 1.762446146174073e+00	 3.452867795630674e+00
 2.910816580718744e-01	 1.757305616807026e+00	 3.621225223297827e+00
 3.241216871301468e-01	 1.751512687497521e+00	 3.795799160832718e+00
 0.000000000000000e+00	 1.775000000000000e+00	 2.285470158454478e+00
 3.149068677482978e-02	 1.774720636226117e+00	 2.426965284741728e+00
 6.319859257548632e-02	 1.773874555287947e+00	 2.562359333696471e+00
 9.511062000999265e-02	 1.772449990821964e+00	 2.695604718746031e+00
 1.272130662091002e-01	 1.770435493259169e+00	 2.830071295394794e+00
 1.594916272813843e-01	 1.767819962789402e+00	 2.968493892914215e+00
 1.919314046772992e-01	 1.764592682720944e+00	 3.112922700975579e+00
 2.245169135301926e-01	 1.760743353120295e+00	 3.264677179223271e+00
 2.572320930353679e-01	 1.756262124609056e+00	 3.424304166055092e+00
 2.900603189205128e-01	 1.751139632187296e+00	 3.591540863007885e+00
 3.229844180521927e-01	 1.745367028945699e+00	 3.765283362500888e+00
 0.000000000000000e+00	 1.768750000000000e+00	 2.271711529769336e+00
 3.137980407474829e-02	 1.768471619901379e+00	 2.410658418369308e+00
 6.297606231961697e-02	 1.767628518121452e+00	 2.543647662758860e+00
 9.477572346020685e-02	 1.766208969727548e+00	 2.674630679062493e+00
 1.267651328768095e-01	 1.764201565466053e+00	 2.806982479858540e+00
 1.589300370438156e-01	 1.761595244610643e+00	 2.943449574221902e+00
 1.912555898713613e-01	 1.758379328204433e+00	 3.086100683958335e+00
 2.237263610169731e-01	 1.754543552581292e+00	 3.236280937729745e+00
 2.563263462280841e-01	 1.750078103043732e+00	 3.394570213049612e+00
 2.890389797685526e-01	 1.744973647567173e+00	 3.560746296383074e+00
 3.218471489737239e-01	 1.739221370393391e+00	 3.733753523125530e+00
 0.000000000000000e+00	 1.762500000000000e+00	 2.257572249111107e+00
 3.126892137448729e-02	 1.762222603576638e+00	 2.393752125631530e+00
 6.275353206341532e-02	 1.761382480954939e+00	 2.524150321202621e+00
 9.444082690996339e-02	 1.759967948633090e+00	 2.652718127377114e+00
 1.263171995439639e-01	 1.757967637672861e+00	 2.782836479652275e+00
 1.583684468056234e-01	 1.755370526431767e+00	 2.917264217762974e+00
 1.905797750647606e-01	 1.752165973687751e+00	 3.058089123732759e+00
 2.229358085030816e-01	 1.748343752042056e+00	 3.206682393148163e+00
 2.554205994201496e-01	 1.743894081478102e+00	 3.363657203447011e+00
 2.880176406159938e-01	 1.738807662946661e+00	 3.528832043354997e+00
 3.207098798947405e-01	 1.733075711840598e+00	 3.701199459358683e+00
 0.000000000000000e+00	 1.756250000000000e+00	 2.243050671055526e+00
 3.115803867404677e-02	 1.755973587251892e+00	 2.376243778346788e+00
 6.253100180688136e-02	 1.755136443788408e+00	 2.503863718231591e+00
 9.410593035926229e-02	 1.753726927538590e+00	 2.629862532733558e+00
 1.258692662105633e-01	 1.751733709879594e+00	 2.757627848671521e+00
 1.578068565668077e-01	 1.749145808252772e+00	 2.889931490110734e+00
 1.899039602574973e-01	 1.745952619170899e+00	 3.028880830443447e+00
 2.221452559885179e-01	 1.742143951502586e+00	 3.175873533422577e+00
 2.545148526115641e-01	 1.737710059912164e+00	 3.331556340813735e+00
 2.869963014628363e-01	 1.732641678325757e+00	 3.495788564794711e+00
 3.195726108152424e-01	 1.726930053287320e+00	 3.667610935177654e+00
 0.000000000000000e+00	 1.750000000000000e+00	 2.228145126672168e+00
 3.104715597342671e-02	 1.749724570927141e+00	 2.358130712852240e+00
 6.230847155001509e-02	 1.748890406621857e+00	 2.482784217449551e+00
 9.377103380810355e-02	 1.747485906444048e+00	 2.606059310368364e+00
 1.254213328766078e-01	 1.745499782086253e+00	 2.731351080763680e+00
 1.572452663273684e-01	 1.742921090073661e+00	 2.861444993563194e+00
 1.892281454495710e-01	 1.739739264653876e+00	 2.998468547798445e+00
 2.213547034732822e-01	 1.735944150962882e+00	 3.143846280006196e+00
 2.536091058023277e-01	 1.731526038345919e+00	 3.298258764319897e+00
 2.859749623090804e-01	 1.726475693704463e+00	 3.461606261457792e+00
 3.184353417352296e-01	 1.720784394733555e+00	 3.632977660945626e+00
 3.298080325121973e-01	 1.782240980249354e+00	 3.933520381244380e+00
 3.635075502934763e-01	 1.775674096584645e+00	 4.127504453904904e+00
 3.972683243474071e-01	 1.768427007146301e+00	 4.353189113268493e+00
 4.310712502957372e-01	 1.760492468010148e+00	 4.607404338623541e+00
 4.648967453113315e-01	 1.751863897808187e+00	 4.885954331387871e+00
 4.987247742548762e-01	 1.742535409267508e+00	 5.183617741774755e+00
 5.325348780372434e-01	 1.732501839678281e+00	 5.494157423283940e+00
 5.663062041704281e-01	 1.721758780120654e+00	 5.810340102524462e+00
 6.000175394559092e-01	 1.710302603280270e+00	 6.123966257778032e+00
 6.336473447449253e-01	 1.698130489683200e+00	 6.398052318207156e+00
 6.671737916906499e-01	 1.685240452183546e+00	 6.570979284367802e+00
 3.286707634368164e-01	 1.776095321699958e+00	 3.907923818115622e+00
 3.622540759838536e-01	 1.769551082462246e+00	 4.098879907607310e+00
 3.958984335751309e-01	 1.762328982987867e+00	 4.321732448648636e+00
 4.295847977095646e-01	 1.754421804331694e+00	 4.573377729798207e+00
 4.632936530870120e-01	 1.745822987820095e+00	 4.849694692282027e+00
 4.970050336548485e-01	 1.736526666481100e+00	 5.145544924726870e+00
 5.306985508725309e-01	 1.726527695407323e+00	 5.454782090807227e+00
 5.643534241571876e-01	 1.715821680882082e+00	 5.770271174987391e+00
 5.979485134592594e-01	 1.704405008098998e+00	 6.083917838456884e+00
 6.314623539029133e-01	 1.692274867306463e+00	 6.365708377457175e+00
 6.648731924114853e-01	 1.679429278210803e+00	 6.540310852799419e+00
 3.275334943609211e-01	 1.769949663150077e+00	 3.881363372135090e+00
 3.610006016738068e-01	 1.763428068339275e+00	 4.069448434259324e+00
 3.945285428025027e-01	 1.756230958828804e+00	 4.289661057263638e+00
 4.280983451230930e-01	 1.748351140652581e+00	 4.538963266767244e+00
 4.616905608624268e-01	 1.739782077831344e+00	 4.813308005032808e+00
 4.952852930545687e-01	 1.730517923694064e+00	 5.107638892510432e+00
 5.288622237075602e-01	 1.720553551135797e+00	 5.415899328459732e+00
 5.624006441436623e-01	 1.709884581643032e+00	 5.731051313561080e+00
 5.958794874622775e-01	 1.698507412917368e+00	 6.045104285340650e+00
 6.292773630605006e-01	 1.686419244929521e+00	 6.335126875468995e+00
 6.625725931318310e-01	 1.673618104238039e+00	 6.511728005615448e+00
 3.263962252845110e-01	 1.763804004599711e+00	 3.853829109891509e+00
 3.597471273633360e-01	 1.757305054215733e+00	 4.039199629427428e+00
 3.931586520295223e-01	 1.750132934669112e+00	 4.256964105275713e+00
 4.266118925363221e-01	 1.742280476972809e+00	 4.504149732267037e+00
 4.600874686375758e-01	 1.733741167841936e+00	 4.776782719536288e+00
 4.935655524540370e-01	 1.724509180906399e+00	 5.069887817604821e+00
 5.270258965423315e-01	 1.714579406863702e+00	 5.377497091782489e+00
 5.604478641298521e-01	 1.703947482403503e+00	 5.692668322576342e+00
 5.938104614649634e-01	 1.692609817735382e+00	 6.007513322705949e+00
 6.270923722176877e-01	 1.680563622552373e+00	 6.306308067764039e+00
 6.602719938516871e-01	 1.667806930265256e+00	 6.485232324805173e+00
 3.252589562075862e-01	 1.757658346048858e+00	 3.825311049715199e+00
 3.584936530524413e-01	 1.751182040091620e+00	 4.008123051443448e+00
 3.917887612561901e-01	 1.744034910508791e+00	 4.223630734676205e+00
 4.251254399492523e-01	 1.736209813292380e+00	 4.468925899981464e+00
 4.584843764124596e-01	 1.727700257851870e+00	 4.740107293816593e+00
 4.918458118532534e-01	 1.718500438118105e+00	 5.032279899863224e+00
 5.251895693768442e-01	 1.708605262591038e+00	 5.339563384998564e+00
 5.584950841157571e-01	 1.698010383163497e+00	 5.655110078413487e+00
 5.917414354673169e-01	 1.686712222553038e+00	 5.971132772290577e+00
 6.249073813744745e-01	 1.674708000175022e+00	 6.278942533080071e+00
 6.579713945710531e-01	 1.661995756292451e+00	 6.460825546706094e+00
 3.241216871301468e-01	 1.751512687497521e+00	 3.795799160832718e+00
 3.572401787411226e-01	 1.745059025966935e+00	 3.976208220751190e+00
 3.904188704825058e-01	 1.737936886347840e+00	 4.189650062862446e+00
 4.236389873618831e-01	 1.730139149611291e+00	 4.433280534384054e+00
 4.568812841870775e-01	 1.721659347861145e+00	 4.703270194168406e+00
 4.901260712522179e-01	 1.712491695329183e+00	 4.994803366992564e+00
 5.233532422110990e-01	 1.702631118317806e+00	 5.302086261868893e+00
 5.565423041013771e-01	 1.692073283923012e+00	 5.618364530766118e+00
 5.896724094693384e-01	 1.680814627370338e+00	 5.935950555002968e+00
 6.227223905308609e-01	 1.668852377797466e+00	 6.246260648266057e+00
 6.556707952899299e-01	 1.656184582319626e+00	 6.438509564711262e+00
 3.229844180521927e-01	 1.745367028945699e+00	 3.765283362500888e+00
 3.559867044293799e-01	 1.738936011841680e+00	 3.943444619239044e+00
 3.890489797084694e-01	 1.731838862186260e+00	 4.155011182203729e+00
 4.221525347742150e-01	 1.724068485929546e+00	 4.397202390574539e+00
 4.552781919614298e-01	 1.715618437869762e+00	 4.666259895302848e+00
 4.884063306509307e-01	 1.706482952539633e+00	 4.957446475043637e+00
 5.215169150450955e-01	 1.696656974044005e+00	 5.265053826562671e+00
 5.545895240867121e-01	 1.686136184682049e+00	 5.582419703931377e+00
 5.876033834710276e-01	 1.674917032187280e+00	 5.901954692668803e+00
 6.205373996868467e-01	 1.662996755419705e+00	 6.215178807720365e+00
 6.533701960083167e-01	 1.650373408346781e+00	 6.418286432034350e+00
 3.218471489737239e-01	 1.739221370393391e+00	 3.733753523125530e+00
 3.547332301172131e-01	 1.732812997715852e+00	 3.909821689559455e+00
 3.876790889340812e-01	 1.725740838024051e+00	 4.119703159599965e+00
 4.206660821862478e-01	 1.717997822247141e+00	 4.360680214114063e+00
 4.536750997355165e-01	 1.709577527877720e+00	 4.629064880495670e+00
 4.866865900493915e-01	 1.700474209749454e+00	 4.920197508912650e+00
 5.196805878788336e-01	 1.690682829769635e+00	 5.228454234549200e+00
 5.526367440717622e-01	 1.680199085440607e+00	 5.547263698129096e+00
 5.855343574723847e-01	 1.669019437003865e+00	 5.869133309813441e+00
 6.183524088424323e-01	 1.657141133041740e+00	 6.185685245337271e+00
 6.510695967262137e-01	 1.644562234373914e+00	 6.400158364533619e+00
 3.207098798947405e-01	 1.733075711840598e+00	 3.701199459358683e+00
 3.534797558046224e-01	 1.726689983589454e+00	 3.875328834432583e+00
 3.863091981593408e-01	 1.719642813861213e+00	 4.083715036029398e+00
 4.191796295979814e-01	 1.711927158564079e+00	 4.323702740856087e+00
 4.520720075093375e-01	 1.703536617885021e+00	 4.591673641739594e+00
 4.849668494476004e-01	 1.694465466958647e+00	 4.883044782851725e+00
 5.178442607123139e-01	 1.684708685494698e+00	 5.192275693506382e+00
 5.506839640565276e-01	 1.674261986198687e+00	 5.512884690846436e+00
 5.834653314734094e-01	 1.663121841820093e+00	 5.837474635482774e+00
 6.161674179976173e-01	 1.651285510663570e+00	 6.157768328959884e+00
 6.487689974436212e-01	 1.638751060401028e+00	 6.384127743595570e+00
 3.195726108152424e-01	 1.726930053287320e+00	 3.667610935177654e+00
 3.522262814916078e-01	 1.720566969462484e+00	 3.839955415936255e+00
 3.849393073842485e-01	 1.713544789697746e+00	 4.047035826088233e+00
 4.176931770094161e-01	 1.705856494880358e+00	 4.286258696772820e+00
 4.504689152828930e-01	 1.697495707891663e+00	 4.554074679899283e+00
 4.832471088455575e-01	 1.688456724167211e+00	 4.845976640992200e+00
 5.160079335455358e-01	 1.678734541219191e+00	 5.156506464251335e+00
 5.487311840410081e-01	 1.668324886956289e+00	 5.479270938214182e+00
 5.813963054741020e-01	 1.657224246635965e+00	 5.806967005103336e+00
 6.139824271524020e-01	 1.645429888285195e+00	 6.131416562763190e+00
 6.464683981605387e-01	 1.632939886428120e+00	 6.370197119080192e+00
 3.184353417352296e-01	 1.720784394733555e+00	 3.632977660945626e+00
 3.509728071781691e-01	 1.714443955334942e+00	 3.803690754779892e+00
 3.835694166088040e-01	 1.707446765533649e+00	 4.009654517518504e+00
 4.162067244205513e-01	 1.699785831195978e+00	 4.248336797779895e+00
 4.488658230561827e-01	 1.691454797897647e+00	 4.516256504869494e+00
 4.815273682432624e-01	 1.682447981375147e+00	 4.808981457877377e+00
 5.141716063784993e-01	 1.672760396943115e+00	 5.121134861687395e+00
 5.467784040252037e-01	 1.662387787713413e+00	 5.446410776410640e+00
 5.793272794744625e-01	 1.651326651451478e+00	 5.777598862381807e+00
 6.117974363067863e-01	 1.639574265906616e+00	 6.106618589689030e+00
 6.441677988769666e-01	 1.627128712455193e+00	 6.358369212329357e+00
 6.671737916906499e-01	 1.685240452183546e+00	 6.570979284367800e+00
 7.005739233414201e-01	 1.671631711110399e+00	 6.920068597812103e+00
 7.338262769259241e-01	 1.657303687740254e+00	 7.269858421968468e+00
 7.669083952040473e-01	 1.642257019416528e+00	 7.614150237926890e+00
 7.997976966330189e-01	 1.626493253091949e+00	 7.946546798408089e+00
 8.324715203779550e-01	 1.610014858756251e+00	 8.260497572812989e+00
 8.649071725365766e-01	 1.592825240243314e+00	 8.549347215842946e+00
 8.970819734031671e-01	 1.574928743306188e+00	 8.806386691024787e+00
 9.289733055859576e-01	 1.556330660861575e+00	 9.024906635203839e+00
 9.605586627823469e-01	 1.537037235319645e+00	 9.198252508596671e+00
 9.918156990078052e-01	 1.517055657930326e+00	 9.319881038113044e+00
 6.648731924114853e-01	 1.679429278210803e+00	 6.540310852799416e+00
 6.981581511950830e-01	 1.665867463829808e+00	 6.895250557444010e+00
 7.312958414918155e-01	 1.651588847435749e+00	 7.248645409390316e+00
 7.642638835003254e-01	 1.636594064174308e+00	 7.594393235399657e+00
 7.970397735452298e-01	 1.620884655663898e+00	 7.926204727031964e+00
 8.296009289324526e-01	 1.604463083377048e+00	 8.237648474282054e+00
 8.619247340145488e-01	 1.587332739410282e+00	 8.522198942085845e+00
 8.939885872916828e-01	 1.569497954531295e+00	 8.773287023310592e+00
 9.257699493630903e-01	 1.550964003405356e+00	 8.984352757426324e+00
 9.572463915341093e-01	 1.531737106917082e+00	 9.148899763405359e+00
 9.883956448753282e-01	 1.511824431518989e+00	 9.260550899322695e+00
 6.625725931318310e-01	 1.673618104238039e+00	 6.511728005615448e+00
 6.957423790481654e-01	 1.660103216549382e+00	 6.872540526228399e+00
 7.287654060570552e-01	 1.645874007131566e+00	 7.229549244330328e+00
 7.616193717959003e-01	 1.630931108932539e+00	 7.576747593267888e+00
 7.942818504567052e-01	 1.615276058236396e+00	 7.907953473998226e+00
 8.267303374862025e-01	 1.598911307998464e+00	 8.216853882050668e+00
 8.589422954917814e-01	 1.581840238577907e+00	 8.497052396794416e+00
 8.908952011794863e-01	 1.564067165757068e+00	 8.742119168879878e+00
 9.225665931395592e-01	 1.545597345949780e+00	 8.945642998135867e+00
 9.539341202852765e-01	 1.526436978515108e+00	 9.101285054389351e+00
 9.849755907423461e-01	 1.506593205108158e+00	 9.202833758392579e+00
 6.602719938516871e-01	 1.667806930265256e+00	 6.485232324805173e+00
 6.933266069006677e-01	 1.654338969269121e+00	 6.851938222551683e+00
 7.262349706216432e-01	 1.640159166827704e+00	 7.212567603722663e+00
 7.589748600907719e-01	 1.625268153691221e+00	 7.561208772800535e+00
 7.915239273674449e-01	 1.609667460809444e+00	 7.891786114879501e+00
 8.238597460392042e-01	 1.593359532620497e+00	 8.198104320677054e+00
 8.559598569682731e-01	 1.576347737746188e+00	 8.473895393430814e+00
 8.878018150665777e-01	 1.558636376983506e+00	 8.712868075755921e+00
 9.193632369153643e-01	 1.540230688494846e+00	 8.908759291800429e+00
 9.506218490358490e-01	 1.521136850113724e+00	 9.055387161033886e+00
 9.815555366088585e-01	 1.501361978697832e+00	 9.146705105527268e+00
 6.579713945710531e-01	 1.661995756292451e+00	 6.460825546706094e+00
 6.909108347525896e-01	 1.648574721989026e+00	 6.833443504222323e+00
 7.237045351855800e-01	 1.634444326524167e+00	 7.197698286709460e+00
 7.563303483849398e-01	 1.619605198450352e+00	 7.547772337978754e+00
 7.887660042774489e-01	 1.604058863383041e+00	 7.877695806192433e+00
 8.209891545914577e-01	 1.587807757243148e+00	 8.181390371641816e+00
 8.529774184440246e-01	 1.570855236915127e+00	 8.452715776124549e+00
 8.847084289529563e-01	 1.553205588210608e+00	 8.685518694171833e+00
 9.161598806905052e-01	 1.534864031040555e+00	 8.873683544471024e+00
 9.473095777858266e-01	 1.515836721712930e+00	 9.011184801652067e+00
 9.781354824748653e-01	 1.496130752288011e+00	 9.092140334922155e+00
 6.556707952899299e-01	 1.656184582319626e+00	 6.438509564711257e+00
 6.884950626039313e-01	 1.642810474709095e+00	 6.817056370916418e+00
 7.211740997488651e-01	 1.628729486220951e+00	 7.184939216784798e+00
 7.536858366784043e-01	 1.613942243209935e+00	 7.536433957297392e+00
 7.860080811867172e-01	 1.598450265957186e+00	 7.865675786818306e+00
 8.181185631429634e-01	 1.582255981866418e+00	 8.166702674346038e+00
 8.499949799190359e-01	 1.565362736084722e+00	 8.433501420211268e+00
 8.816150428386229e-01	 1.547774799438377e+00	 8.660055976609350e+00
 9.129565244649822e-01	 1.529497373586908e+00	 8.840397633282789e+00
 9.439973065352093e-01	 1.510536593312726e+00	 8.968656632311477e+00
 9.747154283403672e-01	 1.490899525878696e+00	 9.039114743077821e+00
 6.533701960083167e-01	 1.650373408346781e+00	 6.418286432034353e+00
 6.860792904546931e-01	 1.637046227429330e+00	 6.802776966674406e+00
 7.186436643114991e-01	 1.623014645918057e+00	 7.174288443983271e+00
 7.510413249711656e-01	 1.608279287969968e+00	 7.527189405605147e+00
 7.832501580952498e-01	 1.592841668531882e+00	 7.855719379452908e+00
 8.152479716937210e-01	 1.576704206490306e+00	 8.154031927131335e+00
 8.470125413933068e-01	 1.559870235254974e+00	 8.416240232781512e+00
 8.785216567235771e-01	 1.542344010666810e+00	 8.636464877838542e+00
 9.097531682387955e-01	 1.524130716133903e+00	 8.808883405946595e+00
 9.406850352839971e-01	 1.505236464913110e+00	 8.927781245738419e+00
 9.712953742053637e-01	 1.485668299469886e+00	 8.987603527081118e+00
 6.510695967262137e-01	 1.644562234373914e+00	 6.400158364533619e+00
 6.836635183048747e-01	 1.631281980149731e+00	 6.790605582453294e+00
 7.161132288734809e-01	 1.617299805615485e+00	 7.165744147117078e+00
 7.483968132632236e-01	 1.602616332730452e+00	 7.520034565983282e+00
 7.804922350030469e-01	 1.587233071107127e+00	 7.847819992087146e+00
 8.123773802437303e-01	 1.571152431114811e+00	 8.143368888321513e+00
 8.440301028668373e-01	 1.554377734425884e+00	 8.400920153242726e+00
 8.754282706078191e-01	 1.536913221895910e+00	 8.614730354958146e+00
 9.065498120119447e-01	 1.518764058681542e+00	 8.779122680228884e+00
 9.373727640321897e-01	 1.499936336514086e+00	 8.888537170198649e+00
 9.678753200698546e-01	 1.480437073061581e+00	 8.937581782848195e+00
 6.487689974436212e-01	 1.638751060401028e+00	 6.384127743595569e+00
 6.812477461544759e-01	 1.625517732870296e+00	 6.780542658730420e+00
 7.135827934348116e-01	 1.611584965313237e+00	 7.159304636057826e+00
 7.457523015545776e-01	 1.596953377491385e+00	 7.514965431665354e+00
 7.777343119101081e-01	 1.581624473682921e+00	 7.841971119519958e+00
 8.095067887929920e-01	 1.565600655739936e+00	 8.134704377285354e+00
 8.410476643396276e-01	 1.548885233597449e+00	 8.387529153890814e+00
 8.723348844913487e-01	 1.531482433125674e+00	 8.594837367437030e+00
 9.033464557844301e-01	 1.513397401229823e+00	 8.751097243420654e+00
 9.340604927797875e-01	 1.494636208115650e+00	 8.850902868354254e+00
 9.644552659338403e-01	 1.475205846653781e+00	 8.889024503330809e+00
 6.464683981605387e-01	 1.632939886428120e+00	 6.370197119080192e+00
 6.788319740034972e-01	 1.619753485591026e+00	 6.772588788164242e+00
 7.110523579954907e-01	 1.605870125011310e+00	 7.154968354069551e+00
 7.431077898452285e-01	 1.591290422252770e+00	 7.511978107996515e+00
 7.749763888164337e-01	 1.576015876259264e+00	 7.838166344902383e+00
 8.066361973415053e-01	 1.560048880365678e+00	 8.128029275523376e+00
 8.380652258116776e-01	 1.543392732769672e+00	 8.376055240496916e+00
 8.692414983741658e-01	 1.526051644356103e+00	 8.576770877156367e+00
 9.001430995562517e-01	 1.508030743778747e+00	 8.724788851795374e+00
 9.307482215267904e-01	 1.489336079717805e+00	 8.814856736097157e+00
 9.610352117973211e-01	 1.469974620246487e+00	 8.841906576684419e+00
 6.441677988769666e-01	 1.627128712455193e+00	 6.358369212329354e+00
 6.764162018519378e-01	 1.613989238311922e+00	 6.766744718312194e+00
 7.085219225555182e-01	 1.600155284709705e+00	 7.152733880190319e+00
 7.404632781351761e-01	 1.585627467014605e+00	 7.511068814435742e+00
 7.722184657220236e-01	 1.570407278836156e+00	 7.836399341315182e+00
 8.037656058892707e-01	 1.554497104992038e+00	 8.123334527777295e+00
 8.350827872829872e-01	 1.537900231942552e+00	 8.366486452903935e+00
 8.661481122562706e-01	 1.520620855587198e+00	 8.560515848452015e+00
 8.969397433274091e-01	 1.502664086328314e+00	 8.700179230054925e+00
 9.274359502731981e-01	 1.484035951320548e+00	 8.780377101355905e+00
 9.576151576602960e-01	 1.464743393839698e+00	 8.796202784396309e+00
 9.918156990078052e-01	 1.517055657930326e+00	 9.319881038113044e+00
 1.022723049951268e+00	 1.496393554628050e+00	 9.622354804254025e+00
 1.053258026528671e+00	 1.475060525232958e+00	 9.926114918510024e+00
 1.083399059176674e+00	 1.453066573723892e+00	 1.022275245055957e+01
 1.113124935851936e+00	 1.430422619685520e+00	 1.050393679108514e+01
 1.142414850270402e+00	 1.407140482295992e+00	 1.076147904724826e+01
 1.171248449277251e+00	 1.383232861281543e+00	 1.098739478736059e+01
 1.199605879125917e+00	 1.358713314894176e+00	 1.117396551625384e+01
 1.227467830448813e+00	 1.333596234986977e+00	 1.131379827047983e+01
 1.254815581708413e+00	 1.307896819279740e+00	 1.143325042629600e+01
 1.281631040925000e+00	 1.281631040925000e+00	 1.169099995500707e+01
 9.883956448753282e-01	 1.511824431518989e+00	 9.260550899322698e+00
 1.019196418745826e+00	 1.491233576849093e+00	 9.561472206014024e+00
 1.049626102299866e+00	 1.469974109624614e+00	 9.867867200239157e+00
 1.079663200351912e+00	 1.448055999327915e+00	 1.017137086527580e+01
 1.109286574003602e+00	 1.425490127889922e+00	 1.046368099267532e+01
 1.138475488716688e+00	 1.402288273733000e+00	 1.073662100845055e+01
 1.167209661519643e+00	 1.378463092791224e+00	 1.098220223257574e+01
 1.195469307127096e+00	 1.354028096564003e+00	 1.119268495950280e+01
 1.223235182755487e+00	 1.328997627277344e+00	 1.136063775430364e+01
 1.250488631424314e+00	 1.303386830245110e+00	 1.148228961030994e+01
 1.277211623540000e+00	 1.277211623540000e+00	 1.176418921253156e+01
 9.849755907423461e-01	 1.506593205108158e+00	 9.202833758392579e+00
 1.015669787539974e+00	 1.486073599070547e+00	 9.502482928155723e+00
 1.045994178070736e+00	 1.464887694016595e+00	 9.811808998436305e+00
 1.075927341526901e+00	 1.443045424932186e+00	 1.012248976025716e+01
 1.105448212155086e+00	 1.420557636094508e+00	 1.042625026315433e+01
 1.134536127162848e+00	 1.397436065170136e+00	 1.071492507820231e+01
 1.163170873761954e+00	 1.373693324300987e+00	 1.098052007863460e+01
 1.191332735128229e+00	 1.349342878233876e+00	 1.121527313191194e+01
 1.219002535062140e+00	 1.324399019567732e+00	 1.141171310327298e+01
 1.246161681140210e+00	 1.298876841210486e+00	 1.156271658514864e+01
 1.272792206155000e+00	 1.272792206155000e+00	 1.184395332873883e+01
 9.815555366088585e-01	 1.501361978697832e+00	 9.146705105527268e+00
 1.012143156333712e+00	 1.480913621292410e+00	 9.445363485644108e+00
 1.042362253841281e+00	 1.459801278408900e+00	 9.757918108510029e+00
 1.072191482701641e+00	 1.438034850536706e+00	 1.007608846815262e+01
 1.101609850306385e+00	 1.415625144299276e+00	 1.039162572963964e+01
 1.130596765608880e+00	 1.392583856607399e+00	 1.069637443504971e+01
 1.159132086004183e+00	 1.368923555810832e+00	 1.098233381149350e+01
 1.187196163129316e+00	 1.344657659903795e+00	 1.124171808112959e+01
 1.214769887368772e+00	 1.319800411858140e+00	 1.146701517858443e+01
 1.241834730856101e+00	 1.294366852175866e+00	 1.165104329471350e+01
 1.268372788770000e+00	 1.268372788770000e+00	 1.193035079136718e+01
 9.781354824748653e-01	 1.496130752288011e+00	 9.092140334922155e+00
 1.008616525127040e+00	 1.475753643514683e+00	 9.390090322676295e+00
 1.038730329611502e+00	 1.454714862801529e+00	 9.706172283608948e+00
 1.068455623876132e+00	 1.433024276141476e+00	 1.003214631108865e+01
 1.097771488457502e+00	 1.410692652504227e+00	 1.035978854364726e+01
 1.126657404054784e+00	 1.387731648044789e+00	 1.068095231998929e+01
 1.155093298246331e+00	 1.364153787320757e+00	 1.098762902067882e+01
 1.183059591130358e+00	 1.339972441573760e+00	 1.127200800249194e+01
 1.210537239675384e+00	 1.315201804148569e+00	 1.152653503615891e+01
 1.237507780571987e+00	 1.289856863141252e+00	 1.174396867094029e+01
 1.263953371385000e+00	 1.263953371385000e+00	 1.202344038536173e+01
 9.747154283403672e-01	 1.490899525878696e+00	 9.039114743077818e+00
 1.005089893919957e+00	 1.470593665737367e+00	 9.336639811439641e+00
 1.035098405381398e+00	 1.449628447194484e+00	 9.656549233880217e+00
 1.064719765050375e+00	 1.428013701746493e+00	 9.990642600484273e+00
 1.093933126608436e+00	 1.405760160709363e+00	 1.033071988151973e+01
 1.122718042500562e+00	 1.382879439482307e+00	 1.066864203756294e+01
 1.151054510488397e+00	 1.359384018830765e+00	 1.099639140110359e+01
 1.178923019131354e+00	 1.335287223243771e+00	 1.130613124161351e+01
 1.206304591981976e+00	 1.310603196439018e+00	 1.159026393005916e+01
 1.233180830287868e+00	 1.285346874106643e+00	 1.184148713075745e+01
 1.259533954000000e+00	 1.259533954000000e+00	 1.212328119808891e+01
 9.712953742053637e-01	 1.485668299469886e+00	 8.987603527081117e+00
 1.001563262712465e+00	 1.465433687960461e+00	 9.284988250844886e+00
 1.031466481150969e+00	 1.444542031587763e+00	 9.609026625712840e+00
 1.060983906224368e+00	 1.423003127351761e+00	 9.951556636862378e+00
 1.090094764759186e+00	 1.400827668914680e+00	 1.030440094486332e+01
 1.118778680946211e+00	 1.378027230919952e+00	 1.065942695697692e+01
 1.147015722730382e+00	 1.354614250340854e+00	 1.100860675492334e+01
 1.174786447132303e+00	 1.330602004913829e+00	 1.134407629703323e+01
 1.202071944288547e+00	 1.306004588729487e+00	 1.165819331597682e+01
 1.228853880003744e+00	 1.280836885072038e+00	 1.194359334436234e+01
 1.255114536615000e+00	 1.255114536615000e+00	 1.222993262466055e+01
 9.678753200698546e-01	 1.480437073061581e+00	 8.937581782848197e+00
 9.980366315045620e-01	 1.460273710183965e+00	 9.235111865230733e+00
 1.027834556920216e+00	 1.439455615981367e+00	 9.563582080964039e+00
 1.057248047398112e+00	 1.417992552957277e+00	 9.914867709657857e+00
 1.086256402909753e+00	 1.395895177120181e+00	 1.028081296099378e+01
 1.114839319391734e+00	 1.373175022357724e+00	 1.065329051324456e+01
 1.142976934972285e+00	 1.349844481851025e+00	 1.102426099343037e+01
 1.170649875133207e+00	 1.325916786583932e+00	 1.138583182291610e+01
 1.197839296595098e+00	 1.301405981019977e+00	 1.173031485479560e+01
 1.224526929719614e+00	 1.276326896037439e+00	 1.205028223969598e+01
 1.250695119230000e+00	 1.250695119230000e+00	 1.234345437337098e+01
 9.644552659338403e-01	 1.475205846653781e+00	 8.889024503330806e+00
 9.945100002962493e-01	 1.455113732407879e+00	 9.186986803041808e+00
 1.024202632689138e+00	 1.434369200375295e+00	 9.520193176170146e+00
 1.053512188571608e+00	 1.412981978563042e+00	 9.880555097020348e+00
 1.082418041060137e+00	 1.390962685325866e+00	 1.025993718339319e+01
 1.110899957837129e+00	 1.368322813795624e+00	 1.065021620835261e+01
 1.138938147214106e+00	 1.345074713361277e+00	 1.104334013898883e+01
 1.166513303134065e+00	 1.321231568254080e+00	 1.143138663181245e+01
 1.193606648901628e+00	 1.296807373310487e+00	 1.180662041622920e+01
 1.220199979435480e+00	 1.271816907002846e+00	 1.216154900701256e+01
 1.246275701845000e+00	 1.246275701845000e+00	 1.230114303703436e+01
 9.610352117973211e-01	 1.469974620246487e+00	 8.841906576684419e+00
 9.909833690875263e-01	 1.449953754632203e+00	 9.140589135478379e+00
 1.020570708457736e+00	 1.429282784769548e+00	 9.478837441739625e+00
 1.049776329744854e+00	 1.407971404169055e+00	 9.848598065613768e+00
 1.078579679210338e+00	 1.386030193531733e+00	 1.024175489217476e+01
 1.106960596282397e+00	 1.363470605233651e+00	 1.065018761245366e+01
 1.134899359455846e+00	 1.340304944871610e+00	 1.106583032701145e+01
 1.162376731134876e+00	 1.316546349924275e+00	 1.148072969747642e+01
 1.189374001208139e+00	 1.292208765601018e+00	 1.188710208253718e+01
 1.215873029151340e+00	 1.267306917968257e+00	 1.227738910354755e+01
 1.241856284460000e+00	 1.241856284460000e+00	 1.222657188918209e+01
 9.576151576602960e-01	 1.464743393839698e+00	 8.796202784396309e+00
 9.874567378783929e-01	 1.444793776856937e+00	 9.095894855116761e+00
 1.016938784226008e+00	 1.424196369164125e+00	 9.439492361130011e+00
 1.046040470917851e+00	 1.402960829775318e+00	 9.818975870411098e+00
 1.074741317360356e+00	 1.381097701737783e+00	 1.022624739455874e+01
 1.103021234727538e+00	 1.358618396671805e+00	 1.065318836508220e+01
 1.130860571697504e+00	 1.335535176382025e+00	 1.109171780797803e+01
 1.158240159135642e+00	 1.311861131594515e+00	 1.153385015774442e+01
 1.185141353514628e+00	 1.287610157891568e+00	 1.197175215232061e+01
 1.211546078867196e+00	 1.262796928933673e+00	 1.239779825828450e+01
 1.237436867075000e+00	 1.237436867075000e+00	 1.214940434335541e+01
 1.281631040925000e+00	 1.281631040925000e+00	 1.169099995500707e+01
 1.307896805918519e+00	 1.254815602067621e+00	 1.199595556895513e+01
 1.333596181699575e+00	 1.227467911710166e+00	 1.153240662559639e+01
 1.358713195370086e+00	 1.199606061523981e+00	 1.109720310264219e+01
 1.383232649488227e+00	 1.171248772679068e+00	 1.086317951118082e+01
 1.407140152501332e+00	 1.142415354117801e+00	 1.081368271252076e+01
 1.430422146479210e+00	 1.113125659105525e+00	 1.093220148562044e+01
 1.453065932037716e+00	 1.083400040261693e+00	 1.120245840592206e+01
 1.475059690359945e+00	 1.053259303282895e+00	 1.160849490220436e+01
 1.496392502240485e+00	 1.022724659575108e+00	 1.213474892121650e+01
 1.517054364096615e+00	 9.918176780167720e-01	 1.276612474008452e+01
 1.277211623540000e+00	 1.277211623540000e+00	 1.176418921253156e+01
 1.303386816929962e+00	 1.250488651713318e+00	 1.209476589215350e+01
 1.328997574173691e+00	 1.223235263736628e+00	 1.148470322602720e+01
 1.354027977452066e+00	 1.195469488896202e+00	 1.106994618896802e+01
 1.378462881728230e+00	 1.167209983806282e+00	 1.085362089468597e+01
 1.402287945075563e+00	 1.138475990826683e+00	 1.081927759342297e+01
 1.425489656315358e+00	 1.109287294763213e+00	 1.095060765746958e+01
 1.448055359854450e+00	 1.079664178053879e+00	 1.123153435573055e+01
 1.469973277630473e+00	 1.049627374651488e+00	 1.164629687697381e+01
 1.491232528090450e+00	 1.019198022819239e+00	 1.217952703846893e+01
 1.511823142146773e+00	 9.883976170601263e-01	 1.281631822577712e+01
 1.272792206155000e+00	 1.272792206155000e+00	 1.184395332873883e+01
 1.298876827941411e+00	 1.246161701359010e+00	 1.204282770762444e+01
 1.324398966647829e+00	 1.219002615763069e+00	 1.143655172528495e+01
 1.349342759534091e+00	 1.191332916268376e+00	 1.104222254196849e+01
 1.373693113968314e+00	 1.163171194933414e+00	 1.084354838285751e+01
 1.397435737649921e+00	 1.134536627535437e+00	 1.082428225702853e+01
 1.420557166151689e+00	 1.105448930420718e+00	 1.096831765271407e+01
 1.443044787671432e+00	 1.075928315845816e+00	 1.125977821040269e+01
 1.464886864901326e+00	 1.045995446019757e+00	 1.168310071411277e+01
 1.486072553940826e+00	 1.015671386062960e+00	 1.222311084447755e+01
 1.506591920197438e+00	 9.849775561029750e-01	 1.286509124518865e+01
 1.268372788770000e+00	 1.268372788770000e+00	 1.193035079136718e+01
 1.294366838952864e+00	 1.241834751004698e+00	 1.197077389311046e+01
 1.319800359121986e+00	 1.214769967789490e+00	 1.138791165645759e+01
 1.344657541616162e+00	 1.187196343640505e+00	 1.101398948367952e+01
 1.368923346208480e+00	 1.159132406060465e+00	 1.083291706719640e+01
 1.392583530224407e+00	 1.130597264244064e+00	 1.082864955186968e+01
 1.415624675988204e+00	 1.101610566078040e+00	 1.098528207127436e+01
 1.438034215488663e+00	 1.072192453637505e+00	 1.128713832211006e+01
 1.459800452172503e+00	 1.042363517387702e+00	 1.171885252509717e+01
 1.480912579791613e+00	 1.012144749306270e+00	 1.226544422293061e+01
 1.501360698248608e+00	 9.815574951453185e-01	 1.291238547262587e+01
 1.263953371385000e+00	 1.263953371385000e+00	 1.202344038536173e+01
 1.289856849964323e+00	 1.237507800650379e+00	 1.189818657253381e+01
 1.315201751596165e+00	 1.210537319815891e+00	 1.133874281156716e+01
 1.339972323698279e+00	 1.183059771012587e+00	 1.098520457257062e+01
 1.364153578448728e+00	 1.155093617187434e+00	 1.082168225095430e+01
 1.387731322799021e+00	 1.126657900952565e+00	 1.083233251141626e+01
 1.410692185824901e+00	 1.097772201735179e+00	 1.100145166912453e+01
 1.433023643306143e+00	 1.068456591428944e+00	 1.131356316818335e+01
 1.454714039444006e+00	 1.038731588755322e+00	 1.175349851372603e+01
 1.475752605642809e+00	 1.008618112549171e+00	 1.230647111513331e+01
 1.496129476300282e+00	 9.781374341871568e-01	 1.295814260351173e+01
 1.259533954000000e+00	 1.259533954000000e+00	 1.212328119808891e+01
 1.285346860975787e+00	 1.233180850296056e+00	 1.182502802658660e+01
 1.310603144070363e+00	 1.206304671842271e+00	 1.128900524611227e+01
 1.335287105780442e+00	 1.178923198384624e+00	 1.095582560769232e+01
 1.359383810689057e+00	 1.151054828314322e+00	 1.080979945284827e+01
 1.382879115373761e+00	 1.122718537660937e+00	 1.083528435732115e+01
 1.405759695661781e+00	 1.093933837392134e+00	 1.101677736102998e+01
 1.428013071123873e+00	 1.064720729220134e+00	 1.133900135330865e+01
 1.449627626715833e+00	 1.035099660122617e+00	 1.178698497774112e+01
 1.470592631494415e+00	 1.005091475791661e+00	 1.234613552101811e+01
 1.490898254352462e+00	 9.747173732284897e-01	 1.300230435475546e+01
 1.255114536615000e+00	 1.255114536615000e+00	 1.222993262466055e+01
 1.280836871987256e+00	 1.228853899941727e+00	 1.175126082506658e+01
 1.306004536544582e+00	 1.202072023868631e+00	 1.123865928370684e+01
 1.330601887862652e+00	 1.174786625756615e+00	 1.092581063291231e+01
 1.354614042929468e+00	 1.147016039441128e+00	 1.079722441085447e+01
 1.378026907948629e+00	 1.118779174369182e+00	 1.083745850273266e+01
 1.400827205498845e+00	 1.090095473048907e+00	 1.103121022334278e+01
 1.423002498941850e+00	 1.060984867011076e+00	 1.136340161176913e+01
 1.444541213987984e+00	 1.031467731489588e+00	 1.181925831048112e+01
 1.465432657346431e+00	 1.001564839033742e+00	 1.238438150017721e+01
 1.485667032405148e+00	 9.712973122693175e-01	 1.304481246513116e+01
 1.250695119230000e+00	 1.250695119230000e+00	 1.234345437337098e+01
 1.276326882998730e+00	 1.224526949587394e+00	 1.167684783198564e+01
 1.301405929018822e+00	 1.197839375894970e+00	 1.118766552081734e+01
 1.325916669944906e+00	 1.170650053128560e+00	 1.089511794124025e+01
 1.349844275169960e+00	 1.142977250567852e+00	 1.078391308608152e+01
 1.373174700523625e+00	 1.114839811077300e+00	 1.083880855567817e+01
 1.395894715336092e+00	 1.086257108705496e+00	 1.104470149685701e+01
 1.417991926760077e+00	 1.057249004801769e+00	 1.138671280973510e+01
 1.439454801260461e+00	 1.027835802856234e+00	 1.185026500257039e+01
 1.460272683198858e+00	 9.980382022754120e-01	 1.242115317291661e+01
 1.480435810458339e+00	 9.678772513096394e-01	 1.308560869566389e+01
 1.246275701845000e+00	 1.246275701845000e+00	 1.230114303703436e+01
 1.271816894010209e+00	 1.220199999233055e+00	 1.160175221078532e+01
 1.296807321493081e+00	 1.193606727921289e+00	 1.113598483160040e+01
 1.321231452027208e+00	 1.166513480500459e+00	 1.086370607924578e+01
 1.345074507410534e+00	 1.138938461694494e+00	 1.076982166672743e+01
 1.368322493098747e+00	 1.110900447785290e+00	 1.083928832251953e+01
 1.390962225173523e+00	 1.082418744361903e+00	 1.105720258972389e+01
 1.412981354578553e+00	 1.053513142592212e+00	 1.140888394760228e+01
 1.434368388533261e+00	 1.024203874222555e+00	 1.187995164364400e+01
 1.455112709051695e+00	 9.945115655166723e-01	 1.245639472133231e+01
 1.475204588512035e+00	 9.644571903494567e-01	 1.312463483002432e+01
 1.241856284460000e+00	 1.241856284460000e+00	 1.222657188918209e+01
 1.267306905021694e+00	 1.215873048878712e+00	 1.152593742966569e+01
 1.292208713967362e+00	 1.189374079947587e+00	 1.108357837284381e+01
 1.316546234109554e+00	 1.162376907872312e+00	 1.083153385156984e+01
 1.340304739651190e+00	 1.134899672821056e+00	 1.075490657211947e+01
 1.363470285673997e+00	 1.106961084493153e+00	 1.083885181148181e+01
 1.386029735011136e+00	 1.078580380018126e+00	 1.106866508043018e+01
 1.407970782397278e+00	 1.049777280382407e+00	 1.142986416238018e+01
 1.429281975806387e+00	 1.020571945588552e+00	 1.190826492410947e+01
 1.449952734904942e+00	 9.909849287575224e-01	 1.249005039041031e+01
 1.469973366566236e+00	 9.610371293887683e-01	 1.316183267493170e+01
 1.237436867075000e+00	 1.237436867075000e+00	 1.214940434335541e+01
 1.262796916033183e+00	 1.211546098524362e+00	 1.144936726702697e+01
 1.287610106441662e+00	 1.185141431973865e+00	 1.103040758901374e+01
 1.311861016191946e+00	 1.158240335244118e+00	 1.079856032553313e+01
 1.335534971891927e+00	 1.130860883947535e+00	 1.073912445684228e+01
 1.358618078249374e+00	 1.103021721200889e+00	 1.083745323625824e+01
 1.381097244848932e+00	 1.074742015674165e+00	 1.107904072083957e+01
 1.402960210216252e+00	 1.046041418172353e+00	 1.144960273013168e+01
 1.424195563079837e+00	 1.016940016954224e+00	 1.193515163694620e+01
 1.444792760758599e+00	 9.874582919979621e-01	 1.252206448914895e+01
 1.464742144620942e+00	 9.576170684275745e-01	 1.319714406056525e+01
 1.517054364096615e+00	 9.918176780167720e-01	 1.276612474008452e+01
 1.537036200909102e+00	 9.605602360774108e-01	 1.283682445846787e+01
 1.556329876073421e+00	 9.289744705148516e-01	 1.291069804009562e+01
 1.574928198161258e+00	 8.970827278764183e-01	 1.298178924159371e+01
 1.592824924610523e+00	 8.649075150265073e-01	 1.304493606578067e+01
 1.610014762379030e+00	 8.324714499158946e-01	 1.309576561459172e+01
 1.626493365614551e+00	 7.997972128047723e-01	 1.313068079888957e+01
 1.642257330410071e+00	 7.669074981436702e-01	 1.314683940004822e+01
 1.657304186728400e+00	 7.338249673078682e-01	 1.314212605350135e+01
 1.671632387594552e+00	 7.005722023711173e-01	 1.311511778855898e+01
 1.685241295667484e+00	 6.671716610936124e-01	 1.306504381117901e+01
 1.511823142146773e+00	 9.883976170601263e-01	 1.281631822577712e+01
 1.531736076073471e+00	 9.572479594040174e-01	 1.287575091207632e+01
 1.550963221323368e+00	 9.257711102749880e-01	 1.294013082484417e+01
 1.569497411266176e+00	 8.939893391633021e-01	 1.300345517131912e+01
 1.587332424865880e+00	 8.619250753234797e-01	 1.306050014444761e+01
 1.604462987332163e+00	 8.296008587133649e-01	 1.310681646235570e+01
 1.620884767798491e+00	 7.970392913853566e-01	 1.313871687142920e+01
 1.636594374095460e+00	 7.642629895332602e-01	 1.315325609786262e+01
 1.651589344703246e+00	 7.312945363896838e-01	 1.314820380704605e+01
 1.665868137981257e+00	 6.981564361591600e-01	 1.312201119364491e+01
 1.679430118786176e+00	 6.648710691613341e-01	 1.307377187715035e+01
 1.506591920197438e+00	 9.849775561029750e-01	 1.286509124518865e+01
 1.526435951238430e+00	 9.539356827300293e-01	 1.291348685747076e+01
 1.545596566573957e+00	 9.225677500344607e-01	 1.296859362164700e+01
 1.564066624371758e+00	 8.908959504494738e-01	 1.302436170690199e+01
 1.581839925121894e+00	 8.589426356197124e-01	 1.307550511631453e+01
 1.598911212285913e+00	 8.267302675100872e-01	 1.311749791125791e+01
 1.615276169982981e+00	 7.942813699652050e-01	 1.314656250530341e+01
 1.630931417781299e+00	 7.616184809221463e-01	 1.315965050251042e+01
 1.645874502678414e+00	 7.287641054708477e-01	 1.315441662871032e+01
 1.660103888368127e+00	 6.957406699466229e-01	 1.312918636725368e+01
 1.673618941904847e+00	 6.625704772285660e-01	 1.308291796215955e+01
 1.501360698248608e+00	 9.815574951453185e-01	 1.291238547262587e+01
 1.521135826403980e+00	 9.506234060554466e-01	 1.294997686105066e+01
 1.540229911825190e+00	 9.193643897932695e-01	 1.299603412404851e+01
 1.558635837478006e+00	 8.878025617349328e-01	 1.304445989699901e+01
 1.576347425378564e+00	 8.559601959152044e-01	 1.308990560527292e+01
 1.593359437240282e+00	 8.238596763060617e-01	 1.312776837198696e+01
 1.609667572168019e+00	 7.915234485443181e-01	 1.315418010033080e+01
 1.625268461467589e+00	 7.589739723103297e-01	 1.316598919542555e+01
 1.640159660653904e+00	 7.262336745513602e-01	 1.316073546361599e+01
 1.654339638755163e+00	 6.933249037335059e-01	 1.313661878934565e+01
 1.667807765023498e+00	 6.602698852953084e-01	 1.309246224078268e+01
 1.496129476300282e+00	 9.781374341871568e-01	 1.295814260351173e+01
 1.515835701570118e+00	 9.473111293802686e-01	 1.298516554313672e+01
 1.534863257077065e+00	 9.161610295514143e-01	 1.302240011358090e+01
 1.553205050584920e+00	 8.847091730196800e-01	 1.306370091350917e+01
 1.570854925635891e+00	 8.529777562099562e-01	 1.310365639482422e+01
 1.587807662195269e+00	 8.209890851012880e-01	 1.313758645224468e+01
 1.604058974353608e+00	 7.887655271226953e-01	 1.316153229170375e+01
 1.619605505154330e+00	 7.563294636978096e-01	 1.317223903265341e+01
 1.634444818629717e+00	 7.237032436312213e-01	 1.316713157153054e+01
 1.648575389142363e+00	 6.909091375198079e-01	 1.314428429527615e+01
 1.661996588142128e+00	 6.579692933615610e-01	 1.310238528437330e+01
 1.490898254352462e+00	 9.747173732284897e-01	 1.300230435475546e+01
 1.510535576736847e+00	 9.439988527044959e-01	 1.301899757891681e+01
 1.529496602329584e+00	 9.129576693088950e-01	 1.304763946130772e+01
 1.547774263692498e+00	 8.816157843037145e-01	 1.308203605373612e+01
 1.565362425893876e+00	 8.499953165039679e-01	 1.311671243088002e+01
 1.582255887150874e+00	 8.181184938957661e-01	 1.314691096020260e+01
 1.598450376539745e+00	 7.860076057003370e-01	 1.316858195411764e+01
 1.613942548841521e+00	 7.536849550845858e-01	 1.317836714966858e+01
 1.628729976605852e+00	 7.211728127104309e-01	 1.317357653238732e+01
 1.642811139529729e+00	 6.884933713055301e-01	 1.315215908203047e+01
 1.656185411260738e+00	 6.556687014273237e-01	 1.311266806802348e+01
 1.485667032405148e+00	 9.712973122693175e-01	 1.304481246513116e+01
 1.505235451904165e+00	 9.406865760281281e-01	 1.305141769941199e+01
 1.524129947582745e+00	 9.097543090657121e-01	 1.307170012940028e+01
 1.542343476800742e+00	 8.785223955870370e-01	 1.309941674259581e+01
 1.559869926152517e+00	 8.470128767972388e-01	 1.312902882462133e+01
 1.576704112107097e+00	 8.152479026894962e-01	 1.315570090803120e+01
 1.592841778726431e+00	 7.832496842772428e-01	 1.317529220598763e+01
 1.608279592529162e+00	 7.510404464706583e-01	 1.318434096629442e+01
 1.623015134582309e+00	 7.186423817889888e-01	 1.318004225192214e+01
 1.637046889917260e+00	 6.860776050906721e-01	 1.316021971459065e+01
 1.650374234379327e+00	 6.533681094925968e-01	 1.312329197767192e+01
 1.480435810458339e+00	 9.678772513096394e-01	 1.308560869566389e+01
 1.499935327072073e+00	 9.373742993511655e-01	 1.308237069246301e+01
 1.518763292836550e+00	 9.065509488218653e-01	 1.309453017274711e+01
 1.536912689909651e+00	 8.754290068696469e-01	 1.311579453487129e+01
 1.554377426411815e+00	 8.440304370897698e-01	 1.314056085541860e+01
 1.571152337063938e+00	 8.123773114824782e-01	 1.316391551550424e+01
 1.587233180913667e+00	 7.804917628534130e-01	 1.318162641375450e+01
 1.602616636217254e+00	 7.483959378560278e-01	 1.319012819172682e+01
 1.617300292559090e+00	 7.161119508668953e-01	 1.318650096742959e+01
 1.631282640304956e+00	 6.836618388752341e-01	 1.316844313243713e+01
 1.644563057497896e+00	 6.510675175573803e-01	 1.313423881736272e+01
 1.475204588512035e+00	 9.644571903494567e-01	 1.312463483002432e+01
 1.494635202240570e+00	 9.340620226736079e-01	 1.311180140373775e+01
 1.513396638090997e+00	 9.033475885773544e-01	 1.311607774059807e+01
 1.531481903019225e+00	 8.723356181515445e-01	 1.313112111751520e+01
 1.548884926671771e+00	 8.410479973815603e-01	 1.315126397381374e+01
 1.565600562021397e+00	 8.095067202747126e-01	 1.317151421367969e+01
 1.581624583101451e+00	 7.777338414288477e-01	 1.318754819628236e+01
 1.596953679905797e+00	 7.457514292406937e-01	 1.319569682966499e+01
 1.611585450536192e+00	 7.135815199441502e-01	 1.319292525364174e+01
 1.625518390692817e+00	 6.812460726592158e-01	 1.317680665618885e+01
 1.638751880616443e+00	 6.487669256216742e-01	 1.314549081665857e+01
 1.469973366566236e+00	 9.610371293887683e-01	 1.316183267493170e+01
 1.489335077409658e+00	 9.307497459954552e-01	 1.313965473776009e+01
 1.508029983346087e+00	 9.001442283321798e-01	 1.313629107824339e+01
 1.526051116129465e+00	 8.692422294327299e-01	 1.314534831200162e+01
 1.543392426932382e+00	 8.380655576726104e-01	 1.316109380456597e+01
 1.560048786979474e+00	 8.066361290661985e-01	 1.317845664865909e+01
 1.576015985289785e+00	 7.749759200035463e-01	 1.319302142935014e+01
 1.591290723594790e+00	 7.431069206246563e-01	 1.320101518355172e+01
 1.605870608513616e+00	 7.110510890207535e-01	 1.319928802873232e+01
 1.619754141080844e+00	 6.788303064426171e-01	 1.318528799438500e+01
 1.632940703734971e+00	 6.464663336854781e-01	 1.315703063821227e+01
 1.464742144620942e+00	 9.576170684275745e-01	 1.319714406056525e+01
 1.484034952579334e+00	 9.274374693167077e-01	 1.316587565896096e+01
 1.502663328601820e+00	 8.969408680863410e-01	 1.315511852872840e+01
 1.520620329240370e+00	 8.661488407132030e-01	 1.315842807672820e+01
 1.537899927193651e+00	 8.350831179629201e-01	 1.317000614976271e+01
 1.554497011938170e+00	 8.037655378569364e-01	 1.318470268542778e+01
 1.570407387478668e+00	 7.722179985775096e-01	 1.319801025023938e+01
 1.585627767284233e+00	 7.404624120079153e-01	 1.320605186192590e+01
 1.600155766491363e+00	 7.085206580967055e-01	 1.320556256044964e+01
 1.613989891469035e+00	 6.764145402254385e-01	 1.319386525041223e+01
 1.627129526853478e+00	 6.441657417487923e-01	 1.316884138550047e+01
 1.685241295667484e+00	 6.671716610936124e-01	 1.306504381117901e+01
 1.698131167314643e+00	 6.336456332869620e-01	 1.338820402082010e+01
 1.710303134323485e+00	 6.000161987078005e-01	 1.342503192853365e+01
 1.721759183393393e+00	 5.663051866162384e-01	 1.337113356465301e+01
 1.732502133559252e+00	 5.325341371218100e-01	 1.332760066273435e+01
 1.742535611704586e+00	 4.987242644271380e-01	 1.329162671144131e+01
 1.751864026327236e+00	 4.648964220634975e-01	 1.326051568642315e+01
 1.760492539724360e+00	 4.310710701983215e-01	 1.323170763109496e+01
 1.768427038765936e+00	 3.972682450801699e-01	 1.320280162462127e+01
 1.775674104427080e+00	 3.635075306723370e-01	 1.317157603870062e+01
 1.782240980249354e+00	 3.298080325121973e-01	 1.313600602122708e+01
 1.679430118786176e+00	 6.648710691613341e-01	 1.307377187715035e+01
 1.692275542601245e+00	 6.314606483465289e-01	 1.340609676448884e+01
 1.704405537311030e+00	 5.979471773344200e-01	 1.342545316325724e+01
 1.715822082764225e+00	 5.643524101118056e-01	 1.337858515223433e+01
 1.726527988274911e+00	 5.306978125119782e-01	 1.334055634051526e+01
 1.736526868220118e+00	 4.970045255851367e-01	 1.330866891033799e+01
 1.745823115895974e+00	 4.632933309538255e-01	 1.328033605252234e+01
 1.754421875798615e+00	 4.295846182331745e-01	 1.325310691614453e+01
 1.762329014498468e+00	 3.958983545812290e-01	 1.322468898011972e+01
 1.769551090277638e+00	 3.622540564303733e-01	 1.319296775116329e+01
 1.776095321699958e+00	 3.286707634368164e-01	 1.315602372854334e+01
 1.673618941904847e+00	 6.625704772285660e-01	 1.308291796215955e+01
 1.686419917887643e+00	 6.292756634056956e-01	 1.342416507297859e+01
 1.698507940298217e+00	 5.958781559607075e-01	 1.342593195473930e+01
 1.709884982134579e+00	 5.623996336070878e-01	 1.338610676806395e+01
 1.720553842990002e+00	 5.288614879018884e-01	 1.335358776484243e+01
 1.730518124735024e+00	 4.952847867428837e-01	 1.332578545401788e+01
 1.739782205464055e+00	 4.616902398438881e-01	 1.330022190850952e+01
 1.748351211872211e+00	 4.280981662677284e-01	 1.327455508542261e+01
 1.756230990230372e+00	 3.945284640819360e-01	 1.324660060256787e+01
 1.763428076127625e+00	 3.610005821879858e-01	 1.321435087863514e+01
 1.769949663150077e+00	 3.275334943609211e-01	 1.317599157977174e+01
 1.667807765023498e+00	 6.602698852953084e-01	 1.309246224078268e+01
 1.680564293173836e+00	 6.270906784644620e-01	 1.344239011107552e+01
 1.692610343285047e+00	 5.938091345866626e-01	 1.342650900040782e+01
 1.703947881504455e+00	 5.604468571020850e-01	 1.339373716668239e+01
 1.714579697704525e+00	 5.270251632915403e-01	 1.336673167573670e+01
 1.724509381249299e+00	 4.935650479003786e-01	 1.334301100243865e+01
 1.733741295031478e+00	 4.600871487336851e-01	 1.332020577481424e+01
 1.742280547945149e+00	 4.266117143019832e-01	 1.329608246640836e+01
 1.750132965961646e+00	 3.931585735822911e-01	 1.326856457905614e+01
 1.757305061977040e+00	 3.597471079451741e-01	 1.323575122628208e+01
 1.763804004599710e+00	 3.263962252845110e-01	 1.319593306241836e+01
 1.661996588142128e+00	 6.579692933615610e-01	 1.310238528437330e+01
 1.674708668459824e+00	 6.249056935228279e-01	 1.345961615355230e+01
 1.686712746271520e+00	 5.917401132122855e-01	 1.342722536945056e+01
 1.698010780873853e+00	 5.584940805967976e-01	 1.340151546023062e+01
 1.708605552418479e+00	 5.251888386809341e-01	 1.338002515561183e+01
 1.718500637762947e+00	 4.918453090576216e-01	 1.336038054173672e+01
 1.727700384598241e+00	 4.584840576232163e-01	 1.334032048086650e+01
 1.736209884017429e+00	 4.251252623359388e-01	 1.331771967748337e+01
 1.744034941692291e+00	 3.917886830822941e-01	 1.329060926860462e+01
 1.751182047825884e+00	 3.584936337019384e-01	 1.325719485139816e+01
 1.757658346048858e+00	 3.252589562075863e-01	 1.321587189553450e+01
 1.656185411260738e+00	 6.556687014273237e-01	 1.311266806802348e+01
 1.668853043745608e+00	 6.227207085807933e-01	 1.345178510813651e+01
 1.680815149257636e+00	 5.896710918375764e-01	 1.342812250933731e+01
 1.692073680242772e+00	 5.565413040912249e-01	 1.340948112472368e+01
 1.702631407131864e+00	 5.233525140700696e-01	 1.339350563528135e+01
 1.712491894275966e+00	 4.901255702146131e-01	 1.337792938994956e+01
 1.721659474164348e+00	 4.568809665124818e-01	 1.336059917051784e+01
 1.730139220089051e+00	 4.236388103695953e-01	 1.333949763303509e+01
 1.737936917422307e+00	 3.904187925819451e-01	 1.331276330693360e+01
 1.745059033674157e+00	 3.572401594582788e-01	 1.327870806782909e+01
 1.751512687497522e+00	 3.241216871301468e-01	 1.323583203377873e+01
 1.650374234379327e+00	 6.533681094925968e-01	 1.312329197767192e+01
 1.662997419031187e+00	 6.205357236383583e-01	 1.344416538010244e+01
 1.674917552243395e+00	 5.876020704625350e-01	 1.342924225247961e+01
 1.686136579611214e+00	 5.545885275853677e-01	 1.341767400645702e+01
 1.696657261844680e+00	 5.215161894589467e-01	 1.340721090009241e+01
 1.706483150788357e+00	 4.884058313713524e-01	 1.339569320285906e+01
 1.715618563729796e+00	 4.552778754014822e-01	 1.338107530757686e+01
 1.724068556160014e+00	 4.221523584029527e-01	 1.336144754866832e+01
 1.731838893151694e+00	 3.890489020812440e-01	 1.333505561133523e+01
 1.738936019521858e+00	 3.559866852141952e-01	 1.330031745048883e+01
 1.745367028945699e+00	 3.229844180521926e-01	 1.325583767156502e+01
 1.644563057497896e+00	 6.510675175573803e-01	 1.313423881736272e+01
 1.657141794316562e+00	 6.183507386955230e-01	 1.343680111246857e+01
 1.669019955228797e+00	 5.855330490871614e-01	 1.343062682303201e+01
 1.680199478979177e+00	 5.526357510792256e-01	 1.342613432854842e+01
 1.690683116556928e+00	 5.196798648475659e-01	 1.342117909618968e+01
 1.700474407300120e+00	 4.866860925278398e-01	 1.341370797995877e+01
 1.709577653294585e+00	 4.536747842902164e-01	 1.340178268146222e+01
 1.717997892230320e+00	 4.206659064360110e-01	 1.338360094652698e+01
 1.725740868880452e+00	 3.876790115801911e-01	 1.335751538564818e+01
 1.732813005368988e+00	 3.547332109696876e-01	 1.332204983997212e+01
 1.739221370393391e+00	 3.218471489737240e-01	 1.327591324729861e+01
 1.638751880616443e+00	 6.487669256216742e-01	 1.314549081665857e+01
 1.651286169601732e+00	 6.161657537522874e-01	 1.342973686096060e+01
 1.663122358213842e+00	 5.834640277114556e-01	 1.343231884383774e+01
 1.674262378346661e+00	 5.506829745727985e-01	 1.343490269761935e+01
 1.684708971268607e+00	 5.178435402359268e-01	 1.343544873691227e+01
 1.694465663811254e+00	 4.849663536840755e-01	 1.343201007054802e+01
 1.703536742858717e+00	 4.520716931786852e-01	 1.342275541297590e+01
 1.711927228299967e+00	 4.191794544687703e-01	 1.340598966072926e+01
 1.719642844608581e+00	 3.863091210787860e-01	 1.338017212533825e+01
 1.726689991215546e+00	 3.534797367247560e-01	 1.334393234726527e+01
 1.733075711840598e+00	 3.207098798947405e-01	 1.329608344770214e+01
 1.632940703734971e+00	 6.464663336854781e-01	 1.315703063821227e+01
 1.645430544886697e+00	 6.139807688086513e-01	 1.342301760135503e+01
 1.657224761198529e+00	 5.813950063354175e-01	 1.343436134352287e+01
 1.668325277713667e+00	 5.487301980660864e-01	 1.344402011061879e+01
 1.678734825979718e+00	 5.160072156240295e-01	 1.345005870932767e+01
 1.688456920321759e+00	 4.832466148400592e-01	 1.345063617995628e+01
 1.697495832422190e+00	 4.504686020668883e-01	 1.344402796019962e+01
 1.705856564368955e+00	 4.176930025012304e-01	 1.342864584291871e+01
 1.713544820336080e+00	 3.849392305770289e-01	 1.340305562268752e+01
 1.720566977061533e+00	 3.522262624794004e-01	 1.336599235855713e+01
 1.726930053287320e+00	 3.195726108152424e-01	 1.331637321223418e+01
 1.627129526853478e+00	 6.441657417487923e-01	 1.316884138550047e+01
 1.639574920171458e+00	 6.117957838646145e-01	 1.341668873698015e+01
 1.651327164182859e+00	 5.793259849590472e-01	 1.343679776374251e+01
 1.662388177080195e+00	 5.467774215590894e-01	 1.345352796179350e+01
 1.672760680690260e+00	 5.141708910118739e-01	 1.346504828090530e+01
 1.682448176831636e+00	 4.815268759957910e-01	 1.346962337590079e+01
 1.691454921985005e+00	 4.488655109548258e-01	 1.346563512451774e+01
 1.699785900437286e+00	 4.162065505333913e-01	 1.345160196793437e+01
 1.707446796062950e+00	 3.835693400749197e-01	 1.342619597209464e+01
 1.714443962906949e+00	 3.509727882336208e-01	 1.338825754015371e+01
 1.720784394733555e+00	 3.184353417352296e-01	 1.333680773760216e+01
 1.782240980249354e+00	 3.298080325121973e-01	 1.313600602122708e+01
 1.788135539899820e+00	 2.961883538197025e-01	 1.312549720681423e+01
 1.793366253994555e+00	 2.626665738654008e-01	 1.311346789488547e+01
 1.797942156349410e+00	 2.292602285953946e-01	 1.309732999911300e+01
 1.801872809816433e+00	 1.959862934990077e-01	 1.307476092526579e+01
 1.805168271859486e+00	 1.628611686937021e-01	 1.304371085783004e+01
 1.807839060016302e+00	 1.299006661911901e-01	 1.300240726405892e+01
 1.809896117387584e+00	 9.711999929909637e-02	 1.294935674677282e+01
 1.811350778286529e+00	 6.453377410372400e-02	 1.288334439630648e+01
 1.812214734174441e+00	 3.215598297154848e-02	 1.280343080785088e+01
 1.812500000000000e+00	 0.000000000000000e+00	 1.270894694310311e+01
 1.776095321699958e+00	 3.286707634368164e-01	 1.315602372854334e+01
 1.781969555282043e+00	 2.951670146713339e-01	 1.314715231212712e+01
 1.787182232431072e+00	 2.617608270620224e-01	 1.313625466070433e+01
 1.791742355811808e+00	 2.284696760862076e-01	 1.312078511348230e+01
 1.795659455300944e+00	 1.953104786970464e-01	 1.309846157559676e+01
 1.798943553681433e+00	 1.622995784598745e-01	 1.306727264038521e+01
 1.801605132223633e+00	 1.294527328622291e-01	 1.302548195865556e+01
 1.803655096293418e+00	 9.678510275205648e-02	 1.297162998537206e+01
 1.805104741120144e+00	 6.431124384984845e-02	 1.290453325302419e+01
 1.805965717849732e+00	 3.204510027254415e-02	 1.282328133659389e+01
 1.806250000000000e+00	 0.000000000000000e+00	 1.272723168753428e+01
 1.769949663150077e+00	 3.275334943609211e-01	 1.317599157977174e+01
 1.775803570663875e+00	 2.941456755223666e-01	 1.316888544598331e+01
 1.780998210867282e+00	 2.608550802579930e-01	 1.315923904033433e+01
 1.785542555273973e+00	 2.276791235763486e-01	 1.314454876542964e+01
 1.789446100785286e+00	 1.946346638944224e-01	 1.312257271043348e+01
 1.792718835503262e+00	 1.617379882254234e-01	 1.309133760896564e+01
 1.795371204430891e+00	 1.290047995327130e-01	 1.304914307326369e+01
 1.797414075199211e+00	 9.645020620455891e-02	 1.299456323415306e+01
 1.798858703953742e+00	 6.408871359564056e-02	 1.292644593497810e+01
 1.799716701525018e+00	 3.193421757336030e-02	 1.284390964309849e+01
 1.800000000000000e+00	 0.000000000000000e+00	 1.274633825488524e+01
 1.763804004599710e+00	 3.263962252845110e-01	 1.319593306241836e+01
 1.769637586045316e+00	 2.931243363728009e-01	 1.319071960587830e+01
 1.774814189303186e+00	 2.599493334533128e-01	 1.318244352063063e+01
 1.779342754735904e+00	 2.268885710658176e-01	 1.316864291284529e+01
 1.783232746269456e+00	 1.939588490911356e-01	 1.314711574259857e+01
 1.786494117324974e+00	 1.611763979903487e-01	 1.311592661735567e+01
 1.789137276638073e+00	 1.285568662026421e-01	 1.307341089069645e+01
 1.791173054104962e+00	 9.611530965660373e-02	 1.301817619496308e+01
 1.792612666787321e+00	 6.386618334110038e-02	 1.294910155489074e+01
 1.793467685200299e+00	 3.182333487399693e-02	 1.286533424453484e+01
 1.793750000000000e+00	 0.000000000000000e+00	 1.276628456197029e+01
 1.757658346048858e+00	 3.252589562075863e-01	 1.321587189553450e+01
 1.763471601426367e+00	 2.921029972226365e-01	 1.321267802551715e+01
 1.768630167738783e+00	 2.590435866479818e-01	 1.320589082869027e+01
 1.773142954197601e+00	 2.260980185546144e-01	 1.319308975726640e+01
 1.777019391753456e+00	 1.932830342871860e-01	 1.317211233134553e+01
 1.780269399146567e+00	 1.606148077546506e-01	 1.314106076794115e+01
 1.782903348845179e+00	 1.281089328720163e-01	 1.309830594393379e+01
 1.784932033010671e+00	 9.578041310819090e-02	 1.304248882078605e+01
 1.786366629620881e+00	 6.364365308622791e-02	 1.297251947700667e+01
 1.787218668875576e+00	 3.171245217445402e-02	 1.288757390940683e+01
 1.787500000000000e+00	 0.000000000000000e+00	 1.278708877618859e+01
 1.751512687497522e+00	 3.241216871301468e-01	 1.323583203377873e+01
 1.757305616807027e+00	 2.910816580718735e-01	 1.323478417895855e+01
 1.762446146174073e+00	 2.581378398419998e-01	 1.322960393606693e+01
 1.766943153659066e+00	 2.253074660427391e-01	 1.321791174815163e+01
 1.770806037237285e+00	 1.926072194825736e-01	 1.319758438668223e+01
 1.774044680968044e+00	 1.600532175183289e-01	 1.316676141607062e+01
 1.776669421052212e+00	 1.276609995408355e-01	 1.312384902051129e+01
 1.778691011916339e+00	 9.544551655932043e-02	 1.306752132014863e+01
 1.780120592454424e+00	 6.342112283102315e-02	 1.299671932150484e+01
 1.780969652550848e+00	 3.160156947473160e-02	 1.291064766196159e+01
 1.781250000000000e+00	 0.000000000000000e+00	 1.280876931992042e+01
 1.745367028945699e+00	 3.229844180521926e-01	 1.325583767156502e+01
 1.751139632187295e+00	 2.900603189205119e-01	 1.325706178484644e+01
 1.756262124609057e+00	 2.572320930353669e-01	 1.325360606307477e+01
 1.760743353120296e+00	 2.245169135301918e-01	 1.324313158724581e+01
 1.764592682720944e+00	 1.919314046772986e-01	 1.322355407378552e+01
 1.767819962789402e+00	 1.594916272813837e-01	 1.319305017450908e+01
 1.770435493259169e+00	 1.272130662090997e-01	 1.315006116700180e+01
 1.772449990821964e+00	 9.511062000999228e-02	 1.309329416161905e+01
 1.773874555287947e+00	 6.319859257548607e-02	 1.302172096900474e+01
 1.774720636226116e+00	 3.149068677482966e-02	 1.293457478669188e+01
 1.775000000000000e+00	 0.000000000000000e+00	 1.283134487501632e+01
 1.739221370393391e+00	 3.218471489737240e-01	 1.327591324729861e+01
 1.744973647567174e+00	 2.890389797685516e-01	 1.327953481073124e+01
 1.750078103043732e+00	 2.563263462280833e-01	 1.327792068318347e+01
 1.754543552581293e+00	 2.237263610169723e-01	 1.326877223303745e+01
 1.758379328204433e+00	 1.912555898713607e-01	 1.325004381750952e+01
 1.761595244610644e+00	 1.589300370438151e-01	 1.321994891798589e+01
 1.764201565466052e+00	 1.267651328768090e-01	 1.317696369359209e+01
 1.766208969727548e+00	 9.477572346020648e-02	 1.311982807840155e+01
 1.767628518121452e+00	 6.297606231961671e-02	 1.304754456516774e+01
 1.768471619901380e+00	 3.137980407474818e-02	 1.295937483293422e+01
 1.768750000000000e+00	 0.000000000000000e+00	 1.285483438738123e+01
 1.733075711840598e+00	 3.207098798947405e-01	 1.329608344770214e+01
 1.738807662946661e+00	 2.880176406159928e-01	 1.330222747748308e+01
 1.743894081478102e+00	 2.554205994201487e-01	 1.330257152750681e+01
 1.748343752042056e+00	 2.229358085030808e-01	 1.329485690531082e+01
 1.752165973687751e+00	 1.905797750647600e-01	 1.327707630698982e+01
 1.755370526431767e+00	 1.583684468056229e-01	 1.324747978783954e+01
 1.757967637672861e+00	 1.263171995439634e-01	 1.320457817875683e+01
 1.759967948633089e+00	 9.444082690996303e-02	 1.314714407302855e+01
 1.761382480954939e+00	 6.275353206341505e-02	 1.307421052539645e+01
 1.762222603576638e+00	 3.126892137448718e-02	 1.298506761956459e+01
 1.762500000000000e+00	 0.000000000000000e+00	 1.287925707165644e+01
 1.726930053287320e+00	 3.195726108152424e-01	 1.331637321223418e+01
 1.732641678325757e+00	 2.869963014628354e-01	 1.332516426379933e+01
 1.737710059912164e+00	 2.545148526115632e-01	 1.332758258938708e+01
 1.742143951502586e+00	 2.221452559885172e-01	 1.332140908979535e+01
 1.745952619170899e+00	 1.899039602574966e-01	 1.330467450034603e+01
 1.749145808252773e+00	 1.578068565668071e-01	 1.327566519676151e+01
 1.751733709879594e+00	 1.258692662105629e-01	 1.323292647403239e+01
 1.753726927538590e+00	 9.410593035926194e-02	 1.317526342215287e+01
 1.755136443788408e+00	 6.253100180688111e-02	 1.310173953963424e+01
 1.755973587251892e+00	 3.115803867404665e-02	 1.301167323979459e+01
 1.756250000000000e+00	 0.000000000000000e+00	 1.290463241600134e+01
 1.720784394733555e+00	 3.184353417352296e-01	 1.333680773760216e+01
 1.726475693704463e+00	 2.859749623090794e-01	 1.334836991080860e+01
 1.731526038345919e+00	 2.536091058023268e-01	 1.335297812907777e+01
 1.735944150962882e+00	 2.213547034732815e-01	 1.334845254291470e+01
 1.739739264653876e+00	 1.892281454495704e-01	 1.333286162948505e+01
 1.742921090073661e+00	 1.572452663273678e-01	 1.330452783364207e+01
 1.745499782086253e+00	 1.254213328766073e-01	 1.326203070889304e+01
 1.747485906444049e+00	 9.377103380810320e-02	 1.320420768144287e+01
 1.748890406621857e+00	 6.230847155001484e-02	 1.313015257726802e+01
 1.749724570927141e+00	 3.104715597342659e-02	 1.303921206607013e+01
 1.750000000000000e+00	 0.000000000000000e+00	 1.293098018697770e+01
 0.000000000000000e+00	 1.750000000000000e+00	 2.228145126672168e+00
 3.104715597342671e-02	 1.749724570927141e+00	 2.358130712852240e+00
 6.230847155001509e-02	 1.748890406621857e+00	 2.482784217449551e+00
 9.377103380810355e-02	 1.747485906444048e+00	 2.606059310368364e+00
 1.254213328766078e-01	 1.745499782086253e+00	 2.731351080763680e+00
 1.572452663273684e-01	 1.742921090073661e+00	 2.861444993563194e+00
 1.892281454495710e-01	 1.739739264653876e+00	 2.998468547798445e+00
 2.213547034732822e-01	 1.735944150962882e+00	 3.143846280006196e+00
 2.536091058023277e-01	 1.731526038345919e+00	 3.298258764319897e+00
 2.859749623090804e-01	 1.726475693704463e+00	 3.461606261457792e+00
 3.184353417352296e-01	 1.720784394733555e+00	 3.632977660945626e+00
 0.000000000000000e+00	 1.743750000000000e+00	 2.214774626250137e+00
 3.093627327280666e-02	 1.743475554602388e+00	 2.341190588803897e+00
 6.208594129314886e-02	 1.742644369455298e+00	 2.462628918655718e+00
 9.343613725694477e-02	 1.741244885349486e+00	 2.583053120178032e+00
 1.249733995426522e-01	 1.739265854292873e+00	 2.705873843499597e+00
 1.566836760879290e-01	 1.736696371894490e+00	 2.833898148610764e+00
 1.885523306416448e-01	 1.733525910136768e+00	 2.969281432403092e+00
 2.205641509580466e-01	 1.729744350423062e+00	 3.113482656010270e+00
 2.527033589930913e-01	 1.725342016779521e+00	 3.267223518233309e+00
 2.849536231553245e-01	 1.720309709082974e+00	 3.430452221536439e+00
 3.172980726552168e-01	 1.714638736179549e+00	 3.602312469452425e+00
 0.000000000000000e+00	 1.737500000000000e+00	 2.201154524443308e+00
 3.082539057236613e-02	 1.737226538277636e+00	 2.323756914652803e+00
 6.186341103661488e-02	 1.736398332288739e+00	 2.441769256488113e+00
 9.310124070624369e-02	 1.735003864254924e+00	 2.559165813780211e+00
 1.245254662092517e-01	 1.733031926499495e+00	 2.679373616897349e+00
 1.561220858491134e-01	 1.730471653715320e+00	 2.805222026232972e+00
 1.878765158343814e-01	 1.727312555619660e+00	 2.938894920047846e+00
 2.197735984434829e-01	 1.723544549883242e+00	 3.081886138229637e+00
 2.517976121845058e-01	 1.719157995213123e+00	 3.234958821982502e+00
 2.839322840021671e-01	 1.714143724461484e+00	 3.398109290302793e+00
 3.161608035757187e-01	 1.708493077625542e+00	 3.570536086661197e+00
 0.000000000000000e+00	 1.731250000000000e+00	 2.187284571387085e+00
 3.071450787210513e-02	 1.730977521952882e+00	 2.305828179286508e+00
 6.164088078041322e-02	 1.730152295122179e+00	 2.420202491918354e+00
 9.276634415600024e-02	 1.728762843160361e+00	 2.534393460564540e+00
 1.240775328764061e-01	 1.726797998706116e+00	 2.651845318340059e+00
 1.555604956109211e-01	 1.724246935536149e+00	 2.775410434865421e+00
 1.872007010277807e-01	 1.721099201102552e+00	 2.907301757011780e+00
 2.189830459295914e-01	 1.717344749343421e+00	 3.049048461553714e+00
 2.508918653765713e-01	 1.712973973646726e+00	 3.201455454056497e+00
 2.829109448496083e-01	 1.707977739839994e+00	 3.364567349301375e+00
 3.150235344967353e-01	 1.702347419071536e+00	 3.537637561327979e+00
 0.000000000000000e+00	 1.725000000000000e+00	 2.173164513595694e+00
 3.060362517202365e-02	 1.724728505628130e+00	 2.287402851786650e+00
 6.141835052454387e-02	 1.723906257955620e+00	 2.397925852001181e+00
 9.243144760621444e-02	 1.722521822065799e+00	 2.508732084033892e+00
 1.236295995441154e-01	 1.720564070912737e+00	 2.623283809559400e+00
 1.549989053733525e-01	 1.718022217356979e+00	 2.744457119793958e+00
 1.865248862218429e-01	 1.714885846585444e+00	 2.874494621248715e+00
 2.181924934163719e-01	 1.711144948803601e+00	 3.014961289749754e+00
 2.499861185692875e-01	 1.706789952080327e+00	 3.166704121454789e+00
 2.818896056976480e-01	 1.701811755218504e+00	 3.329816210693487e+00
 3.138862654182665e-01	 1.696201760517529e+00	 3.503605877451552e+00
 0.000000000000000e+00	 1.718750000000000e+00	 2.158794093896440e+00
 3.049274247212171e-02	 1.718479489303377e+00	 2.268479381068092e+00
 6.119582026900679e-02	 1.717660220789060e+00	 2.374936529258221e+00
 9.209655105688630e-02	 1.716280800971237e+00	 2.482177660971101e+00
 1.231816662123796e-01	 1.714330143119358e+00	 2.593683895623879e+00
 1.544373151364073e-01	 1.711797499177809e+00	 2.712355762006319e+00
 1.858490714165678e-01	 1.708672492068336e+00	 2.840466121145102e+00
 2.174019409038246e-01	 1.704945148263781e+00	 2.979616214169478e+00
 2.490803717626546e-01	 1.700605930513930e+00	 3.130695458386409e+00
 2.808682665462864e-01	 1.695645770597015e+00	 3.293845615996603e+00
 3.127489963403123e-01	 1.690056101963523e+00	 3.468429953095931e+00
 0.000000000000000e+00	 1.712500000000000e+00	 2.144173051362300e+00
 3.038185977239929e-02	 1.712230472978624e+00	 2.249056195511759e+00
 6.097329001380203e-02	 1.711414183622502e+00	 2.351231681046836e+00
 9.176165450801582e-02	 1.710039779876674e+00	 2.454726120585222e+00
 1.227337328811989e-01	 1.708096215325980e+00	 2.563040323905259e+00
 1.538757249000856e-01	 1.705572780998638e+00	 2.679099977018568e+00
 1.851732566119554e-01	 1.702459137551228e+00	 2.805208794250586e+00
 2.166113883919493e-01	 1.698745347723961e+00	 2.943004752428456e+00
 2.481746249566727e-01	 1.694421908947531e+00	 3.093420024942386e+00
 2.798469273955234e-01	 1.689479785975526e+00	 3.256645234794536e+00
 3.116117272628729e-01	 1.683910443409517e+00	 3.432098639186718e+00
 0.000000000000000e+00	 1.706250000000000e+00	 2.129301121243045e+00
 3.027097707285637e-02	 1.705981456653871e+00	 2.229131702587503e+00
 6.075075975892956e-02	 1.705168146455943e+00	 2.326808428917305e+00
 9.142675795960301e-02	 1.703798758782112e+00	 2.426373343641184e+00
 1.222857995505730e-01	 1.701862287532601e+00	 2.531347783021780e+00
 1.533141346643875e-01	 1.699348062819468e+00	 2.644683313676370e+00
 1.844974418080058e-01	 1.696245783034120e+00	 2.768715105980252e+00
 2.158208358807461e-01	 1.692545547184140e+00	 2.905118347054934e+00
 2.472688781513415e-01	 1.688237887381134e+00	 3.054868305737823e+00
 2.788255882453590e-01	 1.683313801354036e+00	 3.218204663420589e+00
 3.104744581859482e-01	 1.677764784855510e+00	 3.394600718282200e+00
 0.000000000000000e+00	 1.700000000000000e+00	 2.114178034895030e+00
 3.016009437349301e-02	 1.699732440329119e+00	 2.208704288470330e+00
 6.052822950438938e-02	 1.698922109289383e+00	 2.301663857953751e+00
 9.109186141164781e-02	 1.697557737687550e+00	 2.397115161568702e+00
 1.218378662205021e-01	 1.695628359739223e+00	 2.498600901758150e+00
 1.527525444293128e-01	 1.693123344640297e+00	 2.609099252929160e+00
 1.838216270047190e-01	 1.690032428517012e+00	 2.730977448289433e+00
 2.150302833702150e-01	 1.686345746644320e+00	 2.865948364109549e+00
 2.463631313466614e-01	 1.682053865814736e+00	 3.015030708524935e+00
 2.778042490957932e-01	 1.677147816732546e+00	 3.178513423610634e+00
 3.093371891095381e-01	 1.671619126301504e+00	 3.355924903315916e+00
 0.000000000000000e+00	 1.693750000000000e+00	 2.098803519709356e+00
 3.004921167430915e-02	 1.693483424004366e+00	 2.187772317648114e+00
 6.030569925018151e-02	 1.692676072122824e+00	 2.275795016101263e+00
 9.075696486415027e-02	 1.691316716592987e+00	 2.366947355552105e+00
 1.213899328909861e-01	 1.689394431945843e+00	 2.464794247960741e+00
 1.521909541948617e-01	 1.686898626461127e+00	 2.572341206577459e+00
 1.831458122020950e-01	 1.683819073999904e+00	 2.691988138317684e+00
 2.142397308603560e-01	 1.680145946104500e+00	 2.825486091774864e+00
 2.454573845426321e-01	 1.675869844248338e+00	 2.973897562774165e+00
 2.767829099468259e-01	 1.670981832111057e+00	 3.137560961126540e+00
 3.081999200336427e-01	 1.665473467747497e+00	 3.316059836312365e+00
 0.000000000000000e+00	 1.687500000000000e+00	 2.083177299038859e+00
 2.993832897530482e-02	 1.687234407679613e+00	 2.166334132518902e+00
 6.008316899630591e-02	 1.686430034956264e+00	 2.249198913478947e+00
 9.042206831711039e-02	 1.685075695498425e+00	 2.335865655600055e+00
 1.209419995620250e-01	 1.683160504152465e+00	 2.429922327410852e+00
 1.516293639610342e-01	 1.680673908281957e+00	 2.534402515992362e+00
 1.824699974001337e-01	 1.677605719482796e+00	 2.651739417002962e+00
 2.134491783511691e-01	 1.673946145564679e+00	 2.783722738912897e+00
 2.445516377392536e-01	 1.669685822681939e+00	 2.931459118225734e+00
 2.757615707984573e-01	 1.664815847489567e+00	 3.095336644350148e+00
 3.070626509582619e-01	 1.659327809193490e+00	 3.274994087074107e+00
 3.184353417352296e-01	 1.720784394733555e+00	 3.632977660945626e+00
 3.509728071781691e-01	 1.714443955334942e+00	 3.803690754779892e+00
 3.835694166088040e-01	 1.707446765533649e+00	 4.009654517518504e+00
 4.162067244205513e-01	 1.699785831195978e+00	 4.248336797779895e+00
 4.488658230561827e-01	 1.691454797897647e+00	 4.516256504869494e+00
 4.815273682432624e-01	 1.682447981375147e+00	 4.808981457877377e+00
 5.141716063784993e-01	 1.672760396943115e+00	 5.121134861687395e+00
 5.467784040252037e-01	 1.662387787713413e+00	 5.446410776410640e+00
 5.793272794744625e-01	 1.651326651451478e+00	 5.777598862381807e+00
 6.117974363067863e-01	 1.639574265906616e+00	 6.106618589689030e+00
 6.441677988769666e-01	 1.627128712455193e+00	 6.358369212329357e+00
 3.172980726552168e-01	 1.714638736179549e+00	 3.602312469452425e+00
 3.497193328647281e-01	 1.708320941207115e+00	 3.772134804464711e+00
 3.821995258333502e-01	 1.701348741369238e+00	 3.977082465516678e+00
 4.147202718316655e-01	 1.693715167511270e+00	 4.214676363254962e+00
 4.472627308294344e-01	 1.685413887903302e+00	 4.481497456368280e+00
 4.798076276409079e-01	 1.676439238582769e+00	 4.773184460511132e+00
 5.123352792113763e-01	 1.666786252666756e+00	 5.084440092492458e+00
 5.448256240092807e-01	 1.656450688470297e+00	 5.409046213451521e+00
 5.772582534746676e-01	 1.645429056266814e+00	 5.739888151315402e+00
 6.096124454609732e-01	 1.633718643527935e+00	 6.068988390690410e+00
 6.418671995931498e-01	 1.621317538482254e+00	 6.328697602383714e+00
 3.161608035757187e-01	 1.708493077625542e+00	 3.570536086661197e+00
 3.484658585517065e-01	 1.702197927079289e+00	 3.739613189819662e+00
 3.808296350582296e-01	 1.695250717204827e+00	 3.943721081901378e+00
 4.132338192430361e-01	 1.687644503826563e+00	 4.180433144051946e+00
 4.456596386028757e-01	 1.679372977908958e+00	 4.446391638723578e+00
 4.780878870386854e-01	 1.670430495790391e+00	 4.737305277531449e+00
 5.104989520443385e-01	 1.660812108390396e+00	 5.047955233754202e+00
 5.428728439934060e-01	 1.650513589227181e+00	 5.372209960451133e+00
 5.751892274748941e-01	 1.639531461082150e+00	 5.703049092683655e+00
 6.074274546151652e-01	 1.627863021149254e+00	 6.032596621201082e+00
 6.395666003093325e-01	 1.615506364509316e+00	 6.300788436593844e+00
 3.150235344967353e-01	 1.702347419071536e+00	 3.537637561327979e+00
 3.472123842391040e-01	 1.696074912951461e+00	 3.706114529625503e+00
 3.794597442834421e-01	 1.689152693040416e+00	 3.909558565591528e+00
 4.117473666546630e-01	 1.681573840141854e+00	 4.145594933152501e+00
 4.440565463765060e-01	 1.673332067914612e+00	 4.410926457019297e+00
 4.763681464365951e-01	 1.664421752998012e+00	 4.701330948577949e+00
 5.086626248773857e-01	 1.654837964114037e+00	 5.011666986819532e+00
 5.409200639775792e-01	 1.644576489984066e+00	 5.335888412581659e+00
 5.731202014751422e-01	 1.633633865897485e+00	 5.667067812819467e+00
 6.052424637693627e-01	 1.622007398770572e+00	 5.997429181496098e+00
 6.372660010255159e-01	 1.609695190536379e+00	 6.274641219530213e+00
 3.138862654182665e-01	 1.696201760517529e+00	 3.503605877451552e+00
 3.459589099269209e-01	 1.689951898823635e+00	 3.671627389922534e+00
 3.780898535089879e-01	 1.683054668876005e+00	 3.874583076441777e+00
 4.102609140665467e-01	 1.675503176457145e+00	 4.110149499813275e+00
 4.424534541503263e-01	 1.667291157920268e+00	 4.375089309619502e+00
 4.746484058346370e-01	 1.658413010205633e+00	 4.665248525237704e+00
 5.068262977105178e-01	 1.648863819837677e+00	 4.975562085304869e+00
 5.389672839618007e-01	 1.638639390740951e+00	 5.300068019252792e+00
 5.710511754754116e-01	 1.627736270712820e+00	 5.631930515889457e+00
 6.030574729235657e-01	 1.616151776391890e+00	 5.963472074890480e+00
 6.349654017416988e-01	 1.603884016563440e+00	 6.250255585595893e+00
 3.127489963403123e-01	 1.690056101963523e+00	 3.468429953095931e+00
 3.447054356151571e-01	 1.683828884695807e+00	 3.636140283051877e+00
 3.767199627348667e-01	 1.676956644711594e+00	 3.838782734532578e+00
 4.087744614786866e-01	 1.669432512772437e+00	 4.074084589135332e+00
 4.408503619243356e-01	 1.661250247925923e+00	 4.338867588046206e+00
 4.729286652328112e-01	 1.652404267413255e+00	 4.629045071262120e+00
 5.049899705437351e-01	 1.642889675561317e+00	 4.939627295684056e+00
 5.370145039460699e-01	 1.632702291497834e+00	 5.264735285096818e+00
 5.689821494757026e-01	 1.621838675528156e+00	 5.597623485309070e+00
 6.008724820777742e-01	 1.610296154013210e+00	 5.930711409612824e+00
 6.326648024578820e-01	 1.598072842590502e+00	 6.227631301387339e+00
 3.116117272628729e-01	 1.683910443409517e+00	 3.432098639186718e+00
 3.434519613038127e-01	 1.677705870567981e+00	 3.599641666675697e+00
 3.753500719610787e-01	 1.670858620547183e+00	 3.802145619443887e+00
 4.072880088910831e-01	 1.663361849087728e+00	 4.037387921623091e+00
 4.392472696985345e-01	 1.655209337931578e+00	 4.302248676855108e+00
 4.712089246311177e-01	 1.646395524620877e+00	 4.592707662789443e+00
 5.031536433770374e-01	 1.636915531284957e+00	 4.903849417886761e+00
 5.350617239303875e-01	 1.626765192254719e+00	 5.229876770976964e+00
 5.669131234760149e-01	 1.615941080343491e+00	 5.564133085188716e+00
 5.986874912319879e-01	 1.604440531634528e+00	 5.899133400719635e+00
 6.303642031740651e-01	 1.592261668617564e+00	 6.206768268106118e+00
 3.104744581859482e-01	 1.677764784855510e+00	 3.394600718282200e+00
 3.421984869928874e-01	 1.671582856440154e+00	 3.562119942775533e+00
 3.739801811876239e-01	 1.664760596382772e+00	 3.764659769513660e+00
 4.058015563037361e-01	 1.657291185403021e+00	 4.000047192733814e+00
 4.376441774729229e-01	 1.649168427937233e+00	 4.265219953507212e+00
 4.694891840295564e-01	 1.640386781828499e+00	 4.556223388571518e+00
 5.013173162104245e-01	 1.630941387008598e+00	 4.868215285911582e+00
 5.331089439147528e-01	 1.620828093011603e+00	 5.195479095018165e+00
 5.648440974763487e-01	 1.610043485158827e+00	 5.531445761811480e+00
 5.965025003862070e-01	 1.598584909255847e+00	 5.868724372052104e+00
 6.280636038902480e-01	 1.586450494644626e+00	 6.187666524024894e+00
 3.093371891095381e-01	 1.671619126301504e+00	 3.355924903315916e+00
 3.409450126823815e-01	 1.665459842312327e+00	 3.523563456629097e+00
 3.726102904145024e-01	 1.658662572218361e+00	 3.726313181079166e+00
 4.043151037166455e-01	 1.651220521718312e+00	 3.962050072417445e+00
 4.360410852475006e-01	 1.643127517942888e+00	 4.227768788239298e+00
 4.677694434281273e-01	 1.634378039036120e+00	 4.519579350205184e+00
 4.994809890438971e-01	 1.624967242732239e+00	 4.832711768452646e+00
 5.311561638991665e-01	 1.614890993768488e+00	 5.161528933657722e+00
 5.627750714767039e-01	 1.604145889974162e+00	 5.499548045143911e+00
 5.943175095404315e-01	 1.592729286877165e+00	 5.839470758235859e+00
 6.257630046064310e-01	 1.580639320671688e+00	 6.170326247006589e+00
 3.081999200336427e-01	 1.665473467747497e+00	 3.316059836312365e+00
 3.396915383722950e-01	 1.659336828184500e+00	 3.483960495763485e+00
 3.712403996417140e-01	 1.652564548053950e+00	 3.687093807703608e+00
 4.028286511298116e-01	 1.645149858033605e+00	 3.923384204645441e+00
 4.344379930222678e-01	 1.637086607948543e+00	 4.189882543929392e+00
 4.660497028268303e-01	 1.628369296243742e+00	 4.482762662369948e+00
 4.976446618774545e-01	 1.618993098455879e+00	 4.797325769539780e+00
 5.292033838836282e-01	 1.608953894525373e+00	 5.128013022722848e+00
 5.607060454770807e-01	 1.598248294789498e+00	 5.468426550380153e+00
 5.921325186946614e-01	 1.586873664498484e+00	 5.811359106724389e+00
 6.234624053226140e-01	 1.574828146698750e+00	 6.148832448465013e+00
 3.070626509582619e-01	 1.659327809193490e+00	 3.274994087074107e+00
 3.384380640626277e-01	 1.653213814056673e+00	 3.443299288886508e+00
 3.698705088692585e-01	 1.646466523889539e+00	 3.646989559381965e+00
 4.013421985432338e-01	 1.639079194348896e+00	 3.884037206930205e+00
 4.328349007972243e-01	 1.631045697954198e+00	 4.151548575962229e+00
 4.643299622256656e-01	 1.622360553451363e+00	 4.445760453069559e+00
 4.958083347110969e-01	 1.613018954179519e+00	 4.762044229191817e+00
 5.272506038681378e-01	 1.603016795282257e+00	 5.094918158529597e+00
 5.586370194774788e-01	 1.592350699604834e+00	 5.438067979519844e+00
 5.899475278488967e-01	 1.581018042119802e+00	 5.784376079889453e+00
 6.211618060387971e-01	 1.569016972725812e+00	 6.125959297294310e+00
 6.441677988769666e-01	 1.627128712455193e+00	 6.358369212329354e+00
 6.764162018519378e-01	 1.613989238311922e+00	 6.766744718312194e+00
 7.085219225555182e-01	 1.600155284709705e+00	 7.152733880190319e+00
 7.404632781351761e-01	 1.585627467014605e+00	 7.511068814435742e+00
 7.722184657220236e-01	 1.570407278836156e+00	 7.836399341315182e+00
 8.037656058892707e-01	 1.554497104992038e+00	 8.123334527777295e+00
 8.350827872829872e-01	 1.537900231942552e+00	 8.366486452903935e+00
 8.661481122562706e-01	 1.520620855587198e+00	 8.560515848452015e+00
 8.969397433274091e-01	 1.502664086328314e+00	 8.700179230054925e+00
 9.274359502731981e-01	 1.484035951320548e+00	 8.780377101355905e+00
 9.576151576602960e-01	 1.464743393839698e+00	 8.796202784396309e+00
 6.418671995931498e-01	 1.621317538482254e+00	 6.328697602383707e+00
 6.740004297000887e-01	 1.608224991032903e+00	 6.737883612615272e+00
 7.059914871152199e-01	 1.594440444408272e+00	 7.123653935882965e+00
 7.378187664247717e-01	 1.579964511776686e+00	 7.480829200626759e+00
 7.694605426272457e-01	 1.564798681413362e+00	 7.804154370045266e+00
 8.008950144366620e-01	 1.548945329618768e+00	 8.088339823767985e+00
 8.321003487539267e-01	 1.532407731115849e+00	 8.328104607325411e+00
 8.630547261380194e-01	 1.515190066818746e+00	 8.518221505057593e+00
 8.937363870982346e-01	 1.497297428878360e+00	 8.653563555779822e+00
 9.241236790193086e-01	 1.478735822923787e+00	 8.729151597843885e+00
 9.541951035230191e-01	 1.459512167433410e+00	 8.740202401852715e+00
 6.395666003093325e-01	 1.615506364509316e+00	 6.300788436593844e+00
 6.715846575482395e-01	 1.602460743753888e+00	 6.710834173952444e+00
 7.034610516749216e-01	 1.588725604106858e+00	 7.096429213033501e+00
 7.351742547143674e-01	 1.574301556538812e+00	 7.452482002689410e+00
 7.667026195324677e-01	 1.559190083990645e+00	 7.773831948568899e+00
 7.980244229840535e-01	 1.543393554245621e+00	 8.055290037741356e+00
 8.291179102248665e-01	 1.526915230289322e+00	 8.291681576571808e+00
 8.599613400197682e-01	 1.509759278050534e+00	 8.477890700563872e+00
 8.905330308690603e-01	 1.491930771428722e+00	 8.608906279209418e+00
 9.208114077654190e-01	 1.473435694527426e+00	 8.679868806803706e+00
 9.507750493857414e-01	 1.454280941027615e+00	 8.686117842388072e+00
 6.372660010255159e-01	 1.609695190536379e+00	 6.274641219530213e+00
 6.691688853963903e-01	 1.596696496474879e+00	 6.685594381243972e+00
 7.009306162346232e-01	 1.583010763805463e+00	 7.071056068461042e+00
 7.325297430039632e-01	 1.568638601300982e+00	 7.426021862702046e+00
 7.639446964376899e-01	 1.553581486568007e+00	 7.745424915736127e+00
 7.951538315314448e-01	 1.537841778872595e+00	 8.024176121314968e+00
 8.261354716958057e-01	 1.521422729462971e+00	 8.257206345819162e+00
 8.568679539015170e-01	 1.504328489282564e+00	 8.439510379587254e+00
 8.873296746398861e-01	 1.486564113979399e+00	 8.566192235644229e+00
 9.174991365115293e-01	 1.468135566131464e+00	 8.632511391081421e+00
 9.473549952484640e-01	 1.449049714622316e+00	 8.633929539098274e+00
 6.349654017416988e-01	 1.603884016563440e+00	 6.250255585595896e+00
 6.667531132445409e-01	 1.590932249195874e+00	 6.662162332673695e+00
 6.984001807943253e-01	 1.577295923504088e+00	 7.047530966489171e+00
 7.298852312935586e-01	 1.562975646063195e+00	 7.401443517303989e+00
 7.611867733429118e-01	 1.547972889145446e+00	 7.718926190843597e+00
 7.922832400788360e-01	 1.532290003499692e+00	 7.994989091280202e+00
 8.231530331667453e-01	 1.515930228636796e+00	 8.224667949004138e+00
 8.537745677832657e-01	 1.498897700514833e+00	 8.403067517969447e+00
 8.841263184107115e-01	 1.481197456530390e+00	 8.525406272980138e+00
 9.141868652576398e-01	 1.462835437735902e+00	 8.587062006415657e+00
 9.439349411111866e-01	 1.443818488217510e+00	 8.583617897227411e+00
 6.326648024578820e-01	 1.598072842590502e+00	 6.227631301387342e+00
 6.643373410926917e-01	 1.585168001916874e+00	 6.640536247857256e+00
 6.958697453540272e-01	 1.571581083202732e+00	 7.025850480898921e+00
 7.272407195831545e-01	 1.557312690825451e+00	 7.378741799414684e+00
 7.584288502481338e-01	 1.542364291722963e+00	 7.694328775096695e+00
 7.894126486262273e-01	 1.526738228126910e+00	 7.967720030787378e+00
 8.201705946376848e-01	 1.510437727810798e+00	 8.194055469710104e+00
 8.506811816650145e-01	 1.493466911747343e+00	 8.368549123346563e+00
 8.809229621815372e-01	 1.475830799081697e+00	 8.486533251935361e+00
 9.108745940037504e-01	 1.457535309340740e+00	 8.543503301307059e+00
 9.405148869739093e-01	 1.438587261813201e+00	 8.535163293660338e+00
 6.303642031740651e-01	 1.592261668617564e+00	 6.206768268106116e+00
 6.619215689408426e-01	 1.579403754637879e+00	 6.620714470057468e+00
 6.933393099137291e-01	 1.565866242901396e+00	 7.006011296927081e+00
 7.245962078727504e-01	 1.551649735587752e+00	 7.357911639990671e+00
 7.556709271533560e-01	 1.536755694300558e+00	 7.671625753104794e+00
 7.865420571736188e-01	 1.521186452754252e+00	 7.942360090556193e+00
 8.171881561086243e-01	 1.504945226984976e+00	 8.165358042073345e+00
 8.475877955467630e-01	 1.488036122980094e+00	 8.335942235728506e+00
 8.777196059523629e-01	 1.470464141633318e+00	 8.449558046286597e+00
 9.075623227498608e-01	 1.452235180945978e+00	 8.501817916887662e+00
 9.370948328366319e-01	 1.433356035409385e+00	 8.488546076406035e+00
 6.280636038902480e-01	 1.586450494644626e+00	 6.187666524024894e+00
 6.595057967889933e-01	 1.573639507358888e+00	 6.602695468450149e+00
 6.908088744734305e-01	 1.560151402600078e+00	 6.988010213307403e+00
 7.219516961623461e-01	 1.545986780350096e+00	 7.338948069821344e+00
 7.529130040585783e-01	 1.531147096878231e+00	 7.650810294408204e+00
 7.836714657210101e-01	 1.515634677381714e+00	 7.918900490114135e+00
 8.142057175795641e-01	 1.499452726159330e+00	 8.138564851708948e+00
 8.444944094285118e-01	 1.482605334213086e+00	 8.305233928092392e+00
 8.745162497231885e-01	 1.465097484185255e+00	 8.414465543106722e+00
 9.042500514959712e-01	 1.446935052551616e+00	 8.461988486784435e+00
 9.336747786993542e-01	 1.428124809006065e+00	 8.443746564068377e+00
 6.257630046064310e-01	 1.580639320671688e+00	 6.170326247006590e+00
 6.570900246371442e-01	 1.567875260079903e+00	 6.586477840437672e+00
 6.882784390331327e-01	 1.554436562298780e+00	 6.971844144356719e+00
 7.193071844519418e-01	 1.540323825112483e+00	 7.321846221363852e+00
 7.501550809638003e-01	 1.525538499455982e+00	 7.631875655040311e+00
 7.808008742684015e-01	 1.510082902009299e+00	 7.897332519060340e+00
 8.112232790505033e-01	 1.493960225333861e+00	 8.113665136657040e+00
 8.414010233102607e-01	 1.477174545446319e+00	 8.276411306988152e+00
 8.713128934940141e-01	 1.459730826737508e+00	 8.381240643009981e+00
 9.009377802420815e-01	 1.441634924157653e+00	 8.423997636982280e+00
 9.302547245620765e-01	 1.422893582603239e+00	 8.400745045305529e+00
 6.234624053226140e-01	 1.574828146698750e+00	 6.148832448465013e+00
 6.546742524852950e-01	 1.562111012800922e+00	 6.572060314014719e+00
 6.857480035928343e-01	 1.548721721997501e+00	 6.957510122107360e+00
 7.166626727415374e-01	 1.534660869874914e+00	 7.306601330619015e+00
 7.473971578690223e-01	 1.519929902033811e+00	 7.614815179122258e+00
 7.779302828157929e-01	 1.504531126637006e+00	 7.877647538359108e+00
 8.082408405214427e-01	 1.488467724508568e+00	 8.090648188349782e+00
 8.383076371920096e-01	 1.471743756679791e+00	 8.249461513158584e+00
 8.681095372648396e-01	 1.454364169290075e+00	 8.349868260401440e+00
 8.976255089881922e-01	 1.436334795764090e+00	 8.387827985682991e+00
 9.268346704247993e-01	 1.417662356200907e+00	 8.359521778277831e+00
 6.211618060387971e-01	 1.569016972725812e+00	 6.125959297294305e+00
 6.522584803334457e-01	 1.556346765521946e+00	 6.559441750187299e+00
 6.832175681525360e-01	 1.543006881696241e+00	 6.945005298488016e+00
 7.140181610311332e-01	 1.528997914637390e+00	 7.293208739048966e+00
 7.446392347742444e-01	 1.514321304611717e+00	 7.599622300494922e+00
 7.750596913631842e-01	 1.498979351264834e+00	 7.859836981661245e+00
 8.052584019923822e-01	 1.482975223683451e+00	 8.069503352600814e+00
 8.352142510737581e-01	 1.466312967913504e+00	 8.224371722171325e+00
 8.649061810356652e-01	 1.448997511842957e+00	 8.320333323732459e+00
 8.943132377343024e-01	 1.431034667370927e+00	 8.353462143160616e+00
 9.234146162875218e-01	 1.412431129799070e+00	 8.320056990082449e+00
 9.576151576602960e-01	 1.464743393839698e+00	 8.796202784396309e+00
 9.874567378783929e-01	 1.444793776856937e+00	 9.095894855116761e+00
 1.016938784226008e+00	 1.424196369164125e+00	 9.439492361130011e+00
 1.046040470917851e+00	 1.402960829775318e+00	 9.818975870411098e+00
 1.074741317360356e+00	 1.381097701737783e+00	 1.022624739455874e+01
 1.103021234727538e+00	 1.358618396671805e+00	 1.065318836508220e+01
 1.130860571697504e+00	 1.335535176382025e+00	 1.109171780797803e+01
 1.158240159135642e+00	 1.311861131594515e+00	 1.153385015774442e+01
 1.185141353514628e+00	 1.287610157891568e+00	 1.197175215232061e+01
 1.211546078867196e+00	 1.262796928933673e+00	 1.239779825828450e+01
 1.237436867075000e+00	 1.237436867075000e+00	 1.214940434335541e+01
 9.541951035230191e-01	 1.459512167433410e+00	 8.740202401852716e+00
 9.839301066690574e-01	 1.439633799082169e+00	 9.048010379685383e+00
 1.013306859994129e+00	 1.419109953559193e+00	 9.403450893852701e+00
 1.042304612090747e+00	 1.397950255382059e+00	 9.798531740854189e+00
 1.070902955510322e+00	 1.376165209944294e+00	 1.022516851061937e+01
 1.099081873172677e+00	 1.353766188110397e+00	 1.067524208457012e+01
 1.126821783939212e+00	 1.330765407892851e+00	 1.114065640606358e+01
 1.154103587136508e+00	 1.307175913265134e+00	 1.161339596979471e+01
 1.180908705821268e+00	 1.283011550182459e+00	 1.208558247643278e+01
 1.207219128583251e+00	 1.258286939899386e+00	 1.254953010590673e+01
 1.233017449690250e+00	 1.233017449690250e+00	 1.209756542292769e+01
 9.507750493857414e-01	 1.454280941027615e+00	 8.686117842388075e+00
 9.804034754597267e-01	 1.434473821307986e+00	 9.002332800584501e+00
 1.009674935762269e+00	 1.414023537954916e+00	 9.369921794579469e+00
 1.038568753263687e+00	 1.392939680989506e+00	 9.780918739477023e+00
 1.067064593660368e+00	 1.371232718151542e+00	 1.022725166001096e+01
 1.095142511617941e+00	 1.348913979549737e+00	 1.070079971645820e+01
 1.122782996181099e+00	 1.325995639404415e+00	 1.119345057717823e+01
 1.149967015137618e+00	 1.302490694936461e+00	 1.169715758972853e+01
 1.176676058128227e+00	 1.278412942474010e+00	 1.220399620157434e+01
 1.202892178299711e+00	 1.253776950865690e+00	 1.270621908782653e+01
 1.228598032306000e+00	 1.228598032306000e+00	 1.204357044448896e+01
 9.473549952484640e-01	 1.449049714622316e+00	 8.633929539098274e+00
 9.768768442504012e-01	 1.429313843534388e+00	 8.958843841740276e+00
 1.006043011530430e+00	 1.408937122351295e+00	 9.338888323803733e+00
 1.034832894436672e+00	 1.387929106597658e+00	 9.766121909646889e+00
 1.063226231810493e+00	 1.366300226359527e+00	 1.023248391519102e+01
 1.091203150063329e+00	 1.344061770989825e+00	 1.072985060774820e+01
 1.118744208423166e+00	 1.321225870916718e+00	 1.125009218687193e+01
 1.145830443138972e+00	 1.297805476608498e+00	 1.178512964350824e+01
 1.172443410435505e+00	 1.273814334766221e+00	 1.232699095314700e+01
 1.198565228016576e+00	 1.249266961832584e+00	 1.282445978355049e+01
 1.224178614922250e+00	 1.224178614922250e+00	 1.198746505402180e+01
 9.439349411111866e-01	 1.443818488217510e+00	 8.583617897227411e+00
 9.733502130410799e-01	 1.424153865761374e+00	 8.917525229239672e+00
 1.002411087298610e+00	 1.403850706748329e+00	 9.310333777431861e+00
 1.031097035609702e+00	 1.382918532206518e+00	 9.754126366590709e+00
 1.059387869960698e+00	 1.361367734568249e+00	 1.024085246006451e+01
 1.087263788508843e+00	 1.339209562430661e+00	 1.076238425955258e+01
 1.114705420665412e+00	 1.316456102429760e+00	 1.131057330047533e+01
 1.141693871140572e+00	 1.293120258281244e+00	 1.187730700547284e+01
 1.168210762743105e+00	 1.269215727059091e+00	 1.245456465636438e+01
 1.194238277733846e+00	 1.244756972800067e+00	 1.271973289829546e+01
 1.219759197539001e+00	 1.219759197539001e+00	 1.192929530832498e+01
 9.405148869739093e-01	 1.438587261813201e+00	 8.535163293660338e+00
 9.698235818317642e-01	 1.418993887988946e+00	 8.878358691368391e+00
 9.987791630668097e-01	 1.398764291146019e+00	 9.284241487427163e+00
 1.027361176782776e+00	 1.377907957816084e+00	 9.744917298702468e+00
 1.055549508110983e+00	 1.356435242777708e+00	 1.025234459200915e+01
 1.083324426954481e+00	 1.334357353872245e+00	 1.079839032989624e+01
 1.110666632907838e+00	 1.311686333943541e+00	 1.137488618673144e+01
 1.137557299142417e+00	 1.288435039954700e+00	 1.197368480285384e+01
 1.163978115051024e+00	 1.264617119352621e+00	 1.258671554170385e+01
 1.189911327451521e+00	 1.240246983768141e+00	 1.261263713949959e+01
 1.215339780156250e+00	 1.215339780156250e+00	 1.186910768248278e+01
 9.370948328366319e-01	 1.433356035409385e+00	 8.488546076406035e+00
 9.662969506224535e-01	 1.413833910217103e+00	 8.841325958652600e+00
 9.951472388350296e-01	 1.393677875544364e+00	 9.260594822467704e+00
 1.023625317955896e+00	 1.372897383426356e+00	 9.738479968877391e+00
 1.051711146261348e+00	 1.351502750987905e+00	 1.026694772394653e+01
 1.079385065400243e+00	 1.329505145314577e+00	 1.083785863658013e+01
 1.106627845150444e+00	 1.306916565458059e+00	 1.144302332150787e+01
 1.133420727144506e+00	 1.283749821628865e+00	 1.207425842038970e+01
 1.159745467359262e+00	 1.260018511646811e+00	 1.272344215047591e+01
 1.185584377169602e+00	 1.235736994736804e+00	 1.250321527413877e+01
 1.210920362774000e+00	 1.210920362774000e+00	 1.180694907749784e+01
 9.336747786993542e-01	 1.428124809006065e+00	 8.443746564068377e+00
 9.627703194131474e-01	 1.408673932445844e+00	 8.806408763899107e+00
 9.915153146032691e-01	 1.388591459943365e+00	 9.239377188619063e+00
 1.019889459129059e+00	 1.367886809037334e+00	 9.734799715877312e+00
 1.047872784411792e+00	 1.346570259198838e+00	 1.028464938645835e+01
 1.075445703846130e+00	 1.324652936757657e+00	 1.088077916010767e+01
 1.102589057393229e+00	 1.302146796973317e+00	 1.151497739159017e+01
 1.129284155146840e+00	 1.279064603303739e+00	 1.217902350504222e+01
 1.155512819667821e+00	 1.255419903941660e+00	 1.286474334051787e+01
 1.181257426888086e+00	 1.231227005706057e+00	 1.239151044291634e+01
 1.206500945392250e+00	 1.206500945392250e+00	 1.174286682809181e+01
 9.302547245620765e-01	 1.422893582603239e+00	 8.400745045305527e+00
 9.592436882038468e-01	 1.403513954675170e+00	 8.773588842236885e+00
 9.878833903715288e-01	 1.383505044343021e+00	 9.220572030021291e+00
 1.016153600302269e+00	 1.362876234649018e+00	 9.733861955724487e+00
 1.044034422562316e+00	 1.341637767410509e+00	 1.030543722994932e+01
 1.071506342292142e+00	 1.319800728201485e+00	 1.092714204667509e+01
 1.098550269636194e+00	 1.297377028489314e+00	 1.159074129855894e+01
 1.125147583149418e+00	 1.274379384979323e+00	 1.228797597081699e+01
 1.151280171976699e+00	 1.250821296237169e+00	 1.301061829201220e+01
 1.176930476606976e+00	 1.226717016675901e+00	 1.227756616713317e+01
 1.202081528011000e+00	 1.202081528011000e+00	 1.167690871067845e+01
 9.268346704247993e-01	 1.417662356200907e+00	 8.359521778277831e+00
 9.557170569945506e-01	 1.398353976905081e+00	 8.742847931161112e+00
 9.842514661398081e-01	 1.378418628743332e+00	 9.204162829591416e+00
 1.012417741475522e+00	 1.357865660261409e+00	 9.735652183127931e+00
 1.040196060712919e+00	 1.336705275622917e+00	 1.032929902685732e+01
 1.067566980738279e+00	 1.314948519646061e+00	 1.097693761122934e+01
 1.094511481879339e+00	 1.292607260006049e+00	 1.167030816275326e+01
 1.121011011152242e+00	 1.269694166655615e+00	 1.240111200369049e+01
 1.147047524285897e+00	 1.246222688533338e+00	 1.290259595474706e+01
 1.172603526326271e+00	 1.222207027646334e+00	 1.216142635571025e+01
 1.197662110630251e+00	 1.197662110630251e+00	 1.160912295151274e+01
 9.234146162875218e-01	 1.412431129799070e+00	 8.320056990082449e+00
 9.521904257852591e-01	 1.393193999135577e+00	 8.714167770575440e+00
 9.806195419081072e-01	 1.373332213144299e+00	 9.190133109741765e+00
 1.008681882648820e+00	 1.352855085874506e+00	 9.740155972939807e+00
 1.036357698863603e+00	 1.331772783836062e+00	 1.035622267391422e+01
 1.063627619184540e+00	 1.310096311091385e+00	 1.103015634059222e+01
 1.090472694122663e+00	 1.287837491523523e+00	 1.175367132732098e+01
 1.116874439155310e+00	 1.265008948332617e+00	 1.251842806664605e+01
 1.142814876595415e+00	 1.241624080830166e+00	 1.273651395016952e+01
 1.168276576045971e+00	 1.217697038617357e+00	 1.204313531236616e+01
 1.193242693250000e+00	 1.193242693250000e+00	 1.153955823502122e+01
 1.237436867075000e+00	 1.237436867075000e+00	 1.214940434335541e+01
 1.262796916033183e+00	 1.211546098524362e+00	 1.144936726702697e+01
 1.287610106441662e+00	 1.185141431973865e+00	 1.103040758901374e+01
 1.311861016191946e+00	 1.158240335244118e+00	 1.079856032553313e+01
 1.335534971891927e+00	 1.130860883947535e+00	 1.073912445684228e+01
 1.358618078249374e+00	 1.103021721200889e+00	 1.083745323625824e+01
 1.381097244848932e+00	 1.074742015674165e+00	 1.107904072083957e+01
 1.402960210216252e+00	 1.046041418172353e+00	 1.144960273013168e+01
 1.424195563079837e+00	 1.016940016954224e+00	 1.193515163694620e+01
 1.444792760758599e+00	 9.874582919979621e-01	 1.252206448914895e+01
 1.464742144620942e+00	 9.576170684275745e-01	 1.319714406056525e+01
 1.233017449690250e+00	 1.233017449690250e+00	 1.209756542292769e+01
 1.258286927044970e+00	 1.207219148170214e+00	 1.140046234927722e+01
 1.283011498916303e+00	 1.180908784000293e+00	 1.100503100258257e+01
 1.307175798274717e+00	 1.154103762616025e+00	 1.079308334585044e+01
 1.330765204133074e+00	 1.126822095074064e+00	 1.075014909210334e+01
 1.353765870825189e+00	 1.099082357908623e+00	 1.086181528452217e+01
 1.376164754687189e+00	 1.070903651330154e+00	 1.111381153802860e+01
 1.397949638035703e+00	 1.042305555962196e+00	 1.149208975553539e+01
 1.419109150353777e+00	 1.013308088319744e+00	 1.198289773185290e+01
 1.439632786612753e+00	 9.839316552381995e-01	 1.257284615228585e+01
 1.459510922676149e+00	 9.541970074661281e-01	 1.324896859104735e+01
 1.228598032306000e+00	 1.228598032306000e+00	 1.204357044448896e+01
 1.253776938057347e+00	 1.202892197816470e+00	 1.135099728048515e+01
 1.278412891391604e+00	 1.176676136027041e+00	 1.097898669243330e+01
 1.302490580358196e+00	 1.149967189988176e+00	 1.078680035474983e+01
 1.325995436374960e+00	 1.122783306200772e+00	 1.076019819930176e+01
 1.348913663401752e+00	 1.095142994616482e+00	 1.088500069755407e+01
 1.371232264526182e+00	 1.067065286986221e+00	 1.114717281596484e+01
 1.392939065855861e+00	 1.038569693752084e+00	 1.153290249149845e+01
 1.414022737628372e+00	 1.009676159685283e+00	 1.202867304925595e+01
 1.434472812467493e+00	 9.804050184784417e-01	 1.262132907731415e+01
 1.454279700731850e+00	 9.507769465046818e-01	 1.329813537093688e+01
 1.224178614922250e+00	 1.224178614922250e+00	 1.198746505402180e+01
 1.249266949070314e+00	 1.198565247463131e+00	 1.130617110404415e+01
 1.273814283867564e+00	 1.172443488054109e+00	 1.095223886923950e+01
 1.297805362442385e+00	 1.145830617360572e+00	 1.077967206309176e+01
 1.321225668617584e+00	 1.118744517327660e+00	 1.076922892034953e+01
 1.344061455979063e+00	 1.091203631324466e+00	 1.090696298891733e+01
 1.366299774365914e+00	 1.063226922642369e+00	 1.117907439004906e+01
 1.387928493676725e+00	 1.034833831542018e+00	 1.157198705484411e+01
 1.408936324903623e+00	 1.006044231050843e+00	 1.207241995615902e+01
 1.429312838322816e+00	 9.768783817186889e-01	 1.266745185909018e+01
 1.449048478788046e+00	 9.473568855432356e-01	 1.334457920923701e+01
 1.219759197539001e+00	 1.219759197539001e+00	 1.192929530832498e+01
 1.244756960083870e+00	 1.194238297110197e+00	 1.128670770121329e+01
 1.269215676344184e+00	 1.168210840081496e+00	 1.092475207978139e+01
 1.293120144527284e+00	 1.141694044733213e+00	 1.077165947584943e+01
 1.316455900860948e+00	 1.114705728454728e+00	 1.077719864629745e+01
 1.339209248557122e+00	 1.087264268032574e+00	 1.092765587345201e+01
 1.361367284206382e+00	 1.059388558298596e+00	 1.120946624630951e+01
 1.382917921498295e+00	 1.031097969331996e+00	 1.160928965969289e+01
 1.403849912179531e+00	 1.002412302416422e+00	 1.211408086096630e+01
 1.424152864178726e+00	 9.733517449589412e-01	 1.271115307552478e+01
 1.443817256844737e+00	 9.439368245817893e-01	 1.338823483733506e+01
 1.215339780156250e+00	 1.215339780156250e+00	 1.186910768248278e+01
 1.240246971098017e+00	 1.189911346757668e+00	 1.126497937594680e+01
 1.264617068821463e+00	 1.163978192109203e+00	 1.089649121305698e+01
 1.288434926612891e+00	 1.137557472106099e+00	 1.076272389745692e+01
 1.311686133105050e+00	 1.110666939581975e+00	 1.078406502186495e+01
 1.334357041135929e+00	 1.083324904740808e+00	 1.094703327093482e+01
 1.356434794047586e+00	 1.055550193954903e+00	 1.123829852414089e+01
 1.377907349320572e+00	 1.027362107122018e+00	 1.164475661923277e+01
 1.398763499456092e+00	 9.987803737820213e-01	 1.215359821423524e+01
 1.418992890035220e+00	 9.698251081991982e-01	 1.275237128727526e+01
 1.438586034901923e+00	 9.405167636203432e-01	 1.342903690759089e+01
 1.210920362774000e+00	 1.210920362774000e+00	 1.180694907749784e+01
 1.235736982112754e+00	 1.185584396405543e+00	 1.124103045347145e+01
 1.260018461299402e+00	 1.159745544137230e+00	 1.086742150652691e+01
 1.283749708699208e+00	 1.133420899479229e+00	 1.075282693727365e+01
 1.306916365349891e+00	 1.106628150709403e+00	 1.078978595006910e+01
 1.329504833715484e+00	 1.079385541449165e+00	 1.096504930981867e+01
 1.351502303889529e+00	 1.051711829611290e+00	 1.126552151910272e+01
 1.372896777143555e+00	 1.023626244912086e+00	 1.167833434752591e+01
 1.393677086733310e+00	 9.951484451476404e-01	 1.219091450944578e+01
 1.413832915892299e+00	 9.662984714394602e-01	 1.279104503743047e+01
 1.433354812959603e+00	 9.370967026588970e-01	 1.346691999189511e+01
 1.206500945392250e+00	 1.206500945392250e+00	 1.174286682809181e+01
 1.231226993128080e+00	 1.181257446053824e+00	 1.121490565495560e+01
 1.255419853778001e+00	 1.155512896165577e+00	 1.083750855249649e+01
 1.279064490786235e+00	 1.129284326852604e+00	 1.074193051516882e+01
 1.302146597595471e+00	 1.102589361837010e+00	 1.079431959695526e+01
 1.324652626295787e+00	 1.075446178157648e+00	 1.098165833105452e+01
 1.346569813732208e+00	 1.047873465267756e+00	 1.129108568577987e+01
 1.367886204967244e+00	 1.019890382702198e+00	 1.170996936135685e+01
 1.388590674011183e+00	 9.915165165132792e-01	 1.222597228378632e+01
 1.408672941749963e+00	 9.627718346797273e-01	 1.282711285118915e+01
 1.428123591017778e+00	 9.336766416974507e-01	 1.350181858019512e+01
 1.202081528011000e+00	 1.202081528011000e+00	 1.167690871067845e+01
 1.226717004143997e+00	 1.176930495702510e+00	 1.118665010478814e+01
 1.250821246257260e+00	 1.151280248194244e+00	 1.080671830463873e+01
 1.274379272873970e+00	 1.125147754226224e+00	 1.072999686722993e+01
 1.297376829841789e+00	 1.098550572964796e+00	 1.079762439643246e+01
 1.319800418876838e+00	 1.071506814866255e+00	 1.099681489199782e+01
 1.341637323575625e+00	 1.044035100924302e+00	 1.131494164070521e+01
 1.362875632791639e+00	 1.016154520492355e+00	 1.173960828212057e+01
 1.383504261289712e+00	 9.878845878789381e-01	 1.225871411895739e+01
 1.403512967608212e+00	 9.592451979199993e-01	 1.286051323553076e+01
 1.422892369076447e+00	 9.302565807360043e-01	 1.353366707898882e+01
 1.197662110630251e+00	 1.197662110630251e+00	 1.160912295151274e+01
 1.222207015160503e+00	 1.172603545351601e+00	 1.115630933801749e+01
 1.246222638737179e+00	 1.147047600223230e+00	 1.080302362887945e+01
 1.269694054962415e+00	 1.121011181600089e+00	 1.071698855159648e+01
 1.292607062088846e+00	 1.094511784092762e+00	 1.079965905521489e+01
 1.314948211458637e+00	 1.067567451574987e+00	 1.101047377040097e+01
 1.336704833419779e+00	 1.040196736580928e+00	 1.133704016534841e+01
 1.357865060616741e+00	 1.012418658282557e+00	 1.176719783775248e+01
 1.378417848568896e+00	 9.842526592446166e-01	 1.228908264199293e+01
 1.398352993467046e+00	 9.557185611602764e-01	 1.289118467887982e+01
 1.417661147135612e+00	 9.268365197745582e-01	 1.356239980978509e+01
 1.193242693250000e+00	 1.193242693250000e+00	 1.153955823502122e+01
 1.217697026177599e+00	 1.168276595001096e+00	 1.112392930795670e+01
 1.241624031217757e+00	 1.142814952252537e+00	 1.080323385118061e+01
 1.265008837051568e+00	 1.116874608974198e+00	 1.070286845442379e+01
 1.287837294336642e+00	 1.090472995220908e+00	 1.080038255787452e+01
 1.310096004041184e+00	 1.063628088283843e+00	 1.102258996849466e+01
 1.331772343264670e+00	 1.036358372237633e+00	 1.135733220916973e+01
 1.352854488442549e+00	 1.008682796072803e+00	 1.179268486470156e+01
 1.373331435848735e+00	 9.806207306103151e-01	 1.231702052609946e+01
 1.393193019326464e+00	 9.521919244005580e-01	 1.291906565076179e+01
 1.412429925195270e+00	 9.234164588131115e-01	 1.358795100752956e+01
 1.464742144620942e+00	 9.576170684275745e-01	 1.319714406056525e+01
 1.484034952579334e+00	 9.274374693167077e-01	 1.316587565896096e+01
 1.502663328601820e+00	 8.969408680863410e-01	 1.315511852872840e+01
 1.520620329240370e+00	 8.661488407132030e-01	 1.315842807672820e+01
 1.537899927193651e+00	 8.350831179629201e-01	 1.317000614976271e+01
 1.554497011938170e+00	 8.037655378569364e-01	 1.318470268542778e+01
 1.570407387478668e+00	 7.722179985775096e-01	 1.319801025023938e+01
 1.585627767284233e+00	 7.404624120079153e-01	 1.320605186192590e+01
 1.600155766491363e+00	 7.085206580967055e-01	 1.320556256044964e+01
 1.613989891469035e+00	 6.764145402254385e-01	 1.319386525041223e+01
 1.627129526853478e+00	 6.441657417487923e-01	 1.316884138550047e+01
 1.459510922676149e+00	 9.541970074661281e-01	 1.324896859104735e+01
 1.478734827749505e+00	 9.241251926376627e-01	 1.320701605276333e+01
 1.497296673858032e+00	 8.937375078401705e-01	 1.318748673043088e+01
 1.515189542351728e+00	 8.630554519933195e-01	 1.318385867799600e+01
 1.532407427455337e+00	 8.321006782528600e-01	 1.319024197090403e+01
 1.548945236897235e+00	 8.008949466473003e-01	 1.320138114147431e+01
 1.564798789667865e+00	 7.694600771511049e-01	 1.321265059824934e+01
 1.579964810973924e+00	 7.378179033908228e-01	 1.322004341600601e+01
 1.594440924469281e+00	 7.059902271723317e-01	 1.322015395010155e+01
 1.608225641857312e+00	 6.739987740079695e-01	 1.321015478639161e+01
 1.621318349971974e+00	 6.418651498118617e-01	 1.318776858559566e+01
 1.454279700731850e+00	 9.507769465046818e-01	 1.329813537093688e+01
 1.473434702920077e+00	 9.208129159586179e-01	 1.324583046926048e+01
 1.491930019114560e+00	 8.905341475940000e-01	 1.321785466738495e+01
 1.509758755463326e+00	 8.599620632734364e-01	 1.320760796054582e+01
 1.526914927717198e+00	 8.291182385428000e-01	 1.320910804762069e+01
 1.543393461856423e+00	 7.980243554376644e-01	 1.321699355035938e+01
 1.559190191857140e+00	 7.667021557247002e-01	 1.322652031248942e+01
 1.574301854663657e+00	 7.351733947737302e-01	 1.323355115522340e+01
 1.588726082447218e+00	 7.034597962479577e-01	 1.323453953200167e+01
 1.602461392245593e+00	 6.715830077905006e-01	 1.322650758234764e+01
 1.615507173090471e+00	 6.395645578749309e-01	 1.320701913199257e+01
 1.449048478788046e+00	 9.473568855432356e-01	 1.334457920923701e+01
 1.468134578091048e+00	 9.175006392795728e-01	 1.328225773772750e+01
 1.486563364371402e+00	 8.873307873478292e-01	 1.324616544833008e+01
 1.504327968575165e+00	 8.568686745535533e-01	 1.322962356235021e+01
 1.521422427979236e+00	 8.261357988327396e-01	 1.322655678667503e+01
 1.537841686815733e+00	 7.951537642280284e-01	 1.323149731624635e+01
 1.553581594046492e+00	 7.639442342982956e-01	 1.323958201151077e+01
 1.568638898353436e+00	 7.325288861566375e-01	 1.324654311725910e+01
 1.583011240425175e+00	 7.009293653235840e-01	 1.324869295489990e+01
 1.596697142633881e+00	 6.691672415730318e-01	 1.324290307674097e+01
 1.609695996208967e+00	 6.372639659380006e-01	 1.322657841777792e+01
 1.443817256844737e+00	 9.439368245817893e-01	 1.338823483733506e+01
 1.462834453262419e+00	 9.141883626005279e-01	 1.331623666016766e+01
 1.481196709628560e+00	 8.841274271016588e-01	 1.327236220673538e+01
 1.498897181687245e+00	 8.537752858336702e-01	 1.324985319965911e+01
 1.515929928241450e+00	 8.231533591226793e-01	 1.324254072808994e+01
 1.532289911775165e+00	 7.922831730183925e-01	 1.324485003286279e+01
 1.547972996235923e+00	 7.611863128718913e-01	 1.325179856093634e+01
 1.562975942043257e+00	 7.298843775395452e-01	 1.325898764546018e+01
 1.577296398403151e+00	 6.983989343992100e-01	 1.326258823277507e+01
 1.590932893022171e+00	 6.667514753555630e-01	 1.325932113367337e+01
 1.603884819327464e+00	 6.349633740010702e-01	 1.324643232282249e+01
 1.438586034901923e+00	 9.405167636203432e-01	 1.342903690759089e+01
 1.457534328434190e+00	 9.108760859214828e-01	 1.334770601081658e+01
 1.475830054886033e+00	 8.809240668554883e-01	 1.329638810124868e+01
 1.493466394799566e+00	 8.506818971137871e-01	 1.326824466842335e+01
 1.510437428503841e+00	 8.201709194126192e-01	 1.325701254757195e+01
 1.526738136734718e+00	 7.894125818087562e-01	 1.325700948694690e+01
 1.542364398425431e+00	 7.584283914454865e-01	 1.326313307795305e+01
 1.557312985733122e+00	 7.272398689224523e-01	 1.327085339439757e+01
 1.571581556381146e+00	 6.958685034748362e-01	 1.327619975147547e+01
 1.585168643410467e+00	 6.643357091380940e-01	 1.327574205062672e+01
 1.598073642445961e+00	 6.326627820641394e-01	 1.326656722263168e+01
 1.433354812959603e+00	 9.370967026588970e-01	 1.346691999189511e+01
 1.452234203606361e+00	 9.075638092424378e-01	 1.337660453563542e+01
 1.470463400143820e+00	 8.777207066093173e-01	 1.331818631615623e+01
 1.488035607912126e+00	 8.475885083939039e-01	 1.328474584574879e+01
 1.504944928766408e+00	 8.171884797025587e-01	 1.326992505898703e+01
 1.521186361694395e+00	 7.865419905991204e-01	 1.326793366176977e+01
 1.536755800615017e+00	 7.556704700190818e-01	 1.327354893590251e+01
 1.551650029423030e+00	 7.245953603053598e-01	 1.328210933554517e+01
 1.565866714359160e+00	 6.933380725504623e-01	 1.328950227550470e+01
 1.579404393798768e+00	 6.619199429206253e-01	 1.329214656637134e+01
 1.592262465564457e+00	 6.303621901272088e-01	 1.328696999739002e+01
 1.428123591017778e+00	 9.336766416974507e-01	 1.350181858019512e+01
 1.446934078778932e+00	 9.042515325633932e-01	 1.340287095179327e+01
 1.465096745401924e+00	 8.745173463631473e-01	 1.333770006185225e+01
 1.482604821024928e+00	 8.444951196740208e-01	 1.329930469138290e+01
 1.499452429029151e+00	 8.142060399924986e-01	 1.328123121689108e+01
 1.515634586654192e+00	 7.836713993894843e-01	 1.327758074073475e+01
 1.531147202804681e+00	 7.529125485926772e-01	 1.328300976897222e+01
 1.545987073112983e+00	 7.219508516882671e-01	 1.329272476308392e+01
 1.560151872337194e+00	 6.908076416260885e-01	 1.330247095495684e+01
 1.573640144187073e+00	 6.595041767031564e-01	 1.330851586904828e+01
 1.586451288682954e+00	 6.280615981902782e-01	 1.330762804120438e+01
 1.422892369076447e+00	 9.302565807360043e-01	 1.353366707898882e+01
 1.441633953951902e+00	 9.009392558843482e-01	 1.342644394713763e+01
 1.459730090660342e+00	 8.713139861169766e-01	 1.335487257531878e+01
 1.477174034137970e+00	 8.414017309541376e-01	 1.331186924923376e+01
 1.493959929292071e+00	 8.112236002824385e-01	 1.329088411911611e+01
 1.510082811614113e+00	 7.808008081798482e-01	 1.328590911105649e+01
 1.525538604994423e+00	 7.501546271662725e-01	 1.329147947699090e+01
 1.540324116802979e+00	 7.193063430711746e-01	 1.330266929983409e+01
 1.554437030315247e+00	 6.882772107017145e-01	 1.331508133260445e+01
 1.567875894575384e+00	 6.570884104856877e-01	 1.332483160442974e+01
 1.580640111801451e+00	 6.257610062533476e-01	 1.332852927155102e+01
 1.417661147135612e+00	 9.268365197745582e-01	 1.356239980978509e+01
 1.436333829125272e+00	 8.976269792053033e-01	 1.344726217965359e+01
 1.454363435919075e+00	 8.681106258708061e-01	 1.336964712061639e+01
 1.471743247251253e+00	 8.383083422342545e-01	 1.332238764892282e+01
 1.488467429555167e+00	 8.082411605723780e-01	 1.329883700941378e+01
 1.504531036574154e+00	 7.779302169702123e-01	 1.329287736752112e+01
 1.519930007184242e+00	 7.473967057398677e-01	 1.329892223032924e+01
 1.534661160493019e+00	 7.166618344540818e-01	 1.331191290331850e+01
 1.548722188293320e+00	 6.857467797773406e-01	 1.332730935114365e+01
 1.562111644963699e+00	 6.546726442682188e-01	 1.334107588436240e+01
 1.574828934919947e+00	 6.234604143164171e-01	 1.333312523541085e+01
 1.412429925195270e+00	 9.234164588131115e-01	 1.358795100752955e+01
 1.431033704299042e+00	 8.943147025262581e-01	 1.346526427691069e+01
 1.448996781178124e+00	 8.649072656246353e-01	 1.338196698938542e+01
 1.466312460364777e+00	 8.352149535143712e-01	 1.333080810737241e+01
 1.482974929818439e+00	 8.052587208623176e-01	 1.330504328015749e+01
 1.498979261534318e+00	 7.750596257605761e-01	 1.329844431633033e+01
 1.514321409374140e+00	 7.446387843134631e-01	 1.330530247491029e+01
 1.528998204183102e+00	 7.140173258369892e-01	 1.332042587196091e+01
 1.543007346271411e+00	 6.832163488529668e-01	 1.333913136060000e+01
 1.556347395352019e+00	 6.522568780507498e-01	 1.335723129539861e+01
 1.569017758038443e+00	 6.211598223794864e-01	 1.333040045920852e+01
 1.627129526853478e+00	 6.441657417487923e-01	 1.316884138550047e+01
 1.639574920171458e+00	 6.117957838646145e-01	 1.341668873698015e+01
 1.651327164182859e+00	 5.793259849590472e-01	 1.343679776374251e+01
 1.662388177080195e+00	 5.467774215590894e-01	 1.345352796179350e+01
 1.672760680690260e+00	 5.141708910118739e-01	 1.346504828090530e+01
 1.682448176831636e+00	 4.815268759957910e-01	 1.346962337590079e+01
 1.691454921985005e+00	 4.488655109548258e-01	 1.346563512451774e+01
 1.699785900437286e+00	 4.162065505333913e-01	 1.345160196793437e+01
 1.707446796062950e+00	 3.835693400749197e-01	 1.342619597209464e+01
 1.714443962906949e+00	 3.509727882336208e-01	 1.338825754015371e+01
 1.720784394733555e+00	 3.184353417352296e-01	 1.333680773760216e+01
 1.621318349971974e+00	 6.418651498118617e-01	 1.318776858559566e+01
 1.633719295456116e+00	 6.096107989203806e-01	 1.341684387284819e+01
 1.645429567167011e+00	 5.772569635825215e-01	 1.344492348781272e+01
 1.656451076446484e+00	 5.448246450519741e-01	 1.346794717700284e+01
 1.666786535400518e+00	 5.123345663996317e-01	 1.348419333170280e+01
 1.676439433341199e+00	 4.798071371514629e-01	 1.349203729050589e+01
 1.685414011547491e+00	 4.472624198427252e-01	 1.348997220054762e+01
 1.693715236505287e+00	 4.147200985655311e-01	 1.347662773153836e+01
 1.701348771789506e+00	 3.821994495728014e-01	 1.345078654410595e+01
 1.708320948752079e+00	 3.497193139878389e-01	 1.341139844562054e+01
 1.714638736179549e+00	 3.172980726552168e-01	 1.335759219739325e+01
 1.615507173090471e+00	 6.395645578749309e-01	 1.320701913199257e+01
 1.627863670740775e+00	 6.074258139761521e-01	 1.341754861909200e+01
 1.639531970151163e+00	 5.751879422060175e-01	 1.345358086466376e+01
 1.650513975812773e+00	 5.428718685449069e-01	 1.348287318168949e+01
 1.660812390110775e+00	 5.104982417874746e-01	 1.350381309332198e+01
 1.670430689850761e+00	 4.780873983072672e-01	 1.351488634308116e+01
 1.679373101109976e+00	 4.456593287308140e-01	 1.351469710107705e+01
 1.687644572573288e+00	 4.132336465979271e-01	 1.350198605289221e+01
 1.695250747516062e+00	 3.808295590710160e-01	 1.347564627600204e+01
 1.702197934597210e+00	 3.484658397424763e-01	 1.343473683975864e+01
 1.708493077625543e+00	 3.161608035757187e-01	 1.337849409516482e+01
 1.609695996208967e+00	 6.372639659380006e-01	 1.322657841777793e+01
 1.622008046025433e+00	 6.052408290319288e-01	 1.341885043499230e+01
 1.633634373135315e+00	 5.731189208295349e-01	 1.346281515705904e+01
 1.644576875179061e+00	 5.409190920378876e-01	 1.349834895560831e+01
 1.654838244821033e+00	 5.086619171754027e-01	 1.352394818280827e+01
 1.664421946360324e+00	 4.763676594632035e-01	 1.353820871507102e+01
 1.673332190672463e+00	 4.440562376190924e-01	 1.353984550585838e+01
 1.681573908641290e+00	 4.117471946305797e-01	 1.352771005072877e+01
 1.689152723242618e+00	 3.794596685695639e-01	 1.350080567287027e+01
 1.696074920442340e+00	 3.472123654975331e-01	 1.345830056799823e+01
 1.702347419071536e+00	 3.150235344967353e-01	 1.339953857718335e+01
 1.603884819327464e+00	 6.349633740010702e-01	 1.324643232282249e+01
 1.616152421310092e+00	 6.030558440877111e-01	 1.342079724957085e+01
 1.627736776119467e+00	 5.710498994530735e-01	 1.347267207915555e+01
 1.638639774545350e+00	 5.389663155309167e-01	 1.351441791030615e+01
 1.648864099531291e+00	 5.068255925634157e-01	 1.354463962819435e+01
 1.658413202869887e+00	 4.746479206192722e-01	 1.356204297695276e+01
 1.667291280234948e+00	 4.424531465075600e-01	 1.356545346062733e+01
 1.675503244709291e+00	 4.102607426634889e-01	 1.355383318567611e+01
 1.683054698969174e+00	 3.780897780684449e-01	 1.352629555662349e+01
 1.689951906287470e+00	 3.459588912530090e-01	 1.348211776660196e+01
 1.696201760517529e+00	 3.138862654182666e-01	 1.342075105368979e+01
 1.598073642445961e+00	 6.326627820641394e-01	 1.326656722263167e+01
 1.610296796594750e+00	 6.008708591434985e-01	 1.342343747013086e+01
 1.621839179103619e+00	 5.689808780766340e-01	 1.348319780471116e+01
 1.632702673911638e+00	 5.370135390239934e-01	 1.353112389697253e+01
 1.642889954241549e+00	 5.049892679515139e-01	 1.356592887597250e+01
 1.652404459379450e+00	 4.729281817754732e-01	 1.358642809530968e+01
 1.661250369797434e+00	 4.408500553962173e-01	 1.359155738375738e+01
 1.669432580777292e+00	 4.087742906966545e-01	 1.358038926647396e+01
 1.676956674695729e+00	 3.767198875676591e-01	 1.355214707176065e+01
 1.683828892132600e+00	 3.447054170089043e-01	 1.350621686795273e+01
 1.690056101963523e+00	 3.127489963403123e-01	 1.344215720369906e+01
 1.592262465564457e+00	 6.303621901272088e-01	 1.328696999739002e+01
 1.604441171879408e+00	 5.986858741992914e-01	 1.342681999098496e+01
 1.615941582087771e+00	 5.669118567002156e-01	 1.349443897547133e+01
 1.626765573277928e+00	 5.350607625171186e-01	 1.354851121446227e+01
 1.636915808951806e+00	 5.031529433396968e-01	 1.358785779873088e+01
 1.646395715889012e+00	 4.712084429318063e-01	 1.361140344005941e+01
 1.655209459359921e+00	 4.392469642850639e-01	 1.361819407305954e+01
 1.663361916845294e+00	 4.072878387300766e-01	 1.360741245632598e+01
 1.670858650422285e+00	 3.753499970672064e-01	 1.357839169125339e+01
 1.677705877977730e+00	 3.434519427652190e-01	 1.353062660595742e+01
 1.683910443409516e+00	 3.116117272628730e-01	 1.346378297990482e+01
 1.586451288682954e+00	 6.280615981902782e-01	 1.330762804120438e+01
 1.598585547164066e+00	 5.965008892550897e-01	 1.343099420237475e+01
 1.610043985071923e+00	 5.648428353238188e-01	 1.350644270974043e+01
 1.620828472644217e+00	 5.331079860102917e-01	 1.356662461749458e+01
 1.630941663662064e+00	 5.013166187279651e-01	 1.361046870295742e+01
 1.640386972398575e+00	 4.694887040882715e-01	 1.363700879184095e+01
 1.649168548922406e+00	 4.376438731740998e-01	 1.364540071273185e+01
 1.657291252913295e+00	 4.058013867637550e-01	 1.363493727939175e+01
 1.664760626148841e+00	 3.739801065670869e-01	 1.360506122256189e+01
 1.671582863822861e+00	 3.421984685219528e-01	 1.355537602156919e+01
 1.677764784855510e+00	 3.104744581859482e-01	 1.348565461369178e+01
 1.580640111801451e+00	 6.257610062533476e-01	 1.332852927155102e+01
 1.592729922448726e+00	 5.943159043108937e-01	 1.343600999958710e+01
 1.604146388056075e+00	 5.627738139474435e-01	 1.351925661114195e+01
 1.614891372010505e+00	 5.311552095035129e-01	 1.358550932503288e+01
 1.624967518372322e+00	 4.994802941163181e-01	 1.363380433701590e+01
 1.634378228908138e+00	 4.677689652448693e-01	 1.366328434956470e+01
 1.643127638484892e+00	 4.360407820633252e-01	 1.367321488046215e+01
 1.651220588981297e+00	 4.043149347976902e-01	 1.366299862742213e+01
 1.658662601875396e+00	 3.726102160673007e-01	 1.363218781378376e+01
 1.665459849667991e+00	 3.409449942791061e-01	 1.358049446843179e+01
 1.671619126301504e+00	 3.093371891095381e-01	 1.350779862025882e+01
 1.574828934919947e+00	 6.234604143164171e-01	 1.333312523541085e+01
 1.586874297733384e+00	 5.921309193667027e-01	 1.344191779227234e+01
 1.598248791040227e+00	 5.607047925710896e-01	 1.353292877757275e+01
 1.608954271376794e+00	 5.292024329967822e-01	 1.360521102885015e+01
 1.618993373082579e+00	 4.976439695047564e-01	 1.365790789929868e+01
 1.628369485417701e+00	 4.660492264015990e-01	 1.369027073812964e+01
 1.637086728047378e+00	 4.344376909527401e-01	 1.370167455468790e+01
 1.645149925049298e+00	 4.028284828318817e-01	 1.369163176654129e+01
 1.652564577601953e+00	 3.712403255678475e-01	 1.365980395993874e+01
 1.659336835513121e+00	 3.396915200366786e-01	 1.360601161864877e+01
 1.665473467747497e+00	 3.081999200336427e-01	 1.353024180385527e+01
 1.569017758038443e+00	 6.211598223794864e-01	 1.333040045920852e+01
 1.581018673018042e+00	 5.899459344225171e-01	 1.344876851396954e+01
 1.592351194024379e+00	 5.586357711947570e-01	 1.354750781035631e+01
 1.603017170743082e+00	 5.272496564900992e-01	 1.362577590228473e+01
 1.613019227792836e+00	 4.958076448932794e-01	 1.368282304656051e+01
 1.622360741927263e+00	 4.643294875584610e-01	 1.371800901631204e+01
 1.631045817609864e+00	 4.328345998423444e-01	 1.373081812201756e+01
 1.639079261117299e+00	 4.013420308663295e-01	 1.372087234417951e+01
 1.646466553328508e+00	 3.698704350687274e-01	 1.368794250939313e+01
 1.653213821358251e+00	 3.384380457946703e-01	 1.363195746868081e+01
 1.659327809193490e+00	 3.070626509582619e-01	 1.355301126313378e+01
 1.720784394733555e+00	 3.184353417352296e-01	 1.333680773760216e+01
 1.726475693704463e+00	 2.859749623090794e-01	 1.334836991080860e+01
 1.731526038345919e+00	 2.536091058023268e-01	 1.335297812907777e+01
 1.735944150962882e+00	 2.213547034732815e-01	 1.334845254291470e+01
 1.739739264653876e+00	 1.892281454495704e-01	 1.333286162948505e+01
 1.742921090073661e+00	 1.572452663273678e-01	 1.330452783364207e+01
 1.745499782086253e+00	 1.254213328766073e-01	 1.326203070889304e+01
 1.747485906444049e+00	 9.377103380810320e-02	 1.320420768144287e+01
 1.748890406621857e+00	 6.230847155001484e-02	 1.313015257726802e+01
 1.749724570927141e+00	 3.104715597342659e-02	 1.303921206607013e+01
 1.750000000000000e+00	 0.000000000000000e+00	 1.293098018697770e+01
 1.714638736179549e+00	 3.172980726552168e-01	 1.335759219739325e+01
 1.720309709082974e+00	 2.849536231553234e-01	 1.337165109140352e+01
 1.725342016779521e+00	 2.527033589930904e-01	 1.337822732196969e+01
 1.729744350423062e+00	 2.205641509580458e-01	 1.337518038099380e+01
 1.733525910136768e+00	 1.885523306416441e-01	 1.336061642376768e+01
 1.736696371894490e+00	 1.566836760879285e-01	 1.333289375222774e+01
 1.739265854292873e+00	 1.249733995426518e-01	 1.329062582537340e+01
 1.741244885349486e+00	 9.343613725694445e-02	 1.323268191919236e+01
 1.742644369455298e+00	 6.208594129314860e-02	 1.315818557503454e+01
 1.743475554602389e+00	 3.093627327280654e-02	 1.306651098908439e+01
 1.743750000000000e+00	 0.000000000000000e+00	 1.295727750644263e+01
 1.708493077625543e+00	 3.161608035757187e-01	 1.337849409516482e+01
 1.714143724461484e+00	 2.839322840021661e-01	 1.339516786342765e+01
 1.719157995213123e+00	 2.517976121845049e-01	 1.340382211752229e+01
 1.723544549883242e+00	 2.197735984434822e-01	 1.340235535229277e+01
 1.727312555619660e+00	 1.878765158343808e-01	 1.338891110783325e+01
 1.730471653715320e+00	 1.561220858491129e-01	 1.336188329490873e+01
 1.733031926499495e+00	 1.245254662092513e-01	 1.331991907448028e+01
 1.735003864254924e+00	 9.310124070624334e-02	 1.326191941290166e+01
 1.736398332288739e+00	 6.186341103661464e-02	 1.318703745073609e+01
 1.737226538277636e+00	 3.082539057236601e-02	 1.309467483666345e+01
 1.737500000000000e+00	 0.000000000000000e+00	 1.298447618865210e+01
 1.702347419071536e+00	 3.150235344967353e-01	 1.339953857718335e+01
 1.707977739839994e+00	 2.829109448496073e-01	 1.341894487897436e+01
 1.712973973646725e+00	 2.508918653765703e-01	 1.342978665043515e+01
 1.717344749343422e+00	 2.189830459295906e-01	 1.343000105325960e+01
 1.721099201102552e+00	 1.872007010277801e-01	 1.341776872130427e+01
 1.724246935536150e+00	 1.555604956109206e-01	 1.339151892810608e+01
 1.726797998706116e+00	 1.240775328764056e-01	 1.334993233516390e+01
 1.728762843160361e+00	 9.276634415599988e-02	 1.329194144179130e+01
 1.730152295122179e+00	 6.164088078041297e-02	 1.321672887351530e+01
 1.730977521952883e+00	 3.071450787210501e-02	 1.312372365933201e+01
 1.731250000000000e+00	 0.000000000000000e+00	 1.301259565867639e+01
 1.696201760517529e+00	 3.138862654182666e-01	 1.342075105368979e+01
 1.701811755218505e+00	 2.818896056976471e-01	 1.344300705888465e+01
 1.706789952080328e+00	 2.499861185692866e-01	 1.345614532823589e+01
 1.711144948803601e+00	 2.181924934163711e-01	 1.345814135656416e+01
 1.714885846585444e+00	 1.865248862218422e-01	 1.344721258273959e+01
 1.718022217356979e+00	 1.549989053733519e-01	 1.342182339922106e+01
 1.720564070912737e+00	 1.236295995441150e-01	 1.338068776873771e+01
 1.722521822065799e+00	 9.243144760621409e-02	 1.332276956817817e+01
 1.723906257955620e+00	 6.141835052454361e-02	 1.324728079570656e+01
 1.724728505628130e+00	 3.060362517202354e-02	 1.315367779027717e+01
 1.725000000000000e+00	 0.000000000000000e+00	 1.304165562310847e+01
 1.690056101963523e+00	 3.127489963403123e-01	 1.344215720369906e+01
 1.695645770597015e+00	 2.808682665462855e-01	 1.346737959763343e+01
 1.700605930513930e+00	 2.490803717626537e-01	 1.348292283624073e+01
 1.704945148263781e+00	 2.174019409038238e-01	 1.348680041612044e+01
 1.708672492068336e+00	 1.858490714165671e-01	 1.347726629470608e+01
 1.711797499177809e+00	 1.544373151364067e-01	 1.345281974174383e+01
 1.714330143119358e+00	 1.231816662123792e-01	 1.341220782401209e+01
 1.716280800971237e+00	 9.209655105688598e-02	 1.335442564262246e+01
 1.717660220789061e+00	 6.119582026900656e-02	 1.327871445798482e+01
 1.718479489303377e+00	 3.049274247212159e-02	 1.318455785048802e+01
 1.718750000000000e+00	 0.000000000000000e+00	 1.307167607518259e+01
 1.683910443409516e+00	 3.116117272628730e-01	 1.346378297990482e+01
 1.689479785975526e+00	 2.798469273955225e-01	 1.349208796832291e+01
 1.694421908947532e+00	 2.481746249566718e-01	 1.351014414262367e+01
 1.698745347723961e+00	 2.166113883919486e-01	 1.351600267221878e+01
 1.702459137551228e+00	 1.851732566119548e-01	 1.350795374896119e+01
 1.705572780998638e+00	 1.538757249000851e-01	 1.348453128047404e+01
 1.708096215325980e+00	 1.227337328811984e-01	 1.344451524254077e+01
 1.710039779876674e+00	 9.176165450801549e-02	 1.338693180918800e+01
 1.711414183622502e+00	 6.097329001380178e-02	 1.331105139462746e+01
 1.712230472978624e+00	 3.038185977239916e-02	 1.321638475400723e+01
 1.712500000000000e+00	 0.000000000000000e+00	 1.310267730000494e+01
 1.677764784855510e+00	 3.104744581859482e-01	 1.348565461369178e+01
 1.683313801354036e+00	 2.788255882453581e-01	 1.351715792778556e+01
 1.688237887381134e+00	 2.472688781513407e-01	 1.353783450359702e+01
 1.692545547184141e+00	 2.158208358807454e-01	 1.354577285677081e+01
 1.696245783034121e+00	 1.844974418080052e-01	 1.353929913174937e+01
 1.699348062819468e+00	 1.533141346643869e-01	 1.351698163685619e+01
 1.701862287532601e+00	 1.222857995505725e-01	 1.347763306398235e+01
 1.703798758782112e+00	 9.142675795960264e-02	 1.342031051081739e+01
 1.705168146455942e+00	 6.075075975892930e-02	 1.334431343889151e+01
 1.705981456653872e+00	 3.027097707285626e-02	 1.324917971329861e+01
 1.706250000000000e+00	 0.000000000000000e+00	 1.313467987989934e+01
 1.671619126301504e+00	 3.093371891095381e-01	 1.350779862025882e+01
 1.677147816732546e+00	 2.778042490957922e-01	 1.354261552179990e+01
 1.682053865814736e+00	 2.463631313466606e-01	 1.356601946870610e+01
 1.686345746644320e+00	 2.150302833702143e-01	 1.357613599867015e+01
 1.690032428517012e+00	 1.838216270047184e-01	 1.357132692921571e+01
 1.693123344640298e+00	 1.527525444293123e-01	 1.355019473443264e+01
 1.695628359739222e+00	 1.218378662205016e-01	 1.351158463158019e+01
 1.697557737687549e+00	 9.109186141164745e-02	 1.345458449482639e+01
 1.698922109289383e+00	 6.052822950438913e-02	 1.337852272850971e+01
 1.699732440329119e+00	 3.016009437349288e-02	 1.328296424473243e+01
 1.700000000000000e+00	 0.000000000000000e+00	 1.316770469987076e+01
 1.665473467747497e+00	 3.081999200336427e-01	 1.353024180385527e+01
 1.670981832111057e+00	 2.767829099468250e-01	 1.356848709042142e+01
 1.675869844248338e+00	 2.454573845426312e-01	 1.359472488624150e+01
 1.680145946104500e+00	 2.142397308603552e-01	 1.360711742927177e+01
 1.683819073999904e+00	 1.831458122020943e-01	 1.360406193293892e+01
 1.686898626461127e+00	 1.521909541948612e-01	 1.358419480441744e+01
 1.689394431945844e+00	 1.213899328909856e-01	 1.354639359776364e+01
 1.691316716592987e+00	 9.075696486414993e-02	 1.348977681851937e+01
 1.692676072122824e+00	 6.030569925018126e-02	 1.341370171130797e+01
 1.693483424004366e+00	 3.004921167430903e-02	 1.331776017419294e+01
 1.693750000000000e+00	 0.000000000000000e+00	 1.320177295318987e+01
 1.659327809193490e+00	 3.070626509582619e-01	 1.355301126313378e+01
 1.664815847489567e+00	 2.757615707984563e-01	 1.359479927343230e+01
 1.669685822681940e+00	 2.445516377392528e-01	 1.362397690877128e+01
 1.673946145564679e+00	 2.134491783511683e-01	 1.363874278799318e+01
 1.677605719482796e+00	 1.824699974001331e-01	 1.363752924558755e+01
 1.680673908281956e+00	 1.516293639610336e-01	 1.361900639139376e+01
 1.683160504152465e+00	 1.209419995620245e-01	 1.358208392987380e+01
 1.685075695498425e+00	 9.042206831711004e-02	 1.352591085493016e+01
 1.686430034956264e+00	 6.008316899630568e-02	 1.344987315094801e+01
 1.687234407679612e+00	 2.993832897530470e-02	 1.335358964280981e+01
 1.687500000000000e+00	 0.000000000000000e+00	 1.323690614710157e+01
 0.000000000000000e+00	 1.687500000000000e+00	 2.083177299038859e+00
 2.993832897530482e-02	 1.687234407679613e+00	 2.166334132518902e+00
 6.008316899630591e-02	 1.686430034956264e+00	 2.249198913478947e+00
 9.042206831711039e-02	 1.685075695498425e+00	 2.335865655600055e+00
 1.209419995620250e-01	 1.683160504152465e+00	 2.429922327410852e+00
 1.516293639610342e-01	 1.680673908281957e+00	 2.534402515992362e+00
 1.824699974001337e-01	 1.677605719482796e+00	 2.651739417002962e+00
 2.134491783511691e-01	 1.673946145564679e+00	 2.783722738912897e+00
 2.445516377392536e-01	 1.669685822681939e+00	 2.931459118225734e+00
 2.757615707984573e-01	 1.664815847489567e+00	 3.095336644350148e+00
 3.070626509582619e-01	 1.659327809193490e+00	 3.274994087074107e+00
 0.000000000000000e+00	 1.681250000000000e+00	 2.056753744253894e+00
 2.982744627630049e-02	 1.680985391354862e+00	 2.141474460027955e+00
 5.986063874243034e-02	 1.680183997789715e+00	 2.225482501665449e+00
 9.008717177007049e-02	 1.678834674403883e+00	 2.312868743294803e+00
 1.204940662330639e-01	 1.676926576359123e+00	 2.407225683197183e+00
 1.510677737272065e-01	 1.674449190102844e+00	 2.511599545857440e+00
 1.817941825981724e-01	 1.671392364965773e+00	 2.628444670170245e+00
 2.126586258419822e-01	 1.667746345024977e+00	 2.759580765062886e+00
 2.436458909358752e-01	 1.663501801115695e+00	 2.906153622690829e+00
 2.747402316500885e-01	 1.658649862868273e+00	 3.068599881343010e+00
 3.059253818828811e-01	 1.653182150639727e+00	 3.246616424660016e+00
 0.000000000000000e+00	 1.675000000000000e+00	 2.030264295413732e+00
 2.971656357711664e-02	 1.674736375030116e+00	 2.116280065505997e+00
 5.963810848822245e-02	 1.673937960623182e+00	 2.201187445711852e+00
 8.975227522257297e-02	 1.672593653309384e+00	 2.289074972543896e+00
 1.200461329035480e-01	 1.670692648565857e+00	 2.383540386802486e+00
 1.505061834927554e-01	 1.668224471923851e+00	 2.487643166836877e+00
 1.811183677955484e-01	 1.665179010448921e+00	 2.603859308063003e+00
 2.118680733321232e-01	 1.661546544485506e+00	 2.734038923443556e+00
 2.427401441318459e-01	 1.657317779549757e+00	 2.879367248539110e+00
 2.737188925011214e-01	 1.652483878247369e+00	 3.040329636807766e+00
 3.047881128069857e-01	 1.647036492086448e+00	 3.216681125487373e+00
 0.000000000000000e+00	 1.668750000000000e+00	 2.003710757423150e+00
 2.960568087775327e-02	 1.668487358705375e+00	 2.090751187472775e+00
 5.941557823368229e-02	 1.667691923456670e+00	 2.176312376317985e+00
 8.941737867461777e-02	 1.666352632214926e+00	 2.264481326760624e+00
 1.195981995734770e-01	 1.664458720772665e+00	 2.358861737227526e+00
 1.499445932576808e-01	 1.661999753744974e+00	 2.462526959117595e+00
 1.804425529922616e-01	 1.658965655932239e+00	 2.577975160773433e+00
 2.110775208215921e-01	 1.655346743946269e+00	 2.707087266297350e+00
 2.418343973271658e-01	 1.651133757984127e+00	 2.851088246342669e+00
 2.726975533515555e-01	 1.646317893626857e+00	 3.010512340176298e+00
 3.036508437305756e-01	 1.640890833533655e+00	 3.185172783142454e+00
 0.000000000000000e+00	 1.662500000000000e+00	 1.977094962328466e+00
 2.949479817821037e-02	 1.662238342380638e+00	 2.064888070207487e+00
 5.919304797880982e-02	 1.661445886290175e+00	 2.150855909588959e+00
 8.908248212620493e-02	 1.660111611120510e+00	 2.239084755491058e+00
 1.191502662428511e-01	 1.658224792979547e+00	 2.333184981467460e+00
 1.493830030219827e-01	 1.655775035566215e+00	 2.436244433929375e+00
 1.797667381883120e-01	 1.652752301415728e+00	 2.550783973723154e+00
 2.102869683103888e-01	 1.649146943407266e+00	 2.678715746768352e+00
 2.409286505218347e-01	 1.644949736418803e+00	 2.821304754482397e+00
 2.716762142013910e-01	 1.640151909006735e+00	 2.979134296977608e+00
 3.025135746536508e-01	 1.634745174981347e+00	 3.152075857024182e+00
 0.000000000000000e+00	 1.656250000000000e+00	 1.950418769829353e+00
 2.938391547848794e-02	 1.655989326055906e+00	 2.038690963857097e+00
 5.897051772360503e-02	 1.655199849123698e+00	 2.124816646760705e+00
 8.874758557733445e-02	 1.653870590026135e+00	 2.212882173775932e+00
 1.187023329116703e-01	 1.651990865186505e+00	 2.306505313532181e+00
 1.488214127856610e-01	 1.649550317387573e+00	 2.408789032245340e+00
 1.790909233836997e-01	 1.646538946899387e+00	 2.522277406065301e+00
 2.094964157985137e-01	 1.642947142868497e+00	 2.648914217031575e+00
 2.400229037158527e-01	 1.638765714853786e+00	 2.790004797030776e+00
 2.706548750506281e-01	 1.633985924387004e+00	 2.946181686500174e+00
 3.013763055762114e-01	 1.628599516429524e+00	 3.117374669813255e+00
 0.000000000000000e+00	 1.650000000000000e+00	 1.923684067802657e+00
 2.927303277858599e-02	 1.649740309731178e+00	 2.012160124548280e+00
 5.874798746806797e-02	 1.648953811957240e+00	 2.098193173916635e+00
 8.841268902800632e-02	 1.647629568931803e+00	 2.185870461496860e+00
 1.182543995799346e-01	 1.645756937393538e+00	 2.278817873442131e+00
 1.482598225487158e-01	 1.643325599209050e+00	 2.380154123450172e+00
 1.784151085784245e-01	 1.640325592383216e+00	 2.492447029050515e+00
 2.087058632859662e-01	 1.636747342329961e+00	 2.617672426381477e+00
 2.391171569092199e-01	 1.632581693289076e+00	 2.757176281586932e+00
 2.696335358992665e-01	 1.627819939767663e+00	 2.911640559401529e+00
 3.002390364982573e-01	 1.622453857878188e+00	 3.081053404881740e+00
 0.000000000000000e+00	 1.643750000000000e+00	 1.896892772838414e+00
 2.916215007850450e-02	 1.643491293406455e+00	 1.985295814499918e+00
 5.852545721219860e-02	 1.642707774790801e+00	 2.070984061701689e+00
 8.807779247822053e-02	 1.641388547837512e+00	 2.158046462707250e+00
 1.178064662476439e-01	 1.639523009600645e+00	 2.250117746202025e+00
 1.476982323111471e-01	 1.637100881030644e+00	 2.350333003979635e+00
 1.777392937724867e-01	 1.634112237867216e+00	 2.461284324355627e+00
 2.079153107727468e-01	 1.630547541791658e+00	 2.584980019276279e+00
 2.382114101019361e-01	 1.626397671724673e+00	 2.722806997062516e+00
 2.686121967473062e-01	 1.621653955148714e+00	 2.875496835262052e+00
 2.991017674197886e-01	 1.616308199327336e+00	 3.043096103644853e+00
 0.000000000000000e+00	 1.637500000000000e+00	 1.870046830787564e+00
 2.905126737824351e-02	 1.637242277081737e+00	 1.958098302140781e+00
 5.830292695599695e-02	 1.636461737624380e+00	 2.043187865026029e+00
 8.774289592797707e-02	 1.635147526743263e+00	 2.129406984950167e+00
 1.173585329147983e-01	 1.633289081807827e+00	 2.220399960750902e+00
 1.471366420729549e-01	 1.630876162852355e+00	 2.319318895928205e+00
 1.770634789658860e-01	 1.627898883351387e+00	 2.428780682374759e+00
 2.071247582588553e-01	 1.624347741253589e+00	 2.550826533335635e+00
 2.373056632940015e-01	 1.620213650160576e+00	 2.686884611416452e+00
 2.675908575947474e-01	 1.615487970530155e+00	 2.837736300084767e+00
 2.979644983408051e-01	 1.610162540776969e+00	 3.003486662853024e+00
 0.000000000000000e+00	 1.631250000000000e+00	 1.843148217322506e+00
 2.894038467780298e-02	 1.630993260757023e+00	 1.930567862226658e+00
 5.808039669946300e-02	 1.630215700457978e+00	 2.014803122764538e+00
 8.740799937727596e-02	 1.628906505649055e+00	 2.099948798556771e+00
 1.169105995813977e-01	 1.627055154015083e+00	 2.189659488887704e+00
 1.465750518341391e-01	 1.624651444674184e+00	 2.287104945625360e+00
 1.763876641586226e-01	 1.621685528835728e+00	 2.394927400470311e+00
 2.063342057442916e-01	 1.618147940715753e+00	 2.515201397295491e+00
 2.363999164854160e-01	 1.614029628596787e+00	 2.649396669337564e+00
 2.665695184415900e-01	 1.609321985911987e+00	 2.798344603734542e+00
 2.968272292613071e-01	 1.604016882227088e+00	 2.962208831818468e+00
 0.000000000000000e+00	 1.625000000000000e+00	 1.816198938510218e+00
 2.882950197718292e-02	 1.624744244432312e+00	 1.902704775963945e+00
 5.785786644259672e-02	 1.623969663291593e+00	 1.985828357447756e+00
 8.707310282611723e-02	 1.622665484554889e+00	 2.069668635932555e+00
 1.164626662474422e-01	 1.620821226222415e+00	 2.157891244173123e+00
 1.460134615946999e-01	 1.618426726496131e+00	 2.253684222177491e+00
 1.757118493506963e-01	 1.615472174320239e+00	 2.359715681183889e+00
 2.055436532290559e-01	 1.611948140178151e+00	 2.478093928914042e+00
 2.354941696761796e-01	 1.607845607033304e+00	 2.610330589875059e+00
 2.655481792878340e-01	 1.603156001294210e+00	 2.757307257321481e+00
 2.956899601812942e-01	 1.597871223677692e+00	 2.919246209581447e+00
 3.070626509582619e-01	 1.659327809193490e+00	 3.274994087074107e+00
 3.384380640626277e-01	 1.653213814056673e+00	 3.443299288886508e+00
 3.698705088692585e-01	 1.646466523889539e+00	 3.646989559381965e+00
 4.013421985432338e-01	 1.639079194348896e+00	 3.884037206930205e+00
 4.328349007972243e-01	 1.631045697954198e+00	 4.151548575962229e+00
 4.643299622256656e-01	 1.622360553451363e+00	 4.445760453069559e+00
 4.958083347110969e-01	 1.613018954179519e+00	 4.762044229191817e+00
 5.272506038681378e-01	 1.603016795282257e+00	 5.094918158529597e+00
 5.586370194774788e-01	 1.592350699604834e+00	 5.438067979519844e+00
 5.899475278488967e-01	 1.581018042119802e+00	 5.784376079889453e+00
 6.211618060387971e-01	 1.569016972725812e+00	 6.125959297294310e+00
 3.059253818828811e-01	 1.653182150639727e+00	 3.246616424660016e+00
 3.371845897529627e-01	 1.647090799929132e+00	 3.412135995799618e+00
 3.685006180968128e-01	 1.640368499725442e+00	 3.613352381341799e+00
 3.998557459566776e-01	 1.633008530664517e+00	 3.848279028353776e+00
 4.312318085722190e-01	 1.625004787960182e+00	 4.114070220922716e+00
 4.626102216245608e-01	 1.616351810659300e+00	 4.407017343512429e+00
 4.939720075448260e-01	 1.607044809903444e+00	 4.722552822523404e+00
 5.252978238527660e-01	 1.597079696039380e+00	 5.055262084453238e+00
 5.565679934780324e-01	 1.586453104420347e+00	 5.398903794581771e+00
 5.877625370033295e-01	 1.575162419741224e+00	 5.746438557696298e+00
 6.188612067552249e-01	 1.563205798752884e+00	 6.090066172826663e+00
 3.047881128069857e-01	 1.647036492086448e+00	 3.216681125487373e+00
 3.359311154428832e-01	 1.640967785802162e+00	 3.379590743433824e+00
 3.671307273240526e-01	 1.634270475561975e+00	 3.578541013523263e+00
 3.983692933699075e-01	 1.626937866980796e+00	 3.811585927855792e+00
 4.296287163471004e-01	 1.618963877966825e+00	 4.075926961721258e+00
 4.608904810234434e-01	 1.610343067867864e+00	 4.367909193251106e+00
 4.921356803786430e-01	 1.601070665627937e+00	 4.683025024400970e+00
 5.233450438375830e-01	 1.591142596796982e+00	 5.015925839464975e+00
 5.544989674788753e-01	 1.580555509236218e+00	 5.360441863666845e+00
 5.855775461581518e-01	 1.569306797362849e+00	 5.709610402873850e+00
 6.165606074721426e-01	 1.557394624779977e+00	 6.055712556882521e+00
 3.036508437305756e-01	 1.640890833533655e+00	 3.185172783142454e+00
 3.346776411323889e-01	 1.634844771675763e+00	 3.345648206705373e+00
 3.657608365509780e-01	 1.628172451399137e+00	 3.542540252749493e+00
 3.968828407829235e-01	 1.620867203297733e+00	 3.773942868153220e+00
 4.280256241218686e-01	 1.612922967974125e+00	 4.037103974589136e+00
 4.591707404223133e-01	 1.604334325077056e+00	 4.328421443500319e+00
 4.902993532125484e-01	 1.595096521352999e+00	 4.643446596543679e+00
 5.213922638225886e-01	 1.585205497555062e+00	 4.976895565542723e+00
 5.524299414800073e-01	 1.574657914052447e+00	 5.322668773168749e+00
 5.833925553133640e-01	 1.563451174984679e+00	 5.673878714935041e+00
 6.142600081895501e-01	 1.551583450807090e+00	 6.022886135466972e+00
 3.025135746536508e-01	 1.634745174981347e+00	 3.152075857024182e+00
 3.334241668214802e-01	 1.628721757549936e+00	 3.310292946501186e+00
 3.643909457775892e-01	 1.622074427236928e+00	 3.505334804151472e+00
 3.953963881957258e-01	 1.614796539615329e+00	 3.735334744785558e+00
 4.264225318965237e-01	 1.606882057982084e+00	 3.997586395267958e+00
 4.574509998211708e-01	 1.598325582286878e+00	 4.288539523835643e+00
 4.884630260465417e-01	 1.589122377078630e+00	 4.603803320023673e+00
 5.194394838077830e-01	 1.579268398313621e+00	 4.938157457133231e+00
 5.503609154814290e-01	 1.568760318869032e+00	 5.285571197158586e+00
 5.812075644689656e-01	 1.557595552606713e+00	 5.639230718340436e+00
 6.119594089074470e-01	 1.545772276834224e+00	 5.991574758822944e+00
 3.013763055762114e-01	 1.628599516429524e+00	 3.117374669813255e+00
 3.321706925101568e-01	 1.622598743424680e+00	 3.273509407528105e+00
 3.630210550038862e-01	 1.615976403075348e+00	 3.466909279438241e+00
 3.939099356083140e-01	 1.608725875933583e+00	 3.695746384848878e+00
 4.248194396710655e-01	 1.600841147990701e+00	 3.957359318247472e+00
 4.557312592200157e-01	 1.592316839497327e+00	 4.248248851973102e+00
 4.866266988806233e-01	 1.583148232804829e+00	 4.564080995632551e+00
 5.174867037931661e-01	 1.573331299072657e+00	 4.899697762142001e+00
 5.482918894831397e-01	 1.562862723685975e+00	 5.249135899040487e+00
 5.790225736249570e-01	 1.551739930228953e+00	 5.605653764855562e+00
 6.096588096258341e-01	 1.539961102861379e+00	 5.961766444529905e+00
 3.002390364982573e-01	 1.622453857878188e+00	 3.081053404881740e+00
 3.309172181984187e-01	 1.616475729299996e+00	 3.235281916111250e+00
 3.616511642298686e-01	 1.609878378914398e+00	 3.427248195127039e+00
 3.924234830206885e-01	 1.602655212252494e+00	 3.655162545698037e+00
 4.232163474454940e-01	 1.594800237999976e+00	 3.916407795982763e+00
 4.540115186188481e-01	 1.586308096708406e+00	 4.207534833543763e+00
 4.847903717147928e-01	 1.577174088531596e+00	 4.524265444253015e+00
 5.155339237787382e-01	 1.567394199832173e+00	 4.861502782945065e+00
 5.462228634851394e-01	 1.556965128503274e+00	 5.213349733242185e+00
 5.768375827813378e-01	 1.545884307851397e+00	 5.573135335961494e+00
 6.073582103447105e-01	 1.534149928888554e+00	 5.933449380672854e+00
 2.991017674197886e-01	 1.616308199327336e+00	 3.043096103644853e+00
 3.296637438862661e-01	 1.610352715175882e+00	 3.195594677944550e+00
 3.602812734555368e-01	 1.603780354754076e+00	 3.386335970733918e+00
 3.909370304328491e-01	 1.596584548572065e+00	 3.613567913622077e+00
 4.216132552198092e-01	 1.588759328009909e+00	 3.874716838095779e+00
 4.522917780176677e-01	 1.580299353920112e+00	 4.166382861865729e+00
 4.829540445490506e-01	 1.571199944258933e+00	 4.484342507242285e+00
 5.135811437644987e-01	 1.561457100592166e+00	 4.823558877426069e+00
 5.441538374874288e-01	 1.551067533320931e+00	 5.178199646946097e+00
 5.746525919381082e-01	 1.540028685474045e+00	 5.541663045321965e+00
 6.050576110640767e-01	 1.528338754915749e+00	 5.906611929084325e+00
 2.979644983408051e-01	 1.610162540776969e+00	 3.003486662853024e+00
 3.284102695736988e-01	 1.604229701052340e+00	 3.154431775787783e+00
 3.589113826808907e-01	 1.597682330594384e+00	 3.344156926922403e+00
 3.894505778447960e-01	 1.590513884892294e+00	 3.570947102487136e+00
 4.200101629940112e-01	 1.582718418020501e+00	 3.832271410557801e+00
 4.505720374164751e-01	 1.574290611132447e+00	 4.124778317707740e+00
 4.811177173833967e-01	 1.565225799986838e+00	 4.444298046821963e+00
 5.116283637504482e-01	 1.555520001352637e+00	 4.785852460033688e+00
 5.420848114900072e-01	 1.545169938138944e+00	 5.143672681859304e+00
 5.724676010952686e-01	 1.534173063096899e+00	 5.511224641304874e+00
 6.027570117839327e-01	 1.522527580942965e+00	 5.881242628659757e+00
 2.968272292613071e-01	 1.604016882227088e+00	 2.962208831818468e+00
 3.271567952607170e-01	 1.598106686929370e+00	 3.111777167112122e+00
 3.575414919059303e-01	 1.591584306435321e+00	 3.300695283610145e+00
 3.879641252565290e-01	 1.584443221213181e+00	 3.527284652349530e+00
 4.184070707681001e-01	 1.576677508031751e+00	 3.789056434853170e+00
 4.488522968152698e-01	 1.568281868345411e+00	 4.082706569049183e+00
 4.792813902178307e-01	 1.559251655715312e+00	 4.404117946478632e+00
 5.096755837365865e-01	 1.549582902113587e+00	 4.748370002866597e+00
 5.400157854928751e-01	 1.539272342957315e+00	 5.109755976024706e+00
 5.702826102528182e-01	 1.528317440719956e+00	 5.481808009563736e+00
 6.004564125042784e-01	 1.516716406970201e+00	 5.857330198750093e+00
 2.956899601812942e-01	 1.597871223677692e+00	 2.919246209581447e+00
 3.259033209473203e-01	 1.591983672806970e+00	 3.067614681690462e+00
 3.561716011306555e-01	 1.585486282276886e+00	 3.255935158030808e+00
 3.864776726680479e-01	 1.578372557534725e+00	 3.482565028035689e+00
 4.168039785420755e-01	 1.570636598043658e+00	 3.745056787123659e+00
 4.471325562140517e-01	 1.562273125559002e+00	 4.040152970834759e+00
 4.774450630523527e-01	 1.553277511444354e+00	 4.363788111371192e+00
 5.077228037229133e-01	 1.543645802875016e+00	 4.711098036781818e+00
 5.379467594960321e-01	 1.533374747776042e+00	 5.076436765673142e+00
 5.680976194107575e-01	 1.522461818343218e+00	 5.453401175676960e+00
 5.981558132251138e-01	 1.510905232997459e+00	 5.834863542631123e+00
 6.211618060387971e-01	 1.569016972725812e+00	 6.125959297294305e+00
 6.522584803334457e-01	 1.556346765521946e+00	 6.559441750187299e+00
 6.832175681525360e-01	 1.543006881696241e+00	 6.945005298488016e+00
 7.140181610311332e-01	 1.528997914637390e+00	 7.293208739048966e+00
 7.446392347742444e-01	 1.514321304611717e+00	 7.599622300494922e+00
 7.750596913631842e-01	 1.498979351264834e+00	 7.859836981661245e+00
 8.052584019923822e-01	 1.482975223683451e+00	 8.069503352600814e+00
 8.352142510737581e-01	 1.466312967913504e+00	 8.224371722171325e+00
 8.649061810356652e-01	 1.448997511842957e+00	 8.320333323732459e+00
 8.943132377343024e-01	 1.431034667370927e+00	 8.353462143160616e+00
 9.234146162875218e-01	 1.412431129799070e+00	 8.320056990082449e+00
 6.188612067552249e-01	 1.563205798752884e+00	 6.090066172826663e+00
 6.498427081818867e-01	 1.550582518242888e+00	 6.531725211794763e+00
 6.806871327125635e-01	 1.537292041394821e+00	 6.915281604862144e+00
 7.113736493210807e-01	 1.523334959399639e+00	 7.260714495607709e+00
 7.418813116798342e-01	 1.508712707189349e+00	 7.563704197052049e+00
 7.721890999109496e-01	 1.493427575892354e+00	 7.819957416268520e+00
 8.022759634636919e-01	 1.477482722858006e+00	 8.025245483766041e+00
 8.321208649558631e-01	 1.460882179146885e+00	 8.175443900256179e+00
 8.617028248068228e-01	 1.443630854395518e+00	 8.266572856404979e+00
 8.910009664807104e-01	 1.425734538977469e+00	 8.294838354447638e+00
 9.199945621504970e-01	 1.407199903396981e+00	 8.256673537775914e+00
 6.165606074721426e-01	 1.557394624779977e+00	 6.055712556882521e+00
 6.474269360309075e-01	 1.544818270963659e+00	 6.505796777847454e+00
 6.781566972732427e-01	 1.531577201093059e+00	 6.887316097786673e+00
 7.087291376117315e-01	 1.517672004161394e+00	 7.229942748180545e+00
 7.391233885861601e-01	 1.503104109766354e+00	 7.529466586560000e+00
 7.693185084594629e-01	 1.487875800519134e+00	 7.781709484775416e+00
 7.992935249357420e-01	 1.471990222031727e+00	 7.982562990524568e+00
 8.290274788386802e-01	 1.455451390379360e+00	 8.128027257234486e+00
 8.584994685786443e-01	 1.438264196947121e+00	 8.214250901936332e+00
 8.876886952277132e-01	 1.420434410583022e+00	 8.237571424644747e+00
 9.165745080139776e-01	 1.401968676993892e+00	 8.194555800531743e+00
 6.142600081895501e-01	 1.551583450807090e+00	 6.022886135466977e+00
 6.450111638805092e-01	 1.539054023684261e+00	 6.481655622440728e+00
 6.756262618345731e-01	 1.525862360790954e+00	 6.861105564421571e+00
 7.060846259030861e-01	 1.512009048922656e+00	 7.200887809132773e+00
 7.363654654932211e-01	 1.497495512342732e+00	 7.496901224334604e+00
 7.664479170087244e-01	 1.482324025145173e+00	 7.745082309133943e+00
 7.963110864085322e-01	 1.466497721204616e+00	 7.941442291408060e+00
 8.259340927222101e-01	 1.450020601610930e+00	 8.082105444711031e+00
 8.552961123511297e-01	 1.432897539497765e+00	 8.163348288314959e+00
 8.843764239753107e-01	 1.415134282187585e+00	 8.181639308493185e+00
 9.131544538779635e-01	 1.396737450589802e+00	 8.133678817480028e+00
 6.119594089074470e-01	 1.545772276834224e+00	 5.991574758822944e+00
 6.425953917306905e-01	 1.533289776404692e+00	 6.459301061390862e+00
 6.730958263965554e-01	 1.520147520488509e+00	 6.836646909942960e+00
 7.034401141951435e-01	 1.506346093683423e+00	 7.173544083987398e+00
 7.336075424010180e-01	 1.491886914918482e+00	 7.465999932868577e+00
 7.635773255587338e-01	 1.476772249770473e+00	 7.710065051406412e+00
 7.933286478820628e-01	 1.461005220376671e+00	 7.901869816945309e+00
 8.228407066064517e-01	 1.444589812841593e+00	 8.037662097171507e+00
 8.520927561242789e-01	 1.427530882047452e+00	 8.113845796337396e+00
 8.810641527235032e-01	 1.409834153791159e+00	 8.127019882560301e+00
 9.097343997424545e-01	 1.391506224184713e+00	 8.074017517739204e+00
 6.096588096258341e-01	 1.539961102861379e+00	 5.961766444529902e+00
 6.401796195814521e-01	 1.527525529124953e+00	 6.438732554907475e+00
 6.705653909591889e-01	 1.514432680185722e+00	 6.813937159770388e+00
 7.007956024879047e-01	 1.500683138443696e+00	 7.147906073183211e+00
 7.308496193095506e-01	 1.486278317493605e+00	 7.436754603098893e+00
 7.607067341094913e-01	 1.471220474395032e+00	 7.676646914522166e+00
 7.903462093563337e-01	 1.455512719547893e+00	 7.863832009888641e+00
 8.197473204914060e-01	 1.439159024071349e+00	 7.994680831659490e+00
 8.488893998980922e-01	 1.422164224596181e+00	 8.065724158717053e+00
 8.777518814722912e-01	 1.404534025393743e+00	 8.073690943764426e+00
 9.063143456074513e-01	 1.386274997778624e+00	 8.015546718340207e+00
 6.073582103447105e-01	 1.534149928888554e+00	 5.933449380672855e+00
 6.377638474327939e-01	 1.521761281845044e+00	 6.419949710327078e+00
 6.680349555224742e-01	 1.508717839882593e+00	 6.792973461843291e+00
 6.981510907813695e-01	 1.495020183203475e+00	 7.123968373871880e+00
 7.280916962188191e-01	 1.480669720068102e+00	 7.409157195703447e+00
 7.578361426609969e-01	 1.465668699018850e+00	 7.644817143051265e+00
 7.873637708313451e-01	 1.450020218718282e+00	 7.827315325445696e+00
 8.166539343770722e-01	 1.433728235300201e+00	 7.953145247446285e+00
 8.456860436725691e-01	 1.416797567143951e+00	 8.018964059174007e+00
 8.744396102216738e-01	 1.399233896995337e+00	 8.021630207866634e+00
 9.028942914729530e-01	 1.381043771371535e+00	 7.958241122103921e+00
 6.050576110640767e-01	 1.528338754915749e+00	 5.906611929084324e+00
 6.353480752847160e-01	 1.515997034564966e+00	 6.402952284912921e+00
 6.655045200864108e-01	 1.503002999579122e+00	 6.773753088950983e+00
 6.955065790755374e-01	 1.489357227962760e+00	 7.101725681756635e+00
 7.253337731288232e-01	 1.475061122641972e+00	 7.383199742426644e+00
 7.549655512132506e-01	 1.460116923641929e+00	 7.614565023996802e+00
 7.843813323070964e-01	 1.444527717887837e+00	 7.792306231516370e+00
 8.135605482634515e-01	 1.428297446528146e+00	 7.913038925693369e+00
 8.424826874477103e-01	 1.411430909690764e+00	 7.973546131503524e+00
 8.711273389716513e-01	 1.393933768595943e+00	 7.970815307927889e+00
 8.994742373389597e-01	 1.375812544963445e+00	 7.902075315469739e+00
 6.027570117839327e-01	 1.522527580942965e+00	 5.881242628659757e+00
 6.329323031372183e-01	 1.510232787284717e+00	 6.387740188713972e+00
 6.629740846509991e-01	 1.497288159275309e+00	 6.756273441114880e+00
 6.928620673704089e-01	 1.483694272721550e+00	 7.081172792973745e+00
 7.225758500395629e-01	 1.469452525215214e+00	 7.358874347435903e+00
 7.520949597662524e-01	 1.454565148264268e+00	 7.585879887603990e+00
 7.813988937835883e-01	 1.439035217056559e+00	 7.758791208933994e+00
 8.104671621505426e-01	 1.422866657755186e+00	 7.874345429106315e+00
 8.392793312235152e-01	 1.406064252236618e+00	 7.929450958623343e+00
 8.678150677222238e-01	 1.388633640195558e+00	 7.921223792730144e+00
 8.960541832054720e-01	 1.370581318554356e+00	 7.847023766274290e+00
 6.004564125042784e-01	 1.516716406970201e+00	 5.857330198750093e+00
 6.305165309903009e-01	 1.504468540004299e+00	 6.374313487492653e+00
 6.604436492162388e-01	 1.491573318971155e+00	 6.740532048026374e+00
 6.902175556659835e-01	 1.478031317479846e+00	 7.062304606015376e+00
 7.198179269510381e-01	 1.463843927787830e+00	 7.336173188708580e+00
 7.492243683200021e-01	 1.449013372885866e+00	 7.558751108189277e+00
 7.784164552608205e-01	 1.433542716224448e+00	 7.726756751714703e+00
 8.073737760383458e-01	 1.417435868981319e+00	 7.837048301581589e+00
 8.360759749999840e-01	 1.400697594781515e+00	 7.886659071598809e+00
 8.645027964733913e-01	 1.383333511794185e+00	 7.872833125162749e+00
 8.926341290724897e-01	 1.365350092144267e+00	 7.793060821479937e+00
 5.981558132251138e-01	 1.510905232997459e+00	 5.834863542631128e+00
 6.281007588439635e-01	 1.498704292723710e+00	 6.362672405719467e+00
 6.579132137821299e-01	 1.485858478666659e+00	 6.726526571539818e+00
 6.875730439622622e-01	 1.472368362237649e+00	 7.045116123698922e+00
 7.170600038632492e-01	 1.458235330359818e+00	 7.315088519451656e+00
 7.463537768744996e-01	 1.443461597506724e+00	 7.533168104986904e+00
 7.754340167387930e-01	 1.428050215391504e+00	 7.696189367309173e+00
 8.042803899268617e-01	 1.412005080206547e+00	 7.801131067844131e+00
 8.328726187771164e-01	 1.395330937325453e+00	 7.845150948646008e+00
 8.611905252251535e-01	 1.378033383391821e+00	 7.825620680569761e+00
 8.892140749400127e-01	 1.360118865733177e+00	 7.740160704849353e+00
 9.234146162875218e-01	 1.412431129799070e+00	 8.320056990082449e+00
 9.521904257852591e-01	 1.393193999135577e+00	 8.714167770575440e+00
 9.806195419081072e-01	 1.373332213144299e+00	 9.190133109741765e+00
 1.008681882648820e+00	 1.352855085874506e+00	 9.740155972939807e+00
 1.036357698863603e+00	 1.331772783836062e+00	 1.035622267391422e+01
 1.063627619184540e+00	 1.310096311091385e+00	 1.103015634059222e+01
 1.090472694122663e+00	 1.287837491523523e+00	 1.175367132732098e+01
 1.116874439155310e+00	 1.265008948332617e+00	 1.251842806664605e+01
 1.142814876595415e+00	 1.241624080830166e+00	 1.273651395016952e+01
 1.168276576045971e+00	 1.217697038617357e+00	 1.204313531236616e+01
 1.193242693250000e+00	 1.193242693250000e+00	 1.153955823502122e+01
 9.199945621504970e-01	 1.407199903396981e+00	 8.256673537775914e+00
 9.486637945761733e-01	 1.388034021365868e+00	 8.662888610673239e+00
 9.769876176765689e-01	 1.368245797545105e+00	 9.155512725471386e+00
 1.004946023822243e+00	 1.347844511487479e+00	 9.726722326173864e+00
 1.032519337014377e+00	 1.326840292049115e+00	 1.036846042171572e+01
 1.059688257630864e+00	 1.305244102536645e+00	 1.107248979586413e+01
 1.086433906366029e+00	 1.283067723040956e+00	 1.183044725501958e+01
 1.112737867158401e+00	 1.260323730009596e+00	 1.263389841091916e+01
 1.138582228904944e+00	 1.237025473126984e+00	 1.256668839363683e+01
 1.163949625765673e+00	 1.213187049588377e+00	 1.192650160975702e+01
 1.188823275869750e+00	 1.188823275869750e+00	 1.147734466941327e+01
 9.165745080139776e-01	 1.401968676993892e+00	 8.194555800531738e+00
 9.451371633674924e-01	 1.382874043595164e+00	 8.613308848423962e+00
 9.733556934453352e-01	 1.363159381944929e+00	 9.123047326709260e+00
 1.001210164995870e+00	 1.342833937099496e+00	 9.715919823914003e+00
 1.028680975165256e+00	 1.321907800261249e+00	 1.038382465565532e+01
 1.055748896077192e+00	 1.300391893981030e+00	 1.111846282531769e+01
 1.082395118609296e+00	 1.278297954557569e+00	 1.191139211434873e+01
 1.108601295161293e+00	 1.255638511685820e+00	 1.275408180301583e+01
 1.134349581214172e+00	 1.232426865423123e+00	 1.239514660947955e+01
 1.159622675484976e+00	 1.208677060558803e+00	 1.180866341557577e+01
 1.184403858489000e+00	 1.184403858489000e+00	 1.141447093741281e+01
 9.131544538779635e-01	 1.396737450589802e+00	 8.133678817480025e+00
 9.416105321592171e-01	 1.377714065823465e+00	 8.565406581344570e+00
 9.697237692144064e-01	 1.358072966343774e+00	 9.092718405326195e+00
 9.974743061697016e-01	 1.337823362710558e+00	 9.707733685863076e+00
 1.024842613316237e+00	 1.316975308472461e+00	 1.040230465335109e+01
 1.051809534523522e+00	 1.295539685424539e+00	 1.116806909026364e+01
 1.078356330852466e+00	 1.273528186073362e+00	 1.199650427086792e+01
 1.104464723163987e+00	 1.250953293361289e+00	 1.287898162717464e+01
 1.130116933523102e+00	 1.227828257718581e+00	 1.222193755320481e+01
 1.155295725203879e+00	 1.204167071528634e+00	 1.168967589092642e+01
 1.179984441107750e+00	 1.179984441107750e+00	 1.135099861064761e+01
 9.097343997424545e-01	 1.391506224184713e+00	 8.074017517739209e+00
 9.380839009513463e-01	 1.372554088050771e+00	 8.519159854661538e+00
 9.660918449837822e-01	 1.352986550741638e+00	 9.064507463340959e+00
 9.937384473437366e-01	 1.332812788320665e+00	 9.702149208936707e+00
 1.021004251467322e+00	 1.312042816682753e+00	 1.042388984121870e+01
 1.047870172969855e+00	 1.290687476867174e+00	 1.122130247679362e+01
 1.074317543095536e+00	 1.268758417588334e+00	 1.208578239517275e+01
 1.100328151166482e+00	 1.246268075036002e+00	 1.272317299950618e+01
 1.125884285831732e+00	 1.223229650013359e+00	 1.204711065809337e+01
 1.150968774922381e+00	 1.199657082497869e+00	 1.156959476685384e+01
 1.175565023726000e+00	 1.175565023726000e+00	 1.128698992648895e+01
 9.063143456074513e-01	 1.386274997778624e+00	 8.015546718340207e+00
 9.345572697438811e-01	 1.367394110277082e+00	 8.474546660323000e+00
 9.624599207534629e-01	 1.347900135138522e+00	 9.038396013112578e+00
 9.900025885179762e-01	 1.327802213929816e+00	 9.699151768720835e+00
 1.017165889618511e+00	 1.307110324892126e+00	 1.044856979727751e+01
 1.043930811416191e+00	 1.285835268308933e+00	 1.127815710002168e+01
 1.070278755338509e+00	 1.263988649102486e+00	 1.217922546864893e+01
 1.096191579168778e+00	 1.241582856709961e+00	 1.249308234528410e+01
 1.121651638140063e+00	 1.218631042307457e+00	 1.187071584421450e+01
 1.146641824640485e+00	 1.195147093466510e+00	 1.144847635509686e+01
 1.171145606343750e+00	 1.171145606343750e+00	 1.122250780061374e+01
 9.028942914729530e-01	 1.381043771371535e+00	 7.958241122103921e+00
 9.310306385368207e-01	 1.362234132502398e+00	 8.431544935991411e+00
 9.588279965234481e-01	 1.342813719534427e+00	 9.014365577535957e+00
 9.862667296924201e-01	 1.322791639538013e+00	 9.698726820961049e+00
 1.013327527769804e+00	 1.302177833100578e+00	 1.047633425402280e+01
 1.039991449862529e+00	 1.280983059749816e+00	 1.133862730842144e+01
 1.066239967581384e+00	 1.259218880615818e+00	 1.227683278935919e+01
 1.092055007170874e+00	 1.236897638383164e+00	 1.226097145615240e+01
 1.117418990448094e+00	 1.214032434600875e+00	 1.169280352764520e+01
 1.142314874358187e+00	 1.190637104434555e+00	 1.132637755908716e+01
 1.166726188961000e+00	 1.166726188961000e+00	 1.115761583985030e+01
 8.994742373389597e-01	 1.375812544963445e+00	 7.902075315469739e+00
 9.275040073301658e-01	 1.357074154726718e+00	 8.390132564009637e+00
 9.551960722937385e-01	 1.337727303929351e+00	 8.992397690242004e+00
 9.825308708670677e-01	 1.317781065145254e+00	 9.700859903087224e+00
 1.009489165921199e+00	 1.297245341308110e+00	 1.050717310136224e+01
 1.036052088308870e+00	 1.276130851189825e+00	 1.140270768826315e+01
 1.062201179824161e+00	 1.254449112128329e+00	 1.237860397806373e+01
 1.087918435172772e+00	 1.232212420055611e+00	 1.202688490131999e+01
 1.113186342755825e+00	 1.209433826893612e+00	 1.151342462990018e+01
 1.137987924075491e+00	 1.186127115402005e+00	 1.120335588519731e+01
 1.162306771577750e+00	 1.162306771577750e+00	 1.109237835531872e+01
 8.960541832054720e-01	 1.370581318554356e+00	 7.847023766274294e+00
 9.239773761239163e-01	 1.351914176950044e+00	 8.350287370346946e+00
 9.515641480643336e-01	 1.332640888323294e+00	 8.972473895802588e+00
 9.787950120419199e-01	 1.312770490751540e+00	 9.705536635771733e+00
 1.005650804072698e+00	 1.292312849514721e+00	 1.054107638962006e+01
 1.032112726755214e+00	 1.271278642628958e+00	 1.147039306815077e+01
 1.058162392066839e+00	 1.249679343640021e+00	 1.245776070029712e+01
 1.083781863174472e+00	 1.227527201727304e+00	 1.179086766982285e+01
 1.108953695063257e+00	 1.204835219185669e+00	 1.133263058757761e+01
 1.133660973792395e+00	 1.181617126368861e+00	 1.107946945424775e+01
 1.157887354194000e+00	 1.157887354194000e+00	 1.102686037587127e+01
 8.926341290724897e-01	 1.365350092144267e+00	 7.793060821479937e+00
 9.204507449180716e-01	 1.346754199172375e+00	 8.311987123517426e+00
 9.479322238352332e-01	 1.327554472716258e+00	 8.954575749940309e+00
 9.750591532169761e-01	 1.307759916356871e+00	 9.712742724524571e+00
 1.001812442224300e+00	 1.287380357720412e+00	 1.057803433261012e+01
 1.028173365201560e+00	 1.266426434067215e+00	 1.154167852366602e+01
 1.054123604309420e+00	 1.244909575150891e+00	 1.216605144073338e+01
 1.079645291175972e+00	 1.222841983398241e+00	 1.155296517856688e+01
 1.104721047370390e+00	 1.200236611477047e+00	 1.115047336222664e+01
 1.129334023508898e+00	 1.177107137335121e+00	 1.095477701327755e+01
 1.153467936809750e+00	 1.153467936809750e+00	 1.096112766184246e+01
 8.892140749400127e-01	 1.360118865733177e+00	 7.740160704849353e+00
 9.169241137126318e-01	 1.341594221393710e+00	 8.275209533476447e+00
 9.443002996064377e-01	 1.322468057108241e+00	 8.938684819742569e+00
 9.713232943922365e-01	 1.302749341961246e+00	 9.722463961324857e+00
 9.979740803760067e-01	 1.282447865925183e+00	 1.061803731077980e+01
 1.024234003647909e+00	 1.261574225504597e+00	 1.161655938211608e+01
 1.050084816551902e+00	 1.240139806660941e+00	 1.187201029272625e+01
 1.075508719177274e+00	 1.218156765068423e+00	 1.131322328055620e+01
 1.100488399677223e+00	 1.195638003767743e+00	 1.096700545044257e+01
 1.125007073225002e+00	 1.172597148300786e+00	 1.082933794758735e+01
 1.149048519425000e+00	 1.149048519425000e+00	 1.089524671911544e+01
 1.193242693250000e+00	 1.193242693250000e+00	 1.153955823502122e+01
 1.217697026177599e+00	 1.168276595001096e+00	 1.112392930795670e+01
 1.241624031217757e+00	 1.142814952252537e+00	 1.080323385118061e+01
 1.265008837051568e+00	 1.116874608974198e+00	 1.070286845442379e+01
 1.287837294336642e+00	 1.090472995220908e+00	 1.080038255787452e+01
 1.310096004041184e+00	 1.063628088283843e+00	 1.102258996849466e+01
 1.331772343264670e+00	 1.036358372237633e+00	 1.135733220916973e+01
 1.352854488442549e+00	 1.008682796072803e+00	 1.179268486470156e+01
 1.373331435848735e+00	 9.806207306103151e-01	 1.231702052609946e+01
 1.393193019326464e+00	 9.521919244005580e-01	 1.291906565076179e+01
 1.412429925195270e+00	 9.234164588131115e-01	 1.358795100752956e+01
 1.188823275869750e+00	 1.188823275869750e+00	 1.147734466941327e+01
 1.213187037194693e+00	 1.163949644650594e+00	 1.110347528077010e+01
 1.237025423698325e+00	 1.138582304281854e+00	 1.081904338686578e+01
 1.260323619140700e+00	 1.112738036348330e+00	 1.070856020751062e+01
 1.283067526584397e+00	 1.086434206349094e+00	 1.082299633940064e+01
 1.305243796623667e+00	 1.059688724992762e+00	 1.105787343283740e+01
 1.326839853109469e+00	 1.032520007894430e+00	 1.140131276900310e+01
 1.347843916268233e+00	 1.004946933863174e+00	 1.184167410359845e+01
 1.368245023128413e+00	 9.769888019761761e-01	 1.236761720494967e+01
 1.388033045185678e+00	 9.486652876410450e-01	 1.296815735130442e+01
 1.407198703254676e+00	 9.199963978519180e-01	 1.363271446512212e+01
 1.184403858489000e+00	 1.184403858489000e+00	 1.141447093741281e+01
 1.208677048211192e+00	 1.159622694299693e+00	 1.108198667263271e+01
 1.232426816178213e+00	 1.134349656310871e+00	 1.083342695719109e+01
 1.255638401229076e+00	 1.108601463722264e+00	 1.071374424482385e+01
 1.278297758831332e+00	 1.082395417477183e+00	 1.084476985786286e+01
 1.300391589205274e+00	 1.055749361701685e+00	 1.109194668989162e+01
 1.321907362953348e+00	 1.028681643551331e+00	 1.144367593942996e+01
 1.342833344092961e+00	 1.001211071653750e+00	 1.188860185855207e+01
 1.363158610407109e+00	 9.733568733423412e-01	 1.241567188395878e+01
 1.382873071043897e+00	 9.451386508819374e-01	 1.301419076936357e+01
 1.401967481313083e+00	 9.165763368912296e-01	 1.367386840584825e+01
 1.179984441107750e+00	 1.179984441107750e+00	 1.135099861064761e+01
 1.204167059227096e+00	 1.155295743948391e+00	 1.105952098045307e+01
 1.227828208657421e+00	 1.130117008339589e+00	 1.084643763095448e+01
 1.250953183316696e+00	 1.104464891095998e+00	 1.071839208364053e+01
 1.273527991077446e+00	 1.078356628605173e+00	 1.086566916588683e+01
 1.295539381786007e+00	 1.051809998410611e+00	 1.112477017981589e+01
 1.316974872796307e+00	 1.024843279208334e+00	 1.148437641397616e+01
 1.337822771916734e+00	 9.974752094445291e-01	 1.193341695594840e+01
 1.358072197684826e+00	 9.697249447088118e-01	 1.246112741547749e+01
 1.377713096901120e+00	 9.416120141232344e-01	 1.305710268987383e+01
 1.396736259370489e+00	 9.131562759310468e-01	 1.371134346721222e+01
 1.175565023726000e+00	 1.175565023726000e+00	 1.128698992648895e+01
 1.199657070242405e+00	 1.150968793596690e+00	 1.103613630557161e+01
 1.223229601135948e+00	 1.125884360368007e+00	 1.085812901531830e+01
 1.246267965403562e+00	 1.100328318469534e+00	 1.075206290450377e+01
 1.268758223322740e+00	 1.074317839733066e+00	 1.088566070859897e+01
 1.290687174365865e+00	 1.047870635119539e+00	 1.115630465577170e+01
 1.312042382638346e+00	 1.021004914865442e+00	 1.152336911551217e+01
 1.332812199739552e+00	 9.937393472355126e-01	 1.197606836387400e+01
 1.352985784961564e+00	 9.660930160755871e-01	 1.250392670211183e+01
 1.372553122757349e+00	 9.380853773649370e-01	 1.309682985297030e+01
 1.391505037426896e+00	 9.097362149713689e-01	 1.374507014345511e+01
 1.171145606343750e+00	 1.171145606343750e+00	 1.122250780061374e+01
 1.195147081257118e+00	 1.146641843244589e+00	 1.101189136516534e+01
 1.218630993613796e+00	 1.121651712396126e+00	 1.086855526596629e+01
 1.241582747489672e+00	 1.096191745842871e+00	 1.079171932772219e+01
 1.263988455567215e+00	 1.070279050860860e+00	 1.090471133103203e+01
 1.285834966944846e+00	 1.043931271828470e+00	 1.118651118982935e+01
 1.307109892479464e+00	 1.017166550522652e+00	 1.156060920058081e+01
 1.327801627561415e+00	 9.900034850267004e-01	 1.201650519479020e+01
 1.347899372237320e+00	 9.624610874426668e-01	 1.254401269767126e+01
 1.367393148612583e+00	 9.345587406070445e-01	 1.313330895314332e+01
 1.386273815482302e+00	 9.063161540121963e-01	 1.377497878285140e+01
 1.166726188961000e+00	 1.166726188961000e+00	 1.115761583985030e+01
 1.190637092271237e+00	 1.142314892892088e+00	 1.098684550391092e+01
 1.214032386090963e+00	 1.117419064423946e+00	 1.087777109749369e+01
 1.236897529575027e+00	 1.092055173216009e+00	 1.082973822339055e+01
 1.259218687810868e+00	 1.066240261988556e+00	 1.092278828569899e+01
 1.280982759522953e+00	 1.039991908537403e+00	 1.121535117900779e+01
 1.302177402319661e+00	 1.013328186179967e+00	 1.159605206382224e+01
 1.322791055382322e+00	 9.862676228180921e-01	 1.205467670826690e+01
 1.342812959512097e+00	 9.588291588100514e-01	 1.258132840813865e+01
 1.362233174466821e+00	 9.310321038495574e-01	 1.316647663837405e+01
 1.381042593536708e+00	 9.028960930535294e-01	 1.380099958494485e+01
 1.162306771577750e+00	 1.162306771577750e+00	 1.109237835531872e+01
 1.186127103284760e+00	 1.137987942539187e+00	 1.096105870591496e+01
 1.209433778567450e+00	 1.113186416451466e+00	 1.088583179403174e+01
 1.232212311659627e+00	 1.087918600588949e+00	 1.086616981214257e+01
 1.254448920053701e+00	 1.062201473116154e+00	 1.093985924033999e+01
 1.276130552100184e+00	 1.036052545246339e+00	 1.124278635145245e+01
 1.297244912158939e+00	 1.009489821837384e+00	 1.162965334250115e+01
 1.317780483202274e+00	 9.825317606096884e-01	 1.209053231377983e+01
 1.337726546785893e+00	 9.551972301777409e-01	 1.261581689266197e+01
 1.357073200320065e+00	 9.275054670924756e-01	 1.319626950925017e+01
 1.375811371590114e+00	 8.994760320953678e-01	 1.382306259772054e+01
 1.157887354194000e+00	 1.157887354194000e+00	 1.102686037587127e+01
 1.181617114297689e+00	 1.133660992185886e+00	 1.093459160691629e+01
 1.204835171043257e+00	 1.108953768478686e+00	 1.089279322011732e+01
 1.227527093743472e+00	 1.083782027961689e+00	 1.090106481880548e+01
 1.249679152295714e+00	 1.058162684243654e+00	 1.095865205817527e+01
 1.271278344676541e+00	 1.032113181955278e+00	 1.126877877275434e+01
 1.292312421997296e+00	 1.005651457494906e+00	 1.166136892113642e+01
 1.312769911021271e+00	 9.787958984014883e-01	 1.212402157357091e+01
 1.332640134058710e+00	 9.515653015457352e-01	 1.264742126456900e+01
 1.351913226172313e+00	 9.239788303357986e-01	 1.322262411806142e+01
 1.370580149642521e+00	 8.960559711377111e-01	 1.384109771471276e+01
 1.153467936809750e+00	 1.153467936809750e+00	 1.096112766184246e+01
 1.177107125310022e+00	 1.129334041832186e+00	 1.090750550676967e+01
 1.200236563518384e+00	 1.104721120505608e+00	 1.089871183181143e+01
 1.222841875826561e+00	 1.079645455334231e+00	 1.093447448205917e+01
 1.244909384536906e+00	 1.054123895371056e+00	 1.101418803877410e+01
 1.266426137252021e+00	 1.028173818664220e+00	 1.129329085241458e+01
 1.287379931834733e+00	 1.001813093152530e+00	 1.169115493623834e+01
 1.307759338839313e+00	 9.750600361934930e-01	 1.215509420557518e+01
 1.327553721330546e+00	 9.479333729140341e-01	 1.267608469240518e+01
 1.346753252023566e+00	 9.204521935795268e-01	 1.324547696787472e+01
 1.365348927693927e+00	 8.926359101805601e-01	 1.385503467204631e+01
 1.149048519425000e+00	 1.149048519425000e+00	 1.089524671911544e+01
 1.172597136321760e+00	 1.125007091478085e+00	 1.087986238221743e+01
 1.195637955992831e+00	 1.100488472532229e+00	 1.090364468807517e+01
 1.218156657908894e+00	 1.075508882706573e+00	 1.096645056431705e+01
 1.240139616777278e+00	 1.050085106498359e+00	 1.106782438904635e+01
 1.261573929826626e+00	 1.024234455373164e+00	 1.131628535045795e+01
 1.282447441671249e+00	 9.979747288102582e-01	 1.171896778115416e+01
 1.302748766656399e+00	 9.713241739857016e-01	 1.218370008641463e+01
 1.322467308601402e+00	 9.443014442826378e-01	 1.270175040099565e+01
 1.341593277873824e+00	 9.169255568236603e-01	 1.326476451158688e+01
 1.360117705744333e+00	 8.892158492239139e-01	 1.386480304540889e+01
 1.412429925195270e+00	 9.234164588131115e-01	 1.358795100752955e+01
 1.431033704299042e+00	 8.943147025262581e-01	 1.346526427691069e+01
 1.448996781178124e+00	 8.649072656246353e-01	 1.338196698938542e+01
 1.466312460364777e+00	 8.352149535143712e-01	 1.333080810737241e+01
 1.482974929818439e+00	 8.052587208623176e-01	 1.330504328015749e+01
 1.498979261534318e+00	 7.750596257605761e-01	 1.329844431633033e+01
 1.514321409374140e+00	 7.446387843134631e-01	 1.330530247491029e+01
 1.528998204183102e+00	 7.140173258369892e-01	 1.332042587196091e+01
 1.543007346271411e+00	 6.832163488529668e-01	 1.333913136060000e+01
 1.556347395352019e+00	 6.522568780507498e-01	 1.335723129539861e+01
 1.569017758038443e+00	 6.211598223794864e-01	 1.333040045920852e+01
 1.407198703254676e+00	 9.199963978519180e-01	 1.363271446512212e+01
 1.425733579472516e+00	 8.910024258475107e-01	 1.350109507466783e+01
 1.443630126436850e+00	 8.617039053787967e-01	 1.341075072380322e+01
 1.460881673477968e+00	 8.321215647948442e-01	 1.335434424812887e+01
 1.477482430081382e+00	 8.022762811526276e-01	 1.332503173579509e+01
 1.493427486494174e+00	 7.721890345513143e-01	 1.331647278683868e+01
 1.508712811563763e+00	 7.418808628874264e-01	 1.332283467972793e+01
 1.523335247872960e+00	 7.113728172202483e-01	 1.333879073210172e+01
 1.537292504249342e+00	 6.806859179289186e-01	 1.335951320317790e+01
 1.550583145740257e+00	 6.498411118335711e-01	 1.338066113793033e+01
 1.563206581156951e+00	 6.188592304428007e-01	 1.333448532567910e+01
 1.401967481313083e+00	 9.165763368912296e-01	 1.367386840584825e+01
 1.420433454645002e+00	 8.876901491693580e-01	 1.353369739476384e+01
 1.438263471694619e+00	 8.585005451336220e-01	 1.343668357450950e+01
 1.455450886590253e+00	 8.290281760760299e-01	 1.337540283659069e+01
 1.471989930343493e+00	 7.992938414436779e-01	 1.334291098365100e+01
 1.487875711453288e+00	 7.693184433428003e-01	 1.333275477561822e+01
 1.503104213752759e+00	 7.391229414621252e-01	 1.333897697081385e+01
 1.517672291562324e+00	 7.087283086042108e-01	 1.335611563923444e+01
 1.531577662226931e+00	 6.781554870055220e-01	 1.337919808509635e+01
 1.544818896128324e+00	 6.474253456169725e-01	 1.340372976789981e+01
 1.557395404275478e+00	 6.165586385066045e-01	 1.333941663862856e+01
 1.396736259370489e+00	 9.131562759310468e-01	 1.371134346721222e+01
 1.415133329816499e+00	 8.843778724918004e-01	 1.356300651722141e+01
 1.432896816951430e+00	 8.552971848891112e-01	 1.345970574062909e+01
 1.450020099701632e+00	 8.259347873579272e-01	 1.339392925681735e+01
 1.466497430604770e+00	 7.963114017354683e-01	 1.335863184698757e+01
 1.482323936411663e+00	 7.664478521350345e-01	 1.334724678708510e+01
 1.497495615941127e+00	 7.363650200375597e-01	 1.335369176267754e+01
 1.512009335251194e+00	 7.060837999888767e-01	 1.337236913326081e+01
 1.525862820204178e+00	 6.756250560827769e-01	 1.339816087274450e+01
 1.539054646516222e+00	 6.450095794009543e-01	 1.342641856458135e+01
 1.551584227394026e+00	 6.142580465708983e-01	 1.334524663097151e+01
 1.391505037426896e+00	 9.097362149713689e-01	 1.374507014345511e+01
 1.409833204987005e+00	 8.810655958148378e-01	 1.358895764039359e+01
 1.427530162207283e+00	 8.520938246452643e-01	 1.347975740319246e+01
 1.444589312812106e+00	 8.228413986405374e-01	 1.340986894019506e+01
 1.461004930865214e+00	 7.933289620279991e-01	 1.337214526352558e+01
 1.476772161369298e+00	 7.635772609280167e-01	 1.335990550881597e+01
 1.491887018128869e+00	 7.336070986137301e-01	 1.336694172312034e+01
 1.506346378939570e+00	 7.034392913742462e-01	 1.338752007879199e+01
 1.520147978181083e+00	 6.730946251606834e-01	 1.341637682978120e+01
 1.533290396903949e+00	 6.425938131855161e-01	 1.344870937807700e+01
 1.545773050512595e+00	 6.119574546356819e-01	 1.335202808086214e+01
 1.386273815482302e+00	 9.063161540121963e-01	 1.377497878285139e+01
 1.404533080156522e+00	 8.777533191384699e-01	 1.361148587942343e+01
 1.422163507462178e+00	 8.488904644020812e-01	 1.349677872479365e+01
 1.439158525921673e+00	 8.197480099238597e-01	 1.342316736632989e+01
 1.455512431124826e+00	 7.903465223212706e-01	 1.338340228760375e+01
 1.471220386326192e+00	 7.607066697217465e-01	 1.337068781500386e+01
 1.486278420315984e+00	 7.308491771906359e-01	 1.337868977801453e+01
 1.500683422627451e+00	 7.007947827603190e-01	 1.340153767127534e+01
 1.514433136157648e+00	 6.705641942392414e-01	 1.343382162463057e+01
 1.527526147291506e+00	 6.401780469706581e-01	 1.347058453820021e+01
 1.539961873631183e+00	 6.096568627009549e-01	 1.335981432198195e+01
 1.381042593536708e+00	 9.028960930535294e-01	 1.380099958494485e+01
 1.399232955325050e+00	 8.744410424626973e-01	 1.363052626466770e+01
 1.416796852716114e+00	 8.456871041595619e-01	 1.351070984924171e+01
 1.433727739030334e+00	 8.166546212078942e-01	 1.343377006396089e+01
 1.450019931383602e+00	 7.873640826152819e-01	 1.339235409238739e+01
 1.465668611282347e+00	 7.578360785162249e-01	 1.337955076999262e+01
 1.480669822502472e+00	 7.280912557682775e-01	 1.338889911619115e+01
 1.495020466314838e+00	 6.981502741470950e-01	 1.341439144326021e+01
 1.508718294133870e+00	 6.680337633184508e-01	 1.345047133814797e+01
 1.521761897678894e+00	 6.377622807563803e-01	 1.349202686356116e+01
 1.534150696749793e+00	 6.073562707667177e-01	 1.336865925406105e+01
 1.375811371590114e+00	 8.994760320953678e-01	 1.382306259772054e+01
 1.393932830492588e+00	 8.711287657875194e-01	 1.364601374008494e+01
 1.411430197969093e+00	 8.424837439177071e-01	 1.352149090120320e+01
 1.428296952138090e+00	 8.135612324926412e-01	 1.344162261189440e+01
 1.444527431641547e+00	 7.843816429100335e-01	 1.339895197212757e+01
 1.460116836237760e+00	 7.549654873114509e-01	 1.338645163189178e+01
 1.475061224688332e+00	 7.253333343466546e-01	 1.339753319443904e+01
 1.489357510001731e+00	 6.955057655345748e-01	 1.342605127080667e+01
 1.503003452109750e+00	 6.655033323983119e-01	 1.346630247146100e+01
 1.515997648066111e+00	 6.353465145426829e-01	 1.351301967085958e+01
 1.528339519868424e+00	 6.050556788329703e-01	 1.337861735363954e+01
 1.370580149642521e+00	 8.960559711377111e-01	 1.384109771471276e+01
 1.388632705659137e+00	 8.678164891129364e-01	 1.365788316158697e+01
 1.406063543221113e+00	 8.392803836765158e-01	 1.352906198583693e+01
 1.422866165244939e+00	 8.104678437781004e-01	 1.344667063995919e+01
 1.439034931898659e+00	 7.813992032055257e-01	 1.340314734447181e+01
 1.454565061192434e+00	 7.520948961074252e-01	 1.339134785627474e+01
 1.469452626873565e+00	 7.225754129257675e-01	 1.340455574261871e+01
 1.483694553688131e+00	 6.928612569227579e-01	 1.343648738004114e+01
 1.497288610085289e+00	 6.629729014788244e-01	 1.348129195398992e+01
 1.510233398453159e+00	 6.329307483295653e-01	 1.353354678439015e+01
 1.522528342987074e+00	 6.027550868997127e-01	 1.338974368507521e+01
 1.365348927693927e+00	 8.926359101805601e-01	 1.385503467204631e+01
 1.383332580824696e+00	 8.645042124389484e-01	 1.366606929535179e+01
 1.400696888472175e+00	 8.360770234359884e-01	 1.353336318842048e+01
 1.417435378350883e+00	 8.073744550642721e-01	 1.344885982998426e+01
 1.433542432154936e+00	 7.784167635017580e-01	 1.340489175282810e+01
 1.449013286146368e+00	 7.492243049041475e-01	 1.339419709996110e+01
 1.463844029058172e+00	 7.198174915056162e-01	 1.340993076889353e+01
 1.478031597374036e+00	 6.902167483116444e-01	 1.344567035386254e+01
 1.491573768060486e+00	 6.604424705599883e-01	 1.349541715165238e+01
 1.504469148840036e+00	 6.305149821170281e-01	 1.355359254576666e+01
 1.516717166105746e+00	 6.004544949669447e-01	 1.340209391180468e+01
 1.360117705744333e+00	 8.892158492239139e-01	 1.386480304540889e+01
 1.378032455989265e+00	 8.611919357655552e-01	 1.367050681609826e+01
 1.395330233722280e+00	 8.328736631961248e-01	 1.353433457396749e+01
 1.412004591455920e+00	 8.042810663511558e-01	 1.344813591679861e+01
 1.428049932410381e+00	 7.754343237987307e-01	 1.340413686878320e+01
 1.443461511099561e+00	 7.463537137016177e-01	 1.339495722488722e+01
 1.458235431242151e+00	 7.170595700862005e-01	 1.341362256508159e+01
 1.472368641059446e+00	 6.875722397012342e-01	 1.345357113880336e+01
 1.485858926035341e+00	 6.579120396418039e-01	 1.350865587525788e+01
 1.498704899226743e+00	 6.280992159050710e-01	 1.357314182387033e+01
 1.510905989224438e+00	 5.981539030346662e-01	 1.341572430786385e+01
 1.569017758038443e+00	 6.211598223794864e-01	 1.333040045920852e+01
 1.581018673018042e+00	 5.899459344225171e-01	 1.344876851396954e+01
 1.592351194024379e+00	 5.586357711947570e-01	 1.354750781035631e+01
 1.603017170743082e+00	 5.272496564900992e-01	 1.362577590228473e+01
 1.613019227792836e+00	 4.958076448932794e-01	 1.368282304656051e+01
 1.622360741927263e+00	 4.643294875584610e-01	 1.371800901631204e+01
 1.631045817609864e+00	 4.328345998423444e-01	 1.373081812201756e+01
 1.639079261117299e+00	 4.013420308663295e-01	 1.372087234417951e+01
 1.646466553328508e+00	 3.698704350687274e-01	 1.368794250939313e+01
 1.653213821358251e+00	 3.384380457946703e-01	 1.363195746868081e+01
 1.659327809193490e+00	 3.070626509582619e-01	 1.355301126313378e+01
 1.563206581156951e+00	 6.188592304428007e-01	 1.333448532567910e+01
 1.575163048302803e+00	 5.877609494785290e-01	 1.346091972993792e+01
 1.586453597008709e+00	 5.565667498185800e-01	 1.356605178457345e+01
 1.597080070109610e+00	 5.252968799835349e-01	 1.364912936219524e+01
 1.607045082503379e+00	 4.939713202818894e-01	 1.370949507897219e+01
 1.616351998437140e+00	 4.626097487153827e-01	 1.374660250594198e+01
 1.625004907172679e+00	 4.312315087319867e-01	 1.376003060982535e+01
 1.633008597185630e+00	 3.998555789007989e-01	 1.374949633090957e+01
 1.640368529055379e+00	 3.685005445696170e-01	 1.371486523280910e+01
 1.647090807203667e+00	 3.371845715526645e-01	 1.365616018557776e+01
 1.653182150639727e+00	 3.059253818828811e-01	 1.357356806935526e+01
 1.557395404275478e+00	 6.165586385066045e-01	 1.333941663862856e+01
 1.569307423587768e+00	 5.855759645349309e-01	 1.347392358466396e+01
 1.580555999993397e+00	 5.544977284426922e-01	 1.358544802558555e+01
 1.591142969476617e+00	 5.233441034771595e-01	 1.367332779935601e+01
 1.601070937214489e+00	 4.921349956705874e-01	 1.373699755721463e+01
 1.610343254947646e+00	 4.608900098722921e-01	 1.377600437474460e+01
 1.618963996736152e+00	 4.296284176215159e-01	 1.379002161408494e+01
 1.626937933254618e+00	 3.983691269350543e-01	 1.377886094835756e+01
 1.634270504782878e+00	 3.671306540701919e-01	 1.374248248617597e+01
 1.640967793049654e+00	 3.359310973102441e-01	 1.368100296031212e+01
 1.647036492086448e+00	 3.047881128069858e-01	 1.359470196985027e+01
 1.551584227394026e+00	 6.142580465708983e-01	 1.334524663097151e+01
 1.563451798872938e+00	 5.833909795917217e-01	 1.348783046548330e+01
 1.574658402978442e+00	 5.524287070670937e-01	 1.360574497894590e+01
 1.585205868844101e+00	 5.213913269709726e-01	 1.369841762766361e+01
 1.595096791926169e+00	 4.902986710593735e-01	 1.376537478004833e+01
 1.604334511458779e+00	 4.591702710291886e-01	 1.380625672929686e+01
 1.612923086300284e+00	 4.280253265109319e-01	 1.382083097858337e+01
 1.620867269324265e+00	 3.968826749690960e-01	 1.380900371333775e+01
 1.628172480511007e+00	 3.657607635704530e-01	 1.377082940153269e+01
 1.634844778896213e+00	 3.346776230674090e-01	 1.370651848865859e+01
 1.640890833533655e+00	 3.036508437305756e-01	 1.361644317886461e+01
 1.545773050512595e+00	 6.119574546356819e-01	 1.335202808086214e+01
 1.557596174158313e+00	 5.812059946489027e-01	 1.350269129116276e+01
 1.568760805963844e+00	 5.503596856917844e-01	 1.362699160643253e+01
 1.579268768212064e+00	 5.194385504649747e-01	 1.372444576068041e+01
 1.589122646638417e+00	 4.884623464482477e-01	 1.379467152803566e+01
 1.598325767970542e+00	 4.574505321860728e-01	 1.383740213885827e+01
 1.606882175865073e+00	 4.264222354002345e-01	 1.385249898946690e+01
 1.614796605394570e+00	 3.953962230029236e-01	 1.383996256354934e+01
 1.622074456239765e+00	 3.643908730703992e-01	 1.379994150923264e+01
 1.628721764743343e+00	 3.334241488241593e-01	 1.373273984109530e+01
 1.634745174981347e+00	 3.025135746536509e-01	 1.363882226075262e+01
 1.539961873631183e+00	 6.096568627009549e-01	 1.335981432198195e+01
 1.551740549443892e+00	 5.790210097064733e-01	 1.351855752192720e+01
 1.562863208949603e+00	 5.482906643167645e-01	 1.364923739578829e+01
 1.573331667580505e+00	 5.174857739591653e-01	 1.375145962106227e+01
 1.583148501351234e+00	 4.866260218372101e-01	 1.382493307263144e+01
 1.592317024482933e+00	 4.557307933429445e-01	 1.386948364410070e+01
 1.600841265430521e+00	 4.248191442894240e-01	 1.388506638358741e+01
 1.608725941465534e+00	 3.939097710365376e-01	 1.387177586551783e+01
 1.615976431969151e+00	 3.630209825700315e-01	 1.382985474545907e+01
 1.622598750591044e+00	 3.321706745804950e-01	 1.375970046987363e+01
 1.628599516429524e+00	 3.013763055762114e-01	 1.366187013658289e+01
 1.534150696749793e+00	 6.073562707667177e-01	 1.336865925406105e+01
 1.545884924729675e+00	 5.768360247644332e-01	 1.353548116971442e+01
 1.556965611935718e+00	 5.462216429420338e-01	 1.367253237068221e+01
 1.567394566949424e+00	 5.155329974535449e-01	 1.377950715020047e+01
 1.577174356064618e+00	 4.847896972262605e-01	 1.385620518548022e+01
 1.586308280995951e+00	 4.540110544998034e-01	 1.390254476603670e+01
 1.594800354996628e+00	 4.232160531785003e-01	 1.391857435703841e+01
 1.602655277537156e+00	 3.924233190699375e-01	 1.390448242271650e+01
 1.609878407699168e+00	 3.616510920693493e-01	 1.386060545991129e+01
 1.616475736439316e+00	 3.309172003364161e-01	 1.378743421624885e+01
 1.622453857878187e+00	 3.002390364982573e-01	 1.368561809089439e+01
 1.528339519868424e+00	 6.050556788329703e-01	 1.337861735363954e+01
 1.540029300015664e+00	 5.746510398227830e-01	 1.355351480866411e+01
 1.551068014922191e+00	 5.441526215675925e-01	 1.369692710089840e+01
 1.561457466318822e+00	 5.135802209481131e-01	 1.380863681808351e+01
 1.571200210778572e+00	 4.829533726153991e-01	 1.388853414792560e+01
 1.580299537509599e+00	 4.522913156566499e-01	 1.393662951515133e+01
 1.588759444563392e+00	 4.216129620674632e-01	 1.395306457388591e+01
 1.596584613609436e+00	 3.909368671031239e-01	 1.393812148387366e+01
 1.603780383429813e+00	 3.602812015683527e-01	 1.389223042366599e+01
 1.610352722288160e+00	 3.296637260919225e-01	 1.381597531787554e+01
 1.616308199327336e+00	 2.991017674197886e-01	 1.371009777860643e+01
 1.522528342987074e+00	 6.027550868997127e-01	 1.338974368507521e+01
 1.534173675301857e+00	 5.724660548815225e-01	 1.357271158584672e+01
 1.545170417909021e+00	 5.420836001934402e-01	 1.372247271275788e+01
 1.555520365688698e+00	 5.116274444428700e-01	 1.383889763338492e+01
 1.565226065493095e+00	 4.811170480046258e-01	 1.392196676073713e+01
 1.574290794023876e+00	 4.505715768134839e-01	 1.397178240074337e+01
 1.582718534130814e+00	 4.200098709563129e-01	 1.398857917509912e+01
 1.590513949682374e+00	 3.894504151360962e-01	 1.397273275146965e+01
 1.597682359161087e+00	 3.589113110670420e-01	 1.392476683721915e+01
 1.604229708137576e+00	 3.284102518470144e-01	 1.384535841637253e+01
 1.610162540776969e+00	 2.979644983408051e-01	 1.373534123208701e+01
 1.516717166105746e+00	 6.004544949669447e-01	 1.340209391180467e+01
 1.528318050588254e+00	 5.702810699406512e-01	 1.359312523223920e+01
 1.539272820896209e+00	 5.400145788195774e-01	 1.374922089978039e+01
 1.549583265059052e+00	 5.096746679378158e-01	 1.387033915378295e+01
 1.559251920208186e+00	 4.792807233939406e-01	 1.395655035406127e+01
 1.568282050538780e+00	 4.488518379703051e-01	 1.400804844048107e+01
 1.576677623698894e+00	 4.184067798450494e-01	 1.402516078768667e+01
 1.584443285755970e+00	 3.879639631688547e-01	 1.400835639042961e+01
 1.591584334892991e+00	 3.575414205654169e-01	 1.395825233871208e+01
 1.598106693987562e+00	 3.271567776016915e-01	 1.387561856506161e+01
 1.604016882227088e+00	 2.968272292613071e-01	 1.376138086838365e+01
 1.510905989224438e+00	 5.981539030346662e-01	 1.341572430786385e+01
 1.522462425874856e+00	 5.680960850001697e-01	 1.361481007395410e+01
 1.533375223883753e+00	 5.379455574460036e-01	 1.377722393359190e+01
 1.543646164429885e+00	 5.077218914329501e-01	 1.390301149651819e+01
 1.553277774923845e+00	 4.774443987833434e-01	 1.399233279760147e+01
 1.562273307054314e+00	 4.471320991271139e-01	 1.404547317017850e+01
 1.570636713267633e+00	 4.168036887336726e-01	 1.406285253404345e+01
 1.578372621830225e+00	 3.864775112013993e-01	 1.404503303701648e+01
 1.585486310625523e+00	 3.561715300634773e-01	 1.399272501234798e+01
 1.591983679838120e+00	 3.259033033559541e-01	 1.390679123688490e+01
 1.597871223677692e+00	 2.956899601812942e-01	 1.378824949662107e+01
 1.659327809193490e+00	 3.070626509582619e-01	 1.355301126313378e+01
 1.664815847489567e+00	 2.757615707984563e-01	 1.359479927343230e+01
 1.669685822681940e+00	 2.445516377392528e-01	 1.362397690877128e+01
 1.673946145564679e+00	 2.134491783511683e-01	 1.363874278799318e+01
 1.677605719482796e+00	 1.824699974001331e-01	 1.363752924558755e+01
 1.680673908281956e+00	 1.516293639610336e-01	 1.361900639139376e+01
 1.683160504152465e+00	 1.209419995620245e-01	 1.358208392987380e+01
 1.685075695498425e+00	 9.042206831711004e-02	 1.352591085493016e+01
 1.686430034956264e+00	 6.008316899630568e-02	 1.344987315094801e+01
 1.687234407679612e+00	 2.993832897530470e-02	 1.335358964280981e+01
 1.687500000000000e+00	 0.000000000000000e+00	 1.323690614710157e+01
 1.653182150639727e+00	 3.059253818828811e-01	 1.357356806935526e+01
 1.658649862868273e+00	 2.747402316500877e-01	 1.361866847537396e+01
 1.663501801115695e+00	 2.436458909358744e-01	 1.365063856289077e+01
 1.667746345024976e+00	 2.126586258419814e-01	 1.366772628499674e+01
 1.671392364965773e+00	 1.817941825981718e-01	 1.366841124472971e+01
 1.674449190102844e+00	 1.510677737272060e-01	 1.365140858427404e+01
 1.676926576359123e+00	 1.204940662330635e-01	 1.361567066275392e+01
 1.678834674403884e+00	 9.008717177007017e-02	 1.356038663777652e+01
 1.680183997789714e+00	 5.986063874243008e-02	 1.348498008036121e+01
 1.680985391354862e+00	 2.982744627630038e-02	 1.338910476476622e+01
 1.681250000000000e+00	 0.000000000000000e+00	 1.327263878403129e+01
 1.647036492086448e+00	 3.047881128069858e-01	 1.359470196985027e+01
 1.652483878247369e+00	 2.737188925011205e-01	 1.364317406132540e+01
 1.657317779549757e+00	 2.427401441318451e-01	 1.367798856646576e+01
 1.661546544485506e+00	 2.118680733321224e-01	 1.369744252424680e+01
 1.665179010448921e+00	 1.811183677955478e-01	 1.370006259784281e+01
 1.668224471923851e+00	 1.505061834927549e-01	 1.368460879315801e+01
 1.670692648565856e+00	 1.200461329035475e-01	 1.365007599472269e+01
 1.672593653309384e+00	 8.975227522257262e-02	 1.359569343330679e+01
 1.673937960623182e+00	 5.963810848822221e-02	 1.352092221386260e+01
 1.674736375030116e+00	 2.971656357711652e-02	 1.342545104408926e+01
 1.675000000000000e+00	 0.000000000000000e+00	 1.330919031305627e+01
 1.640890833533655e+00	 3.036508437305756e-01	 1.361644317886461e+01
 1.646317893626857e+00	 2.726975533515546e-01	 1.366834519483467e+01
 1.651133757984127e+00	 2.418343973271649e-01	 1.370605501376536e+01
 1.655346743946269e+00	 2.110775208215913e-01	 1.372791851532368e+01
 1.658965655932239e+00	 1.804425529922610e-01	 1.373250921746560e+01
 1.661999753744974e+00	 1.499445932576803e-01	 1.371863182412527e+01
 1.664458720772664e+00	 1.195981995734766e-01	 1.368532361878925e+01
 1.666352632214926e+00	 8.941737867461744e-02	 1.363185381752075e+01
 1.667691923456669e+00	 5.941557823368204e-02	 1.355772100903751e+01
 1.668487358705375e+00	 2.960568087775315e-02	 1.346264882093738e+01
 1.668750000000000e+00	 0.000000000000000e+00	 1.334657996014440e+01
 1.634745174981347e+00	 3.025135746536509e-01	 1.363882226075262e+01
 1.640151909006735e+00	 2.716762142013902e-01	 1.369421138614214e+01
 1.644949736418803e+00	 2.409286505218338e-01	 1.373486634168574e+01
 1.649146943407267e+00	 2.102869683103881e-01	 1.375918160573912e+01
 1.652752301415728e+00	 1.797667381883113e-01	 1.376577734876135e+01
 1.655775035566215e+00	 1.493830030219821e-01	 1.375350280998167e+01
 1.658224792979547e+00	 1.191502662428507e-01	 1.372143754822031e+01
 1.660111611120509e+00	 8.908248212620461e-02	 1.366889067965765e+01
 1.661445886290175e+00	 5.919304797880957e-02	 1.359539822916581e+01
 1.662238342380638e+00	 2.949479817821025e-02	 1.350071873311352e+01
 1.662500000000000e+00	 0.000000000000000e+00	 1.338482724037589e+01
 1.628599516429524e+00	 3.013763055762114e-01	 1.366187013658289e+01
 1.633985924387004e+00	 2.706548750506272e-01	 1.372080249872189e+01
 1.638765714853786e+00	 2.400229037158518e-01	 1.376445133621506e+01
 1.642947142868497e+00	 2.094964157985129e-01	 1.379125948731246e+01
 1.646538946899387e+00	 1.790909233836990e-01	 1.379989357579379e+01
 1.649550317387574e+00	 1.488214127856604e-01	 1.378924721642398e+01
 1.651990865186505e+00	 1.187023329116699e-01	 1.375844212258246e+01
 1.653870590026136e+00	 8.874758557733411e-02	 1.370682722810657e+01
 1.655199849123698e+00	 5.897051772360481e-02	 1.363397594898949e+01
 1.655989326055906e+00	 2.938391547848782e-02	 1.353968172168105e+01
 1.656250000000000e+00	 0.000000000000000e+00	 1.342395196339830e+01
 1.622453857878187e+00	 3.002390364982573e-01	 1.368561809089439e+01
 1.627819939767664e+00	 2.696335358992656e-01	 1.374814875597168e+01
 1.632581693289076e+00	 2.391171569092190e-01	 1.379483913904487e+01
 1.636747342329961e+00	 2.087058632859655e-01	 1.382418020269163e+01
 1.640325592383216e+00	 1.784151085784239e-01	 1.383488482794570e+01
 1.643325599209050e+00	 1.482598225487153e-01	 1.382589084834453e+01
 1.645756937393538e+00	 1.182543995799342e-01	 1.379636201392234e+01
 1.647629568931803e+00	 8.841268902800598e-02	 1.374568699645074e+01
 1.648953811957240e+00	 5.874798746806772e-02	 1.367347656061177e+01
 1.649740309731178e+00	 2.927303277858587e-02	 1.357955903670723e+01
 1.650000000000000e+00	 0.000000000000000e+00	 1.346397423900545e+01
 1.616308199327336e+00	 2.991017674197886e-01	 1.371009777860643e+01
 1.621653955148714e+00	 2.686121967473054e-01	 1.377628074805559e+01
 1.626397671724673e+00	 2.382114101019353e-01	 1.382605925433262e+01
 1.630547541791658e+00	 2.079153107727461e-01	 1.385797215202280e+01
 1.634112237867217e+00	 1.777392937724861e-01	 1.387077838648376e+01
 1.637100881030644e+00	 1.476982323111466e-01	 1.386345985627994e+01
 1.639523009600644e+00	 1.178064662476434e-01	 1.383522223308752e+01
 1.641388547837511e+00	 8.807779247822020e-02	 1.378549384965002e+01
 1.642707774790801e+00	 5.852545721219837e-02	 1.371392277953043e+01
 1.643491293406455e+00	 2.916215007850440e-02	 1.362037224313791e+01
 1.643750000000000e+00	 0.000000000000000e+00	 1.350491448284359e+01
 1.610162540776969e+00	 2.979644983408051e-01	 1.373534123208701e+01
 1.615487970530155e+00	 2.675908575947465e-01	 1.380522943890348e+01
 1.620213650160576e+00	 2.373056632940007e-01	 1.385814155561886e+01
 1.624347741253589e+00	 2.071247582588545e-01	 1.389266409977294e+01
 1.627898883351387e+00	 1.770634789658854e-01	 1.390760189127406e+01
 1.630876162852356e+00	 1.471366420729543e-01	 1.390198074300721e+01
 1.633289081807827e+00	 1.173585329147978e-01	 1.387504813619206e+01
 1.635147526743263e+00	 8.774289592797674e-02	 1.382627199036491e+01
 1.636461737624380e+00	 5.830292695599671e-02	 1.375533765080960e+01
 1.637242277081737e+00	 2.905126737824339e-02	 1.366214322680663e+01
 1.637500000000000e+00	 0.000000000000000e+00	 1.354679342224827e+01
 1.604016882227088e+00	 2.968272292613071e-01	 1.376138086838365e+01
 1.609321985911987e+00	 2.665695184415892e-01	 1.383502617337118e+01
 1.614029628596787e+00	 2.363999164854152e-01	 1.389111629290364e+01
 1.618147940715754e+00	 2.063342057442909e-01	 1.392828518170915e+01
 1.621685528835728e+00	 1.763876641586219e-01	 1.394538334765179e+01
 1.624651444674185e+00	 1.465750518341386e-01	 1.394148037029180e+01
 1.627055154015084e+00	 1.169105995813973e-01	 1.391586543123080e+01
 1.628906505649055e+00	 8.740799937727564e-02	 1.386804596542584e+01
 1.630215700457978e+00	 5.808039669946276e-02	 1.379774455539319e+01
 1.630993260757023e+00	 2.894038467780287e-02	 1.370489420058192e+01
 1.631250000000000e+00	 0.000000000000000e+00	 1.358963210221546e+01
 1.597871223677692e+00	 2.956899601812942e-01	 1.378824949662107e+01
 1.603156001294210e+00	 2.655481792878331e-01	 1.386570268456602e+01
 1.607845607033304e+00	 2.354941696761788e-01	 1.392501409988608e+01
 1.611948140178151e+00	 2.055436532290552e-01	 1.396486491203898e+01
 1.615472174320238e+00	 1.757118493506957e-01	 1.398415113344939e+01
 1.618426726496131e+00	 1.460134615946993e-01	 1.398198596579112e+01
 1.620821226222415e+00	 1.164626662474418e-01	 1.395770018484651e+01
 1.622665484554890e+00	 8.707310282611690e-02	 1.391084067245187e+01
 1.623969663291593e+00	 5.785786644259650e-02	 1.384116721656418e+01
 1.624744244432313e+00	 2.882950197718281e-02	 1.374864771065641e+01
 1.625000000000000e+00	 0.000000000000000e+00	 1.363345189151042e+01
 0.000000000000000e+00	 1.625000000000000e+00	 1.816198938510218e+00
 2.882950197718292e-02	 1.624744244432312e+00	 1.902704775963945e+00
 5.785786644259672e-02	 1.623969663291593e+00	 1.985828357447756e+00
 8.707310282611723e-02	 1.622665484554889e+00	 2.069668635932555e+00
 1.164626662474422e-01	 1.620821226222415e+00	 2.157891244173123e+00
 1.460134615946999e-01	 1.618426726496131e+00	 2.253684222177491e+00
 1.757118493506963e-01	 1.615472174320239e+00	 2.359715681183889e+00
 2.055436532290559e-01	 1.611948140178151e+00	 2.478093928914042e+00
 2.354941696761796e-01	 1.607845607033304e+00	 2.610330589875059e+00
 2.655481792878340e-01	 1.603156001294210e+00	 2.757307257321481e+00
 2.956899601812942e-01	 1.597871223677692e+00	 2.919246209581447e+00
 0.000000000000000e+00	 1.618750000000000e+00	 1.791780140782224e+00
 2.871861927647312e-02	 1.618495228107603e+00	 1.875765452098110e+00
 5.763533618556434e-02	 1.617723626125209e+00	 1.956865207539730e+00
 8.673820627472963e-02	 1.616424463460723e+00	 2.039206647779404e+00
 1.160147329132092e-01	 1.614587298429746e+00	 2.126489110182631e+00
 1.454518713549488e-01	 1.612202008318077e+00	 2.221939974244587e+00
 1.750360345424388e-01	 1.609258819804750e+00	 2.328272505320339e+00
 2.047531007134842e-01	 1.605748339640550e+00	 2.447646116350463e+00
 2.345884228666178e-01	 1.601661585469822e+00	 2.581629576380025e+00
 2.645268401337788e-01	 1.596990016676433e+00	 2.731167697641821e+00
 2.945526911010241e-01	 1.591725565128296e+00	 2.896552029300203e+00
 0.000000000000000e+00	 1.612500000000000e+00	 1.767477329429255e+00
 2.860773657576330e-02	 1.612246211782890e+00	 1.848617528632714e+00
 5.741280592853192e-02	 1.611477588958806e+00	 1.927398479615328e+00
 8.640330972334206e-02	 1.610183442366517e+00	 2.007976696346005e+00
 1.155667995789763e-01	 1.608353370637003e+00	 2.094086114732376e+00
 1.448902811151978e-01	 1.605977290139907e+00	 2.188994248263010e+00
 1.743602197341811e-01	 1.603045465289091e+00	 2.295460203965295e+00
 2.039625481979124e-01	 1.599548539102714e+00	 2.415695073404072e+00
 2.336826760570559e-01	 1.595477563906032e+00	 2.551325222598750e+00
 2.635055009797235e-01	 1.590824032058265e+00	 2.703359007875808e+00
 2.934154220207540e-01	 1.585579906578415e+00	 2.872157441218736e+00
 0.000000000000000e+00	 1.606250000000000e+00	 1.743294502703486e+00
 2.849685387505348e-02	 1.605997195458171e+00	 1.821262748101792e+00
 5.719027567149952e-02	 1.605231551792385e+00	 1.897427689418874e+00
 8.606841317195449e-02	 1.603942421272267e+00	 1.975976103948833e+00
 1.151188662447433e-01	 1.602119442844185e+00	 2.060677424801616e+00
 1.443286908754468e-01	 1.599752571961618e+00	 2.154840098985608e+00
 1.736844049259236e-01	 1.596832110773261e+00	 2.261269768076342e+00
 2.031719956823407e-01	 1.593348738564645e+00	 2.382229781277051e+00
 2.327769292474942e-01	 1.589293542341937e+00	 2.519404559915658e+00
 2.624841618256682e-01	 1.584658047439706e+00	 2.673866335707692e+00
 2.922781529404838e-01	 1.579434248028048e+00	 2.846045781888791e+00
 0.000000000000000e+00	 1.600000000000000e+00	 1.719235721329910e+00
 2.838597117434367e-02	 1.599748179133448e+00	 1.793702882524586e+00
 5.696774541446713e-02	 1.598985514625946e+00	 1.866952351358615e+00
 8.573351662056690e-02	 1.597701400177976e+00	 1.943202163009784e+00
 1.146709329105103e-01	 1.595885515051292e+00	 2.026258151269387e+00
 1.437671006356958e-01	 1.593527853783212e+00	 2.119470501305103e+00
 1.730085901176660e-01	 1.590618756257261e+00	 2.225692087520718e+00
 2.023814431667689e-01	 1.587148938026342e+00	 2.347239101466436e+00
 2.318711824379323e-01	 1.583109520777533e+00	 2.485854484091404e+00
 2.614628226716130e-01	 1.578492062820757e+00	 2.642674680051940e+00
 2.911408838602137e-01	 1.573288589477196e+00	 2.818200228791899e+00
 0.000000000000000e+00	 1.593750000000000e+00	 1.695305109731202e+00
 2.827508847363386e-02	 1.593499162808720e+00	 1.765939733982724e+00
 5.674521515743472e-02	 1.592739477459487e+00	 1.835971978481243e+00
 8.539862006917934e-02	 1.591460379083644e+00	 1.909652135470507e+00
 1.142229995762773e-01	 1.589651587258324e+00	 1.990823347815821e+00
 1.432055103959447e-01	 1.587303135604688e+00	 2.082878348689309e+00
 1.723327753094084e-01	 1.584405401741091e+00	 2.188717949094404e+00
 2.015908906511972e-01	 1.580949137487807e+00	 2.310711773417245e+00
 2.309654356283705e-01	 1.576925499212823e+00	 2.450661752603643e+00
 2.604414835175577e-01	 1.572326078201417e+00	 2.609768888136016e+00
 2.900036147799436e-01	 1.567142930925859e+00	 2.788603797220994e+00
 0.000000000000000e+00	 1.587500000000000e+00	 1.671506857281719e+00
 2.816420577292405e-02	 1.587250146483988e+00	 1.737975135212385e+00
 5.652268490040232e-02	 1.586493440293011e+00	 1.804486082444649e+00
 8.506372351779176e-02	 1.585219357989270e+00	 1.875323252192171e+00
 1.137750662420444e-01	 1.583417659465282e+00	 1.954368009797023e+00
 1.426439201561937e-01	 1.581078417426047e+00	 2.045056451576481e+00
 1.716569605011508e-01	 1.578192047224749e+00	 2.150338034491424e+00
 2.008003381356254e-01	 1.574749336949036e+00	 2.272636412120201e+00
 2.300596888188087e-01	 1.570741477647806e+00	 2.413812981924464e+00
 2.594201443635024e-01	 1.566160093581686e+00	 2.575133652514232e+00
 2.888663456996736e-01	 1.560997272374037e+00	 2.757239337087336e+00
 0.000000000000000e+00	 1.581250000000000e+00	 1.647845219590686e+00
 2.805332307221422e-02	 1.581001130159251e+00	 1.709810950210129e+00
 5.630015464336992e-02	 1.580247403126517e+00	 1.772494173490405e+00
 8.472882696640421e-02	 1.578978336894853e+00	 1.840212712341286e+00
 1.133271329078114e-01	 1.577183731672165e+00	 1.916887073090915e+00
 1.420823299164427e-01	 1.574853699247288e+00	 2.005997535736162e+00
 1.709811456928932e-01	 1.571978692708238e+00	 2.110542918228064e+00
 2.000097856200536e-01	 1.568549536410033e+00	 2.233001505651624e+00
 2.291539420092468e-01	 1.564557456082482e+00	 2.375294644734467e+00
 2.583988052094471e-01	 1.559994108961564e+00	 2.538753508011764e+00
 2.877290766194034e-01	 1.554851613821729e+00	 2.724089529652343e+00
 0.000000000000000e+00	 1.575000000000000e+00	 1.624324519816916e+00
 2.794244037150441e-02	 1.574752113834510e+00	 1.681449074852972e+00
 5.607762438633752e-02	 1.574001365960003e+00	 1.739995760415824e+00
 8.439393041501661e-02	 1.572737315800395e+00	 1.804317682761108e+00
 1.128791995735784e-01	 1.570949803878973e+00	 1.878375412918416e+00
 1.415207396766917e-01	 1.568628981068412e+00	 1.965694240587825e+00
 1.703053308846356e-01	 1.565765338191557e+00	 2.069323065516411e+00
 1.992192331044819e-01	 1.562349735870797e+00	 2.191795412655568e+00
 2.282481951996851e-01	 1.558373434516852e+00	 2.335093067069040e+00
 2.573774660553919e-01	 1.553828124341051e+00	 2.500612828594624e+00
 2.865918075391334e-01	 1.548705955268936e+00	 2.689136884181085e+00
 0.000000000000000e+00	 1.568750000000000e+00	 1.600949150013961e+00
 2.783155767079460e-02	 1.568503097509764e+00	 1.652891437532874e+00
 5.585509412930512e-02	 1.567755328793472e+00	 1.706990350545360e+00
 8.405903386362903e-02	 1.566496294705896e+00	 1.767635297326914e+00
 1.124312662393454e-01	 1.564715876085707e+00	 1.838827842633585e+00
 1.409591494369407e-01	 1.562404262889417e+00	 1.924139117481691e+00
 1.696295160763781e-01	 1.559551983674704e+00	 2.026668830085310e+00
 1.984286805889101e-01	 1.556149935331327e+00	 2.149006359765299e+00
 2.273424483901232e-01	 1.552189412950914e+00	 2.293194425397657e+00
 2.563561269013366e-01	 1.547662139720148e+00	 2.460695824164846e+00
 2.854545384588632e-01	 1.542560296715658e+00	 2.652363734516158e+00
 0.000000000000000e+00	 1.562500000000000e+00	 1.577723572508711e+00
 2.772067497008478e-02	 1.562254081185013e+00	 1.624139999809239e+00
 5.563256387227270e-02	 1.561509291626921e+00	 1.673477449700577e+00
 8.372413731224146e-02	 1.560255273611354e+00	 1.730162656287771e+00
 1.119833329051125e-01	 1.558481948292365e+00	 1.798239112488219e+00
 1.403975591971897e-01	 1.556179544710306e+00	 1.881324627937103e+00
 1.689537012681205e-01	 1.553338629157681e+00	 1.982570451952854e+00
 1.976381280733384e-01	 1.549950134791623e+00	 2.104622438963385e+00
 2.264367015805614e-01	 1.546005391384669e+00	 2.249584743631762e+00
 2.553347877472812e-01	 1.541496155098854e+00	 2.418986537280148e+00
 2.843172693785931e-01	 1.536414638161894e+00	 2.613752235569545e+00
 2.956899601812942e-01	 1.597871223677692e+00	 2.919246209581447e+00
 3.259033209473203e-01	 1.591983672806970e+00	 3.067614681690462e+00
 3.561716011306555e-01	 1.585486282276886e+00	 3.255935158030808e+00
 3.864776726680479e-01	 1.578372557534725e+00	 3.482565028035689e+00
 4.168039785420755e-01	 1.570636598043658e+00	 3.745056787123659e+00
 4.471325562140517e-01	 1.562273125559002e+00	 4.040152970834759e+00
 4.774450630523527e-01	 1.553277511444354e+00	 4.363788111371192e+00
 5.077228037229133e-01	 1.543645802875016e+00	 4.711098036781818e+00
 5.379467594960321e-01	 1.533374747776042e+00	 5.076436765673142e+00
 5.680976194107575e-01	 1.522461818343218e+00	 5.453401175676960e+00
 5.981558132251138e-01	 1.510905232997459e+00	 5.834863542631123e+00
 2.945526911010241e-01	 1.591725565128296e+00	 2.896552029300203e+00
 3.246498466337143e-01	 1.585860658684571e+00	 3.048544861514823e+00
 3.548017103552142e-01	 1.579388258118452e+00	 3.238800417479990e+00
 3.849912200794389e-01	 1.572301893856271e+00	 3.465685906952854e+00
 4.152008863159564e-01	 1.564595688055566e+00	 3.726776552186661e+00
 4.454128156127678e-01	 1.556264382772594e+00	 4.018850724188750e+00
 4.756087358868324e-01	 1.547303367173396e+00	 4.337892007563888e+00
 5.057700237092162e-01	 1.537708703636443e+00	 4.679098509097611e+00
 5.358777334991784e-01	 1.527477152594769e+00	 5.036899658709237e+00
 5.659126285686943e-01	 1.516606195966480e+00	 5.404980677661875e+00
 5.958552139459493e-01	 1.505094059024716e+00	 5.776314808658146e+00
 2.934154220207540e-01	 1.585579906578415e+00	 2.872157441218736e+00
 3.233963723201035e-01	 1.579737644561601e+00	 3.027916098912169e+00
 3.534318195797540e-01	 1.573290233959389e+00	 3.220262433017962e+00
 3.835047674907872e-01	 1.566231230177158e+00	 3.447572693805277e+00
 4.135977940897611e-01	 1.558554778066816e+00	 3.707443936093692e+00
 4.436930750113641e-01	 1.550255639985558e+00	 3.996689358403174e+00
 4.737724087211388e-01	 1.541329222901870e+00	 4.311340477738625e+00
 5.038172436952825e-01	 1.531771604397393e+00	 4.646656450119249e+00
 5.338087075020141e-01	 1.521579557413140e+00	 4.997140781238095e+00
 5.637276377262360e-01	 1.510750573589538e+00	 5.356565598815936e+00
 5.935546146662950e-01	 1.499282885051952e+00	 5.718003578958777e+00
 2.922781529404838e-01	 1.579434248028048e+00	 2.846045781888791e+00
 3.221428980064879e-01	 1.573614630438058e+00	 3.005711611543612e+00
 3.520619288042749e-01	 1.567192209799696e+00	 3.200304153341544e+00
 3.820183149020926e-01	 1.560160566497386e+00	 3.428207919082019e+00
 4.119947018634894e-01	 1.552513868077407e+00	 3.687040903329297e+00
 4.419733344098407e-01	 1.544246897197892e+00	 3.973650126230626e+00
 4.719360815552722e-01	 1.535355078629775e+00	 4.284113919893386e+00
 5.018644636811116e-01	 1.525834505157865e+00	 4.613751263400346e+00
 5.317396815045389e-01	 1.515681962231154e+00	 4.957138406642997e+00
 5.615426468833827e-01	 1.504894951212391e+00	 5.308132951215205e+00
 5.912540153861509e-01	 1.493471711079169e+00	 5.659905478362295e+00
 2.911408838602137e-01	 1.573288589477196e+00	 2.818200228791899e+00
 3.208894236928678e-01	 1.567491616313945e+00	 2.981914475817173e+00
 3.506920380287771e-01	 1.561094185639375e+00	 3.178908402996253e+00
 3.805318623133558e-01	 1.554089902816957e+00	 3.407574005467346e+00
 4.103916096371418e-01	 1.546472958087341e+00	 3.665549326122625e+00
 4.402535938081976e-01	 1.538238154409600e+00	 3.949714202884812e+00
 4.700997543892323e-01	 1.529380934357111e+00	 4.256192668326981e+00
 4.999116836667042e-01	 1.519897405917859e+00	 4.580362301724701e+00
 5.296706555067532e-01	 1.509784367048810e+00	 4.916870769520289e+00
 5.593576560401343e-01	 1.499039328835039e+00	 5.259659719147508e+00
 5.889534161055172e-01	 1.487660537106364e+00	 5.601996113895352e+00
 2.900036147799436e-01	 1.567142930925859e+00	 2.788603797220994e+00
 3.196359493792428e-01	 1.561368602189260e+00	 2.956507624118501e+00
 3.493221472532603e-01	 1.554996161478424e+00	 3.156057879942734e+00
 3.790454097245760e-01	 1.548019239135868e+00	 3.385653265727750e+00
 4.087885174107178e-01	 1.540432048096616e+00	 3.642950982640820e+00
 4.385338532064350e-01	 1.532229411620677e+00	 3.924862684519409e+00
 4.682634272230193e-01	 1.523406790083879e+00	 4.227556992391269e+00
 4.979589036520597e-01	 1.513960306677373e+00	 4.546468866111027e+00
 5.276016295086566e-01	 1.503886771866110e+00	 4.876316064916630e+00
 5.571726651964911e-01	 1.493183706457484e+00	 5.211122858568080e+00
 5.866528168243939e-01	 1.481849363133539e+00	 5.544251074432998e+00
 2.888663456996736e-01	 1.560997272374037e+00	 2.757239337087336e+00
 3.183824750656133e-01	 1.555245588064005e+00	 2.929473841974465e+00
 3.479522564777247e-01	 1.548898137316844e+00	 3.131735153064942e+00
 3.775589571357537e-01	 1.541948575454122e+00	 3.362427900547395e+00
 4.071854251842177e-01	 1.534391138105233e+00	 3.619227555136024e+00
 4.368141126045528e-01	 1.526220668831127e+00	 3.899076586671915e+00
 4.664271000566331e-01	 1.517432645810078e+00	 4.198187095210678e+00
 4.960061236371787e-01	 1.508023207436410e+00	 4.512050204793621e+00
 5.255326035102491e-01	 1.497989176683052e+00	 4.835452447552829e+00
 5.549876743524528e-01	 1.487328084079723e+00	 5.162499296541025e+00
 5.843522175427805e-01	 1.476038189160694e+00	 5.486645930340942e+00
 2.877290766194034e-01	 1.554851613821729e+00	 2.724089529652343e+00
 3.171290007519789e-01	 1.549122573938177e+00	 2.900795765152975e+00
 3.465823657021703e-01	 1.542800113154635e+00	 3.105922659618601e+00
 3.760725045468888e-01	 1.535877911771718e+00	 3.337879996313912e+00
 4.055823329576415e-01	 1.528350228113192e+00	 3.594360628050591e+00
 4.350943720025509e-01	 1.520211926040949e+00	 3.872336842671286e+00
 4.645907728900738e-01	 1.511458501535709e+00	 4.168063112375625e+00
 4.940533436220606e-01	 1.502086108194968e+00	 4.477085512179768e+00
 5.234635775115312e-01	 1.492091581499637e+00	 4.794258031025035e+00
 5.528026835080193e-01	 1.481472461701757e+00	 5.113765930669111e+00
 5.820516182606777e-01	 1.470227015187828e+00	 5.429156233110187e+00
 2.865918075391334e-01	 1.548705955268936e+00	 2.689136884181085e+00
 3.158755264383401e-01	 1.542999559811778e+00	 2.870455876689669e+00
 3.452124749265970e-01	 1.536702088991797e+00	 3.078602702619079e+00
 3.745860519579813e-01	 1.529807248088656e+00	 3.311991522849603e+00
 4.039792407309888e-01	 1.522309318120492e+00	 3.568331686075764e+00
 4.333746314004291e-01	 1.514203183250141e+00	 3.844624302005088e+00
 4.627544457233413e-01	 1.505484357260771e+00	 4.137165110600829e+00
 4.921005636067058e-01	 1.496149008953049e+00	 4.441553927781323e+00
 5.213945515125024e-01	 1.486193986315865e+00	 4.752710886989145e+00
 5.506176926631909e-01	 1.475616839323588e+00	 5.064899628508799e+00
 5.797510189780850e-01	 1.464415841214940e+00	 5.371757514982569e+00
 2.854545384588632e-01	 1.542560296715658e+00	 2.652363734516158e+00
 3.146220521246965e-01	 1.536876545684809e+00	 2.838436503846015e+00
 3.438425841510050e-01	 1.530604064828330e+00	 3.049757448169483e+00
 3.730995993690313e-01	 1.523736584404935e+00	 3.284744331090410e+00
 4.023761485042602e-01	 1.516268408127134e+00	 3.541122112164937e+00
 4.316548907981879e-01	 1.508194440458706e+00	 3.815919728651601e+00
 4.609181185564356e-01	 1.499510212985264e+00	 4.105473086354461e+00
 4.901477835911143e-01	 1.490211909710651e+00	 4.405434535121074e+00
 5.193255255131628e-01	 1.480296391131736e+00	 4.710789044326358e+00
 5.484327018179675e-01	 1.469761216945213e+00	 5.015877226972044e+00
 5.774504196950028e-01	 1.458604667242033e+00	 5.314425288566934e+00
 2.843172693785931e-01	 1.536414638161894e+00	 2.613752235569545e+00
 3.133685778110481e-01	 1.530753531557268e+00	 2.804719814994109e+00
 3.424726933753939e-01	 1.524506040664233e+00	 3.019368922719852e+00
 3.716131467800383e-01	 1.517665920720555e+00	 3.256120150707312e+00
 4.007730562774552e-01	 1.510227498133118e+00	 3.512713185498932e+00
 4.299351501958268e-01	 1.502185697666641e+00	 3.786203799368026e+00
 4.590817913893566e-01	 1.493536068709189e+00	 4.072966964451805e+00
 4.881950035752856e-01	 1.484274810467774e+00	 4.368706360613485e+00
 5.172564995135125e-01	 1.474398795947250e+00	 4.668470488286427e+00
 5.462477109723490e-01	 1.463905594566634e+00	 4.966675531713450e+00
 5.751498204114305e-01	 1.452793493269105e+00	 5.257135046446413e+00
 5.981558132251138e-01	 1.510905232997459e+00	 5.834863542631128e+00
 6.281007588439635e-01	 1.498704292723710e+00	 6.362672405719467e+00
 6.579132137821299e-01	 1.485858478666659e+00	 6.726526571539818e+00
 6.875730439622622e-01	 1.472368362237649e+00	 7.045116123698922e+00
 7.170600038632492e-01	 1.458235330359818e+00	 7.315088519451656e+00
 7.463537768744996e-01	 1.443461597506724e+00	 7.533168104986904e+00
 7.754340167387930e-01	 1.428050215391504e+00	 7.696189367309173e+00
 8.042803899268617e-01	 1.412005080206547e+00	 7.801131067844131e+00
 8.328726187771164e-01	 1.395330937325453e+00	 7.845150948646008e+00
 8.611905252251535e-01	 1.378033383391821e+00	 7.825620680569761e+00
 8.892140749400127e-01	 1.360118865733177e+00	 7.740160704849353e+00
 5.958552139459493e-01	 1.505094059024716e+00	 5.776314808658141e+00
 6.256849866976283e-01	 1.492940045443118e+00	 6.300819728177270e+00
 6.553827783480308e-01	 1.480143638362154e+00	 6.653559719657823e+00
 6.849285322585621e-01	 1.466705406995429e+00	 6.965949476720400e+00
 7.143020807754989e-01	 1.452626732931767e+00	 7.234675321819644e+00
 7.434831854290583e-01	 1.437909822127521e+00	 7.456483299621636e+00
 7.724515782168534e-01	 1.422557714558471e+00	 7.628211738009735e+00
 8.011870038154978e-01	 1.406574291431654e+00	 7.746824760055024e+00
 8.296692625544068e-01	 1.389964279869233e+00	 7.809446445099029e+00
 8.578782539771157e-01	 1.372733254989258e+00	 7.813395315251890e+00
 8.857940208077832e-01	 1.354887639321841e+00	 7.756218805266782e+00
 5.935546146662950e-01	 1.499282885051952e+00	 5.718003578958777e+00
 6.232692145507182e-01	 1.487175798162693e+00	 6.232465344058985e+00
 6.528523429132996e-01	 1.474428798057970e+00	 6.581838967156918e+00
 6.822840205542025e-01	 1.461042451753660e+00	 6.888386291661110e+00
 7.115441576870911e-01	 1.447018135504266e+00	 7.156261058483607e+00
 7.406125939829914e-01	 1.432358046748937e+00	 7.382230139526518e+00
 7.694691396943503e-01	 1.417065213726096e+00	 7.563134716936135e+00
 7.980936177036622e-01	 1.401143502657427e+00	 7.695923176651482e+00
 8.264659063313485e-01	 1.384597622413657e+00	 7.777684728241491e+00
 8.545659827288828e-01	 1.367433126587285e+00	 7.805683434259604e+00
 8.823739666755429e-01	 1.349656412911010e+00	 7.777392313563949e+00
 5.912540153861509e-01	 1.493471711079169e+00	 5.659905478362300e+00
 6.208534424032326e-01	 1.481411550882432e+00	 6.161795574769364e+00
 6.503219074779359e-01	 1.468713957754109e+00	 6.511356720053302e+00
 6.796395088491832e-01	 1.455379496512341e+00	 6.812421119508238e+00
 7.087862345980256e-01	 1.441409538077313e+00	 7.079842859681290e+00
 7.377420025362977e-01	 1.426806271370970e+00	 7.310408770266912e+00
 7.664867011712828e-01	 1.411572712894377e+00	 7.500961901821876e+00
 7.950002315913550e-01	 1.395712713883865e+00	 7.648433804071997e+00
 8.232625501079412e-01	 1.379230964958724e+00	 7.749877608360475e+00
 8.512537114804548e-01	 1.362132998185900e+00	 7.802501604365371e+00
 8.789539125432920e-01	 1.344425186500684e+00	 7.803702981999781e+00
 5.889534161055172e-01	 1.487660537106364e+00	 5.601996113895352e+00
 6.184376702551715e-01	 1.475647303602336e+00	 6.091679286963775e+00
 6.477914720419405e-01	 1.462999117450571e+00	 6.442105438534698e+00
 6.769949971435040e-01	 1.449716541271473e+00	 6.738048611774014e+00
 7.060283115083020e-01	 1.435800940650910e+00	 7.005418009434226e+00
 7.348714110889788e-01	 1.421254495993622e+00	 7.241019551329288e+00
 7.635042626476513e-01	 1.406080212063316e+00	 7.441697171291414e+00
 7.919068454785760e-01	 1.390281925110968e+00	 7.604364483386973e+00
 8.200591938841850e-01	 1.373864307504433e+00	 7.726037330806236e+00
 8.479414402318316e-01	 1.356832869785106e+00	 7.803866914426747e+00
 8.755338584110304e-01	 1.339193960090862e+00	 7.835173178416950e+00
 5.866528168243939e-01	 1.481849363133539e+00	 5.544251074432998e+00
 6.160218981065348e-01	 1.469883056322405e+00	 6.022092137876032e+00
 6.452610366053125e-01	 1.457284277147355e+00	 6.374077638021559e+00
 6.743504854371650e-01	 1.444053586031055e+00	 6.665263522467257e+00
 7.032703884179204e-01	 1.430192343225056e+00	 6.932983948563212e+00
 7.320008196410335e-01	 1.415702720616891e+00	 7.174063060315422e+00
 7.605218241234559e-01	 1.400587711232911e+00	 7.385344690367269e+00
 7.888134593653254e-01	 1.384851136338736e+00	 7.563723417252015e+00
 8.168558376600803e-01	 1.368497650050785e+00	 7.706176584521085e+00
 8.446291689830134e-01	 1.351532741384902e+00	 7.809796985623931e+00
 8.721138042787584e-01	 1.333962733681547e+00	 7.871825898311619e+00
 5.843522175427805e-01	 1.476038189160694e+00	 5.486645930340933e+00
 6.136061259573231e-01	 1.464118809042641e+00	 5.953009800053596e+00
 6.427306011680527e-01	 1.451569436844461e+00	 6.307265890254709e+00
 6.717059737301663e-01	 1.438390630791089e+00	 6.594060710110337e+00
 7.005124653268815e-01	 1.424583745799752e+00	 6.862538277775952e+00
 7.291302281924623e-01	 1.410150945240779e+00	 7.109540097235961e+00
 7.575393855986965e-01	 1.395095210403164e+00	 7.331908916109011e+00
 7.857200732516032e-01	 1.379420347567170e+00	 7.526519177025207e+00
 8.136524814356267e-01	 1.363130992597781e+00	 7.690308510773662e+00
 8.413168977340000e-01	 1.346232612985287e+00	 7.820309981938170e+00
 8.686937501464757e-01	 1.328731507272737e+00	 7.913684777189282e+00
 5.820516182606777e-01	 1.470227015187828e+00	 5.429156233110191e+00
 6.111903538075359e-01	 1.458354561763041e+00	 5.884407961663554e+00
 6.402001657301603e-01	 1.445854596541890e+00	 6.241662824408919e+00
 6.690614620225077e-01	 1.432727675551572e+00	 6.524435139805030e+00
 6.977545422351846e-01	 1.418975148374996e+00	 6.794078760825210e+00
 7.262596367432651e-01	 1.404599169865285e+00	 7.047451688906648e+00
 7.545569470733730e-01	 1.389602709574073e+00	 7.281394603383624e+00
 7.826266871374092e-01	 1.373989558796268e+00	 7.492760710054975e+00
 8.104491252108244e-01	 1.357764335145419e+00	 7.678446712096839e+00
 8.380046264847917e-01	 1.340932484586262e+00	 7.835424620878735e+00
 8.652736960141821e-01	 1.323500280864432e+00	 7.960774103213090e+00
 5.797510189780850e-01	 1.464415841214940e+00	 5.371757514982579e+00
 6.087745816571732e-01	 1.452590314483606e+00	 5.816262326800306e+00
 6.376697302916360e-01	 1.440139756239641e+00	 6.177261128231232e+00
 6.664169503141892e-01	 1.427064720312506e+00	 6.456381885347465e+00
 6.949966191428300e-01	 1.413366550950790e+00	 6.727603327745880e+00
 7.233890452934422e-01	 1.399047394490409e+00	 6.987799093447224e+00
 7.515745085474853e-01	 1.384110208745639e+00	 7.233806810775127e+00
 7.795333010227438e-01	 1.368558770026033e+00	 7.462457347138892e+00
 8.072457689856732e-01	 1.352397677693700e+00	 7.670605261440173e+00
 8.346923552353879e-01	 1.335632356187827e+00	 7.855160184466226e+00
 8.618536418818783e-01	 1.318269054456633e+00	 8.013118830153211e+00
 5.774504196950028e-01	 1.458604667242033e+00	 5.314425288566934e+00
 6.063588095062353e-01	 1.446826067204337e+00	 5.748548615803023e+00
 6.351392948524793e-01	 1.434424915937714e+00	 6.114053549208705e+00
 6.637724386052111e-01	 1.421401765073890e+00	 6.389896131392717e+00
 6.922386960498171e-01	 1.407757953527133e+00	 6.663110078164937e+00
 7.205184538429931e-01	 1.393495619116151e+00	 6.930583804889896e+00
 7.485920700210338e-01	 1.378617707917862e+00	 7.189150906634001e+00
 7.764399149076062e-01	 1.363127981256463e+00	 7.435618810163516e+00
 8.040424127601733e-01	 1.347031020242625e+00	 7.666798711540551e+00
 8.313800839857892e-01	 1.330332227789982e+00	 7.879536530477841e+00
 8.584335877495636e-01	 1.313037828049339e+00	 8.070744590646285e+00
 5.751498204114305e-01	 1.452793493269105e+00	 5.257135046446409e+00
 6.039430373547219e-01	 1.441061819925233e+00	 5.681242565581873e+00
 6.326088594126902e-01	 1.428710075636110e+00	 6.052032895763215e+00
 6.611279268955733e-01	 1.415738809835725e+00	 6.324973175673030e+00
 6.894807729561468e-01	 1.402149356104025e+00	 6.600597284695407e+00
 7.176478623919178e-01	 1.387943843742511e+00	 6.875807557897598e+00
 7.456096314940183e-01	 1.373125207090741e+00	 7.147432575273136e+00
 7.733465287919971e-01	 1.357697192487557e+00	 7.412255219923862e+00
 8.008390565343244e-01	 1.341664362792192e+00	 7.667042104518764e+00
 8.280678127359949e-01	 1.325032099392725e+00	 7.908574103961781e+00
 8.550135336172382e-01	 1.307806601642550e+00	 8.133677709771975e+00
 8.892140749400127e-01	 1.360118865733177e+00	 7.740160704849353e+00
 9.169241137126318e-01	 1.341594221393710e+00	 8.275209533476447e+00
 9.443002996064377e-01	 1.322468057108241e+00	 8.938684819742569e+00
 9.713232943922365e-01	 1.302749341961246e+00	 9.722463961324857e+00
 9.979740803760067e-01	 1.282447865925183e+00	 1.061803731077980e+01
 1.024234003647909e+00	 1.261574225504597e+00	 1.161655938211608e+01
 1.050084816551902e+00	 1.240139806660941e+00	 1.187201029272625e+01
 1.075508719177274e+00	 1.218156765068423e+00	 1.131322328055620e+01
 1.100488399677223e+00	 1.195638003767743e+00	 1.096700545044257e+01
 1.125007073225002e+00	 1.172597148300786e+00	 1.082933794758735e+01
 1.149048519425000e+00	 1.149048519425000e+00	 1.089524671911544e+01
 8.857940208077832e-01	 1.354887639321841e+00	 7.756218805266776e+00
 9.133974825074825e-01	 1.336434243614756e+00	 8.339989373832649e+00
 9.406683753779600e-01	 1.317381641499908e+00	 9.049759864990442e+00
 9.675874355678278e-01	 1.297738767565291e+00	 9.877512147675965e+00
 9.941357185280414e-01	 1.277515374129625e+00	 1.081485155546357e+01
 1.020294642094569e+00	 1.256722016941668e+00	 1.185305743571944e+01
 1.046046028794664e+00	 1.235370038170712e+00	 1.173148111506211e+01
 1.071372147178807e+00	 1.213471546738373e+00	 1.121905002291637e+01
 1.096255751984227e+00	 1.191039396058271e+00	 1.091525689390253e+01
 1.120680122941198e+00	 1.168087159266359e+00	 1.081616381475221e+01
 1.144629102040250e+00	 1.144629102040250e+00	 1.091689472396361e+01
 8.823739666755429e-01	 1.349656412911010e+00	 7.777392313563944e+00
 9.098708513025079e-01	 1.331274265836217e+00	 8.409795309858149e+00
 9.370364511498132e-01	 1.312295225891918e+00	 9.165743000053272e+00
 9.638515767438763e-01	 1.292728193169630e+00	 1.003732123216716e+01
 9.902973566806300e-01	 1.272582882334329e+00	 1.101624990808554e+01
 1.016355280541851e+00	 1.251869808378991e+00	 1.209393287965753e+01
 1.042007241038083e+00	 1.230600269680745e+00	 1.158867350615388e+01
 1.067235575181005e+00	 1.208786328408613e+00	 1.112223837482177e+01
 1.092023104291869e+00	 1.186440788349138e+00	 1.086049989796188e+01
 1.116353172657979e+00	 1.163577170232342e+00	 1.079960186515737e+01
 1.140209684656000e+00	 1.140209684656000e+00	 1.093476697616950e+01
 8.789539125432920e-01	 1.344425186500684e+00	 7.803702981999781e+00
 9.063442200977082e-01	 1.326114288058093e+00	 8.484646287610595e+00
 9.334045269219975e-01	 1.307208810284272e+00	 9.286650119727454e+00
 9.601157179203821e-01	 1.287717618774262e+00	 1.020190381993675e+01
 9.864589948337726e-01	 1.267650390539297e+00	 1.122224145302061e+01
 1.012415918989753e+00	 1.247017599816565e+00	 1.206803432247340e+01
 1.037968453282159e+00	 1.225830501191038e+00	 1.144362768849336e+01
 1.063099003183865e+00	 1.204101110079144e+00	 1.102282513605119e+01
 1.087790456600151e+00	 1.181842180640346e+00	 1.080276756434774e+01
 1.112026222375345e+00	 1.159067181198735e+00	 1.077968123358205e+01
 1.135790267272250e+00	 1.135790267272250e+00	 1.094888838188299e+01
 8.755338584110304e-01	 1.339193960090862e+00	 7.835173178416946e+00
 9.028175888930824e-01	 1.320954310280383e+00	 8.564561837072194e+00
 9.297726026945123e-01	 1.302122394676972e+00	 9.412497666899814e+00
 9.563798590973454e-01	 1.282707044379188e+00	 1.037127302424900e+01
 9.826206329874694e-01	 1.262717898744528e+00	 1.143283573873392e+01
 1.008476557438275e+00	 1.242165391254392e+00	 1.187149700017103e+01
 1.033929665526892e+00	 1.221060732701593e+00	 1.129638424865088e+01
 1.058962431187389e+00	 1.199415891749966e+00	 1.092084741465388e+01
 1.083557808909072e+00	 1.177243572931894e+00	 1.074209324350859e+01
 1.107699272093295e+00	 1.154557192165538e+00	 1.075643124034831e+01
 1.131370849889000e+00	 1.131370849889000e+00	 1.095928396610497e+01
 8.721138042787584e-01	 1.333962733681547e+00	 7.871825898311624e+00
 8.992909576886323e-01	 1.315794332503090e+00	 8.649562083599244e+00
 9.261406784673580e-01	 1.297035979070015e+00	 9.543302643294705e+00
 9.526440002747659e-01	 1.277696469984407e+00	 1.054544247645847e+01
 9.787822711417200e-01	 1.257785406950021e+00	 1.164804278687971e+01
 1.004537195887419e+00	 1.237313182692471e+00	 1.167316171526869e+01
 1.029890877772283e+00	 1.216290964212409e+00	 1.114698414441278e+01
 1.054825859191577e+00	 1.194730673421079e+00	 1.081634263299202e+01
 1.079325161218633e+00	 1.172644965223782e+00	 1.067851053949133e+01
 1.103372321811831e+00	 1.150047203132750e+00	 1.072988139495829e+01
 1.126951432506250e+00	 1.126951432506250e+00	 1.096597887501841e+01
 8.686937501464757e-01	 1.328731507272737e+00	 7.913684777189276e+00
 8.957643264843568e-01	 1.310634354726211e+00	 8.739667759642405e+00
 9.225087542405346e-01	 1.291949563463404e+00	 9.679082620474681e+00
 9.489081414526440e-01	 1.272685895589921e+00	 1.072442633620841e+01
 9.749439092965251e-01	 1.252852915155777e+00	 1.186787310161686e+01
 1.000597834337182e+00	 1.232460974130801e+00	 1.147307310478661e+01
 1.025852090018330e+00	 1.211521195723487e+00	 1.099546871208943e+01
 1.050689287196428e+00	 1.190045455092482e+00	 1.070934853392976e+01
 1.075092513528833e+00	 1.168046357516011e+00	 1.061205331493303e+01
 1.099045371530951e+00	 1.145537214100373e+00	 1.070006139981940e+01
 1.122532015124000e+00	 1.122532015124000e+00	 1.096899837837340e+01
 8.652736960141821e-01	 1.323500280864432e+00	 7.960774103213090e+00
 8.922376952802561e-01	 1.305474376949747e+00	 8.834900216744824e+00
 9.188768300140424e-01	 1.286863147857137e+00	 9.819855751102093e+00
 9.451722826309791e-01	 1.267675321195727e+00	 1.090823930187096e+01
 9.711055474518836e-01	 1.247920423361796e+00	 1.188983503254850e+01
 9.966584727875668e-01	 1.227608765569384e+00	 1.127127624684985e+01
 1.021813302265035e+00	 1.206751427234825e+00	 1.084187967399583e+01
 1.046552715201942e+00	 1.185360236764176e+00	 1.059990318716587e+01
 1.070859865839671e+00	 1.163447749808579e+00	 1.054275569617187e+01
 1.094718421250657e+00	 1.141027225068407e+00	 1.066700115405585e+01
 1.118112597742250e+00	 1.118112597742250e+00	 1.096836787192898e+01
 8.618536418818783e-01	 1.318269054456633e+00	 8.013118830153214e+00
 8.887110640763302e-01	 1.300314399173698e+00	 8.935281437825168e+00
 9.152449057878809e-01	 1.281776732251214e+00	 9.965640780468853e+00
 9.414364238097718e-01	 1.262664746801828e+00	 1.109689662123625e+01
 9.672671856077967e-01	 1.242987931568079e+00	 1.163440843079338e+01
 9.927191112385724e-01	 1.222756557008219e+00	 1.106781666943874e+01
 1.017774514512397e+00	 1.201981658746425e+00	 1.068625914611025e+01
 1.042416143208120e+00	 1.180675018436160e+00	 1.048804499571931e+01
 1.066627218151150e+00	 1.158849142101489e+00	 1.047065207847871e+01
 1.090391470970947e+00	 1.136517236036850e+00	 1.063073075741192e+01
 1.113693180361000e+00	 1.113693180361000e+00	 1.096411287995389e+01
 8.584335877495636e-01	 1.313037828049339e+00	 8.070744590646285e+00
 8.851844328725788e-01	 1.295154421398064e+00	 9.040834049754611e+00
 9.116129815620500e-01	 1.276690316645636e+00	 1.011645705830166e+01
 9.377005649890215e-01	 1.257654172408223e+00	 1.129041410245769e+01
 9.634288237642632e-01	 1.238055439774623e+00	 1.137772367515382e+01
 9.887797496901980e-01	 1.217904348447305e+00	 1.086274035935219e+01
 1.013735726760416e+00	 1.197211890258286e+00	 1.052864964591643e+01
 1.038279571214961e+00	 1.175989800108435e+00	 1.037381270256896e+01
 1.062394570463268e+00	 1.154250534394738e+00	 1.039577713141506e+01
 1.086064520691822e+00	 1.132007247005703e+00	 1.059128051424858e+01
 1.109273762980250e+00	 1.109273762980250e+00	 1.095625905778630e+01
 8.550135336172382e-01	 1.307806601642550e+00	 8.133677709771975e+00
 8.816578016690023e-01	 1.289994443622846e+00	 9.151581336236658e+00
 9.079810573365499e-01	 1.271603901040402e+00	 1.027232455085115e+01
 9.339647061687287e-01	 1.252643598014911e+00	 1.148880812525814e+01
 9.595904619212839e-01	 1.233122947981431e+00	 1.111983043317992e+01
 9.848403881424443e-01	 1.213052139886644e+00	 1.065609377138228e+01
 1.009696939009092e+00	 1.192442121770408e+00	 1.036909410043332e+01
 1.034142999222465e+00	 1.171304581781001e+00	 1.025724539745276e+01
 1.058161922776024e+00	 1.149651926688328e+00	 1.031816580431842e+01
 1.081737570413281e+00	 1.127497257974966e+00	 1.054868093763572e+01
 1.104854345600000e+00	 1.104854345600000e+00	 1.094483219445476e+01
 1.149048519425000e+00	 1.149048519425000e+00	 1.089524671911544e+01
 1.172597136321760e+00	 1.125007091478085e+00	 1.087986238221743e+01
 1.195637955992831e+00	 1.100488472532229e+00	 1.090364468807517e+01
 1.218156657908894e+00	 1.075508882706573e+00	 1.096645056431705e+01
 1.240139616777278e+00	 1.050085106498359e+00	 1.106782438904635e+01
 1.261573929826626e+00	 1.024234455373164e+00	 1.131628535045795e+01
 1.282447441671249e+00	 9.979747288102582e-01	 1.171896778115416e+01
 1.302748766656399e+00	 9.713241739857016e-01	 1.218370008641463e+01
 1.322467308601402e+00	 9.443014442826378e-01	 1.270175040099565e+01
 1.341593277873824e+00	 9.169255568236603e-01	 1.326476451158688e+01
 1.360117705744333e+00	 8.892158492239139e-01	 1.386480304540889e+01
 1.144629102040250e+00	 1.144629102040250e+00	 1.091689472396361e+01
 1.168087147333406e+00	 1.120680141124077e+00	 1.091426538538625e+01
 1.191039348467107e+00	 1.096255824559021e+00	 1.094933337400207e+01
 1.213471439990997e+00	 1.071372310079148e+00	 1.102196814232208e+01
 1.235369849017371e+00	 1.046046317625942e+00	 1.113173272386648e+01
 1.256721722400919e+00	 1.020295092082419e+00	 1.134087016087140e+01
 1.277514951507438e+00	 9.941363644683151e-01	 1.174258674694457e+01
 1.297738194473155e+00	 9.675883117782410e-01	 1.220577613911843e+01
 1.317380895871941e+00	 9.406695156515592e-01	 1.272181577343203e+01
 1.336433303723793e+00	 9.133989200680838e-01	 1.328245324091712e+01
 1.354886483794492e+00	 8.857957882675154e-01	 1.387984306573006e+01
 1.140209684656000e+00	 1.140209684656000e+00	 1.093476697616950e+01
 1.163577158345462e+00	 1.116353190770654e+00	 1.094482779251884e+01
 1.186440740941724e+00	 1.092023176586452e+00	 1.099112573604746e+01
 1.208786222073389e+00	 1.067235737452387e+00	 1.107354287789065e+01
 1.230600081257726e+00	 1.042007528754183e+00	 1.119166095966090e+01
 1.251869514975465e+00	 1.016355728792296e+00	 1.136215767832658e+01
 1.272582461343888e+00	 9.902980001269259e-01	 1.176293386673373e+01
 1.292727622290204e+00	 9.638524495712375e-01	 1.222459279725235e+01
 1.312294483142823e+00	 9.370375870208117e-01	 1.273862074545816e+01
 1.331273329574176e+00	 9.098722833126822e-01	 1.329686675389156e+01
 1.349655261845156e+00	 8.823757273111063e-01	 1.389157900059000e+01
 1.135790267272250e+00	 1.135790267272250e+00	 1.094888838188299e+01
 1.159067169357928e+00	 1.112026240417816e+00	 1.097157388977442e+01
 1.181842133416682e+00	 1.087790528614522e+00	 1.102904538351566e+01
 1.204101004156072e+00	 1.063099164826288e+00	 1.112119764798646e+01
 1.225830313498341e+00	 1.037968739883080e+00	 1.124763118715101e+01
 1.247017307550263e+00	 1.012416365502792e+00	 1.140765621166798e+01
 1.267649971180602e+00	 9.864596357860910e-01	 1.177995218378230e+01
 1.287717050107547e+00	 9.601165873646917e-01	 1.224009234401559e+01
 1.307208070414051e+00	 9.334056583903949e-01	 1.275210697451053e+01
 1.326113355424974e+00	 9.063456465574550e-01	 1.330794621865015e+01
 1.344424039896326e+00	 8.789556663546864e-01	 1.389995166682601e+01
 1.131370849889000e+00	 1.131370849889000e+00	 1.095928396610497e+01
 1.154557180370804e+00	 1.107699290065562e+00	 1.099452807243675e+01
 1.177243525891980e+00	 1.083557880643232e+00	 1.106311602480022e+01
 1.199415786239046e+00	 1.058962592200854e+00	 1.116495541833823e+01
 1.221060545739217e+00	 1.033929951012635e+00	 1.129966557523164e+01
 1.242165100125312e+00	 1.008477002213910e+00	 1.146658140374215e+01
 1.262717481017578e+00	 9.826212714458097e-01	 1.179358479761899e+01
 1.282706477925184e+00	 9.563807251586032e-01	 1.225221710760606e+01
 1.302121657685622e+00	 9.297737297603093e-01	 1.276221615157324e+01
 1.320953381276188e+00	 9.028190098024030e-01	 1.331563282527105e+01
 1.339192817948001e+00	 8.755356053982559e-01	 1.390490189146822e+01
 1.126951432506250e+00	 1.126951432506250e+00	 1.096597887501841e+01
 1.150047191384091e+00	 1.103372339713894e+00	 1.101371484705382e+01
 1.172644918367618e+00	 1.079325232672581e+00	 1.109336146932723e+01
 1.194730568322310e+00	 1.054826019576082e+00	 1.120483924518089e+01
 1.216290777980355e+00	 1.029891162142846e+00	 1.134778637250357e+01
 1.237312892700614e+00	 1.004537638925649e+00	 1.152156247427693e+01
 1.257784990854817e+00	 9.787829071060824e-01	 1.180377486514425e+01
 1.277695905743115e+00	 9.526448629529720e-01	 1.226090946210310e+01
 1.297035244957538e+00	 9.261418011305542e-01	 1.276889000183601e+01
 1.315793407127816e+00	 8.992923730475255e-01	 1.331986778620093e+01
 1.333961596000181e+00	 8.721155444418152e-01	 1.390637051193893e+01
 1.122532015124000e+00	 1.122532015124000e+00	 1.096899837837340e+01
 1.145537202397787e+00	 1.099045389362810e+00	 1.102915883362817e+01
 1.168046310843596e+00	 1.075092584702569e+00	 1.111980562954368e+01
 1.190045350405866e+00	 1.050689446951975e+00	 1.124087227703708e+01
 1.211521010221754e+00	 1.025852373273715e+00	 1.139201590884300e+01
 1.232460685276167e+00	 1.000598275638008e+00	 1.157262088162804e+01
 1.252852500692320e+00	 9.749445427669093e-01	 1.181046560175911e+01
 1.272685333561339e+00	 9.489090007477983e-01	 1.226611182837008e+01
 1.291948832229799e+00	 9.225098725011301e-01	 1.277207028536779e+01
 1.310633432979860e+00	 8.957657362928229e-01	 1.332059233669503e+01
 1.328730374052866e+00	 8.686954834853636e-01	 1.390429837625773e+01
 1.118112597742250e+00	 1.118112597742250e+00	 1.096836787192898e+01
 1.141027213411893e+00	 1.094718439012311e+00	 1.104088476785887e+01
 1.163447703319914e+00	 1.070859936733196e+00	 1.114247252295396e+01
 1.185360132489712e+00	 1.046552874328530e+00	 1.127307775654097e+01
 1.206751242463414e+00	 1.021813584405241e+00	 1.143237659700722e+01
 1.227608477851973e+00	 9.966589123509877e-01	 1.161977815554002e+01
 1.247920010530085e+00	 9.711061784282901e-01	 1.183443022164959e+01
 1.267674761379857e+00	 9.451731385430817e-01	 1.226776667497939e+01
 1.286862419502404e+00	 9.188779438720369e-01	 1.277169879780588e+01
 1.305473458832319e+00	 8.922390995382952e-01	 1.331774773526798e+01
 1.323499152106057e+00	 8.652754225289013e-01	 1.389862634325037e+01
 1.113693180361000e+00	 1.113693180361000e+00	 1.096411287995389e+01
 1.136517224426409e+00	 1.090391488662397e+00	 1.104891750343731e+01
 1.158849095796573e+00	 1.066627288764463e+00	 1.116138627420383e+01
 1.180674914573848e+00	 1.042416301705749e+00	 1.130147902230548e+01
 1.201981474705336e+00	 1.017774795537425e+00	 1.146889093427953e+01
 1.222756270428031e+00	 9.927195490645880e-01	 1.166305589856309e+01
 1.242987520368112e+00	 9.672678140902250e-01	 1.188315203466581e+01
 1.262664189198668e+00	 9.414372763388223e-01	 1.226581651915888e+01
 1.281776006775354e+00	 9.152460152432744e-01	 1.276771737106156e+01
 1.300313484685193e+00	 8.887124627839422e-01	 1.331127526415540e+01
 1.318267930159753e+00	 8.618553615724286e-01	 1.388929528276367e+01
 1.109273762980250e+00	 1.109273762980250e+00	 1.095625905778630e+01
 1.132007235441336e+00	 1.086064538313068e+00	 1.105328201439757e+01
 1.154250488273572e+00	 1.062394640796369e+00	 1.117657111721509e+01
 1.175989696658276e+00	 1.038279729083631e+00	 1.132609951083437e+01
 1.197211706947519e+00	 1.013736006670265e+00	 1.150158150415276e+01
 1.217904063004341e+00	 9.887801857788092e-01	 1.170247578750289e+01
 1.238055030206403e+00	 9.634294497527139e-01	 1.192799079579366e+01
 1.257653617017774e+00	 9.377014141350206e-01	 1.226020392776113e+01
 1.276689594048649e+00	 9.116140866148432e-01	 1.276006787404281e+01
 1.295153510538482e+00	 8.851858260297638e-01	 1.330111622978636e+01
 1.313036708213954e+00	 8.584353006159452e-01	 1.387624607588483e+01
 1.104854345600000e+00	 1.104854345600000e+00	 1.094483219445476e+01
 1.127497246456672e+00	 1.081737587964323e+00	 1.105400339752307e+01
 1.149651880750912e+00	 1.058161992828915e+00	 1.118805139737095e+01
 1.171304478742993e+00	 1.034143156462176e+00	 1.134696275847967e+01
 1.192441939189963e+00	 1.009697217803762e+00	 1.153047097805323e+01
 1.213051855580902e+00	 9.848408224936508e-01	 1.173805957490573e+01
 1.233122540044957e+00	 9.595910854157566e-01	 1.196896728688009e+01
 1.252643044837173e+00	 9.339655519316761e-01	 1.225087151825602e+01
 1.271603181322287e+00	 9.079821579867423e-01	 1.274869221339422e+01
 1.289993536392186e+00	 8.816591892757605e-01	 1.328721196326734e+01
 1.307805486268661e+00	 8.550152396594509e-01	 1.385941961516608e+01
 1.360117705744333e+00	 8.892158492239139e-01	 1.386480304540889e+01
 1.378032455989265e+00	 8.611919357655552e-01	 1.367050681609826e+01
 1.395330233722280e+00	 8.328736631961248e-01	 1.353433457396749e+01
 1.412004591455920e+00	 8.042810663511558e-01	 1.344813591679861e+01
 1.428049932410381e+00	 7.754343237987307e-01	 1.340413686878320e+01
 1.443461511099561e+00	 7.463537137016177e-01	 1.339495722488722e+01
 1.458235431242151e+00	 7.170595700862005e-01	 1.341362256508159e+01
 1.472368641059446e+00	 6.875722397012342e-01	 1.345357113880336e+01
 1.485858926035341e+00	 6.579120396418039e-01	 1.350865587525788e+01
 1.498704899226743e+00	 6.280992159050710e-01	 1.357314182387033e+01
 1.510905989224438e+00	 5.981539030346662e-01	 1.341572430786385e+01
 1.354886483794492e+00	 8.857957882675154e-01	 1.387984306573007e+01
 1.372732331153635e+00	 8.578796590923617e-01	 1.368823340750814e+01
 1.389963578972226e+00	 8.296703029564187e-01	 1.355485277967831e+01
 1.406573804560838e+00	 8.011876776381600e-01	 1.347151909327000e+01
 1.422557432665737e+00	 7.724518840957916e-01	 1.343041932730636e+01
 1.437909736052693e+00	 7.434831224991491e-01	 1.342412728273229e+01
 1.452626833426091e+00	 7.143016486668234e-01	 1.344561607015901e+01
 1.466705684744835e+00	 6.849277310908464e-01	 1.348826552533974e+01
 1.480144084010186e+00	 6.553816087236290e-01	 1.354586480101744e+01
 1.492940649613448e+00	 6.256834496931163e-01	 1.361261043207841e+01
 1.505094812343129e+00	 5.958533111023878e-01	 1.344554317478092e+01
 1.349655261845156e+00	 8.823757273111063e-01	 1.389157900059000e+01
 1.367432206318594e+00	 8.545673824189735e-01	 1.370293029457756e+01
 1.384596924222816e+00	 8.264669427163640e-01	 1.357260270187557e+01
 1.401143017666421e+00	 7.980942889246925e-01	 1.349238192173616e+01
 1.417064932921751e+00	 7.694694443922885e-01	 1.345441547292868e+01
 1.432357961006444e+00	 7.406125312960545e-01	 1.345123085584849e+01
 1.447018235610581e+00	 7.115437272467888e-01	 1.347574851159123e+01
 1.461042728430674e+00	 6.822832224797978e-01	 1.352128976550245e+01
 1.474429241985354e+00	 6.528511778048219e-01	 1.358157999692956e+01
 1.487176400000318e+00	 6.232676834805864e-01	 1.363753179400281e+01
 1.499283635461801e+00	 5.935527191696200e-01	 1.347569917171044e+01
 1.344424039896326e+00	 8.789556663546864e-01	 1.389995166682601e+01
 1.362132081484144e+00	 8.512551057453903e-01	 1.371454178720827e+01
 1.379230269474049e+00	 8.232635824759607e-01	 1.358753229725297e+01
 1.395712230772668e+00	 7.950009002107533e-01	 1.351067615194058e+01
 1.411572433178421e+00	 7.664870046882211e-01	 1.347608098668102e+01
 1.426806185960813e+00	 7.377419400923342e-01	 1.347622768626359e+01
 1.441409637795619e+00	 7.087858058260965e-01	 1.350398381311847e+01
 1.455379772116964e+00	 6.796387138680903e-01	 1.355261207604697e+01
 1.468714399960845e+00	 6.503207468853830e-01	 1.361577407428407e+01
 1.481412150387354e+00	 6.208519172674812e-01	 1.365710638321676e+01
 1.493472458580452e+00	 5.912521272363623e-01	 1.350623813235728e+01
 1.339192817948001e+00	 8.755356053982559e-01	 1.390490189146822e+01
 1.356831956650282e+00	 8.479428290716119e-01	 1.372301225153435e+01
 1.373863614725924e+00	 8.200602222352085e-01	 1.359958962491489e+01
 1.390281443879582e+00	 7.919075114963424e-01	 1.352635368226588e+01
 1.406079933435749e+00	 7.635045649835898e-01	 1.349537174442630e+01
 1.421254410915800e+00	 7.348713488879874e-01	 1.349907775690818e+01
 1.435801039981207e+00	 7.060278844047463e-01	 1.353028618524886e+01
 1.449716815803705e+00	 6.769942052557228e-01	 1.358220100607319e+01
 1.462999557936658e+00	 6.477903159653117e-01	 1.364842002192281e+01
 1.475647900774554e+00	 6.184361510538003e-01	 1.367678745847755e+01
 1.487661281699082e+00	 5.889515353026149e-01	 1.353720635697692e+01
 1.333961596000181e+00	 8.721155444418152e-01	 1.390637051193893e+01
 1.351531831817011e+00	 8.446305523976381e-01	 1.372828611102470e+01
 1.368496959978442e+00	 8.168568619941073e-01	 1.360872284838407e+01
 1.384850656987160e+00	 7.888141227814600e-01	 1.353936656264881e+01
 1.400587433693733e+00	 7.605221252783949e-01	 1.351224382067987e+01
 1.415702635871404e+00	 7.320007576830150e-01	 1.351974129633950e+01
 1.430192442167345e+00	 7.032699629827384e-01	 1.355462013088113e+01
 1.444053859490896e+00	 6.743496966426953e-01	 1.361002544354193e+01
 1.457284715912793e+00	 6.452598850446080e-01	 1.367949121364284e+01
 1.469883651161920e+00	 6.160203848395442e-01	 1.369661979582782e+01
 1.481850104817692e+00	 5.866509433683778e-01	 1.356865062152370e+01
 1.328730374052866e+00	 8.686954834853636e-01	 1.390429837625773e+01
 1.346231706984329e+00	 8.413182757234693e-01	 1.373030784761190e+01
 1.363130305231604e+00	 8.136535017526573e-01	 1.361488023765747e+01
 1.379419870095405e+00	 7.857207340661058e-01	 1.354966699756312e+01
 1.395094933952374e+00	 7.575396855726355e-01	 1.352665349251955e+01
 1.410150860827627e+00	 7.291301664774165e-01	 1.353817878357643e+01
 1.424583844354031e+00	 7.005120415600723e-01	 1.357695045106059e+01
 1.438390903178537e+00	 6.717051880290082e-01	 1.363605462194555e+01
 1.451569873889251e+00	 6.427294541232723e-01	 1.370896141577405e+01
 1.464119401549451e+00	 6.136046186247127e-01	 1.371664861037998e+01
 1.476038927936281e+00	 5.843503514336509e-01	 1.360061818701473e+01
 1.323499152106057e+00	 8.652754225289013e-01	 1.389862634325037e+01
 1.340931582152237e+00	 8.380059990491056e-01	 1.372902200284763e+01
 1.357763650485408e+00	 8.104501415108594e-01	 1.361801017131033e+01
 1.373989083204313e+00	 7.826273453502800e-01	 1.355720734907394e+01
 1.389602434211673e+00	 7.545572458663125e-01	 1.353855724358938e+01
 1.404599085784468e+00	 7.262595752711917e-01	 1.355435095304927e+01
 1.418975246541267e+00	 6.977541201367488e-01	 1.359724225087125e+01
 1.432727946866629e+00	 6.690606794146612e-01	 1.366025812713640e+01
 1.445855031866031e+00	 6.401990232013045e-01	 1.373680479493695e+01
 1.458355151937147e+00	 6.111888524093058e-01	 1.373691956499341e+01
 1.470227751054850e+00	 5.820497594984343e-01	 1.363315680911637e+01
 1.318267930159753e+00	 8.618553615724286e-01	 1.388929528276367e+01
 1.335631457320734e+00	 8.346937223745463e-01	 1.372437317908540e+01
 1.352396995739856e+00	 8.072467812687116e-01	 1.361806113865038e+01
 1.368558296313887e+00	 7.795339566339823e-01	 1.356194013996453e+01
 1.384109934471628e+00	 7.515748061594250e-01	 1.354791176819773e+01
 1.399047310741928e+00	 7.233889840643413e-01	 1.356821879966763e+01
 1.413366648729051e+00	 6.949961987127673e-01	 1.361546094546826e+01
 1.427064990555172e+00	 6.664161707996547e-01	 1.368260590431828e+01
 1.440140189843133e+00	 6.376685922787044e-01	 1.376299592598484e+01
 1.452590902325009e+00	 6.087730861933237e-01	 1.375747877915831e+01
 1.464416574173397e+00	 5.797491675627281e-01	 1.366631474795846e+01
 1.313036708213954e+00	 8.584353006159452e-01	 1.387624607588483e+01
 1.330331332489821e+00	 8.313814456997923e-01	 1.371630604069182e+01
 1.347030340994946e+00	 8.040434210262157e-01	 1.361498174192407e+01
 1.363127509424128e+00	 7.764405679172131e-01	 1.356381805693779e+01
 1.378617434732240e+00	 7.485923664519738e-01	 1.355467397551406e+01
 1.393495535700005e+00	 7.205183928568648e-01	 1.357974358400905e+01
 1.407758050917385e+00	 6.922382772881279e-01	 1.363157226625473e+01
 1.421402034244164e+00	 6.637716621839883e-01	 1.370306826520483e+01
 1.434425347820558e+00	 6.351381613554720e-01	 1.378750980013590e+01
 1.446826652713035e+00	 6.063573199767660e-01	 1.377837283809201e+01
 1.458605397291925e+00	 5.774485756265321e-01	 1.370014077818361e+01
 1.307805486268661e+00	 8.550152396594509e-01	 1.385941961516608e+01
 1.325031207659498e+00	 8.280691690248428e-01	 1.370476531528687e+01
 1.341663686250679e+00	 8.008400607833708e-01	 1.360872069857479e+01
 1.357696722535032e+00	 7.733471791999722e-01	 1.356279395389469e+01
 1.373124934993508e+00	 7.456099267439584e-01	 1.355880099386607e+01
 1.387943760658701e+00	 7.176478016487623e-01	 1.358888683763251e+01
 1.402149453106268e+00	 6.894803558628309e-01	 1.364554226720666e+01
 1.415739077933608e+00	 6.611271535676617e-01	 1.372161589534966e+01
 1.428710505798304e+00	 6.326077304316075e-01	 1.381032183330061e+01
 1.441062403101226e+00	 6.039415537596329e-01	 1.379964880205343e+01
 1.452794220410432e+00	 5.751479836898462e-01	 1.373468419923723e+01
 1.510905989224438e+00	 5.981539030346662e-01	 1.341572430786385e+01
 1.522462425874856e+00	 5.680960850001697e-01	 1.361481007395410e+01
 1.533375223883753e+00	 5.379455574460036e-01	 1.377722393359190e+01
 1.543646164429885e+00	 5.077218914329501e-01	 1.390301149651819e+01
 1.553277774923845e+00	 4.774443987833434e-01	 1.399233279760147e+01
 1.562273307054314e+00	 4.471320991271139e-01	 1.404547317017850e+01
 1.570636713267633e+00	 4.168036887336726e-01	 1.406285253404345e+01
 1.578372621830225e+00	 3.864775112013993e-01	 1.404503303701648e+01
 1.585486310625523e+00	 3.561715300634773e-01	 1.399272501234798e+01
 1.591983679838120e+00	 3.259033033559541e-01	 1.390679123688490e+01
 1.597871223677692e+00	 2.956899601812942e-01	 1.378824949662107e+01
 1.505094812343129e+00	 5.958533111023878e-01	 1.344554317478092e+01
 1.516606801161459e+00	 5.659111000596855e-01	 1.364720552580330e+01
 1.527477626871297e+00	 5.358765360724194e-01	 1.381135118394637e+01
 1.537709063800717e+00	 5.057691149280606e-01	 1.393806756533265e+01
 1.547303629639505e+00	 4.756080741727038e-01	 1.402755720863813e+01
 1.556264563569846e+00	 4.454123602838564e-01	 1.408014830178650e+01
 1.564595802836372e+00	 4.152005976222011e-01	 1.409630364110176e+01
 1.572301957904480e+00	 3.849910592338158e-01	 1.407662796389611e+01
 1.579388286358056e+00	 3.548016395613713e-01	 1.402187361845889e+01
 1.585860665688677e+00	 3.246498291100071e-01	 1.393294455774714e+01
 1.591725565128296e+00	 2.945526911010241e-01	 1.381089866444109e+01
 1.499283635461801e+00	 5.935527191696200e-01	 1.347569917171044e+01
 1.510751176447857e+00	 5.637261151188065e-01	 1.368004108049998e+01
 1.521580029858483e+00	 5.338075146985242e-01	 1.384601950530628e+01
 1.531771963171071e+00	 5.038163384229343e-01	 1.397376309271394e+01
 1.541329484354596e+00	 4.737717495618912e-01	 1.406351633233398e+01
 1.550255820084751e+00	 4.436926214404796e-01	 1.411564973959398e+01
 1.558554892404452e+00	 4.135975065106535e-01	 1.413066848852423e+01
 1.566231293978077e+00	 3.835046072661896e-01	 1.410921943755269e+01
 1.573290262089959e+00	 3.534317490592464e-01	 1.405209651397682e+01
 1.579737651538664e+00	 3.233963548640554e-01	 1.396024444478328e+01
 1.585579906578415e+00	 2.934154220207540e-01	 1.383476084251897e+01
 1.493472458580452e+00	 5.912521272363623e-01	 1.350623813235728e+01
 1.504895551734049e+00	 5.615411301775322e-01	 1.371336192841764e+01
 1.515682432845314e+00	 5.317384933243186e-01	 1.388127339849836e+01
 1.525834862540947e+00	 5.018635619175711e-01	 1.401014184718604e+01
 1.535355339069118e+00	 4.719354249509053e-01	 1.410025316562647e+01
 1.544247076599027e+00	 4.419728825969829e-01	 1.415201967313419e+01
 1.552513981971875e+00	 4.119944153990298e-01	 1.416598842606603e+01
 1.560160630051015e+00	 3.820181552985208e-01	 1.414284793899448e+01
 1.567192237821234e+00	 3.520618585571026e-01	 1.408343328554622e+01
 1.573614637388079e+00	 3.221428806180989e-01	 1.398872956794149e+01
 1.579434248028048e+00	 2.922781529404838e-01	 1.385987376497940e+01
 1.487661281699082e+00	 5.889515353026149e-01	 1.353720635697692e+01
 1.499039927020037e+00	 5.593561452358632e-01	 1.374721373091775e+01
 1.509784835831787e+00	 5.296694719498020e-01	 1.391715783910276e+01
 1.519897761910345e+00	 4.999107854119712e-01	 1.404724807512314e+01
 1.529381193783072e+00	 4.700991003397463e-01	 1.413781118573446e+01
 1.538238333112675e+00	 4.402531437533666e-01	 1.418930077399284e+01
 1.546473071538638e+00	 4.103913242873296e-01	 1.420230528665199e+01
 1.554089966123295e+00	 3.805317033308094e-01	 1.417755443287113e+01
 1.561094213551879e+00	 3.506919680549401e-01	 1.411592400328832e+01
 1.567491623236923e+00	 3.208894063721378e-01	 1.401843907985680e+01
 1.573288589477197e+00	 2.911408838602138e-01	 1.388627564722995e+01
 1.481850104817692e+00	 5.866509433683778e-01	 1.356865062152370e+01
 1.493184302305822e+00	 5.571711602937990e-01	 1.378164262958446e+01
 1.503887238817903e+00	 5.276004505749747e-01	 1.395371828676219e+01
 1.513960661279265e+00	 4.979580089061342e-01	 1.408512651011930e+01
 1.523407048496458e+00	 4.682627757284141e-01	 1.417623435957556e+01
 1.532229589625694e+00	 4.385334049096307e-01	 1.422753620525996e+01
 1.540432161104745e+00	 4.087882331755534e-01	 1.423966139585060e+01
 1.548019302194917e+00	 3.790452513630552e-01	 1.421338037695695e+01
 1.554996189281895e+00	 3.493220775527586e-01	 1.414960923028121e+01
 1.561368609085195e+00	 3.196359321261720e-01	 1.404941262531535e+01
 1.567142930925859e+00	 2.900036147799436e-01	 1.391400519539775e+01
 1.476038927936281e+00	 5.843503514336509e-01	 1.360061818701473e+01
 1.487328677591400e+00	 5.549861753513397e-01	 1.381669525567795e+01
 1.497989641803661e+00	 5.255314291998368e-01	 1.399100069471059e+01
 1.508023560647706e+00	 4.960052324000608e-01	 1.412382238257926e+01
 1.517432903209274e+00	 4.664264511169085e-01	 1.421556715340570e+01
 1.526220846138085e+00	 4.368136660657749e-01	 1.426676963120523e+01
 1.534391250670193e+00	 4.071851420637010e-01	 1.427809958157162e+01
 1.541948638265880e+00	 3.775587993952585e-01	 1.425036773185786e+01
 1.548898165011282e+00	 3.479521870505583e-01	 1.418453003226378e+01
 1.555245594932896e+00	 3.183824578802016e-01	 1.408169035094264e+01
 1.560997272374037e+00	 2.888663456996735e-01	 1.394310161598956e+01
 1.470227751054850e+00	 5.820497594984343e-01	 1.363315680911637e+01
 1.481473052876775e+00	 5.528011904084855e-01	 1.385241873981188e+01
 1.492092044789064e+00	 5.234624078243881e-01	 1.402905151952791e+01
 1.502086460015669e+00	 4.940524558937503e-01	 1.416338142953703e+01
 1.511458757921522e+00	 4.645901265052301e-01	 1.425585454268780e+01
 1.520212102649847e+00	 4.350939272217997e-01	 1.430704522718268e+01
 1.528350340234983e+00	 4.055820509517724e-01	 1.431766318399377e+01
 1.535877974336185e+00	 3.760723474274194e-01	 1.428855897094900e+01
 1.542800140740040e+00	 3.465822965483392e-01	 1.422072798756955e+01
 1.549122580780026e+00	 3.171289836342265e-01	 1.411531291512103e+01
 1.554851613821729e+00	 2.877290766194034e-01	 1.397360462578042e+01
 1.464416574173397e+00	 5.797491675627281e-01	 1.366631474795846e+01
 1.475617428161945e+00	 5.506162054652365e-01	 1.388886072186107e+01
 1.486194447774108e+00	 5.213933864486285e-01	 1.406791773112709e+01
 1.496149359383153e+00	 4.920996793872031e-01	 1.420384990470790e+01
 1.505484612633201e+00	 4.627538018933783e-01	 1.429714202219469e+01
 1.514203359160981e+00	 4.333741883777048e-01	 1.434840768977136e+01
 1.522309429799114e+00	 4.039789598397676e-01	 1.435839606572886e+01
 1.529807310405833e+00	 3.745858954595372e-01	 1.432799709054867e+01
 1.536702116468169e+00	 3.452124060461013e-01	 1.425824519729731e+01
 1.542999566626585e+00	 3.158755093882466e-01	 1.415032149814387e+01
 1.548705955268936e+00	 2.865918075391334e-01	 1.400555446193844e+01
 1.458605397291925e+00	 5.774485756265321e-01	 1.370014077818361e+01
 1.469761803446910e+00	 5.484312205215922e-01	 1.392606936110621e+01
 1.480296850758796e+00	 5.193243650725583e-01	 1.410764682297996e+01
 1.490212258750159e+00	 4.901469028804190e-01	 1.424527458878096e+01
 1.499510467344312e+00	 4.609174772813535e-01	 1.433947561635422e+01
 1.508194615671487e+00	 4.316544495334901e-01	 1.439090224715817e+01
 1.516268519362586e+00	 4.023758687276865e-01	 1.440034262222880e+01
 1.523736646474821e+00	 3.730994434916127e-01	 1.436872562033538e+01
 1.530604092195668e+00	 3.438425155438445e-01	 1.429712429572484e+01
 1.536876552472572e+00	 3.146220351422621e-01	 1.418675781261204e+01
 1.542560296715658e+00	 2.854545384588632e-01	 1.403899189239065e+01
 1.452794220410432e+00	 5.751479836898462e-01	 1.373468419923722e+01
 1.463906178731671e+00	 5.462462355775530e-01	 1.396409334662208e+01
 1.474399253743126e+00	 5.172553436961772e-01	 1.414828682258826e+01
 1.484275158116687e+00	 4.881941263733979e-01	 1.428770279995861e+01
 1.493536322054853e+00	 4.590811526691553e-01	 1.438290188984226e+01
 1.502185872181363e+00	 4.299347106891557e-01	 1.443457466977012e+01
 1.510227608925401e+00	 4.007727776155293e-01	 1.444354779244241e+01
 1.517665982543151e+00	 3.716129915236454e-01	 1.441078863401520e+01
 1.524506067922538e+00	 3.424726250415688e-01	 1.433740846097225e+01
 1.530753538317988e+00	 3.133685608962728e-01	 1.422466411408002e+01
 1.536414638161894e+00	 2.843172693785931e-01	 1.407395822643869e+01
 1.597871223677692e+00	 2.956899601812942e-01	 1.378824949662107e+01
 1.603156001294210e+00	 2.655481792878331e-01	 1.386570268456602e+01
 1.607845607033304e+00	 2.354941696761788e-01	 1.392501409988608e+01
 1.611948140178151e+00	 2.055436532290552e-01	 1.396486491203898e+01
 1.615472174320238e+00	 1.757118493506957e-01	 1.398415113344939e+01
 1.618426726496131e+00	 1.460134615946993e-01	 1.398198596579112e+01
 1.620821226222415e+00	 1.164626662474418e-01	 1.395770018484651e+01
 1.622665484554890e+00	 8.707310282611690e-02	 1.391084067245187e+01
 1.623969663291593e+00	 5.785786644259650e-02	 1.384116721656418e+01
 1.624744244432313e+00	 2.882950197718281e-02	 1.374864771065641e+01
 1.625000000000000e+00	 0.000000000000000e+00	 1.363345189151042e+01
 1.591725565128296e+00	 2.945526911010241e-01	 1.381089866444109e+01
 1.596990016676433e+00	 2.645268401337779e-01	 1.389312169249352e+01
 1.601661585469822e+00	 2.345884228666170e-01	 1.395641677071062e+01
 1.605748339640550e+00	 2.047531007134834e-01	 1.399953089505540e+01
 1.609258819804750e+00	 1.750360345424382e-01	 1.402142409157127e+01
 1.612202008318078e+00	 1.454518713549483e-01	 1.402127152569837e+01
 1.614587298429746e+00	 1.160147329132088e-01	 1.399846368069727e+01
 1.616424463460724e+00	 8.673820627472932e-02	 1.395260471317611e+01
 1.617723626125209e+00	 5.763533618556409e-02	 1.388350910599423e+01
 1.618495228107603e+00	 2.871861927647300e-02	 1.379119674876436e+01
 1.618750000000000e+00	 0.000000000000000e+00	 1.367588658384738e+01
 1.585579906578415e+00	 2.934154220207540e-01	 1.383476084251897e+01
 1.590824032058266e+00	 2.635055009797226e-01	 1.392174448062500e+01
 1.595477563906033e+00	 2.336826760570551e-01	 1.398900552185798e+01
 1.599548539102714e+00	 2.039625481979117e-01	 1.403535668483249e+01
 1.603045465289091e+00	 1.743602197341806e-01	 1.405982194287561e+01
 1.605977290139907e+00	 1.448902811151973e-01	 1.406163839583207e+01
 1.608353370637003e+00	 1.155667995789758e-01	 1.404025624128523e+01
 1.610183442366516e+00	 8.640330972334175e-02	 1.399533695269532e+01
 1.611477588958806e+00	 5.741280592853169e-02	 1.392674978398044e+01
 1.612246211782890e+00	 2.860773657576318e-02	 1.383456672979899e+01
 1.612500000000000e+00	 0.000000000000000e+00	 1.371905607826793e+01
 1.579434248028048e+00	 2.922781529404838e-01	 1.385987376497940e+01
 1.584658047439707e+00	 2.624841618256674e-01	 1.395160701983684e+01
 1.589293542341936e+00	 2.327769292474933e-01	 1.402281452445555e+01
 1.593348738564645e+00	 2.031719956823399e-01	 1.407237462092587e+01
 1.596832110773261e+00	 1.736844049259230e-01	 1.409937516808158e+01
 1.599752571961619e+00	 1.443286908754463e-01	 1.410311517523564e+01
 1.602119442844185e+00	 1.151188662447429e-01	 1.408310456542154e+01
 1.603942421272267e+00	 8.606841317195416e-02	 1.403906217516125e+01
 1.605231551792385e+00	 5.719027567149929e-02	 1.397091210955761e+01
 1.605997195458171e+00	 2.849685387505337e-02	 1.387877858102229e+01
 1.606250000000000e+00	 0.000000000000000e+00	 1.376297936723486e+01
 1.573288589477197e+00	 2.911408838602138e-01	 1.388627564722995e+01
 1.578492062820757e+00	 2.614628226716121e-01	 1.398274574760502e+01
 1.583109520777533e+00	 2.318711824379315e-01	 1.405787840059260e+01
 1.587148938026342e+00	 2.023814431667682e-01	 1.411061747730392e+01
 1.590618756257261e+00	 1.730085901176654e-01	 1.414011466490369e+01
 1.593527853783212e+00	 1.437671006356952e-01	 1.414573086170649e+01
 1.595885515051292e+00	 1.146709329105099e-01	 1.412703573165033e+01
 1.597701400177976e+00	 8.573351662056658e-02	 1.408380552470347e+01
 1.598985514625946e+00	 5.696774541446689e-02	 1.401601928129377e+01
 1.599748179133448e+00	 2.838597117434356e-02	 1.392385354814095e+01
 1.600000000000000e+00	 0.000000000000000e+00	 1.380767573996817e+01
 1.567142930925859e+00	 2.900036147799436e-01	 1.391400519539775e+01
 1.572326078201417e+00	 2.604414835175569e-01	 1.401519757715393e+01
 1.576925499212823e+00	 2.309654356283697e-01	 1.409423223216280e+01
 1.580949137487806e+00	 2.015908906511965e-01	 1.415011847086575e+01
 1.584405401741091e+00	 1.723327753094077e-01	 1.418207175622825e+01
 1.587303135604688e+00	 1.432055103959442e-01	 1.418951485961484e+01
 1.589651587258325e+00	 1.142229995762769e-01	 1.417207720569465e+01
 1.591460379083644e+00	 8.539862006917903e-02	 1.412959251248765e+01
 1.592739477459488e+00	 5.674521515743450e-02	 1.406209484394753e+01
 1.593499162808720e+00	 2.827508847363375e-02	 1.396981320155023e+01
 1.593750000000000e+00	 0.000000000000000e+00	 1.385316478826385e+01
 1.560997272374037e+00	 2.888663456996735e-01	 1.394310161598956e+01
 1.566160093581686e+00	 2.594201443635015e-01	 1.404899990682164e+01
 1.570741477647806e+00	 2.300596888188078e-01	 1.413191156991553e+01
 1.574749336949037e+00	 2.008003381356247e-01	 1.419091127016026e+01
 1.578192047224750e+00	 1.716569605011502e-01	 1.422527819848301e+01
 1.581078417426047e+00	 1.426439201561932e-01	 1.423449698790690e+01
 1.583417659465282e+00	 1.137750662420439e-01	 1.421825684807798e+01
 1.585219357989269e+00	 8.506372351779144e-02	 1.417644902394082e+01
 1.586493440293011e+00	 5.652268490040209e-02	 1.410916269528304e+01
 1.587250146483988e+00	 2.816420577292393e-02	 1.401667944272554e+01
 1.587500000000000e+00	 0.000000000000000e+00	 1.389946641245009e+01
 1.554851613821729e+00	 2.877290766194034e-01	 1.397360462578042e+01
 1.559994108961564e+00	 2.583988052094462e-01	 1.408419062964706e+01
 1.564557456082482e+00	 2.291539420092461e-01	 1.417095244272161e+01
 1.568549536410034e+00	 2.000097856200530e-01	 1.423303000431206e+01
 1.571978692708239e+00	 1.709811456928927e-01	 1.426976619020500e+01
 1.574853699247288e+00	 1.420823299164422e-01	 1.428070748829825e+01
 1.577183731672165e+00	 1.133271329078109e-01	 1.426560292192679e+01
 1.578978336894853e+00	 8.472882696640387e-02	 1.422440132614775e+01
 1.580247403126517e+00	 5.630015464336969e-02	 1.415724709304640e+01
 1.581001130159251e+00	 2.805332307221412e-02	 1.406447451076547e+01
 1.581250000000000e+00	 0.000000000000000e+00	 1.394660082748483e+01
 1.548705955268936e+00	 2.865918075391334e-01	 1.400555446193844e+01
 1.553828124341051e+00	 2.573774660553910e-01	 1.412080814318547e+01
 1.558373434516852e+00	 2.282481951996842e-01	 1.421139136706008e+01
 1.562349735870797e+00	 1.992192331044812e-01	 1.427650927215989e+01
 1.565765338191557e+00	 1.703053308846350e-01	 1.431556838081267e+01
 1.568628981068412e+00	 1.415207396766912e-01	 1.432817703366206e+01
 1.570949803878973e+00	 1.128791995735780e-01	 1.431414410095852e+01
 1.572737315800396e+00	 8.439393041501629e-02	 1.427347607542357e+01
 1.574001365960003e+00	 5.607762438633730e-02	 1.420637266210806e+01
 1.574752113834510e+00	 2.794244037150431e-02	 1.411322098909082e+01
 1.575000000000000e+00	 0.000000000000000e+00	 1.399458856919831e+01
 1.542560296715658e+00	 2.854545384588632e-01	 1.403899189239065e+01
 1.547662139720148e+00	 2.563561269013357e-01	 1.415889135955867e+01
 1.552189412950914e+00	 2.273424483901225e-01	 1.425326535673122e+01
 1.556149935331327e+00	 1.984286805889094e-01	 1.432138415161343e+01
 1.559551983674704e+00	 1.696295160763775e-01	 1.436271787958755e+01
 1.562404262889418e+00	 1.409591494369402e-01	 1.437693673661785e+01
 1.564715876085707e+00	 1.124312662393450e-01	 1.436390947766077e+01
 1.566496294705896e+00	 8.405903386362872e-02	 1.432370032506729e+01
 1.567755328793472e+00	 5.585509412930489e-02	 1.425656440177604e+01
 1.568503097509764e+00	 2.783155767079449e-02	 1.416294181230351e+01
 1.568750000000000e+00	 0.000000000000000e+00	 1.404345050068508e+01
 1.536414638161894e+00	 2.843172693785931e-01	 1.407395822643869e+01
 1.541496155098853e+00	 2.553347877472804e-01	 1.419847971574614e+01
 1.546005391384669e+00	 2.264367015805606e-01	 1.429661193280336e+01
 1.549950134791623e+00	 1.976381280733377e-01	 1.436769020923473e+01
 1.553338629157681e+00	 1.689537012681199e-01	 1.441124826487146e+01
 1.556179544710306e+00	 1.403975591971891e-01	 1.442701815832651e+01
 1.558481948292365e+00	 1.119833329051120e-01	 1.441492857166657e+01
 1.560255273611354e+00	 8.372413731224117e-02	 1.437510153330153e+01
 1.561509291626922e+00	 5.563256387227249e-02	 1.430784769328482e+01
 1.562254081185013e+00	 2.772067497008467e-02	 1.421366027321002e+01
 1.562500000000000e+00	 0.000000000000000e+00	 1.409320781884907e+01
 0.000000000000000e+00	 1.562500000000000e+00	 1.577723572508711e+00
 2.772067497008478e-02	 1.562254081185013e+00	 1.624139999809239e+00
 5.563256387227270e-02	 1.561509291626921e+00	 1.673477449700577e+00
 8.372413731224146e-02	 1.560255273611354e+00	 1.730162656287771e+00
 1.119833329051125e-01	 1.558481948292365e+00	 1.798239112488219e+00
 1.403975591971897e-01	 1.556179544710306e+00	 1.881324627937103e+00
 1.689537012681205e-01	 1.553338629157681e+00	 1.982570451952854e+00
 1.976381280733384e-01	 1.549950134791623e+00	 2.104622438963385e+00
 2.264367015805614e-01	 1.546005391384669e+00	 2.249584743631762e+00
 2.553347877472812e-01	 1.541496155098854e+00	 2.418986537280148e+00
 2.843172693785931e-01	 1.536414638161894e+00	 2.613752235569545e+00
 0.000000000000000e+00	 1.556250000000000e+00	 1.561028063206959e+00
 2.760979226946473e-02	 1.556005064860260e+00	 1.599059462204525e+00
 5.541003361540647e-02	 1.555263254460362e+00	 1.641766034275473e+00
 8.338924076108270e-02	 1.554014252516792e+00	 1.693609379458255e+00
 1.115353995711569e-01	 1.552248020498985e+00	 1.758668985599568e+00
 1.398359689577503e-01	 1.549954826531135e+00	 1.840599792918362e+00
 1.682778864601943e-01	 1.547125274640573e+00	 1.942591297511965e+00
 1.968475755581027e-01	 1.543750334251804e+00	 2.067328668179571e+00
 2.255309547713250e-01	 1.539821369818272e+00	 2.216956360881054e+00
 2.543134485935253e-01	 1.535330170477364e+00	 2.393044719654907e+00
 2.831800002985802e-01	 1.530268979607887e+00	 2.596560051383256e+00
 0.000000000000000e+00	 1.550000000000000e+00	 1.543958088568719e+00
 2.749890956902420e-02	 1.549756048535507e+00	 1.573352130779198e+00
 5.518750335887250e-02	 1.549017217293803e+00	 1.609213812630754e+00
 8.305434421038160e-02	 1.547773231422229e+00	 1.656040654010400e+00
 1.110874662377564e-01	 1.546014092705607e+00	 1.717949085020356e+00
 1.392743787189346e-01	 1.543730108351965e+00	 1.798632008703616e+00
 1.676020716529308e-01	 1.540911920123466e+00	 1.901317876846270e+00
 1.960570230435390e-01	 1.537550533711983e+00	 2.028731750307806e+00
 2.246252079627395e-01	 1.533637348251873e+00	 2.183058825339389e+00
 2.532921094403679e-01	 1.529164185855874e+00	 2.365910912026219e+00
 2.820427312190821e-01	 1.524123321053880e+00	 2.578296349747602e+00
 0.000000000000000e+00	 1.543750000000000e+00	 1.526511851815401e+00
 2.738802686876320e-02	 1.543507032210754e+00	 1.547014762730874e+00
 5.496497310267084e-02	 1.542771180127244e+00	 1.575816249595903e+00
 8.271944766013817e-02	 1.541532210327667e+00	 1.617450811756900e+00
 1.106395329049107e-01	 1.539780164912228e+00	 1.676072774657770e+00
 1.387127884807424e-01	 1.537505390172795e+00	 1.755413842204489e+00
 1.669262568463302e-01	 1.534698565606357e+00	 1.858742136619193e+00
 1.952664705296475e-01	 1.531350733172163e+00	 1.988823194363146e+00
 2.237194611548049e-01	 1.527453326685476e+00	 2.147883396829994e+00
 2.522707702878091e-01	 1.522998201234385e+00	 2.337576319322638e+00
 2.809054621400988e-01	 1.517977662499874e+00	 2.558952480801375e+00
 0.000000000000000e+00	 1.537500000000000e+00	 1.508687526952535e+00
 2.727714416868172e-02	 1.537258015886001e+00	 1.520044064878906e+00
 5.474244284680149e-02	 1.536525142960685e+00	 1.541568742740903e+00
 8.238455111035238e-02	 1.535291189233105e+00	 1.577834104775119e+00
 1.101915995726201e-01	 1.533546237118850e+00	 1.633033330720380e+00
 1.381511982431737e-01	 1.531280671993624e+00	 1.710937769294122e+00
 1.662504420403923e-01	 1.528485211089250e+00	 1.814855933834645e+00
 1.944759180164281e-01	 1.525150932632342e+00	 1.947594425892628e+00
 2.228137143475212e-01	 1.521269305119077e+00	 2.111421262793964e+00
 2.512494311358489e-01	 1.516832216612895e+00	 2.308032090147168e+00
 2.797681930616299e-01	 1.511832003945867e+00	 2.538519759448578e+00
 0.000000000000000e+00	 1.531250000000000e+00	 1.490483258173319e+00
 2.716626146877978e-02	 1.531008999561249e+00	 1.492436692634317e+00
 5.451991259126441e-02	 1.530279105794125e+00	 1.506466621004872e+00
 8.204965456102423e-02	 1.529050168138542e+00	 1.537184703779577e+00
 1.097436662408843e-01	 1.527312309325471e+00	 1.588823939929675e+00
 1.375896080062285e-01	 1.525055953814453e+00	 1.665196172949484e+00
 1.655746272351171e-01	 1.522271856572142e+00	 1.769651034007856e+00
 1.936853655038808e-01	 1.518951132092522e+00	 1.905036785271224e+00
 2.219079675408883e-01	 1.515085283552680e+00	 2.073663536813541e+00
 2.502280919844873e-01	 1.510666231991405e+00	 2.277269315627844e+00
 2.786309239836759e-01	 1.505686345391861e+00	 2.516989464641373e+00
 0.000000000000000e+00	 1.525000000000000e+00	 1.471897159247724e+00
 2.705537876905735e-02	 1.524759983236496e+00	 1.464189248948239e+00
 5.429738233605964e-02	 1.524033068627566e+00	 1.470505143289196e+00
 8.171475801215373e-02	 1.522809147043980e+00	 1.495496696455047e+00
 1.092957329097035e-01	 1.521078381532092e+00	 1.543437697686219e+00
 1.370280177699069e-01	 1.518831235635283e+00	 1.618181341346957e+00
 1.648988124305048e-01	 1.516058502055033e+00	 1.723119109289980e+00
 1.928948129920054e-01	 1.512751331552702e+00	 1.861141525957062e+00
 2.210022207349064e-01	 1.508901261986281e+00	 2.034601257097939e+00
 2.492067528337243e-01	 1.504500247369916e+00	 2.245279028239003e+00
 2.774936549062365e-01	 1.499540686837854e+00	 2.494352838641305e+00
 0.000000000000000e+00	 1.518750000000000e+00	 1.452927312897133e+00
 2.694449606951444e-02	 1.518510966911743e+00	 1.435298283230422e+00
 5.407485208118717e-02	 1.517787031461007e+00	 1.433679497016942e+00
 8.137986146374093e-02	 1.516568125949418e+00	 1.452764085747059e+00
 1.088477995790776e-01	 1.514844453738713e+00	 1.496867606190375e+00
 1.364664275342087e-01	 1.512606517456113e+00	 1.569885465912336e+00
 1.642229976265553e-01	 1.509845147537926e+00	 1.675251736546938e+00
 1.921042604808023e-01	 1.506551531012881e+00	 1.815899812703485e+00
 2.200964739295753e-01	 1.502717240419883e+00	 1.994225384933316e+00
 2.481854136835598e-01	 1.498334262748426e+00	 2.212052200596132e+00
 2.763563858293117e-01	 1.493395028283848e+00	 2.470601086266033e+00
 0.000000000000000e+00	 1.512500000000000e+00	 1.433571770152010e+00
 2.683361337015107e-02	 1.512261950586990e+00	 1.405760290245436e+00
 5.385232182664700e-02	 1.511540994294447e+00	 1.395984796655002e+00
 8.104496491578574e-02	 1.510327104854855e+00	 1.408980788112726e+00
 1.083998662490067e-01	 1.508610525945335e+00	 1.449106572517284e+00
 1.359048372991341e-01	 1.506381799276942e+00	 1.520300639321835e+00
 1.635471828232684e-01	 1.503631793020817e+00	 1.626040395391644e+00
 1.913137079702712e-01	 1.500351730473061e+00	 1.769302719724601e+00
 2.191907271248951e-01	 1.496533218853486e+00	 1.952526803092706e+00
 2.471640745339940e-01	 1.492168278126937e+00	 2.177579744218642e+00
 2.752191167529016e-01	 1.487249369729842e+00	 2.445725374114606e+00
 0.000000000000000e+00	 1.506250000000000e+00	 1.413828549695096e+00
 2.672273067096722e-02	 1.506012934262237e+00	 1.375571708976089e+00
 5.362979157243913e-02	 1.505294957127888e+00	 1.357416082201786e+00
 8.071006836828819e-02	 1.504086083760293e+00	 1.364140631724891e+00
 1.079519329194907e-01	 1.502376598151956e+00	 1.400147406641657e+00
 1.353432470646830e-01	 1.500157081097771e+00	 1.469418853453295e+00
 1.628713680206444e-01	 1.497418438503710e+00	 1.575476466164755e+00
 1.905231554604121e-01	 1.494151929933241e+00	 1.721341228818379e+00
 2.182849803208658e-01	 1.490349197287087e+00	 1.909496314207691e+00
 2.461427353850268e-01	 1.486002293505447e+00	 2.141852508260541e+00
 2.740818476770061e-01	 1.481103711175835e+00	 2.419716829774470e+00
 0.000000000000000e+00	 1.500000000000000e+00	 1.393695637186603e+00
 2.661184797196288e-02	 1.499763917937484e+00	 1.344728921464617e+00
 5.340726131856352e-02	 1.499048919961328e+00	 1.317968317634803e+00
 8.037517182124829e-02	 1.497845062665730e+00	 1.318237354633725e+00
 1.075039995905296e-01	 1.496142670358577e+00	 1.349982819417037e+00
 1.347816568308554e-01	 1.493932362918601e+00	 1.417231997285194e+00
 1.621955532186831e-01	 1.491205083986601e+00	 1.523551227868443e+00
 1.897326029512252e-01	 1.487952129393420e+00	 1.672006227441332e+00
 2.173792335174873e-01	 1.484165175720690e+00	 1.865124639098449e+00
 2.451213962366581e-01	 1.479836308883957e+00	 2.104861278213305e+00
 2.729445786016254e-01	 1.474958052621829e+00	 2.392566541009888e+00
 2.843172693785931e-01	 1.536414638161894e+00	 2.613752235569545e+00
 3.133685778110481e-01	 1.530753531557268e+00	 2.804719814994109e+00
 3.424726933753939e-01	 1.524506040664233e+00	 3.019368922719852e+00
 3.716131467800383e-01	 1.517665920720555e+00	 3.256120150707312e+00
 4.007730562774552e-01	 1.510227498133118e+00	 3.512713185498932e+00
 4.299351501958268e-01	 1.502185697666641e+00	 3.786203799368026e+00
 4.590817913893566e-01	 1.493536068709189e+00	 4.072966964451805e+00
 4.881950035752856e-01	 1.484274810467774e+00	 4.368706360613485e+00
 5.172564995135125e-01	 1.474398795947250e+00	 4.668470488286427e+00
 5.462477109723490e-01	 1.463905594566634e+00	 4.966675531713450e+00
 5.751498204114305e-01	 1.452793493269105e+00	 5.257135046446413e+00
 2.831800002985802e-01	 1.530268979607887e+00	 2.596560051383256e+00
 3.121151034976095e-01	 1.524630517429441e+00	 2.797419349140892e+00
 3.411028025999496e-01	 1.518408016499822e+00	 3.018267609525131e+00
 3.701266941911736e-01	 1.511595257035847e+00	 3.257545327564753e+00
 3.991699640507450e-01	 1.504186588138773e+00	 3.513032076053213e+00
 4.282154095935320e-01	 1.496176954874263e+00	 3.781843902811208e+00
 4.572454642223203e-01	 1.487561924432829e+00	 4.060436731237958e+00
 4.862422235594811e-01	 1.478337711224659e+00	 4.344616027505697e+00
 5.151874735138727e-01	 1.468501200762586e+00	 4.629552939177914e+00
 5.440627201267335e-01	 1.458049972187953e+00	 4.909807045228871e+00
 5.728492211278584e-01	 1.446982319296167e+00	 5.179355787036831e+00
 2.820427312190821e-01	 1.524123321053880e+00	 2.578296349747602e+00
 3.108616291845948e-01	 1.518507503301614e+00	 2.789001012628935e+00
 3.397329118248572e-01	 1.512309992335412e+00	 3.015996749937429e+00
 3.686402416026083e-01	 1.505524593351139e+00	 3.257743228119199e+00
 3.975668718243004e-01	 1.498145678144428e+00	 3.512059110019185e+00
 4.264956689914889e-01	 1.490168212081885e+00	 3.776119860252753e+00
 4.554091370555421e-01	 1.481587780156469e+00	 4.046461434839349e+00
 4.842894435439616e-01	 1.472400611981543e+00	 4.318990111088953e+00
 5.131184475145656e-01	 1.462603605577921e+00	 4.588998656046377e+00
 5.418777292815181e-01	 1.452194349809271e+00	 4.851188968036634e+00
 5.705486218447761e-01	 1.441171145323229e+00	 5.099701256592859e+00
 2.809054621400988e-01	 1.517977662499874e+00	 2.558952480801375e+00
 3.096081548720040e-01	 1.512384489173787e+00	 2.779453954609335e+00
 3.383630210501168e-01	 1.506211968171001e+00	 3.012542915349604e+00
 3.671537890143418e-01	 1.499453929666431e+00	 3.256697470122752e+00
 3.959637795981215e-01	 1.492104768150083e+00	 3.509774577668924e+00
 4.247759283896978e-01	 1.484159469289506e+00	 3.769008263865503e+00
 4.535728098890222e-01	 1.475613635880110e+00	 4.031013603134073e+00
 4.823366635287270e-01	 1.466463512738428e+00	 4.291796714381446e+00
 5.110494215155904e-01	 1.456706010393257e+00	 4.546770963334700e+00
 5.396927384367032e-01	 1.446338727430589e+00	 4.790779500356944e+00
 5.682480225621834e-01	 1.435359971350291e+00	 5.018124194744133e+00
 2.797681930616299e-01	 1.511832003945867e+00	 2.538519759448578e+00
 3.083546805598374e-01	 1.506261475045960e+00	 2.768767273685076e+00
 3.369931302757285e-01	 1.500113944006590e+00	 3.007892606861962e+00
 3.656673364263746e-01	 1.493383265981723e+00	 3.254391576818788e+00
 3.943606873722083e-01	 1.486063858155739e+00	 3.506158646045599e+00
 4.230561877881586e-01	 1.478150726497128e+00	 3.760485549349699e+00
 4.517364827227605e-01	 1.469639491603750e+00	 4.014065569742105e+00
 4.803838835137773e-01	 1.460526413495312e+00	 4.263003703819706e+00
 5.089803955169475e-01	 1.450808415208592e+00	 4.502832902049169e+00
 5.375077475922888e-01	 1.440483105051908e+00	 4.728536507608901e+00
 5.659474232800804e-01	 1.429548797377353e+00	 4.934576950475986e+00
 2.786309239836759e-01	 1.505686345391861e+00	 2.516989464641373e+00
 3.071012062480946e-01	 1.500138460918133e+00	 2.756930016879565e+00
 3.356232395016923e-01	 1.494015919842179e+00	 3.002032253848310e+00
 3.641808838387064e-01	 1.487312602297014e+00	 3.250808975015820e+00
 3.927575951465606e-01	 1.480022948161394e+00	 3.501191356451611e+00
 4.213364471868712e-01	 1.472141983704749e+00	 3.750527992738874e+00
 4.499001555567569e-01	 1.463665347327390e+00	 3.995589470062564e+00
 4.784311034991122e-01	 1.454589314252196e+00	 4.232578704429534e+00
 5.069113695186367e-01	 1.444910820023928e+00	 4.457147223974577e+00
 5.353227567482747e-01	 1.434627482673227e+00	 4.664417513578094e+00
 5.636468239984674e-01	 1.423737623404415e+00	 4.849011474158784e+00
 2.774936549062365e-01	 1.499540686837854e+00	 2.494352838641305e+00
 3.058477319367760e-01	 1.494015446790306e+00	 2.743931178578710e+00
 3.342533487280078e-01	 1.487917895677767e+00	 2.994948212486745e+00
 3.626944312513374e-01	 1.481241938612306e+00	 3.245932993108746e+00
 3.911545029211785e-01	 1.473982038167049e+00	 3.494852621870113e+00
 4.196167065858359e-01	 1.466133240912371e+00	 3.739111707128044e+00
 4.480638283910117e-01	 1.457691203051031e+00	 3.975557237209953e+00
 4.764783234847324e-01	 1.448652215009081e+00	 4.200489094879604e+00
 5.048423435206580e-01	 1.439013224839264e+00	 4.409676385748162e+00
 5.331377659046610e-01	 1.428771860294546e+00	 4.598379693414037e+00
 5.613462247173440e-01	 1.417926449431477e+00	 4.761379309378187e+00
 2.763563858293117e-01	 1.493395028283848e+00	 2.470601086266033e+00
 3.045942576258812e-01	 1.487892432662479e+00	 2.729759699449943e+00
 3.328834579546756e-01	 1.481819871513357e+00	 2.986626764252184e+00
 3.612079786642676e-01	 1.475171274927598e+00	 3.239746859055498e+00
 3.895514106960621e-01	 1.467941128172704e+00	 3.487122224325552e+00
 4.178969659850523e-01	 1.460124498119993e+00	 3.726212639321703e+00
 4.462275012255246e-01	 1.451717058774671e+00	 3.953940597852703e+00
 4.745255434706371e-01	 1.442715115765965e+00	 4.166702002413126e+00
 5.027733175230117e-01	 1.433115629654599e+00	 4.360382542785836e+00
 5.309527750614477e-01	 1.422916237915864e+00	 4.530379866458633e+00
 5.590456254367102e-01	 1.412115275458539e+00	 4.671631584566308e+00
 2.752191167529016e-01	 1.487249369729842e+00	 2.445725374114606e+00
 3.033407833154104e-01	 1.481769418534652e+00	 2.714404465330360e+00
 3.315135671816954e-01	 1.475721847348946e+00	 2.977054114373755e+00
 3.597215260774967e-01	 1.469100611242889e+00	 3.232233698301548e+00
 3.879483184712112e-01	 1.461900218178359e+00	 3.477979812177563e+00
 4.161772253845208e-01	 1.454115755327615e+00	 3.711806566397605e+00
 4.443911740602958e-01	 1.445742914498312e+00	 3.930711067947665e+00
 4.725727634568269e-01	 1.436778016522849e+00	 4.131184297651306e+00
 5.007042915256975e-01	 1.427218034469935e+00	 4.309227543059039e+00
 5.287677842186348e-01	 1.417060615537183e+00	 4.460374488894288e+00
 5.567450261565662e-01	 1.406304101485601e+00	 4.579719004423433e+00
 2.740818476770061e-01	 1.481103711175835e+00	 2.419716829774470e+00
 3.020873090053637e-01	 1.475646404406825e+00	 2.697854306090405e+00
 3.301436764090671e-01	 1.469623823184535e+00	 2.966216390253359e+00
 3.582350734910251e-01	 1.463029947558181e+00	 3.223376531652235e+00
 3.863452262466261e-01	 1.455859308184015e+00	 3.467404897347542e+00
 4.144574847842410e-01	 1.448107012535236e+00	 3.695869092185139e+00
 4.425548468953251e-01	 1.439768770221952e+00	 3.905839948368997e+00
 4.706199834433016e-01	 1.430840917279734e+00	 4.093902589271146e+00
 4.986352655287156e-01	 1.421320439285270e+00	 4.256172920716052e+00
 5.265827933762222e-01	 1.411204993158501e+00	 4.388319646208819e+00
 5.544444268769118e-01	 1.400492927512663e+00	 4.485591841127378e+00
 2.729445786016254e-01	 1.474958052621829e+00	 2.392566541009888e+00
 3.008338346957408e-01	 1.469523390278998e+00	 2.680097994466644e+00
 3.287737856367907e-01	 1.463525799020123e+00	 2.954099639843316e+00
 3.567486209048524e-01	 1.456959283873473e+00	 3.213158273094251e+00
 3.847421340223064e-01	 1.449818398189669e+00	 3.455376852477163e+00
 4.127377441842129e-01	 1.442098269742858e+00	 3.678375643656912e+00
 4.407185197306125e-01	 1.433794625945592e+00	 3.879298320425965e+00
 4.686672034300611e-01	 1.424903818036619e+00	 4.054823218546554e+00
 4.965662395320658e-01	 1.415422844100606e+00	 4.201179889544383e+00
 5.243978025342101e-01	 1.405349370779820e+00	 4.314171045473108e+00
 5.521438275977473e-01	 1.394681753539725e+00	 4.389199925321839e+00
 5.751498204114305e-01	 1.452793493269105e+00	 5.257135046446409e+00
 6.039430373547219e-01	 1.441061819925233e+00	 5.681242565581873e+00
 6.326088594126902e-01	 1.428710075636110e+00	 6.052032895763215e+00
 6.611279268955733e-01	 1.415738809835725e+00	 6.324973175673030e+00
 6.894807729561468e-01	 1.402149356104025e+00	 6.600597284695407e+00
 7.176478623919178e-01	 1.387943843742511e+00	 6.875807557897598e+00
 7.456096314940183e-01	 1.373125207090741e+00	 7.147432575273136e+00
 7.733465287919971e-01	 1.357697192487557e+00	 7.412255219923862e+00
 8.008390565343244e-01	 1.341664362792192e+00	 7.667042104518764e+00
 8.280678127359949e-01	 1.325032099392725e+00	 7.908574103961781e+00
 8.550135336172382e-01	 1.307806601642550e+00	 8.133677709771975e+00
 5.728492211278584e-01	 1.446982319296167e+00	 5.179355787036831e+00
 6.015272652032084e-01	 1.435297572646213e+00	 5.582211969204426e+00
 6.300784239729016e-01	 1.422995235334677e+00	 5.951377111723511e+00
 6.584834151859352e-01	 1.410075854597807e+00	 6.217924094059780e+00
 6.867228498624766e-01	 1.396540758681231e+00	 6.496274740598722e+00
 7.147772709408429e-01	 1.382392068369241e+00	 6.783256420733828e+00
 7.426271929670025e-01	 1.367632706264038e+00	 7.075588135644290e+00
 7.702531426763880e-01	 1.352266403719105e+00	 7.369908080427120e+00
 7.976357003084757e-01	 1.336297705342238e+00	 7.662802741746075e+00
 8.247555414862010e-01	 1.319731970995964e+00	 7.950837276689311e+00
 8.515934794849132e-01	 1.302575375236261e+00	 8.230586894919487e+00
 5.705486218447761e-01	 1.441171145323229e+00	 5.099701256592859e+00
 5.991114930522706e-01	 1.429533325367199e+00	 5.481998852502057e+00
 6.275479885337449e-01	 1.417280395033262e+00	 5.850710562491920e+00
 6.558389034769571e-01	 1.404412899359933e+00	 6.111634919229916e+00
 6.839649267694639e-01	 1.390932161258515e+00	 6.393556633129709e+00
 7.119066794903937e-01	 1.376840292996094e+00	 6.693226797577262e+00
 7.396447544405512e-01	 1.362140205437511e+00	 7.007253313982416e+00
 7.671597565612508e-01	 1.346835614950893e+00	 7.332127961055864e+00
 7.944323440829759e-01	 1.330931047892599e+00	 7.664255167964495e+00
 8.214432702366022e-01	 1.314431842599602e+00	 7.999982244799652e+00
 8.481734253525984e-01	 1.297344148830467e+00	 8.335630799005507e+00
 5.682480225621834e-01	 1.435359971350291e+00	 5.018124194744132e+00
 5.966957209019079e-01	 1.423769078088189e+00	 5.380560278952940e+00
 6.250175530952203e-01	 1.411565554731868e+00	 5.750011872318545e+00
 6.531943917686389e-01	 1.398749944122103e+00	 6.006091660267032e+00
 6.812070036771092e-01	 1.385323563835876e+00	 6.292437243486674e+00
 7.090360880405706e-01	 1.371288517623069e+00	 6.605722124991692e+00
 7.366623159146635e-01	 1.356647704611160e+00	 6.942441579185088e+00
 7.640663704465850e-01	 1.341404826182923e+00	 7.298939231449361e+00
 7.912289878578249e-01	 1.325564390443276e+00	 7.671435511105184e+00
 8.181309989871984e-01	 1.309131714203641e+00	 8.056057738904302e+00
 8.447533712202945e-01	 1.292112922425167e+00	 8.448871584246517e+00
 5.659474232800804e-01	 1.429548797377353e+00	 4.934576950475986e+00
 5.942799487521206e-01	 1.418004830809184e+00	 5.277853025512464e+00
 6.224871176573282e-01	 1.405850714430493e+00	 5.637384195874561e+00
 6.505498800609802e-01	 1.393086988884315e+00	 5.901280291973073e+00
 6.784490805854121e-01	 1.379714966413315e+00	 6.192910966578163e+00
 7.061654965913734e-01	 1.365736742250165e+00	 6.520746115670461e+00
 7.336798773893400e-01	 1.351155203784985e+00	 6.881166852966427e+00
 7.609729843323911e-01	 1.335974037415192e+00	 7.270366904818335e+00
 7.880256316330223e-01	 1.320197732994267e+00	 7.684380747257174e+00
 8.148187277379899e-01	 1.303831585808079e+00	 8.119113555912957e+00
 8.413333170880011e-01	 1.286881696020362e+00	 8.570372710539100e+00
 5.636468239984674e-01	 1.423737623404415e+00	 4.849011474158784e+00
 5.918641766029088e-01	 1.412240583530184e+00	 5.173833576764531e+00
 6.199566822200682e-01	 1.400135874129137e+00	 5.524152896519208e+00
 6.479053683539814e-01	 1.387424033646572e+00	 5.797186754169875e+00
 6.756911574943729e-01	 1.374106368990832e+00	 6.094972313342040e+00
 7.032949051428020e-01	 1.360184966877384e+00	 6.438302764071332e+00
 7.306974388645807e-01	 1.345662702958988e+00	 6.823443519097374e+00
 7.578795982186687e-01	 1.330543248647703e+00	 7.246436651078937e+00
 7.848222754085689e-01	 1.314831075545574e+00	 7.703128717974627e+00
 8.115064564889767e-01	 1.298531457412917e+00	 8.189200580793958e+00
 8.379132629557183e-01	 1.281650469616052e+00	 8.700198961942858e+00
 5.613462247173440e-01	 1.417926449431477e+00	 4.761379309378192e+00
 5.894484044542724e-01	 1.406476336251189e+00	 5.068458118929201e+00
 6.174262467834404e-01	 1.394421033827800e+00	 5.410361146115553e+00
 6.452608566476424e-01	 1.381761078408873e+00	 5.693796950981210e+00
 6.729332344039918e-01	 1.368497771568427e+00	 5.998615913125309e+00
 7.004243136948570e-01	 1.354633191504724e+00	 6.358396352189638e+00
 7.277150003403851e-01	 1.340170202133165e+00	 6.769286432874619e+00
 7.547862121054181e-01	 1.325112459880453e+00	 7.227174810309254e+00
 7.816189191844641e-01	 1.309464418097196e+00	 7.727718148014119e+00
 8.081941852401585e-01	 1.293231329018155e+00	 8.266370808871478e+00
 8.344932088234462e-01	 1.276419243212237e+00	 8.838416473815997e+00
 5.590456254367102e-01	 1.412115275458539e+00	 4.671631584566312e+00
 5.870326323062114e-01	 1.400712088972198e+00	 4.961682533726414e+00
 6.148958113474446e-01	 1.388706193526482e+00	 5.295970498288610e+00
 6.426163449419634e-01	 1.376098123171217e+00	 5.591096750098673e+00
 6.701753113142684e-01	 1.362889174146101e+00	 5.903836516118631e+00
 6.975537222475379e-01	 1.349081416132187e+00	 6.281031455476406e+00
 7.247325618167538e-01	 1.334677701307520e+00	 6.718710930822848e+00
 7.516928259926393e-01	 1.319681671113445e+00	 7.212608406539768e+00
 7.784155629607080e-01	 1.304097760649133e+00	 7.758188663505957e+00
 8.048819139915353e-01	 1.287931200623792e+00	 8.350677368671434e+00
 8.310731546911847e-01	 1.271188016808916e+00	 8.985092760618475e+00
 5.567450261565662e-01	 1.406304101485601e+00	 4.579719004423433e+00
 5.846168601587255e-01	 1.394947841693213e+00	 4.853462392081982e+00
 6.123653759120812e-01	 1.382991353225184e+00	 5.180942324736111e+00
 6.399718332369438e-01	 1.370435167933604e+00	 5.489071982029770e+00
 6.674173882252027e-01	 1.357280576723852e+00	 5.810628995854524e+00
 6.946831308008447e-01	 1.343529640759772e+00	 6.206212948899763e+00
 7.217501232936864e-01	 1.329185200482050e+00	 6.671732840636865e+00
 7.485994398803321e-01	 1.314250882346677e+00	 7.202765161883574e+00
 7.752122067373008e-01	 1.298731103201385e+00	 7.794580810578561e+00
 8.015696427431073e-01	 1.282631072229829e+00	 8.442174545335407e+00
 8.276531005589337e-01	 1.265956790406090e+00	 9.140296744406980e+00
 5.544444268769118e-01	 1.400492927512663e+00	 4.485591841127382e+00
 5.822010880118151e-01	 1.389183594414232e+00	 4.743752947680572e+00
 6.098349404773498e-01	 1.377276512923906e+00	 5.065237811454141e+00
 6.373273215325841e-01	 1.364772212696035e+00	 5.387708439324703e+00
 6.646594651367946e-01	 1.351671979301680e+00	 5.718988351764974e+00
 6.918125393547775e-01	 1.337977865387479e+00	 6.133946013159986e+00
 7.187676847711829e-01	 1.323692699656757e+00	 6.628368491372827e+00
 7.455060537684963e-01	 1.308820093580150e+00	 7.197673511020337e+00
 7.720088505142423e-01	 1.293364445753952e+00	 7.836936074444604e+00
 7.982573714948745e-01	 1.277330943836267e+00	 8.540917804616948e+00
 8.242330464266935e-01	 1.260725564003759e+00	 9.304098784037548e+00
 5.521438275977473e-01	 1.394681753539725e+00	 4.389199925321839e+00
 5.797853158654803e-01	 1.383419347135256e+00	 4.632509130356969e+00
 6.073045050432507e-01	 1.371561672622646e+00	 4.948817954869282e+00
 6.346828098288844e-01	 1.359109257458510e+00	 5.286991875787448e+00
 6.619015420490447e-01	 1.346063381879586e+00	 5.628909711804979e+00
 6.889419479093360e-01	 1.332426090015308e+00	 6.064236141058654e+00
 7.157852462492434e-01	 1.318200198831640e+00	 6.588634723891839e+00
 7.424126676571323e-01	 1.303389304813863e+00	 7.197362616040249e+00
 7.688054942915323e-01	 1.287997788306834e+00	 7.885296898966676e+00
 7.949451002468365e-01	 1.272030815443104e+00	 8.646963817476450e+00
 8.208129922944636e-01	 1.255494337601922e+00	 9.476570705098933e+00
 8.550135336172382e-01	 1.307806601642550e+00	 8.133677709771975e+00
 8.816578016690023e-01	 1.289994443622846e+00	 9.151581336236658e+00
 9.079810573365499e-01	 1.271603901040402e+00	 1.027232455085115e+01
 9.339647061687287e-01	 1.252643598014911e+00	 1.148880812525814e+01
 9.595904619212839e-01	 1.233122947981431e+00	 1.111983043317992e+01
 9.848403881424443e-01	 1.213052139886644e+00	 1.065609377138228e+01
 1.009696939009092e+00	 1.192442121770408e+00	 1.036909410043332e+01
 1.034142999222465e+00	 1.171304581781001e+00	 1.025724539745276e+01
 1.058161922776024e+00	 1.149651926688328e+00	 1.031816580431842e+01
 1.081737570413281e+00	 1.127497257974966e+00	 1.054868093763572e+01
 1.104854345600000e+00	 1.104854345600000e+00	 1.094483219445476e+01
 8.515934794849132e-01	 1.302575375236261e+00	 8.230586894919490e+00
 8.781311704654284e-01	 1.284834465848125e+00	 9.315393380088329e+00
 9.043491331110599e-01	 1.266517485435658e+00	 1.049654547033039e+01
 9.302288473484583e-01	 1.247633023622076e+00	 1.152197380431024e+01
 9.557521000783445e-01	 1.228190456188699e+00	 1.094391288259328e+01
 9.809010265947531e-01	 1.208199931326420e+00	 1.053565456219254e+01
 1.005658151257858e+00	 1.187672353282941e+00	 1.029655359152170e+01
 1.030006427230092e+00	 1.166619363453945e+00	 1.022520191102844e+01
 1.053929275088941e+00	 1.145053318982258e+00	 1.031942641872244e+01
 1.077410620134944e+00	 1.122987268944527e+00	 1.057629151972546e+01
 1.100434928220000e+00	 1.100434928220000e+00	 1.099210649790371e+01
 8.481734253525984e-01	 1.297344148830467e+00	 8.335630799005504e+00
 8.746045392616848e-01	 1.279674488073984e+00	 9.486935775840617e+00
 9.007172088852592e-01	 1.261431069831551e+00	 1.072803203904784e+01
 9.264929885277753e-01	 1.242622449229904e+00	 1.128392671161015e+01
 9.519137382349308e-01	 1.223257964396623e+00	 1.076834629284557e+01
 9.769616650465660e-01	 1.203347722766820e+00	 1.041479942986281e+01
 1.001619363506147e+00	 1.182902584796032e+00	 1.022278888954530e+01
 1.025869855237300e+00	 1.161934145127353e+00	 1.019108610489548e+01
 1.049696627401538e+00	 1.140454711276527e+00	 1.031772835228130e+01
 1.073083669856426e+00	 1.118477279914273e+00	 1.060002053480547e+01
 1.096015510840000e+00	 1.096015510840000e+00	 1.103454161372684e+01
 8.447533712202945e-01	 1.292112922425167e+00	 8.448871584246522e+00
 8.710779080577713e-01	 1.274514510300423e+00	 9.666264065644706e+00
 8.970852846591471e-01	 1.256344654228079e+00	 1.096683253620173e+01
 9.227571297066799e-01	 1.237611874838393e+00	 1.104703121377196e+01
 9.480753763910428e-01	 1.218325472605206e+00	 1.059319967613100e+01
 9.730223034978829e-01	 1.198495514207843e+00	 1.029358916500286e+01
 9.975805757539580e-01	 1.178132816309683e+00	 1.014785190962177e+01
 1.021733283244090e+00	 1.157248926801225e+00	 1.015494037959403e+01
 1.045463979713816e+00	 1.135856103571137e+00	 1.031310386846190e+01
 1.068756719577729e+00	 1.113967290884204e+00	 1.061988950507844e+01
 1.091596093460000e+00	 1.091596093460000e+00	 1.107214773863403e+01
 8.413333170880011e-01	 1.286881696020362e+00	 8.570372710539100e+00
 8.675512768536876e-01	 1.269354532527441e+00	 9.853434994371835e+00
 8.934533604327241e-01	 1.251258238625242e+00	 1.121299633793629e+01
 9.190212708851717e-01	 1.232601300447543e+00	 1.081136485815128e+01
 9.442370145466800e-01	 1.213392980814446e+00	 1.041854289820242e+01
 9.690829419487037e-01	 1.193643305649489e+00	 1.017208527453898e+01
 9.935417880012916e-01	 1.173363047823893e+00	 1.007179513587048e+01
 1.017596711250460e+00	 1.152563708475562e+00	 1.011680754753436e+01
 1.041231332025775e+00	 1.131257495866086e+00	 1.030558547593287e+01
 1.064429769298851e+00	 1.109457301854319e+00	 1.063592002205029e+01
 1.087176676080000e+00	 1.087176676080000e+00	 1.110493495383971e+01
 8.379132629557183e-01	 1.281650469616052e+00	 8.700198961942853e+00
 8.640246456494346e-01	 1.264194554755040e+00	 1.004850653415815e+01
 8.898214362059901e-01	 1.246171823023041e+00	 1.104744524214195e+01
 9.152854120632511e-01	 1.227590726057355e+00	 1.057700619261657e+01
 9.403986527018435e-01	 1.208460489024344e+00	 1.024444669579060e+01
 9.651435803990287e-01	 1.188791097091759e+00	 1.005034999633192e+01
 9.895030002481479e-01	 1.168593279338662e+00	 9.994671633024446e+00
 1.013460139256413e+00	 1.147878490150364e+00	 1.007673084140204e+01
 1.036998684337414e+00	 1.126658888161375e+00	 1.029520593356893e+01
 1.060102819019794e+00	 1.104947312824620e+00	 1.064813374794437e+01
 1.082757258700000e+00	 1.082757258700000e+00	 1.113291322270617e+01
 8.344932088234462e-01	 1.276419243212237e+00	 8.838416473815997e+00
 8.604980144450114e-01	 1.259034576983219e+00	 1.025153790955526e+01
 8.861895119789451e-01	 1.241085407421475e+00	 1.074689778389291e+01
 9.115495532409181e-01	 1.222580151667829e+00	 1.034403478605013e+01
 9.365602908565326e-01	 1.203527997234899e+00	 1.007098269445284e+01
 9.612042188488573e-01	 1.183938888534652e+00	 9.928446314155039e+00
 9.854642124945269e-01	 1.163823510853989e+00	 9.916535058328623e+00
 1.009323567261946e+00	 1.143193271825631e+00	 1.003475392277049e+01
 1.032766036648734e+00	 1.122060280457004e+00	 1.028199825557755e+01
 1.055775868740557e+00	 1.100437323795106e+00	 1.065655241715103e+01
 1.078337841320000e+00	 1.078337841320000e+00	 1.115609238832858e+01
 8.310731546911847e-01	 1.271188016808916e+00	 8.985092760618478e+00
 8.569713832404185e-01	 1.253874599211977e+00	 1.046258962329873e+01
 8.825575877515892e-01	 1.235998991820545e+00	 1.044853368959307e+01
 9.078136944181722e-01	 1.217569577278963e+00	 1.011253124935818e+01
 9.327219290107472e-01	 1.198595505446112e+00	 9.898223426860550e+00
 9.572648572981904e-01	 1.179086679978168e+00	 9.806437973042783e+00
 9.814254247404278e-01	 1.159053742369876e+00	 9.837439673731142e+00
 1.005186995267061e+00	 1.138508053501362e+00	 9.990920890925349e+00
 1.028533388959734e+00	 1.117461672752973e+00	 1.026599571675312e+01
 1.051448918461140e+00	 1.095927334765777e+00	 1.066119783771211e+01
 1.073918423940000e+00	 1.073918423940000e+00	 1.117448217105998e+01
 8.276531005589337e-01	 1.265956790406090e+00	 9.140296744406985e+00
 8.534447520356561e-01	 1.248714621441316e+00	 1.053436760706242e+01
 8.789256635239225e-01	 1.230912576220251e+00	 1.015244211683788e+01
 9.040778355950136e-01	 1.212559002890760e+00	 9.882577256998795e+00
 9.288835671644879e-01	 1.193663013657982e+00	 9.726242351542551e+00
 9.533254957470275e-01	 1.174234471422308e+00	 9.684389495018880e+00
 9.773866369858519e-01	 1.154283973886322e+00	 9.757440358377108e+00
 1.001050423271758e+00	 1.133822835177557e+00	 9.945276291908431e+00
 1.024300741270415e+00	 1.112863065049282e+00	 1.024723185786078e+01
 1.047121968181543e+00	 1.091417345736633e+00	 1.066209189284272e+01
 1.069499006560000e+00	 1.069499006560000e+00	 1.118809216597580e+01
 8.242330464266935e-01	 1.260725564003759e+00	 9.304098784037548e+00
 8.499181208307234e-01	 1.243554643671235e+00	 1.016692531785698e+01
 8.752937392959445e-01	 1.225826160620592e+00	 9.858713437767774e+00
 9.003419767714428e-01	 1.207548428503217e+00	 9.654255569048793e+00
 9.250452053177540e-01	 1.188730521870509e+00	 9.555113872092466e+00
 9.493861341953684e-01	 1.169382262867071e+00	 9.562366195216615e+00
 9.733478492307980e-01	 1.149514205403326e+00	 9.676592621413846e+00
 9.969138512760354e-01	 1.129137616854217e+00	 9.897865127786581e+00
 1.020068093580776e+00	 1.108264457345931e+00	 1.022574049115487e+01
 1.042795017901766e+00	 1.086907356707673e+00	 1.065925654249097e+01
 1.065079589180000e+00	 1.065079589180000e+00	 1.119693184027460e+01
 8.208129922944636e-01	 1.255494337601922e+00	 9.476570705098933e+00
 8.463914896256208e-01	 1.238394665901733e+00	 9.802624692369951e+00
 8.716618150676554e-01	 1.220739745021569e+00	 9.567439264373540e+00
 8.966061179474591e-01	 1.202537854116337e+00	 9.427650053819287e+00
 9.212068434705458e-01	 1.183798030083694e+00	 9.384913356858656e+00
 9.454467726432131e-01	 1.164530054312457e+00	 9.440434198401672e+00
 9.693090614752667e-01	 1.144744436920890e+00	 9.594952615115909e+00
 9.927772792798947e-01	 1.124452398531341e+00	 9.848732866152051e+00
 1.015835445890818e+00	 1.103665849642919e+00	 1.020155570603445e+01
 1.038468067621809e+00	 1.082397367678899e+00	 1.065271382493662e+01
 1.060660171800000e+00	 1.060660171800000e+00	 1.120101053061344e+01
 1.104854345600000e+00	 1.104854345600000e+00	 1.094483219445476e+01
 1.127497246456672e+00	 1.081737587964323e+00	 1.105400339752307e+01
 1.149651880750912e+00	 1.058161992828915e+00	 1.118805139737095e+01
 1.171304478742993e+00	 1.034143156462176e+00	 1.134696275847967e+01
 1.192441939189963e+00	 1.009697217803762e+00	 1.153047097805323e+01
 1.213051855580902e+00	 9.848408224936508e-01	 1.173805957490573e+01
 1.233122540044957e+00	 9.595910854157566e-01	 1.196896728688009e+01
 1.252643044837173e+00	 9.339655519316761e-01	 1.225087151825602e+01
 1.271603181322287e+00	 9.079821579867423e-01	 1.274869221339422e+01
 1.289993536392186e+00	 8.816591892757605e-01	 1.328721196326734e+01
 1.307805486268661e+00	 8.550152396594509e-01	 1.385941961516608e+01
 1.100434928220000e+00	 1.100434928220000e+00	 1.099210649790371e+01
 1.122987257472306e+00	 1.077410637615781e+00	 1.110198385625482e+01
 1.145053273228591e+00	 1.053929344861620e+00	 1.123692547930600e+01
 1.166619260828089e+00	 1.030006583840844e+00	 1.139691911744795e+01
 1.187672171432817e+00	 1.005658428937350e+00	 1.158169953054729e+01
 1.208199648157901e+00	 9.809014592085546e-01	 1.179075155646031e+01
 1.228190049883970e+00	 9.557527210788392e-01	 1.202331527960219e+01
 1.247632472657050e+00	 9.302296897283541e-01	 1.227839323425555e+01
 1.266516768596416e+00	 9.043502293586518e-01	 1.274764058589028e+01
 1.284833562246387e+00	 8.781325525217596e-01	 1.328413361446698e+01
 1.302574264323868e+00	 8.515951787029570e-01	 1.385522735066826e+01
 1.096015510840000e+00	 1.096015510840000e+00	 1.103454161372684e+01
 1.118477268488125e+00	 1.073083687267059e+00	 1.114509577718673e+01
 1.140454665706610e+00	 1.049696696894006e+00	 1.128092191341375e+01
 1.161934042913649e+00	 1.025870011219093e+00	 1.144200895204523e+01
 1.182902403676231e+00	 1.001619640070460e+00	 1.162809284043393e+01
 1.203347440735524e+00	 9.769620959229627e-01	 1.183865959241600e+01
 1.223257559723641e+00	 9.519143567414475e-01	 1.207295042906779e+01
 1.242621900477587e+00	 9.264938275246191e-01	 1.232996894657788e+01
 1.261430355871180e+00	 9.007183007302498e-01	 1.274208516892523e+01
 1.279673588101169e+00	 8.746059157675892e-01	 1.327666220625040e+01
 1.297343042379569e+00	 8.481751177464736e-01	 1.384675008005677e+01
 1.091596093460000e+00	 1.091596093460000e+00	 1.107214773863403e+01
 1.113967279504129e+00	 1.068756736918158e+00	 1.118334914262147e+01
 1.135856058184969e+00	 1.045464048926072e+00	 1.132005054955243e+01
 1.157248824999674e+00	 1.021733438596924e+00	 1.148224206184343e+01
 1.178132635920203e+00	 9.975808512030923e-01	 1.166966073920661e+01
 1.198495233313770e+00	 9.730227326368749e-01	 1.188179362830176e+01
 1.218325069563970e+00	 9.480759924035818e-01	 1.211788287671463e+01
 1.237611328298788e+00	 9.227579653204722e-01	 1.237693286682983e+01
 1.256343943146580e+00	 8.970863721015372e-01	 1.273195995188948e+01
 1.274513613956531e+00	 8.710792790132481e-01	 1.326473270266447e+01
 1.292111820435765e+00	 8.447550567900007e-01	 1.383392400003480e+01
 1.087176676080000e+00	 1.087176676080000e+00	 1.110493495383971e+01
 1.109457290520318e+00	 1.064429786569076e+00	 1.121675381583931e+01
 1.131257450663668e+00	 1.041231400957819e+00	 1.135432111696718e+01
 1.152563607086163e+00	 1.017596865974336e+00	 1.151762812614774e+01
 1.173362868164735e+00	 9.935420623352474e-01	 1.170641294037322e+01
 1.193643025892639e+00	 9.690833693502909e-01	 1.192016349586619e+01
 1.213392579404956e+00	 9.442376280652418e-01	 1.215812265631753e+01
 1.232600756120649e+00	 9.190221031159120e-01	 1.241929531419401e+01
 1.251257530422616e+00	 8.934544434725138e-01	 1.271719883440154e+01
 1.269353639812472e+00	 8.675526422587377e-01	 1.324827998970636e+01
 1.286880598492455e+00	 8.413349958335387e-01	 1.381668524278846e+01
 1.082757258700000e+00	 1.082757258700000e+00	 1.113291322270617e+01
 1.104947301536692e+00	 1.060102836219815e+00	 1.124531953866880e+01
 1.126658843142707e+00	 1.036998752989247e+00	 1.138374322182802e+01
 1.147878389173117e+00	 1.013460293351329e+00	 1.154817670154218e+01
 1.168593100409825e+00	 9.895032734669250e-01	 1.173835903704736e+01
 1.188790818472132e+00	 9.651440060632110e-01	 1.195377891075597e+01
 1.208460089246599e+00	 9.403992637264269e-01	 1.219367969179135e+01
 1.227590183943172e+00	 9.152862409109396e-01	 1.245706650616760e+01
 1.246171117699287e+00	 8.898225148431789e-01	 1.274271522789663e+01
 1.264193665668993e+00	 8.640260055040575e-01	 1.322723887373087e+01
 1.281649376549641e+00	 8.379149348770870e-01	 1.379496987466968e+01
 1.078337841320000e+00	 1.078337841320000e+00	 1.115609238832858e+01
 1.100437312553251e+00	 1.055775885870373e+00	 1.126905592899833e+01
 1.122060235622086e+00	 1.032766105020355e+00	 1.140832634470804e+01
 1.143193171260535e+00	 1.009323720727904e+00	 1.157389721937537e+01
 1.163823332655475e+00	 9.854644845981251e-01	 1.176550849948229e+01
 1.183938611052248e+00	 9.612046427756348e-01	 1.198264947013629e+01
 1.203527599088901e+00	 9.365608993871380e-01	 1.222456379493992e+01
 1.222579611766356e+00	 9.115503787055547e-01	 1.249025655647744e+01
 1.241084704976595e+00	 8.861905862135332e-01	 1.277850321222259e+01
 1.259033691526095e+00	 8.604993687492075e-01	 1.320154407981836e+01
 1.276418154607321e+00	 8.344948739206463e-01	 1.376871389484772e+01
 1.073918423940000e+00	 1.073918423940000e+00	 1.117448217105998e+01
 1.095927323569995e+00	 1.051448935520752e+00	 1.128797247822595e+01
 1.117461628101804e+00	 1.028533457051144e+00	 1.142807983799941e+01
 1.138507953348418e+00	 1.005187148104061e+00	 1.159479898318310e+01
 1.159053564901683e+00	 9.814256957288476e-01	 1.178787067254184e+01
 1.179086403632987e+00	 9.572652794875632e-01	 1.200678465025331e+01
 1.198595108931858e+00	 9.327225350473751e-01	 1.225078466314888e+01
 1.217569039590202e+00	 9.078145164997570e-01	 1.251887547294571e+01
 1.235998292254537e+00	 8.825586575835763e-01	 1.280983177877757e+01
 1.253873717383776e+00	 8.569727319941877e-01	 1.317113025010234e+01
 1.271186932665496e+00	 8.310748129642158e-01	 1.373785323392637e+01
 1.069499006560000e+00	 1.069499006560000e+00	 1.118809216597580e+01
 1.091417334586924e+00	 1.047121985170951e+00	 1.130207854864537e+01
 1.112863020581863e+00	 1.024300809081613e+00	 1.144301292326441e+01
 1.133822735436766e+00	 1.001050575479798e+00	 1.161089116604780e+01
 1.154283797148451e+00	 9.773869068590927e-01	 1.180545477311082e+01
 1.174234196214350e+00	 9.533259161989953e-01	 1.202619380393560e+01
 1.193662618775475e+00	 9.288841707071376e-01	 1.227235187702169e+01
 1.212558467414709e+00	 9.040786542935466e-01	 1.254293315530120e+01
 1.230911879533116e+00	 8.789267289533086e-01	 1.283671123711635e+01
 1.248713743242037e+00	 8.534460952389979e-01	 1.315223984811381e+01
 1.265955710724165e+00	 8.276547520077958e-01	 1.370232375252740e+01
 1.065079589180000e+00	 1.065079589180000e+00	 1.119693184027460e+01
 1.086907345604037e+00	 1.042795034820970e+00	 1.131138337076819e+01
 1.108264413062261e+00	 1.020068161111763e+00	 1.145313468852179e+01
 1.129137517525577e+00	 9.969140028551168e-01	 1.162218280789194e+01
 1.149514029395778e+00	 9.733481179888605e-01	 1.181826988743889e+01
 1.169381988796335e+00	 9.493865529099315e-01	 1.204088615803389e+01
 1.188730128619748e+00	 9.250458063664260e-01	 1.228927489795730e+01
 1.207547895239878e+00	 9.003427920869240e-01	 1.256243939293716e+01
 1.225825466812329e+00	 8.752948003227300e-01	 1.285915179739808e+01
 1.243553769100879e+00	 8.499194584836381e-01	 1.317796379284577e+01
 1.260724488783330e+00	 8.242346910513869e-01	 1.366206123983888e+01
 1.060660171800000e+00	 1.060660171800000e+00	 1.120101053061344e+01
 1.082397356621336e+00	 1.038468084470809e+00	 1.131589604057818e+01
 1.103665805542999e+00	 1.015835513141593e+00	 1.145845408546398e+01
 1.124452299614854e+00	 9.927774302300170e-01	 1.162868281270412e+01
 1.144744261643663e+00	 9.693093291181505e-01	 1.182632496841962e+01
 1.164529781378945e+00	 9.454471896203713e-01	 1.205087081079581e+01
 1.183797638464678e+00	 9.212074420252396e-01	 1.230156306566603e+01
 1.202537323065708e+00	 8.966069298798887e-01	 1.257740386261242e+01
 1.220739054092179e+00	 8.716628716918402e-01	 1.287716356831451e+01
 1.238393794960300e+00	 8.463928217281086e-01	 1.319939141361954e+01
 1.255493266842988e+00	 8.208146300949881e-01	 1.361700141212648e+01
 1.307805486268661e+00	 8.550152396594509e-01	 1.385941961516608e+01
 1.325031207659498e+00	 8.280691690248428e-01	 1.370476531528687e+01
 1.341663686250679e+00	 8.008400607833708e-01	 1.360872069857479e+01
 1.357696722535032e+00	 7.733471791999722e-01	 1.356279395389469e+01
 1.373124934993508e+00	 7.456099267439584e-01	 1.355880099386607e+01
 1.387943760658701e+00	 7.176478016487623e-01	 1.358888683763251e+01
 1.402149453106268e+00	 6.894803558628309e-01	 1.364554226720666e+01
 1.415739077933608e+00	 6.611271535676617e-01	 1.372161589534966e+01
 1.428710505798304e+00	 6.326077304316075e-01	 1.381032183330061e+01
 1.441062403101226e+00	 6.039415537596329e-01	 1.379964880205343e+01
 1.452794220410432e+00	 5.751479836898462e-01	 1.373468419923723e+01
 1.302574264323868e+00	 8.515951787029570e-01	 1.385522735066825e+01
 1.319731082829670e+00	 8.247568923498937e-01	 1.370830818779558e+01
 1.336297031506891e+00	 7.976367005405258e-01	 1.361937265064740e+01
 1.352265935646390e+00	 7.702537904827313e-01	 1.357987859795103e+01
 1.367632435255193e+00	 7.426274870359432e-01	 1.358158790377730e+01
 1.382391985617766e+00	 7.147772104406597e-01	 1.361658823536291e+01
 1.396540855295465e+00	 6.867224344375337e-01	 1.367731014719546e+01
 1.410076121623298e+00	 6.584826449513358e-01	 1.375653962375213e+01
 1.422995663776222e+00	 6.300772995077430e-01	 1.384742625327488e+01
 1.435298153489503e+00	 6.015257875425000e-01	 1.383442498798659e+01
 1.446983043528928e+00	 5.728473917531606e-01	 1.377947626411357e+01
 1.297343042379569e+00	 8.481751177464736e-01	 1.384675008005677e+01
 1.314430958000241e+00	 8.214446156751393e-01	 1.370793625997367e+01
 1.330930376763419e+00	 7.944333402980303e-01	 1.362646337611295e+01
 1.346835148757988e+00	 7.671604017659622e-01	 1.359373829061320e+01
 1.362139935517055e+00	 7.396450473284920e-01	 1.360146829102440e+01
 1.376840210576954e+00	 7.119066192331833e-01	 1.364168326217683e+01
 1.390932257484740e+00	 6.839645130128945e-01	 1.370675321616323e+01
 1.404413165313032e+00	 6.558381363356690e-01	 1.378940130729743e+01
 1.417280821754159e+00	 6.275468685845107e-01	 1.388271250855685e+01
 1.429533903877785e+00	 5.991100213259424e-01	 1.386962620861686e+01
 1.441171866647425e+00	 5.705467998169645e-01	 1.382504415952483e+01
 1.292111820435765e+00	 8.447550567900007e-01	 1.383392400003480e+01
 1.309130833171212e+00	 8.181323390005806e-01	 1.370359043836594e+01
 1.325563722020262e+00	 7.912299800558826e-01	 1.362993858325135e+01
 1.341404361869827e+00	 7.640670130496645e-01	 1.360432362460085e+01
 1.356647435779093e+00	 7.366626076216044e-01	 1.361839770591121e+01
 1.371288435536264e+00	 7.090360280263328e-01	 1.366413248922153e+01
 1.385323659674092e+00	 6.812065915889128e-01	 1.373383711919238e+01
 1.398750209002810e+00	 6.531936277206624e-01	 1.382017170769422e+01
 1.411565979732116e+00	 6.250164376619105e-01	 1.391615650958511e+01
 1.423769654266072e+00	 5.966942551099602e-01	 1.390530037038950e+01
 1.435360689765922e+00	 5.682462078812583e-01	 1.387143831617455e+01
 1.286880598492455e+00	 8.413349958335387e-01	 1.381668524278846e+01
 1.303830708342584e+00	 8.148200623262166e-01	 1.369521163269567e+01
 1.320197067277419e+00	 7.880266198140842e-01	 1.362974405035643e+01
 1.335973574981907e+00	 7.609736243338386e-01	 1.361158532850171e+01
 1.351154936041308e+00	 7.336801679152812e-01	 1.363233189936817e+01
 1.365736660495695e+00	 7.061654368201083e-01	 1.368389675182158e+01
 1.379715061863523e+00	 6.784486701655893e-01	 1.375852782777990e+01
 1.393087252692632e+00	 6.505491191063157e-01	 1.384882197388681e+01
 1.405851137710092e+00	 6.224860067399427e-01	 1.393995049507358e+01
 1.418005404654362e+00	 5.942784888945530e-01	 1.394149588399880e+01
 1.429549512884418e+00	 5.659456159460416e-01	 1.391870972503016e+01
 1.281649376549641e+00	 8.379149348770870e-01	 1.379496987466968e+01
 1.298530583514354e+00	 8.115077856520477e-01	 1.368274075593063e+01
 1.314830412534892e+00	 7.848232595726342e-01	 1.362582562716489e+01
 1.330542788094228e+00	 7.578802356184845e-01	 1.361547426954464e+01
 1.345662436303698e+00	 7.306977282095223e-01	 1.364322682704653e+01
 1.360184885455249e+00	 7.032948456145097e-01	 1.370093715487036e+01
 1.374106464053031e+00	 6.756907487429235e-01	 1.378079164649847e+01
 1.387424296382497e+00	 6.479046104926285e-01	 1.387532364995788e+01
 1.400136295688087e+00	 6.199555758186069e-01	 1.396389254540440e+01
 1.412241155042658e+00	 5.918627226797217e-01	 1.397826167467909e+01
 1.423738336002915e+00	 5.636450240113148e-01	 1.396690994875697e+01
 1.276418154607321e+00	 8.344948739206463e-01	 1.376871389484772e+01
 1.293230458686525e+00	 8.081955089780742e-01	 1.366611872434863e+01
 1.309463757792679e+00	 7.816198993315331e-01	 1.361812923632040e+01
 1.325112001206789e+00	 7.547868469036021e-01	 1.361594145644056e+01
 1.340169936566265e+00	 7.277152885043267e-01	 1.365103865351344e+01
 1.354633110414925e+00	 7.004242544095374e-01	 1.371521507835392e+01
 1.368497866242617e+00	 6.729328273209153e-01	 1.380059521982223e+01
 1.381761340072406e+00	 6.452601018796010e-01	 1.389964868322583e+01
 1.394421453666101e+00	 6.174251448979033e-01	 1.398808684600743e+01
 1.406476905430959e+00	 5.894469564654654e-01	 1.401564719274841e+01
 1.417927159121411e+00	 5.613444320770776e-01	 1.401609113343339e+01
 1.271186932665496e+00	 8.310748129642158e-01	 1.373785323392637e+01
 1.287930333859095e+00	 8.048832323042955e-01	 1.364528645760629e+01
 1.304097103050783e+00	 7.784165390907812e-01	 1.360660087487342e+01
 1.319681214319591e+00	 7.516934581891912e-01	 1.361293804229364e+01
 1.334677436829009e+00	 7.247328487996959e-01	 1.365572375655078e+01
 1.349081335374723e+00	 6.975536632051905e-01	 1.372669218301136e+01
 1.362889268432281e+00	 6.701749058995652e-01	 1.381790553912027e+01
 1.376098383762358e+00	 6.426155932672335e-01	 1.392176943254145e+01
 1.388706611644136e+00	 6.148947139778322e-01	 1.401258050679272e+01
 1.400712655819265e+00	 5.870311902517849e-01	 1.405370242441294e+01
 1.412115982239908e+00	 5.590438401433302e-01	 1.406630602055527e+01
 1.265955710724165e+00	 8.276547520077958e-01	 1.370232375252740e+01
 1.282630209032066e+00	 8.015709556307122e-01	 1.362018487880858e+01
 1.298730448309201e+00	 7.752131788503778e-01	 1.359118661581896e+01
 1.314250427432632e+00	 7.486000694752519e-01	 1.360641532758458e+01
 1.329184937091928e+00	 7.217504090956287e-01	 1.365723873156016e+01
 1.343529560334643e+00	 6.946830720014702e-01	 1.373533041613550e+01
 1.357280670622023e+00	 6.674169844788729e-01	 1.383268994982408e+01
 1.370435427452354e+00	 6.399710846555259e-01	 1.394165867679096e+01
 1.382991769622189e+00	 6.123642830583930e-01	 1.403742112203783e+01
 1.394948406207575e+00	 5.846154240386795e-01	 1.409247790283876e+01
 1.406304805358405e+00	 5.567432482100726e-01	 1.411760795933780e+01
 1.260724488783330e+00	 8.242346910513869e-01	 1.366206123983887e+01
 1.277330084205436e+00	 7.982586789573239e-01	 1.359075491458037e+01
 1.293363793567934e+00	 7.720098186103231e-01	 1.357183260967182e+01
 1.308819640545916e+00	 7.455066807617844e-01	 1.359632476322826e+01
 1.323692437355024e+00	 7.187679693921254e-01	 1.365554039607822e+01
 1.337977785294685e+00	 6.918124807983753e-01	 1.374109201751795e+01
 1.351672072811843e+00	 6.646590630588380e-01	 1.384491615877321e+01
 1.364772471142394e+00	 6.373265760444777e-01	 1.395928962361022e+01
 1.377276927600261e+00	 6.098338521395860e-01	 1.406265678043698e+01
 1.389184156595890e+00	 5.821996578261494e-01	 1.413202471949986e+01
 1.400493628476901e+00	 5.544426562773045e-01	 1.417005091932388e+01
 1.255493266842988e+00	 8.208146300949881e-01	 1.361700141212648e+01
 1.272029959379206e+00	 7.949464022841307e-01	 1.355693749513959e+01
 1.287997138826983e+00	 7.688064583706170e-01	 1.354848508608185e+01
 1.303388853659439e+00	 7.424132920487886e-01	 1.358261795370783e+01
 1.318199937618296e+00	 7.157855296891861e-01	 1.365058579440403e+01
 1.332426010254849e+00	 6.889418895959066e-01	 1.374393952554282e+01
 1.346063475001740e+00	 6.619011416394612e-01	 1.385455224174453e+01
 1.359109514832477e+00	 6.346820674340894e-01	 1.397463591831722e+01
 1.371562085578352e+00	 6.073034212214111e-01	 1.408833607540157e+01
 1.383419906984211e+00	 5.797838916141947e-01	 1.417239453580933e+01
 1.394682451595397e+00	 5.521420643450262e-01	 1.422368950330767e+01
 1.452794220410432e+00	 5.751479836898462e-01	 1.373468419923722e+01
 1.463906178731671e+00	 5.462462355775530e-01	 1.396409334662208e+01
 1.474399253743126e+00	 5.172553436961772e-01	 1.414828682258826e+01
 1.484275158116687e+00	 4.881941263733979e-01	 1.428770279995861e+01
 1.493536322054853e+00	 4.590811526691553e-01	 1.438290188984226e+01
 1.502185872181363e+00	 4.299347106891557e-01	 1.443457466977012e+01
 1.510227608925401e+00	 4.007727776155293e-01	 1.444354779244241e+01
 1.517665982543151e+00	 3.716129915236454e-01	 1.441078863401520e+01
 1.524506067922538e+00	 3.424726250415688e-01	 1.433740846097225e+01
 1.530753538317988e+00	 3.133685608962728e-01	 1.422466411408002e+01
 1.536414638161894e+00	 2.843172693785931e-01	 1.407395822643869e+01
 1.446983043528928e+00	 5.728473917531606e-01	 1.377947626411357e+01
 1.458050554016330e+00	 5.440612506335165e-01	 1.400875385310666e+01
 1.468501656727278e+00	 5.151863223198070e-01	 1.419240438368917e+01
 1.478338057482976e+00	 4.862413498664011e-01	 1.433090954499371e+01
 1.487562176765111e+00	 4.572448280569998e-01	 1.442487259800195e+01
 1.496177128690926e+00	 4.282149718448875e-01	 1.447502561771517e+01
 1.504186698487888e+00	 3.991696865034668e-01	 1.448223533854656e+01
 1.511595318611153e+00	 3.701265395558063e-01	 1.444750756325497e+01
 1.518408043649094e+00	 3.411027345394598e-01	 1.437199011552841e+01
 1.524630524163119e+00	 3.121150866504933e-01	 1.425697433544930e+01
 1.530268979607887e+00	 2.831800002985802e-01	 1.410389513527317e+01
 1.441171866647425e+00	 5.705467998169645e-01	 1.382504415952483e+01
 1.452194929300988e+00	 5.418762656898805e-01	 1.405424392037085e+01
 1.462604059711430e+00	 5.131173009437690e-01	 1.423740642041639e+01
 1.472400956849264e+00	 4.842885733596890e-01	 1.437505634525845e+01
 1.481588031475369e+00	 4.554085034451025e-01	 1.446783909981680e+01
 1.490168385200489e+00	 4.264952330008713e-01	 1.451652776730689e+01
 1.498145788050373e+00	 3.975665953916699e-01	 1.452202869381585e+01
 1.505524654679154e+00	 3.686400875882664e-01	 1.448538566018066e+01
 1.512310019375650e+00	 3.397328440377026e-01	 1.440778262232933e+01
 1.518507510008249e+00	 3.108616124051378e-01	 1.429054502004690e+01
 1.524123321053880e+00	 2.820427312190822e-01	 1.413513967201134e+01
 1.435360689765922e+00	 5.682462078812583e-01	 1.387143831617455e+01
 1.446339304585646e+00	 5.396912807466446e-01	 1.410061286182477e+01
 1.456706462695582e+00	 5.110482795680632e-01	 1.428334112006303e+01
 1.466463856215553e+00	 4.823357968532619e-01	 1.442019025684825e+01
 1.475613886185626e+00	 4.535721788334632e-01	 1.451184731876200e+01
 1.484159641710052e+00	 4.247754941571067e-01	 1.455912591153657e+01
 1.492104877612860e+00	 3.959635042801388e-01	 1.456297152633779e+01
 1.499453990747155e+00	 3.671536356210257e-01	 1.452446547687180e+01
 1.506211995102206e+00	 3.383629535362977e-01	 1.444482742951880e+01
 1.512384495853379e+00	 3.096081381602062e-01	 1.432541652717826e+01
 1.517977662499874e+00	 2.809054621400988e-01	 1.416773112508393e+01
 1.429549512884418e+00	 5.659456159460416e-01	 1.391870972503016e+01
 1.440483679870305e+00	 5.375062958038094e-01	 1.414791054805323e+01
 1.450808865679734e+00	 5.089792581926896e-01	 1.433025722391713e+01
 1.460526755581842e+00	 4.803830203471197e-01	 1.446635888658973e+01
 1.469639740895885e+00	 4.517358542220825e-01	 1.455694372570383e+01
 1.478150898219615e+00	 4.230557553135942e-01	 1.460286538737616e+01
 1.486063967175345e+00	 3.943604131688731e-01	 1.460510804470695e+01
 1.493383326815156e+00	 3.656671836540840e-01	 1.456479010238560e+01
 1.500113970828761e+00	 3.369930630352446e-01	 1.448316651863921e+01
 1.506261481698509e+00	 3.083546639156985e-01	 1.436162974592645e+01
 1.511832003945868e+00	 2.797681930616300e-01	 1.420170930904232e+01
 1.423738336002915e+00	 5.636450240113148e-01	 1.396690994875697e+01
 1.434628055154963e+00	 5.353213108613745e-01	 1.419618741818674e+01
 1.444911268663886e+00	 5.069102368176482e-01	 1.437820403856771e+01
 1.454589654948131e+00	 4.784302438412622e-01	 1.451361040328045e+01
 1.463665595606143e+00	 4.498995296109599e-01	 1.460317535007069e+01
 1.472142154729178e+00	 4.213360164703338e-01	 1.464779208687976e+01
 1.480023056737831e+00	 3.927573220578732e-01	 1.464848300905592e+01
 1.487312662883159e+00	 3.641807316874414e-01	 1.460640317371553e+01
 1.494015946555317e+00	 3.356231725345435e-01	 1.452284241551751e+01
 1.500138467543639e+00	 3.071011896716150e-01	 1.439922610596354e+01
 1.505686345391861e+00	 2.786309239836759e-01	 1.423711457529525e+01
 1.417927159121411e+00	 5.613444320770776e-01	 1.401609113343339e+01
 1.428772430439621e+00	 5.331363259193399e-01	 1.424549449155186e+01
 1.439013671648038e+00	 5.048412154429389e-01	 1.442723144748871e+01
 1.448652554314420e+00	 4.764774673356899e-01	 1.456199354920449e+01
 1.457691450316400e+00	 4.480632050000953e-01	 1.465058979129908e+01
 1.466133411238740e+00	 4.196162776273250e-01	 1.469395246855843e+01
 1.473982146300318e+00	 3.911542309471389e-01	 1.469314174235713e+01
 1.481241998951160e+00	 3.626942797210979e-01	 1.464934888701953e+01
 1.487917922281873e+00	 3.342532820341946e-01	 1.456389820141843e+01
 1.494015453388770e+00	 3.058477154279553e-01	 1.443824758862862e+01
 1.499540686837854e+00	 2.774936549062365e-01	 1.427398782311039e+01
 1.412115982239908e+00	 5.590438401433302e-01	 1.406630602055527e+01
 1.422916805724280e+00	 5.309513409777057e-01	 1.429588337960955e+01
 1.433116074632190e+00	 5.027721940685621e-01	 1.447738992290916e+01
 1.442715453680709e+00	 4.745246908304023e-01	 1.461155765193267e+01
 1.451717305026657e+00	 4.462268803894889e-01	 1.469923523056238e+01
 1.460124667748303e+00	 4.178965387845681e-01	 1.474139356903553e+01
 1.467941235862803e+00	 3.895511398366701e-01	 1.473913014200402e+01
 1.475171335019161e+00	 3.612078277550536e-01	 1.469367200912552e+01
 1.481819898008429e+00	 3.328833915341975e-01	 1.460637752447311e+01
 1.487892439233900e+00	 3.045942411847197e-01	 1.447873673827876e+01
 1.493395028283848e+00	 2.763563858293117e-01	 1.431237051088683e+01
 1.406304805358405e+00	 5.567432482100726e-01	 1.411760795933780e+01
 1.417061181008939e+00	 5.287663560364722e-01	 1.434740629818928e+01
 1.427218477616342e+00	 5.007031726945170e-01	 1.452873053797737e+01
 1.436778353046997e+00	 4.725719143253996e-01	 1.466235263641520e+01
 1.445743159736915e+00	 4.443905557791408e-01	 1.474916044278990e+01
 1.454115924257865e+00	 4.161767999420631e-01	 1.479016301499124e+01
 1.461900325425289e+00	 3.879480487264670e-01	 1.478649469167919e+01
 1.469100671087162e+00	 3.597213757893084e-01	 1.473941788932211e+01
 1.475721873734985e+00	 3.315135010345526e-01	 1.465032461139148e+01
 1.481769425079030e+00	 3.033407669419081e-01	 1.452073667392173e+01
 1.487249369729842e+00	 2.752191167529016e-01	 1.435230466770770e+01
 1.400493628476901e+00	 5.544426562773045e-01	 1.417005091932388e+01
 1.411205556293597e+00	 5.265813710956387e-01	 1.440011608002779e+01
 1.421320880600494e+00	 4.986341513208044e-01	 1.458130497922839e+01
 1.430841252413286e+00	 4.706191378206818e-01	 1.471442903737559e+01
 1.439769014447173e+00	 4.425542311690510e-01	 1.480041480898570e+01
 1.448107180767429e+00	 4.144570610998100e-01	 1.484030903540442e+01
 1.455859414987775e+00	 3.863449576165294e-01	 1.483528247351810e+01
 1.463030007155164e+00	 3.582349238238622e-01	 1.478663247144276e+01
 1.469623849461541e+00	 3.301436105352596e-01	 1.469578427946581e+01
 1.475646410924160e+00	 3.020872926995203e-01	 1.456429110113806e+01
 1.481103711175835e+00	 2.740818476770062e-01	 1.439383290517980e+01
 1.394682451595397e+00	 5.521420643450262e-01	 1.422368950330767e+01
 1.405349931578255e+00	 5.243963861552057e-01	 1.445406618762137e+01
 1.415423283584646e+00	 4.965651299474239e-01	 1.463516555936263e+01
 1.424904151779575e+00	 4.686663613162487e-01	 1.476783801201397e+01
 1.433794869157430e+00	 4.407179065592192e-01	 1.485304832885497e+01
 1.442098437276991e+00	 4.127373222578088e-01	 1.489188047410051e+01
 1.449818504550261e+00	 3.847418665068576e-01	 1.488554118057698e+01
 1.456959343223164e+00	 3.567484718587151e-01	 1.483536230625213e+01
 1.463525825188096e+00	 3.287737200363186e-01	 1.474280194887458e+01
 1.469523396769290e+00	 3.008338184575566e-01	 1.460944432430150e+01
 1.474958052621829e+00	 2.729445786016254e-01	 1.443699842956968e+01
 1.536414638161894e+00	 2.843172693785931e-01	 1.407395822643869e+01
 1.541496155098853e+00	 2.553347877472804e-01	 1.419847971574614e+01
 1.546005391384669e+00	 2.264367015805606e-01	 1.429661193280336e+01
 1.549950134791623e+00	 1.976381280733377e-01	 1.436769020923473e+01
 1.553338629157681e+00	 1.689537012681199e-01	 1.441124826487146e+01
 1.556179544710306e+00	 1.403975591971891e-01	 1.442701815832651e+01
 1.558481948292365e+00	 1.119833329051120e-01	 1.441492857166657e+01
 1.560255273611354e+00	 8.372413731224117e-02	 1.437510153330153e+01
 1.561509291626922e+00	 5.563256387227249e-02	 1.430784769328482e+01
 1.562254081185013e+00	 2.772067497008467e-02	 1.421366027321002e+01
 1.562500000000000e+00	 0.000000000000000e+00	 1.409320781884907e+01
 1.530268979607887e+00	 2.831800002985802e-01	 1.410389513527317e+01
 1.535330170477364e+00	 2.543134485935245e-01	 1.423376537155176e+01
 1.539821369818271e+00	 2.255309547713243e-01	 1.433631229205903e+01
 1.543750334251803e+00	 1.968475755581020e-01	 1.441091997578997e+01
 1.547125274640573e+00	 1.682778864601936e-01	 1.445717032477794e+01
 1.549954826531135e+00	 1.398359689577498e-01	 1.447484279281938e+01
 1.552248020498986e+00	 1.115353995711565e-01	 1.446391247149975e+01
 1.554014252516792e+00	 8.338924076108239e-02	 1.442454663747186e+01
 1.555263254460363e+00	 5.541003361540624e-02	 1.435709987479574e+01
 1.556005064860260e+00	 2.760979226946462e-02	 1.426210789394840e+01
 1.556250000000000e+00	 0.000000000000000e+00	 1.414028017490394e+01
 1.524123321053880e+00	 2.820427312190822e-01	 1.413513967201134e+01
 1.529164185855874e+00	 2.532921094403671e-01	 1.427039799419681e+01
 1.533637348251873e+00	 2.246252079627387e-01	 1.437738903275511e+01
 1.537550533711983e+00	 1.960570230435384e-01	 1.445554547143585e+01
 1.540911920123466e+00	 1.676020716529303e-01	 1.450449729323350e+01
 1.543730108351965e+00	 1.392743787189342e-01	 1.452407128666516e+01
 1.546014092705607e+00	 1.110874662377560e-01	 1.451428893232177e+01
 1.547773231422230e+00	 8.305434421038131e-02	 1.447536277349299e+01
 1.549017217293803e+00	 5.518750335887228e-02	 1.440769138430744e+01
 1.549756048535507e+00	 2.749890956902409e-02	 1.431185305644004e+01
 1.550000000000000e+00	 0.000000000000000e+00	 1.418859833106114e+01
 1.517977662499874e+00	 2.809054621400988e-01	 1.416773112508393e+01
 1.522998201234385e+00	 2.522707702878083e-01	 1.430841576074685e+01
 1.527453326685475e+00	 2.237194611548041e-01	 1.441987916096808e+01
 1.531350733172163e+00	 1.952664705296468e-01	 1.450160247571655e+01
 1.534698565606358e+00	 1.669262568463296e-01	 1.455326367173777e+01
 1.537505390172794e+00	 1.387127884807419e-01	 1.457473681577402e+01
 1.539780164912228e+00	 1.106395329049104e-01	 1.456608976080142e+01
 1.541532210327667e+00	 8.271944766013785e-02	 1.452758033894703e+01
 1.542771180127244e+00	 5.496497310267061e-02	 1.445965117418148e+01
 1.543507032210755e+00	 2.738802686876309e-02	 1.436292323529998e+01
 1.543750000000000e+00	 0.000000000000000e+00	 1.423818825515978e+01
 1.511832003945868e+00	 2.797681930616300e-01	 1.420170930904232e+01
 1.516832216612895e+00	 2.512494311358481e-01	 1.434785736970736e+01
 1.521269305119077e+00	 2.228137143475204e-01	 1.446382019816481e+01
 1.525150932632342e+00	 1.944759180164274e-01	 1.454912727618294e+01
 1.528485211089249e+00	 1.662504420403917e-01	 1.460350446111527e+01
 1.531280671993623e+00	 1.381511982431732e-01	 1.462687304544032e+01
 1.533546237118850e+00	 1.101915995726197e-01	 1.461934724183145e+01
 1.535291189233105e+00	 8.238455111035206e-02	 1.458123019730222e+01
 1.536525142960685e+00	 5.474244284680126e-02	 1.451300864919319e+01
 1.537258015886002e+00	 2.727714416868162e-02	 1.441534634299363e+01
 1.537500000000000e+00	 0.000000000000000e+00	 1.428907633728015e+01
 1.505686345391861e+00	 2.786309239836759e-01	 1.423711457529525e+01
 1.510666231991405e+00	 2.502280919844865e-01	 1.438876205166543e+01
 1.515085283552679e+00	 2.219079675408875e-01	 1.450925019172085e+01
 1.518951132092522e+00	 1.936853655038801e-01	 1.459815667875990e+01
 1.522271856572141e+00	 1.655746272351165e-01	 1.465525517170594e+01
 1.525055953814454e+00	 1.375896080062280e-01	 1.468051414032987e+01
 1.527312309325471e+00	 1.097436662408839e-01	 1.467409414828819e+01
 1.529050168138543e+00	 8.204965456102394e-02	 1.463634368742095e+01
 1.530279105794125e+00	 5.451991259126419e-02	 1.456779367576456e+01
 1.531008999561249e+00	 2.716626146877967e-02	 1.446915073877287e+01
 1.531250000000000e+00	 0.000000000000000e+00	 1.434128939836094e+01
 1.499540686837854e+00	 2.774936549062365e-01	 1.427398782311039e+01
 1.504500247369916e+00	 2.492067528337234e-01	 1.443116958019316e+01
 1.508901261986282e+00	 2.210022207349056e-01	 1.455620772569733e+01
 1.512751331552702e+00	 1.928948129920048e-01	 1.464872801836898e+01
 1.516058502055034e+00	 1.648988124305042e-01	 1.470855183380585e+01
 1.518831235635283e+00	 1.370280177699063e-01	 1.473569477471299e+01
 1.521078381532092e+00	 1.092957329097031e-01	 1.473036375103133e+01
 1.522809147043980e+00	 8.171475801215342e-02	 1.469295263330146e+01
 1.524033068627566e+00	 5.429738233605942e-02	 1.462403659142432e+01
 1.524759983236496e+00	 2.705537876905724e-02	 1.452436523783093e+01
 1.525000000000000e+00	 0.000000000000000e+00	 1.439485469902827e+01
 1.493395028283848e+00	 2.763563858293117e-01	 1.431237051088683e+01
 1.498334262748426e+00	 2.481854136835590e-01	 1.447512028301997e+01
 1.502717240419884e+00	 2.200964739295745e-01	 1.460473193188376e+01
 1.506551531012882e+00	 1.921042604808016e-01	 1.470087916981282e+01
 1.509845147537926e+00	 1.642229976265547e-01	 1.476343100836600e+01
 1.512606517456112e+00	 1.364664275342082e-01	 1.479245014295027e+01
 1.514844453738714e+00	 1.088477995790772e-01	 1.478818982915043e+01
 1.516568125949418e+00	 8.137986146374059e-02	 1.475108935406004e+01
 1.517787031461007e+00	 5.407485208118696e-02	 1.468176821450139e+01
 1.518510966911743e+00	 2.694449606951434e-02	 1.458101912068437e+01
 1.518750000000000e+00	 0.000000000000000e+00	 1.444979994864272e+01
 1.487249369729842e+00	 2.752191167529016e-01	 1.435230466770770e+01
 1.492168278126936e+00	 2.471640745339932e-01	 1.452065505348235e+01
 1.496533218853486e+00	 2.191907271248943e-01	 1.465486250111477e+01
 1.500351730473061e+00	 1.913137079702705e-01	 1.475464855893003e+01
 1.503631793020818e+00	 1.635471828232679e-01	 1.481992979795614e+01
 1.506381799276942e+00	 1.359048372991336e-01	 1.485081597023816e+01
 1.508610525945335e+00	 1.083998662490063e-01	 1.484760668046554e+01
 1.510327104854855e+00	 8.104496491578542e-02	 1.481078667416073e+01
 1.511540994294447e+00	 5.385232182664677e-02	 1.474101985405885e+01
 1.512261950586990e+00	 2.683361337015096e-02	 1.463914214278692e+01
 1.512500000000000e+00	 0.000000000000000e+00	 1.450615331457073e+01
 1.481103711175835e+00	 2.740818476770062e-01	 1.439383290517980e+01
 1.486002293505447e+00	 2.461427353850259e-01	 1.456781536225842e+01
 1.490349197287088e+00	 2.182849803208651e-01	 1.470663969486845e+01
 1.494151929933241e+00	 1.905231554604115e-01	 1.481007517402717e+01
 1.497418438503710e+00	 1.628713680206438e-01	 1.487808585800189e+01
 1.500157081097772e+00	 1.353432470646825e-01	 1.491082852362214e+01
 1.502376598151956e+00	 1.079519329194903e-01	 1.490864913228923e+01
 1.504086083760293e+00	 8.071006836828787e-02	 1.487207793389956e+01
 1.505294957127888e+00	 5.362979157243890e-02	 1.480182332007505e+01
 1.506012934262237e+00	 2.672273067096711e-02	 1.469876454438315e+01
 1.506250000000000e+00	 0.000000000000000e+00	 1.456394343168680e+01
 1.474958052621829e+00	 2.729445786016254e-01	 1.443699842956968e+01
 1.479836308883957e+00	 2.451213962366573e-01	 1.461664326939576e+01
 1.484165175720690e+00	 2.173792335174866e-01	 1.476010435715509e+01
 1.487952129393421e+00	 1.897326029512245e-01	 1.486719857759706e+01
 1.491205083986602e+00	 1.621955532186825e-01	 1.493793740830225e+01
 1.493932362918601e+00	 1.347816568308549e-01	 1.497252462328537e+01
 1.496142670358577e+00	 1.075039995905293e-01	 1.497135255245772e+01
 1.497845062665731e+00	 8.037517182124801e-02	 1.493499700015149e+01
 1.499048919961329e+00	 5.340726131856331e-02	 1.486421093387950e+01
 1.499763917937484e+00	 2.661184797196278e-02	 1.475991706060809e+01
 1.500000000000000e+00	 0.000000000000000e+00	 1.462319941211329e+01
 0.000000000000000e+00	 1.500000000000000e+00	 1.393695637186603e+00
 2.661184797196288e-02	 1.499763917937484e+00	 1.344728921464617e+00
 5.340726131856352e-02	 1.499048919961328e+00	 1.317968317634803e+00
 8.037517182124829e-02	 1.497845062665730e+00	 1.318237354633725e+00
 1.075039995905296e-01	 1.496142670358577e+00	 1.349982819417037e+00
 1.347816568308554e-01	 1.493932362918601e+00	 1.417231997285194e+00
 1.621955532186831e-01	 1.491205083986601e+00	 1.523551227868443e+00
 1.897326029512252e-01	 1.487952129393420e+00	 1.672006227441332e+00
 2.173792335174873e-01	 1.484165175720690e+00	 1.865124639098449e+00
 2.451213962366581e-01	 1.479836308883957e+00	 2.104861278213305e+00
 2.729445786016254e-01	 1.474958052621829e+00	 2.392566541009888e+00
 0.000000000000000e+00	 1.493750000000000e+00	 1.385226474287621e+00
 2.650096527295856e-02	 1.493514901612731e+00	 1.324813106312556e+00
 5.318473106468796e-02	 1.492802882794769e+00	 1.288735086837494e+00
 8.004027527420840e-02	 1.491604041571168e+00	 1.281821743441764e+00
 1.070560662615685e-01	 1.489908742565198e+00	 1.308524256487685e+00
 1.342200665970277e-01	 1.487707644739430e+00	 1.372872909845598e+00
 1.615197384167218e-01	 1.484991729469493e+00	 1.478435645150244e+00
 1.889420504420384e-01	 1.481752328853601e+00	 1.628278368057003e+00
 2.164734867141089e-01	 1.477981154154292e+00	 1.824927465867008e+00
 2.441000570882894e-01	 1.473670324262467e+00	 2.070335001850166e+00
 2.718073095262447e-01	 1.468812394067822e+00	 2.365847052111750e+00
 0.000000000000000e+00	 1.487500000000000e+00	 1.375460791918119e+00
 2.639008257377470e-02	 1.487265885287979e+00	 1.303505434273162e+00
 5.296220081048006e-02	 1.486556845628210e+00	 1.258055430196372e+00
 7.970537872671087e-02	 1.485363020476606e+00	 1.243946773032376e+00
 1.066081329320526e-01	 1.483674814771820e+00	 1.265635788068338e+00
 1.336584763625766e-01	 1.481482926560260e+00	 1.327156385445407e+00
 1.608439236140978e-01	 1.478778374952386e+00	 1.432078604772483e+00
 1.881514979321793e-01	 1.475552528313780e+00	 1.583468897803470e+00
 2.155677399100796e-01	 1.471797132587894e+00	 1.783852606459190e+00
 2.430787179393222e-01	 1.467504339640978e+00	 2.035179099500283e+00
 2.706700404503491e-01	 1.462666735513815e+00	 2.338790031801682e+00
 0.000000000000000e+00	 1.481250000000000e+00	 1.364385045914886e+00
 2.627919987441132e-02	 1.481016868963225e+00	 1.280792865757444e+00
 5.273967055593990e-02	 1.480310808461651e+00	 1.225917022412269e+00
 7.937048217875568e-02	 1.479121999382043e+00	 1.204601045950578e+00
 1.061601996019816e-01	 1.477440886978441e+00	 1.221307161823069e+00
 1.330968861275020e-01	 1.475258208381089e+00	 1.280073537720442e+00
 1.601681088108110e-01	 1.472565020435277e+00	 1.384472810625398e+00
 1.873609454216482e-01	 1.469352727773960e+00	 1.537572338377001e+00
 2.146619931053995e-01	 1.465613111021496e+00	 1.741896631014287e+00
 2.420573787897564e-01	 1.461338355019488e+00	 1.999392423276460e+00
 2.695327713739391e-01	 1.456521076959809e+00	 2.311396850379823e+00
 0.000000000000000e+00	 1.475000000000000e+00	 1.351985462552649e+00
 2.616831717486843e-02	 1.474767852638473e+00	 1.256662142615731e+00
 5.251714030106742e-02	 1.474064771295092e+00	 1.192307336039885e+00
 7.903558563034285e-02	 1.472880978287481e+00	 1.163772984520579e+00
 1.057122662713558e-01	 1.471206959185062e+00	 1.175527972709020e+00
 1.325352958918039e-01	 1.469033490201919e+00	 1.231615360777207e+00
 1.594922940068614e-01	 1.466351665918170e+00	 1.335610885976028e+00
 1.865703929104450e-01	 1.463152927234139e+00	 1.490583175531290e+00
 2.137562463000683e-01	 1.459429089455098e+00	 1.699056124228061e+00
 2.410360396395919e-01	 1.455172370397999e+00	 1.962973896192941e+00
 2.683955022970143e-01	 1.450375418405802e+00	 2.283669011251745e+00
 0.000000000000000e+00	 1.468750000000000e+00	 1.338248033659800e+00
 2.605743447514601e-02	 1.468518836313720e+00	 1.231099783486177e+00
 5.229461004586264e-02	 1.467818734128532e+00	 1.157213637189184e+00
 7.870068908147236e-02	 1.466639957192919e+00	 1.121450827012357e+00
 1.052643329401750e-01	 1.464973031391683e+00	 1.128287659728496e+00
 1.319737056554822e-01	 1.462808772022748e+00	 1.181772726652459e+00
 1.588164792022491e-01	 1.460138311401062e+00	 1.285485371751361e+00
 1.857798403985698e-01	 1.456953126694319e+00	 1.442495858312509e+00
 2.128504994940864e-01	 1.453245067888700e+00	 1.655327685662261e+00
 2.400147004888289e-01	 1.449006385776509e+00	 1.925922513673165e+00
 2.672582332195749e-01	 1.444229759851796e+00	 2.255608153761735e+00
 0.000000000000000e+00	 1.462500000000000e+00	 1.323158511608937e+00
 2.594655177524405e-02	 1.462269819988967e+00	 1.204092079026555e+00
 5.207207979032558e-02	 1.461572696961973e+00	 1.120622981113073e+00
 7.836579253214421e-02	 1.460398936098356e+00	 1.077622623707678e+00
 1.048163996084392e-01	 1.458739103598305e+00	 1.079575502596838e+00
 1.314121154185371e-01	 1.456584053843578e+00	 1.130536382702691e+00
 1.581406643969740e-01	 1.453924956883954e+00	 1.234088724780248e+00
 1.849892878860224e-01	 1.450753326154499e+00	 1.393304798275085e+00
 2.119447526874535e-01	 1.447061046322302e+00	 1.610707930062458e+00
 2.389933613374673e-01	 1.442840401155020e+00	 1.888237345096868e+00
 2.661209641416208e-01	 1.438084101297789e+00	 2.227216056097494e+00
 0.000000000000000e+00	 1.456250000000000e+00	 1.306702404177757e+00
 2.583566907516257e-02	 1.456020803664214e+00	 1.175625087020589e+00
 5.184954953445621e-02	 1.455326659795414e+00	 1.082522207683198e+00
 7.803089598235843e-02	 1.454157915003794e+00	 1.032276232867152e+00
 1.043684662761485e-01	 1.452505175804925e+00	 1.029380618324170e+00
 1.308505251809683e-01	 1.450359335664407e+00	 1.077896948929482e+00
 1.574648495910361e-01	 1.447711602366845e+00	 1.181413315986763e+00
 1.841987353728030e-01	 1.444553525614679e+00	 1.343004368677830e+00
 2.110390058801697e-01	 1.440877024755904e+00	 1.565193487684029e+00
 2.379720221855071e-01	 1.436674416533530e+00	 1.849917535388540e+00
 2.649836950631520e-01	 1.431938442743783e+00	 2.198494638268696e+00
 0.000000000000000e+00	 1.450000000000000e+00	 1.288864969278302e+00
 2.572478637490158e-02	 1.449771787339462e+00	 1.145684627361343e+00
 5.162701927825456e-02	 1.449080622628854e+00	 1.042897936746995e+00
 7.769599943211498e-02	 1.447916893909232e+00	 9.853993165904975e-01
 1.039205329433029e-01	 1.446271248011547e+00	 9.776919577082719e-01
 1.302889349427761e-01	 1.444134617485237e+00	 1.023844915235353e+00
 1.567890347844354e-01	 1.441498247849738e+00	 1.127451428541511e+00
 1.834081828589114e-01	 1.438353725074858e+00	 1.291588903657111e+00
 2.101332590722352e-01	 1.434693003189506e+00	 1.518781004626279e+00
 2.369506830329483e-01	 1.430508431912040e+00	 1.810962306644245e+00
 2.638464259841686e-01	 1.425792784189777e+00	 2.169445965164775e+00
 0.000000000000000e+00	 1.443750000000000e+00	 1.269631209548030e+00
 2.561390367446105e-02	 1.443522771014709e+00	 1.114256276898865e+00
 5.140448902172061e-02	 1.442834585462295e+00	 1.001736563366717e+00
 7.736110288141387e-02	 1.441675872814669e+00	 9.369793365718270e-01
 1.034725996099024e-01	 1.440037320218168e+00	 9.244983017369521e-01
 1.297273447039604e-01	 1.437909899306067e+00	 9.683706386065618e-01
 1.561132199771720e-01	 1.435284893332630e+00	 1.072195255959297e+00
 1.826176303443478e-01	 1.432153924535038e+00	 1.239052697381208e+00
 2.092275122636497e-01	 1.428508981623108e+00	 1.471467143174865e+00
 2.359293438797909e-01	 1.424342447290551e+00	 1.771370959802034e+00
 2.627091569046704e-01	 1.419647125635770e+00	 2.140072249689518e+00
 0.000000000000000e+00	 1.437500000000000e+00	 1.248985866801235e+00
 2.550302097384099e-02	 1.437273754689956e+00	 1.081325364159781e+00
 5.118195876485433e-02	 1.436588548295736e+00	 9.590242529314638e-01
 7.702620633025513e-02	 1.435434851720107e+00	 8.870035497428742e-01
 1.030246662759468e-01	 1.433803392424789e+00	 8.697882578971100e-01
 1.291657544645211e-01	 1.431685181126896e+00	 9.114643402242378e-01
 1.554374051692458e-01	 1.429071538815522e+00	 1.015636900152441e+00
 1.818270778291120e-01	 1.425954123995217e+00	 1.185390003181192e+00
 2.083217654544133e-01	 1.422324960056710e+00	 1.423248582154324e+00
 2.349080047260349e-01	 1.418176462669061e+00	 1.731142876356191e+00
 2.615718878246577e-01	 1.413501467081764e+00	 2.110375855979691e+00
 2.729445786016254e-01	 1.474958052621829e+00	 2.392566541009888e+00
 3.008338346957408e-01	 1.469523390278998e+00	 2.680097994466644e+00
 3.287737856367907e-01	 1.463525799020123e+00	 2.954099639843316e+00
 3.567486209048524e-01	 1.456959283873473e+00	 3.213158273094251e+00
 3.847421340223064e-01	 1.449818398189669e+00	 3.455376852477163e+00
 4.127377441842129e-01	 1.442098269742858e+00	 3.678375643656912e+00
 4.407185197306125e-01	 1.433794625945592e+00	 3.879298320425965e+00
 4.686672034300611e-01	 1.424903818036619e+00	 4.054823218546554e+00
 4.965662395320658e-01	 1.415422844100606e+00	 4.201179889544383e+00
 5.243978025342101e-01	 1.405349370779820e+00	 4.314171045473108e+00
 5.521438275977473e-01	 1.394681753539725e+00	 4.389199925321839e+00
 2.718073095262447e-01	 1.468812394067822e+00	 2.365847052111750e+00
 2.995803603861181e-01	 1.463400376151169e+00	 2.660511398842178e+00
 3.274038948645144e-01	 1.457427774855703e+00	 2.938596998725648e+00
 3.552621683186798e-01	 1.450888620188743e+00	 3.198761790795107e+00
 3.831390417979869e-01	 1.443777488195286e+00	 3.439198341667967e+00
 4.110180035841851e-01	 1.436089526950419e+00	 3.657635150440554e+00
 4.388821925659001e-01	 1.427820481669146e+00	 3.851342791077800e+00
 4.667144234168206e-01	 1.418966718793384e+00	 4.017145084079159e+00
 4.944972135354159e-01	 1.409525248915785e+00	 4.151435439473927e+00
 5.222128116921980e-01	 1.399493748400941e+00	 4.250198458442615e+00
 5.498432283185828e-01	 1.388870579566542e+00	 4.309036821668792e+00
 2.706700404503491e-01	 1.462666735513815e+00	 2.338790031801682e+00
 2.983268860760713e-01	 1.457277362023335e+00	 2.640338144380951e+00
 3.260340040918863e-01	 1.451329750691264e+00	 2.922254809731672e+00
 3.537757157322081e-01	 1.444817956503971e+00	 3.183268775068158e+00
 3.815359495734016e-01	 1.437736578200827e+00	 3.421661824026695e+00
 4.092982629839054e-01	 1.430080784157862e+00	 3.635270242195440e+00
 4.370458654009294e-01	 1.421846337392527e+00	 3.821491002606220e+00
 4.647616434032953e-01	 1.413029619549913e+00	 3.977292857265018e+00
 4.924281875384339e-01	 1.403627653730655e+00	 4.099232471999137e+00
 5.200278208497855e-01	 1.393638126021667e+00	 4.183475688212391e+00
 5.475426290389284e-01	 1.383059405592869e+00	 4.225823937082518e+00
 2.695327713739391e-01	 1.456521076959809e+00	 2.311396850379823e+00
 2.970734117656005e-01	 1.451154347895496e+00	 2.619574953281108e+00
 3.246641133189058e-01	 1.445231726526806e+00	 2.905064791658854e+00
 3.522892631454372e-01	 1.438747292819156e+00	 3.166665591374795e+00
 3.799328573485508e-01	 1.431695668206291e+00	 3.402747968315133e+00
 4.075785223833736e-01	 1.424072041365184e+00	 3.611255555413805e+00
 4.352095382357005e-01	 1.415872193115735e+00	 3.789711232687463e+00
 4.628088633894851e-01	 1.407092520306206e+00	 3.935228140659773e+00
 4.903591615411199e-01	 1.397730058545214e+00	 4.044525609712893e+00
 5.178428300069724e-01	 1.387782503641998e+00	 4.113950085231431e+00
 5.452420297587843e-01	 1.377248231618707e+00	 4.139501071523857e+00
 2.683955022970143e-01	 1.450375418405802e+00	 2.283669011251745e+00
 2.958199374547058e-01	 1.445031333767653e+00	 2.598218623408152e+00
 3.232942225455737e-01	 1.439133702362329e+00	 2.887018677278786e+00
 3.508028105583673e-01	 1.432676629134299e+00	 3.148938553234944e+00
 3.783297651234345e-01	 1.425654758211680e+00	 3.382437321259953e+00
 4.058587817825901e-01	 1.418063298572387e+00	 3.585565530337809e+00
 4.333732110702134e-01	 1.409898048838768e+00	 3.755971484470304e+00
 4.608560833753900e-01	 1.401155421062262e+00	 3.890912180035662e+00
 4.882901355434734e-01	 1.391832463359462e+00	 3.987269032272680e+00
 5.156578391637592e-01	 1.381926881261935e+00	 4.041568467066330e+00
 5.429414304781506e-01	 1.371437057644054e+00	 4.050007398440529e+00
 2.672582332195749e-01	 1.444229759851796e+00	 2.255608153761735e+00
 2.945664631433871e-01	 1.438908319639805e+00	 2.576266029904341e+00
 3.219243317718894e-01	 1.433035678197833e+00	 2.868108213633751e+00
 3.493163579709982e-01	 1.426605965449398e+00	 3.130073921122782e+00
 3.767266728980525e-01	 1.419613848216993e+00	 3.360710304958761e+00
 4.041390411815546e-01	 1.412054555779470e+00	 3.558174406782943e+00
 4.315368839044681e-01	 1.403923904561630e+00	 3.720239480737642e+00
 4.589033033610098e-01	 1.395218321818080e+00	 3.844305856788964e+00
 4.862211095454950e-01	 1.385934868173399e+00	 3.927416466975909e+00
 5.134728483201456e-01	 1.376071258881476e+00	 3.966277107064087e+00
 5.406408311970272e-01	 1.365625883668913e+00	 3.957281451438025e+00
 2.661209641416208e-01	 1.438084101297789e+00	 2.227216056097494e+00
 2.933129888316443e-01	 1.432785305511953e+00	 2.553714126839478e+00
 3.205544409978530e-01	 1.426937654033318e+00	 2.848325162342568e+00
 3.478299053833301e-01	 1.420535301764456e+00	 3.110057901332787e+00
 3.751235806724046e-01	 1.413572938222229e+00	 3.337547214216075e+00
 4.024193005802674e-01	 1.406045812986434e+00	 3.529056219856760e+00
 4.297005567384645e-01	 1.397949760284317e+00	 3.682482657913764e+00
 4.569505233463451e-01	 1.389281222573663e+00	 3.795369680155294e+00
 4.841520835471841e-01	 1.380037272987025e+00	 3.864921179094444e+00
 5.112878574761315e-01	 1.370215636500622e+00	 3.888021722721639e+00
 5.383402319154141e-01	 1.359814709693281e+00	 3.861261110606849e+00
 2.649836950631520e-01	 1.431938442743783e+00	 2.198494638268696e+00
 2.920595145194776e-01	 1.426662291384095e+00	 2.530559948905334e+00
 3.191845502234648e-01	 1.420839629868785e+00	 2.827661299912018e+00
 3.463434527953629e-01	 1.414464638079470e+00	 3.088876644817950e+00
 3.735204884464914e-01	 1.407532028227389e+00	 3.312928213811298e+00
 4.006995599787281e-01	 1.400037070193277e+00	 3.498184795565328e+00
 4.278642295722028e-01	 1.391975616006833e+00	 3.642668159920121e+00
 4.549977433313952e-01	 1.383344123329007e+00	 3.744063779223580e+00
 4.820830575485412e-01	 1.374139677800342e+00	 3.799735961958945e+00
 5.091028666317170e-01	 1.364360014119373e+00	 3.806747463759546e+00
 5.360396326333111e-01	 1.354003535717160e+00	 3.761883588499549e+00
 2.638464259841686e-01	 1.425792784189777e+00	 2.169445965164775e+00
 2.908060402068869e-01	 1.420539277256233e+00	 2.506800613153089e+00
 3.178146594487243e-01	 1.414741605704233e+00	 2.806108418058544e+00
 3.448570002070966e-01	 1.408393974394442e+00	 3.066516245996315e+00
 3.719173962203124e-01	 1.401491118232472e+00	 3.286833335697105e+00
 3.989798193769370e-01	 1.394028327400002e+00	 3.465533746305947e+00
 4.260279024056829e-01	 1.386001471729174e+00	 3.600762831871334e+00
 4.530449633161606e-01	 1.377407024084116e+00	 3.690347894741310e+00
 4.800140315495660e-01	 1.368242082613346e+00	 3.731813126788317e+00
 5.069178757869022e-01	 1.358504391737729e+00	 3.722398899884690e+00
 5.337390333507185e-01	 1.348192361740549e+00	 3.659085415743597e+00
 2.627091569046704e-01	 1.419647125635770e+00	 2.140072249689518e+00
 2.895525658938722e-01	 1.414416263128367e+00	 2.482433320775224e+00
 3.164447686736321e-01	 1.408643581539662e+00	 2.783658324038165e+00
 3.433705476185311e-01	 1.402323310709372e+00	 3.042962741526933e+00
 3.703143039938679e-01	 1.395450208237480e+00	 3.259242476124210e+00
 3.972600787748941e-01	 1.388019584606606e+00	 3.431076466244781e+00
 4.241915752389048e-01	 1.380027327451343e+00	 3.556733213608072e+00
 4.510921833006410e-01	 1.371469924838987e+00	 3.634181370712019e+00
 4.779450055502587e-01	 1.362344487426041e+00	 3.661104492254756e+00
 5.047328849416868e-01	 1.352648769355690e+00	 3.634920008235689e+00
 5.314384340676360e-01	 1.342381187763448e+00	 3.552802426281235e+00
 2.615718878246577e-01	 1.413501467081764e+00	 2.110375855979691e+00
 2.882990915804336e-01	 1.408293249000495e+00	 2.457455358935476e+00
 3.150748778981876e-01	 1.402545557375071e+00	 2.760302840982614e+00
 3.418840950296664e-01	 1.396252647024258e+00	 3.018202109055123e+00
 3.687112117671577e-01	 1.389409298242411e+00	 3.230135392691510e+00
 3.955403381725991e-01	 1.382010841813091e+00	 3.394786126572848e+00
 4.223552480718684e-01	 1.374053183173338e+00	 3.510545533058733e+00
 4.491394032848366e-01	 1.365532825593621e+00	 3.575523145767082e+00
 4.758759795506189e-01	 1.356446892238424e+00	 3.587561373775705e+00
 5.025478940960710e-01	 1.346793146973256e+00	 3.544254160501339e+00
 5.291378347840640e-01	 1.336570013785858e+00	 3.442969742223998e+00
 5.521438275977473e-01	 1.394681753539725e+00	 4.389199925321839e+00
 5.797853158654803e-01	 1.383419347135256e+00	 4.632509130356969e+00
 6.073045050432507e-01	 1.371561672622646e+00	 4.948817954869282e+00
 6.346828098288844e-01	 1.359109257458510e+00	 5.286991875787448e+00
 6.619015420490447e-01	 1.346063381879586e+00	 5.628909711804979e+00
 6.889419479093360e-01	 1.332426090015308e+00	 6.064236141058654e+00
 7.157852462492434e-01	 1.318200198831640e+00	 6.588634723891839e+00
 7.424126676571323e-01	 1.303389304813863e+00	 7.197362616040249e+00
 7.688054942915323e-01	 1.287997788306834e+00	 7.885296898966676e+00
 7.949451002468365e-01	 1.272030815443104e+00	 8.646963817476450e+00
 8.208129922944636e-01	 1.255494337601922e+00	 9.476570705098933e+00
 5.498432283185828e-01	 1.388870579566542e+00	 4.309036821668797e+00
 5.773695437191428e-01	 1.377655099855990e+00	 4.545677985381046e+00
 6.047740696091419e-01	 1.365846832321061e+00	 4.865922755485968e+00
 6.320382981251627e-01	 1.353446302220633e+00	 5.230236306010728e+00
 6.591436189612557e-01	 1.340454784457125e+00	 5.593447471602998e+00
 6.860713564638338e-01	 1.326874314642763e+00	 6.060475971538801e+00
 7.128028077272158e-01	 1.312707698006153e+00	 6.626771382037818e+00
 7.393192815456483e-01	 1.297958516047221e+00	 7.287335842720466e+00
 7.656021380686652e-01	 1.282631130859385e+00	 8.036750400001122e+00
 7.916328289985990e-01	 1.266730687049643e+00	 8.869204469243027e+00
 8.173929381619869e-01	 1.250263111199833e+00	 9.778528201024626e+00
 5.475426290389284e-01	 1.383059405592869e+00	 4.225823937082523e+00
 5.749537715722256e-01	 1.371890852576140e+00	 4.456812442136568e+00
 6.022436341743815e-01	 1.360131992018805e+00	 4.782106819622760e+00
 6.293937864207375e-01	 1.347783346982009e+00	 5.174261602733302e+00
 6.563856958727312e-01	 1.334846187033850e+00	 5.559996450531870e+00
 6.832007650175834e-01	 1.321322539269347e+00	 6.060045725624933e+00
 7.098203692044484e-01	 1.307215197179750e+00	 6.669642928117261e+00
 7.362258954334518e-01	 1.292527727279625e+00	 7.383532835538105e+00
 7.623987818451341e-01	 1.277264473410956e+00	 8.195997864867246e+00
 7.883205577497664e-01	 1.261430558655188e+00	 9.100887766152940e+00
 8.139728840290046e-01	 1.245031884796743e+00	 9.495213009178093e+00
 5.452420297587843e-01	 1.377248231618707e+00	 4.139501071523853e+00
 5.725379994247277e-01	 1.366126605295703e+00	 4.365861241792133e+00
 5.997131987389698e-01	 1.354417151715878e+00	 4.697328945715785e+00
 6.267492747156090e-01	 1.342120391742638e+00	 5.119055455523885e+00
 6.536277727834707e-01	 1.329237589609762e+00	 5.528557983113794e+00
 6.803301735705851e-01	 1.315770763895062e+00	 6.062961504056278e+00
 7.068379306809401e-01	 1.301722696352430e+00	 6.717281335966364e+00
 7.331325093205429e-01	 1.287096938511077e+00	 7.486002530942141e+00
 7.591954256209391e-01	 1.271897815961549e+00	 8.363106261801278e+00
 7.850082865003387e-01	 1.256130430259738e+00	 9.342099754102968e+00
 8.105528298955170e-01	 1.239800658392654e+00	 9.186909890189808e+00
 5.429414304781506e-01	 1.371437057644054e+00	 4.050007398440533e+00
 5.701222272766497e-01	 1.360362358014682e+00	 4.272772685796023e+00
 5.971827633029066e-01	 1.348702311412280e+00	 4.611547698951131e+00
 6.241047630097769e-01	 1.336457436502520e+00	 5.060091348365767e+00
 6.508698496934746e-01	 1.323628992184860e+00	 5.499133641946498e+00
 6.774595821228387e-01	 1.310218988519906e+00	 6.069239910048760e+00
 7.038554921566915e-01	 1.296230195524193e+00	 6.769719365067870e+00
 7.300391232069217e-01	 1.281666149741575e+00	 7.594794952608920e+00
 7.559920693960799e-01	 1.266531158511162e+00	 8.538143965853699e+00
 7.816960152503163e-01	 1.250830301863293e+00	 9.592928222931608e+00
 8.071327757615240e-01	 1.234569431987565e+00	 8.885226348512765e+00
 5.406408311970272e-01	 1.365625883668913e+00	 3.957281451438034e+00
 5.677064551279916e-01	 1.354598110733076e+00	 4.177494626519934e+00
 5.946523278661916e-01	 1.342987471108012e+00	 4.524721406301469e+00
 6.214602513032417e-01	 1.330794481261655e+00	 4.992683155385831e+00
 6.481119266027431e-01	 1.318020394759144e+00	 5.471725242768073e+00
 6.745889906743443e-01	 1.304667213143881e+00	 6.078898059986406e+00
 7.008730536317028e-01	 1.290737694695039e+00	 6.826990577265650e+00
 7.269457370925884e-01	 1.276235360971121e+00	 7.709961234575452e+00
 7.527887131705571e-01	 1.261164501059796e+00	 8.721180788817797e+00
 7.783837439996988e-01	 1.245530173465853e+00	 9.295759761566963e+00
 8.037127216270259e-01	 1.229338205581475e+00	 8.590305732799175e+00
 5.383402319154141e-01	 1.359814709693281e+00	 3.861261110606853e+00
 5.652906829787533e-01	 1.348833863450885e+00	 4.079974457662242e+00
 5.921218924288255e-01	 1.337272630803073e+00	 4.436808151436065e+00
 6.188157395960029e-01	 1.325131526020043e+00	 4.925443847226954e+00
 6.453540035112757e-01	 1.312411797332615e+00	 5.446334849653967e+00
 6.717183992251021e-01	 1.299115437766985e+00	 6.091953594384623e+00
 6.978906151059738e-01	 1.285245193864969e+00	 6.889129353910977e+00
 7.238523509775424e-01	 1.270804572199713e+00	 7.831553644963751e+00
 7.495853569443702e-01	 1.255797843607451e+00	 8.912288009933230e+00
 7.750714727484866e-01	 1.240230045067420e+00	 8.900631112762841e+00
 8.002926674920223e-01	 1.224106979174386e+00	 8.302293580234171e+00
 5.360396326333111e-01	 1.354003535717160e+00	 3.761883588499549e+00
 5.628749108289348e-01	 1.343069616168109e+00	 3.980159104406883e+00
 5.895914569908074e-01	 1.331557790497462e+00	 4.347765769500484e+00
 6.161712278880606e-01	 1.319468570777684e+00	 4.858343365479318e+00
 6.425960804190727e-01	 1.306803199905273e+00	 5.422964780344817e+00
 6.688478077751114e-01	 1.293563662389220e+00	 6.108424689140143e+00
 6.949081765795044e-01	 1.279752693033983e+00	 6.956170913447124e+00
 7.207589648617844e-01	 1.265373783427353e+00	 7.959625610318919e+00
 7.463820007175195e-01	 1.250431186154128e+00	 9.111538407373722e+00
 7.717592014966794e-01	 1.234929916667991e+00	 8.510909357265172e+00
 7.968726133565134e-01	 1.218875752766297e+00	 8.021337663498798e+00
 5.337390333507185e-01	 1.348192361740549e+00	 3.659085415743597e+00
 5.604591386785360e-01	 1.337305368884748e+00	 3.877995013325273e+00
 5.870610215521381e-01	 1.325842950191181e+00	 4.257551841759204e+00
 6.135267161794149e-01	 1.313805615534577e+00	 4.791351643841837e+00
 6.398381573261339e-01	 1.301194602477117e+00	 5.401617611714619e+00
 6.659772163243729e-01	 1.288011887010584e+00	 6.128330067067505e+00
 6.919257380522946e-01	 1.274260192202079e+00	 7.028151329450696e+00
 7.176655787453140e-01	 1.259942994654040e+00	 8.094231740573999e+00
 7.431786444900048e-01	 1.245064528699825e+00	 8.680927706801047e+00
 7.684469302442771e-01	 1.229629788267567e+00	 8.126721433528022e+00
 7.934525592204992e-01	 1.213644526357208e+00	 7.747588038949324e+00
 5.314384340676360e-01	 1.342381187763448e+00	 3.552802426281231e+00
 5.580433665275573e-01	 1.331541121600802e+00	 3.773428142015845e+00
 5.845305861128172e-01	 1.320128109884229e+00	 4.166123690101206e+00
 6.108822044700656e-01	 1.308142660290724e+00	 4.724438607949290e+00
 6.370802342324594e-01	 1.295586005048147e+00	 5.382296185377798e+00
 6.631066248728863e-01	 1.282460111631078e+00	 6.151689009737564e+00
 6.889432995243446e-01	 1.268767691369260e+00	 7.105107549140769e+00
 7.145721926281311e-01	 1.254512205879773e+00	 8.235427854665872e+00
 7.399752882618262e-01	 1.239697871244543e+00	 8.198802787305606e+00
 7.651346589912801e-01	 1.224329659866149e+00	 7.748196219278969e+00
 7.900325050839796e-01	 1.208413299947118e+00	 7.481197096047632e+00
 5.291378347840640e-01	 1.336570013785858e+00	 3.442969742223998e+00
 5.556275943759981e-01	 1.325776874316271e+00	 3.666403948476548e+00
 5.820001506728447e-01	 1.314413269576606e+00	 4.073438371401672e+00
 6.082376927600133e-01	 1.302479705046123e+00	 4.657574175198926e+00
 6.343223111380495e-01	 1.289977407618364e+00	 5.365003613445831e+00
 6.602360334206515e-01	 1.276908336250702e+00	 6.178521369625226e+00
 6.859608609956541e-01	 1.263275190535523e+00	 7.187077412371522e+00
 7.114788065102359e-01	 1.249081417104553e+00	 8.260889522768380e+00
 7.367719320329839e-01	 1.234331213788282e+00	 7.720846436672410e+00
 7.618223877376878e-01	 1.219029531463735e+00	 7.375464573676062e+00
 7.866124509469546e-01	 1.203182073536029e+00	 7.222319608080054e+00
 8.208129922944636e-01	 1.255494337601922e+00	 9.476570705098933e+00
 8.463914896256208e-01	 1.238394665901733e+00	 9.802624692369951e+00
 8.716618150676554e-01	 1.220739745021569e+00	 9.567439264373540e+00
 8.966061179474591e-01	 1.202537854116337e+00	 9.427650053819287e+00
 9.212068434705458e-01	 1.183798030083694e+00	 9.384913356858656e+00
 9.454467726432131e-01	 1.164530054312457e+00	 9.440434198401672e+00
 9.693090614752667e-01	 1.144744436920890e+00	 9.594952615115909e+00
 9.927772792798947e-01	 1.124452398531341e+00	 9.848732866152051e+00
 1.015835445890818e+00	 1.103665849642919e+00	 1.020155570603445e+01
 1.038468067621809e+00	 1.082397367678899e+00	 1.065271382493662e+01
 1.060660171800000e+00	 1.060660171800000e+00	 1.120101053061344e+01
 8.173929381619869e-01	 1.250263111199833e+00	 9.778528201024617e+00
 8.428648584202263e-01	 1.233234688132024e+00	 9.572045487257206e+00
 8.680298908390388e-01	 1.215653329422374e+00	 9.415288872969036e+00
 8.928702591231227e-01	 1.197527279729309e+00	 9.341978878230396e+00
 9.173684816229689e-01	 1.178865538296748e+00	 9.353982325223292e+00
 9.415074110906841e-01	 1.159677845757717e+00	 9.452761722573456e+00
 9.652702737193667e-01	 1.139974668438324e+00	 9.639360855061785e+00
 9.886407072833990e-01	 1.119767180208320e+00	 9.914393040180794e+00
 1.011602798200530e+00	 1.099067241939737e+00	 1.027803218957531e+01
 1.034141117341557e+00	 1.077887378649919e+00	 1.073000678645489e+01
 1.056240754419750e+00	 1.056240754419750e+00	 1.126959686133705e+01
 8.139728840290046e-01	 1.245031884796743e+00	 9.495213009178093e+00
 8.393382272144162e-01	 1.228074710361321e+00	 9.346774147311262e+00
 8.643979666100776e-01	 1.210566913822199e+00	 9.267331632451061e+00
 8.891344002984921e-01	 1.192516705341327e+00	 9.259304642165448e+00
 9.135301197751294e-01	 1.173933046508881e+00	 9.324772553923660e+00
 9.375680495379030e-01	 1.154825637202102e+00	 9.465457593914227e+00
 9.612314859632045e-01	 1.135204899954936e+00	 9.682709726586994e+00
 9.845041352866127e-01	 1.115081961884544e+00	 9.977493949204861e+00
 1.007370150509902e+00	 1.094468634235875e+00	 1.035038013310707e+01
 1.029814167060896e+00	 1.073377389620345e+00	 1.080153552867839e+01
 1.051821337039000e+00	 1.051821337039000e+00	 1.133072002453100e+01
 8.105528298955170e-01	 1.239800658392654e+00	 9.186909890189813e+00
 8.358115960081912e-01	 1.222914732589622e+00	 9.126938384326699e+00
 8.607660423807719e-01	 1.205480498221043e+00	 9.123682673086217e+00
 8.853985414735681e-01	 1.187506130952389e+00	 9.179728725823225e+00
 9.096917579270271e-01	 1.169000554720093e+00	 9.297370524714520e+00
 9.336286879848700e-01	 1.149973428645612e+00	 9.478592270669022e+00
 9.571926982067818e-01	 1.130435131470729e+00	 9.725052565754982e+00
 9.803675632895356e-01	 1.110396743560013e+00	 1.003807073784953e+01
 1.003137502818933e+00	 1.089870026531333e+00	 1.041861545290464e+01
 1.025487216779824e+00	 1.068867400590176e+00	 1.086729573779208e+01
 1.047401919657750e+00	 1.047401919657750e+00	 1.138435451243988e+01
 8.071327757615240e-01	 1.234569431987565e+00	 8.885226348512768e+00
 8.322849648015508e-01	 1.217754754816927e+00	 8.912667809191127e+00
 8.571341181511217e-01	 1.200394082618908e+00	 8.984458805633210e+00
 8.816626826483505e-01	 1.182495556562496e+00	 9.103353952015823e+00
 9.058533960786614e-01	 1.164068062930386e+00	 9.271863905171976e+00
 9.296893264315848e-01	 1.145121220088246e+00	 9.492237121609207e+00
 9.531539104500976e-01	 1.125665362985702e+00	 9.766443325825310e+00
 9.762309912921681e-01	 1.105711525234726e+00	 1.009615885708105e+01
 9.989048551276247e-01	 1.085271418826112e+00	 1.048275404376303e+01
 1.021160266498342e+00	 1.064357411559411e+00	 1.092728273432230e+01
 1.042982502276000e+00	 1.042982502276000e+00	 1.143047409175862e+01
 8.037127216270259e-01	 1.229338205581475e+00	 8.590305732799184e+00
 8.287583335944958e-01	 1.212594777043238e+00	 8.704093972292052e+00
 8.535021939211269e-01	 1.195307667015792e+00	 8.849778557098809e+00
 8.779268238228387e-01	 1.177484982171648e+00	 9.030284616863709e+00
 9.020150342300334e-01	 1.159135571139758e+00	 9.248341573922646e+00
 9.257499648780478e-01	 1.140269011530004e+00	 9.506464445405744e+00
 9.491151226931519e-01	 1.120895594499854e+00	 9.806936590385156e+00
 9.720944192945101e-01	 1.101026306908685e+00	 1.015179407072379e+01
 9.946722074359761e-01	 1.080672811120209e+00	 1.054281177854154e+01
 1.016833316216450e+00	 1.059847422528051e+00	 1.098149146535601e+01
 1.038563084893750e+00	 1.038563084893750e+00	 1.146905178819548e+01
 8.002926674920223e-01	 1.224106979174386e+00	 8.302293580234171e+00
 8.252317023870256e-01	 1.207434799268554e+00	 8.501350404959608e+00
 8.498702696907879e-01	 1.190221251411697e+00	 8.719762207409364e+00
 8.741909649970337e-01	 1.172474407779844e+00	 8.960626521275511e+00
 8.981766723811424e-01	 1.154203079348210e+00	 9.226893646521265e+00
 9.218106033242588e-01	 1.135416802970888e+00	 9.521347490498751e+00
 9.450763349359453e-01	 1.116125826013185e+00	 9.846587586817682e+00
 9.679578472965611e-01	 1.096341088581888e+00	 1.020501246214584e+01
 9.904395597439867e-01	 1.076074203413627e+00	 1.059880450769386e+01
 1.012506365934148e+00	 1.055337433496097e+00	 1.102991649656283e+01
 1.034143667511000e+00	 1.034143667511000e+00	 1.150005987063877e+01
 7.968726133565134e-01	 1.218875752766297e+00	 8.021337663498793e+00
 8.217050711791402e-01	 1.202274821492874e+00	 8.304572661975431e+00
 8.462383454601040e-01	 1.185134835806620e+00	 8.594531827027069e+00
 8.704551061709346e-01	 1.167463833387085e+00	 8.894487003240595e+00
 8.943383105319888e-01	 1.149270587555742e+00	 9.207611501993920e+00
 9.178712417702177e-01	 1.130564594410897e+00	 9.536960475479074e+00
 9.410375471784770e-01	 1.111356057525697e+00	 9.885452200117577e+00
 9.638212752983212e-01	 1.091655870254336e+00	 1.025585044111581e+01
 9.862069120516567e-01	 1.071475595706364e+00	 1.065074805878816e+01
 1.008179415651436e+00	 1.050827444463547e+00	 1.107255200400873e+01
 1.029724250127750e+00	 1.029724250127750e+00	 1.152346983491615e+01
 7.934525592204992e-01	 1.213644526357208e+00	 7.747588038949318e+00
 8.181784399708399e-01	 1.197114843716200e+00	 8.113898365181806e+00
 8.426064212290760e-01	 1.180048420200564e+00	 8.474211315538865e+00
 8.667192473445422e-01	 1.162453258993371e+00	 8.831974970955203e+00
 8.904999486825721e-01	 1.144338095762353e+00	 9.190587810068488e+00
 9.139318802159246e-01	 1.125712385850030e+00	 9.553378609996219e+00
 9.369987594207478e-01	 1.106586289037388e+00	 9.923586987063601e+00
 9.596847032997911e-01	 1.086970651926028e+00	 1.030434475083698e+01
 9.819742643589869e-01	 1.066876987998421e+00	 1.069865823601343e+01
 1.003852465368314e+00	 1.046317455430403e+00	 1.110939176575989e+01
 1.025304832744000e+00	 1.025304832744000e+00	 1.153925238713417e+01
 7.900325050839796e-01	 1.208413299947118e+00	 7.481197096047635e+00
 8.146518087621241e-01	 1.191954865938531e+00	 7.929467248223001e+00
 8.389744969977032e-01	 1.174962004593528e+00	 8.358926441248766e+00
 8.629833885178556e-01	 1.157442684598702e+00	 8.773200936810017e+00
 8.866615868328924e-01	 1.139405603968044e+00	 9.175916559111519e+00
 9.099925186613794e-01	 1.120860177288287e+00	 9.570678116210185e+00
 9.329599716627571e-01	 1.101816520548259e+00	 9.961049190759454e+00
 9.555481313009699e-01	 1.082285433596965e+00	 1.035053247516562e+01
 9.777416166659768e-01	 1.062278380289799e+00	 1.074255081967357e+01
 9.995255150847822e-01	 1.041807466396663e+00	 1.114042915326792e+01
 1.020885415359750e+00	 1.020885415359750e+00	 1.154737742658428e+01
 7.866124509469546e-01	 1.203182073536029e+00	 7.222319608080050e+00
 8.111251775529934e-01	 1.186794888159866e+00	 7.751421202453903e+00
 8.353425727659858e-01	 1.169875588985511e+00	 8.248804881801050e+00
 8.592475296908754e-01	 1.152432110203077e+00	 8.718277052263481e+00
 8.828232249829499e-01	 1.134473112172815e+00	 9.163693084794549e+00
 9.060531571065823e-01	 1.116007968725669e+00	 9.588936250802552e+00
 9.289211839045051e-01	 1.097046752058309e+00	 9.997896755554038e+00
 9.514115593018583e-01	 1.077600215267147e+00	 1.039445104601535e+01
 9.735089689726262e-01	 1.057679772580496e+00	 1.078244156566832e+01
 9.951985648008399e-01	 1.037297477362328e+00	 1.116565712253079e+01
 1.016465997975000e+00	 1.016465997975000e+00	 1.154781402820337e+01
 1.060660171800000e+00	 1.060660171800000e+00	 1.120101053061344e+01
 1.082397356621336e+00	 1.038468084470809e+00	 1.131589604057818e+01
 1.103665805542999e+00	 1.015835513141593e+00	 1.145845408546398e+01
 1.124452299614854e+00	 9.927774302300170e-01	 1.162868281270412e+01
 1.144744261643663e+00	 9.693093291181505e-01	 1.182632496841962e+01
 1.164529781378945e+00	 9.454471896203713e-01	 1.205087081079581e+01
 1.183797638464678e+00	 9.212074420252396e-01	 1.230156306566603e+01
 1.202537323065708e+00	 8.966069298798887e-01	 1.257740386261242e+01
 1.220739054092179e+00	 8.716628716918402e-01	 1.287716356831451e+01
 1.238393794960300e+00	 8.463928217281086e-01	 1.319939141361954e+01
 1.255493266842988e+00	 8.208146300949881e-01	 1.361700141212648e+01
 1.056240754419750e+00	 1.056240754419750e+00	 1.126959686133705e+01
 1.077887367638430e+00	 1.034141134120353e+00	 1.136733537016231e+01
 1.099067198023567e+00	 1.011602865171093e+00	 1.149597819021868e+01
 1.119767081703985e+00	 9.886408576045627e-01	 1.165544612397963e+01
 1.139974493891418e+00	 9.652705402470714e-01	 1.184539409317706e+01
 1.159677573961428e+00	 9.415078263304374e-01	 1.206521446632932e+01
 1.178865148309478e+00	 9.173690776836849e-01	 1.231404247183464e+01
 1.197526750891392e+00	 8.928710676725002e-01	 1.259076363177044e+01
 1.215652641371856e+00	 8.680309430606228e-01	 1.289402312971475e+01
 1.233233820819514e+00	 8.428661849722867e-01	 1.322223700544221e+01
 1.250262044902395e+00	 8.173945691383422e-01	 1.357718195731099e+01
 1.051821337039000e+00	 1.051821337039000e+00	 1.133072002453100e+01
 1.073377378654929e+00	 1.029814183769487e+00	 1.141153716653694e+01
 1.094468590503455e+00	 1.007370217200254e+00	 1.152653339938681e+01
 1.115081863792361e+00	 9.845042849788175e-01	 1.167555161674200e+01
 1.135204726138353e+00	 9.612317513757309e-01	 1.185815822832781e+01
 1.154825366543036e+00	 9.375684630402515e-01	 1.207364690458888e+01
 1.173932658153357e+00	 9.135307133418678e-01	 1.232104445091925e+01
 1.192516178716120e+00	 8.891352054648178e-01	 1.259911874340529e+01
 1.210566228650553e+00	 8.643990144290605e-01	 1.290638863595442e+01
 1.228073846677732e+00	 8.393395482160501e-01	 1.324113572799749e+01
 1.245030822960801e+00	 8.139745081811912e-01	 1.360141786297601e+01
 1.047401919657750e+00	 1.047401919657750e+00	 1.138435451243988e+01
 1.068867389670833e+00	 1.025487233418212e+00	 1.144847892571729e+01
 1.089869982982663e+00	 1.003137569229074e+00	 1.155010059258322e+01
 1.110396645879981e+00	 9.803677123527820e-01	 1.168898392716505e+01
 1.130434958384467e+00	 9.571929625041291e-01	 1.186460613181542e+01
 1.149973159123769e+00	 9.336290997498137e-01	 1.207616136190407e+01
 1.169000167996316e+00	 9.096923489997870e-01	 1.232256706484075e+01
 1.187505606539893e+00	 8.853993432568422e-01	 1.260247242204749e+01
 1.205479815928270e+00	 8.607670857971541e-01	 1.291426880026566e+01
 1.222913872534956e+00	 8.358129114593976e-01	 1.325610209769056e+01
 1.239799601018207e+00	 8.105544472235344e-01	 1.362588685125871e+01
 1.042982502276000e+00	 1.042982502276000e+00	 1.143047409175862e+01
 1.064357400686141e+00	 1.021160283066526e+00	 1.147813746903753e+01
 1.085271375461190e+00	 9.989049212575534e-01	 1.156666003267793e+01
 1.105711427966847e+00	 9.762311397264555e-01	 1.169572713956138e+01
 1.125665190629761e+00	 9.531541736322665e-01	 1.186472608141952e+01
 1.145120951703626e+00	 9.296897364591239e-01	 1.207275067279609e+01
 1.164067677838355e+00	 9.058539846574439e-01	 1.231860805855781e+01
 1.182495034362711e+00	 8.816634810485723e-01	 1.260082766641495e+01
 1.200393403205008e+00	 8.571351571649033e-01	 1.291767220732218e+01
 1.217753898391184e+00	 8.322862747023303e-01	 1.326715060551162e+01
 1.234568379074614e+00	 8.071343862653728e-01	 1.364703272055948e+01
 1.038563084893750e+00	 1.038563084893750e+00	 1.146905178819548e+01
 1.059847411700855e+00	 1.016833332714430e+00	 1.150048892879626e+01
 1.080672767939038e+00	 9.946722732856929e-01	 1.157619135267310e+01
 1.101026210052957e+00	 9.720945670998383e-01	 1.169576477464113e+01
 1.120895422874235e+00	 9.491153847601421e-01	 1.185850586453931e+01
 1.140268744282608e+00	 9.257503731681819e-01	 1.206340726142946e+01
 1.159135187679472e+00	 9.020156203148378e-01	 1.230916485332300e+01
 1.177484462184574e+00	 8.779276188400092e-01	 1.259418724460925e+01
 1.195306990480764e+00	 8.535032285323079e-01	 1.291660731050407e+01
 1.212593924246418e+00	 8.287596379448482e-01	 1.327429571649520e+01
 1.229337157130020e+00	 8.037143253067056e-01	 1.366487626121127e+01
 1.034143667511000e+00	 1.034143667511000e+00	 1.150005987063877e+01
 1.055337422714973e+00	 1.012506382361923e+00	 1.151550873353313e+01
 1.076074160416205e+00	 9.904396253134919e-01	 1.157867354224478e+01
 1.096340992138312e+00	 9.679579944729307e-01	 1.168907977746923e+01
 1.116125655117888e+00	 9.450765958877567e-01	 1.184593276771539e+01
 1.135416536860714e+00	 9.218110098769879e-01	 1.204812313284276e+01
 1.154202697519670e+00	 8.981772559719688e-01	 1.229423453976576e+01
 1.172473890005481e+00	 8.741917566311521e-01	 1.258255368918713e+01
 1.190220577755541e+00	 8.498712998993679e-01	 1.291108242909267e+01
 1.207433950100656e+00	 8.252330011869510e-01	 1.327755186916550e+01
 1.224105935184426e+00	 8.002942643475333e-01	 1.367943835053145e+01
 1.029724250127750e+00	 1.029724250127750e+00	 1.152346983491615e+01
 1.050827433728497e+00	 1.008179432009007e+00	 1.152317159292668e+01
 1.071475552892692e+00	 9.862069773409504e-01	 1.157408493393789e+01
 1.091655774222912e+00	 9.638214218457322e-01	 1.167565450511186e+01
 1.111355887360722e+00	 9.410378070151098e-01	 1.182699356588166e+01
 1.130564329437945e+00	 9.178716465855421e-01	 1.202688986395525e+01
 1.149270207358948e+00	 8.943388916288374e-01	 1.227381387079787e+01
 1.167463317825433e+00	 8.704558944220016e-01	 1.256592929210641e+01
 1.185134165029337e+00	 8.462393712660834e-01	 1.290110574539250e+01
 1.202273975953900e+00	 8.217063644286384e-01	 1.327693347496759e+01
 1.218874713237833e+00	 7.968742033878556e-01	 1.369073995468761e+01
 1.025304832744000e+00	 1.025304832744000e+00	 1.153925238713417e+01
 1.046317444741426e+00	 1.003852481655681e+00	 1.152345148230192e+01
 1.066876945368499e+00	 9.819743293680692e-01	 1.156240318900331e+01
 1.086970556306757e+00	 9.596848492182432e-01	 1.165547071396480e+01
 1.106586119602735e+00	 9.369990181422019e-01	 1.180167451133952e+01
 1.125712122014302e+00	 9.139322832938442e-01	 1.199969859433991e+01
 1.144337717197305e+00	 8.905005272854427e-01	 1.224789925433438e+01
 1.162452745644430e+00	 8.667200322125569e-01	 1.254431609954049e+01
 1.180047752302154e+00	 8.426074426324544e-01	 1.288668530177927e+01
 1.197114001806148e+00	 8.181797276699111e-01	 1.327245491768355e+01
 1.213643491290239e+00	 7.934541424276724e-01	 1.369880213061297e+01
 1.020885415359750e+00	 1.020885415359750e+00	 1.154737742658428e+01
 1.041807455753759e+00	 9.995255313019449e-01	 1.151632162673533e+01
 1.062278337843626e+00	 9.777416813948475e-01	 1.154360528286799e+01
 1.082285338389846e+00	 9.555482765904632e-01	 1.162850954675176e+01
 1.101816351843927e+00	 9.329602292690324e-01	 1.176996132244526e+01
 1.120859914589782e+00	 9.099929200018941e-01	 1.196654001675703e+01
 1.139405227034742e+00	 8.866621629417853e-01	 1.221648674582706e+01
 1.157442173462472e+00	 8.629841700028188e-01	 1.251771590655845e+01
 1.174961339573990e+00	 8.389755139984811e-01	 1.286782899767147e+01
 1.191954027657401e+00	 8.146530909107685e-01	 1.326413055283434e+01
 1.208412269341645e+00	 7.900340814669843e-01	 1.370364602797100e+01
 1.016465997975000e+00	 1.016465997975000e+00	 1.154781402820337e+01
 1.037297466765497e+00	 9.951985809477981e-01	 1.150175448474456e+01
 1.057679730318073e+00	 9.735090334212854e-01	 1.151766749022589e+01
 1.077600120472179e+00	 9.514117039623924e-01	 1.159475151918299e+01
 1.097046584084299e+00	 9.289214403956019e-01	 1.173183917200237e+01
 1.116007707164387e+00	 9.060535567096922e-01	 1.192740436744085e+01
 1.134472736871258e+00	 8.828237985978649e-01	 1.217957204060171e+01
 1.152431601279558e+00	 8.592483077927869e-01	 1.248613025166602e+01
 1.169874926844846e+00	 8.353435853641631e-01	 1.284454458642217e+01
 1.186794053507659e+00	 8.111264541512108e-01	 1.325197470706447e+01
 1.203181047392051e+00	 7.866140205057903e-01	 1.370529289117082e+01
 1.255493266842988e+00	 8.208146300949881e-01	 1.361700141212648e+01
 1.272029959379206e+00	 7.949464022841307e-01	 1.355693749513959e+01
 1.287997138826983e+00	 7.688064583706170e-01	 1.354848508608185e+01
 1.303388853659439e+00	 7.424132920487886e-01	 1.358261795370783e+01
 1.318199937618296e+00	 7.157855296891861e-01	 1.365058579440403e+01
 1.332426010254849e+00	 6.889418895959066e-01	 1.374393952554282e+01
 1.346063475001740e+00	 6.619011416394612e-01	 1.385455224174453e+01
 1.359109514832477e+00	 6.346820674340894e-01	 1.397463591831722e+01
 1.371562085578352e+00	 6.073034212214111e-01	 1.408833607540157e+01
 1.383419906984211e+00	 5.797838916141947e-01	 1.417239453580933e+01
 1.394682451595397e+00	 5.521420643450262e-01	 1.422368950330767e+01
 1.250262044902395e+00	 8.173945691383422e-01	 1.357718195731099e+01
 1.266729834552678e+00	 7.916341256107375e-01	 1.353318449439238e+01
 1.282630484085699e+00	 7.656030981307536e-01	 1.353880052436051e+01
 1.297958066772607e+00	 7.393199033356725e-01	 1.358500620872703e+01
 1.312707437881198e+00	 7.128030899861588e-01	 1.366305438222383e+01
 1.326874235214639e+00	 6.860712983933769e-01	 1.376449991065696e+01
 1.340454877191269e+00	 6.591432202200453e-01	 1.388122073727986e+01
 1.353446558522208e+00	 6.320375588236795e-01	 1.400543469920021e+01
 1.365847243556119e+00	 6.047729903032266e-01	 1.412957206476990e+01
 1.377655657372240e+00	 5.773681254022379e-01	 1.422527094093592e+01
 1.388871274713649e+00	 5.498414724127479e-01	 1.428612001369842e+01
 1.245030822960801e+00	 8.139745081811912e-01	 1.360141786297601e+01
 1.261429709725155e+00	 7.883218489367495e-01	 1.350551390046772e+01
 1.277263829343436e+00	 7.623997378902261e-01	 1.352542387382671e+01
 1.292527279884821e+00	 7.362265146218441e-01	 1.358390261883210e+01
 1.307214938143184e+00	 7.098206502823914e-01	 1.367220587982906e+01
 1.321322460173559e+00	 6.832007071900994e-01	 1.378189237223318e+01
 1.334846279379986e+00	 6.563852987998943e-01	 1.390484491587256e+01
 1.347783602211193e+00	 6.293930502125656e-01	 1.403328736041098e+01
 1.360132401533214e+00	 6.022425593843906e-01	 1.417051519482615e+01
 1.371891407759685e+00	 5.749523591897004e-01	 1.427800903210183e+01
 1.383060097831411e+00	 5.475408804799800e-01	 1.434855422039035e+01
 1.239799601018207e+00	 8.105544472235344e-01	 1.362588685125871e+01
 1.256129584896639e+00	 7.850095722621667e-01	 1.347387409773488e+01
 1.271897174600194e+00	 7.591963776490347e-01	 1.350830678536811e+01
 1.287096492996083e+00	 7.331331259073033e-01	 1.357926206270161e+01
 1.301722438404252e+00	 7.068382105778832e-01	 1.367799834945523e+01
 1.315770685131609e+00	 6.803301159860738e-01	 1.379607810623990e+01
 1.329237681567888e+00	 6.536273773790069e-01	 1.392538905175226e+01
 1.342120645899431e+00	 6.267485416007490e-01	 1.405816119329100e+01
 1.354417559509638e+00	 5.997121284649031e-01	 1.421120506490799e+01
 1.366127158146546e+00	 5.725365929765833e-01	 1.433064875462796e+01
 1.377248920948684e+00	 5.452402885467222e-01	 1.441103221200147e+01
 1.234568379074614e+00	 8.071343862653728e-01	 1.364703272055948e+01
 1.250829460067127e+00	 7.816972955869886e-01	 1.343821360061926e+01
 1.266530519855974e+00	 7.559930174071796e-01	 1.348740108357518e+01
 1.281665706106391e+00	 7.300397371920504e-01	 1.357103963328274e+01
 1.296229938664404e+00	 7.038557708726351e-01	 1.368039010504048e+01
 1.310218910088789e+00	 6.774595247812999e-01	 1.380701859460713e+01
 1.323629083754977e+00	 6.508694559573843e-01	 1.394281773615950e+01
 1.336457689586921e+00	 6.241040329882286e-01	 1.408179788212295e+01
 1.348702717485392e+00	 5.971816975447642e-01	 1.425168164373724e+01
 1.360362908532821e+00	 5.701208267628854e-01	 1.438323044451669e+01
 1.371437744065466e+00	 5.429396966129748e-01	 1.447359448586409e+01
 1.229337157130020e+00	 8.037143253067056e-01	 1.366487626121127e+01
 1.245529335236620e+00	 7.783850189112158e-01	 1.346453926463883e+01
 1.261163865110774e+00	 7.527896571646605e-01	 1.346265877043694e+01
 1.276234919215747e+00	 7.269463484760847e-01	 1.355919064235039e+01
 1.290737438923640e+00	 7.008733311666467e-01	 1.367933971758099e+01
 1.304667135045099e+00	 6.745889335757781e-01	 1.381467561131063e+01
 1.318020485941253e+00	 6.481115345350258e-01	 1.395709588409022e+01
 1.330794733273664e+00	 6.214595243750048e-01	 1.410767285007368e+01
 1.342987875460474e+00	 5.946512666239737e-01	 1.429198527727931e+01
 1.354598658918510e+00	 5.677050605486078e-01	 1.443579483676406e+01
 1.365626567181759e+00	 5.406391046787378e-01	 1.453628195672118e+01
 1.224105935184426e+00	 8.002942643475333e-01	 1.367943835053145e+01
 1.240229210405119e+00	 7.750727422348481e-01	 1.350006412756488e+01
 1.255797210364595e+00	 7.495862969214774e-01	 1.343403202913169e+01
 1.270804132324150e+00	 7.238529597594071e-01	 1.354367062518274e+01
 1.285244939181959e+00	 6.978908914599177e-01	 1.367480602062349e+01
 1.299115360000539e+00	 6.717183423695081e-01	 1.381901122861204e+01
 1.312411888126715e+00	 6.453536131119316e-01	 1.396818874121391e+01
 1.325131776959660e+00	 6.188150157610776e-01	 1.413324671238691e+01
 1.337273033434886e+00	 5.921208357025316e-01	 1.433215669680380e+01
 1.348834409303615e+00	 5.652892943337499e-01	 1.448838307388553e+01
 1.359815390297562e+00	 5.383385127440108e-01	 1.459913596564522e+01
 1.218874713237833e+00	 7.968742033878556e-01	 1.369073995468761e+01
 1.234929085572623e+00	 7.717604655578856e-01	 1.353264235364204e+01
 1.250430555617438e+00	 7.463829366776308e-01	 1.340147322791501e+01
 1.265373345431599e+00	 7.207595710420173e-01	 1.352443534535765e+01
 1.279752439439361e+00	 6.949084517524485e-01	 1.366674811589962e+01
 1.293563584955108e+00	 6.688477511624902e-01	 1.381998782346024e+01
 1.306803290311364e+00	 6.425956916881019e-01	 1.397606189096947e+01
 1.319468820644909e+00	 6.161705071464471e-01	 1.415855994038798e+01
 1.331558191408627e+00	 5.895904047804382e-01	 1.437223702715295e+01
 1.343070159688135e+00	 5.628735281183117e-01	 1.454103671466084e+01
 1.354004213412876e+00	 5.360379208087942e-01	 1.466219828918701e+01
 1.213643491290239e+00	 7.934541424276724e-01	 1.369880213061297e+01
 1.229628960739132e+00	 7.684481888803278e-01	 1.356229765200022e+01
 1.245063900869301e+00	 7.431795764331198e-01	 1.344332995101283e+01
 1.259942558538096e+00	 7.176661823239147e-01	 1.350144079967283e+01
 1.274259939695847e+00	 6.919260120442391e-01	 1.365512537910563e+01
 1.288011809908808e+00	 6.659771599547245e-01	 1.381756808405762e+01
 1.301194692495198e+00	 6.398377702635365e-01	 1.398068126184477e+01
 1.313805864329411e+00	 6.135259985311131e-01	 1.418365338072484e+01
 1.325843349381697e+00	 5.870599738576930e-01	 1.441226779522366e+01
 1.337305910072070e+00	 5.604577619022933e-01	 1.459379774310533e+01
 1.348193036527699e+00	 5.337373288730880e-01	 1.472551114876080e+01
 1.208412269341645e+00	 7.900340814669843e-01	 1.370364602797100e+01
 1.224328835904647e+00	 7.651359122021755e-01	 1.358905387639312e+01
 1.239697246120185e+00	 7.399762161879451e-01	 1.348938161459203e+01
 1.254511771643640e+00	 7.145727936051001e-01	 1.347464322319398e+01
 1.268767439951416e+00	 6.889435723352892e-01	 1.363989746583238e+01
 1.282460034861637e+00	 6.631065687462104e-01	 1.381171501659708e+01
 1.295586094678220e+00	 6.370798488382352e-01	 1.398201313484523e+01
 1.308142908013167e+00	 6.108814899150756e-01	 1.420856826349180e+01
 1.320128507354096e+00	 5.845295429342966e-01	 1.445229093867012e+01
 1.331541660455420e+00	 5.580419956856948e-01	 1.464670857767411e+01
 1.342381859642033e+00	 5.314367369368920e-01	 1.478911722027360e+01
 1.203181047392051e+00	 7.866140205057903e-01	 1.370529289117082e+01
 1.219028711069166e+00	 7.618236355234277e-01	 1.361293502834181e+01
 1.234330591370090e+00	 7.367728559421064e-01	 1.353287252584495e+01
 1.249080984748230e+00	 7.114794048855732e-01	 1.345953119273899e+01
 1.263274940206068e+00	 6.859611326255991e-01	 1.362102431765003e+01
 1.276908259813596e+00	 6.602359775369484e-01	 1.380239195217525e+01
 1.289977496860428e+00	 6.343219274121984e-01	 1.398002415115729e+01
 1.302479951696174e+00	 6.082369812983345e-01	 1.423334621056523e+01
 1.314413665325824e+00	 5.819991120102482e-01	 1.449234881483338e+01
 1.325777410838185e+00	 5.556262294685159e-01	 1.469981208070644e+01
 1.336570682755877e+00	 5.291361450002061e-01	 1.485305964400527e+01
 1.394682451595397e+00	 5.521420643450262e-01	 1.422368950330767e+01
 1.405349931578255e+00	 5.243963861552057e-01	 1.445406618762137e+01
 1.415423283584646e+00	 4.965651299474239e-01	 1.463516555936263e+01
 1.424904151779575e+00	 4.686663613162487e-01	 1.476783801201397e+01
 1.433794869157430e+00	 4.407179065592192e-01	 1.485304832885497e+01
 1.442098437276991e+00	 4.127373222578088e-01	 1.489188047410051e+01
 1.449818504550261e+00	 3.847418665068576e-01	 1.488554118057698e+01
 1.456959343223164e+00	 3.567484718587151e-01	 1.483536230625213e+01
 1.463525825188096e+00	 3.287737200363186e-01	 1.474280194887458e+01
 1.469523396769290e+00	 3.008338184575566e-01	 1.460944432430150e+01
 1.474958052621829e+00	 2.729445786016254e-01	 1.443699842956968e+01
 1.388871274713649e+00	 5.498414724127479e-01	 1.428612001369842e+01
 1.399494306862716e+00	 5.222114012147726e-01	 1.451299468464425e+01
 1.409525686568643e+00	 4.944961085740434e-01	 1.469086520881157e+01
 1.418967051145745e+00	 4.667135848118159e-01	 1.482057500339304e+01
 1.427820723867602e+00	 4.388815819493875e-01	 1.490308034244014e+01
 1.436089693786494e+00	 4.110175834158075e-01	 1.493945509774765e+01
 1.443777594112709e+00	 3.831387753971857e-01	 1.493089429221641e+01
 1.450888679291145e+00	 3.552620198935681e-01	 1.487871643818829e+01
 1.457427800914643e+00	 3.274038295373777e-01	 1.478436464997848e+01
 1.463400382614418e+00	 2.995803442155929e-01	 1.464940653595155e+01
 1.468812394067822e+00	 2.718073095262447e-01	 1.447553289077550e+01
 1.383060097831411e+00	 5.475408804799800e-01	 1.434855422039035e+01
 1.393638682146782e+00	 5.200264162739394e-01	 1.457210532663482e+01
 1.403628089552329e+00	 4.924270872003307e-01	 1.474693058490212e+01
 1.413029950511679e+00	 4.647608083070980e-01	 1.487386565333153e+01
 1.421846578577600e+00	 4.370452573392977e-01	 1.495385752428963e+01
 1.430080950295877e+00	 4.092978445735544e-01	 1.498796921869298e+01
 1.437736683675081e+00	 3.815356842872482e-01	 1.497738330850582e+01
 1.444818015359082e+00	 3.537755679281219e-01	 1.492340424006818e+01
 1.451329776641170e+00	 3.260339390380846e-01	 1.482745944743511e+01
 1.457277368459541e+00	 2.983268699732053e-01	 1.469109926083076e+01
 1.462666735513815e+00	 2.706700404503492e-01	 1.451599563042547e+01
 1.377248920948684e+00	 5.452402885467222e-01	 1.441103221200147e+01
 1.387783057430453e+00	 5.178414313327055e-01	 1.463143877299549e+01
 1.397730492535703e+00	 4.903580658262860e-01	 1.480340295915440e+01
 1.407092849877375e+00	 4.628080318020954e-01	 1.492775188681212e+01
 1.415872433287424e+00	 4.352089327289496e-01	 1.500542249408645e+01
 1.424072206805141e+00	 4.075781057310494e-01	 1.503746619232973e+01
 1.431695773237377e+00	 3.799325931770451e-01	 1.502505236120827e+01
 1.438747351426977e+00	 3.522891159623768e-01	 1.496947066021123e+01
 1.445231752367679e+00	 3.246640485384397e-01	 1.487213214571063e+01
 1.451154354304660e+00	 2.970733957303936e-01	 1.473456919842510e+01
 1.456521076959809e+00	 2.695327713739391e-01	 1.455843428106127e+01
 1.371437744065466e+00	 5.429396966129748e-01	 1.447359448586409e+01
 1.381927432713729e+00	 5.156564463910716e-01	 1.469103611723457e+01
 1.391832895518768e+00	 4.882890444519090e-01	 1.486032406334134e+01
 1.401155749242835e+00	 4.608552552968077e-01	 1.498227611591691e+01
 1.409898287997076e+00	 4.333726081183433e-01	 1.505781838610257e+01
 1.418063463314284e+00	 4.058583668882925e-01	 1.508798991671559e+01
 1.425654862799595e+00	 3.783295020665763e-01	 1.507394615335581e+01
 1.432676687494829e+00	 3.508026639963324e-01	 1.501696124728198e+01
 1.439133728094169e+00	 3.232941580384427e-01	 1.491842917910754e+01
 1.445031340149774e+00	 2.958199214871580e-01	 1.477986370790670e+01
 1.450375418405802e+00	 2.683955022970143e-01	 1.460289716506390e+01
 1.365626567181759e+00	 5.406391046787378e-01	 1.453628195672118e+01
 1.376071807996610e+00	 5.134714614490370e-01	 1.475093889620238e+01
 1.385935298501522e+00	 4.862200230771998e-01	 1.491773609928150e+01
 1.395218648608058e+00	 4.589024787912353e-01	 1.503748125019129e+01
 1.403924142706555e+00	 4.315362835074789e-01	 1.511108886014780e+01
 1.412054719823309e+00	 4.041386280452838e-01	 1.513958484411903e+01
 1.419613952361739e+00	 3.767264109558419e-01	 1.512410997140407e+01
 1.426606023562639e+00	 3.493162120299890e-01	 1.506592216306323e+01
 1.433035703820640e+00	 3.219242675380937e-01	 1.496639762516530e+01
 1.438908325994883e+00	 2.945664472434983e-01	 1.482703082216987e+01
 1.444229759851796e+00	 2.672582332195749e-01	 1.464943330933088e+01
 1.359815390297562e+00	 5.383385127440108e-01	 1.459913596564522e+01
 1.370216183279096e+00	 5.112864765066020e-01	 1.481118909956445e+01
 1.380037701483965e+00	 4.841510017021582e-01	 1.497568174888243e+01
 1.389281547973045e+00	 4.569497022853781e-01	 1.509341070727359e+01
 1.397949997415860e+00	 4.296999588963560e-01	 1.516527811279897e+01
 1.406045976332214e+00	 4.024188892020231e-01	 1.519229599286105e+01
 1.413573041923806e+00	 3.751233198448421e-01	 1.517558969769842e+01
 1.420535359630405e+00	 3.478297600633463e-01	 1.511640019555702e+01
 1.426937679547092e+00	 3.205543770373926e-01	 1.501608521840492e+01
 1.432785311839987e+00	 2.933129729994147e-01	 1.487611926222672e+01
 1.438084101297789e+00	 2.661209641416208e-01	 1.469809246033008e+01
 1.354004213412876e+00	 5.360379208087942e-01	 1.466219828918701e+01
 1.364360558561187e+00	 5.091014915637666e-01	 1.487182917951863e+01
 1.374140104466097e+00	 4.820819803267847e-01	 1.503420418444330e+01
 1.383344447337794e+00	 4.549969257792358e-01	 1.515010842379816e+01
 1.391975852124992e+00	 4.278636342849751e-01	 1.522043088891886e+01
 1.400037232840998e+00	 4.006991503585107e-01	 1.524616895946249e+01
 1.407532131485797e+00	 3.735202287335763e-01	 1.522843182326150e+01
 1.414464695698130e+00	 3.463433080964047e-01	 1.516844277242271e+01
 1.420839655273525e+00	 3.191844865363396e-01	 1.506754036442700e+01
 1.426662297685087e+00	 2.920594987549071e-01	 1.492717845197376e+01
 1.431938442743783e+00	 2.649836950631520e-01	 1.474892509954118e+01
 1.348193036527699e+00	 5.337373288730880e-01	 1.472551114876080e+01
 1.358504933842883e+00	 5.069165066205311e-01	 1.493290206076344e+01
 1.368242507447919e+00	 4.800129589510788e-01	 1.509334707922351e+01
 1.377407346702306e+00	 4.530441492728086e-01	 1.520761886658090e+01
 1.386001706833951e+00	 4.260273096733360e-01	 1.527659249347248e+01
 1.394028489349664e+00	 3.989794115147463e-01	 1.530124993110509e+01
 1.401491221047711e+00	 3.719171376220451e-01	 1.528268346091116e+01
 1.408394031765811e+00	 3.448568561291639e-01	 1.522209797476274e+01
 1.414741630999940e+00	 3.178145960349346e-01	 1.512081215437500e+01
 1.420539283530182e+00	 2.908060245099755e-01	 1.498025853334031e+01
 1.425792784189777e+00	 2.638464259841686e-01	 1.480198245929646e+01
 1.342381859642033e+00	 5.314367369368920e-01	 1.478911722027360e+01
 1.352649309124184e+00	 5.047315216768949e-01	 1.499445115072525e+01
 1.362344910429429e+00	 4.779439375750408e-01	 1.515315461828610e+01
 1.371470246066583e+00	 4.510913727660967e-01	 1.526598704409480e+01
 1.380027561542737e+00	 4.241909850614388e-01	 1.533380880365056e+01
 1.388019745858210e+00	 3.972596726707299e-01	 1.535758569841648e+01
 1.395450310609549e+00	 3.703140465102482e-01	 1.533839235871925e+01
 1.402323367833450e+00	 3.433704041616241e-01	 1.527741455126645e+01
 1.408643606726335e+00	 3.164447055331776e-01	 1.517595037977350e+01
 1.414416269375272e+00	 2.895525502646199e-01	 1.503541038183005e+01
 1.419647125635770e+00	 2.627091569046704e-01	 1.485731653903290e+01
 1.336570682755877e+00	 5.291361450002061e-01	 1.485305964400527e+01
 1.346793684405089e+00	 5.025465367328583e-01	 1.505652035005254e+01
 1.356447313410629e+00	 4.758749161986704e-01	 1.521367150962386e+01
 1.365533145430621e+00	 4.491385962590996e-01	 1.532525851824520e+01
 1.374053416251349e+00	 4.223546604492830e-01	 1.539212628130921e+01
 1.382011002366635e+00	 3.955399338264617e-01	 1.541522366858846e+01
 1.389409400171311e+00	 3.687109553981858e-01	 1.539560691382157e+01
 1.396252703901046e+00	 3.418839521937849e-01	 1.533444193272266e+01
 1.402545582452712e+00	 3.150748150310683e-01	 1.523300554775404e+01
 1.408293255220358e+00	 2.882990760188403e-01	 1.509268562246864e+01
 1.413501467081763e+00	 2.615718878246577e-01	 1.491498012196850e+01
 1.474958052621829e+00	 2.729445786016254e-01	 1.443699842956968e+01
 1.479836308883957e+00	 2.451213962366573e-01	 1.461664326939576e+01
 1.484165175720690e+00	 2.173792335174866e-01	 1.476010435715509e+01
 1.487952129393421e+00	 1.897326029512245e-01	 1.486719857759706e+01
 1.491205083986602e+00	 1.621955532186825e-01	 1.493793740830225e+01
 1.493932362918601e+00	 1.347816568308549e-01	 1.497252462328537e+01
 1.496142670358577e+00	 1.075039995905293e-01	 1.497135255245772e+01
 1.497845062665731e+00	 8.037517182124801e-02	 1.493499700015149e+01
 1.499048919961329e+00	 5.340726131856331e-02	 1.486421093387950e+01
 1.499763917937484e+00	 2.661184797196278e-02	 1.475991706060809e+01
 1.500000000000000e+00	 0.000000000000000e+00	 1.462319941211329e+01
 1.468812394067822e+00	 2.718073095262447e-01	 1.447553289077550e+01
 1.473670324262468e+00	 2.441000570882886e-01	 1.466138636181761e+01
 1.477981154154292e+00	 2.164734867141082e-01	 1.480990485139397e+01
 1.481752328853600e+00	 1.889420504420376e-01	 1.492095512171730e+01
 1.484991729469493e+00	 1.615197384167213e-01	 1.499459863587031e+01
 1.487707644739430e+00	 1.342200665970273e-01	 1.503108901280193e+01
 1.489908742565198e+00	 1.070560662615682e-01	 1.503086805894843e+01
 1.491604041571168e+00	 8.004027527420814e-02	 1.499456047981237e+01
 1.492802882794769e+00	 5.318473106468773e-02	 1.492296738259189e+01
 1.493514901612731e+00	 2.650096527295846e-02	 1.481705868686398e+01
 1.493750000000000e+00	 0.000000000000000e+00	 1.467796456444442e+01
 1.462666735513815e+00	 2.706700404503492e-01	 1.451599563042547e+01
 1.467504339640978e+00	 2.430787179393214e-01	 1.470808447537542e+01
 1.471797132587894e+00	 2.155677399100789e-01	 1.486167571387883e+01
 1.475552528313780e+00	 1.881514979321786e-01	 1.497668590349221e+01
 1.478778374952386e+00	 1.608439236140972e-01	 1.505322645291866e+01
 1.481482926560260e+00	 1.336584763625762e-01	 1.509160082755517e+01
 1.483674814771819e+00	 1.066081329320522e-01	 1.509230035220953e+01
 1.485363020476606e+00	 7.970537872671057e-02	 1.505599871446965e+01
 1.486556845628210e+00	 5.296220081047985e-02	 1.498354527975362e+01
 1.487265885287979e+00	 2.639008257377460e-02	 1.487595733479066e+01
 1.487500000000000e+00	 0.000000000000000e+00	 1.473441138022881e+01
 1.456521076959809e+00	 2.695327713739391e-01	 1.455843428106127e+01
 1.461338355019488e+00	 2.420573787897555e-01	 1.475678406389784e+01
 1.465613111021495e+00	 2.146619931053986e-01	 1.491546213481533e+01
 1.469352727773960e+00	 1.873609454216476e-01	 1.503443476928377e+01
 1.472565020435278e+00	 1.601681088108104e-01	 1.511386328642242e+01
 1.475258208381089e+00	 1.330968861275016e-01	 1.515410100423919e+01
 1.477440886978440e+00	 1.061601996019813e-01	 1.515568881236604e+01
 1.479121999382043e+00	 7.937048217875538e-02	 1.511934946593873e+01
 1.480310808461651e+00	 5.273967055593966e-02	 1.504598071160695e+01
 1.481016868963226e+00	 2.627919987441123e-02	 1.493664736218883e+01
 1.481250000000000e+00	 0.000000000000000e+00	 1.479257244025889e+01
 1.450375418405802e+00	 2.683955022970143e-01	 1.460289716506390e+01
 1.455172370397999e+00	 2.410360396395911e-01	 1.480753226503245e+01
 1.459429089455098e+00	 2.137562463000676e-01	 1.497130998035215e+01
 1.463152927234140e+00	 1.865703929104444e-01	 1.509424623171191e+01
 1.466351665918169e+00	 1.594922940068609e-01	 1.517655221816954e+01
 1.469033490201919e+00	 1.325352958918034e-01	 1.521863112120783e+01
 1.471206959185062e+00	 1.057122662713554e-01	 1.522107344639458e+01
 1.472880978287481e+00	 7.903558563034255e-02	 1.518465110647985e+01
 1.474064771295092e+00	 5.251714030106721e-02	 1.511031035689153e+01
 1.474767852638473e+00	 2.616831717486832e-02	 1.499916369992695e+01
 1.475000000000000e+00	 0.000000000000000e+00	 1.485248087754392e+01
 1.444229759851796e+00	 2.672582332195749e-01	 1.464943330933088e+01
 1.449006385776509e+00	 2.400147004888281e-01	 1.486037691479515e+01
 1.453245067888700e+00	 2.128504994940856e-01	 1.502926580696285e+01
 1.456953126694319e+00	 1.857798403985692e-01	 1.515616548383037e+01
 1.460138311401061e+00	 1.588164792022485e-01	 1.524133699869328e+01
 1.462808772022749e+00	 1.319737056554817e-01	 1.528523341212657e+01
 1.464973031391683e+00	 1.052643329401746e-01	 1.528849490146032e+01
 1.466639957192919e+00	 7.870068908147207e-02	 1.525194263178624e+01
 1.467818734128532e+00	 5.229461004586243e-02	 1.517657149945037e+01
 1.468518836313720e+00	 2.605743447514590e-02	 1.506354186413437e+01
 1.468750000000000e+00	 0.000000000000000e+00	 1.491417038905942e+01
 1.438084101297789e+00	 2.661209641416208e-01	 1.469809246033008e+01
 1.442840401155020e+00	 2.389933613374665e-01	 1.491536656249253e+01
 1.447061046322302e+00	 2.119447526874528e-01	 1.508937687619645e+01
 1.450753326154499e+00	 1.849892878860217e-01	 1.522023841366589e+01
 1.453924956883954e+00	 1.581406643969734e-01	 1.530826206156143e+01
 1.456584053843578e+00	 1.314121154185365e-01	 1.535395077997519e+01
 1.458739103598304e+00	 1.048163996084388e-01	 1.535799447859666e+01
 1.460398936098356e+00	 7.836579253214392e-02	 1.532126367430541e+01
 1.461572696961973e+00	 5.207207979032538e-02	 1.524480204115983e+01
 1.462269819988967e+00	 2.594655177524395e-02	 1.512981796870653e+01
 1.462500000000000e+00	 0.000000000000000e+00	 1.497767524779769e+01
 1.431938442743783e+00	 2.649836950631520e-01	 1.474892509954118e+01
 1.436674416533530e+00	 2.379720221855063e-01	 1.497255048602846e+01
 1.440877024755904e+00	 2.110390058801691e-01	 1.515169116980779e+01
 1.444553525614678e+00	 1.841987353728023e-01	 1.528651161913169e+01
 1.447711602366846e+00	 1.574648495910355e-01	 1.537737253803378e+01
 1.450359335664408e+00	 1.308505251809678e-01	 1.542482681141063e+01
 1.452505175804926e+00	 1.043684662761481e-01	 1.542961414673630e+01
 1.454157915003794e+00	 7.803089598235814e-02	 1.539265451690342e+01
 1.455326659795414e+00	 5.184954953445601e-02	 1.531504051519182e+01
 1.456020803664215e+00	 2.583566907516248e-02	 1.519802873813290e+01
 1.456250000000000e+00	 0.000000000000000e+00	 1.504303031512870e+01
 1.425792784189777e+00	 2.638464259841686e-01	 1.480198245929646e+01
 1.430508431912041e+00	 2.369506830329475e-01	 1.503197870760685e+01
 1.434693003189506e+00	 2.101332590722345e-01	 1.521625740527907e+01
 1.438353725074858e+00	 1.834081828589108e-01	 1.535503242332691e+01
 1.441498247849738e+00	 1.567890347844348e-01	 1.544871427209856e+01
 1.444134617485237e+00	 1.302889349427756e-01	 1.549790579150132e+01
 1.446271248011547e+00	 1.039205329433025e-01	 1.550339655710591e+01
 1.447916893909232e+00	 7.769599943211468e-02	 1.546615610688241e+01
 1.449080622628854e+00	 5.162701927825435e-02	 1.538732609961937e+01
 1.449771787339461e+00	 2.572478637490147e-02	 1.526821152065625e+01
 1.450000000000000e+00	 0.000000000000000e+00	 1.511027105348066e+01
 1.419647125635770e+00	 2.627091569046704e-01	 1.485731653903290e+01
 1.424342447290551e+00	 2.359293438797901e-01	 1.509370200984161e+01
 1.428508981623108e+00	 2.092275122636490e-01	 1.528312505174488e+01
 1.432153924535038e+00	 1.826176303443472e-01	 1.542584889023310e+01
 1.435284893332630e+00	 1.561132199771714e-01	 1.552233383589956e+01
 1.437909899306067e+00	 1.297273447039599e-01	 1.557323271884454e+01
 1.440037320218168e+00	 1.034725996099020e-01	 1.557938505799426e+01
 1.441675872814669e+00	 7.736110288141360e-02	 1.554181007036249e+01
 1.442834585462295e+00	 5.140448902172040e-02	 1.546169863137568e+01
 1.443522771014709e+00	 2.561390367446094e-02	 1.534040430177379e+01
 1.443750000000000e+00	 0.000000000000000e+00	 1.517943353934995e+01
 1.413501467081763e+00	 2.615718878246577e-01	 1.491498012196850e+01
 1.418176462669061e+00	 2.349080047260341e-01	 1.515777195228790e+01
 1.422324960056710e+00	 2.083217654544126e-01	 1.535234434633239e+01
 1.425954123995218e+00	 1.818270778291114e-01	 1.549900984082040e+01
 1.429071538815522e+00	 1.554374051692452e-01	 1.559827854556541e+01
 1.431685181126896e+00	 1.291657544645206e-01	 1.565085332107767e+01
 1.433803392424789e+00	 1.030246662759465e-01	 1.565762370990580e+01
 1.435434851720107e+00	 7.702620633025485e-02	 1.561965872703859e+01
 1.436588548295736e+00	 5.118195876485414e-02	 1.553819862057698e+01
 1.437273754689956e+00	 2.550302097384089e-02	 1.541464571809034e+01
 1.437500000000000e+00	 0.000000000000000e+00	 1.525055447665032e+01
 0.000000000000000e+00	 1.437500000000000e+00	 1.248985866801235e+00
 2.550302097384099e-02	 1.437273754689956e+00	 1.081325364159781e+00
 5.118195876485433e-02	 1.436588548295736e+00	 9.590242529314638e-01
 7.702620633025513e-02	 1.435434851720107e+00	 8.870035497428742e-01
 1.030246662759468e-01	 1.433803392424789e+00	 8.697882578971100e-01
 1.291657544645211e-01	 1.431685181126896e+00	 9.114643402242378e-01
 1.554374051692458e-01	 1.429071538815522e+00	 1.015636900152441e+00
 1.818270778291120e-01	 1.425954123995217e+00	 1.185390003181192e+00
 2.083217654544133e-01	 1.422324960056710e+00	 1.423248582154324e+00
 2.349080047260349e-01	 1.418176462669061e+00	 1.731142876356191e+00
 2.615718878246577e-01	 1.413501467081764e+00	 2.110375855979691e+00
 0.000000000000000e+00	 1.431250000000000e+00	 1.185964535897262e+00
 2.539213827322094e-02	 1.431024738365205e+00	 1.042348262465993e+00
 5.095942850798810e-02	 1.430342511129186e+00	 9.395849788239502e-01
 7.669130977909637e-02	 1.429193830625565e+00	 8.824186675276737e-01
 1.025767329419913e-01	 1.427569464631447e+00	 8.752116857283538e-01
 1.286041642250818e-01	 1.425460462947784e+00	 9.219031263572768e-01
 1.547615903613195e-01	 1.422858184298499e+00	 1.025968367236730e+00
 1.810365253138764e-01	 1.419754323455515e+00	 1.190380229392745e+00
 2.074160186451769e-01	 1.416140938490466e+00	 1.417572176653507e+00
 2.338866655722789e-01	 1.412010478047767e+00	 1.709403994917832e+00
 2.604346187446449e-01	 1.407355808527999e+00	 2.067130390783482e+00
 0.000000000000000e+00	 1.425000000000000e+00	 1.121239657489579e+00
 2.528125557278041e-02	 1.424775722040459e+00	 1.001744914123767e+00
 5.073689825145413e-02	 1.424096473962654e+00	 9.185768341172801e-01
 7.635641322839526e-02	 1.422952809531066e+00	 8.763017551960736e-01
 1.021287996085908e-01	 1.421335536838181e+00	 8.791187524095889e-01
 1.280425739862661e-01	 1.419235744768790e+00	 9.308193875739975e-01
 1.540857755540562e-01	 1.416644829781646e+00	 1.034748626625344e+00
 1.802459727993128e-01	 1.413554522916044e+00	 1.193767335279796e+00
 2.065102718365914e-01	 1.409956916924528e+00	 1.410216773801994e+00
 2.328653264191215e-01	 1.405844493426863e+00	 1.685885517644453e+00
 2.592973496651468e-01	 1.401210149974721e+00	 2.021979231826366e+00
 0.000000000000000e+00	 1.418750000000000e+00	 1.054791711530704e+00
 2.517037287251941e-02	 1.418526705715718e+00	 9.594986329102138e-01
 5.051436799525248e-02	 1.417850436796141e+00	 8.959854026037469e-01
 7.602151667815184e-02	 1.416711788436608e+00	 8.686400875027361e-01
 1.016808662757451e-01	 1.415101609044989e+00	 8.814978303540578e-01
 1.274809837480738e-01	 1.413011026589914e+00	 9.382019874745086e-01
 1.534099607474555e-01	 1.410431475264965e+00	 1.041966414636954e+00
 1.794554202854212e-01	 1.407354722376807e+00	 1.195539300675632e+00
 2.056045250286569e-01	 1.403772895358897e+00	 1.401168958348913e+00
 2.318439872665627e-01	 1.399678508806351e+00	 1.660571987638197e+00
 2.581600805861634e-01	 1.395064491421928e+00	 1.974904227540053e+00
 0.000000000000000e+00	 1.412500000000000e+00	 9.866008324857697e-01
 2.505949017243793e-02	 1.412277689390981e+00	 9.155924398291431e-01
 5.029183773938312e-02	 1.411604399629646e+00	 8.717960199788998e-01
 7.568662012836605e-02	 1.410470767342192e+00	 8.594207275062365e-01
 1.012329329434544e-01	 1.408867681251872e+00	 8.823371081712035e-01
 1.269193935105052e-01	 1.406786308411155e+00	 9.440396250184347e-01
 1.527341459415176e-01	 1.404218120748453e+00	 1.047610313177676e+00
 1.786648677722018e-01	 1.401154921837804e+00	 1.195683952095870e+00
 2.046987782213731e-01	 1.397588873793573e+00	 1.390415153511941e+00
 2.308226481146025e-01	 1.393512524186229e+00	 1.633447768782246e+00
 2.570228115076945e-01	 1.388918832869620e+00	 1.925887019832556e+00
 0.000000000000000e+00	 1.406250000000000e+00	 9.166468016547511e-01
 2.494860747253599e-02	 1.406028673066249e+00	 8.700090566033246e-01
 5.006930748384605e-02	 1.405358362463169e+00	 8.459937683297818e-01
 7.535172357903788e-02	 1.404229746247817e+00	 8.486305218654123e-01
 1.007849996117187e-01	 1.402633753458830e+00	 8.816245865823376e-01
 1.263578032735600e-01	 1.400561590232513e+00	 9.483208308672517e-01
 1.520583311362425e-01	 1.398004766232112e+00	 1.051668746307321e+00
 1.778743152596544e-01	 1.394955121299035e+00	 1.194188959330303e+00
 2.037930314147403e-01	 1.391404852228556e+00	 1.377941617386921e+00
 2.298013089632409e-01	 1.387346539566497e+00	 1.604497041759774e+00
 2.558855424297404e-01	 1.382773174317798e+00	 1.874909039498195e+00
 0.000000000000000e+00	 1.400000000000000e+00	 8.449090392893267e-01
 2.483772477281356e-02	 1.399779656741521e+00	 8.227308989950819e-01
 4.984677722864127e-02	 1.399112325296711e+00	 8.185634704722072e-01
 7.501682703016742e-02	 1.397988725153485e+00	 8.362560960091449e-01
 1.003370662805379e-01	 1.396399825665862e+00	 8.793480742273054e-01
 1.257962130372383e-01	 1.394336872053990e+00	 9.510339636252206e-01
 1.513825163316301e-01	 1.391791411715942e+00	 1.054129976717789e+00
 1.770837627477791e-01	 1.388755320760499e+00	 1.191041831945492e+00
 2.028872846087583e-01	 1.385220830663846e+00	 1.363734439262353e+00
 2.287799698124779e-01	 1.381180554947158e+00	 1.573703799961107e+00
 2.547482733523010e-01	 1.376627515766460e+00	 1.821951501506819e+00
 0.000000000000000e+00	 1.393750000000000e+00	 7.713665964980703e-01
 2.472684207327065e-02	 1.393530640416798e+00	 7.737400699455093e-01
 4.962424697376880e-02	 1.392866288130272e+00	 7.894896841386166e-01
 7.468193048175459e-02	 1.391747704059194e+00	 8.222838491754875e-01
 9.988913294991202e-02	 1.390165897872969e+00	 8.754951833566597e-01
 1.252346228015402e-01	 1.388112153875584e+00	 9.521672059840292e-01
 1.507067015276805e-01	 1.385578057199942e+00	 1.054982102112750e+00
 1.762932102365759e-01	 1.382555520222197e+00	 1.186229915692062e+00
 2.019815378034272e-01	 1.379036809099443e+00	 1.347779535834237e+00
 2.277586306623135e-01	 1.375014570328208e+00	 1.541051845288983e+00
 2.536110042753763e-01	 1.370481857215609e+00	 1.766995400162482e+00
 0.000000000000000e+00	 1.387500000000000e+00	 6.959981469320448e-01
 2.461595937390728e-02	 1.387281624092080e+00	 7.230183525307046e-01
 4.940171671922863e-02	 1.386620250963851e+00	 7.587566960070179e-01
 7.434703393379939e-02	 1.385506682964945e+00	 8.066999493181284e-01
 9.944119961984110e-02	 1.383931970080151e+00	 8.700533254102575e-01
 1.246730325664655e-01	 1.381887435697295e+00	 9.517085607597034e-01
 1.500308867243937e-01	 1.379364702684112e+00	 1.054213051494422e+00
 1.755026577260449e-01	 1.376355719684127e+00	 1.179740388814272e+00
 2.010757909987470e-01	 1.372852787535347e+00	 1.330062647318997e+00
 2.267372915127477e-01	 1.368848585709649e+00	 1.506524783842261e+00
 2.524737351989662e-01	 1.364336198665242e+00	 1.710021504135554e+00
 0.000000000000000e+00	 1.381250000000000e+00	 6.187819782452028e-01
 2.450507667472343e-02	 1.381032607767366e+00	 6.705472027218995e-01
 4.917918646502076e-02	 1.380374213797449e+00	 7.263485155697672e-01
 7.401213738630184e-02	 1.379265661870737e+00	 7.894903278728205e-01
 9.899326629032512e-02	 1.377698042287408e+00	 8.630097064717229e-01
 1.241114423320144e-01	 1.375662717519124e+00	 9.496458468234057e-01
 1.493550719217697e-01	 1.373151348168453e+00	 1.051810581344488e+00
 1.747121052161859e-01	 1.370155919146292e+00	 1.171560258261818e+00
 2.001700441947177e-01	 1.366668765971557e+00	 1.310569333460895e+00
 2.257159523637804e-01	 1.362682601091481e+00	 1.470106021487256e+00
 2.513364661230708e-01	 1.358190540115361e+00	 1.651010351356483e+00
 0.000000000000000e+00	 1.375000000000000e+00	 5.396959833210433e-01
 2.439419397571910e-02	 1.374783591442656e+00	 6.163077419549139e-01
 4.895665621114516e-02	 1.374128176631064e+00	 6.922488688323885e-01
 7.367724083926197e-02	 1.373024640776571e+00	 7.706406743828698e-01
 9.854533296136404e-02	 1.371464114494739e+00	 8.543513226028059e-01
 1.235498520981868e-01	 1.369437999341071e+00	 9.459666949193525e-01
 1.486792571198084e-01	 1.366937993652964e+00	 1.047762271703983e+00
 1.739215527069989e-01	 1.363956118608690e+00	 1.161676355795465e+00
 1.992642973913392e-01	 1.360484744408075e+00	 1.289284969430296e+00
 2.246946132154117e-01	 1.356516616473704e+00	 1.431778759306452e+00
 2.501991970476900e-01	 1.352044881565965e+00	 1.589942243772125e+00
 2.615718878246577e-01	 1.413501467081764e+00	 2.110375855979691e+00
 2.882990915804336e-01	 1.408293249000495e+00	 2.457455358935476e+00
 3.150748778981876e-01	 1.402545557375071e+00	 2.760302840982614e+00
 3.418840950296664e-01	 1.396252647024258e+00	 3.018202109055123e+00
 3.687112117671577e-01	 1.389409298242411e+00	 3.230135392691510e+00
 3.955403381725991e-01	 1.382010841813091e+00	 3.394786126572848e+00
 4.223552480718684e-01	 1.374053183173338e+00	 3.510545533058733e+00
 4.491394032848366e-01	 1.365532825593621e+00	 3.575523145767082e+00
 4.758759795506189e-01	 1.356446892238424e+00	 3.587561373775705e+00
 5.025478940960710e-01	 1.346793146973256e+00	 3.544254160501339e+00
 5.291378347840640e-01	 1.336570013785858e+00	 3.442969742223998e+00
 2.604346187446449e-01	 1.407355808527999e+00	 2.067130390783482e+00
 2.870456172669926e-01	 1.402170234872911e+00	 2.387570357621287e+00
 3.137049871227338e-01	 1.396447533210805e+00	 2.670642022932489e+00
 3.403976424407805e-01	 1.390181983339495e+00	 2.915781421631634e+00
 3.671081195404093e-01	 1.383368388247709e+00	 3.122107398010323e+00
 3.938205975702446e-01	 1.376002099019950e+00	 3.288423123925362e+00
 4.205189209047454e-01	 1.368079038895704e+00	 3.413221423147026e+00
 4.471866232689136e-01	 1.359595726348614e+00	 3.494694051160134e+00
 4.738069535508240e-01	 1.350549297051141e+00	 3.530745038767862e+00
 5.003629032502579e-01	 1.340937524591121e+00	 3.519008162777725e+00
 5.268372355002470e-01	 1.330758839808522e+00	 3.456868558376621e+00
 2.592973496651468e-01	 1.401210149974721e+00	 2.021979231826366e+00
 2.857921429539709e-01	 1.396047220745909e+00	 2.315783460726223e+00
 3.123350963476132e-01	 1.390349509047206e+00	 2.579165247446086e+00
 3.389111898521512e-01	 1.384111319655477e+00	 2.811713435641297e+00
 3.655050273138505e-01	 1.377327478253818e+00	 3.012683829111530e+00
 3.921008569680220e-01	 1.369993356227676e+00	 3.180999438183663e+00
 4.186825937377076e-01	 1.362104894618985e+00	 3.315254539524703e+00
 4.452338432530388e-01	 1.353658627104558e+00	 3.413722707027225e+00
 4.717379275510507e-01	 1.344651701864838e+00	 3.474368930949705e+00
 4.981779124044499e-01	 1.335081902209982e+00	 3.494865897901708e+00
 5.245366362164300e-01	 1.324947665832187e+00	 3.472614455979428e+00
 2.581600805861634e-01	 1.395064491421928e+00	 1.974904227540053e+00
 2.845386686413685e-01	 1.389924206619486e+00	 2.242075228326025e+00
 3.109652055728257e-01	 1.384251484884274e+00	 2.485852568942043e+00
 3.374247372637782e-01	 1.378040655972200e+00	 2.705978499633413e+00
 3.639019350874811e-01	 1.371286568260737e+00	 2.901846144344137e+00
 3.903811163659317e-01	 1.363984613436271e+00	 3.072498467735714e+00
 4.168462665707548e-01	 1.356130750343181e+00	 3.216631064029684e+00
 4.432810632372122e-01	 1.347721527861454e+00	 3.332598933731385e+00
 4.696689015512985e-01	 1.338754106679512e+00	 3.418427374359025e+00
 4.959929215586474e-01	 1.329226279829837e+00	 3.471827067128844e+00
 5.222360369326131e-01	 1.319136491856852e+00	 3.490213393669709e+00
 2.570228115076945e-01	 1.388918832869620e+00	 1.925887019832556e+00
 2.832851943291854e-01	 1.383801192493646e+00	 2.166426013457150e+00
 3.095953147983715e-01	 1.378153460722008e+00	 2.390683849981228e+00
 3.359382846756617e-01	 1.371969992289668e+00	 2.598556801423475e+00
 3.622988428613012e-01	 1.365245658268468e+00	 2.789575688597490e+00
 3.886613757639737e-01	 1.357975870645733e+00	 2.962903561114782e+00
 4.150099394038870e-01	 1.350156606068292e+00	 3.117337208713876e+00
 4.413282832214335e-01	 1.341784428619302e+00	 3.251312678494254e+00
 4.675998755515681e-01	 1.332856511495165e+00	 3.362914933179752e+00
 4.938079307128505e-01	 1.323370657450686e+00	 3.449891741815873e+00
 5.199354376487961e-01	 1.313325317882516e+00	 3.509671846800286e+00
 2.558855424297404e-01	 1.382773174317798e+00	 1.874909039498195e+00
 2.820317200174216e-01	 1.377678178368385e+00	 2.088815957513571e+00
 3.082254240242503e-01	 1.372055436560409e+00	 2.293638757003992e+00
 3.344518320878017e-01	 1.365899328607879e+00	 2.489428364522694e+00
 3.606957506353106e-01	 1.359204748277009e+00	 2.675853690782509e+00
 3.869416351621479e-01	 1.351967127856063e+00	 2.852198015889120e+00
 4.131736122371042e-01	 1.344182461794318e+00	 3.017359216516169e+00
 4.393755032057029e-01	 1.335847329378101e+00	 3.169854018216736e+00
 4.655308495518590e-01	 1.326958916311796e+00	 3.307826417077359e+00
 4.916229398670589e-01	 1.317515035072531e+00	 3.429060371646585e+00
 5.176348383649794e-01	 1.307514143909182e+00	 3.530996818922456e+00
 2.547482733523010e-01	 1.376627515766460e+00	 1.821951501506819e+00
 2.807782457060771e-01	 1.371555164243705e+00	 2.009224985524591e+00
 3.068555332504623e-01	 1.365957412399477e+00	 2.194696755952689e+00
 3.329653795001982e-01	 1.359828664926834e+00	 2.378573044469303e+00
 3.590926584095094e-01	 1.353163838286360e+00	 2.560661261241309e+00
 3.852218945604544e-01	 1.345958385067261e+00	 2.740365077524740e+00
 4.113372850704064e-01	 1.338208317521259e+00	 2.916683361949432e+00
 4.374227231900204e-01	 1.329910230137854e+00	 3.088213162371645e+00
 4.634618235521714e-01	 1.321061321129406e+00	 3.253156886679315e+00
 4.894379490212726e-01	 1.311659412695370e+00	 3.409333793074796e+00
 5.153342390811623e-01	 1.301702969936846e+00	 3.554195853575931e+00
 2.536110042753763e-01	 1.370481857215609e+00	 1.766995400162482e+00
 2.795247713951519e-01	 1.365432150119606e+00	 1.927632801302818e+00
 3.054856424770076e-01	 1.359859388239213e+00	 2.093837107775061e+00
 3.314789269128512e-01	 1.353758001246532e+00	 2.265970525063034e+00
 3.574895661838977e-01	 1.347122928296522e+00	 2.443979389089184e+00
 3.835021539588930e-01	 1.339949642279326e+00	 2.627387938218928e+00
 4.095009579037937e-01	 1.332234173249115e+00	 2.815295951811165e+00
 4.354699431743858e-01	 1.323973130898557e+00	 3.006380455978586e+00
 4.613927975525052e-01	 1.315163725947995e+00	 3.198901659201950e+00
 4.872529581754917e-01	 1.305803790319203e+00	 3.390713237997694e+00
 5.130336397973453e-01	 1.295891795965511e+00	 3.579277046396252e+00
 2.524737351989662e-01	 1.364336198665242e+00	 1.710021504135554e+00
 2.782712970846460e-01	 1.359309135996087e+00	 1.844018882461226e+00
 3.041157517038861e-01	 1.353761364079615e+00	 1.991038863807866e+00
 3.299924743257607e-01	 1.347687337566974e+00	 2.151600314497202e+00
 3.558864739584754e-01	 1.341082018307494e+00	 2.325788939483751e+00
 3.817824133574639e-01	 1.333940899492260e+00	 2.513249735697766e+00
 4.076646307372663e-01	 1.326260028977886e+00	 2.713183325908146e+00
 4.335171631587995e-01	 1.318036031660213e+00	 2.924346382654362e+00
 4.593237715528603e-01	 1.309266130767562e+00	 3.145056314228588e+00
 4.850679673297164e-01	 1.299948167944031e+00	 3.373200342661725e+00
 5.107330405135284e-01	 1.290080621995175e+00	 3.606249057549375e+00
 2.513364661230708e-01	 1.358190540115361e+00	 1.651010351356483e+00
 2.770178227745595e-01	 1.353186121873150e+00	 1.758362475297297e+00
 3.027458609310976e-01	 1.347663339920684e+00	 1.886280861035920e+00
 3.285060217389267e-01	 1.341616673888160e+00	 2.035441741384673e+00
 3.542833817332427e-01	 1.335041108319277e+00	 2.206070650821305e+00
 3.800626727561670e-01	 1.327932156706061e+00	 2.397933551986141e+00
 4.058283035708236e-01	 1.320285884707572e+00	 2.610331857805482e+00
 4.315643831432611e-01	 1.312098932422820e+00	 2.842101567750313e+00
 4.572547455532371e-01	 1.303368535588108e+00	 3.091616699646844e+00
 4.828829764839461e-01	 1.294092545569854e+00	 3.356797156811147e+00
 5.084324412297114e-01	 1.284269448025840e+00	 3.635121124503883e+00
 2.501991970476900e-01	 1.352044881565965e+00	 1.589942243772125e+00
 2.757643484648922e-01	 1.347063107750792e+00	 1.670642589533072e+00
 3.013759701586421e-01	 1.341565315762418e+00	 1.779541717217426e+00
 3.270195691523489e-01	 1.335546010210088e+00	 1.917473950678347e+00
 3.526802895081991e-01	 1.329000198331870e+00	 2.084805131855381e+00
 3.783429321550022e-01	 1.321923413920730e+00	 2.281422412141109e+00
 4.039919764044660e-01	 1.314311740438173e+00	 2.506727955592187e+00
 4.296116031277709e-01	 1.306161833186380e+00	 2.759636781572892e+00
 4.551857195536353e-01	 1.297470940409632e+00	 3.038578937744749e+00
 4.806979856381814e-01	 1.288236923196671e+00	 3.341506153085358e+00
 5.061318419458944e-01	 1.278458274057504e+00	 3.665903075151111e+00
 5.291378347840640e-01	 1.336570013785858e+00	 3.442969742223998e+00
 5.556275943759981e-01	 1.325776874316271e+00	 3.666403948476548e+00
 5.820001506728447e-01	 1.314413269576606e+00	 4.073438371401672e+00
 6.082376927600133e-01	 1.302479705046123e+00	 4.657574175198926e+00
 6.343223111380495e-01	 1.289977407618364e+00	 5.365003613445831e+00
 6.602360334206515e-01	 1.276908336250702e+00	 6.178521369625226e+00
 6.859608609956541e-01	 1.263275190535523e+00	 7.187077412371522e+00
 7.114788065102359e-01	 1.249081417104553e+00	 8.260889522768380e+00
 7.367719320329839e-01	 1.234331213788282e+00	 7.720846436672410e+00
 7.618223877376878e-01	 1.219029531463735e+00	 7.375464573676062e+00
 7.866124509469546e-01	 1.203182073536029e+00	 7.222319608080054e+00
 5.268372355002470e-01	 1.330758839808522e+00	 3.456868558376626e+00
 5.532118222241488e-01	 1.320012627031945e+00	 3.740475358385993e+00
 5.794697152325463e-01	 1.308698429269138e+00	 4.206924408701463e+00
 6.055931810496087e-01	 1.296816749801627e+00	 4.849746904796453e+00
 6.315643880432714e-01	 1.284368810188635e+00	 5.628120238011228e+00
 6.573654419680428e-01	 1.271356560870330e+00	 6.494570707622838e+00
 6.829784224665935e-01	 1.257782689701740e+00	 7.555381898484689e+00
 7.083854203919847e-01	 1.243650628329237e+00	 7.954909690222194e+00
 7.335685758038096e-01	 1.228964556331873e+00	 7.485351051162484e+00
 7.585101164837982e-01	 1.213729403061125e+00	 7.208876096837447e+00
 7.831923968096774e-01	 1.197950847124692e+00	 7.122960572124450e+00
 5.245366362164300e-01	 1.324947665832187e+00	 3.472614455979428e+00
 5.507960500722996e-01	 1.314248379748614e+00	 3.816700416492746e+00
 5.769392797922481e-01	 1.302983588962651e+00	 4.342871544316870e+00
 6.029486693392044e-01	 1.291153794558088e+00	 5.044687306662431e+00
 6.288064649484935e-01	 1.278760212759828e+00	 5.894917933786802e+00
 6.544948505154343e-01	 1.265804785490836e+00	 6.814538566679836e+00
 6.799959839375331e-01	 1.252290188868781e+00	 7.927834418504757e+00
 7.052920342737334e-01	 1.238219839554681e+00	 7.649350744585045e+00
 7.303652195746350e-01	 1.223597898876151e+00	 7.250293845039595e+00
 7.551978452299086e-01	 1.208429274659114e+00	 7.042741844778403e+00
 7.797723426724000e-01	 1.192719620713861e+00	 7.024070687668537e+00
 5.222360369326131e-01	 1.319136491856852e+00	 3.490213393669709e+00
 5.483802779204505e-01	 1.308484132466278e+00	 3.895085415347019e+00
 5.744088443519498e-01	 1.297268748657144e+00	 4.481286290698352e+00
 6.003041576288004e-01	 1.285490839315504e+00	 5.242402002689859e+00
 6.260485418537156e-01	 1.273151615331944e+00	 6.165422402607861e+00
 6.516242590628256e-01	 1.260253010112220e+00	 7.138451922493998e+00
 6.770135454084727e-01	 1.246797688036646e+00	 7.864578811533699e+00
 7.021986481554824e-01	 1.232789050780884e+00	 7.344271269617986e+00
 7.271618633454607e-01	 1.218231241421112e+00	 7.015735655623220e+00
 7.518855739760191e-01	 1.203129146257704e+00	 6.877124781410680e+00
 7.763522885351226e-01	 1.187488394303535e+00	 6.925714912564818e+00
 5.199354376487961e-01	 1.313325317882516e+00	 3.509671846800286e+00
 5.459645057686011e-01	 1.302719885184938e+00	 3.975637206930590e+00
 5.718784089116519e-01	 1.291553908352618e+00	 4.622175761221365e+00
 5.976596459183959e-01	 1.279827884073877e+00	 5.442898255877903e+00
 6.232906187589375e-01	 1.267543017904981e+00	 6.430389641471951e+00
 6.487536676102170e-01	 1.254701234734481e+00	 7.466338467950475e+00
 6.740311068794120e-01	 1.241305187205334e+00	 7.488020029566429e+00
 6.991052620372310e-01	 1.227358262007846e+00	 7.039730636073068e+00
 7.239585071162862e-01	 1.212864583966759e+00	 6.781738139572886e+00
 7.485733027221292e-01	 1.197829017856894e+00	 6.712088720530011e+00
 7.729322343978449e-01	 1.182257167893714e+00	 6.827959083219910e+00
 5.176348383649794e-01	 1.307514143909182e+00	 3.530996818922456e+00
 5.435487336167518e-01	 1.296955637904592e+00	 4.058363215088397e+00
 5.693479734713536e-01	 1.285839068049073e+00	 4.765547683539300e+00
 5.950151342079917e-01	 1.274164928833207e+00	 5.646183984580730e+00
 6.205326956641597e-01	 1.261934420478941e+00	 6.692888655407653e+00
 6.458830761576083e-01	 1.249149459357621e+00	 7.678309940712375e+00
 6.710486683503519e-01	 1.235812686374846e+00	 7.112034365185588e+00
 6.960118759189797e-01	 1.221927473235567e+00	 6.735789019183457e+00
 7.207551508871120e-01	 1.207497926513090e+00	 6.548363791094427e+00
 7.452610314682397e-01	 1.192528889456685e+00	 6.547698344703068e+00
 7.695121802605678e-01	 1.177025941484399e+00	 6.730869934118294e+00
 5.153342390811623e-01	 1.301702969936846e+00	 3.554195853575931e+00
 5.411329614649026e-01	 1.291191390625242e+00	 4.143271448291486e+00
 5.668175380310554e-01	 1.280124227746509e+00	 4.911410413295816e+00
 5.923706224975875e-01	 1.268501973593493e+00	 5.852267777134056e+00
 6.177747725693817e-01	 1.256325823053822e+00	 6.958489859984297e+00
 6.430124847049998e-01	 1.243597683981639e+00	 7.229517740294821e+00
 6.680662298212912e-01	 1.230320185545182e+00	 6.736680336990053e+00
 6.929184898007283e-01	 1.216496684464047e+00	 6.432507416618307e+00
 7.175517946579376e-01	 1.202131269060107e+00	 6.315675960636738e+00
 7.419487602143505e-01	 1.187228761057075e+00	 6.384019224659379e+00
 7.660921261232903e-01	 1.171794715075589e+00	 6.634515117869206e+00
 5.130336397973453e-01	 1.295891795965511e+00	 3.579277046396252e+00
 5.387171893130535e-01	 1.285427143346887e+00	 4.230370512748007e+00
 5.642871025907571e-01	 1.274409387444924e+00	 5.059772948205815e+00
 5.897261107871833e-01	 1.262839018354735e+00	 6.061158906877919e+00
 6.150168494746040e-01	 1.250717225629627e+00	 7.227202691951080e+00
 6.401418932523909e-01	 1.238045908606535e+00	 6.781383498953244e+00
 6.650837912922308e-01	 1.224827684716341e+00	 6.362017268046916e+00
 6.898251036824774e-01	 1.211065895693288e+00	 6.129947666925783e+00
 7.143484384287632e-01	 1.196764611607808e+00	 6.083738874089165e+00
 7.386364889604607e-01	 1.181928632658066e+00	 6.221117839204846e+00
 7.626720719860126e-01	 1.166563488667284e+00	 6.538963225791774e+00
 5.107330405135284e-01	 1.290080621995175e+00	 3.606249057549385e+00
 5.363014171612043e-01	 1.279662896069527e+00	 4.319669625863715e+00
 5.617566671504590e-01	 1.268694547144321e+00	 5.210644942514874e+00
 5.870815990767788e-01	 1.257176063116934e+00	 6.272867347585608e+00
 6.122589263798260e-01	 1.245108628206353e+00	 6.791170654181980e+00
 6.372713017997825e-01	 1.232494133232308e+00	 6.333964686249764e+00
 6.621013527631703e-01	 1.219335183888324e+00	 5.988105304008996e+00
 6.867317175642261e-01	 1.205635106923288e+00	 5.828172468469624e+00
 7.111450821995887e-01	 1.191397954156194e+00	 5.852617652499066e+00
 7.353242177065711e-01	 1.176628504259656e+00	 6.059061595674807e+00
 7.592520178487352e-01	 1.161332262259484e+00	 6.444283809057687e+00
 5.084324412297114e-01	 1.284269448025840e+00	 3.635121124503883e+00
 5.338856450093552e-01	 1.273898648793163e+00	 4.411178630069856e+00
 5.592262317101607e-01	 1.262979706844699e+00	 5.364036721854393e+00
 5.844370873663745e-01	 1.251513107880088e+00	 6.487403789308443e+00
 6.095010032850482e-01	 1.239500030784001e+00	 6.251675414759533e+00
 6.344007103471738e-01	 1.226942357858960e+00	 5.887319573026670e+00
 6.591189142341097e-01	 1.213842683061131e+00	 5.615005431726111e+00
 6.836383314459747e-01	 1.200204318154046e+00	 5.527245398883432e+00
 7.079417259704144e-01	 1.186031296705265e+00	 5.622378332323738e+00
 7.320119464526817e-01	 1.171328375861848e+00	 5.897918850941231e+00
 7.558319637114578e-01	 1.156101035852190e+00	 6.350547400406684e+00
 5.061318419458944e-01	 1.278458274057504e+00	 3.665903075151121e+00
 5.314698728575059e-01	 1.268134401517793e+00	 4.504908007030787e+00
 5.566957962698624e-01	 1.257264866546057e+00	 5.519959298500112e+00
 5.817925756559704e-01	 1.245850152644200e+00	 6.091832596665613e+00
 6.067430801902702e-01	 1.233891433362571e+00	 5.712396575965757e+00
 6.315301188945651e-01	 1.221390582486489e+00	 5.441507249616956e+00
 6.561364757050491e-01	 1.208350182234761e+00	 5.242779498362785e+00
 6.805449453277234e-01	 1.194773529385564e+00	 5.227230935052651e+00
 7.047383697412398e-01	 1.180664639255021e+00	 5.393087886235941e+00
 7.286996751987920e-01	 1.166028247464639e+00	 5.737758932992135e+00
 7.524119095741802e-01	 1.150869809445401e+00	 6.257825536455277e+00
 7.866124509469546e-01	 1.203182073536029e+00	 7.222319608080050e+00
 8.111251775529934e-01	 1.186794888159866e+00	 7.751421202453903e+00
 8.353425727659858e-01	 1.169875588985511e+00	 8.248804881801050e+00
 8.592475296908754e-01	 1.152432110203077e+00	 8.718277052263481e+00
 8.828232249829499e-01	 1.134473112172815e+00	 9.163693084794549e+00
 9.060531571065823e-01	 1.116007968725669e+00	 9.588936250802552e+00
 9.289211839045051e-01	 1.097046752058309e+00	 9.997896755554038e+00
 9.514115593018583e-01	 1.077600215267147e+00	 1.039445104601535e+01
 9.735089689726262e-01	 1.057679772580496e+00	 1.078244156566832e+01
 9.951985648008399e-01	 1.037297477362328e+00	 1.116565712253079e+01
 1.016465997975000e+00	 1.016465997975000e+00	 1.154781402820337e+01
 7.831923968096774e-01	 1.197950847124692e+00	 7.122960572124454e+00
 8.075985463436554e-01	 1.181634910380909e+00	 7.683678713420909e+00
 8.317106485340967e-01	 1.164789173377168e+00	 8.207697508607005e+00
 8.555116708637485e-01	 1.147421535807099e+00	 8.698818346346483e+00
 8.789848631328764e-01	 1.129540620377217e+00	 9.160910247844589e+00
 9.021137955516593e-01	 1.111155760162678e+00	 9.597888962594023e+00
 9.248823961461227e-01	 1.092276983567990e+00	 1.001369605811262e+01
 9.472749873026012e-01	 1.072914996936974e+00	 1.041227817841803e+01
 9.692763212791057e-01	 1.053081164870863e+00	 1.079756664274882e+01
 9.908716145166926e-01	 1.032787488327698e+00	 1.117345755067209e+01
 1.012046580590000e+00	 1.012046580590000e+00	 1.154379255226843e+01
 7.797723426724000e-01	 1.192719620713861e+00	 7.024070687668537e+00
 8.040719151343172e-01	 1.176474932602363e+00	 7.616070297885909e+00
 8.280787243022070e-01	 1.159702757769148e+00	 8.166360666466366e+00
 8.517758120366214e-01	 1.142410961411371e+00	 8.678738841066092e+00
 8.751465012828025e-01	 1.124608128581802e+00	 9.157088233935440e+00
 8.981744339967360e-01	 1.106303551599813e+00	 9.605357875112622e+00
 9.208436083877402e-01	 1.087507215077753e+00	 1.002754155558332e+01
 9.431384153033441e-01	 1.068229778606848e+00	 1.042765703322966e+01
 9.650436735855850e-01	 1.048482557161251e+00	 1.080972547207774e+01
 9.865446642325454e-01	 1.028277499293074e+00	 1.117775128091836e+01
 1.007627163205000e+00	 1.007627163205000e+00	 1.153570251087669e+01
 7.763522885351226e-01	 1.187488394303535e+00	 6.925714912564818e+00
 8.005452839249789e-01	 1.171314954824226e+00	 7.548658157216517e+00
 8.244468000703176e-01	 1.154616342161453e+00	 8.124853292674619e+00
 8.480399532094949e-01	 1.137400387015891e+00	 8.658093704932362e+00
 8.713081394327287e-01	 1.119675636786571e+00	 9.152277942321815e+00
 8.942350724418129e-01	 1.101451343037076e+00	 9.611389123502850e+00
 9.168048206293576e-01	 1.082737446587597e+00	 1.003947413112237e+01
 9.390018433040870e-01	 1.063544560276767e+00	 1.044062276206661e+01
 9.608110258920644e-01	 1.043883949451659e+00	 1.081894700383826e+01
 9.822177139483982e-01	 1.023767510258454e+00	 1.117856060308367e+01
 1.003207745820000e+00	 1.003207745820000e+00	 1.152355908676564e+01
 7.729322343978449e-01	 1.182257167893714e+00	 6.827959083219910e+00
 7.970186527156409e-01	 1.166154977046500e+00	 7.481505316428056e+00
 8.208148758384282e-01	 1.149529926554083e+00	 8.083235084811530e+00
 8.443040943823678e-01	 1.132389812620660e+00	 8.636938794995368e+00
 8.674697775826545e-01	 1.114743144991522e+00	 9.146530880770740e+00
 8.902957108868896e-01	 1.096599134474466e+00	 9.616029363227947e+00
 9.127660328709749e-01	 1.077967678097523e+00	 1.004953509198582e+01
 9.348652713048298e-01	 1.058859341946732e+00	 1.045121083656521e+01
 9.565783781985440e-01	 1.039285341742087e+00	 1.082526039647211e+01
 9.778907636642505e-01	 1.019257521223839e+00	 1.117590789600430e+01
 9.987883284350003e-01	 9.987883284350003e-01	 1.150737742520521e+01
 7.695121802605678e-01	 1.177025941484399e+00	 6.730869934118294e+00
 7.934920215063027e-01	 1.160994999269183e+00	 7.414675642486466e+00
 8.171829516065386e-01	 1.144443510947037e+00	 8.041566517636866e+00
 8.405682355552407e-01	 1.127379238225678e+00	 8.615330672146346e+00
 8.636314157325808e-01	 1.109810653196657e+00	 9.139899179083166e+00
 8.863563493319668e-01	 1.091746925911984e+00	 9.619325781631090e+00
 9.087272451125925e-01	 1.073197909607530e+00	 1.005776617895432e+01
 9.307286993055733e-01	 1.054174123616743e+00	 1.045945705549170e+01
 9.523457305050231e-01	 1.034686734032536e+00	 1.082869502130810e+01
 9.735638133801036e-01	 1.014747532189230e+00	 1.116981562951718e+01
 9.943689110499999e-01	 9.943689110499999e-01	 1.148717263316510e+01
 7.660921261232903e-01	 1.171794715075589e+00	 6.634515117869215e+00
 7.899653902969647e-01	 1.155835021492277e+00	 7.348233863103237e+00
 8.135510273746493e-01	 1.139357095340316e+00	 7.999908860438282e+00
 8.368323767281139e-01	 1.122368663830946e+00	 8.593326616828616e+00
 8.597930538825070e-01	 1.104878161401975e+00	 9.132435602978932e+00
 8.824169877770435e-01	 1.086894717349629e+00	 9.621326109808731e+00
 9.046884573542101e-01	 1.068428141117620e+00	 1.006420957600917e+01
 9.265921273063161e-01	 1.049488905286800e+00	 1.046539755204573e+01
 9.481130828115029e-01	 1.030088126323006e+00	 1.082928046731372e+01
 9.692368630959565e-01	 1.010237543154626e+00	 1.116030636649109e+01
 9.899494936650000e-01	 9.899494936650000e-01	 1.146295977845976e+01
 7.626720719860126e-01	 1.166563488667284e+00	 6.538963225791779e+00
 7.864387590876262e-01	 1.150675043715781e+00	 7.282245586032875e+00
 8.099191031427597e-01	 1.134270679733920e+00	 7.958324194845472e+00
 8.330965179009869e-01	 1.117358089436461e+00	 8.570984645170752e+00
 8.559546920324334e-01	 1.099945669607476e+00	 9.124193568355189e+00
 8.784776262221206e-01	 1.082042508787401e+00	 9.622078634802037e+00
 9.006496695958276e-01	 1.063658372627790e+00	 1.006890792027027e+01
 9.224555553070590e-01	 1.044803686956903e+00	 1.046906880135734e+01
 9.438804351179818e-01	 1.025489518613495e+00	 1.082704654597496e+01
 9.649099128118090e-01	 1.005727554120027e+00	 1.114740276491260e+01
 9.855300762800002e-01	 9.855300762800002e-01	 1.143475388886998e+01
 7.592520178487352e-01	 1.161332262259484e+00	 6.444283809057691e+00
 7.829121278782885e-01	 1.145515065939696e+00	 7.216777318894968e+00
 8.062871789108704e-01	 1.129184264127848e+00	 7.916875433126418e+00
 8.293606590738599e-01	 1.112347515042226e+00	 8.548363525556345e+00
 8.521163301823597e-01	 1.095013177813160e+00	 9.115227155930016e+00
 8.745382646671974e-01	 1.077190300225301e+00	 9.621632212118108e+00
 8.966108818374450e-01	 1.058888604138042e+00	 1.007190431220145e+01
 9.183189833078020e-01	 1.040118468627052e+00	 1.047050762818928e+01
 9.396477874244614e-01	 1.020890910904005e+00	 1.082202329630817e+01
 9.605829625276617e-01	 1.001217565085433e+00	 1.113112758002833e+01
 9.811106588950000e-01	 9.811106588950000e-01	 1.140256995124224e+01
 7.558319637114578e-01	 1.156101035852190e+00	 6.350547400406684e+00
 7.793854966689502e-01	 1.140355088164019e+00	 7.151896489532335e+00
 8.026552546789809e-01	 1.124097848522101e+00	 7.875626336979647e+00
 8.256248002467330e-01	 1.107336940648241e+00	 8.525522795643109e+00
 8.482779683322856e-01	 1.090080686019028e+00	 9.105591126283100e+00
 8.705989031122744e-01	 1.072338091663328e+00	 9.620036278591401e+00
 8.925720940790625e-01	 1.054118835648376e+00	 1.007324232609399e+01
 9.141824113085447e-01	 1.035433250297246e+00	 1.046975121484698e+01
 9.354151397309409e-01	 1.016292303194536e+00	 1.081424099000788e+01
 9.562560122435145e-01	 9.967075760508440e-01	 1.111150366654538e+01
 9.766912415100001e-01	 9.766912415100002e-01	 1.136642291056195e+01
 7.524119095741802e-01	 1.150869809445401e+00	 6.257825536455282e+00
 7.758588654596117e-01	 1.135195110388754e+00	 7.087671466925674e+00
 7.990233304470913e-01	 1.119011432916678e+00	 7.834641536840238e+00
 8.218889414196058e-01	 1.102326366254503e+00	 8.502522779846533e+00
 8.444396064822117e-01	 1.085148194225078e+00	 9.095340935308071e+00
 8.666595415573510e-01	 1.067485883101482e+00	 9.617340865595461e+00
 8.885333063206798e-01	 1.049349067158791e+00	 1.007296602083453e+01
 9.100458393092877e-01	 1.030748031967487e+00	 1.046683710930401e+01
 9.311824920374201e-01	 1.011693695485087e+00	 1.080373013673452e+01
 9.519290619593673e-01	 9.921975870162600e-01	 1.108855398089180e+01
 9.722718241249999e-01	 9.722718241249999e-01	 1.132632766900191e+01
 1.016465997975000e+00	 1.016465997975000e+00	 1.154781402820337e+01
 1.037297466765497e+00	 9.951985809477981e-01	 1.150175448474456e+01
 1.057679730318073e+00	 9.735090334212854e-01	 1.151766749022589e+01
 1.077600120472179e+00	 9.514117039623924e-01	 1.159475151918299e+01
 1.097046584084299e+00	 9.289214403956019e-01	 1.173183917200237e+01
 1.116007707164387e+00	 9.060535567096922e-01	 1.192740436744085e+01
 1.134472736871258e+00	 8.828237985978649e-01	 1.217957204060171e+01
 1.152431601279558e+00	 8.592483077927869e-01	 1.248613025166602e+01
 1.169874926844846e+00	 8.353435853641631e-01	 1.284454458642217e+01
 1.186794053507659e+00	 8.111264541512108e-01	 1.325197470706447e+01
 1.203181047392051e+00	 7.866140205057903e-01	 1.370529289117082e+01
 1.012046580590000e+00	 1.012046580590000e+00	 1.154379255226843e+01
 1.032787477776941e+00	 9.908716305934469e-01	 1.149823510620183e+01
 1.053081122792190e+00	 9.692763854475532e-01	 1.151530938912984e+01
 1.072914902554159e+00	 9.472751313341763e-01	 1.159420511184092e+01
 1.092276816324302e+00	 9.248826515220406e-01	 1.173374465341560e+01
 1.111155499738618e+00	 9.021141934173641e-01	 1.193239028836356e+01
 1.129540246707407e+00	 8.789854342538131e-01	 1.218825391929947e+01
 1.147421029096292e+00	 8.555124455826083e-01	 1.249910922040559e+01
 1.164788514115374e+00	 8.317116567296727e-01	 1.286240607273688e+01
 1.181634079357625e+00	 8.075998173914455e-01	 1.327528714991329e+01
 1.197949825442210e+00	 7.831939595443440e-01	 1.373460649222449e+01
 1.007627163205000e+00	 1.007627163205000e+00	 1.153570251087669e+01
 1.028277488788389e+00	 9.865446802390953e-01	 1.149065676060888e+01
 1.048482515266327e+00	 9.650437374738209e-01	 1.150892563742288e+01
 1.068229684636185e+00	 9.431385587059606e-01	 1.158968999693516e+01
 1.087507048564387e+00	 9.208438626484796e-01	 1.173176182976670e+01
 1.106303292312977e+00	 8.981748301250362e-01	 1.193359152426502e+01
 1.124607756543738e+00	 8.751470699097617e-01	 1.219327763527909e+01
 1.142410456913274e+00	 8.517765833724292e-01	 1.250857906417310e+01
 1.159702101386227e+00	 8.280797280951822e-01	 1.287692953113205e+01
 1.176474105208001e+00	 8.040731806316803e-01	 1.329545419835168e+01
 1.192718603492875e+00	 7.797738985828979e-01	 1.376098828223823e+01
 1.003207745820000e+00	 1.003207745820000e+00	 1.152355908676564e+01
 1.023767499799843e+00	 9.822177298847440e-01	 1.147903491125474e+01
 1.043883907740485e+00	 9.608110895000889e-01	 1.149853212717827e+01
 1.063544466718256e+00	 9.390019860777448e-01	 1.158122264260489e+01
 1.082737280804553e+00	 9.168050737749184e-01	 1.172590789128230e+01
 1.101451084887463e+00	 8.942354668327082e-01	 1.193102613191573e+01
 1.119675266380252e+00	 8.713087055657098e-01	 1.219466225444683e+01
 1.137399884730505e+00	 8.480407211622509e-01	 1.251455999844653e+01
 1.154615688657404e+00	 8.244477994606920e-01	 1.288813646465207e+01
 1.171314131058787e+00	 8.005465438719153e-01	 1.331249877827134e+01
 1.187487381544044e+00	 7.763538376214516e-01	 1.378446274225041e+01
 9.987883284350003e-01	 9.987883284350003e-01	 1.150737742520521e+01
 1.019257510811302e+00	 9.778907795303926e-01	 1.146338498888159e+01
 1.039285300214663e+00	 9.565784415263566e-01	 1.148414472612353e+01
 1.058859248800373e+00	 9.348654134495288e-01	 1.156881950410705e+01
 1.077967513044800e+00	 9.127662849013570e-01	 1.171620003000491e+01
 1.096598877462076e+00	 8.902961035403805e-01	 1.192471218779884e+01
 1.114742776216950e+00	 8.674703412216581e-01	 1.219242688347366e+01
 1.132389312547985e+00	 8.443048589520719e-01	 1.251707230362397e+01
 1.149529275928907e+00	 8.208158708262020e-01	 1.289604846846292e+01
 1.166154156909983e+00	 7.970199071121501e-01	 1.332644393786432e+01
 1.182256159595719e+00	 7.729337766600053e-01	 1.380505450868507e+01
 9.943689110499999e-01	 9.943689110499999e-01	 1.148717263316510e+01
 1.014747521822766e+00	 9.735638291760412e-01	 1.144372239096141e+01
 1.034686692688862e+00	 9.523457935526245e-01	 1.146577927710028e+01
 1.054174030882536e+00	 9.307288408213128e-01	 1.155249702353039e+01
 1.073197745285130e+00	 9.087274960277960e-01	 1.170265543983326e+01
 1.091746670036817e+00	 8.863567402480524e-01	 1.191466778854830e+01
 1.109810286053830e+00	 8.636319768776063e-01	 1.218659067070141e+01
 1.127378740365714e+00	 8.405689967418932e-01	 1.251613632646769e+01
 1.144442863200734e+00	 8.171839421917116e-01	 1.290068723189949e+01
 1.160994182761590e+00	 7.934932703523848e-01	 1.333731285034179e+01
 1.177024937647899e+00	 7.695137156985591e-01	 1.382278837680408e+01
 9.899494936650000e-01	 9.899494936650000e-01	 1.146295977845976e+01
 1.010237532834234e+00	 9.692368788216899e-01	 1.142006248095340e+01
 1.030088085163080e+00	 9.481131455788924e-01	 1.144345159750788e+01
 1.049488812964745e+00	 9.265922681930971e-01	 1.153227162950178e+01
 1.068427977525541e+00	 9.046887071542349e-01	 1.168529131656404e+01
 1.086894462611685e+00	 8.824173769557245e-01	 1.190091105139846e+01
 1.104877795890894e+00	 8.597936125335547e-01	 1.217717280707260e+01
 1.122368168183692e+00	 8.368331345317145e-01	 1.251177248158404e+01
 1.139356450472885e+00	 8.135520135572216e-01	 1.290207454056732e+01
 1.155834208613606e+00	 7.899666335926198e-01	 1.334512881672411e+01
 1.171793715700584e+00	 7.660936547371128e-01	 1.383768930425344e+01
 9.855300762800002e-01	 9.855300762800002e-01	 1.143475388886998e+01
 1.005727543845709e+00	 9.649099284673383e-01	 1.139242058754143e+01
 1.025489477637320e+00	 9.438804976051601e-01	 1.141717747873389e+01
 1.044803595047000e+00	 9.224556955648815e-01	 1.150815973688406e+01
 1.063658209766033e+00	 9.006499182806734e-01	 1.166412485793366e+01
 1.082042255186680e+00	 8.784780136633967e-01	 1.188346011464605e+01
 1.099945305728141e+00	 8.559552481895031e-01	 1.216419252708563e+01
 1.117357596001919e+00	 8.330972723215359e-01	 1.250400125294583e+01
 1.134270037745361e+00	 8.099200849227315e-01	 1.290023227850109e+01
 1.150674234466033e+00	 7.864399968328547e-01	 1.334991526870660e+01
 1.166562493753775e+00	 7.626735937756666e-01	 1.384978241470339e+01
 9.811106588950000e-01	 9.811106588950000e-01	 1.140256995124224e+01
 1.001217554857188e+00	 9.605829781129870e-01	 1.136081200385062e+01
 1.020890870111580e+00	 9.396478496314279e-01	 1.138697268556759e+01
 1.040118377129301e+00	 9.183191229366654e-01	 1.148017774646603e+01
 1.058888442006606e+00	 8.966111294071123e-01	 1.163917326366305e+01
 1.077190047761802e+00	 8.745386503710686e-01	 1.186233313812467e+01
 1.095012815565571e+00	 8.521168838454514e-01	 1.214766910977555e+01
 1.112347023820395e+00	 8.293614101113570e-01	 1.249284319545375e+01
 1.129183625018162e+00	 8.062881562882411e-01	 1.289518243038170e+01
 1.145514260318869e+00	 7.829133600730893e-01	 1.335169577160261e+01
 1.161331271807471e+00	 7.592535328142201e-01	 1.385909300158834e+01
 9.766912415100001e-01	 9.766912415100002e-01	 1.136642291056195e+01
 9.967075658686722e-01	 9.562560277586355e-01	 1.132525198664302e+01
 1.016292262585860e+00	 9.354152016576960e-01	 1.135285295559838e+01
 1.035433159211647e+00	 9.141825503084494e-01	 1.144834204464436e+01
 1.054118674247262e+00	 8.925723405335512e-01	 1.161045373550141e+01
 1.072337840337052e+00	 8.705992870787408e-01	 1.183754830369196e+01
 1.090080325403185e+00	 8.482785195013997e-01	 1.212762187972251e+01
 1.107336451639120e+00	 8.256255479011784e-01	 1.247831893654143e+01
 1.124097212291288e+00	 8.026562276537510e-01	 1.288694708381337e+01
 1.140354286172116e+00	 7.793867233133241e-01	 1.335049402736675e+01
 1.156100049861672e+00	 7.558334718527739e-01	 1.386564653194741e+01
 9.722718241249999e-01	 9.722718241249999e-01	 1.132632766900191e+01
 9.921975768801612e-01	 9.519290774042839e-01	 1.128575575549141e+01
 1.011693655060161e+00	 9.311825536839636e-01	 1.131483399859773e+01
 1.030747941294040e+00	 9.100459776802332e-01	 1.141266900309574e+01
 1.049348906487999e+00	 8.885335516599898e-01	 1.157798347727322e+01
 1.067485632912430e+00	 8.666599237864128e-01	 1.180912381572993e+01
 1.085147835240980e+00	 8.444401551573477e-01	 1.210407020808617e+01
 1.102325879458094e+00	 8.218896856909994e-01	 1.246044917782419e+01
 1.119010799564737e+00	 7.990242990192606e-01	 1.287554843166243e+01
 1.135194312025773e+00	 7.758600865535589e-01	 1.334633387770016e+01
 1.150868827916379e+00	 7.524134108913274e-01	 1.386946865036990e+01
 1.203181047392051e+00	 7.866140205057903e-01	 1.370529289117082e+01
 1.219028711069166e+00	 7.618236355234277e-01	 1.361293502834181e+01
 1.234330591370090e+00	 7.367728559421064e-01	 1.353287252584495e+01
 1.249080984748230e+00	 7.114794048855732e-01	 1.345953119273899e+01
 1.263274940206068e+00	 6.859611326255991e-01	 1.362102431765003e+01
 1.276908259813596e+00	 6.602359775369484e-01	 1.380239195217525e+01
 1.289977496860428e+00	 6.343219274121984e-01	 1.398002415115729e+01
 1.302479951696174e+00	 6.082369812983345e-01	 1.423334621056523e+01
 1.314413665325824e+00	 5.819991120102482e-01	 1.449234881483338e+01
 1.325777410838185e+00	 5.556262294685159e-01	 1.469981208070644e+01
 1.336570682755877e+00	 5.291361450002061e-01	 1.485305964400527e+01
 1.197949825442210e+00	 7.831939595443440e-01	 1.373460649222449e+01
 1.213728586233489e+00	 7.585113588443824e-01	 1.365584295507486e+01
 1.228963936619848e+00	 7.335694956959359e-01	 1.358771938895128e+01
 1.243650197852724e+00	 7.083860161656899e-01	 1.352473444254945e+01
 1.257782440460675e+00	 6.829786929155388e-01	 1.359966122178933e+01
 1.271356484765559e+00	 6.573653863273123e-01	 1.378621190799825e+01
 1.284368899042690e+00	 6.315640059857937e-01	 1.396808452135613e+01
 1.296816995379287e+00	 6.055924726812418e-01	 1.424955235533892e+01
 1.308698823297708e+00	 5.794686810858743e-01	 1.452355381213062e+01
 1.320013161221155e+00	 5.532104632510471e-01	 1.474524864801113e+01
 1.330759505869976e+00	 5.268355530632755e-01	 1.491203578941191e+01
 1.192718603492875e+00	 7.797738985828979e-01	 1.376098828223823e+01
 1.208428461398411e+00	 7.551990821653378e-01	 1.369581753952897e+01
 1.223597281870291e+00	 7.303661354497651e-01	 1.363963241233096e+01
 1.238219410957978e+00	 7.052926274458068e-01	 1.358700424395165e+01
 1.252289940716105e+00	 6.799962532054785e-01	 1.357353639741430e+01
 1.265804709718400e+00	 6.544947951176764e-01	 1.376516276814270e+01
 1.278760301225874e+00	 6.288060845593890e-01	 1.395115325626713e+01
 1.291154039063356e+00	 6.029479640641492e-01	 1.426383393628057e+01
 1.302983981270572e+00	 5.769382501615005e-01	 1.455275243355916e+01
 1.314248911605120e+00	 5.507946970335782e-01	 1.478859502849334e+01
 1.324948328985077e+00	 5.245349611263449e-01	 1.496883572510283e+01
 1.187487381544044e+00	 7.763538376214516e-01	 1.378446274225041e+01
 1.203128336563934e+00	 7.518868054862928e-01	 1.373288183571287e+01
 1.218230627121419e+00	 7.271627752035947e-01	 1.368863310319809e+01
 1.232788624063990e+00	 7.021992387259235e-01	 1.364636044198021e+01
 1.246797440972357e+00	 6.770138134954181e-01	 1.360064306666663e+01
 1.260252934672120e+00	 6.516242039080404e-01	 1.373919134740732e+01
 1.273151703409980e+00	 6.260481631329846e-01	 1.392917691190063e+01
 1.285491082748381e+00	 6.003034554470568e-01	 1.427620906167928e+01
 1.297269139244417e+00	 5.744078192371266e-01	 1.457996023976639e+01
 1.308484661990081e+00	 5.483789308161094e-01	 1.482986415439107e+01
 1.319137152101176e+00	 5.222343691894142e-01	 1.502346968150105e+01
 1.182256159595719e+00	 7.729337766600053e-01	 1.380505450868507e+01
 1.197828211730057e+00	 7.485745288072477e-01	 1.376705903386332e+01
 1.212863972373232e+00	 7.239594149574242e-01	 1.373474308423367e+01
 1.227357837170763e+00	 6.991058500060405e-01	 1.370282297482153e+01
 1.241304941229435e+00	 6.740313737853582e-01	 1.366595546110082e+01
 1.254701159626717e+00	 6.487536126984044e-01	 1.370824450467152e+01
 1.267543105595009e+00	 6.232902417065800e-01	 1.391611377240250e+01
 1.279828126434363e+00	 5.976589468299641e-01	 1.428669582930498e+01
 1.291554297219242e+00	 5.718773883127527e-01	 1.460519275166460e+01
 1.302720412376036e+00	 5.459631645986405e-01	 1.486906888780273e+01
 1.313325975218275e+00	 5.199337772524837e-01	 1.507594778736517e+01
 1.177024937647899e+00	 7.695137156985591e-01	 1.382278837680408e+01
 1.192528086896780e+00	 7.452622521282029e-01	 1.379837246347256e+01
 1.207497317625729e+00	 7.207560547112536e-01	 1.377798409615141e+01
 1.221927050278294e+00	 6.960124612861573e-01	 1.375641187588455e+01
 1.235812441487336e+00	 6.710489340752979e-01	 1.372838995717169e+01
 1.249149384582191e+00	 6.458830214887682e-01	 1.368862670571624e+01
 1.261934507780960e+00	 6.205323202801754e-01	 1.390922506802169e+01
 1.274165170121301e+00	 5.950144382128715e-01	 1.429531232617446e+01
 1.285839455195048e+00	 5.693469573883788e-01	 1.462846544954838e+01
 1.296956162762987e+00	 5.435473983811716e-01	 1.490622201912857e+01
 1.307514798336374e+00	 5.176331853155532e-01	 1.512628006753005e+01
 1.171793715700584e+00	 7.660936547371128e-01	 1.383768930425344e+01
 1.187227962064104e+00	 7.419499754491580e-01	 1.382684559639667e+01
 1.202130662878911e+00	 7.175526944650827e-01	 1.381837800033265e+01
 1.216496263386585e+00	 6.929190725662744e-01	 1.380714727592545e+01
 1.230319941746060e+00	 6.680664943652375e-01	 1.378796483968937e+01
 1.243597609538545e+00	 6.430124302791324e-01	 1.375562093568808e+01
 1.256325909967833e+00	 6.177743988537706e-01	 1.390057421088090e+01
 1.268502213809195e+00	 5.923699295957788e-01	 1.430207662831181e+01
 1.280124613171834e+00	 5.668165264640049e-01	 1.464979377218759e+01
 1.291191913150933e+00	 5.411316321637029e-01	 1.494133626547021e+01
 1.301703621455474e+00	 5.153325933786226e-01	 1.517447644058707e+01
 1.166562493753775e+00	 7.626735937756666e-01	 1.384978241470339e+01
 1.181927837232028e+00	 7.386376987701130e-01	 1.385250205004756e+01
 1.196764008132779e+00	 7.143493342189127e-01	 1.385594678153175e+01
 1.211065476495635e+00	 6.898256838463911e-01	 1.385504940523089e+01
 1.224827442005609e+00	 6.650840546551774e-01	 1.384469846754946e+01
 1.238045834495775e+00	 6.401418390694962e-01	 1.381976595061577e+01
 1.250717312155628e+00	 6.150164774273660e-01	 1.389018184099113e+01
 1.262839257498046e+00	 5.897254209786862e-01	 1.430700680050140e+01
 1.274409771149602e+00	 5.642860955396313e-01	 1.466919311589658e+01
 1.285427663539874e+00	 5.387158659462340e-01	 1.497442426898731e+01
 1.295892444575573e+00	 5.130320014416920e-01	 1.522054671650207e+01
 1.161331271807471e+00	 7.592535328142201e-01	 1.385909300158834e+01
 1.176627712400551e+00	 7.353254220910681e-01	 1.387536559067127e+01
 1.191397353387331e+00	 7.111459739727419e-01	 1.389071255065465e+01
 1.205634689605445e+00	 6.867322951265078e-01	 1.390013859585942e+01
 1.219334942265981e+00	 6.621016149451170e-01	 1.389860927540120e+01
 1.232494059453884e+00	 6.372712478598603e-01	 1.388107817439936e+01
 1.245108714344345e+00	 6.122585560009612e-01	 1.397873254649399e+01
 1.257176301187853e+00	 5.870809123615937e-01	 1.431012089603527e+01
 1.268694929128350e+00	 5.617556646152573e-01	 1.468667883357781e+01
 1.279663413929810e+00	 5.363000997287651e-01	 1.500549859520956e+01
 1.290081267696673e+00	 5.107314095047614e-01	 1.526450059416883e+01
 1.156100049861672e+00	 7.558334718527739e-01	 1.386564653194742e+01
 1.171327587569675e+00	 7.320131454120232e-01	 1.389546013671529e+01
 1.186030698642568e+00	 7.079426137265714e-01	 1.392269754761329e+01
 1.200203902716014e+00	 6.836389064066247e-01	 1.394243528394431e+01
 1.213842442527176e+00	 6.591191752350568e-01	 1.394971577536183e+01
 1.226942284412871e+00	 6.344006566502240e-01	 1.393957408018803e+01
 1.239500116533984e+00	 6.095006345745566e-01	 1.408255293725477e+01
 1.251513344878617e+00	 5.844364037445010e-01	 1.431143695645250e+01
 1.262980087108079e+00	 5.592252336908833e-01	 1.470226623373980e+01
 1.273899164320742e+00	 5.338843335112964e-01	 1.503457173130297e+01
 1.284270090818772e+00	 5.084308175678308e-01	 1.530634765889590e+01
 1.150868827916379e+00	 7.524134108913274e-01	 1.386946865036990e+01
 1.166027462739399e+00	 7.287008687329781e-01	 1.391280976228764e+01
 1.180664043898490e+00	 7.047392534804007e-01	 1.395192414425717e+01
 1.194773115827342e+00	 6.805455176867414e-01	 1.398196001205831e+01
 1.208349942789195e+00	 6.561367355249964e-01	 1.399803655877668e+01
 1.221390509372736e+00	 6.315300654405881e-01	 1.399527019149971e+01
 1.233891518724545e+00	 6.067427131481519e-01	 1.418704956585770e+01
 1.245850388570336e+00	 5.817918951274083e-01	 1.440073358574904e+01
 1.257265245088788e+00	 5.566948027665095e-01	 1.471597057948812e+01
 1.268134914712668e+00	 5.314685672938275e-01	 1.506165608428889e+01
 1.278458913941871e+00	 5.061302256309002e-01	 1.534609737982550e+01
 1.336570682755877e+00	 5.291361450002061e-01	 1.485305964400527e+01
 1.346793684405089e+00	 5.025465367328583e-01	 1.505652035005254e+01
 1.356447313410629e+00	 4.758749161986704e-01	 1.521367150962386e+01
 1.365533145430621e+00	 4.491385962590996e-01	 1.532525851824520e+01
 1.374053416251349e+00	 4.223546604492830e-01	 1.539212628130921e+01
 1.382011002366635e+00	 3.955399338264617e-01	 1.541522366858846e+01
 1.389409400171311e+00	 3.687109553981858e-01	 1.539560691382157e+01
 1.396252703901046e+00	 3.418839521937849e-01	 1.533444193272266e+01
 1.402545582452712e+00	 3.150748150310683e-01	 1.523300554775404e+01
 1.408293255220358e+00	 2.882990760188403e-01	 1.509268562246864e+01
 1.413501467081763e+00	 2.615718878246577e-01	 1.491498012196850e+01
 1.330759505869976e+00	 5.268355530632755e-01	 1.491203578941191e+01
 1.340938059686295e+00	 5.003615517886243e-01	 1.511718855506112e+01
 1.350549716392163e+00	 4.738058948221450e-01	 1.527579458496492e+01
 1.359596044795018e+00	 4.471858197519844e-01	 1.538849495606233e+01
 1.368079270960333e+00	 4.205183358370410e-01	 1.545603389234439e+01
 1.376002258875435e+00	 3.938201949821336e-01	 1.547926338451010e+01
 1.383368489733440e+00	 3.671078642860852e-01	 1.545914673581029e+01
 1.390182039968993e+00	 3.403975002259246e-01	 1.539676100781170e+01
 1.396447558179413e+00	 3.137049245289500e-01	 1.529329835485909e+01
 1.402170241065732e+00	 2.870456017730584e-01	 1.515006625052514e+01
 1.407355808527999e+00	 2.604346187446449e-01	 1.496848662311826e+01
 1.324948328985077e+00	 5.245349611263449e-01	 1.496883572510283e+01
 1.335082434968496e+00	 4.981765668443958e-01	 1.517623465866494e+01
 1.344652119374676e+00	 4.717368734456407e-01	 1.533684711249182e+01
 1.353658944160366e+00	 4.452330432449171e-01	 1.545120852824516e+01
 1.362105125670231e+00	 4.186820112248839e-01	 1.551996117269390e+01
 1.369993515385103e+00	 3.921004561379379e-01	 1.554385892702023e+01
 1.377327579296380e+00	 3.655047731741741e-01	 1.552377098302058e+01
 1.384111376037683e+00	 3.389110482583209e-01	 1.546068442030281e+01
 1.390349533906780e+00	 3.123350340271646e-01	 1.535570565368343e+01
 1.396047226911686e+00	 2.857921275276959e-01	 1.521006075455504e+01
 1.401210149974721e+00	 2.592973496651468e-01	 1.502509466381368e+01
 1.319137152101176e+00	 5.222343691894142e-01	 1.502346968150105e+01
 1.329226810251690e+00	 4.959915819001725e-01	 1.523367461528312e+01
 1.338754522358166e+00	 4.696678520691581e-01	 1.539685071274747e+01
 1.347721843526666e+00	 4.432802667378980e-01	 1.551342645595800e+01
 1.356130980381045e+00	 4.168456866128118e-01	 1.558394087130682e+01
 1.363984771895638e+00	 3.903807172938744e-01	 1.560904849298817e+01
 1.371286668860131e+00	 3.639016820624523e-01	 1.558952321366576e+01
 1.378040712107117e+00	 3.374245962909735e-01	 1.552626099678851e+01
 1.384251509634815e+00	 3.109651435257126e-01	 1.542028144017653e+01
 1.389924212758221e+00	 2.845386532827526e-01	 1.527272819511989e+01
 1.395064491421928e+00	 2.581600805861633e-01	 1.508486825910117e+01
 1.313325975218275e+00	 5.199337772524837e-01	 1.507594778736517e+01
 1.323371185535880e+00	 4.938065969559547e-01	 1.528952439539253e+01
 1.332856925342636e+00	 4.675988306926969e-01	 1.545582713908777e+01
 1.341784742893919e+00	 4.413274902309269e-01	 1.557517620877301e+01
 1.350156835092773e+00	 4.150093620008249e-01	 1.564800609978732e+01
 1.357976028407042e+00	 3.886609784499430e-01	 1.567487075465820e+01
 1.365245758424692e+00	 3.622985909509201e-01	 1.565644757235402e+01
 1.371970048177294e+00	 3.359381443238826e-01	 1.559354025941243e+01
 1.378153485363516e+00	 3.095952530245935e-01	 1.548708051297496e+01
 1.383801198605337e+00	 2.832851790382285e-01	 1.533812854043734e+01
 1.388918832869620e+00	 2.570228115076946e-01	 1.514787243434618e+01
 1.307514798336374e+00	 5.176331853155532e-01	 1.512628006753005e+01
 1.317515560821064e+00	 4.916216120117421e-01	 1.534379998588433e+01
 1.326959328328084e+00	 4.655298093162573e-01	 1.551379828063309e+01
 1.335847642262123e+00	 4.393747137240037e-01	 1.563648551019041e+01
 1.344182689805417e+00	 4.131730373889230e-01	 1.571219034045377e+01
 1.351967284919313e+00	 3.869412396061440e-01	 1.574136487021347e+01
 1.359204847990064e+00	 3.606954998395772e-01	 1.572458880311964e+01
 1.365899384248215e+00	 3.344516923570482e-01	 1.566257244132593e+01
 1.372055461092884e+00	 3.082253625238076e-01	 1.555615849124010e+01
 1.377678184453033e+00	 2.820317047941239e-01	 1.540632268655135e+01
 1.382773174317798e+00	 2.558855424297404e-01	 1.521417324768472e+01
 1.301703621455474e+00	 5.153325933786226e-01	 1.517447644058707e+01
 1.311659936107243e+00	 4.894366270675350e-01	 1.539651739043072e+01
 1.321061731314511e+00	 4.634607879398389e-01	 1.557078616529876e+01
 1.329910541631280e+00	 4.374219372171290e-01	 1.569738234330680e+01
 1.338208544518974e+00	 4.113367127771060e-01	 1.577652745461365e+01
 1.345958541432452e+00	 3.852215007624771e-01	 1.580857049462281e+01
 1.353163937556246e+00	 3.590924087284239e-01	 1.579399226280276e+01
 1.359828720319880e+00	 3.329652403904702e-01	 1.573340850255887e+01
 1.365957436822919e+00	 3.068554720233550e-01	 1.562757183297343e+01
 1.371555170301311e+00	 2.807782305504385e-01	 1.547737247804258e+01
 1.376627515766460e+00	 2.547482733523011e-01	 1.528383781307618e+01
 1.295892444575573e+00	 5.130320014416920e-01	 1.522054671650207e+01
 1.305804311394416e+00	 4.872516421233333e-01	 1.544769262986087e+01
 1.315164134301916e+00	 4.613917665634422e-01	 1.562681296290702e+01
 1.323973441001388e+00	 4.354691607103020e-01	 1.575789495663533e+01
 1.332234399233448e+00	 4.095003881653742e-01	 1.584105169106105e+01
 1.339949797946459e+00	 3.835017619189424e-01	 1.587652779077936e+01
 1.347123027123238e+00	 3.574893176174598e-01	 1.586470393478981e+01
 1.353758056392288e+00	 3.314787884241488e-01	 1.580610014631719e+01
 1.359859412553621e+00	 3.054855815232355e-01	 1.570137785382430e+01
 1.365432156150168e+00	 2.795247563071724e-01	 1.555134072929585e+01
 1.370481857215609e+00	 2.536110042753763e-01	 1.535693432397673e+01
 1.290081267696673e+00	 5.107314095047614e-01	 1.526450059416882e+01
 1.299948686682584e+00	 4.850666571791373e-01	 1.549734174254750e+01
 1.309266537290300e+00	 4.593227451870668e-01	 1.568190098838311e+01
 1.318036340372448e+00	 4.335163842035232e-01	 1.581805187008372e+01
 1.326260253948836e+00	 4.076640635537273e-01	 1.590579769480386e+01
 1.333941054461333e+00	 3.817820230755400e-01	 1.594527744094053e+01
 1.341082116691042e+00	 3.558862265066853e-01	 1.593677044312455e+01
 1.347687392465439e+00	 3.299923364580837e-01	 1.588069983572134e+01
 1.353761388284989e+00	 3.041156910234493e-01	 1.577763474640676e+01
 1.359309141999607e+00	 2.782712820643256e-01	 1.562829124634292e+01
 1.364336198665242e+00	 2.524737351989662e-01	 1.543353207765210e+01
 1.284270090818772e+00	 5.084308175678308e-01	 1.530634765889590e+01
 1.294093061971747e+00	 4.828816722349463e-01	 1.554548078480381e+01
 1.303368940279662e+00	 4.572537238107128e-01	 1.573607270503817e+01
 1.312099239744460e+00	 4.315636076967925e-01	 1.587788188109452e+01
 1.320286108665140e+00	 4.058277389421656e-01	 1.597080051602775e+01
 1.327932310977076e+00	 3.800622842322697e-01	 1.601486065847805e+01
 1.335041206259655e+00	 3.542831353961000e-01	 1.601023906700276e+01
 1.341616728539334e+00	 3.285058844922752e-01	 1.595726081099878e+01
 1.347663364017025e+00	 3.027458005239961e-01	 1.585640160014014e+01
 1.353186127849626e+00	 2.770178078218981e-01	 1.570828884929751e+01
 1.358190540115361e+00	 2.513364661230708e-01	 1.551370150015072e+01
 1.278458913941871e+00	 5.061302256309002e-01	 1.534609737982550e+01
 1.288237437261904e+00	 4.806966872907606e-01	 1.559212583129112e+01
 1.297471343270002e+00	 4.551847024343803e-01	 1.578935072794175e+01
 1.306162139117423e+00	 4.296108311901095e-01	 1.593741407095249e+01
 1.314311963382357e+00	 4.039914143306887e-01	 1.603609561930490e+01
 1.321923567493685e+00	 3.783425453891316e-01	 1.608531919994891e+01
 1.329000295829080e+00	 3.526800442857044e-01	 1.608515775566209e+01
 1.335546064613972e+00	 3.270194325267232e-01	 1.603583710714545e+01
 1.341565339749727e+00	 3.013759100248760e-01	 1.593773842163107e+01
 1.347063113700226e+00	 2.757643335798898e-01	 1.579139939540309e+01
 1.352044881565965e+00	 2.501991970476900e-01	 1.559751417195794e+01
 1.413501467081763e+00	 2.615718878246577e-01	 1.491498012196850e+01
 1.418176462669061e+00	 2.349080047260341e-01	 1.515777195228790e+01
 1.422324960056710e+00	 2.083217654544126e-01	 1.535234434633239e+01
 1.425954123995218e+00	 1.818270778291114e-01	 1.549900984082040e+01
 1.429071538815522e+00	 1.554374051692452e-01	 1.559827854556541e+01
 1.431685181126896e+00	 1.291657544645206e-01	 1.565085332107767e+01
 1.433803392424789e+00	 1.030246662759465e-01	 1.565762370990580e+01
 1.435434851720107e+00	 7.702620633025485e-02	 1.561965872703859e+01
 1.436588548295736e+00	 5.118195876485414e-02	 1.553819862057698e+01
 1.437273754689956e+00	 2.550302097384089e-02	 1.541464571809034e+01
 1.437500000000000e+00	 0.000000000000000e+00	 1.525055447665032e+01
 1.407355808527999e+00	 2.604346187446449e-01	 1.496848662311826e+01
 1.412010478047767e+00	 2.338866655722781e-01	 1.521308887251616e+01
 1.416140938490466e+00	 2.074160186451762e-01	 1.540947281953144e+01
 1.419754323455514e+00	 1.810365253138758e-01	 1.555800312314586e+01
 1.422858184298499e+00	 1.547615903613190e-01	 1.565923809291644e+01
 1.425460462947785e+00	 1.286041642250813e-01	 1.571392479914669e+01
 1.427569464631447e+00	 1.025767329419909e-01	 1.572299296650879e+01
 1.429193830625566e+00	 7.669130977909611e-02	 1.568754775498470e+01
 1.430342511129186e+00	 5.095942850798788e-02	 1.560886153771543e+01
 1.431024738365205e+00	 2.539213827322084e-02	 1.548836478941386e+01
 1.431250000000000e+00	 0.000000000000000e+00	 1.532763620146678e+01
 1.401210149974721e+00	 2.592973496651468e-01	 1.502509466381368e+01
 1.405844493426863e+00	 2.328653264191208e-01	 1.527140888505479e+01
 1.409956916924528e+00	 2.065102718365907e-01	 1.546950553637972e+01
 1.413554522916044e+00	 1.802459727993121e-01	 1.561980131317810e+01
 1.416644829781647e+00	 1.540857755540556e-01	 1.572290265597747e+01
 1.419235744768790e+00	 1.280425739862656e-01	 1.577960079330860e+01
 1.421335536838181e+00	 1.021287996085904e-01	 1.579086559757663e+01
 1.422952809531066e+00	 7.635641322839501e-02	 1.575783835636217e+01
 1.424096473962654e+00	 5.073689825145394e-02	 1.568182356713195e+01
 1.424775722040459e+00	 2.528125557278031e-02	 1.556427986726584e+01
 1.425000000000000e+00	 0.000000000000000e+00	 1.540681021366963e+01
 1.395064491421928e+00	 2.581600805861633e-01	 1.508486825910117e+01
 1.399678508806351e+00	 2.318439872665620e-01	 1.533279326493125e+01
 1.403772895358897e+00	 2.056045250286561e-01	 1.553250108420256e+01
 1.407354722376808e+00	 1.794554202854206e-01	 1.568446036735997e+01
 1.410431475264964e+00	 1.534099607474549e-01	 1.578932562131710e+01
 1.413011026589914e+00	 1.274809837480734e-01	 1.584793218513639e+01
 1.415101609044989e+00	 1.016808662757448e-01	 1.586129004811476e+01
 1.416711788436608e+00	 7.602151667815155e-02	 1.583057661126575e+01
 1.417850436796140e+00	 5.051436799525226e-02	 1.575712849857626e+01
 1.418526705715718e+00	 2.517037287251931e-02	 1.564243252820819e+01
 1.418750000000000e+00	 0.000000000000000e+00	 1.548811595606886e+01
 1.388918832869620e+00	 2.570228115076946e-01	 1.514787243434618e+01
 1.393512524186229e+00	 2.308226481146018e-01	 1.539730426357142e+01
 1.397588873793573e+00	 2.046987782213724e-01	 1.559851899329454e+01
 1.401154921837805e+00	 1.786648677722011e-01	 1.575203715221055e+01
 1.404218120748453e+00	 1.527341459415170e-01	 1.585856125326613e+01
 1.406786308411155e+00	 1.269193935105047e-01	 1.591897070226991e+01
 1.408867681251872e+00	 1.012329329434541e-01	 1.593431557815711e+01
 1.410470767342191e+00	 7.568662012836576e-02	 1.590580938447200e+01
 1.411604399629646e+00	 5.029183773938291e-02	 1.583482087685723e+01
 1.412277689390981e+00	 2.505949017243784e-02	 1.572286507499303e+01
 1.412500000000000e+00	 0.000000000000000e+00	 1.557159356957709e+01
 1.382773174317798e+00	 2.558855424297404e-01	 1.521417324768472e+01
 1.387346539566498e+00	 2.298013089632402e-01	 1.546500513049774e+01
 1.391404852228556e+00	 2.037930314147395e-01	 1.566761975787435e+01
 1.394955121299035e+00	 1.778743152596538e-01	 1.582258946454910e+01
 1.398004766232112e+00	 1.520583311362419e-01	 1.593066471342306e+01
 1.400561590232514e+00	 1.263578032735595e-01	 1.599276893721754e+01
 1.402633753458830e+00	 1.007849996117183e-01	 1.600999228087788e+01
 1.404229746247817e+00	 7.535172357903762e-02	 1.598358434287644e+01
 1.405358362463170e+00	 5.006930748384585e-02	 1.591494601862160e+01
 1.406028673066249e+00	 2.494860747253589e-02	 1.580562055270042e+01
 1.406250000000000e+00	 0.000000000000000e+00	 1.565728390872307e+01
 1.376627515766460e+00	 2.547482733523011e-01	 1.528383781307618e+01
 1.381180554947158e+00	 2.287799698124772e-01	 1.553596013560788e+01
 1.385220830663846e+00	 2.028872846087576e-01	 1.573986485760125e+01
 1.388755320760499e+00	 1.770837627477785e-01	 1.589617605226060e+01
 1.391791411715942e+00	 1.513825163316296e-01	 1.600569208068277e+01
 1.394336872053990e+00	 1.257962130372378e-01	 1.606938036666110e+01
 1.396399825665862e+00	 1.003370662805375e-01	 1.608837110118830e+01
 1.397988725153484e+00	 7.501682703016713e-02	 1.606394997339816e+01
 1.399112325296712e+00	 4.984677722864107e-02	 1.599755002958293e+01
 1.399779656741521e+00	 2.483772477281346e-02	 1.589074276530791e+01
 1.400000000000000e+00	 0.000000000000000e+00	 1.574522855758058e+01
 1.370481857215609e+00	 2.536110042753763e-01	 1.535693432397673e+01
 1.375014570328208e+00	 2.277586306623127e-01	 1.561023459205329e+01
 1.379036809099443e+00	 2.019815378034265e-01	 1.581531677966978e+01
 1.382555520222197e+00	 1.762932102365753e-01	 1.597285663562026e+01
 1.385578057199942e+00	 1.507067015276801e-01	 1.608370037180336e+01
 1.388112153875584e+00	 1.252346228015397e-01	 1.614885937128054e+01
 1.390165897872969e+00	 9.988913294991164e-02	 1.616950385483411e+01
 1.391747704059194e+00	 7.468193048175430e-02	 1.614695560136599e+01
 1.392866288130272e+00	 4.962424697376861e-02	 1.608267982221333e+01
 1.393530640416798e+00	 2.472684207327056e-02	 1.597827629270635e+01
 1.393750000000000e+00	 0.000000000000000e+00	 1.583546984612587e+01
 1.364336198665242e+00	 2.524737351989662e-01	 1.543353207765210e+01
 1.368848585709649e+00	 2.267372915127469e-01	 1.568789487973565e+01
 1.372852787535347e+00	 2.010757909987463e-01	 1.589403904150216e+01
 1.376355719684127e+00	 1.755026577260442e-01	 1.605269192919396e+01
 1.379364702684112e+00	 1.500308867243932e-01	 1.616474756252940e+01
 1.381887435697295e+00	 1.246730325664651e-01	 1.623126125611421e+01
 1.383931970080151e+00	 9.944119961984073e-02	 1.625344324800859e+01
 1.385506682964945e+00	 7.434703393379910e-02	 1.623265140940148e+01
 1.386620250963851e+00	 4.940171671922843e-02	 1.617038313391393e+01
 1.387281624092079e+00	 2.461595937390718e-02	 1.606826650817531e+01
 1.387500000000000e+00	 0.000000000000000e+00	 1.592805086703735e+01
 1.358190540115361e+00	 2.513364661230708e-01	 1.551370150015072e+01
 1.362682601091481e+00	 2.257159523637797e-01	 1.576900846944181e+01
 1.366668765971558e+00	 2.001700441947170e-01	 1.597609621405662e+01
 1.370155919146292e+00	 1.747121052161852e-01	 1.613574366433381e+01
 1.373151348168453e+00	 1.493550719217692e-01	 1.624889260928846e+01
 1.375662717519125e+00	 1.241114423320140e-01	 1.631664227147176e+01
 1.377698042287408e+00	 9.899326629032473e-02	 1.634024289749884e+01
 1.379265661870737e+00	 7.401213738630157e-02	 1.632108845681470e+01
 1.380374213797449e+00	 4.917918646502056e-02	 1.626070854567831e+01
 1.381032607767365e+00	 2.450507667472333e-02	 1.616075959633327e+01
 1.381250000000000e+00	 0.000000000000000e+00	 1.602301549295124e+01
 1.352044881565965e+00	 2.501991970476900e-01	 1.559751417195794e+01
 1.356516616473704e+00	 2.246946132154110e-01	 1.585364394763646e+01
 1.360484744408075e+00	 1.992642973913386e-01	 1.606155394577153e+01
 1.363956118608690e+00	 1.739215527069983e-01	 1.622207461228665e+01
 1.366937993652964e+00	 1.486792571198079e-01	 1.633619547147923e+01
 1.369437999341071e+00	 1.235498520981864e-01	 1.640505963441790e+01
 1.371464114494739e+00	 9.854533296136365e-02	 1.642995735138082e+01
 1.373024640776572e+00	 7.367724083926169e-02	 1.641231869952910e+01
 1.374128176631064e+00	 4.895665621114496e-02	 1.635370550126508e+01
 1.374783591442656e+00	 2.439419397571900e-02	 1.625580257157679e+01
 1.375000000000000e+00	 0.000000000000000e+00	 1.612040839418792e+01
 0.000000000000000e+00	 1.375000000000000e+00	 5.396959833210433e-01
 2.439419397571910e-02	 1.374783591442656e+00	 6.163077419549139e-01
 4.895665621114516e-02	 1.374128176631064e+00	 6.922488688323885e-01
 7.367724083926197e-02	 1.373024640776571e+00	 7.706406743828698e-01
 9.854533296136404e-02	 1.371464114494739e+00	 8.543513226028059e-01
 1.235498520981868e-01	 1.369437999341071e+00	 9.459666949193525e-01
 1.486792571198084e-01	 1.366937993652964e+00	 1.047762271703983e+00
 1.739215527069989e-01	 1.363956118608690e+00	 1.161676355795465e+00
 1.992642973913392e-01	 1.360484744408075e+00	 1.289284969430296e+00
 2.246946132154117e-01	 1.356516616473704e+00	 1.431778759306452e+00
 2.501991970476900e-01	 1.352044881565965e+00	 1.589942243772125e+00
 0.000000000000000e+00	 1.368750000000000e+00	 4.753496541799669e-01
 2.428331127671477e-02	 1.368534575117947e+00	 5.708447841690252e-01
 4.873412595726959e-02	 1.367882139464680e+00	 6.604847144497565e-01
 7.334234429222207e-02	 1.366783619682406e+00	 7.473490177748168e-01
 9.809739963240294e-02	 1.365230186702070e+00	 8.342850881647007e-01
 1.229882618643592e-01	 1.363213281163017e+00	 9.238801508222708e-01
 1.480034423178472e-01	 1.360724639137475e+00	 1.018434228005335e+00
 1.731310001978121e-01	 1.357756318071088e+00	 1.119934373733259e+00
 1.983585505879608e-01	 1.354300722844592e+00	 1.230030497095338e+00
 2.236732740670430e-01	 1.350350631855927e+00	 1.350013097241528e+00
 2.490619279723092e-01	 1.345899223016569e+00	 1.480793232495329e+00
 0.000000000000000e+00	 1.362500000000000e+00	 4.124484650520167e-01
 2.417242857753092e-02	 1.362285558793233e+00	 5.262381891953585e-01
 4.851159570306170e-02	 1.361636102298277e+00	 6.289551320248219e-01
 7.300744774472456e-02	 1.360542598588199e+00	 7.236372777362621e-01
 9.764946630288698e-02	 1.358996258909327e+00	 8.131114289812637e-01
 1.224266716299081e-01	 1.356988562984847e+00	 8.999663625109741e-01
 1.473276275152231e-01	 1.354511284621816e+00	 9.865268791126314e-01
 1.723404476879530e-01	 1.351556517533252e+00	 1.074829049244122e+00
 1.974528037839315e-01	 1.348116701280803e+00	 1.166596962527666e+00
 2.226519349180759e-01	 1.344184647237759e+00	 1.263221292546378e+00
 2.479246588964137e-01	 1.339753564466688e+00	 1.365739987852458e+00
 0.000000000000000e+00	 1.356250000000000e+00	 3.510155265896943e-01
 2.406154587816754e-02	 1.356036542468514e+00	 4.825048502813664e-01
 4.828906544852152e-02	 1.355390065131856e+00	 5.976700468978633e-01
 7.267255119676934e-02	 1.354301577493949e+00	 6.995076560494778e-01
 9.720153297281603e-02	 1.352762331116509e+00	 7.908240641946402e-01
 1.218650813948335e-01	 1.350763844806558e+00	 8.742098057779296e-01
 1.466518127119363e-01	 1.348297930105987e+00	 9.520146970175252e-01
 1.715498951774219e-01	 1.345356716995183e+00	 1.026324092290757e+00
 1.965470569792513e-01	 1.341932679716707e+00	 1.098936559688440e+00
 2.216305957685100e-01	 1.338018662619201e+00	 1.171343275562452e+00
 2.467873898200037e-01	 1.333607905916321e+00	 1.244709437460250e+00
 0.000000000000000e+00	 1.350000000000000e+00	 2.910743774206370e-01
 2.395066317862464e-02	 1.349787526143791e+00	 4.396619761881752e-01
 4.806653519364906e-02	 1.349144027965417e+00	 5.666395755960237e-01
 7.233765464835651e-02	 1.348060556399659e+00	 6.749624094267707e-01
 9.675359964219016e-02	 1.346528403323616e+00	 7.674166196476793e-01
 1.213034911591353e-01	 1.344539126628152e+00	 8.465947028974328e-01
 1.459759979079867e-01	 1.342084575589987e+00	 9.148717279953476e-01
 1.707593426662187e-01	 1.339156916456880e+00	 9.743826029782907e-01
 1.956413101739202e-01	 1.335748658152303e+00	 1.027000676662167e+00
 2.206092566183456e-01	 1.331852678000251e+00	 1.074317962954070e+00
 2.456501207430789e-01	 1.327462247365469e+00	 1.117627275797666e+00
 0.000000000000000e+00	 1.343750000000000e+00	 2.326489941008330e-01
 2.383978047890222e-02	 1.343538509819063e+00	 3.977270985277538e-01
 4.784400493844427e-02	 1.342897990798959e+00	 5.358740302808316e-01
 7.200275809948603e-02	 1.341819535305326e+00	 6.500038507886077e-01
 9.630566631100936e-02	 1.340294475530649e+00	 7.428826257135810e-01
 1.207419009228137e-01	 1.338314408449628e+00	 8.171050167295080e-01
 1.453001831033744e-01	 1.335871221073816e+00	 8.750715827044329e-01
 1.699687901543435e-01	 1.332957115918345e+00	 9.189670573701603e-01
 1.947355633679383e-01	 1.329564636587593e+00	 9.507398769150541e-01
 2.195879174675825e-01	 1.325686693380911e+00	 9.720832341333701e-01
 2.445128516656395e-01	 1.321316588814132e+00	 9.844179355299272e-01
 0.000000000000000e+00	 1.337500000000000e+00	 1.757638013462979e-01
 2.372889777900027e-02	 1.337289493494331e+00	 3.567180793063955e-01
 4.762147468290721e-02	 1.336651953632482e+00	 5.053839233173254e-01
 7.166786155015790e-02	 1.335578514210952e+00	 6.246343505759413e-01
 9.585773297927364e-02	 1.334060547737606e+00	 7.172155150663180e-01
 1.201803106858685e-01	 1.332089690270987e+00	 7.857244446592482e-01
 1.446243682980993e-01	 1.329657866557475e+00	 8.325874260071362e-01
 1.691782376417961e-01	 1.326757315379575e+00	 8.600392929090745e-01
 1.938298165613055e-01	 1.323380615022576e+00	 8.701038800284679e-01
 2.185665783162209e-01	 1.319520708761180e+00	 8.645759070251140e-01
 2.433755825876854e-01	 1.315170930262310e+00	 8.450045580257799e-01
 0.000000000000000e+00	 1.331250000000000e+00	 1.204436825528579e-01
 2.361801507891878e-02	 1.331040477169594e+00	 3.166531186800039e-01
 4.739894442703786e-02	 1.330405916465988e+00	 4.751799719745551e-01
 7.133296500037212e-02	 1.329337493116536e+00	 5.988563381011576e-01
 9.540979964698293e-02	 1.327826619944489e+00	 6.904086203871380e-01
 1.196187204482998e-01	 1.325864972092228e+00	 7.524364123644154e-01
 1.439485534921614e-01	 1.323444512040964e+00	 7.873919665056570e-01
 1.683876851285767e-01	 1.320557514840572e+00	 7.975604934246820e-01
 1.929240697540217e-01	 1.317196593457252e+00	 7.850415418893970e-01
 2.175452391642607e-01	 1.313354724141058e+00	 7.517317131511436e-01
 2.422383135092167e-01	 1.309025271710002e+00	 6.993089630455074e-01
 0.000000000000000e+00	 1.325000000000000e+00	 6.671399061474692e-02
 2.350713237865779e-02	 1.324791460844853e+00	 2.775507629304685e-01
 4.717641417083619e-02	 1.324159879299475e+00	 4.452731032584736e-01
 7.099806845012867e-02	 1.323096472022078e+00	 5.726723029368044e-01
 9.496186631413732e-02	 1.321592692151298e+00	 6.624551720050986e-01
 1.190571302101076e-01	 1.319640253913352e+00	 7.172240674075174e-01
 1.432727386855607e-01	 1.317231157524282e+00	 7.394574457817567e-01
 1.675971326146851e-01	 1.314357714301335e+00	 7.314911737186192e-01
 1.920183229460871e-01	 1.311012571891622e+00	 6.955008343206812e-01
 2.165239000117019e-01	 1.307188739520545e+00	 6.334852720059210e-01
 2.411010444302332e-01	 1.302879613157209e+00	 5.472516175712339e-01
 0.000000000000000e+00	 1.318750000000000e+00	 1.460055904970980e-02
 2.339624967821726e-02	 1.318542444520107e+00	 2.394299126663106e-01
 4.695388391430225e-02	 1.317913842132943e+00	 4.156744588815182e-01
 7.066317189942754e-02	 1.316855450927578e+00	 5.460847963424156e-01
 9.451393298073675e-02	 1.315358764358031e+00	 6.333482954728527e-01
 1.184955399712918e-01	 1.313415535734358e+00	 6.800702726460415e-01
 1.425969238782973e-01	 1.311017803007430e+00	 6.887556273289024e-01
 1.668065801001215e-01	 1.308157913761865e+00	 6.617911637112925e-01
 1.911125761375016e-01	 1.304828550325684e+00	 6.014288241299326e-01
 2.155025608585446e-01	 1.301022754899642e+00	 5.097700647053989e-01
 2.399637753507351e-01	 1.296733954603930e+00	 3.887516037495071e-01
 0.000000000000000e+00	 1.312500000000000e+00	-3.587028655689761e-02
 2.328536697759720e-02	 1.312293428195356e+00	 2.023098312599019e-01
 4.673135365743597e-02	 1.311667804966393e+00	 3.863954003751093e-01
 7.032827534826880e-02	 1.310614429833036e+00	 5.190964327344199e-01
 9.406599964678122e-02	 1.309124836564689e+00	 6.030810090711272e-01
 1.179339497318526e-01	 1.307190817555246e+00	 6.409575994521319e-01
 1.419211090703711e-01	 1.304804448490407e+00	 6.352577851700354e-01
 1.660160275848858e-01	 1.301958113222161e+00	 5.884195921339517e-01
 1.902068293282652e-01	 1.298644528759439e+00	 5.027716515645617e-01
 2.144812217047886e-01	 1.294856770278347e+00	 3.805184068828122e-01
 2.388265062707223e-01	 1.290588296050167e+00	 2.237265859213633e-01
 2.501991970476900e-01	 1.352044881565965e+00	 1.589942243772125e+00
 2.757643484648922e-01	 1.347063107750792e+00	 1.670642589533072e+00
 3.013759701586421e-01	 1.341565315762418e+00	 1.779541717217426e+00
 3.270195691523489e-01	 1.335546010210088e+00	 1.917473950678347e+00
 3.526802895081991e-01	 1.329000198331870e+00	 2.084805131855381e+00
 3.783429321550022e-01	 1.321923413920730e+00	 2.281422412141109e+00
 4.039919764044660e-01	 1.314311740438173e+00	 2.506727955592187e+00
 4.296116031277709e-01	 1.306161833186380e+00	 2.759636781572892e+00
 4.551857195536353e-01	 1.297470940409632e+00	 3.038578937744749e+00
 4.806979856381814e-01	 1.288236923196671e+00	 3.341506153085358e+00
 5.061318419458944e-01	 1.278458274057504e+00	 3.665903075151111e+00
 2.490619279723092e-01	 1.345899223016569e+00	 1.480793232495329e+00
 2.745108741552271e-01	 1.340940093628437e+00	 1.535561261383058e+00
 3.000060793861963e-01	 1.335467291604163e+00	 1.634087127203433e+00
 3.255331165657926e-01	 1.329475346532039e+00	 1.777260814596469e+00
 3.510771972831938e-01	 1.322959288344502e+00	 1.965454968218536e+00
 3.766231915538973e-01	 1.315914671135459e+00	 2.198512732425774e+00
 4.021556492381950e-01	 1.308337596168860e+00	 2.475739653606503e+00
 4.276588231123988e-01	 1.300224733950058e+00	 2.795899891007537e+00
 4.531166935541888e-01	 1.291573345231311e+00	 3.157216944993498e+00
 4.785129947926143e-01	 1.282381300823686e+00	 3.557379070011074e+00
 5.038312426623224e-01	 1.272647100089414e+00	 3.993549493458753e+00
 2.479246588964137e-01	 1.339753564466688e+00	 1.365739987852458e+00
 2.732573998451477e-01	 1.334817079505507e+00	 1.395460600946374e+00
 2.986361886134362e-01	 1.329369267445260e+00	 1.484663557386720e+00
 3.240466639790226e-01	 1.323404682853288e+00	 1.634294894938477e+00
 3.494741050580754e-01	 1.316918378356400e+00	 1.844734017727931e+00
 3.749034509527799e-01	 1.309905928349439e+00	 2.115779571589026e+00
 4.003193220720121e-01	 1.302363451898805e+00	 2.446639534694208e+00
 4.257060430972158e-01	 1.294287634713021e+00	 2.835925787730871e+00
 4.510476675550317e-01	 1.285675750052323e+00	 3.281653390701959e+00
 4.763280039474366e-01	 1.276525678450101e+00	 3.781244751352482e+00
 5.015306433792399e-01	 1.266835926120813e+00	 4.331538823505348e+00
 2.467873898200037e-01	 1.333607905916321e+00	 1.244709437460250e+00
 2.720039255346534e-01	 1.328694065382000e+00	 1.250278601364780e+00
 2.972662978403616e-01	 1.323271243285709e+00	 1.331222056204750e+00
 3.225602113920386e-01	 1.317334019173836e+00	 1.488542299842871e+00
 3.478710128328434e-01	 1.310877468367562e+00	 1.722625463133787e+00
 3.731837103516500e-01	 1.303897185562672e+00	 2.033225208101549e+00
 3.984829949059175e-01	 1.296389307628009e+00	 2.419450995894040e+00
 4.237532630822215e-01	 1.288350535475269e+00	 2.879761007311274e+00
 4.489786415561639e-01	 1.279778154872667e+00	 3.411959961301616e+00
 4.741430131026485e-01	 1.270670056075917e+00	 4.013202034236441e+00
 4.992300440966475e-01	 1.261024752151702e+00	 4.679999035478339e+00
 2.456501207430789e-01	 1.327462247365469e+00	 1.117627275797666e+00
 2.707504512237447e-01	 1.322571051257917e+00	 1.099952250878369e+00
 2.958964070669728e-01	 1.317173219125510e+00	 1.173712934206849e+00
 3.210737588048407e-01	 1.311263355493683e+00	 1.339968705561159e+00
 3.462679206074986e-01	 1.304836558377991e+00	 1.599112400406507e+00
 3.714639697505075e-01	 1.297888442775156e+00	 1.950852217901441e+00
 3.966466677399109e-01	 1.290415163356471e+00	 2.394198155026580e+00
 4.218004830674159e-01	 1.282413436236801e+00	 2.927453268331800e+00
 4.469096155575853e-01	 1.273880559692344e+00	 3.548210027123730e+00
 4.719580222582503e-01	 1.264814433701133e+00	 4.253351978876071e+00
 4.969294448145444e-01	 1.255213578182081e+00	 5.039060899675667e+00
 2.445128516656395e-01	 1.321316588814132e+00	 9.844179355299272e-01
 2.694969769124212e-01	 1.316448037133259e+00	 9.444175094546317e-01
 2.945265162932697e-01	 1.311075194964663e+00	 1.012085746896128e+00
 3.195873062174290e-01	 1.305192691812830e+00	 1.188539346416626e+00
 3.446648283820403e-01	 1.298795648387685e+00	 1.474177836721980e+00
 3.697442291493523e-01	 1.291879699986892e+00	 1.868663481311326e+00
 3.948103405739923e-01	 1.284441019084192e+00	 2.370905867460510e+00
 4.198477030527991e-01	 1.276476336997619e+00	 2.979051499901039e+00
 4.448405895592961e-01	 1.267982964511352e+00	 3.690478681562120e+00
 4.697730314142416e-01	 1.258958811325750e+00	 4.501797920269453e+00
 4.946288455329313e-01	 1.249402404211950e+00	 5.316995464082940e+00
 2.433755825876854e-01	 1.315170930262310e+00	 8.450045580257799e-01
 2.682435026006832e-01	 1.310325023008023e+00	 7.836092847646923e-01
 2.931566255192521e-01	 1.304977170803168e+00	 8.462892770858235e-01
 3.181008536298036e-01	 1.299122028131275e+00	 1.034219004476383e+00
 3.430617361564688e-01	 1.292754738396645e+00	 1.347804688385924e+00
 3.680244885481846e-01	 1.285870957197881e+00	 1.786662190148467e+00
 3.929740134081620e-01	 1.278466874811170e+00	 2.349599743341491e+00
 4.178949230383710e-01	 1.270539237757721e+00	 3.034605869936348e+00
 4.427715635612960e-01	 1.262085369329693e+00	 3.838842781328271e+00
 4.675880405706225e-01	 1.253103188949766e+00	 4.758645521348626e+00
 4.923282462518078e-01	 1.243591230241308e+00	 4.803858720392740e+00
 2.422383135092167e-01	 1.309025271710002e+00	 6.993089630455074e-01
 2.669900282885306e-01	 1.304202008882212e+00	 6.174614074807652e-01
 2.917867347449205e-01	 1.298879146641025e+00	 6.762715167633435e-01
 3.166144010419641e-01	 1.293051364449020e+00	 8.769719989368197e-01
 3.414586439307841e-01	 1.286713828404870e+00	 1.219975778699639e+00
 3.663047479470045e-01	 1.279862214408121e+00	 1.704851855040836e+00
 3.911376862424198e-01	 1.272492730537407e+00	 2.330306165312065e+00
 4.159421430241316e-01	 1.264602138517109e+00	 3.094167814245127e+00
 4.407025375635853e-01	 1.256187774147366e+00	 3.993380987845790e+00
 4.654030497273930e-01	 1.247247566573183e+00	 4.597703358218372e+00
 4.900276469711741e-01	 1.237780056270156e+00	 4.300841931519042e+00
 2.411010444302332e-01	 1.302879613157209e+00	 5.472516175712339e-01
 2.657365539759633e-01	 1.298078994755826e+00	 4.459066058758383e-01
 2.904168439702743e-01	 1.292781122478234e+00	 5.019796484362726e-01
 3.151279484539110e-01	 1.286980700766065e+00	 7.167621752060451e-01
 3.398555517049860e-01	 1.280672918412362e+00	 1.090673835768124e+00
 3.645850073458117e-01	 1.273853471617612e+00	 1.623236312941967e+00
 3.893013590767658e-01	 1.266518586262902e+00	 2.313052306730065e+00
 4.139893630100811e-01	 1.258665039275781e+00	 3.157790066426322e+00
 4.386335115661637e-01	 1.250290178964371e+00	 4.154173809813376e+00
 4.632180588845533e-01	 1.241391944196001e+00	 3.964401353328503e+00
 4.877270476910301e-01	 1.231968882298493e+00	 3.808136717335388e+00
 2.399637753507351e-01	 1.296733954603930e+00	 3.887516037495071e-01
 2.644830796629814e-01	 1.291955980628863e+00	 2.688764796994079e-01
 2.890469531953140e-01	 1.286683098314795e+00	 3.233600259532268e-01
 3.136414958656440e-01	 1.280910037082408e+00	 5.535528936764933e-01
 3.382524594790749e-01	 1.274632008419118e+00	 9.598814902431374e-01
 3.628652667446064e-01	 1.267844728826356e+00	 1.541819734867213e+00
 3.874650319111998e-01	 1.260544441987655e+00	 2.297866150406233e+00
 4.120365829962194e-01	 1.252727940033738e+00	 3.225526688625032e+00
 4.365644855690316e-01	 1.244392583780708e+00	 3.448747457418986e+00
 4.610330680421030e-01	 1.235536321818219e+00	 3.339386052978793e+00
 4.854264484113758e-01	 1.226157708326320e+00	 3.325937842289040e+00
 2.388265062707223e-01	 1.290588296050167e+00	 2.237265859213633e-01
 2.632296053495848e-01	 1.285832966501324e+00	 8.630147330946847e-02
 2.876770624200390e-01	 1.280585074150708e+00	 1.403581547715709e-01
 3.121550432771631e-01	 1.274839373398050e+00	 3.873070181780427e-01
 3.366493672530504e-01	 1.268591098425140e+00	 8.275812730040362e-01
 3.611455261433884e-01	 1.261835986034352e+00	 1.460606633844939e+00
 3.856287047457219e-01	 1.254570297711666e+00	 2.284776507876616e+00
 4.100838029825464e-01	 1.246790840790980e+00	 2.797001560497915e+00
 4.344954595721886e-01	 1.238494988596377e+00	 2.704512452542201e+00
 4.588480772000423e-01	 1.229680699439837e+00	 2.722817698140879e+00
 4.831258491322111e-01	 1.220346534353637e+00	 2.854443290272434e+00
 5.061318419458944e-01	 1.278458274057504e+00	 3.665903075151121e+00
 5.314698728575059e-01	 1.268134401517793e+00	 4.504908007030787e+00
 5.566957962698624e-01	 1.257264866546057e+00	 5.519959298500112e+00
 5.817925756559704e-01	 1.245850152644200e+00	 6.091832596665613e+00
 6.067430801902702e-01	 1.233891433362571e+00	 5.712396575965757e+00
 6.315301188945651e-01	 1.221390582486489e+00	 5.441507249616956e+00
 6.561364757050491e-01	 1.208350182234761e+00	 5.242779498362785e+00
 6.805449453277234e-01	 1.194773529385564e+00	 5.227230935052651e+00
 7.047383697412398e-01	 1.180664639255021e+00	 5.393087886235941e+00
 7.286996751987920e-01	 1.166028247464639e+00	 5.737758932992135e+00
 7.524119095741802e-01	 1.150869809445401e+00	 6.257825536455277e+00
 5.038312426623224e-01	 1.272647100089414e+00	 3.993549493458743e+00
 5.290541007059467e-01	 1.262370154242714e+00	 4.954128714514168e+00
 5.541653608298899e-01	 1.251550026247741e+00	 6.073870999918478e+00
 5.791480639459179e-01	 1.240187197408663e+00	 5.895211363600779e+00
 6.039851570958600e-01	 1.228282835941509e+00	 5.605637878636021e+00
 6.286595274423303e-01	 1.215838807114393e+00	 5.423956136006028e+00
 6.531540371763587e-01	 1.202857681408762e+00	 5.278981728809459e+00
 6.774515592098285e-01	 1.189342740617438e+00	 5.301223420225108e+00
 7.015350135123973e-01	 1.175297981805108e+00	 5.489293794705652e+00
 7.253874039451997e-01	 1.160728119067728e+00	 5.841056302199446e+00
 7.489918554371555e-01	 1.145638583038865e+00	 6.353615226077373e+00
 5.015306433792399e-01	 1.266835926120813e+00	 4.331538823505348e+00
 5.266383285549677e-01	 1.256605906967220e+00	 5.412646596449752e+00
 5.516349253905691e-01	 1.245835185949095e+00	 6.010311988285236e+00
 5.765035522365686e-01	 1.234524242172873e+00	 5.702985385730218e+00
 6.012272340021856e-01	 1.222674238520261e+00	 5.501349492428368e+00
 6.257889359908438e-01	 1.210287031742166e+00	 5.407508422150482e+00
 6.501715986484088e-01	 1.197365180582679e+00	 5.314247949146679e+00
 6.743581730926456e-01	 1.183911951849266e+00	 5.372098264159003e+00
 6.983316572842189e-01	 1.169931324355175e+00	 5.580061262609807e+00
 7.220751326922028e-01	 1.155427990670811e+00	 5.936458700387576e+00
 7.455718013006362e-01	 1.140407356632329e+00	 6.438921497163461e+00
 4.992300440966475e-01	 1.261024752151702e+00	 4.679999035478358e+00
 5.242225564045692e-01	 1.250841659691311e+00	 5.880571660196129e+00
 5.491044899518994e-01	 1.240120345650121e+00	 5.720501292564737e+00
 5.738590405279230e-01	 1.228861286936830e+00	 5.515284627829367e+00
 5.984693109092469e-01	 1.217065641098826e+00	 5.399641549907548e+00
 6.229183445401053e-01	 1.204735256369810e+00	 5.380211386061925e+00
 6.471891601211990e-01	 1.191872679756513e+00	 5.348615938342462e+00
 6.712647869761754e-01	 1.178481163081046e+00	 5.439865228052486e+00
 6.951283010567043e-01	 1.164564666905221e+00	 5.665370006201623e+00
 7.187628614398004e-01	 1.150127862273889e+00	 6.023913811443667e+00
 7.421517471646218e-01	 1.135176130225793e+00	 6.513658059126981e+00
 4.969294448145444e-01	 1.255213578182081e+00	 5.039060899675667e+00
 5.218067842547505e-01	 1.245077412414986e+00	 5.608640610796090e+00
 5.465740545138817e-01	 1.234405505350818e+00	 5.437149592258113e+00
 5.712145288199806e-01	 1.223198331700534e+00	 5.332240853846799e+00
 5.957113878170439e-01	 1.211457043677205e+00	 5.300625570555678e+00
 6.200477530901150e-01	 1.199183480997323e+00	 5.349020663145060e+00
 6.442067215947296e-01	 1.186380178930263e+00	 5.382123921836554e+00
 6.681714008604170e-01	 1.173050374312779e+00	 5.504533992407898e+00
 6.919249448298534e-01	 1.159198009455246e+00	 5.745199096765651e+00
 7.154505901879930e-01	 1.144827733876962e+00	 6.103368073669914e+00
 7.387316930291129e-01	 1.129944903819256e+00	 6.577736739712594e+00
 4.946288455329313e-01	 1.249402404211950e+00	 5.316995464082940e+00
 5.193910121055121e-01	 1.239313165138247e+00	 5.216948090025761e+00
 5.440436190765153e-01	 1.228690665051185e+00	 5.160408995758219e+00
 5.685700171127418e-01	 1.217535376463986e+00	 5.153987668747931e+00
 5.929534647255764e-01	 1.205848446255397e+00	 5.204414493024618e+00
 6.171771616408723e-01	 1.193631705624707e+00	 5.318487283707244e+00
 6.412242830690006e-01	 1.180887678103930e+00	 5.414810581922157e+00
 6.650780147453714e-01	 1.167619585544466e+00	 5.566114155156598e+00
 6.887215886036667e-01	 1.153831352005250e+00	 5.819526945615711e+00
 7.121383189367807e-01	 1.139527605480030e+00	 6.174766650817213e+00
 7.353116388941094e-01	 1.124713677412720e+00	 6.631067441236594e+00
 4.923282462518078e-01	 1.243591230241308e+00	 4.803858720392731e+00
 5.169752399568540e-01	 1.233548917861093e+00	 4.833690272299475e+00
 5.415131836398007e-01	 1.222975824751223e+00	 4.890433886189650e+00
 5.659255054062066e-01	 1.211872421227184e+00	 4.980660561527083e+00
 5.901955416348448e-01	 1.200239848833403e+00	 5.111122708296183e+00
 6.143065701923780e-01	 1.188079930251962e+00	 5.288702346788781e+00
 6.382418445440119e-01	 1.175395177277514e+00	 5.446715068421138e+00
 6.619846286310376e-01	 1.162188796776104e+00	 5.624615229728146e+00
 6.855182323781439e-01	 1.148464694555233e+00	 5.888331288677016e+00
 7.088260476861634e-01	 1.134227477083092e+00	 6.238053402305797e+00
 7.318915847596114e-01	 1.119482451006184e+00	 6.673558095599915e+00
 4.900276469711741e-01	 1.237780056270156e+00	 4.300841931519033e+00
 5.145594678087761e-01	 1.227784670583524e+00	 4.459040912257028e+00
 5.389827482037373e-01	 1.217260984450932e+00	 4.627380974805193e+00
 5.632809937003745e-01	 1.206209465990129e+00	 4.812396949434994e+00
 5.874376185448488e-01	 1.194631251411223e+00	 5.020866093773066e+00
 6.114359787446316e-01	 1.182528154879085e+00	 5.259757954436296e+00
 6.352594060197633e-01	 1.169902676451015e+00	 5.477877009658395e+00
 6.588912425174166e-01	 1.156758008007697e+00	 5.680046643067630e+00
 6.823148761532850e-01	 1.143098037105195e+00	 5.951589170631789e+00
 7.055137764361411e-01	 1.128927348686150e+00	 6.293170852606702e+00
 7.284715306256183e-01	 1.114251224599648e+00	 6.705114618034839e+00
 4.877270476910301e-01	 1.231968882298493e+00	 3.808136717335388e+00
 5.121436956612785e-01	 1.222020423305540e+00	 4.093176513648071e+00
 5.364523127683255e-01	 1.211546144150312e+00	 4.371409355894746e+00
 5.606364819952459e-01	 1.200546510752822e+00	 4.649336223456125e+00
 5.846796954555886e-01	 1.189022653988856e+00	 4.933762048336371e+00
 6.085653872976333e-01	 1.176976379506080e+00	 5.231747235358277e+00
 6.322769674962552e-01	 1.164410175624431e+00	 5.508336523747202e+00
 6.557978564045079e-01	 1.151327219239242e+00	 5.732417733596036e+00
 6.791115199290898e-01	 1.137731379655136e+00	 6.009276928615941e+00
 7.022015051867133e-01	 1.123627220289202e+00	 6.340060159757169e+00
 7.250514764921306e-01	 1.109019998193111e+00	 6.725640859541571e+00
 4.854264484113758e-01	 1.226157708326320e+00	 3.325937842289030e+00
 5.097279235143610e-01	 1.216256176027140e+00	 3.736276394475704e+00
 5.339218773335651e-01	 1.205831303849362e+00	 4.122680563255041e+00
 5.579919702908208e-01	 1.194883555515261e+00	 4.491619795079145e+00
 5.819217723670639e-01	 1.183414056566302e+00	 4.849929528399143e+00
 6.056947958513830e-01	 1.171424604132944e+00	 5.204764369253736e+00
 6.292945289734875e-01	 1.158917674797765e+00	 5.538134230196115e+00
 6.527044702923113e-01	 1.145896430470740e+00	 5.781737749111874e+00
 6.759081637055586e-01	 1.132364722205056e+00	 6.061370175452163e+00
 6.988892339378810e-01	 1.118327091892248e+00	 6.378661082981552e+00
 7.216314223591485e-01	 1.103788771786575e+00	 6.735038557973213e+00
 4.831258491322111e-01	 1.220346534353637e+00	 2.854443290272434e+00
 5.073121513680235e-01	 1.210491928748326e+00	 3.388522754004047e+00
 5.313914418994564e-01	 1.200116463548084e+00	 3.881358628273937e+00
 5.553474585870992e-01	 1.189220600277448e+00	 4.339391144405385e+00
 5.791638492792750e-01	 1.177805459143562e+00	 4.769489084991127e+00
 6.028242044058807e-01	 1.165872828759678e+00	 5.178904611835179e+00
 6.263120904514597e-01	 1.153425173971015e+00	 5.567311261846104e+00
 6.496110841808270e-01	 1.140465641702191e+00	 5.828015844634085e+00
 6.727048074826912e-01	 1.126998064754955e+00	 6.107843782405885e+00
 6.955769626896431e-01	 1.113026963495290e+00	 6.408911949385266e+00
 7.182113682266713e-01	 1.098557545380039e+00	 6.733207287721777e+00
 7.524119095741802e-01	 1.150869809445401e+00	 6.257825536455282e+00
 7.758588654596117e-01	 1.135195110388754e+00	 7.087671466925674e+00
 7.990233304470913e-01	 1.119011432916678e+00	 7.834641536840238e+00
 8.218889414196058e-01	 1.102326366254503e+00	 8.502522779846533e+00
 8.444396064822117e-01	 1.085148194225078e+00	 9.095340935308071e+00
 8.666595415573510e-01	 1.067485883101482e+00	 9.617340865595461e+00
 8.885333063206798e-01	 1.049349067158791e+00	 1.007296602083453e+01
 9.100458393092877e-01	 1.030748031967487e+00	 1.046683710930401e+01
 9.311824920374201e-01	 1.011693695485087e+00	 1.080373013673452e+01
 9.519290619593673e-01	 9.921975870162600e-01	 1.108855398089180e+01
 9.722718241249999e-01	 9.722718241249999e-01	 1.132632766900191e+01
 7.489918554371555e-01	 1.145638583038865e+00	 6.353615226077373e+00
 7.723322342504788e-01	 1.130035132613693e+00	 7.138377160956335e+00
 7.953914062153643e-01	 1.113925017311419e+00	 7.847074637890308e+00
 8.181530825926033e-01	 1.097315791860890e+00	 8.483255428228954e+00
 8.406012446322296e-01	 1.080215702431220e+00	 9.050679031078820e+00
 8.627201800024915e-01	 1.062633674539700e+00	 9.553298035585003e+00
 8.844945185623381e-01	 1.044579298669247e+00	 9.995238675754312e+00
 9.059092673100536e-01	 1.026062813637751e+00	 1.038078072989879e+01
 9.269498443439098e-01	 1.007095087775648e+00	 1.071433692063613e+01
 9.476021116752226e-01	 9.876875979816788e-01	 1.100043197338391e+01
 9.678524067399998e-01	 9.678524067399998e-01	 1.124368149140459e+01
 7.455718013006362e-01	 1.140407356632329e+00	 6.438921497163467e+00
 7.688056030417558e-01	 1.124875154838632e+00	 7.179380870563865e+00
 7.917594819839616e-01	 1.108838601706158e+00	 7.850659407489820e+00
 8.144172237658499e-01	 1.092305217467278e+00	 8.456064510430565e+00
 8.367628827824305e-01	 1.075283210637362e+00	 8.999088128936267e+00
 8.587808184477596e-01	 1.057781465977918e+00	 9.483389069070382e+00
 8.804557308040780e-01	 1.039809530179703e+00	 9.912774641539400e+00
 9.017726953108656e-01	 1.021377595308014e+00	 1.029118179445561e+01
 9.227171966504198e-01	 1.002496480066209e+00	 1.062265787934501e+01
 9.432751613910831e-01	 9.831776089470978e-01	 1.091134119986584e+01
 9.634329893549999e-01	 9.634329893550000e-01	 1.116144149176290e+01
 7.421517471646218e-01	 1.135176130225793e+00	 6.513658059126981e+00
 7.652789718334431e-01	 1.119715177063572e+00	 7.210608793568275e+00
 7.881275577528838e-01	 1.103752186100899e+00	 7.845335398315834e+00
 8.106813649393455e-01	 1.087294643073665e+00	 8.420903779044389e+00
 8.329245209328147e-01	 1.070350718843504e+00	 8.940537002773929e+00
 8.548414568931548e-01	 1.052929257416136e+00	 9.407598556740565e+00
 8.764169430458995e-01	 1.035039761690159e+00	 9.825575093138491e+00
 8.976361233117229e-01	 1.016692376978278e+00	 1.019805879956584e+01
 9.184845489569502e-01	 9.978978723567703e-01	 1.052872953644217e+01
 9.389482111069487e-01	 9.786676199125163e-01	 1.082133688237175e+01
 9.590135719700001e-01	 9.590135719700001e-01	 1.107968222641378e+01
 7.387316930291129e-01	 1.129944903819256e+00	 6.577736739712595e+00
 7.617523406255401e-01	 1.114555199288511e+00	 7.231985470984796e+00
 7.844956335221306e-01	 1.098665770495638e+00	 7.831040747701564e+00
 8.069455061130896e-01	 1.082284068680053e+00	 8.377725829007369e+00
 8.290861590833817e-01	 1.065418227049646e+00	 8.874993542329019e+00
 8.509020953386773e-01	 1.048077048854354e+00	 9.325910493979078e+00
 8.723781552878023e-01	 1.030269993200615e+00	 9.733640913897329e+00
 8.934995513126266e-01	 1.012007158648541e+00	 1.010143026822955e+01
 9.142519012635012e-01	 9.932992646473318e-01	 1.043258877365709e+01
 9.346212608228189e-01	 9.741576308779352e-01	 1.073047494593493e+01
 9.545941545850001e-01	 9.545941545850001e-01	 1.099847931200280e+01
 7.353116388941094e-01	 1.124713677412720e+00	 6.631067441236597e+00
 7.582257094180476e-01	 1.109395221513451e+00	 7.243433748492860e+00
 7.808637092917019e-01	 1.093579354890378e+00	 7.807712144722313e+00
 8.032096472870832e-01	 1.077273494286440e+00	 8.326482070679688e+00
 8.252477972341321e-01	 1.060485735255789e+00	 8.802424732620342e+00
 8.469627337843273e-01	 1.043224840292572e+00	 9.238308267019686e+00
 8.683393675297870e-01	 1.025500224711071e+00	 9.636972688776968e+00
 8.893629793135766e-01	 1.007321940318805e+00	 1.000131475046946e+01
 9.100192535700725e-01	 9.887006569378931e-01	 1.033427283919730e+01
 9.302943105386950e-01	 9.696476418433542e-01	 1.063881203493752e+01
 9.501747372000000e-01	 9.501747372000000e-01	 1.091790945014290e+01
 7.318915847596114e-01	 1.119482451006184e+00	 6.673558095599919e+00
 7.546990782109652e-01	 1.104235243738390e+00	 7.244874736827176e+00
 7.772317850615982e-01	 1.088492939285118e+00	 7.775284796357630e+00
 7.994737884613253e-01	 1.072262919892827e+00	 8.267122702166262e+00
 8.214094353850657e-01	 1.055553243461931e+00	 8.722796632810198e+00
 8.430233722301045e-01	 1.038372631730790e+00	 9.144774638713956e+00
 8.643005797718534e-01	 1.020730456221528e+00	 9.535570697382212e+00
 8.852264073145723e-01	 1.002636721989069e+00	 9.897730823962013e+00
 9.057866058766643e-01	 9.841020492284543e-01	 1.023381935631006e+01
 9.259673602545758e-01	 9.651376528087727e-01	 1.054640552991726e+01
 9.457553198150002e-01	 9.457553198150002e-01	 1.083805045276367e+01
 7.284715306256183e-01	 1.114251224599648e+00	 6.705114618034839e+00
 7.511724470042929e-01	 1.099075265963330e+00	 7.236227771050229e+00
 7.735998608318189e-01	 1.083406523679858e+00	 7.733692392699684e+00
 7.957379296358165e-01	 1.067252345499214e+00	 8.199596680860839e+00
 8.175710735361824e-01	 1.050620751668073e+00	 8.636074354470530e+00
 8.390840106760091e-01	 1.033520423169008e+00	 9.045291733898200e+00
 8.602617920140010e-01	 1.015960687731984e+00	 9.429434906793805e+00
 8.810898353156134e-01	 9.979515036593324e-01	 9.790697094686958e+00
 9.015539581832762e-01	 9.795034415190155e-01	 1.013126633208680e+01
 9.216404099704616e-01	 9.606276637741915e-01	 1.045331356484830e+01
 9.413359024300001e-01	 9.413359024300002e-01	 1.075898126817504e+01
 7.250514764921306e-01	 1.109019998193111e+00	 6.725640859541572e+00
 7.476458157980308e-01	 1.093915288188269e+00	 7.217410368673233e+00
 7.699679366023642e-01	 1.078320108074598e+00	 7.682867071178252e+00
 7.920020708105567e-01	 1.062241771105602e+00	 8.123851694183678e+00
 8.137327116874824e-01	 1.045688259874215e+00	 8.542222039234504e+00
 8.351446491220412e-01	 1.028668214607227e+00	 8.939841024345405e+00
 8.562230042562302e-01	 1.011190919242440e+00	 9.318564964197256e+00
 8.769532633167008e-01	 9.932662853295958e-01	 9.680232197594204e+00
 8.973213104899087e-01	 9.749048338095767e-01	 1.002665216651584e+01
 9.173134596863528e-01	 9.561176747396105e-01	 1.035959504491053e+01
 9.369164850450002e-01	 9.369164850450002e-01	 1.068078200786921e+01
 7.216314223591485e-01	 1.103788771786575e+00	 6.735038557973213e+00
 7.441191845921786e-01	 1.088755310413208e+00	 7.188338186586376e+00
 7.663360123732340e-01	 1.073233692469338e+00	 7.622739379766951e+00
 7.882662119855460e-01	 1.057231196711989e+00	 8.039834129487692e+00
 8.098943498389654e-01	 1.040755768080357e+00	 8.441202835811675e+00
 8.312052875682004e-01	 1.023816006045445e+00	 8.828403313290252e+00
 8.521842164985411e-01	 1.006421150752896e+00	 9.202960189302669e+00
 8.728166913178340e-01	 9.885810669998595e-01	 9.566354797291448e+00
 8.930886627965620e-01	 9.703062261001381e-01	 9.920015661792917e+00
 9.129865094022489e-01	 9.516076857050291e-01	 1.026530966476527e+01
 9.324970676600003e-01	 9.324970676600003e-01	 1.060353397408384e+01
 7.182113682266713e-01	 1.098557545380039e+00	 6.733207287721777e+00
 7.405925533867365e-01	 1.083595332638148e+00	 7.148924976757732e+00
 7.627040881444286e-01	 1.068147276864078e+00	 7.553238239140364e+00
 7.845303531607838e-01	 1.052220622318377e+00	 7.947489043104095e+00
 8.060559879906316e-01	 1.035823276286499e+00	 8.332978876347331e+00
 8.272659260144869e-01	 1.018963797483662e+00	 8.710958719511426e+00
 8.481454287409333e-01	 1.001651382263352e+00	 9.082619566547507e+00
 8.686801193190133e-01	 9.838958486701231e-01	 9.449083588749080e+00
 8.888560151032351e-01	 9.657076183906991e-01	 9.811396031897200e+00
 9.086595591181502e-01	 9.470976966704479e-01	 1.017051792735194e+01
 9.280776502749999e-01	 9.280776502750000e-01	 1.052731968815332e+01
 9.722718241249999e-01	 9.722718241249999e-01	 1.132632766900191e+01
 9.921975768801612e-01	 9.519290774042839e-01	 1.128575575549141e+01
 1.011693655060161e+00	 9.311825536839636e-01	 1.131483399859773e+01
 1.030747941294040e+00	 9.100459776802332e-01	 1.141266900309574e+01
 1.049348906487999e+00	 8.885335516599898e-01	 1.157798347727322e+01
 1.067485632912430e+00	 8.666599237864128e-01	 1.180912381572993e+01
 1.085147835240980e+00	 8.444401551573477e-01	 1.210407020808617e+01
 1.102325879458094e+00	 8.218896856909994e-01	 1.246044917782419e+01
 1.119010799564737e+00	 7.990242990192606e-01	 1.287554843166243e+01
 1.135194312025773e+00	 7.758600865535589e-01	 1.334633387770016e+01
 1.150868827916379e+00	 7.524134108913274e-01	 1.386946865036990e+01
 9.678524067399998e-01	 9.678524067399998e-01	 1.124368149140459e+01
 9.876875878916531e-01	 9.476021270499351e-01	 1.122802141598567e+01
 1.007095047534472e+00	 9.269499057102418e-01	 1.127855744966635e+01
 1.026062723376456e+00	 9.059094050520405e-01	 1.139441018702509e+01
 1.044579138728777e+00	 8.844947627864692e-01	 1.157432968545168e+01
 1.062633425487870e+00	 8.627205604941484e-01	 1.181670284930226e+01
 1.080215345078869e+00	 8.406017908133876e-01	 1.211956326484114e+01
 1.097315307277192e+00	 8.181538234809451e-01	 1.248060339270088e+01
 1.113924386838350e+00	 7.953923703849327e-01	 1.289718900140770e+01
 1.130034337879635e+00	 7.723334497939989e-01	 1.336637570395493e+01
 1.145637605971338e+00	 7.489933499301338e-01	 1.388492743975458e+01
 9.634329893549999e-01	 9.634329893550000e-01	 1.116144149176290e+01
 9.831775989031452e-01	 9.432751766955915e-01	 1.117062656940820e+01
 1.002496440008782e+00	 9.227172577365401e-01	 1.124254270904117e+01
 1.021377505458871e+00	 9.017728324238935e-01	 1.137632465126042e+01
 1.039809370969555e+00	 8.804559739130307e-01	 1.157074997174313e+01
 1.057781218063311e+00	 8.587811972020114e-01	 1.182424626624146e+01
 1.075282854916757e+00	 8.367634264696109e-01	 1.213490071126100e+01
 1.092304735096290e+00	 8.144179612711399e-01	 1.250047190966069e+01
 1.108837974111962e+00	 7.917604417509294e-01	 1.291840390787168e+01
 1.124874363733497e+00	 7.688068130348490e-01	 1.338584225045990e+01
 1.140406384026298e+00	 7.455732889694455e-01	 1.389965191865495e+01
 9.590135719700001e-01	 9.590135719700001e-01	 1.107968222641378e+01
 9.786676099146372e-01	 9.389482263412531e-01	 1.111364501050143e+01
 9.978978324830932e-01	 9.184846097628591e-01	 1.120686249181035e+01
 1.016692287541287e+00	 8.976362597957922e-01	 1.135848371558308e+01
 1.035039603210333e+00	 8.764171850396734e-01	 1.156731394824855e+01
 1.052929010638753e+00	 8.548418339100018e-01	 1.183182166273175e+01
 1.070350364754645e+00	 8.329250621260170e-01	 1.215014782435089e+01
 1.087294162915389e+00	 8.106820990615835e-01	 1.252011738905692e+01
 1.103751561385574e+00	 7.881285131172506e-01	 1.293925290385791e+01
 1.119714389587359e+00	 7.652801762761088e-01	 1.340479007890191e+01
 1.135175162081257e+00	 7.421532280092624e-01	 1.391369518212580e+01
 9.545941545850001e-01	 9.545941545850001e-01	 1.099847931200280e+01
 9.741576209261291e-01	 9.346212759869191e-01	 1.105715158016598e+01
 9.932992249574042e-01	 9.142519617891984e-01	 1.117159053986773e+01
 1.012007069623703e+00	 8.934996871677373e-01	 1.134095970206708e+01
 1.030269835451111e+00	 8.723783961663979e-01	 1.156409219974470e+01
 1.048076803214194e+00	 8.509024706181199e-01	 1.183949757297923e+01
 1.065417874592533e+00	 8.290866977826062e-01	 1.216537077952913e+01
 1.082283590734487e+00	 8.069462368522762e-01	 1.253960334518471e+01
 1.098665148659187e+00	 7.844965844838969e-01	 1.295979654688509e+01
 1.114554415441221e+00	 7.617535395177791e-01	 1.342327650181614e+01
 1.129943940136216e+00	 7.387331670495847e-01	 1.392711101769043e+01
 9.501747372000000e-01	 9.501747372000000e-01	 1.091790945014290e+01
 9.696476319376209e-01	 9.302943256325911e-01	 1.100122218979008e+01
 9.887006174317152e-01	 9.100193138155581e-01	 1.113680164579180e+01
 1.007321851706118e+00	 8.893631145397278e-01	 1.132382595838872e+01
 1.025500067691888e+00	 8.683396072932036e-01	 1.156115630630378e+01
 1.043224595789634e+00	 8.469631073263648e-01	 1.184734349102633e+01
 1.060485384430421e+00	 8.252483334393788e-01	 1.218063667152055e+01
 1.077273018553585e+00	 8.032103746432177e-01	 1.255899416614165e+01
 1.093578735932799e+00	 7.808646558508676e-01	 1.298009621790157e+01
 1.109394441295083e+00	 7.582269027598595e-01	 1.344135960004749e+01
 1.124712718191176e+00	 7.353131060904124e-01	 1.393995392144408e+01
 9.457553198150002e-01	 9.457553198150002e-01	 1.083805045276367e+01
 9.651376429491131e-01	 9.259673752782674e-01	 1.094593384626125e+01
 9.841020099060259e-01	 9.057866658419381e-01	 1.110257167739476e+01
 1.002636633788534e+00	 8.852265419117650e-01	 1.130715688178872e+01
 1.020730299932666e+00	 8.643008184200911e-01	 1.155857886654869e+01
 1.038372388365075e+00	 8.430237440347372e-01	 1.185542989317777e+01
 1.055552894268309e+00	 8.214099690963345e-01	 1.219601353583559e+01
 1.072262446372684e+00	 7.994745124344081e-01	 1.257835513424268e+01
 1.088492323206411e+00	 7.772327272181627e-01	 1.300021414052448e+01
 1.104234467148945e+00	 7.547002660023501e-01	 1.345909824070172e+01
 1.119481496246135e+00	 7.318930451317452e-01	 1.395227911460962e+01
 9.413359024300001e-01	 9.413359024300002e-01	 1.075898126817504e+01
 9.606276539606048e-01	 9.216404249239493e-01	 1.089136467768196e+01
 9.795034023803366e-01	 9.015540178683389e-01	 1.106897760296304e+01
 9.979514158709496e-01	 8.810899692838472e-01	 1.129102794371020e+01
 1.015960532173444e+00	 8.602620295470601e-01	 1.155643352156214e+01
 1.033520180940517e+00	 8.390843807432370e-01	 1.186382826105853e+01
 1.050620404106197e+00	 8.175716047534732e-01	 1.221157037085417e+01
 1.067251874191782e+00	 7.957386502258477e-01	 1.259775244701134e+01
 1.083405910480024e+00	 7.736007985857827e-01	 1.302021340082081e+01
 1.099074493002807e+00	 7.511736292452506e-01	 1.347655209560221e+01
 1.114250274301094e+00	 7.284729841735834e-01	 1.396414256055934e+01
 9.369164850450002e-01	 9.369164850450002e-01	 1.068078200786921e+01
 9.561176649720968e-01	 9.173134745696362e-01	 1.083759395981340e+01
 9.749047948546478e-01	 8.973213698947597e-01	 1.103609751721081e+01
 9.932661979533655e-01	 8.769533966559760e-01	 1.127551571513379e+01
 1.011190764414222e+00	 8.562232406741107e-01	 1.155479497947348e+01
 1.028667973515957e+00	 8.351450174518640e-01	 1.187261110532434e+01
 1.045687913944085e+00	 8.137332404107953e-01	 1.222737716053537e+01
 1.062241302010880e+00	 7.920027880175358e-01	 1.261725323876502e+01
 1.078319497753636e+00	 7.699688699537273e-01	 1.304015796764777e+01
 1.093914518856669e+00	 7.476469924885614e-01	 1.349378166026928e+01
 1.109019052356053e+00	 7.250529232159270e-01	 1.397560098231826e+01
 9.324970676600003e-01	 9.324970676600003e-01	 1.060353397408384e+01
 9.516076759835889e-01	 9.129865242153281e-01	 1.078470214327127e+01
 9.703061873289588e-01	 8.930887219212015e-01	 1.100401066797364e+01
 9.885809800357807e-01	 8.728168240281501e-01	 1.126069789263262e+01
 1.006420996655000e+00	 8.521844518012430e-01	 1.155373904074349e+01
 1.023815766091398e+00	 8.312056541606184e-01	 1.188185199004594e+01
 1.040755423781973e+00	 8.098948760683004e-01	 1.224350489777208e+01
 1.057230729829978e+00	 7.882669258094731e-01	 1.263692560281373e+01
 1.073233085027249e+00	 7.663369413219965e-01	 1.306011271357235e+01
 1.088754544710531e+00	 7.441203557322823e-01	 1.351084827343921e+01
 1.103787830411013e+00	 7.216328622587760e-01	 1.398671188056584e+01
 9.280776502749999e-01	 9.280776502750000e-01	 1.052731968815332e+01
 9.470976869950806e-01	 9.086595738610251e-01	 1.073277088149871e+01
 9.657075798032693e-01	 8.888560739476630e-01	 1.097279748366333e+01
 9.838957621181963e-01	 8.686802514003704e-01	 1.124665332517222e+01
 1.001651228895778e+00	 8.481456629284566e-01	 1.155334262417273e+01
 1.018963558666839e+00	 8.272662908695004e-01	 1.189162555779065e+01
 1.035822933619861e+00	 8.060565117259884e-01	 1.226002560841350e+01
 1.052220157649076e+00	 7.845310636016595e-01	 1.265683861429350e+01
 1.068146672300861e+00	 7.627050126905902e-01	 1.308014343638818e+01
 1.083594570564393e+00	 7.405937189764132e-01	 1.352781413714041e+01
 1.098556608465972e+00	 7.182128013021297e-01	 1.399753355215074e+01
 1.150868827916379e+00	 7.524134108913274e-01	 1.386946865036990e+01
 1.166027462739399e+00	 7.287008687329781e-01	 1.391280976228764e+01
 1.180664043898490e+00	 7.047392534804007e-01	 1.395192414425717e+01
 1.194773115827342e+00	 6.805455176867414e-01	 1.398196001205831e+01
 1.208349942789195e+00	 6.561367355249964e-01	 1.399803655877668e+01
 1.221390509372736e+00	 6.315300654405881e-01	 1.399527019149971e+01
 1.233891518724545e+00	 6.067427131481519e-01	 1.418704956585770e+01
 1.245850388570336e+00	 5.817918951274083e-01	 1.440073358574904e+01
 1.257265245088788e+00	 5.566948027665095e-01	 1.471597057948812e+01
 1.268134914712668e+00	 5.314685672938275e-01	 1.506165608428889e+01
 1.278458913941871e+00	 5.061302256309002e-01	 1.534609737982550e+01
 1.145637605971338e+00	 7.489933499301338e-01	 1.388492743975458e+01
 1.160727337909421e+00	 7.253885920542307e-01	 1.392775926125545e+01
 1.175297389154743e+00	 7.015358932345618e-01	 1.396626972610321e+01
 1.189342328939027e+00	 6.774521289672144e-01	 1.399584312224668e+01
 1.202857443051585e+00	 6.531542958153064e-01	 1.401183078315749e+01
 1.215838734332974e+00	 6.286594742313261e-01	 1.400957636479892e+01
 1.228282920915475e+00	 6.039847917221153e-01	 1.424894477322352e+01
 1.240187432262408e+00	 5.791473865106673e-01	 1.447727826728843e+01
 1.251550403069823e+00	 5.541643718424615e-01	 1.468210050236102e+01
 1.262370665104885e+00	 5.290528010766488e-01	 1.504355554050839e+01
 1.272647737065216e+00	 5.038296336942144e-01	 1.534564626335129e+01
 1.140406384026298e+00	 7.455732889694455e-01	 1.389965191865495e+01
 1.155427213079437e+00	 7.220763153760780e-01	 1.394132163523089e+01
 1.169930734410977e+00	 6.983325329893874e-01	 1.397859167254255e+01
 1.183911542050664e+00	 6.743587402483999e-01	 1.400708333517004e+01
 1.197364943313892e+00	 6.501718561063567e-01	 1.402238097703697e+01
 1.210286959293083e+00	 6.257888830228121e-01	 1.402005631729131e+01
 1.222674323106217e+00	 6.012268702968139e-01	 1.430994935719787e+01
 1.234524475954226e+00	 5.765028778946301e-01	 1.455223220508456e+01
 1.245835561050529e+00	 5.516339409190647e-01	 1.473773881037470e+01
 1.256606415496687e+00	 5.266370348600500e-01	 1.502038700168731e+01
 1.266836560188049e+00	 5.015290417580184e-01	 1.533955794309957e+01
 1.135175162081257e+00	 7.421532280092624e-01	 1.391369518212580e+01
 1.150127088249448e+00	 7.187640386985202e-01	 1.395353954609205e+01
 1.164564079667188e+00	 6.951291727448766e-01	 1.398892230347156e+01
 1.178480755162254e+00	 6.712653515302976e-01	 1.401570273930242e+01
 1.191872443576114e+00	 6.471894163981471e-01	 1.402969912692995e+01
 1.204735184253062e+00	 6.229182918150463e-01	 1.405720276268132e+01
 1.217065725296774e+00	 5.984689488722484e-01	 1.437005932930330e+01
 1.228861519645792e+00	 5.738583692792959e-01	 1.462558228265232e+01
 1.240120719030906e+00	 5.491035099963197e-01	 1.482577940318723e+01
 1.250842165888074e+00	 5.242212686440318e-01	 1.499211971385525e+01
 1.261025383310373e+00	 4.992284498223121e-01	 1.532779232849435e+01
 1.129943940136216e+00	 7.387331670495847e-01	 1.392711101769043e+01
 1.144826963419454e+00	 7.154517620215577e-01	 1.396445616136047e+01
 1.159197424923379e+00	 6.919258125010298e-01	 1.399729425983416e+01
 1.173049968273797e+00	 6.681719628129075e-01	 1.402172356212779e+01
 1.186379943838253e+00	 6.442069766906778e-01	 1.403379717920251e+01
 1.199183409212911e+00	 6.200477006080285e-01	 1.410524337013603e+01
 1.211457127487144e+00	 5.957110274484190e-01	 1.442927031245586e+01
 1.223198563337105e+00	 5.712138606646654e-01	 1.469731482618197e+01
 1.234405877010953e+00	 5.465730790742260e-01	 1.491150850801982e+01
 1.245077916279045e+00	 5.218055024285935e-01	 1.507389093095670e+01
 1.255214206432187e+00	 4.969278578870955e-01	 1.531030829071822e+01
 1.124712718191176e+00	 7.353131060904124e-01	 1.393995392144407e+01
 1.139526838589454e+00	 7.121394853451900e-01	 1.397411516596077e+01
 1.153830770179549e+00	 6.887224522578467e-01	 1.400374051108789e+01
 1.167619181385294e+00	 6.650785740962297e-01	 1.402516817337264e+01
 1.180887444100310e+00	 6.412245369839492e-01	 1.403468703913800e+01
 1.193631634172630e+00	 6.171771094017584e-01	 1.415313161100820e+01
 1.205848529677327e+00	 5.929531060253248e-01	 1.448757753192775e+01
 1.217535607028164e+00	 5.685693520507381e-01	 1.476741559157781e+01
 1.228691034990672e+00	 5.440426481527841e-01	 1.499490256865780e+01
 1.239313666669602e+00	 5.193897362137355e-01	 1.517219806129189e+01
 1.249403029553490e+00	 4.946272659523687e-01	 1.530135726953325e+01
 1.119481496246135e+00	 7.318930451317452e-01	 1.395227911460962e+01
 1.134226713759450e+00	 7.088272086694173e-01	 1.398256077430932e+01
 1.148464115435698e+00	 6.855190920153273e-01	 1.400829436287951e+01
 1.162188394496743e+00	 6.619851853802645e-01	 1.402605908832962e+01
 1.175394944362282e+00	 6.382420972779606e-01	 1.403238056997734e+01
 1.188079859132219e+00	 6.143065181962368e-01	 1.420087209627478e+01
 1.200239931867324e+00	 5.901951846029662e-01	 1.454497580605661e+01
 1.211872650718971e+00	 5.659248434375144e-01	 1.483586975113393e+01
 1.222976192970061e+00	 5.415122172319936e-01	 1.507593727282933e+01
 1.233549417059744e+00	 5.169739699994579e-01	 1.526745925957048e+01
 1.243591852674283e+00	 4.923266740181315e-01	 1.541260655138266e+01
 1.114250274301094e+00	 7.284729841735834e-01	 1.396414256055934e+01
 1.128926588929440e+00	 7.055149319942392e-01	 1.398983774274340e+01
 1.143097460691826e+00	 6.823157317734724e-01	 1.401098946493689e+01
 1.156757607608145e+00	 6.588917966650113e-01	 1.402441897127441e+01
 1.169902444624171e+00	 6.352596575727124e-01	 1.402688959193201e+01
 1.182528084091679e+00	 6.114359269914630e-01	 1.424846920528717e+01
 1.194631334057134e+00	 5.874372631813436e-01	 1.460145953669301e+01
 1.206209694409525e+00	 5.632803348249940e-01	 1.490266187983453e+01
 1.217261350949122e+00	 5.389817863118547e-01	 1.515458753445774e+01
 1.227785167449471e+00	 5.145582037857603e-01	 1.535963995912290e+01
 1.237780675794565e+00	 4.900260820843841e-01	 1.552010679562066e+01
 1.109019052356053e+00	 7.250529232159270e-01	 1.397560098231826e+01
 1.123626464099425e+00	 7.022026553196563e-01	 1.399599138230288e+01
 1.137730805947933e+00	 6.791123715322811e-01	 1.401185981918387e+01
 1.151326820719500e+00	 6.557984079504706e-01	 1.402027063897955e+01
 1.164409944885977e+00	 6.322772178682046e-01	 1.401822588116927e+01
 1.176976309051008e+00	 6.085653357874373e-01	 1.429592708030839e+01
 1.189022736246758e+00	 5.846793417604564e-01	 1.465702269937768e+01
 1.200546738099826e+00	 5.606358262131771e-01	 1.496777594126619e+01
 1.211546508927853e+00	 5.364513553923671e-01	 1.523082747541138e+01
 1.222020917838783e+00	 5.121424375726429e-01	 1.544870462527768e+01
 1.231969498914338e+00	 4.877254901511264e-01	 1.562381301059309e+01
 1.103787830411013e+00	 7.216328622587760e-01	 1.398671188056584e+01
 1.118326339269405e+00	 6.988903786456685e-01	 1.400106757187443e+01
 1.132364151204019e+00	 6.759090112917536e-01	 1.401093978808634e+01
 1.145896033830808e+00	 6.527050192366424e-01	 1.401363706432819e+01
 1.158917445147700e+00	 6.292947781644368e-01	 1.400640116876841e+01
 1.171424534010207e+00	 6.056947445841596e-01	 1.434324962089517e+01
 1.183414138436196e+00	 5.819214203403049e-01	 1.471165883323935e+01
 1.194883781789874e+00	 5.579913176020637e-01	 1.503119527312985e+01
 1.205831666906255e+00	 5.339209244735312e-01	 1.530463040673444e+01
 1.216256668227679e+00	 5.097266713601056e-01	 1.553461673242327e+01
 1.226158322033600e+00	 4.854248982183585e-01	 1.572367903868222e+01
 1.098556608465972e+00	 7.182128013021297e-01	 1.399753355215074e+01
 1.113026214439379e+00	 6.955781019722751e-01	 1.400511277171172e+01
 1.126997496460084e+00	 6.727056510518903e-01	 1.400826410323662e+01
 1.140465246942069e+00	 6.496116305235260e-01	 1.400454138003087e+01
 1.153424945409339e+00	 6.263123384614093e-01	 1.399142713964733e+01
 1.165872758969277e+00	 6.028241533816299e-01	 1.439044047811870e+01
 1.177805540625447e+00	 5.791634989208893e-01	 1.476536103060400e+01
 1.189220825479669e+00	 5.553468089916535e-01	 1.509290257233894e+01
 1.200116824884327e+00	 5.313904935553467e-01	 1.537596880934182e+01
 1.210492418616161e+00	 5.073109051481486e-01	 1.561733874041395e+01
 1.220347145152351e+00	 4.831243062860802e-01	 1.581965752854568e+01
 1.278458913941871e+00	 5.061302256309002e-01	 1.534609737982550e+01
 1.288237437261904e+00	 4.806966872907606e-01	 1.559212583129112e+01
 1.297471343270002e+00	 4.551847024343803e-01	 1.578935072794175e+01
 1.306162139117423e+00	 4.296108311901095e-01	 1.593741407095249e+01
 1.314311963382357e+00	 4.039914143306887e-01	 1.603609561930490e+01
 1.321923567493685e+00	 3.783425453891316e-01	 1.608531919994891e+01
 1.329000295829080e+00	 3.526800442857044e-01	 1.608515775566209e+01
 1.335546064613972e+00	 3.270194325267232e-01	 1.603583710714545e+01
 1.341565339749727e+00	 3.013759100248760e-01	 1.593773842163107e+01
 1.347063113700226e+00	 2.757643335798898e-01	 1.579139939540309e+01
 1.352044881565965e+00	 2.501991970476900e-01	 1.559751417195794e+01
 1.272647737065216e+00	 5.038296336942144e-01	 1.534564626335130e+01
 1.282381812552258e+00	 4.785117023467727e-01	 1.560599150787398e+01
 1.291573746260498e+00	 4.531156810582033e-01	 1.581695193000971e+01
 1.300225038490506e+00	 4.276580546835452e-01	 1.597791236413129e+01
 1.308337818099662e+00	 4.021550897192986e-01	 1.608840519828957e+01
 1.315914824010355e+00	 3.766228065460535e-01	 1.614811724524343e+01
 1.322959385398542e+00	 3.510769531753468e-01	 1.615689528576426e+01
 1.329475400688632e+00	 3.255329805611925e-01	 1.611475026075530e+01
 1.335467315482438e+00	 3.000060195257656e-01	 1.602186010490114e+01
 1.340940099550829e+00	 2.745108593378841e-01	 1.587857123010005e+01
 1.345899223016569e+00	 2.490619279723092e-01	 1.568539868163688e+01
 1.266836560188049e+00	 5.015290417580184e-01	 1.533955794309957e+01
 1.276526187842014e+00	 4.763267174031743e-01	 1.561539727574249e+01
 1.285676149250327e+00	 4.510466596823154e-01	 1.584125986837973e+01
 1.294287937862873e+00	 4.257052781771697e-01	 1.601627110617613e+01
 1.302363672816225e+00	 4.003187651079966e-01	 1.613971380621220e+01
 1.309906080526277e+00	 3.749030677029627e-01	 1.621103565581804e+01
 1.316918474967270e+00	 3.494738620648760e-01	 1.622985525709937e+01
 1.323404736762591e+00	 3.240465285954479e-01	 1.619596675418198e+01
 1.329369291214502e+00	 2.986361290263406e-01	 1.610934303632114e+01
 1.334817085400855e+00	 2.732573850954636e-01	 1.597013752597792e+01
 1.339753564466688e+00	 2.479246588964138e-01	 1.577868457605740e+01
 1.261025383310373e+00	 4.992284498223121e-01	 1.532779232849435e+01
 1.270670563131169e+00	 4.741417324599655e-01	 1.562031781851146e+01
 1.279778552239487e+00	 4.489776383067170e-01	 1.586226382900096e+01
 1.288350837234525e+00	 4.237525016709828e-01	 1.605249399156900e+01
 1.296389527532047e+00	 3.984824404967826e-01	 1.619003933123997e+01
 1.303897337041450e+00	 3.731833288598594e-01	 1.627410627857138e+01
 1.310877564535265e+00	 3.478707709542919e-01	 1.630408322121302e+01
 1.317334072835849e+00	 3.225600766294895e-01	 1.627954557140772e+01
 1.323271266945918e+00	 2.972662385266015e-01	 1.620025934300411e+01
 1.328694071250305e+00	 2.720039108526285e-01	 1.606618324793022e+01
 1.333607905916321e+00	 2.467873898200037e-01	 1.587746933756361e+01
 1.255214206432187e+00	 4.969278578870955e-01	 1.531030829071822e+01
 1.264814938419725e+00	 4.719567475171464e-01	 1.562072707232281e+01
 1.273880955227980e+00	 4.469086169314077e-01	 1.587995263799572e+01
 1.282413736605462e+00	 4.217997251649849e-01	 1.608658453902100e+01
 1.290415382247126e+00	 3.966461158856570e-01	 1.623939976578527e+01
 1.297888593555876e+00	 3.714635900167436e-01	 1.633736134019326e+01
 1.304836654102523e+00	 3.462676798435945e-01	 1.637962538010721e+01
 1.311263408908406e+00	 3.210736246633172e-01	 1.636554661226675e+01
 1.317173242676686e+00	 2.958963480265479e-01	 1.629468232767391e+01
 1.322571057099180e+00	 2.707504366093788e-01	 1.616679479023744e+01
 1.327462247365470e+00	 2.456501207430790e-01	 1.598185212535726e+01
 1.249403029553490e+00	 4.946272659523687e-01	 1.530135726953325e+01
 1.258959313707681e+00	 4.697717625747169e-01	 1.561659820846223e+01
 1.267983358215805e+00	 4.448395955563879e-01	 1.589431465096585e+01
 1.276476635975684e+00	 4.198469486591755e-01	 1.611854608738451e+01
 1.284441236961463e+00	 3.948097912746193e-01	 1.628781320892996e+01
 1.291879850069553e+00	 3.697438511736151e-01	 1.640083345599676e+01
 1.298795743669049e+00	 3.446645887327840e-01	 1.645652860136727e+01
 1.305192744980262e+00	 3.195871726969313e-01	 1.645403071374453e+01
 1.311075218406805e+00	 2.945264575261800e-01	 1.639268649600506e+01
 1.316448042947478e+00	 2.694969623657146e-01	 1.627206000980844e+01
 1.321316588814132e+00	 2.445128516656394e-01	 1.609193381449426e+01
 1.243591852674283e+00	 4.923266740181315e-01	 1.541260655138266e+01
 1.253103688995038e+00	 4.675867776326769e-01	 1.560790361548878e+01
 1.262085761202962e+00	 4.427705741816569e-01	 1.590533774199915e+01
 1.270539535345191e+00	 4.178941721535551e-01	 1.614838179145100e+01
 1.278467091675059e+00	 3.929734666636696e-01	 1.633529786891761e+01
 1.285871106582483e+00	 3.680241123304743e-01	 1.646455563899835e+01
 1.292754833234840e+00	 3.430614976218603e-01	 1.653484043371282e+01
 1.299122081051418e+00	 3.181007207303312e-01	 1.654505967187360e+01
 1.304977194136277e+00	 2.931565670254978e-01	 1.649434758472890e+01
 1.310325028795200e+00	 2.682434881216356e-01	 1.638206826035410e+01
 1.315170930262310e+00	 2.433755825876854e-01	 1.620781703597487e+01
 1.237780675794565e+00	 4.900260820843841e-01	 1.552010679562066e+01
 1.247248064281795e+00	 4.654017926910266e-01	 1.566224559867642e+01
 1.256188164189452e+00	 4.407015528072156e-01	 1.591300929236621e+01
 1.264602434713983e+00	 4.159413956481233e-01	 1.617609461763042e+01
 1.272492946387913e+00	 3.911371420528083e-01	 1.638187206571598e+01
 1.279862363094664e+00	 3.663043734873206e-01	 1.652856130925343e+01
 1.286713922799896e+00	 3.414584065108232e-01	 1.661460912298678e+01
 1.293051417121872e+00	 3.166142687635174e-01	 1.663869626424639e+01
 1.298879169865101e+00	 2.917866765245014e-01	 1.659974259053185e+01
 1.304202014642346e+00	 2.669900138771420e-01	 1.649691042752341e+01
 1.309025271710002e+00	 2.422383135092167e-01	 1.632960621796289e+01
 1.231969498914338e+00	 4.877254901511264e-01	 1.562381301059308e+01
 1.241392439567953e+00	 4.632168077497660e-01	 1.578975079824781e+01
 1.250290567175273e+00	 4.386325314330635e-01	 1.591731617889755e+01
 1.258665334082059e+00	 4.139886191428803e-01	 1.620168733950798e+01
 1.266518801100025e+00	 3.893008174420350e-01	 1.642755423365200e+01
 1.273853619606097e+00	 3.645846346441546e-01	 1.659288430345647e+01
 1.280673012364218e+00	 3.398553153996729e-01	 1.669588362859704e+01
 1.286980753191626e+00	 3.151278167964899e-01	 1.673500427316541e+01
 1.292781145593277e+00	 2.904167860231906e-01	 1.670894979977109e+01
 1.298079000488917e+00	 2.657365396322339e-01	 1.661667896503420e+01
 1.302879613157209e+00	 2.411010444302332e-01	 1.645740762817177e+01
 1.226158322033600e+00	 4.854248982183585e-01	 1.572367903868222e+01
 1.235536814853510e+00	 4.610318228088949e-01	 1.591465974830439e+01
 1.244392970160427e+00	 4.365635100592006e-01	 1.605905491926579e+01
 1.252728233449421e+00	 4.120358426378261e-01	 1.622516253327512e+01
 1.260544655811396e+00	 3.874644928313498e-01	 1.647236292412179e+01
 1.267844876116782e+00	 3.628648958009760e-01	 1.665755888481402e+01
 1.274632101927805e+00	 3.382522242884093e-01	 1.677871364042561e+01
 1.280910089260679e+00	 3.136413648292484e-01	 1.683404850945142e+01
 1.286683121320804e+00	 2.890468955215654e-01	 1.682204881903573e+01
 1.291955986334911e+00	 2.644830653869111e-01	 1.674146793183106e+01
 1.296733954603930e+00	 2.399637753507351e-01	 1.659132941745575e+01
 1.220347145152351e+00	 4.831243062860802e-01	 1.581965752854568e+01
 1.229681190138468e+00	 4.588468378684133e-01	 1.603694269008133e+01
 1.238495373144912e+00	 4.344944886856269e-01	 1.620667127136711e+01
 1.246791132816067e+00	 4.100830661329605e-01	 1.632800527010633e+01
 1.254570510522024e+00	 3.856281682207527e-01	 1.651631680837798e+01
 1.261836132626719e+00	 3.611451569577847e-01	 1.672261975319967e+01
 1.268591191490658e+00	 3.366491331770325e-01	 1.686314959622075e+01
 1.274839425329030e+00	 3.121549128617930e-01	 1.693589483693191e+01
 1.280585097047684e+00	 2.876770050196259e-01	 1.693912060658063e+01
 1.285832972180329e+00	 2.632295911411737e-01	 1.687137303030507e+01
 1.290588296050167e+00	 2.388265062707223e-01	 1.673148166464638e+01
 1.352044881565965e+00	 2.501991970476900e-01	 1.559751417195794e+01
 1.356516616473704e+00	 2.246946132154110e-01	 1.585364394763646e+01
 1.360484744408075e+00	 1.992642973913386e-01	 1.606155394577153e+01
 1.363956118608690e+00	 1.739215527069983e-01	 1.622207461228665e+01
 1.366937993652964e+00	 1.486792571198079e-01	 1.633619547147923e+01
 1.369437999341071e+00	 1.235498520981864e-01	 1.640505963441790e+01
 1.371464114494739e+00	 9.854533296136365e-02	 1.642995735138082e+01
 1.373024640776572e+00	 7.367724083926169e-02	 1.641231869952910e+01
 1.374128176631064e+00	 4.895665621114496e-02	 1.635370550126508e+01
 1.374783591442656e+00	 2.439419397571900e-02	 1.625580257157679e+01
 1.375000000000000e+00	 0.000000000000000e+00	 1.612040839418792e+01
 1.345899223016569e+00	 2.490619279723092e-01	 1.568539868163688e+01
 1.350350631855927e+00	 2.236732740670423e-01	 1.594066704812315e+01
 1.354300722844592e+00	 1.983585505879602e-01	 1.614775527798386e+01
 1.357756318071088e+00	 1.731310001978114e-01	 1.630761234289221e+01
 1.360724639137475e+00	 1.480034423178466e-01	 1.642133959396948e+01
 1.363213281163018e+00	 1.229882618643588e-01	 1.649018508548823e+01
 1.365230186702070e+00	 9.809739963240260e-02	 1.651553699061592e+01
 1.366783619682406e+00	 7.334234429222181e-02	 1.649891619856695e+01
 1.367882139464680e+00	 4.873412595726938e-02	 1.644196818651218e+01
 1.368534575117947e+00	 2.428331127671467e-02	 1.634645426222038e+01
 1.368750000000000e+00	 0.000000000000000e+00	 1.621424227472814e+01
 1.339753564466688e+00	 2.479246588964138e-01	 1.577868457605740e+01
 1.344184647237759e+00	 2.226519349180751e-01	 1.603266567143487e+01
 1.348116701280803e+00	 1.974528037839308e-01	 1.623850940453833e+01
 1.351556517533252e+00	 1.723404476879524e-01	 1.639728365768718e+01
 1.354511284621816e+00	 1.473276275152226e-01	 1.651020198790355e+01
 1.356988562984847e+00	 1.224266716299077e-01	 1.657861776544211e+01
 1.358996258909327e+00	 9.764946630288660e-02	 1.660401745233073e+01
 1.360542598588198e+00	 7.300744774472426e-02	 1.658801310846916e+01
 1.361636102298278e+00	 4.851159570306151e-02	 1.653233421654248e+01
 1.362285558793233e+00	 2.417242857753082e-02	 1.643881891939855e+01
 1.362500000000000e+00	 0.000000000000000e+00	 1.630940476467359e+01
 1.333607905916321e+00	 2.467873898200037e-01	 1.587746933756361e+01
 1.338018662619201e+00	 2.216305957685093e-01	 1.612973005896101e+01
 1.341932679716706e+00	 1.965470569792507e-01	 1.633389942493739e+01
 1.345356716995183e+00	 1.715498951774213e-01	 1.649116462421279e+01
 1.348297930105987e+00	 1.466518127119358e-01	 1.660285180903313e+01
 1.350763844806558e+00	 1.218650813948331e-01	 1.667042004803323e+01
 1.352762331116509e+00	 9.720153297281571e-02	 1.669545446705759e+01
 1.354301577493949e+00	 7.267255119676909e-02	 1.667965866366941e+01
 1.355390065131856e+00	 4.828906544852133e-02	 1.662484648451631e+01
 1.356036542468514e+00	 2.406154587816745e-02	 1.653293325688599e+01
 1.356250000000000e+00	 0.000000000000000e+00	 1.640592656672450e+01
 1.327462247365470e+00	 2.456501207430790e-01	 1.598185212535726e+01
 1.331852678000251e+00	 2.206092566183449e-01	 1.623195201010725e+01
 1.335748658152303e+00	 1.956413101739196e-01	 1.643400987923759e+01
 1.339156916456881e+00	 1.707593426662181e-01	 1.658933263464736e+01
 1.342084575589987e+00	 1.459759979079862e-01	 1.669935942353104e+01
 1.344539126628152e+00	 1.213034911591349e-01	 1.676565540507014e+01
 1.346528403323616e+00	 9.675359964218981e-02	 1.678990475300767e+01
 1.348060556399659e+00	 7.233765464835626e-02	 1.677390297802477e+01
 1.349144027965417e+00	 4.806653519364886e-02	 1.671954865700647e+01
 1.349787526143791e+00	 2.395066317862454e-02	 1.662883465821616e+01
 1.350000000000000e+00	 0.000000000000000e+00	 1.650383895214980e+01
 1.321316588814132e+00	 2.445128516656394e-01	 1.609193381449426e+01
 1.325686693380911e+00	 2.195879174675818e-01	 1.633942491852835e+01
 1.329564636587593e+00	 1.947355633679376e-01	 1.653892678155131e+01
 1.332957115918345e+00	 1.699687901543429e-01	 1.669186643661176e+01
 1.335871221073816e+00	 1.453001831033738e-01	 1.679979643614059e+01
 1.338314408449629e+00	 1.207419009228132e-01	 1.686438843195259e+01
 1.340294475530649e+00	 9.630566631100902e-02	 1.688742603903979e+01
 1.341819535305326e+00	 7.200275809948577e-02	 1.687079706526745e+01
 1.342897990798959e+00	 4.784400493844410e-02	 1.681648519198395e+01
 1.343538509819063e+00	 2.383978047890212e-02	 1.672656119225716e+01
 1.343750000000000e+00	 0.000000000000000e+00	 1.660317377400948e+01
 1.315170930262310e+00	 2.433755825876854e-01	 1.620781703597487e+01
 1.319520708761180e+00	 2.185665783162202e-01	 1.645224380937713e+01
 1.323380615022577e+00	 1.938298165613047e-01	 1.664873765448720e+01
 1.326757315379575e+00	 1.691782376417955e-01	 1.679884616483898e+01
 1.329657866557476e+00	 1.446243682980987e-01	 1.690423571911415e+01
 1.332089690270987e+00	 1.201803106858681e-01	 1.696668487392360e+01
 1.334060547737606e+00	 9.585773297927325e-02	 1.698807708827408e+01
 1.335578514210952e+00	 7.166786155015763e-02	 1.697039286002989e+01
 1.336651953632483e+00	 4.762147468290702e-02	 1.691570135730898e+01
 1.337289493494331e+00	 2.372889777900017e-02	 1.682615162922404e+01
 1.337500000000000e+00	 0.000000000000000e+00	 1.670396348074800e+01
 1.309025271710002e+00	 2.422383135092167e-01	 1.632960621796289e+01
 1.313354724141058e+00	 2.175452391642600e-01	 1.657050537760236e+01
 1.317196593457252e+00	 1.929240697540210e-01	 1.676353156456075e+01
 1.320557514840572e+00	 1.683876851285761e-01	 1.691035337373485e+01
 1.323444512040964e+00	 1.439485534921609e-01	 1.701275144196688e+01
 1.325864972092228e+00	 1.196187204482994e-01	 1.707261165306114e+01
 1.327826619944489e+00	 9.540979964698258e-02	 1.709191772237022e+01
 1.329337493116535e+00	 7.133296500037181e-02	 1.707274323946222e+01
 1.330405916465988e+00	 4.739894442703766e-02	 1.701724324974237e+01
 1.331040477169594e+00	 2.361801507891869e-02	 1.692764545714256e+01
 1.331250000000000e+00	 0.000000000000000e+00	 1.680624113017036e+01
 1.302879613157209e+00	 2.411010444302332e-01	 1.645740762817177e+01
 1.307188739520545e+00	 2.165239000117012e-01	 1.669430802733078e+01
 1.311012571891622e+00	 1.920183229460865e-01	 1.688339915860739e+01
 1.314357714301335e+00	 1.675971326146845e-01	 1.702647107086154e+01
 1.317231157524282e+00	 1.432727386855602e-01	 1.712541910207252e+01
 1.319640253913352e+00	 1.190571302101072e-01	 1.718223689603362e+01
 1.321592692151297e+00	 9.496186631413697e-02	 1.719900884649304e+01
 1.323096472022077e+00	 7.099806845012839e-02	 1.717790204546137e+01
 1.324159879299475e+00	 4.717641417083600e-02	 1.712115781449506e+01
 1.324791460844853e+00	 2.350713237865769e-02	 1.703108289877854e+01
 1.325000000000000e+00	 0.000000000000000e+00	 1.691004040381389e+01
 1.296733954603930e+00	 2.399637753507351e-01	 1.659132941745575e+01
 1.301022754899642e+00	 2.155025608585439e-01	 1.682375191236908e+01
 1.304828550325684e+00	 1.911125761375010e-01	 1.700843270123062e+01
 1.308157913761866e+00	 1.668065801001209e-01	 1.714728375137204e+01
 1.311017803007430e+00	 1.425969238782968e-01	 1.724231555612934e+01
 1.313415535734358e+00	 1.184955399712914e-01	 1.729562996264458e+01
 1.315358764358031e+00	 9.451393298073640e-02	 1.730941247498796e+01
 1.316855450927578e+00	 7.066317189942729e-02	 1.728592410753246e+01
 1.317913842132943e+00	 4.695388391430206e-02	 1.722749286533357e+01
 1.318542444520107e+00	 2.339624967821716e-02	 1.713650492904891e+01
 1.318750000000000e+00	 0.000000000000000e+00	 1.701539562172857e+01
 1.290588296050167e+00	 2.388265062707223e-01	 1.673148166464638e+01
 1.294856770278347e+00	 2.144812217047878e-01	 1.695893897786275e+01
 1.298644528759439e+00	 1.902068293282645e-01	 1.713872611332063e+01
 1.301958113222162e+00	 1.660160275848852e-01	 1.727287743342929e+01
 1.304804448490407e+00	 1.419211090703706e-01	 1.736351905252484e+01
 1.307190817555246e+00	 1.179339497318521e-01	 1.741286147519338e+01
 1.309124836564689e+00	 9.406599964678086e-02	 1.742319175779017e+01
 1.310614429833037e+00	 7.032827534826853e-02	 1.739686526630316e+01
 1.311667804966393e+00	 4.673135365743578e-02	 1.733629710525985e+01
 1.312293428195356e+00	 2.328536697759711e-02	 1.724395329292979e+01
 1.312500000000000e+00	 0.000000000000000e+00	 1.712234175767973e+01
 0.000000000000000e+00	 1.312500000000000e+00	-3.587028655689761e-02
 2.328536697759720e-02	 1.312293428195356e+00	 2.023098312599019e-01
 4.673135365743597e-02	 1.311667804966393e+00	 3.863954003751093e-01
 7.032827534826880e-02	 1.310614429833036e+00	 5.190964327344199e-01
 9.406599964678122e-02	 1.309124836564689e+00	 6.030810090711272e-01
 1.179339497318526e-01	 1.307190817555246e+00	 6.409575994521319e-01
 1.419211090703711e-01	 1.304804448490407e+00	 6.352577851700354e-01
 1.660160275848858e-01	 1.301958113222161e+00	 5.884195921339517e-01
 1.902068293282652e-01	 1.298644528759439e+00	 5.027716515645617e-01
 2.144812217047886e-01	 1.294856770278347e+00	 3.805184068828122e-01
 2.388265062707223e-01	 1.290588296050167e+00	 2.237265859213633e-01
 0.000000000000000e+00	 1.306250000000000e+00	 1.005993912595837e-02
 2.317448427697944e-02	 1.306044411870603e+00	 2.031494162745524e-01
 4.650882340057895e-02	 1.305421767799834e+00	 3.569656151436704e-01
 6.999337879713093e-02	 1.304373408738474e+00	 4.745267811585743e-01
 9.361806631286305e-02	 1.302890908771310e+00	 5.587747793437230e-01
 1.173723594924721e-01	 1.300966099376075e+00	 6.125548041424445e-01
 1.412452942625301e-01	 1.298591093973299e+00	 6.385955146168580e-01
 1.652254750697668e-01	 1.295758312682342e+00	 6.394898211823008e-01
 1.893010825191823e-01	 1.292460507193042e+00	 6.176765564786433e-01
 2.134598825512280e-01	 1.288690785656858e+00	 5.754232667728620e-01
 2.376892371909522e-01	 1.284442637496160e+00	 5.148103611181594e-01
 0.000000000000000e+00	 1.300000000000000e+00	 5.413176330702663e-02
 2.306360157654578e-02	 1.299795395545850e+00	 2.018319708820673e-01
 4.628629314407263e-02	 1.299175730633274e+00	 3.252396610720065e-01
 6.965848224649247e-02	 1.298132387643911e+00	 4.276848853391326e-01
 9.317013297957466e-02	 1.296656980977932e+00	 5.123865782211230e-01
 1.168107692538327e-01	 1.294741381196905e+00	 5.824296332826351e-01
 1.405694794555223e-01	 1.292377739456191e+00	 6.407424288312580e-01
 1.644349225555535e-01	 1.289558512142521e+00	 6.900750457276774e-01
 1.883953357110571e-01	 1.286276485626644e+00	 7.329784268568942e-01
 2.124385433986568e-01	 1.282524801035368e+00	 7.717847323250626e-01
 2.365519681121820e-01	 1.278296978942153e+00	 8.085891458862631e-01
 0.000000000000000e+00	 1.293750000000000e+00	 9.632153568313107e-02
 2.295271887629621e-02	 1.293546379221097e+00	 1.983315599832438e-01
 4.606376288791705e-02	 1.292929693466715e+00	 2.911913426432866e-01
 6.932358569635344e-02	 1.291891366549349e+00	 3.785463582381750e-01
 9.272219964691591e-02	 1.290423053184553e+00	 4.638959376954614e-01
 1.162491790159345e-01	 1.288516663017734e+00	 5.505676869801128e-01
 1.398936646493478e-01	 1.286164384939083e+00	 6.416923802964318e-01
 1.636443700422457e-01	 1.283358711602701e+00	 7.401795864619072e-01
 1.874895889038898e-01	 1.280092464060246e+00	 8.486942951617995e-01
 2.114172042470749e-01	 1.276358816413879e+00	 9.696348149881400e-01
 2.354146990344120e-01	 1.272151320388147e+00	 1.105112217226289e+00
 0.000000000000000e+00	 1.287500000000000e+00	 1.366051467219209e-01
 2.284183617623075e-02	 1.287297362896344e+00	 1.926217476916336e-01
 4.584123263211221e-02	 1.286683656300156e+00	 2.547939634320209e-01
 6.898868914671383e-02	 1.285650345454787e+00	 3.270863541267595e-01
 9.227426631488689e-02	 1.284189125391174e+00	 4.132820164511530e-01
 1.156875887787774e-01	 1.282291944838564e+00	 5.169543213484256e-01
 1.392178498440065e-01	 1.279951030421975e+00	 6.414391514328233e-01
 1.628538175298434e-01	 1.277158911062880e+00	 7.898079131717517e-01
 1.865838420976801e-01	 1.273908442493848e+00	 9.648416078586768e-01
 2.103958650964824e-01	 1.270192831792389e+00	 1.169006251308145e+00
 2.342774299576418e-01	 1.266005661834140e+00	 1.404429934857134e+00
 0.000000000000000e+00	 1.281250000000000e+00	 1.749580164611915e-01
 2.273095347634939e-02	 1.281048346571592e+00	 1.846755851165824e-01
 4.561870237665808e-02	 1.280437619133596e+00	 2.160203138882197e-01
 6.865379259757361e-02	 1.279409324360225e+00	 2.732795573974454e-01
 9.182633298348755e-02	 1.277955197597795e+00	 3.605235907608331e-01
 1.151259985423614e-01	 1.276067226659393e+00	 4.815746425562448e-01
 1.385420350394984e-01	 1.273737675904867e+00	 6.399764528897960e-01
 1.620632650183469e-01	 1.270959110523060e+00	 8.389646483744526e-01
 1.856780952924283e-01	 1.267724420927450e+00	 1.081438235514205e+00
 2.093745259468794e-01	 1.264026847170899e+00	 1.369932520614541e+00
 2.331401608818717e-01	 1.259860003280134e+00	 1.706593767623558e+00
 0.000000000000000e+00	 1.275000000000000e+00	 2.113550829783333e-01
 2.262007077665213e-02	 1.274799330246839e+00	 1.744655977916005e-01
 4.539617212155470e-02	 1.274191581967037e+00	 1.748426587599032e-01
 6.831889604893283e-02	 1.273168303265662e+00	 2.171001710477958e-01
 9.137839965271793e-02	 1.271721269804417e+00	 3.055990451121031e-01
 1.145644083066865e-01	 1.269842508480223e+00	 4.444135007013295e-01
 1.378662202358235e-01	 1.267524321387759e+00	 6.372979217853640e-01
 1.612727125077557e-01	 1.264759309983240e+00	 8.876545710626025e-01
 1.847723484881342e-01	 1.261540399361052e+00	 1.198502483189380e+00
 2.083531867982657e-01	 1.257860862549410e+00	 1.572447863222455e+00
 2.320028918071016e-01	 1.253714344726128e+00	 2.011656320680467e+00
 0.000000000000000e+00	 1.268750000000000e+00	 2.457707905206399e-01
 2.250918807713896e-02	 1.268550313922086e+00	 1.619637727273402e-01
 4.517364186680203e-02	 1.267945544800478e+00	 1.312327241457676e-01
 6.798399950079148e-02	 1.266927282171100e+00	 1.585219048227218e-01
 9.093046632257798e-02	 1.265487342011038e+00	 2.484863625575842e-01
 1.140028180717527e-01	 1.263617790301053e+00	 4.054554835035356e-01
 1.371904054329819e-01	 1.261310966870651e+00	 6.333971198959820e-01
 1.604821599980703e-01	 1.258559509443420e+00	 9.358826205574908e-01
 1.838666016847979e-01	 1.255356377794654e+00	 1.316053101142563e+00
 2.073318476506414e-01	 1.251694877927920e+00	 1.776587299179897e+00
 2.308656227333315e-01	 1.247568686172121e+00	 1.957443053532314e+00
 0.000000000000000e+00	 1.262500000000000e+00	 2.781790772802877e-01
 2.239830537780990e-02	 1.262301297597333e+00	 1.471415450842000e-01
 4.495111161240012e-02	 1.261699507633919e+00	 8.516168416164249e-02
 6.764910295314951e-02	 1.260686261076538e+00	 9.751796300633564e-02
 9.048253299306773e-02	 1.259253414217659e+00	 1.891631147790291e-01
 1.134412278375600e-01	 1.257393072121882e+00	 3.646849098101306e-01
 1.365145906309735e-01	 1.255097612353543e+00	 6.282675317921904e-01
 1.596916074892905e-01	 1.252359708903600e+00	 9.836539004766274e-01
 1.829608548824194e-01	 1.249172356228256e+00	 1.314559621350316e+00
 2.063105085040065e-01	 1.245528893306430e+00	 1.326117111265308e+00
 2.297283536605614e-01	 1.241423027618115e+00	 1.354023084764887e+00
 0.000000000000000e+00	 1.256250000000000e+00	 3.085533628072474e-01
 2.228742267866494e-02	 1.256052281272581e+00	 1.299697844420191e-01
 4.472858135834891e-02	 1.255453470467360e+00	 3.660014720931581e-02
 6.731420640600697e-02	 1.254445239981975e+00	 3.406103184683218e-02
 9.003459966418718e-02	 1.253019486424281e+00	 1.276064518528668e-01
 1.128796376041085e-01	 1.251168353942711e+00	 3.220858229077281e-01
 1.358387758297983e-01	 1.248884257836435e+00	 4.669690717091282e-01
 1.589010549814161e-01	 1.246159908363779e+00	 4.867901081129784e-01
 1.820551080809987e-01	 1.242988334661858e+00	 5.408695160149786e-01
 2.052891693583609e-01	 1.239362908684941e+00	 6.300570298832131e-01
 2.285910845887913e-01	 1.235277369064108e+00	 7.553485930644732e-01
 0.000000000000000e+00	 1.250000000000000e+00	 3.368665350416951e-01
 2.217653997970408e-02	 1.249803264947827e+00	 8.663643659654685e-02
 4.450605110464842e-02	 1.249207433300800e+00	-1.134872758812022e-01
 6.697930985936384e-02	 1.248204218887413e+00	-2.630365251271722e-01
 8.958666633593632e-02	 1.246785558630901e+00	-3.614713018976032e-01
 1.123180473713980e-01	 1.244943635763541e+00	-4.081752313626600e-01
 1.351629610294563e-01	 1.242670903319327e+00	-4.024522610973296e-01
 1.581105024744474e-01	 1.239960107823959e+00	-3.435246300652617e-01
 1.811493612805357e-01	 1.236804313095460e+00	-2.305322752542172e-01
 2.042678302137047e-01	 1.233196924063451e+00	-6.253382727369572e-02
 2.274538155180211e-01	 1.229131710510101e+00	 1.614906618126806e-01
 2.388265062707223e-01	 1.290588296050167e+00	 2.237265859213633e-01
 2.632296053495848e-01	 1.285832966501324e+00	 8.630147330946847e-02
 2.876770624200390e-01	 1.280585074150708e+00	 1.403581547715709e-01
 3.121550432771631e-01	 1.274839373398050e+00	 3.873070181780427e-01
 3.366493672530504e-01	 1.268591098425140e+00	 8.275812730040362e-01
 3.611455261433884e-01	 1.261835986034352e+00	 1.460606633844939e+00
 3.856287047457219e-01	 1.254570297711666e+00	 2.284776507876616e+00
 4.100838029825464e-01	 1.246790840790980e+00	 2.797001560497915e+00
 4.344954595721886e-01	 1.238494988596377e+00	 2.704512452542201e+00
 4.588480772000423e-01	 1.229680699439837e+00	 2.722817698140879e+00
 4.831258491322111e-01	 1.220346534353637e+00	 2.854443290272434e+00
 2.376892371909522e-01	 1.284442637496160e+00	 5.148103611181594e-01
 2.619761310364764e-01	 1.279709952373494e+00	 4.884445491174743e-01
 2.863071716450883e-01	 1.274487049986287e+00	 6.421538143100822e-01
 3.106685906890326e-01	 1.268768709713320e+00	 9.772066200171172e-01
 3.350462750273931e-01	 1.262550188430758e+00	 1.493938439468874e+00
 3.594257855425447e-01	 1.255827243241914e+00	 2.191723295890608e+00
 3.837923775806149e-01	 1.248596153435219e+00	 2.850060350951236e+00
 4.081310229692308e-01	 1.240853741547746e+00	 2.696957842463817e+00
 4.324264335756795e-01	 1.232597393411557e+00	 2.642102430865547e+00
 4.566630863582816e-01	 1.223825077060958e+00	 2.688172406133802e+00
 4.808252498533018e-01	 1.214535360380455e+00	 2.837719979068225e+00
 2.365519681121820e-01	 1.278296978942153e+00	 8.085891458862631e-01
 2.607226567243586e-01	 1.273586938245661e+00	 8.930567911166758e-01
 2.849372808710999e-01	 1.268389025821848e+00	 1.146097725904246e+00
 3.091821381018170e-01	 1.262698046028548e+00	 1.568836804725423e+00
 3.334431828025834e-01	 1.256509278436298e+00	 2.161510215537085e+00
 3.577060449424614e-01	 1.249818500449356e+00	 2.895203953428797e+00
 3.819560504161617e-01	 1.242622009158600e+00	 2.702971708016606e+00
 4.061782429564418e-01	 1.234916642304275e+00	 2.596273589182558e+00
 4.303574075795492e-01	 1.226699798226427e+00	 2.577837001773233e+00
 4.544780955167307e-01	 1.217969454681685e+00	 2.650331544819505e+00
 4.785246505744128e-01	 1.208724186406782e+00	 2.816337473564909e+00
 2.354146990344120e-01	 1.272151320388147e+00	 1.105112217226289e+00
 2.594691824132313e-01	 1.267463924117822e+00	 1.300183221970717e+00
 2.835673900980735e-01	 1.262291001657390e+00	 1.652228988255224e+00
 3.076956855155159e-01	 1.256627382343733e+00	 2.162229061991916e+00
 3.318400905786214e-01	 1.250468368441763e+00	 2.830318785247221e+00
 3.559863043431388e-01	 1.243809757656678e+00	 2.693217548584458e+00
 3.801197232523621e-01	 1.236647864881808e+00	 2.556361837443818e+00
 4.042254629441789e-01	 1.228979543060568e+00	 2.494969388618209e+00
 4.282883815837971e-01	 1.220802203040986e+00	 2.511724628884948e+00
 4.522931046753899e-01	 1.212113832302016e+00	 2.609289905738117e+00
 4.762240512955446e-01	 1.202913012432620e+00	 2.790275344277509e+00
 2.342774299576418e-01	 1.266005661834140e+00	 1.404429934857134e+00
 2.582157081030947e-01	 1.261340909989979e+00	 1.709869888903210e+00
 2.821974993260098e-01	 1.256192977492913e+00	 2.160587636070705e+00
 3.062092329301298e-01	 1.250556718658876e+00	 2.757415698199186e+00
 3.302369983555071e-01	 1.244427458447151e+00	 2.637836964198865e+00
 3.542665637445770e-01	 1.237801014863881e+00	 2.492720003068464e+00
 3.782833960892160e-01	 1.230673720604842e+00	 2.410262179988582e+00
 4.022726829324426e-01	 1.223042443816623e+00	 2.393065855516881e+00
 4.262193555884237e-01	 1.214904607855233e+00	 2.443773526305149e+00
 4.501081138342590e-01	 1.206258209921952e+00	 2.565041723089101e+00
 4.739234520166967e-01	 1.197101838457967e+00	 2.759512265155804e+00
 2.331401608818717e-01	 1.259860003280134e+00	 1.706593767623558e+00
 2.569622337939487e-01	 1.255217895862131e+00	 2.122163888686476e+00
 2.808276085549083e-01	 1.250094953328418e+00	 2.671214662894903e+00
 3.047227803456582e-01	 1.244486054973975e+00	 2.506621297784919e+00
 3.286339061332403e-01	 1.238386548452464e+00	 2.375201329111120e+00
 3.525468231467759e-01	 1.231792272070964e+00	 2.293752513546338e+00
 3.764470689267239e-01	 1.224699576327703e+00	 2.264704454522352e+00
 4.003199029212324e-01	 1.217105344572442e+00	 2.290583632058426e+00
 4.241503295934289e-01	 1.209007012669171e+00	 2.373991652537883e+00
 4.479231229933383e-01	 1.200402587541493e+00	 2.517580660136615e+00
 4.716228527378696e-01	 1.191290664482826e+00	 2.724025991718434e+00
 2.320028918071016e-01	 1.253714344726128e+00	 2.011656320680467e+00
 2.557087594857934e-01	 1.249094881734278e+00	 2.400524450962272e+00
 2.794577177847690e-01	 1.243996929163903e+00	 2.269176139473441e+00
 3.032363277621015e-01	 1.238415391289032e+00	 2.173331226898130e+00
 3.270308139118210e-01	 1.232345638457700e+00	 2.115000507709933e+00
 3.508270825497355e-01	 1.225783529277928e+00	 2.096356785309580e+00
 3.746107417648852e-01	 1.218725432050391e+00	 2.119720664845317e+00
 3.983671229105488e-01	 1.211168245328024e+00	 2.187543388529797e+00
 4.220813035988125e-01	 1.203109417482797e+00	 2.302386704221180e+00
 4.457381321526272e-01	 1.194546965160639e+00	 2.466899795215424e+00
 4.693222534590629e-01	 1.185479490507194e+00	 2.683793338540508e+00
 2.308656227333315e-01	 1.247568686172121e+00	 1.957443053532314e+00
 2.544552851786286e-01	 1.242971867606421e+00	 1.895078065883495e+00
 2.780878270155922e-01	 1.237898904999369e+00	 1.856471803919987e+00
 3.017498751794595e-01	 1.232344727604047e+00	 1.843261128523193e+00
 3.254277216912494e-01	 1.226304728462859e+00	 1.857285002845276e+00
 3.491073419534557e-01	 1.219774786484772e+00	 1.900575044805132e+00
 3.727744146037003e-01	 1.212751287772906e+00	 1.975343106706053e+00
 3.964143429003914e-01	 1.205231146083369e+00	 2.083965824016662e+00
 4.200122776045745e-01	 1.197211822296113e+00	 2.228966109678653e+00
 4.435531413121264e-01	 1.188691342779390e+00	 2.412991607325066e+00
 4.670216541802768e-01	 1.179668316531073e+00	 2.638790156079562e+00
 2.297283536605614e-01	 1.241423027618115e+00	 1.354023084764887e+00
 2.532018108724546e-01	 1.236848853478559e+00	 1.393978541297819e+00
 2.767179362473776e-01	 1.231800880834817e+00	 1.447648743205417e+00
 3.002634225977321e-01	 1.226274063919019e+00	 1.516469042644338e+00
 3.238246294715255e-01	 1.220263818467943e+00	 1.602106051625292e+00
 3.473876013579365e-01	 1.213766043691496e+00	 1.706450052533993e+00
 3.709380874431690e-01	 1.206777143495247e+00	 1.831604375027887e+00
 3.944615628907603e-01	 1.199294046838477e+00	 1.979871667116595e+00
 4.179432516107151e-01	 1.191314227109118e+00	 2.153737022275428e+00
 4.413681504718353e-01	 1.182835720397746e+00	 2.355847961294402e+00
 4.647210549015112e-01	 1.173857142554462e+00	 2.588991306809919e+00
 2.285910845887913e-01	 1.235277369064108e+00	 7.553485930644732e-01
 2.519483365672712e-01	 1.230725839350692e+00	 8.972937361924895e-01
 2.753480454801254e-01	 1.225702856670246e+00	 1.042771202113000e+00
 2.987769700169197e-01	 1.220203400233949e+00	 1.193013931601315e+00
 3.222215372526493e-01	 1.214222908472951e+00	 1.349515643680432e+00
 3.456678607631781e-01	 1.207757300898100e+00	 1.514025116337358e+00
 3.691017602832914e-01	 1.200802999217416e+00	 1.688537371351071e+00
 3.925087828816557e-01	 1.193356947593349e+00	 1.875281676673244e+00
 4.158742256172343e-01	 1.185416631921812e+00	 2.076706313581519e+00
 4.391831596317544e-01	 1.176980098015707e+00	 2.295460092502696e+00
 4.624204556227662e-01	 1.168045968577361e+00	 2.534370640646689e+00
 2.274538155180211e-01	 1.229131710510101e+00	 1.614906618126806e-01
 2.506948622630784e-01	 1.224602825222820e+00	 4.050926955957539e-01
 2.739781547138352e-01	 1.219604832505655e+00	 6.419045089571749e-01
 2.972905174370217e-01	 1.214132736548835e+00	 8.729557031471233e-01
 3.206184450346204e-01	 1.208181998477881e+00	 1.099566539976166e+00
 3.439481201691802e-01	 1.201748558104585e+00	 1.323344105079285e+00
 3.672654331240673e-01	 1.194828854939411e+00	 1.546175311497307e+00
 3.905560028730775e-01	 1.187419848347983e+00	 1.770216642532632e+00
 4.138051996241319e-01	 1.179519036734196e+00	 1.997880566325070e+00
 4.369981687918833e-01	 1.171124475633273e+00	 2.231818591145587e+00
 4.601198563440417e-01	 1.162234794599770e+00	 2.474900969631047e+00
 4.831258491322111e-01	 1.220346534353637e+00	 2.854443290272434e+00
 5.073121513680235e-01	 1.210491928748326e+00	 3.388522754004047e+00
 5.313914418994564e-01	 1.200116463548084e+00	 3.881358628273937e+00
 5.553474585870992e-01	 1.189220600277448e+00	 4.339391144405385e+00
 5.791638492792750e-01	 1.177805459143562e+00	 4.769489084991127e+00
 6.028242044058807e-01	 1.165872828759678e+00	 5.178904611835179e+00
 6.263120904514597e-01	 1.153425173971015e+00	 5.567311261846104e+00
 6.496110841808270e-01	 1.140465641702191e+00	 5.828015844634085e+00
 6.727048074826912e-01	 1.126998064754955e+00	 6.107843782405885e+00
 6.955769626896431e-01	 1.113026963495290e+00	 6.408911949385266e+00
 7.182113682266713e-01	 1.098557545380039e+00	 6.733207287721777e+00
 4.808252498533018e-01	 1.214535360380455e+00	 2.837719979068225e+00
 5.048963792218961e-01	 1.204727681469017e+00	 3.363316584872004e+00
 5.288610064655219e-01	 1.194401623246325e+00	 3.849366216586254e+00
 5.527029468835257e-01	 1.183557645039178e+00	 4.302144730427250e+00
 5.764059261916182e-01	 1.172196861720400e+00	 4.728345691712297e+00
 5.999536129605042e-01	 1.160321053386034e+00	 5.135036062312716e+00
 6.233296519295620e-01	 1.147932673143941e+00	 5.529607473678277e+00
 6.465176980694867e-01	 1.135034852933382e+00	 5.796155604180290e+00
 6.695014512599922e-01	 1.121631407304669e+00	 6.071752574890831e+00
 6.922646914416081e-01	 1.107726835098231e+00	 6.368677401296840e+00
 7.147913140944419e-01	 1.093326318973498e+00	 6.688822042528876e+00
 4.785246505744128e-01	 1.208724186406782e+00	 2.816337473564909e+00
 5.024806070756084e-01	 1.198963434189132e+00	 3.333390851332349e+00
 5.263305710312843e-01	 1.188686782943934e+00	 3.812592613832702e+00
 5.500584351795454e-01	 1.177894689800249e+00	 4.260055564980581e+00
 5.736480031034900e-01	 1.166588264296580e+00	 4.682299430195618e+00
 5.970830215146322e-01	 1.154769278011765e+00	 5.086207395504793e+00
 6.203472134071841e-01	 1.142440172316304e+00	 5.478978324671675e+00
 6.434243119577217e-01	 1.129604064164102e+00	 5.760054996621518e+00
 6.662980950369650e-01	 1.116264749854035e+00	 6.031563051740009e+00
 6.889524201933830e-01	 1.102426706700977e+00	 6.324497579730330e+00
 7.113712599622016e-01	 1.088095092566945e+00	 6.640655500871620e+00
 4.762240512955446e-01	 1.202913012432620e+00	 2.790275344277517e+00
 5.000648349291601e-01	 1.193199186908672e+00	 3.298730450456889e+00
 5.238001355967437e-01	 1.182971942640910e+00	 3.771028204637846e+00
 5.474139234751585e-01	 1.172231734560660e+00	 4.213119667208248e+00
 5.708900800148904e-01	 1.160979666872102e+00	 4.631352086272026e+00
 5.942124300682634e-01	 1.149217502636869e+00	 5.032426280596971e+00
 6.173647748843250e-01	 1.136947671488102e+00	 5.423349792417466e+00
 6.403309258455322e-01	 1.124173275394351e+00	 5.719705255060759e+00
 6.630947388136105e-01	 1.110898092403052e+00	 5.987270560855796e+00
 6.856401489449681e-01	 1.097126578303528e+00	 6.276371995203625e+00
 7.079512058299509e-01	 1.082863866160383e+00	 6.588711375440689e+00
 4.739234520166967e-01	 1.197101838457967e+00	 2.759512265155804e+00
 4.976490627825515e-01	 1.187434939627636e+00	 3.259319441361348e+00
 5.212697001619001e-01	 1.177257102337254e+00	 3.724662596430969e+00
 5.447694117703643e-01	 1.166568779320411e+00	 4.161332341879900e+00
 5.681321569258194e-01	 1.155371069446967e+00	 4.575504796194686e+00
 5.913418386213991e-01	 1.143665727261348e+00	 4.973699803866930e+00
 6.143823363609853e-01	 1.131455170659336e+00	 5.362735015503036e+00
 6.372375397329177e-01	 1.118742486624127e+00	 5.675097168219774e+00
 6.598913825899276e-01	 1.105531434951720e+00	 5.938870077389861e+00
 6.823278776963632e-01	 1.091826449905884e+00	 6.224299858527200e+00
 7.045311516976891e-01	 1.077632639753809e+00	 6.532993153552111e+00
 4.716228527378696e-01	 1.191290664482826e+00	 2.724025991718424e+00
 4.952332906357825e-01	 1.181670692346025e+00	 3.215141024767411e+00
 5.187392647267535e-01	 1.171542262032967e+00	 3.673484600485832e+00
 5.421249000651637e-01	 1.160905824079502e+00	 4.104688161969035e+00
 5.653742338362772e-01	 1.149762472021173e+00	 4.514758030796704e+00
 5.884712471740383e-01	 1.138113951885200e+00	 4.910034454466248e+00
 6.113998978371653e-01	 1.125962669830007e+00	 5.297146605494512e+00
 6.341441536198790e-01	 1.113311697853432e+00	 5.626221069600962e+00
 6.566880263659172e-01	 1.100164777500038e+00	 5.886356194648821e+00
 6.790156064475688e-01	 1.086526321508045e+00	 6.168280073494293e+00
 7.011110975654170e-01	 1.072401413347226e+00	 6.473504091649138e+00
 4.693222534590629e-01	 1.185479490507194e+00	 2.683793338540508e+00
 4.928175184888530e-01	 1.175906445063839e+00	 3.166177521962530e+00
 5.162088292913039e-01	 1.165827421728046e+00	 3.617482212410925e+00
 5.394803883595559e-01	 1.155242868837933e+00	 4.043180950715206e+00
 5.626163107462637e-01	 1.144153874594722e+00	 4.449111579181654e+00
 5.856006557261818e-01	 1.132562176508427e+00	 4.841436109785448e+00
 6.084174593128645e-01	 1.120470169000113e+00	 5.226596634020499e+00
 6.310507675064152e-01	 1.107880909082265e+00	 5.573066826328886e+00
 6.534846701415788e-01	 1.094798120048009e+00	 5.829723114738392e+00
 6.757033351985843e-01	 1.081226193110010e+00	 6.108311229356584e+00
 6.976910434331343e-01	 1.067170186940631e+00	 6.410247209644407e+00
 4.670216541802768e-01	 1.179668316531073e+00	 2.638790156079562e+00
 4.904017463417633e-01	 1.170142197781078e+00	 3.112410353140143e+00
 5.136783938555508e-01	 1.160112581422494e+00	 3.556642592057270e+00
 5.368358766535414e-01	 1.149579913595705e+00	 3.976803763158675e+00
 5.598583876557788e-01	 1.138545277167614e+00	 4.378564531931543e+00
 5.827300642778290e-01	 1.127010401131027e+00	 4.767910020387120e+00
 6.054350207880831e-01	 1.114977668169655e+00	 5.151096619473304e+00
 6.279573813925272e-01	 1.102450120310627e+00	 5.515623827664328e+00
 6.502813139169127e-01	 1.089431462595631e+00	 5.768964638925826e+00
 6.723910639494098e-01	 1.075926064711781e+00	 6.044391593075322e+00
 6.942709893008407e-01	 1.061938960534025e+00	 6.343225285094062e+00
 4.647210549015112e-01	 1.173857142554462e+00	 2.588991306809919e+00
 4.879859741945130e-01	 1.164377950497741e+00	 3.053820015095237e+00
 5.111479584194951e-01	 1.154397741116310e+00	 3.490952042830803e+00
 5.341913649471199e-01	 1.143916958352817e+00	 3.905548867125884e+00
 5.571004645648224e-01	 1.132936679739847e+00	 4.303115263817809e+00
 5.798594728289802e-01	 1.121458625753002e+00	 4.689460794488026e+00
 6.024525822628208e-01	 1.109485167338633e+00	 5.070657513314141e+00
 6.248639952782145e-01	 1.097019331538517e+00	 5.452994196435597e+00
 6.470779576919188e-01	 1.084064805142903e+00	 5.704074157718879e+00
 6.690787927000456e-01	 1.070625936313356e+00	 5.976519101345170e+00
 6.908509351685368e-01	 1.056707734127410e+00	 6.272440847198473e+00
 4.624204556227662e-01	 1.168045968577361e+00	 2.534370640646685e+00
 4.855702020471024e-01	 1.158613703213828e+00	 2.990386058253453e+00
 5.086175229831363e-01	 1.148682900809493e+00	 3.420395990389903e+00
 5.315468532402915e-01	 1.138254003109269e+00	 3.829407723646120e+00
 5.543425414733948e-01	 1.127328082311422e+00	 4.222761415993952e+00
 5.769888813796352e-01	 1.115906850374350e+00	 4.606092381982521e+00
 5.994701437370782e-01	 1.103992666507048e+00	 4.985289685971178e+00
 6.217706091634767e-01	 1.091588542765935e+00	 5.366451340778789e+00
 6.438746014665970e-01	 1.078698147689827e+00	 5.635044640647657e+00
 6.657665214504916e-01	 1.065325807914737e+00	 5.904691352378722e+00
 6.874308810362221e-01	 1.051476507720783e+00	 6.197896170624617e+00
 4.601198563440417e-01	 1.162234794599770e+00	 2.474900969631052e+00
 4.831544298995313e-01	 1.152849455929340e+00	 2.922087063012181e+00
 5.060870875464741e-01	 1.142968060502044e+00	 3.344958960699365e+00
 5.289023415330564e-01	 1.132591047865061e+00	 3.748370966782242e+00
 5.515846183814958e-01	 1.121719484882340e+00	 4.137499877655721e+00
 5.741182899297941e-01	 1.110355074995073e+00	 4.517808057983252e+00
 5.964877052108547e-01	 1.098500165674898e+00	 4.895002912312974e+00
 6.186772230483144e-01	 1.086157753992881e+00	 5.274993044483660e+00
 6.406712452409474e-01	 1.073331490236403e+00	 5.561868625741115e+00
 6.624542502007474e-01	 1.060025679515921e+00	 5.828905597443329e+00
 6.840108269038967e-01	 1.046245281314146e+00	 6.119593269141737e+00
 7.182113682266713e-01	 1.098557545380039e+00	 6.733207287721777e+00
 7.405925533867365e-01	 1.083595332638148e+00	 7.148924976757732e+00
 7.627040881444286e-01	 1.068147276864078e+00	 7.553238239140364e+00
 7.845303531607838e-01	 1.052220622318377e+00	 7.947489043104095e+00
 8.060559879906316e-01	 1.035823276286499e+00	 8.332978876347331e+00
 8.272659260144869e-01	 1.018963797483662e+00	 8.710958719511426e+00
 8.481454287409333e-01	 1.001651382263352e+00	 9.082619566547507e+00
 8.686801193190133e-01	 9.838958486701231e-01	 9.449083588749080e+00
 8.888560151032351e-01	 9.657076183906991e-01	 9.811396031897200e+00
 9.086595591181502e-01	 9.470976966704479e-01	 1.017051792735194e+01
 9.280776502749999e-01	 9.280776502750000e-01	 1.052731968815332e+01
 7.147913140944419e-01	 1.093326318973498e+00	 6.688822042528877e+00
 7.370659221815897e-01	 1.078435354863177e+00	 7.101084350930581e+00
 7.590721639159612e-01	 1.063060861258993e+00	 7.502929260889416e+00
 7.807944943363977e-01	 1.047210047925015e+00	 7.895656498549392e+00
 8.022176261427061e-01	 1.030890784492958e+00	 8.280521722879975e+00
 8.233265644612098e-01	 1.014111588922253e+00	 8.658726704018910e+00
 8.441066409837852e-01	 9.968816137742263e-01	 9.031410064246106e+00
 8.645435473206695e-01	 9.792106303408407e-01	 9.399638676721178e+00
 8.846233674103983e-01	 9.611090106817398e-01	 9.764399809683281e+00
 9.043326088345489e-01	 9.425877076363616e-01	 1.012659409512347e+01
 9.236582328904999e-01	 9.236582328905000e-01	 1.048702939111292e+01
 7.113712599622016e-01	 1.088095092566945e+00	 6.640655500871620e+00
 7.335392909766223e-01	 1.073275377088386e+00	 7.049445557772021e+00
 7.554402396878439e-01	 1.057974445654259e+00	 7.448826810462560e+00
 7.770586355125132e-01	 1.042199473532155e+00	 7.840056976380909e+00
 7.983792642954143e-01	 1.025958292700051e+00	 8.224346053975395e+00
 8.193872029086781e-01	 1.009259380361589e+00	 8.602846704138674e+00
 8.400678532274736e-01	 9.921118452859377e-01	 8.976645210380273e+00
 8.604069753232338e-01	 9.745254120124667e-01	 9.346753111238129e+00
 8.803907197185206e-01	 9.565104029737398e-01	 9.714099590892598e+00
 9.000056585519376e-01	 9.380777186032651e-01	 1.007952470518207e+01
 9.192388155069999e-01	 9.192388155069999e-01	 1.044377351032763e+01
 7.079512058299509e-01	 1.082863866160383e+00	 6.588711375440689e+00
 7.300126597718352e-01	 1.068115399313775e+00	 6.994013765236542e+00
 7.518083154600780e-01	 1.052888030049876e+00	 7.390937691046318e+00
 7.733227766891309e-01	 1.037188899139798e+00	 7.780699092244109e+00
 7.945409024487560e-01	 1.021025800907777e+00	 8.164462471799480e+00
 8.154478413568916e-01	 1.004407171801670e+00	 8.543331479042017e+00
 8.360290654719991e-01	 9.873420767984863e-01	 8.918340087634935e+00
 8.562704033267062e-01	 9.698401936850005e-01	 9.290444460641314e+00
 8.761580720276020e-01	 9.519117952666988e-01	 9.660515586930117e+00
 8.956787082703159e-01	 9.335677295711583e-01	 1.002933276431195e+01
 9.148193981245002e-01	 9.148193981245002e-01	 1.039757799484947e+01
 7.045311516976891e-01	 1.077632639753809e+00	 6.532993153552116e+00
 7.264860285672268e-01	 1.062955421539343e+00	 6.934793937446910e+00
 7.481763912326622e-01	 1.047801614445843e+00	 7.329268527612691e+00
 7.695869178662509e-01	 1.032178324747943e+00	 7.717591313233429e+00
 7.907025406027317e-01	 1.016093309116137e+00	 8.100881463640849e+00
 8.115084798058506e-01	 9.995549632424970e-01	 8.480193710658188e+00
 8.319902777173612e-01	 9.825723083118708e-01	 8.856509742989473e+00
 8.521338313310870e-01	 9.651549753584425e-01	 9.230730302938463e+00
 8.719254243376430e-01	 9.473131875606173e-01	 9.603668067993826e+00
 8.913517579896837e-01	 9.290577405400411e-01	 9.976041390884356e+00
 9.103999807430003e-01	 9.103999807430003e-01	 1.034846896167933e+01
 7.011110975654170e-01	 1.072401413347226e+00	 6.473504091649138e+00
 7.229593973627990e-01	 1.057795443765091e+00	 6.871790829722954e+00
 7.445444670055974e-01	 1.042715198842161e+00	 7.263825762573211e+00
 7.658510590438729e-01	 1.027167750356590e+00	 7.650741954270725e+00
 7.868641787573414e-01	 1.011160817325131e+00	 8.033613399109120e+00
 8.075691182555549e-01	 9.947027546840690e-01	 8.413446001788904e+00
 8.279514899635603e-01	 9.778025398260929e-01	 8.791169186847183e+00
 8.479972593363763e-01	 9.604697570327930e-01	 9.167628226038680e+00
 8.676927766486427e-01	 9.427145798554948e-01	 9.543577364509126e+00
 8.870248077100418e-01	 9.245477515099140e-01	 9.919673817579049e+00
 9.059805633624999e-01	 9.059805633624999e-01	 1.029647269986373e+01
 6.976910434331343e-01	 1.067170186940631e+00	 6.410247209644407e+00
 7.194327661585509e-01	 1.052635465991020e+00	 6.805008983464433e+00
 7.409125427788833e-01	 1.037628783238830e+00	 7.194615651304363e+00
 7.621152002219971e-01	 1.022157175965739e+00	 7.580159174374073e+00
 7.830258169125842e-01	 1.006228325534758e+00	 7.962668527250510e+00
 8.036297567060043e-01	 9.898505461263861e-01	 8.343100874169862e+00
 8.239127022105965e-01	 9.730327713411517e-01	 8.722333392138088e+00
 8.438606873425732e-01	 9.557845387080517e-01	 9.101155827996049e+00
 8.634601289606018e-01	 9.381159721513316e-01	 9.480263868604142e+00
 8.826978574313892e-01	 9.200377624807766e-01	 9.860253394186147e+00
 9.015611459830000e-01	 9.015611459830000e-01	 1.024161567471154e+01
 6.942709893008407e-01	 1.061938960534025e+00	 6.343225285094062e+00
 7.159061349544822e-01	 1.047475488217127e+00	 6.734452720881646e+00
 7.372806185525199e-01	 1.032542367635850e+00	 7.121644257540369e+00
 7.583793414006232e-01	 1.017146601575390e+00	 7.505850972818735e+00
 7.791874550684610e-01	 1.001295833745019e+00	 7.888056973578230e+00
 7.996903951571992e-01	 9.849983375694489e-01	 8.269170766474101e+00
 8.198739144584690e-01	 9.682630028570473e-01	 8.650017293396512e+00
 8.397241153496784e-01	 9.510993203842183e-01	 9.031330717258680e+00
 8.592274812735196e-01	 9.335173644481271e-01	 9.413748035630423e+00
 8.783709071537267e-01	 9.155277734526290e-01	 9.797803590490592e+00
 8.971417286045003e-01	 8.971417286045003e-01	 1.018392453213532e+01
 6.908509351685368e-01	 1.056707734127410e+00	 6.272440847198468e+00
 7.123795037505936e-01	 1.042315510443415e+00	 6.660126139569644e+00
 7.336486943265074e-01	 1.027455952033221e+00	 7.044917448630059e+00
 7.546434825797516e-01	 1.012136027185543e+00	 7.427825185182757e+00
 7.753490932249715e-01	 9.963633419559141e-01	 7.809788737014776e+00
 7.957510336091396e-01	 9.801461290132569e-01	 8.191668032255357e+00
 8.158351267071787e-01	 9.634932343737798e-01	 8.574235785810398e+00
 8.355875433576918e-01	 9.464141020612932e-01	 8.958170512926403e+00
 8.549948335873969e-01	 9.289187567458820e-01	 9.344050385727327e+00
 8.740439568770542e-01	 9.110177844254713e-01	 9.732347999242073e+00
 8.927223112270002e-01	 8.927223112270002e-01	 1.012342610312172e+01
 6.874308810362221e-01	 1.051476507720783e+00	 6.197896170624613e+00
 7.088528725468843e-01	 1.037155532669882e+00	 6.582033106921250e+00
 7.300167701008453e-01	 1.022369536430942e+00	 6.964440890650895e+00
 7.509076237593820e-01	 1.007125452796198e+00	 7.346089479274918e+00
 7.715107313821155e-01	 9.914308501674425e-01	 7.727873686743296e+00
 7.918116720618250e-01	 9.752939204578100e-01	 8.110604937831258e+00
 8.117963389567251e-01	 9.587234658913490e-01	 8.495003724242542e+00
 8.314509713666131e-01	 9.417288837392759e-01	 8.881692845015584e+00
 8.507621859022336e-01	 9.243201490445961e-01	 9.271191505433791e+00
 8.697170066013711e-01	 9.065077953993033e-01	 9.663910339213862e+00
 8.883028938505002e-01	 8.883028938505002e-01	 1.006014740833546e+01
 6.840108269038967e-01	 1.046245281314146e+00	 6.119593269141741e+00
 7.053262413433549e-01	 1.031995554896528e+00	 6.500177254371614e+00
 7.263848458755340e-01	 1.017283120829013e+00	 6.880220043378184e+00
 7.471717649395143e-01	 1.002114878407355e+00	 7.260651350940748e+00
 7.676723695398933e-01	 9.864983583796046e-01	 7.642321558963423e+00
 7.878723105152556e-01	 9.704417119031085e-01	 8.025993660102122e+00
 8.077575512071082e-01	 9.539536974097551e-01	 8.412335922223033e+00
 8.273143993764429e-01	 9.370436654181670e-01	 8.801915354732429e+00
 8.465295382180290e-01	 9.197215413442693e-01	 9.195192049348641e+00
 8.653900563266779e-01	 9.019978063741249e-01	 9.592514458353868e+00
 8.838834764750000e-01	 8.838834764750000e-01	 9.994115662861235e+00
 9.280776502749999e-01	 9.280776502750000e-01	 1.052731968815332e+01
 9.470976869950806e-01	 9.086595738610251e-01	 1.073277088149871e+01
 9.657075798032693e-01	 8.888560739476630e-01	 1.097279748366333e+01
 9.838957621181963e-01	 8.686802514003704e-01	 1.124665332517222e+01
 1.001651228895778e+00	 8.481456629284566e-01	 1.155334262417273e+01
 1.018963558666839e+00	 8.272662908695004e-01	 1.189162555779065e+01
 1.035822933619861e+00	 8.060565117259884e-01	 1.226002560841350e+01
 1.052220157649076e+00	 7.845310636016595e-01	 1.265683861429350e+01
 1.068146672300861e+00	 7.627050126905902e-01	 1.308014343638818e+01
 1.083594570564393e+00	 7.405937189764132e-01	 1.352781413714041e+01
 1.098556608465972e+00	 7.182128013021297e-01	 1.399753355215074e+01
 9.236582328904999e-01	 9.236582328905000e-01	 1.048702939111292e+01
 9.425876980070675e-01	 9.043326235072199e-01	 1.070036085645216e+01
 9.611089722780598e-01	 8.846234259746145e-01	 1.094731841493393e+01
 9.792105442010659e-01	 8.645436787730678e-01	 1.122709709303983e+01
 9.968814611369742e-01	 8.441068740561296e-01	 1.153864702736823e+01
 1.014111351242653e+00	 8.233269275788182e-01	 1.188067923274435e+01
 1.030890443458065e+00	 8.022181473840849e-01	 1.225167311217254e+01
 1.047209585468426e+00	 7.807952013942213e-01	 1.264988563728937e+01
 1.063060259574649e+00	 7.590730840595219e-01	 1.307336211084526e+01
 1.078434596418345e+00	 7.370670822208391e-01	 1.351994840685767e+01
 1.093325386520926e+00	 7.147927403457310e-01	 1.398730456965962e+01
 9.192388155069999e-01	 9.192388155069999e-01	 1.044377351032763e+01
 9.380777090200441e-01	 9.000056731544041e-01	 1.066519110964237e+01
 9.565103647538096e-01	 8.803907780025254e-01	 1.091929301744379e+01
 9.745253262848441e-01	 8.604071061466734e-01	 1.120521503357855e+01
 9.921116933790073e-01	 8.400680851846395e-01	 1.152185275919065e+01
 1.009259143819212e+00	 8.193875642888818e-01	 1.186786756342304e+01
 1.025957953296904e+00	 7.983797830428155e-01	 1.224169425908218e+01
 1.042199013288277e+00	 7.770593391872851e-01	 1.264155041517410e+01
 1.057973846848787e+00	 7.554411554288036e-01	 1.306544721743149e+01
 1.073274622272477e+00	 7.335404454654449e-01	 1.351120177239665e+01
 1.088094164575869e+00	 7.113726793893221e-01	 1.397645073653614e+01
 9.148193981245002e-01	 9.148193981245002e-01	 1.039757799484947e+01
 9.335677200340106e-01	 8.956787228025782e-01	 1.062729074120360e+01
 9.519117572305182e-01	 8.761581300313953e-01	 1.088875348471929e+01
 9.698401083695299e-01	 8.562705335211870e-01	 1.118104237012794e+01
 9.873419256218772e-01	 8.360292963139863e-01	 1.150299800356596e+01
 1.004406936396516e+00	 8.154482009996905e-01	 1.185323161972578e+01
 1.021025463136376e+00	 7.945414187021798e-01	 1.223013292529172e+01
 1.037188441108631e+00	 7.733234769808510e-01	 1.263187954580755e+01
 1.052887434123276e+00	 7.518092267984369e-01	 1.305644798666680e+01
 1.068114648126788e+00	 7.300138087102302e-01	 1.350162600369502e+01
 1.082862942630802e+00	 7.079526184329025e-01	 1.396502626502799e+01
 9.103999807430003e-01	 9.103999807430003e-01	 1.034846896167933e+01
 9.290577310489668e-01	 8.913517724517422e-01	 1.058668908035670e+01
 9.473131497081865e-01	 8.719254820612244e-01	 1.085573230011132e+01
 9.651548904551243e-01	 8.521339608966091e-01	 1.115461467607359e+01
 9.825721578655841e-01	 8.319905074441696e-01	 1.148212135405679e+01
 9.995547289745655e-01	 8.115088377112447e-01	 1.183681294003472e+01
 1.016092972976482e+00	 7.907030543621776e-01	 1.221703351342467e+01
 1.032177868929487e+00	 7.695876147749192e-01	 1.262092021055173e+01
 1.047801021398117e+00	 7.481772981684206e-01	 1.304641428853395e+01
 1.062954673981279e+00	 7.264871719551954e-01	 1.349127356494355e+01
 1.077631720685724e+00	 7.045325574764720e-01	 1.395308611515944e+01
 9.059805633624999e-01	 9.059805633624999e-01	 1.029647269986373e+01
 9.245477420649127e-01	 8.870248221018961e-01	 1.054341569099595e+01
 9.427145421868133e-01	 8.676928340920128e-01	 1.082026224386355e+01
 9.604696725416266e-01	 8.479973882729391e-01	 1.112596788338461e+01
 9.778023901101277e-01	 8.279517185751901e-01	 1.145926182385419e+01
 9.947025215533608e-01	 8.075694744235442e-01	 1.181865354264199e+01
 1.011160482817222e+00	 7.868646900228086e-01	 1.220244096542047e+01
 1.027167296750844e+00	 7.658517525694895e-01	 1.260872018850392e+01
 1.042714608673307e+00	 7.445453695387549e-01	 1.303539664807521e+01
 1.057794699835950e+00	 7.229605352003404e-01	 1.348019763151975e+01
 1.072400498740636e+00	 7.011124965200310e-01	 1.394068601296915e+01
 9.015611459830000e-01	 9.015611459830000e-01	 1.024161567471154e+01
 9.200377530818485e-01	 8.826978717530395e-01	 1.049750037744117e+01
 9.381159346663998e-01	 8.634601861237603e-01	 1.078237640038915e+01
 9.557844546290374e-01	 8.438608156501776e-01	 1.109513829140283e+01
 9.730326223555082e-01	 8.239129297070473e-01	 1.143445885606156e+01
 9.898503141329008e-01	 8.036301111365887e-01	 1.179879593751180e+01
 1.006227992658595e+00	 7.830263256840740e-01	 1.218640077575250e+01
 1.022156724572704e+00	 7.621158903645617e-01	 1.259532787114636e+01
 1.037628195948848e+00	 7.409134409094402e-01	 1.302344626144819e+01
 1.052634725690801e+00	 7.194338984456651e-01	 1.346845210741808e+01
 1.067169276795537e+00	 6.976924355635795e-01	 1.392788246928557e+01
 8.971417286045003e-01	 8.971417286045003e-01	 1.018392453213532e+01
 9.155277640997740e-01	 8.783709214051727e-01	 1.044897319035972e+01
 9.335173271469448e-01	 8.592275381564667e-01	 1.074210816576361e+01
 9.510992367173560e-01	 8.397242430283237e-01	 1.106216257589102e+01
 9.682628546017256e-01	 8.198741408397413e-01	 1.140775233428446e+01
 9.849981067131867e-01	 7.996907478503789e-01	 1.177728313839068e+01
 1.001295502500602e+00	 7.791879613459728e-01	 1.216895900503755e+01
 1.017146152395066e+00	 7.583800281601363e-01	 1.258079227742954e+01
 1.032541783224740e+00	 7.372815122804759e-01	 1.301061501245530e+01
 1.047474751545831e+00	 7.159072616911695e-01	 1.345609164319685e+01
 1.061938054850428e+00	 6.942723746071174e-01	 1.391473279905618e+01
 8.927223112270002e-01	 8.927223112270002e-01	 1.012342610312172e+01
 9.110177751186898e-01	 8.740439710582961e-01	 1.039786443286406e+01
 9.289187196284496e-01	 8.549948901901324e-01	 1.069949125543792e+01
 9.464140188065830e-01	 8.355876704073784e-01	 1.102707779835058e+01
 9.634930868487798e-01	 8.158353519732723e-01	 1.137918259353414e+01
 9.801458992942175e-01	 7.957513845649142e-01	 1.175415867527758e+01
 9.963630123432428e-01	 7.753495970085055e-01	 1.215016229404885e+01
 1.012135580217930e+00	 7.546441659562126e-01	 1.256516306930393e+01
 1.027455370500983e+00	 7.336495836518626e-01	 1.299695548956476e+01
 1.042314777401042e+00	 7.123806249368537e-01	 1.344317165445716e+01
 1.056706832905307e+00	 6.908523136506444e-01	 1.390129514125179e+01
 8.883028938505002e-01	 8.883028938505002e-01	 1.006014740833546e+01
 9.065077861385946e-01	 8.697170207124085e-01	 1.034420466679122e+01
 9.243201121109135e-01	 8.507622422247576e-01	 1.065455971218375e+01
 9.417288008967177e-01	 8.314510977873408e-01	 1.098992141561692e+01
 9.587233190966711e-01	 8.117965631076400e-01	 1.134879043145575e+01
 9.752936918759938e-01	 7.918120212801949e-01	 1.172946660726575e+01
 9.914305221865173e-01	 7.715112326716718e-01	 1.213005787814842e+01
 1.007125008041296e+00	 7.509083037527915e-01	 1.254849056771499e+01
 1.022368957777577e+00	 7.300176550236001e-01	 1.298252100343971e+01
 1.037154803256431e+00	 7.088539881827178e-01	 1.342974834087407e+01
 1.051475610960176e+00	 6.874322526941611e-01	 1.388762847936473e+01
 8.838834764750000e-01	 8.838834764750000e-01	 9.994115662861235e+00
 9.019977971594892e-01	 8.653900703675111e-01	 1.028802471917149e+01
 9.197215045943362e-01	 8.465295942603414e-01	 1.060734791427693e+01
 9.370435829877605e-01	 8.273145251682116e-01	 1.095073128974245e+01
 9.539535513453987e-01	 8.077577742428447e-01	 1.131661711989518e+01
 9.704414844585152e-01	 7.878726579962209e-01	 1.170325153577001e+01
 9.864980320304251e-01	 7.676728683354713e-01	 1.210869360215163e+01
 1.002114435865165e+00	 7.471724415498722e-01	 1.253082576907779e+01
 1.017282545054521e+00	 7.263857263956881e-01	 1.296736560499317e+01
 1.031994829112001e+00	 7.053273514287612e-01	 1.341587870579823e+01
 1.046244389015035e+00	 6.840121917376668e-01	 1.387379266252142e+01
 1.098556608465972e+00	 7.182128013021297e-01	 1.399753355215074e+01
 1.113026214439379e+00	 6.955781019722751e-01	 1.400511277171172e+01
 1.126997496460084e+00	 6.727056510518903e-01	 1.400826410323662e+01
 1.140465246942069e+00	 6.496116305235260e-01	 1.400454138003087e+01
 1.153424945409339e+00	 6.263123384614093e-01	 1.399142713964733e+01
 1.165872758969277e+00	 6.028241533816299e-01	 1.439044047811870e+01
 1.177805540625447e+00	 5.791634989208893e-01	 1.476536103060400e+01
 1.189220825479669e+00	 5.553468089916535e-01	 1.509290257233894e+01
 1.200116824884327e+00	 5.313904935553467e-01	 1.537596880934182e+01
 1.210492418616161e+00	 5.073109051481486e-01	 1.561733874041395e+01
 1.220347145152351e+00	 4.831243062860802e-01	 1.581965752854568e+01
 1.093325386520926e+00	 7.147927403457310e-01	 1.398730456965962e+01
 1.107726089609253e+00	 6.922658252990846e-01	 1.399182208542554e+01
 1.121630841715965e+00	 6.695022908121946e-01	 1.399068755517221e+01
 1.135034460053071e+00	 6.465182418105537e-01	 1.398148678199408e+01
 1.147932445670654e+00	 6.233298987585120e-01	 1.399628962475173e+01
 1.160320983927968e+00	 5.999535621792261e-01	 1.442395524145609e+01
 1.172196942814275e+00	 5.764055775016057e-01	 1.480050328117855e+01
 1.183557869169008e+00	 5.527023003813918e-01	 1.512891438693389e+01
 1.194401982861919e+00	 5.288600626373365e-01	 1.541206119633043e+01
 1.204728169004147e+00	 5.048951389364015e-01	 1.565269732824200e+01
 1.214535968270603e+00	 4.808237143540570e-01	 1.585344824070748e+01
 1.088094164575869e+00	 7.113726793893221e-01	 1.397645073653614e+01
 1.102425964778932e+00	 6.889535486257042e-01	 1.397801272664572e+01
 1.116264186971496e+00	 6.662989305721714e-01	 1.397270171460823e+01
 1.129603673163601e+00	 6.434248530971569e-01	 1.395813511827764e+01
 1.142439945931406e+00	 6.203474590551341e-01	 1.403112117457457e+01
 1.154769208886034e+00	 5.970829709763262e-01	 1.446109555824340e+01
 1.166588345002447e+00	 5.736476560818506e-01	 1.483923427568408e+01
 1.177894912857687e+00	 5.500577917707230e-01	 1.516848157695312e+01
 1.188687140838879e+00	 5.263296317190232e-01	 1.545167932155697e+01
 1.198963919391559e+00	 5.024793727244939e-01	 1.569155599411623e+01
 1.208724791388365e+00	 4.785231224220544e-01	 1.589071754873443e+01
 1.082862942630802e+00	 7.079526184329025e-01	 1.396502626502799e+01
 1.097125839948416e+00	 6.856412719521338e-01	 1.396373903691827e+01
 1.110897532226679e+00	 6.630955703318204e-01	 1.395436096373082e+01
 1.124172886273659e+00	 6.403314643833352e-01	 1.393454072422283e+01
 1.136947446191592e+00	 6.173650193512751e-01	 1.406967506790168e+01
 1.149217433843474e+00	 5.942123797729307e-01	 1.450191865576869e+01
 1.160979747189960e+00	 5.708897346616244e-01	 1.488161146702821e+01
 1.172231956545706e+00	 5.474132831596475e-01	 1.521166169272839e+01
 1.182972298815207e+00	 5.237992008004069e-01	 1.549488070445243e+01
 1.193199669778395e+00	 5.000636065124262e-01	 1.573397209857779e+01
 1.202913614505638e+00	 4.762225304900725e-01	 1.593152252707958e+01
 1.077631720685724e+00	 7.045325574764720e-01	 1.395308611515944e+01
 1.091825715117704e+00	 6.823289952783737e-01	 1.394905611476813e+01
 1.105530877481513e+00	 6.598922100911415e-01	 1.393572044975260e+01
 1.118742099383246e+00	 6.372380756690892e-01	 1.391075870708159e+01
 1.131454946451216e+00	 6.143825796469358e-01	 1.411200895643599e+01
 1.143665658800288e+00	 5.913417885690386e-01	 1.454648254349959e+01
 1.155371149376816e+00	 5.681318132409270e-01	 1.492769309368443e+01
 1.166569000233066e+00	 5.447687745481654e-01	 1.525851307238323e+01
 1.177257456790902e+00	 5.212687698814876e-01	 1.554172365331356e+01
 1.187435420164655e+00	 4.976478403001978e-01	 1.578000379096624e+01
 1.197102437622420e+00	 4.739219385581110e-01	 1.597592103779843e+01
 1.072400498740636e+00	 7.011124965200310e-01	 1.394068601296915e+01
 1.086525590286798e+00	 6.790167186044237e-01	 1.393401983416277e+01
 1.100164222735998e+00	 6.566888498501349e-01	 1.391683610357124e+01
 1.113311312492361e+00	 6.341446869544183e-01	 1.388684496484360e+01
 1.125962446710275e+00	 6.114001399421161e-01	 1.415818128847585e+01
 1.138113883756475e+00	 5.884711973646508e-01	 1.459484603216123e+01
 1.149762551563013e+00	 5.653738918197581e-01	 1.497753819885203e+01
 1.160906043919766e+00	 5.421242659362763e-01	 1.530909486104747e+01
 1.171542614765966e+00	 5.187383389622653e-01	 1.559226728454374e+01
 1.181671170550341e+00	 4.952320740878093e-01	 1.582971002865857e+01
 1.191291260738713e+00	 4.716213466261701e-01	 1.602397174975882e+01
 1.067169276795537e+00	 6.976924355635795e-01	 1.392788246928557e+01
 1.081225465455697e+00	 6.757044419302840e-01	 1.391868686351738e+01
 1.094797567990134e+00	 6.534854896088002e-01	 1.389776465897841e+01
 1.107880525601004e+00	 6.310512982393229e-01	 1.386285620561720e+01
 1.120469946968770e+00	 6.084177002368153e-01	 1.420825132843928e+01
 1.132562108712037e+00	 5.856006061597668e-01	 1.464706875337444e+01
 1.144153953748553e+00	 5.626159703981176e-01	 1.503120665018003e+01
 1.155243087605805e+00	 5.394797573239801e-01	 1.536346703063700e+01
 1.165827772740397e+00	 5.162079080427399e-01	 1.564657154245937e+01
 1.175906920935450e+00	 4.928163078752603e-01	 1.588315059687400e+01
 1.185480083854516e+00	 4.693207546942498e-01	 1.607573415841579e+01
 1.061938054850428e+00	 6.942723746071174e-01	 1.391473279905618e+01
 1.075925340624400e+00	 6.723921652559541e-01	 1.390311468526297e+01
 1.089430913243922e+00	 6.502821293671383e-01	 1.387856367243443e+01
 1.102449738709176e+00	 6.279579095238027e-01	 1.383884996758293e+01
 1.114977447226702e+00	 6.054352605310344e-01	 1.426227917696546e+01
 1.127010333666973e+00	 5.827300149543865e-01	 1.470321117987532e+01
 1.138545355933435e+00	 5.598580489760060e-01	 1.508875916007350e+01
 1.149580131291185e+00	 5.368352487112772e-01	 1.542169040021750e+01
 1.160112930714196e+00	 5.136774771229116e-01	 1.570469721968198e+01
 1.170142671319985e+00	 4.904005416625508e-01	 1.594038612906422e+01
 1.179668906969829e+00	 4.670201627623501e-01	 1.613126860617074e+01
 1.056706832905307e+00	 6.908523136506444e-01	 1.390129514125179e+01
 1.070625215792909e+00	 6.690798885814344e-01	 1.388736161599521e+01
 1.084064258497361e+00	 6.470787691251482e-01	 1.385929154343208e+01
 1.097018951816876e+00	 6.248645208078579e-01	 1.381844064366184e+01
 1.109484947484069e+00	 6.024528208247725e-01	 1.432032579161337e+01
 1.121458558621283e+00	 5.798594237485103e-01	 1.476333464633473e+01
 1.132936758117660e+00	 5.571001275534229e-01	 1.515025730660369e+01
 1.143917174975906e+00	 5.341907400981675e-01	 1.548382665697403e+01
 1.154398088687363e+00	 5.111470462027801e-01	 1.576670597813574e+01
 1.164378421703944e+00	 4.879847754496810e-01	 1.600147812790929e+01
 1.173857730084653e+00	 4.647195708304710e-01	 1.619063630333570e+01
 1.051475610960176e+00	 6.874322526941611e-01	 1.388762847936473e+01
 1.065325090961222e+00	 6.657676119067251e-01	 1.387148682722479e+01
 1.078697603750451e+00	 6.438754088828302e-01	 1.384000753546743e+01
 1.091588164924104e+00	 6.217711320914887e-01	 1.387786768733262e+01
 1.103992447740872e+00	 5.994703811180301e-01	 1.438245300817819e+01
 1.115906783574966e+00	 5.769888325421380e-01	 1.482750137079925e+01
 1.127328160301226e+00	 5.543422061303684e-01	 1.521576355504170e+01
 1.138254218659966e+00	 5.315462314846510e-01	 1.554993837780565e+01
 1.148683246659897e+00	 5.086166152823455e-01	 1.583266037067200e+01
 1.158614172087327e+00	 4.855690092366509e-01	 1.606648898694000e+01
 1.168046553198987e+00	 4.624189788986123e-01	 1.625389934972279e+01
 1.046244389015035e+00	 6.840121917376668e-01	 1.387379266252142e+01
 1.060024966129340e+00	 6.624553352318256e-01	 1.385555036675029e+01
 1.073330949003193e+00	 6.406720486401845e-01	 1.382077179763941e+01
 1.086157378030861e+00	 6.186777433746945e-01	 1.394147670727755e+01
 1.098499947997111e+00	 5.964879414108070e-01	 1.444872356264707e+01
 1.110355008528024e+00	 5.741182413352696e-01	 1.489577447677584e+01
 1.121719562484135e+00	 5.515842847068427e-01	 1.528534128003875e+01
 1.132591262343367e+00	 5.289017228707272e-01	 1.562008905156851e+01
 1.142968404631800e+00	 5.060861843616079e-01	 1.590262386334232e+01
 1.152849922470135e+00	 4.831532430234601e-01	 1.613548201280948e+01
 1.162235376312831e+00	 4.601183869667742e-01	 1.632112075688208e+01
 1.220347145152351e+00	 4.831243062860802e-01	 1.581965752854568e+01
 1.229681190138468e+00	 4.588468378684133e-01	 1.603694269008133e+01
 1.238495373144912e+00	 4.344944886856269e-01	 1.620667127136711e+01
 1.246791132816067e+00	 4.100830661329605e-01	 1.632800527010633e+01
 1.254570510522024e+00	 3.856281682207527e-01	 1.651631680837798e+01
 1.261836132626719e+00	 3.611451569577847e-01	 1.672261975319967e+01
 1.268591191490658e+00	 3.366491331770325e-01	 1.686314959622075e+01
 1.274839425329030e+00	 3.121549128617930e-01	 1.693589483693191e+01
 1.280585097047684e+00	 2.876770050196259e-01	 1.693912060658063e+01
 1.285832972180329e+00	 2.632295911411737e-01	 1.687137303030507e+01
 1.290588296050167e+00	 2.388265062707223e-01	 1.673148166464638e+01
 1.214535968270603e+00	 4.808237143540570e-01	 1.585344824070748e+01
 1.223825565422929e+00	 4.566618529282317e-01	 1.608253987083380e+01
 1.232597776128909e+00	 4.324254673123872e-01	 1.626523021041727e+01
 1.240854032182237e+00	 4.081302896284525e-01	 1.640074255238021e+01
 1.248596365232195e+00	 3.837918436105266e-01	 1.648828770767902e+01
 1.255827389136221e+00	 3.594254181149675e-01	 1.667598097608388e+01
 1.262550281053106e+00	 3.350460420660230e-01	 1.683560179535165e+01
 1.268768761397010e+00	 3.106684608946882e-01	 1.692927676492934e+01
 1.274487072774231e+00	 2.863071145180104e-01	 1.695532351844682e+01
 1.279709958025457e+00	 2.619761168957242e-01	 1.691233124061235e+01
 1.284442637496160e+00	 2.376892371909522e-01	 1.679916317586764e+01
 1.208724791388365e+00	 4.785231224220544e-01	 1.589071754873444e+01
 1.217969940706995e+00	 4.544768679882602e-01	 1.613122236907435e+01
 1.226700179112595e+00	 4.303564459395260e-01	 1.632650679770966e+01
 1.234916931548171e+00	 4.061775131244710e-01	 1.647585584404756e+01
 1.242622219942193e+00	 3.819555190009540e-01	 1.657853766109861e+01
 1.249818645645605e+00	 3.577056792729109e-01	 1.663381021105982e+01
 1.256509370615478e+00	 3.334429509558611e-01	 1.680759952835688e+01
 1.262698097464948e+00	 3.091820089284981e-01	 1.692196412167873e+01
 1.268389048500758e+00	 2.849372240173573e-01	 1.697060998196384e+01
 1.273586943870580e+00	 2.607226426512655e-01	 1.695216914560539e+01
 1.278296978942153e+00	 2.365519681121821e-01	 1.686553831072242e+01
 1.202913614505638e+00	 4.762225304900725e-01	 1.593152252707957e+01
 1.212114315990666e+00	 4.522918830484983e-01	 1.618304139602858e+01
 1.220802582095970e+00	 4.282874245670435e-01	 1.639054656362256e+01
 1.228979830913867e+00	 4.042247366210157e-01	 1.655338518417338e+01
 1.236648074652018e+00	 3.801191943920353e-01	 1.667088308041698e+01
 1.243809902154868e+00	 3.559859404316151e-01	 1.674235126415221e+01
 1.250468460177773e+00	 3.318398598465468e-01	 1.677916422947995e+01
 1.256627433532842e+00	 3.076955569632226e-01	 1.691397345149694e+01
 1.262291024227266e+00	 2.835673335176664e-01	 1.698499194268810e+01
 1.267463929715699e+00	 2.594691684077974e-01	 1.699089438762057e+01
 1.272151320388147e+00	 2.354146990344120e-01	 1.693061070740024e+01
 1.197102437622420e+00	 4.739219385581110e-01	 1.597592103779843e+01
 1.206258691273942e+00	 4.501068981089468e-01	 1.623804884236814e+01
 1.214904985079035e+00	 4.262184031949393e-01	 1.645739561468380e+01
 1.223042730279327e+00	 4.022719601180869e-01	 1.663337108965542e+01
 1.230673929361670e+00	 3.782828697837702e-01	 1.676535909421126e+01
 1.237801158664012e+00	 3.542662015910800e-01	 1.685272392508023e+01
 1.244427549739992e+00	 3.302367687380799e-01	 1.689481730611204e+01
 1.250556769600694e+00	 3.062091049988619e-01	 1.690532143494066e+01
 1.256192999953756e+00	 2.821974430189380e-01	 1.699848141028132e+01
 1.261340915560813e+00	 2.582156941653199e-01	 1.702851460636003e+01
 1.266005661834141e+00	 2.342774299576419e-01	 1.699438394013248e+01
 1.191291260738713e+00	 4.716213466261701e-01	 1.602397174975883e+01
 1.200403066556823e+00	 4.479219131696051e-01	 1.629629729478209e+01
 1.209007388061789e+00	 4.241493818232137e-01	 1.652710064762321e+01
 1.217105629644550e+00	 4.003191836156844e-01	 1.671585456687872e+01
 1.224699784071148e+00	 3.764465451761588e-01	 1.686200122503926e+01
 1.231792415173036e+00	 3.525464627513056e-01	 1.696495844549012e+01
 1.238386639302136e+00	 3.286336776304610e-01	 1.702412653885245e+01
 1.244486105668504e+00	 3.047226530354161e-01	 1.703889562460120e+01
 1.250094975680228e+00	 2.808275525211716e-01	 1.701109046007437e+01
 1.255217901405922e+00	 2.569622199238331e-01	 1.706503743882757e+01
 1.259860003280134e+00	 2.331401608818717e-01	 1.705686151763266e+01
 1.185480083854516e+00	 4.693207546942498e-01	 1.607573415841579e+01
 1.194547441839309e+00	 4.457369282304733e-01	 1.635784005303663e+01
 1.203109791044232e+00	 4.220803604518668e-01	 1.659970896383827e+01
 1.211168529009537e+00	 3.983664071138083e-01	 1.680087712371283e+01
 1.218725638780453e+00	 3.746102205692007e-01	 1.696084539909599e+01
 1.225783671681941e+00	 3.508267239122919e-01	 1.707908538824860e+01
 1.232345728864203e+00	 3.270305865236895e-01	 1.715504613917444e+01
 1.238415441736271e+00	 3.032362010728848e-01	 1.718816137373116e+01
 1.243996951406679e+00	 2.794576620243677e-01	 1.717785710290119e+01
 1.249094887251026e+00	 2.557087456833369e-01	 1.712355951834737e+01
 1.253714344726128e+00	 2.320028918071016e-01	 1.711804688149038e+01
 1.179668906969829e+00	 4.670201627623501e-01	 1.613126860617074e+01
 1.188691817121400e+00	 4.435519432915516e-01	 1.642273114753824e+01
 1.197212194026364e+00	 4.200113390808983e-01	 1.667526848428752e+01
 1.205231428374286e+00	 3.964136306124585e-01	 1.688848078186358e+01
 1.212751493489586e+00	 3.727738959628967e-01	 1.706192795615545e+01
 1.219774928190726e+00	 3.491069850740387e-01	 1.719513563510843e+01
 1.226304818426194e+00	 3.254274954177657e-01	 1.728760176076425e+01
 1.232344777803995e+00	 3.017497491112684e-01	 1.733880371886508e+01
 1.237898927133113e+00	 2.780877715285262e-01	 1.734820588141352e+01
 1.242971873096125e+00	 2.544552714438312e-01	 1.731526744757894e+01
 1.247568686172121e+00	 2.308656227333315e-01	 1.723945046998187e+01
 1.173857730084653e+00	 4.647195708304710e-01	 1.619063630333570e+01
 1.182836192403096e+00	 4.413669583528400e-01	 1.649102535741907e+01
 1.191314597008185e+00	 4.179423177103083e-01	 1.675382776482616e+01
 1.199294327738799e+00	 3.944608541116350e-01	 1.697870808959188e+01
 1.206777348198544e+00	 3.709375713572463e-01	 1.716528565980759e+01
 1.213766184699391e+00	 3.473872462365463e-01	 1.731314039460151e+01
 1.220263907988108e+00	 3.238244043126894e-01	 1.742181929283642e+01
 1.226274113871677e+00	 3.002632971505667e-01	 1.749084347119907e+01
 1.231800902859527e+00	 2.767178810336468e-01	 1.751971563745587e+01
 1.236848858941221e+00	 2.532017972053163e-01	 1.750792788448596e+01
 1.241423027618115e+00	 2.297283536605614e-01	 1.745496969218249e+01
 1.168046553198987e+00	 4.624189788986123e-01	 1.625389934972279e+01
 1.176980567684397e+00	 4.391819734143382e-01	 1.656277822916170e+01
 1.185416999989696e+00	 4.158732963400968e-01	 1.683543601199949e+01
 1.193357227103075e+00	 3.925080776113380e-01	 1.707160213481203e+01
 1.200803202907330e+00	 3.691012467522496e-01	 1.727095570800120e+01
 1.207757441207937e+00	 3.456675073998146e-01	 1.743313121016793e+01
 1.214222997549946e+00	 3.222213132084607e-01	 1.755772486599275e+01
 1.220203449939316e+00	 2.987768451907797e-01	 1.764430159579547e+01
 1.225702878585923e+00	 2.753479905397299e-01	 1.769240242288725e+01
 1.230725844786311e+00	 2.519483229677918e-01	 1.770155222450400e+01
 1.235277369064108e+00	 2.285910845887913e-01	 1.767126771342422e+01
 1.162235376312831e+00	 4.601183869667742e-01	 1.632112075688208e+01
 1.171124942965302e+00	 4.369969884760462e-01	 1.663804609578322e+01
 1.179519402970896e+00	 4.138042749702637e-01	 1.692014309931024e+01
 1.187420126467113e+00	 3.905553011115672e-01	 1.716720655858316e+01
 1.194829057615943e+00	 3.672649221479063e-01	 1.737897574390273e+01
 1.201748697716363e+00	 3.439477685638434e-01	 1.755513996852852e+01
 1.208182087111708e+00	 3.206182221050797e-01	 1.769534485825709e+01
 1.214132786006912e+00	 2.972903932319074e-01	 1.779919921542952e+01
 1.219604854312299e+00	 2.739781000467751e-01	 1.786628236377596e+01
 1.224602830631397e+00	 2.506948487312581e-01	 1.789615186001941e+01
 1.229131710510102e+00	 2.274538155180211e-01	 1.788835145931004e+01
 1.290588296050167e+00	 2.388265062707223e-01	 1.673148166464638e+01
 1.294856770278347e+00	 2.144812217047878e-01	 1.695893897786275e+01
 1.298644528759439e+00	 1.902068293282645e-01	 1.713872611332063e+01
 1.301958113222162e+00	 1.660160275848852e-01	 1.727287743342929e+01
 1.304804448490407e+00	 1.419211090703706e-01	 1.736351905252484e+01
 1.307190817555246e+00	 1.179339497318521e-01	 1.741286147519338e+01
 1.309124836564689e+00	 9.406599964678086e-02	 1.742319175779017e+01
 1.310614429833037e+00	 7.032827534826853e-02	 1.739686526630316e+01
 1.311667804966393e+00	 4.673135365743578e-02	 1.733629710525985e+01
 1.312293428195356e+00	 2.328536697759711e-02	 1.724395329292979e+01
 1.312500000000000e+00	 0.000000000000000e+00	 1.712234175767973e+01
 1.284442637496160e+00	 2.376892371909522e-01	 1.679916317586764e+01
 1.288690785656858e+00	 2.134598825512273e-01	 1.703920468928775e+01
 1.292460507193042e+00	 1.893010825191817e-01	 1.722941858404678e+01
 1.295758312682341e+00	 1.652254750697662e-01	 1.737169403223167e+01
 1.298591093973299e+00	 1.412452942625296e-01	 1.746802393164364e+01
 1.300966099376075e+00	 1.173723594924717e-01	 1.752049750549323e+01
 1.302890908771310e+00	 9.361806631286276e-02	 1.753129237782840e+01
 1.304373408738474e+00	 6.999337879713069e-02	 1.750266620075167e+01
 1.305421767799834e+00	 4.650882340057875e-02	 1.743694791114621e+01
 1.306044411870603e+00	 2.317448427697934e-02	 1.733652869526325e+01
 1.306250000000000e+00	 0.000000000000000e+00	 1.720385273918165e+01
 1.278296978942153e+00	 2.365519681121821e-01	 1.686553831072242e+01
 1.282524801035369e+00	 2.124385433986561e-01	 1.711907962821493e+01
 1.286276485626643e+00	 1.883953357110565e-01	 1.732060648086977e+01
 1.289558512142521e+00	 1.644349225555529e-01	 1.747186171974596e+01
 1.292377739456191e+00	 1.405694794555219e-01	 1.757470400830914e+01
 1.294741381196905e+00	 1.168107692538323e-01	 1.763110038312143e+01
 1.296656980977932e+00	 9.317013297957431e-02	 1.764311824227042e+01
 1.298132387643911e+00	 6.965848224649221e-02	 1.761291684053640e+01
 1.299175730633275e+00	 4.628629314407245e-02	 1.754273837207063e+01
 1.299795395545850e+00	 2.306360157654568e-02	 1.743489872207396e+01
 1.300000000000000e+00	 0.000000000000000e+00	 1.729177796867828e+01
 1.272151320388147e+00	 2.354146990344120e-01	 1.693061070740024e+01
 1.276358816413879e+00	 2.114172042470742e-01	 1.719857944273943e+01
 1.280092464060246e+00	 1.874895889038891e-01	 1.741231708932071e+01
 1.283358711602701e+00	 1.636443700422451e-01	 1.757341903550957e+01
 1.286164384939083e+00	 1.398936646493473e-01	 1.768360868278844e+01
 1.288516663017734e+00	 1.162491790159341e-01	 1.774472996705032e+01
 1.290423053184553e+00	 9.272219964691562e-02	 1.775873925910778e+01
 1.291891366549349e+00	 6.932358569635319e-02	 1.772769672638643e+01
 1.292929693466715e+00	 4.606376288791687e-02	 1.765375723966720e+01
 1.293546379221097e+00	 2.295271887629612e-02	 1.753916090953864e+01
 1.293750000000000e+00	 0.000000000000000e+00	 1.738622333698817e+01
 1.266005661834141e+00	 2.342774299576419e-01	 1.699438394013248e+01
 1.270192831792389e+00	 2.103958650964818e-01	 1.727771996619128e+01
 1.273908442493848e+00	 1.865838420976795e-01	 1.750457812164831e+01
 1.277158911062881e+00	 1.628538175298428e-01	 1.767640517930077e+01
 1.279951030421975e+00	 1.392178498440060e-01	 1.779478824092621e+01
 1.282291944838564e+00	 1.156875887787769e-01	 1.786144721878020e+01
 1.284189125391174e+00	 9.227426631488655e-02	 1.787822664724647e+01
 1.285650345454787e+00	 6.898868914671356e-02	 1.784708690961604e+01
 1.286683656300156e+00	 4.584123263211203e-02	 1.777009496698212e+01
 1.287297362896344e+00	 2.284183617623066e-02	 1.764941467712228e+01
 1.287500000000000e+00	 0.000000000000000e+00	 1.748729679106181e+01
 1.259860003280134e+00	 2.331401608818717e-01	 1.705686151763266e+01
 1.264026847170900e+00	 2.093745259468787e-01	 1.735651722165297e+01
 1.267724420927450e+00	 1.856780952924276e-01	 1.759741772722693e+01
 1.270959110523061e+00	 1.620632650183462e-01	 1.778086002724183e+01
 1.273737675904867e+00	 1.385420350394979e-01	 1.790829387574450e+01
 1.276067226659393e+00	 1.151259985423609e-01	 1.798131422922998e+01
 1.277955197597796e+00	 9.182633298348723e-02	 1.800165296848044e+01
 1.279409324360225e+00	 6.865379259757338e-02	 1.797116998896837e+01
 1.280437619133597e+00	 4.561870237665792e-02	 1.789184374997093e+01
 1.281048346571591e+00	 2.273095347634930e-02	 1.776576137351228e+01
 1.281250000000000e+00	 0.000000000000000e+00	 1.759510838413136e+01
 1.253714344726128e+00	 2.320028918071016e-01	 1.711804688149038e+01
 1.257860862549410e+00	 2.083531867982651e-01	 1.743498742661055e+01
 1.261540399361052e+00	 1.847723484881335e-01	 1.769086450327049e+01
 1.264759309983240e+00	 1.612727125077552e-01	 1.788682414837658e+01
 1.267524321387759e+00	 1.378662202358231e-01	 1.802417770967714e+01
 1.269842508480223e+00	 1.145644083066861e-01	 1.810439424641908e+01
 1.271721269804416e+00	 9.137839965271759e-02	 1.812909216040539e+01
 1.273168303265662e+00	 6.831889604893257e-02	 1.810003014854270e+01
 1.274191581967037e+00	 4.539617212155451e-02	 1.801909757021753e+01
 1.274799330246839e+00	 2.262007077665204e-02	 1.788830432390317e+01
 1.275000000000000e+00	 0.000000000000000e+00	 1.770977032733511e+01
 1.247568686172121e+00	 2.308656227333315e-01	 1.723945046998187e+01
 1.251694877927920e+00	 2.073318476506407e-01	 1.751314699774155e+01
 1.255356377794654e+00	 1.838666016847973e-01	 1.778494750586282e+01
 1.258559509443420e+00	 1.604821599980698e-01	 1.799433882173684e+01
 1.261310966870651e+00	 1.371904054329814e-01	 1.814249281746191e+01
 1.263617790301053e+00	 1.140028180717523e-01	 1.823075170396745e+01
 1.265487342011038e+00	 9.093046632257765e-02	 1.826061957030581e+01
 1.266927282171100e+00	 6.798399950079120e-02	 1.823375319684254e+01
 1.267945544800478e+00	 4.517364186680185e-02	 1.815195223891474e+01
 1.268550313922086e+00	 2.250918807713888e-02	 1.801714887867903e+01
 1.268750000000000e+00	 0.000000000000000e+00	 1.783139704286783e+01
 1.241423027618115e+00	 2.297283536605614e-01	 1.745496969218249e+01
 1.245528893306431e+00	 2.063105085040058e-01	 1.770292041034151e+01
 1.249172356228256e+00	 1.829608548824188e-01	 1.790000099455048e+01
 1.252359708903600e+00	 1.596916074892899e-01	 1.810344605391687e+01
 1.255097612353543e+00	 1.365145906309730e-01	 1.826329324971215e+01
 1.257393072121882e+00	 1.134412278375596e-01	 1.836045225044205e+01
 1.259253414217659e+00	 9.048253299306740e-02	 1.839631199004781e+01
 1.260686261076537e+00	 6.764910295314926e-02	 1.837242660698364e+01
 1.261699507633919e+00	 4.495111161239993e-02	 1.829050544215186e+01
 1.262301297597333e+00	 2.239830537780981e-02	 1.815240246354204e+01
 1.262500000000000e+00	 0.000000000000000e+00	 1.796010521870988e+01
 1.235277369064108e+00	 2.285910845887913e-01	 1.767126771342422e+01
 1.239362908684941e+00	 2.052891693583602e-01	 1.793664912288137e+01
 1.242988334661858e+00	 1.820551080809980e-01	 1.814837621888716e+01
 1.246159908363779e+00	 1.589010549814156e-01	 1.830695204278824e+01
 1.248884257836435e+00	 1.358387758297978e-01	 1.841291033774097e+01
 1.251168353942712e+00	 1.128796376041081e-01	 1.849356277957953e+01
 1.253019486424281e+00	 9.003459966418685e-02	 1.853624769201448e+01
 1.254445239981975e+00	 6.731420640600672e-02	 1.851613955810225e+01
 1.255453470467359e+00	 4.472858135834873e-02	 1.843485678755391e+01
 1.256052281272581e+00	 2.228742267866485e-02	 1.829417463113717e+01
 1.256250000000000e+00	 0.000000000000000e+00	 1.809601386499009e+01
 1.229131710510102e+00	 2.274538155180211e-01	 1.788835145931004e+01
 1.233196924063451e+00	 2.042678302137040e-01	 1.817222082700378e+01
 1.236804313095460e+00	 1.811493612805350e-01	 1.839962692216195e+01
 1.239960107823959e+00	 1.581105024744469e-01	 1.857092343819231e+01
 1.242670903319327e+00	 1.351629610294558e-01	 1.868651113042375e+01
 1.244943635763541e+00	 1.123180473713976e-01	 1.874684087572032e+01
 1.246785558630902e+00	 8.958666633593598e-02	 1.875241651768041e+01
 1.248204218887413e+00	 6.697930985936359e-02	 1.870379744734766e+01
 1.249207433300800e+00	 4.450605110464825e-02	 1.860160087600138e+01
 1.249803264947827e+00	 2.217653997970399e-02	 1.844650376343359e+01
 1.250000000000000e+00	 0.000000000000000e+00	 1.823924437203951e+01
 0.000000000000000e+00	 1.250000000000000e+00	 3.368665350416951e-01
 2.217653997970408e-02	 1.249803264947827e+00	 8.663643659654685e-02
 4.450605110464842e-02	 1.249207433300800e+00	-1.134872758812022e-01
 6.697930985936384e-02	 1.248204218887413e+00	-2.630365251271722e-01
 8.958666633593632e-02	 1.246785558630901e+00	-3.614713018976032e-01
 1.123180473713980e-01	 1.244943635763541e+00	-4.081752313626600e-01
 1.351629610294563e-01	 1.242670903319327e+00	-4.024522610973296e-01
 1.581105024744474e-01	 1.239960107823959e+00	-3.435246300652617e-01
 1.811493612805357e-01	 1.236804313095460e+00	-2.305322752542172e-01
 2.042678302137047e-01	 1.233196924063451e+00	-6.253382727369572e-02
 2.274538155180211e-01	 1.229131710510101e+00	 1.614906618126806e-01
 0.000000000000000e+00	 1.243750000000000e+00	 2.784469969152450e-01
 2.206565728074322e-02	 1.243554248623077e+00	 5.525096761259474e-02
 4.428352085094796e-02	 1.242961396134250e+00	-1.213754744839735e-01
 6.664441331272072e-02	 1.241963197792871e+00	-2.510673792206695e-01
 8.913873300768543e-02	 1.240551630837560e+00	-3.333815058443237e-01
 1.117564571386876e-01	 1.238718917584430e+00	-3.677912418151212e-01
 1.344871462291143e-01	 1.236457548802304e+00	-3.536826284471108e-01
 1.573199499674787e-01	 1.233760307284255e+00	-2.903516549250289e-01
 1.802436144800728e-01	 1.230620291529215e+00	-1.770029797666004e-01
 2.032464910690485e-01	 1.227030939442157e+00	-1.275023378944229e-02
 2.263165464472510e-01	 1.222986051956338e+00	 2.033819491287643e-01
 0.000000000000000e+00	 1.237500000000000e+00	 2.187127352536167e-01
 2.195477458159826e-02	 1.237305232298331e+00	 2.280156775732212e-02
 4.406099059689674e-02	 1.236715358967718e+00	-1.301460526018301e-01
 6.630951676557817e-02	 1.235722176698372e+00	-2.398699870411436e-01
 8.869079967880489e-02	 1.234317703044293e+00	-3.060252983377074e-01
 1.111948669052360e-01	 1.232494199405435e+00	-3.281765100638370e-01
 1.338113314279391e-01	 1.230244194285452e+00	-3.057929581611512e-01
 1.565293974596044e-01	 1.227560506744785e+00	-2.382453986301671e-01
 1.793378676786519e-01	 1.224436269963278e+00	-1.248040329454445e-01
 2.022251519234030e-01	 1.220864954821254e+00	 3.536189193848527e-02
 2.251792773754809e-01	 1.216840393403059e+00	 2.431827595484255e-01
 0.000000000000000e+00	 1.231250000000000e+00	 1.576372618359902e-01
 2.184389188226920e-02	 1.231056215973589e+00	-1.073569894854853e-02
 4.383846034249482e-02	 1.230469321801205e+00	-1.398210487414395e-01
 6.597462021793622e-02	 1.229481155603913e+00	-2.294651618805055e-01
 8.824286634929464e-02	 1.228083775251101e+00	-2.794229565395492e-01
 1.106332766710434e-01	 1.226269481226559e+00	-2.893514823179009e-01
 1.331355166259307e-01	 1.224030839768770e+00	-2.588045859523858e-01
 1.557388449508246e-01	 1.221360706205549e+00	-1.872288212518105e-01
 1.784321208762735e-01	 1.218252248397647e+00	-7.396076749447422e-02
 2.012038127767680e-01	 1.214698970200741e+00	 8.177408391920538e-02
 2.240420083027108e-01	 1.210694734850266e+00	 2.808607218848767e-01
 0.000000000000000e+00	 1.225000000000000e+00	 9.519354786523793e-02
 2.173300918275603e-02	 1.224807199648852e+00	-4.538526016284461e-02
 4.361593008774215e-02	 1.224223284634710e+00	-1.504229600437712e-01
 6.563972366979486e-02	 1.223240134509497e+00	-2.198741588650299e-01
 8.779493301915468e-02	 1.221849847457984e+00	-2.535951992608931e-01
 1.100716864361096e-01	 1.220044763047800e+00	-2.513370632126926e-01
 1.324597018230891e-01	 1.217817485252259e+00	-2.127393400193704e-01
 1.549482924411391e-01	 1.215160905666546e+00	-1.373254269683624e-01
 1.775263740729371e-01	 1.212068226832323e+00	-2.449912967358792e-02
 2.001824736291438e-01	 1.208532985580619e+00	 1.264571751073578e-01
 2.229047392289407e-01	 1.204549076297958e+00	 3.163826581594074e-01
 0.000000000000000e+00	 1.218750000000000e+00	 3.135401010717964e-02
 2.162212648305878e-02	 1.218558183324120e+00	-8.117204783017851e-02
 4.339339983263876e-02	 1.217977247468234e+00	-1.619747540440930e-01
 6.530482712115407e-02	 1.216999113415123e+00	-2.111186862847347e-01
 8.734699968838505e-02	 1.215615919664942e+00	-2.285631982895189e-01
 1.095100962004347e-01	 1.213820044869159e+00	-2.141546275676445e-01
 1.317838870194142e-01	 1.211604130735918e+00	-1.676195536708784e-01
 1.541577399305481e-01	 1.208961105127776e+00	-8.855927801633245e-02
 1.766206272686431e-01	 1.205884205267306e+00	 2.355430496940136e-02
 1.991611344805300e-01	 1.202367000960888e+00	 1.693812794263401e-01
 2.217674701541705e-01	 1.198403417746136e+00	 3.497145629123086e-01
 0.000000000000000e+00	 1.212500000000000e+00	-3.390950339866183e-02
 2.151124378317741e-02	 1.212309166999393e+00	-1.181215111772993e-01
 4.317086957718464e-02	 1.211731210301776e+00	-1.744998807940794e-01
 6.496993057201386e-02	 1.210758092320790e+00	-2.032209172730617e-01
 8.689906635698572e-02	 1.209381991871974e+00	-2.043485900631132e-01
 1.089485059640187e-01	 1.207595326690635e+00	-1.778260325007426e-01
 1.311080722149061e-01	 1.205390776219747e+00	-1.234680783457600e-01
 1.533671874190514e-01	 1.202761304589240e+00	-4.095500907338079e-02
 1.757148804633912e-01	 1.199700183702596e+00	 7.017231538029001e-02
 1.981397953309270e-01	 1.196201016341548e+00	 2.105157732380951e-01
 2.206302010784005e-01	 1.192257759194798e+00	 3.808215818779275e-01
 0.000000000000000e+00	 1.206250000000000e+00	-1.006257280732559e-01
 2.140036108311195e-02	 1.206060150674669e+00	-1.562596301148746e-01
 4.294833932137981e-02	 1.205485173135336e+00	-1.880222853643931e-01
 6.463503402237424e-02	 1.204517071226499e+00	-1.962035018492028e-01
 8.645113302495669e-02	 1.203148064079081e+00	-1.809734877062572e-01
 1.083869157268616e-01	 1.201370608512229e+00	-1.423736299269300e-01
 1.304322574095648e-01	 1.199177421703747e+00	-8.030829703515363e-02
 1.525766349066493e-01	 1.196561504050938e+00	 5.462157911503063e-03
 1.748091336571816e-01	 1.193516162138193e+00	 1.153270182747834e-01
 1.971184561803345e-01	 1.190035031722598e+00	 2.498292762344620e-01
 2.194929320016303e-01	 1.186112100643947e+00	 4.096679899938094e-01
 0.000000000000000e+00	 1.200000000000000e+00	-1.688239979923363e-01
 2.128947838286238e-02	 1.199811134349951e+00	-1.956129290580755e-01
 4.272580906522423e-02	 1.199239135968915e+00	-2.025664207331541e-01
 6.430013747223520e-02	 1.198276050132250e+00	-1.900895793371875e-01
 8.600319969229794e-02	 1.196914136286263e+00	-1.584604934450375e-01
 1.078253254889633e-01	 1.195145890333940e+00	-1.078202794416721e-01
 1.297564426033903e-01	 1.192964067187918e+00	-3.816413812622255e-02
 1.517860823933414e-01	 1.190361703512869e+00	 5.066639842366194e-02
 1.739033868500142e-01	 1.187332140574096e+00	 1.589898508939003e-01
 1.960971170287527e-01	 1.183869047104039e+00	 2.872896317326179e-01
 2.183556629238602e-01	 1.179966442093580e+00	 4.362171687235854e-01
 0.000000000000000e+00	 1.193750000000000e+00	-2.385342615580184e-01
 2.117859568242872e-02	 1.193562118025237e+00	-2.362084911796689e-01
 4.250327880871792e-02	 1.192993098802513e+00	-2.181572610847302e-01
 6.396524092159675e-02	 1.192035029038043e+00	-1.849027911750234e-01
 8.555526635900951e-02	 1.190680208493520e+00	-1.368327114110954e-01
 1.072637352503240e-01	 1.188921172155769e+00	-7.418936161013323e-02
 1.290806277963825e-01	 1.186750712672258e+00	 2.939910322391048e-03
 1.509955298791281e-01	 1.184161902975033e+00	 9.463126961073320e-02
 1.729976400418891e-01	 1.181148119010307e+00	 2.011315532160156e-01
 1.950757778761815e-01	 1.177703062485872e+00	 3.228638863508624e-01
 2.172183938450900e-01	 1.173820783543699e+00	 4.604315826680847e-01
 0.000000000000000e+00	 1.187500000000000e+00	-3.097870976652248e-01
 2.106771298181096e-02	 1.187313101700527e+00	-2.780739731147133e-01
 4.228074855186088e-02	 1.186747061636128e+00	-2.348203155241464e-01
 6.363034437045889e-02	 1.185794007943877e+00	-1.806672941276350e-01
 8.510733302509138e-02	 1.184446280700852e+00	-1.161137608479168e-01
 1.067021450109435e-01	 1.182696453977716e+00	-4.150479167927745e-02
 1.284048129885415e-01	 1.180537358156770e+00	 4.297878584999149e-02
 1.502049773640091e-01	 1.177962102437431e+00	 1.373296940084128e-01
 1.720918932328061e-01	 1.174964097446825e+00	 2.417221496076825e-01
 1.940544387226209e-01	 1.171537077868094e+00	 3.565182690426101e-01
 2.160811247653200e-01	 1.167675124994303e+00	 4.822727554376849e-01
 2.274538155180211e-01	 1.229131710510101e+00	 1.614906618126806e-01
 2.506948622630784e-01	 1.224602825222820e+00	 4.050926955957539e-01
 2.739781547138352e-01	 1.219604832505655e+00	 6.419045089571749e-01
 2.972905174370217e-01	 1.214132736548835e+00	 8.729557031471233e-01
 3.206184450346204e-01	 1.208181998477881e+00	 1.099566539976166e+00
 3.439481201691802e-01	 1.201748558104585e+00	 1.323344105079285e+00
 3.672654331240673e-01	 1.194828854939411e+00	 1.546175311497307e+00
 3.905560028730775e-01	 1.187419848347983e+00	 1.770216642532632e+00
 4.138051996241319e-01	 1.179519036734196e+00	 1.997880566325070e+00
 4.369981687918833e-01	 1.171124475633273e+00	 2.231818591145587e+00
 4.601198563440417e-01	 1.162234794599770e+00	 2.474900969631047e+00
 2.263165464472510e-01	 1.222986051956338e+00	 2.033819491287643e-01
 2.494413879588832e-01	 1.218479811095237e+00	 4.348839917107630e-01
 2.726082639475359e-01	 1.213506808341390e+00	 6.605620999962549e-01
 2.958040648571025e-01	 1.208062072864073e+00	 8.814188512520003e-01
 3.190153528165536e-01	 1.202141088483180e+00	 1.098740642188594e+00
 3.422283795751227e-01	 1.195739815311444e+00	 1.314093900166080e+00
 3.654291059647568e-01	 1.188854710661777e+00	 1.529318193840029e+00
 3.886032228643806e-01	 1.181482749102975e+00	 1.746516144183372e+00
 4.117361736308742e-01	 1.173621441546913e+00	 1.968040069716101e+00
 4.348131779518148e-01	 1.165268853251139e+00	 2.196475335707440e+00
 4.578192570650724e-01	 1.156423620622435e+00	 2.434620415649534e+00
 2.251792773754809e-01	 1.216840393403059e+00	 2.431827595484255e-01
 2.481879136536927e-01	 1.212356796968234e+00	 4.624867557928662e-01
 2.712383731802553e-01	 1.207408784177791e+00	 6.769099058734194e-01
 2.943176122762260e-01	 1.201991409180053e+00	 8.874282204876116e-01
 3.174122605975629e-01	 1.196100178489289e+00	 1.095294807678563e+00
 3.405086389801848e-01	 1.189731072519171e+00	 1.302036132629584e+00
 3.635927788046194e-01	 1.182880566385058e+00	 1.509445235239961e+00
 3.866504428549208e-01	 1.175545649858919e+00	 1.719571808340798e+00
 4.096671476369273e-01	 1.167723846360609e+00	 1.934709071746481e+00
 4.326281871111412e-01	 1.159413230869999e+00	 2.157377412647600e+00
 4.555186577855928e-01	 1.150612446646100e+00	 2.390304800714493e+00
 2.240420083027108e-01	 1.210694734850266e+00	 2.808607218848767e-01
 2.469344393475069e-01	 1.206233782841813e+00	 4.878700059644774e-01
 2.698684824119935e-01	 1.201310760014858e+00	 6.909183780169583e-01
 2.928311596943922e-01	 1.195920745496777e+00	 8.909557346631283e-01
 3.158091683776485e-01	 1.190059268496209e+00	 1.089202466288764e+00
 3.387888983843664e-01	 1.183722329727765e+00	 1.287145766103308e+00
 3.617564516436552e-01	 1.176906422109254e+00	 1.486532954516306e+00
 3.846976628446978e-01	 1.169608550615815e+00	 1.689361723589879e+00
 4.075981216422910e-01	 1.161826251175283e+00	 1.897867238102019e+00
 4.304431962698629e-01	 1.153557608489854e+00	 2.114506064439143e+00
 4.532180585056028e-01	 1.144801272670764e+00	 2.341936935747284e+00
 2.229047392289407e-01	 1.204549076297958e+00	 3.163826581594074e-01
 2.456809650403258e-01	 1.200110768715971e+00	 5.110019534328603e-01
 2.684985916427507e-01	 1.195212735852593e+00	 7.025571593523212e-01
 2.913447071116009e-01	 1.189850081814245e+00	 8.919725059987871e-01
 3.142060761568102e-01	 1.184018358503939e+00	 1.080436231678156e+00
 3.370691577876679e-01	 1.177713586937227e+00	 1.269396941914636e+00
 3.599201244818642e-01	 1.170932277834365e+00	 1.460557040517043e+00
 3.827448828337114e-01	 1.163671451373663e+00	 1.655863139329185e+00
 4.055290956469655e-01	 1.155928655990937e+00	 1.857493384511157e+00
 4.282582054279794e-01	 1.147701986110704e+00	 2.067841671266813e+00
 4.509174592251026e-01	 1.138990098696429e+00	 2.289498755491707e+00
 2.217674701541705e-01	 1.198403417746136e+00	 3.497145629123086e-01
 2.444274907321494e-01	 1.193987754590710e+00	 5.318499818021871e-01
 2.671287008725267e-01	 1.189114711690994e+00	 7.117950635681476e-01
 2.898582545278523e-01	 1.183779418132456e+00	 8.904488143166904e-01
 3.126029839350482e-01	 1.177977448512479e+00	 1.068967880393382e+00
 3.353494171900889e-01	 1.171704844147557e+00	 1.248762957998107e+00
 3.580837973192463e-01	 1.164958133560391e+00	 1.431492330837970e+00
 3.807921028219620e-01	 1.157734352132463e+00	 1.619052444253614e+00
 4.034600696509508e-01	 1.150031060807568e+00	 1.813565454949667e+00
 4.260732145854909e-01	 1.141846363732548e+00	 2.017363728916713e+00
 4.486168599440922e-01	 1.133178924723094e+00	 2.232971296050026e+00
 2.206302010784005e-01	 1.192257759194798e+00	 3.808215818779275e-01
 2.431740164229776e-01	 1.187864740466030e+00	 5.503806257419994e-01
 2.657588101013215e-01	 1.183016687530062e+00	 7.186000537455195e-01
 2.883718019431462e-01	 1.177708754451411e+00	 8.863540855870788e-01
 3.109998917123623e-01	 1.171936538521831e+00	 1.054768330295271e+00
 3.336296765916296e-01	 1.165696101358755e+00	 1.225216247160258e+00
 3.562474701558015e-01	 1.158983989287332e+00	 1.399312789881110e+00
 3.788393228094494e-01	 1.151797252892215e+00	 1.578905144169240e+00
 4.013910436542469e-01	 1.144133465625178e+00	 1.766060499173759e+00
 4.238882237423974e-01	 1.135990741355387e+00	 1.963050825982604e+00
 4.463162606625715e-01	 1.127367750750758e+00	 2.172334671719744e+00
 2.194929320016303e-01	 1.186112100643947e+00	 4.096679899938094e-01
 2.419205421128105e-01	 1.181741726341931e+00	 5.665595489958333e-01
 2.643889193291352e-01	 1.176918663369797e+00	 7.229392203210574e-01
 2.868853493574829e-01	 1.171638090771109e+00	 8.796568698074445e-01
 3.093967994887526e-01	 1.165895628531993e+00	 1.037807618312074e+00
 3.319099359922900e-01	 1.159687358570821e+00	 1.198728354664684e+00
 3.544111429915300e-01	 1.153009845015188e+00	 1.363991486235279e+00
 3.768865427961737e-01	 1.145860153652918e+00	 1.535395839123272e+00
 3.993220176568537e-01	 1.138235870443767e+00	 1.714954649553026e+00
 4.217032328986990e-01	 1.130135118979221e+00	 1.904880620363016e+00
 4.440156613805405e-01	 1.121556576779423e+00	 2.107568051114074e+00
 2.183556629238602e-01	 1.179966442093580e+00	 4.362171687235854e-01
 2.406670678016482e-01	 1.175618712218413e+00	 5.803515216985380e-01
 2.630190285559676e-01	 1.170820639210199e+00	 7.247787583623688e-01
 2.853988967708622e-01	 1.165567427091551e+00	 8.703248181907837e-01
 3.077937072642191e-01	 1.159854718542965e+00	 1.018054877499181e+00
 3.301901953920701e-01	 1.153678615783754e+00	 1.169269915121414e+00
 3.525748158264317e-01	 1.147035700743959e+00	 1.325500569346270e+00
 3.749337627821347e-01	 1.139923054414575e+00	 1.488498199814793e+00
 3.972529916587711e-01	 1.132338275263334e+00	 1.660223097181507e+00
 4.195182420543955e-01	 1.124279496604049e+00	 1.842829815025037e+00
 4.417150620979994e-01	 1.115745402809088e+00	 2.038649632535191e+00
 2.172183938450900e-01	 1.173820783543699e+00	 4.604315826680847e-01
 2.394135934894905e-01	 1.169495698095475e+00	 5.917203969855824e-01
 2.616491377818190e-01	 1.164722615051267e+00	 7.240839441280984e-01
 2.839124441832840e-01	 1.159496763412736e+00	 8.583246596386382e-01
 3.061906150387619e-01	 1.153813808554748e+00	 9.954783133754537e-01
 3.284704547909696e-01	 1.147669872997555e+00	 1.136810628647019e+00
 3.507384886605066e-01	 1.141061556473645e+00	 1.283811245456575e+00
 3.729809827673326e-01	 1.133985955177182e+00	 1.438184943267108e+00
 3.951839656599993e-01	 1.126440680083880e+00	 1.601840067234941e+00
 4.173332512094871e-01	 1.118423874229871e+00	 1.776874133005511e+00
 4.394144628149478e-01	 1.109934228839753e+00	 1.965556618571724e+00
 2.160811247653200e-01	 1.167675124994303e+00	 4.822727554376849e-01
 2.381601191763375e-01	 1.163372683973118e+00	 6.006290868600963e-01
 2.602792470066892e-01	 1.158624590893003e+00	 7.208191108898265e-01
 2.824259915947486e-01	 1.153426099734665e+00	 8.436221764670613e-01
 3.045875228123808e-01	 1.147772898567342e+00	 9.700451795177163e-01
 3.267507141889890e-01	 1.141661130212224e+00	 1.101319236270591e+00
 3.489021614937545e-01	 1.135087412204246e+00	 1.238893752783248e+00
 3.710282027517673e-01	 1.128048855940742e+00	 1.384427807730702e+00
 3.931149396605382e-01	 1.120543084905404e+00	 1.539778793553800e+00
 4.151482603639737e-01	 1.112568251856689e+00	 1.706988291624710e+00
 4.371138635313860e-01	 1.104123054871417e+00	 1.888265189897360e+00
 4.601198563440417e-01	 1.162234794599770e+00	 2.474900969631052e+00
 4.831544298995313e-01	 1.152849455929340e+00	 2.922087063012181e+00
 5.060870875464741e-01	 1.142968060502044e+00	 3.344958960699365e+00
 5.289023415330564e-01	 1.132591047865061e+00	 3.748370966782242e+00
 5.515846183814958e-01	 1.121719484882340e+00	 4.137499877655721e+00
 5.741182899297941e-01	 1.110355074995073e+00	 4.517808057983252e+00
 5.964877052108547e-01	 1.098500165674898e+00	 4.895002912312974e+00
 6.186772230483144e-01	 1.086157753992881e+00	 5.274993044483660e+00
 6.406712452409474e-01	 1.073331490236403e+00	 5.561868625741115e+00
 6.624542502007474e-01	 1.060025679515921e+00	 5.828905597443329e+00
 6.840108269038967e-01	 1.046245281314146e+00	 6.119593269141737e+00
 4.578192570650724e-01	 1.156423620622435e+00	 2.434620415649534e+00
 4.807386577516702e-01	 1.147085208645060e+00	 2.870596258691218e+00
 5.035566521094866e-01	 1.137253220194760e+00	 3.284150592933674e+00
 5.262578298254695e-01	 1.126928092620980e+00	 3.680023150444665e+00
 5.488266952892290e-01	 1.116110887453351e+00	 4.063265609687226e+00
 5.712476984795791e-01	 1.104803299615860e+00	 4.439205295034327e+00
 5.935052666842613e-01	 1.093007664842790e+00	 4.813405356797994e+00
 6.155838369327962e-01	 1.080726965219851e+00	 5.191621719729828e+00
 6.374678890149658e-01	 1.067964832782988e+00	 5.497330333971805e+00
 6.591419789507058e-01	 1.054725551117109e+00	 5.762207907772389e+00
 6.805907727713191e-01	 1.041014054907509e+00	 6.051323928999986e+00
 4.555186577855928e-01	 1.150612446646100e+00	 2.390304800714498e+00
 4.783228856033893e-01	 1.141320961361770e+00	 2.814922791742082e+00
 5.010262166721503e-01	 1.131538379888436e+00	 3.219014643209658e+00
 5.236133181175860e-01	 1.121265137377812e+00	 3.607206977077064e+00
 5.460687721966976e-01	 1.110502290025206e+00	 3.984427861122841e+00
 5.683771070291120e-01	 1.099251524237403e+00	 4.355871123700025e+00
 5.905228281574083e-01	 1.087515164011329e+00	 4.726957233279047e+00
 6.124904508169904e-01	 1.075296176447340e+00	 5.103291026626232e+00
 6.342645327886484e-01	 1.062598175329944e+00	 5.428432345571890e+00
 6.558297077002593e-01	 1.049425422718497e+00	 5.691230987224916e+00
 6.771707186382465e-01	 1.035782828500883e+00	 5.978871616789533e+00
 4.532180585056028e-01	 1.144801272670764e+00	 2.341936935747279e+00
 4.759071134546886e-01	 1.135556714079470e+00	 2.755053272949439e+00
 4.984957812344656e-01	 1.125823539583075e+00	 3.149541741131466e+00
 5.209688064094061e-01	 1.115602182135556e+00	 3.529917303381351e+00
 5.433108491039020e-01	 1.104893692597905e+00	 3.900985912505039e+00
 5.655065155783932e-01	 1.093699748859703e+00	 4.267809432755000e+00
 5.875403896302953e-01	 1.082022663180516e+00	 4.635667210040205e+00
 6.093970647008966e-01	 1.069865387675347e+00	 5.010014570407987e+00
 6.310611765619947e-01	 1.057231517877269e+00	 5.355162838650157e+00
 6.525174364494077e-01	 1.044125294320085e+00	 5.615966201216324e+00
 6.737506645046790e-01	 1.030551602094266e+00	 5.902231006213565e+00
 4.509174592251026e-01	 1.138990098696429e+00	 2.289498755491711e+00
 4.734913413055680e-01	 1.129792466798161e+00	 2.690973467362141e+00
 4.959653457964325e-01	 1.120108699278675e+00	 3.075721704452042e+00
 5.183242947009294e-01	 1.109939226894212e+00	 3.448148211514507e+00
 5.405529260108423e-01	 1.099285095171448e+00	 3.812938310528917e+00
 5.626359241274222e-01	 1.088147973482758e+00	 4.175023421175753e+00
 5.845579511029227e-01	 1.076530162350350e+00	 4.539543312913358e+00
 6.063036785845153e-01	 1.064434598903873e+00	 4.911805364451785e+00
 6.278578203350048e-01	 1.051864860424964e+00	 5.277509453223118e+00
 6.492051651981509e-01	 1.038825165921874e+00	 5.536404433937657e+00
 6.703306103706171e-01	 1.025320375687661e+00	 5.821396349631589e+00
 4.486168599440922e-01	 1.133178924723094e+00	 2.232971296050026e+00
 4.710755691560277e-01	 1.124028219517842e+00	 2.622668272608352e+00
 4.934349103580510e-01	 1.114393858975236e+00	 2.997543518257748e+00
 5.156797829921563e-01	 1.104276271653782e+00	 3.361892989230276e+00
 5.377950029175181e-01	 1.093676497745836e+00	 3.720282849225698e+00
 5.597653326761995e-01	 1.082596198106569e+00	 4.077515580450472e+00
 5.815755125752905e-01	 1.071037661520831e+00	 4.438592908807035e+00
 6.032102924678462e-01	 1.059003810132918e+00	 4.808675815097592e+00
 6.246544641076789e-01	 1.046498202973029e+00	 5.193041948110190e+00
 6.458928939464893e-01	 1.033525037523864e+00	 5.452536076016077e+00
 6.669105562360605e-01	 1.020089149281067e+00	 5.736361467256621e+00
 4.463162606625715e-01	 1.127367750750758e+00	 2.172334671719744e+00
 4.686597970060677e-01	 1.118263972238514e+00	 2.550121696538913e+00
 4.909044749193210e-01	 1.108679018672758e+00	 2.914995313507113e+00
 5.130352712830866e-01	 1.098613316414264e+00	 3.271144109403616e+00
 5.350370798239297e-01	 1.088067900321069e+00	 3.623016550564842e+00
 5.568947412247246e-01	 1.077044422731136e+00	 3.975287676346872e+00
 5.785930740473987e-01	 1.065545160691960e+00	 4.332822688722445e+00
 6.001169063508894e-01	 1.053573021362481e+00	 4.700637706005788e+00
 6.214511078800168e-01	 1.041131545521463e+00	 5.083857991759778e+00
 6.425806226944223e-01	 1.028224909126053e+00	 5.364351011793188e+00
 6.634905021010091e-01	 1.014857922874483e+00	 5.647119736016830e+00
 4.440156613805405e-01	 1.121556576779423e+00	 2.107568051114074e+00
 4.662440248556878e-01	 1.112499724960176e+00	 2.473316834175804e+00
 4.883740394802423e-01	 1.102964178371242e+00	 2.828064344903438e+00
 5.103907595737204e-01	 1.092950361175659e+00	 3.175893208919835e+00
 5.322791567300769e-01	 1.082459302897145e+00	 3.521135644451765e+00
 5.540241497729977e-01	 1.071492647356459e+00	 3.868340730110939e+00
 5.756106355192470e-01	 1.060052659863737e+00	 4.222238650243566e+00
 5.970235202336451e-01	 1.048142232592564e+00	 4.587702182023449e+00
 6.182477516520190e-01	 1.035764888070267e+00	 4.969705730594195e+00
 6.392683514419505e-01	 1.022924780728443e+00	 5.271838606210040e+00
 6.600704479654631e-01	 1.009626696467909e+00	 5.553664078072239e+00
 4.417150620979994e-01	 1.115745402809088e+00	 2.038649632535191e+00
 4.638282527048880e-01	 1.106735477682828e+00	 2.392235843941880e+00
 4.858436040408153e-01	 1.097249338070687e+00	 2.736736968074917e+00
 5.077462478640574e-01	 1.087287405937967e+00	 3.076131066905007e+00
 5.295212336359597e-01	 1.076850705474066e+00	 3.414635548101566e+00
 5.511535583210191e-01	 1.065940871982537e+00	 3.756674999077190e+00
 5.726281969908357e-01	 1.054560159036161e+00	 4.106846079479333e+00
 5.939301341161132e-01	 1.042711443823165e+00	 4.469879732550277e+00
 6.150443954236847e-01	 1.030398230619441e+00	 4.850601016980925e+00
 6.359560801890737e-01	 1.017624652331033e+00	 5.174987691279747e+00
 6.566503938294224e-01	 1.004395470061346e+00	 5.455986948971002e+00
 4.394144628149478e-01	 1.109934228839753e+00	 1.965556618571724e+00
 4.614124805536686e-01	 1.100971230406471e+00	 2.306859923141057e+00
 4.833131686010398e-01	 1.091534497771093e+00	 2.640998616040106e+00
 5.051017361540979e-01	 1.081624450701187e+00	 2.971847582270433e+00
 5.267633105415782e-01	 1.071242108051831e+00	 3.303510844764168e+00
 5.482829668687883e-01	 1.060389096609372e+00	 3.640289956672075e+00
 5.696457584621647e-01	 1.049067658209232e+00	 3.986649532437970e+00
 5.908367479982933e-01	 1.037280655054285e+00	 4.347180174379022e+00
 6.118410391950143e-01	 1.025031573168985e+00	 4.726559091784110e+00
 6.326438089357916e-01	 1.012324523933824e+00	 5.073786552138755e+00
 6.532303396928869e-01	 9.991642436547944e-01	 5.354080325434801e+00
 4.371138635313860e-01	 1.104123054871417e+00	 1.888265189897355e+00
 4.589967084020292e-01	 1.095206983131104e+00	 2.217169282665989e+00
 4.807827331609159e-01	 1.085819657472461e+00	 2.540833774926750e+00
 5.024572244438421e-01	 1.075961495465320e+00	 2.863031750549710e+00
 5.240053874469326e-01	 1.065633510630440e+00	 3.187755261777787e+00
 5.454123754163056e-01	 1.054837321236962e+00	 3.519184271784475e+00
 5.666633199332340e-01	 1.043575157382950e+00	 3.861652815815102e+00
 5.877433618801858e-01	 1.031849866285923e+00	 4.219612633996103e+00
 6.086376829660081e-01	 1.019664915718898e+00	 4.597594568271666e+00
 6.293315376821046e-01	 1.007024395536815e+00	 4.968222912652653e+00
 6.498102855558567e-01	 9.939330172482528e-01	 5.247935692758132e+00
 6.840108269038967e-01	 1.046245281314146e+00	 6.119593269141741e+00
 7.053262413433549e-01	 1.031995554896528e+00	 6.500177254371614e+00
 7.263848458755340e-01	 1.017283120829013e+00	 6.880220043378184e+00
 7.471717649395143e-01	 1.002114878407355e+00	 7.260651350940748e+00
 7.676723695398933e-01	 9.864983583796046e-01	 7.642321558963423e+00
 7.878723105152556e-01	 9.704417119031085e-01	 8.025993660102122e+00
 8.077575512071082e-01	 9.539536974097551e-01	 8.412335922223033e+00
 8.273143993764429e-01	 9.370436654181670e-01	 8.801915354732429e+00
 8.465295382180290e-01	 9.197215413442693e-01	 9.195192049348641e+00
 8.653900563266779e-01	 9.019978063741249e-01	 9.592514458353868e+00
 8.838834764750000e-01	 8.838834764750000e-01	 9.994115662861235e+00
 6.805907727713191e-01	 1.041014054907509e+00	 6.051323928999986e+00
 7.017996101396206e-01	 1.026835577123176e+00	 6.429347740593585e+00
 7.227529216500603e-01	 1.012196705227085e+00	 6.807848677250192e+00
 7.434359061195223e-01	 9.971043040185121e-01	 7.187696716451764e+00
 7.638340076975796e-01	 9.815658665917666e-01	 7.569678906637812e+00
 7.839329489686228e-01	 9.655895033484068e-01	 7.954491586469041e+00
 8.037187634574506e-01	 9.491839289281612e-01	 8.342733341308977e+00
 8.231778273862496e-01	 9.323584470970583e-01	 8.734898775863730e+00
 8.422968905338145e-01	 9.151229336439426e-01	 9.131373173355147e+00
 8.610631060519820e-01	 8.974878173489468e-01	 9.532428101975185e+00
 8.794640590995001e-01	 8.794640590995001e-01	 9.938218018822116e+00
 6.771707186382465e-01	 1.035782828500883e+00	 5.978871616789538e+00
 6.982729789352964e-01	 1.021675599349643e+00	 6.354408348148969e+00
 7.191209974239117e-01	 1.007110289624806e+00	 6.731462028228343e+00
 7.397000472987793e-01	 9.920937296291676e-01	 7.110842952555739e+00
 7.599956458544489e-01	 9.766333748032953e-01	 7.493274826005352e+00
 7.799935874211171e-01	 9.607372947929601e-01	 7.879387256587878e+00
 7.996799757068750e-01	 9.444141604457306e-01	 8.269709003207502e+00
 8.190412553951019e-01	 9.276732287750410e-01	 8.664662054241481e+00
 8.380642428486201e-01	 9.105243259426563e-01	 9.064556605126608e+00
 8.567361557762914e-01	 8.929778283227787e-01	 9.469586993423846e+00
 8.750446417229998e-01	 8.750446417229998e-01	 9.879828639217930e+00
 6.737506645046790e-01	 1.030551602094266e+00	 5.902231006213569e+00
 6.947463477303824e-01	 1.016515621575930e+00	 6.275356579685990e+00
 7.154890731970874e-01	 1.002023874022176e+00	 6.651060622093872e+00
 7.359641884772852e-01	 9.870831552393209e-01	 7.030093797038573e+00
 7.561572840105013e-01	 9.717008830141900e-01	 7.413116449938807e+00
 7.760542258727390e-01	 9.558850862367680e-01	 7.800691375258877e+00
 7.956411879553805e-01	 9.396443919624630e-01	 8.193277354811491e+00
 8.149046834030006e-01	 9.229880104521159e-01	 8.591223541930862e+00
 8.338315951624465e-01	 9.059257182404116e-01	 8.994764757511751e+00
 8.524092054996059e-01	 8.884678392956206e-01	 9.404017754112461e+00
 8.706252243454998e-01	 8.706252243454998e-01	 9.818978493648103e+00
 6.703306103706171e-01	 1.025320375687661e+00	 5.821396349631589e+00
 6.912197165248781e-01	 1.011355643802038e+00	 6.192189567187557e+00
 7.118571489695878e-01	 9.969374584191958e-01	 6.566644669211483e+00
 7.322283296550401e-01	 9.820725808489720e-01	 6.945452732008005e+00
 7.523189221657371e-01	 9.667683912244512e-01	 7.329210719770899e+00
 7.721148643234882e-01	 9.510328776798306e-01	 7.718414524172429e+00
 7.916024002029675e-01	 9.348746234783584e-01	 8.113452792510992e+00
 8.107681114099452e-01	 9.183027921282827e-01	 8.514601617151326e+00
 8.295989474752932e-01	 9.013271105372073e-01	 8.922020150078794e+00
 8.480822552219253e-01	 8.839578502674732e-01	 9.335747196502030e+00
 8.662058069670000e-01	 8.662058069670000e-01	 9.755698830690367e+00
 6.669105562360605e-01	 1.020089149281067e+00	 5.736361467256621e+00
 6.876930853187844e-01	 1.006195666027966e+00	 6.104904062466403e+00
 7.082252247414128e-01	 9.918510428158644e-01	 6.478214056440903e+00
 7.284924708320439e-01	 9.770620064581208e-01	 6.856922977339305e+00
 7.484805603201561e-01	 9.618358994340785e-01	 7.241564380382604e+00
 7.681755027733649e-01	 9.461806691221479e-01	 7.632567158752211e+00
 7.875636124496365e-01	 9.301048549934172e-01	 8.030249660898814e+00
 8.066315394159354e-01	 9.136175738035410e-01	 8.434814684946051e+00
 8.253662997871601e-01	 8.967285028330435e-01	 8.846345411853278e+00
 8.437553049432500e-01	 8.794478612383355e-01	 9.264802329000348e+00
 8.617863895875001e-01	 8.617863895875000e-01	 9.690021185053833e+00
 6.634905021010091e-01	 1.014857922874483e+00	 5.647119736016831e+00
 6.841664541121005e-01	 1.001035688253714e+00	 6.013496427367738e+00
 7.045933005125624e-01	 9.867646272121829e-01	 6.385768338800200e+00
 7.247566120082969e-01	 9.720514320667675e-01	 6.764507483915484e+00
 7.446421984737579e-01	 9.569034076430718e-01	 7.150183975140306e+00
 7.642361412223687e-01	 9.413284605637197e-01	 7.543159604902184e+00
 7.835248246953868e-01	 9.253350865076391e-01	 7.943682251435108e+00
 8.024949674209717e-01	 9.089323554778913e-01	 8.351881177874457e+00
 8.211336520980479e-01	 8.921298951279213e-01	 8.767763284138377e+00
 8.394283546635797e-01	 8.749378722082086e-01	 9.191210361012070e+00
 8.573669722070002e-01	 8.573669722070002e-01	 9.621977384954080e+00
 6.600704479654631e-01	 1.009626696467909e+00	 5.553664078072234e+00
 6.806398229048269e-01	 9.958757104792826e-01	 5.917962623665449e+00
 7.009613762830367e-01	 9.816782116081503e-01	 6.289306730868224e+00
 7.210207531837984e-01	 9.670408576749120e-01	 6.668208926659290e+00
 7.408038366265429e-01	 9.519709158514321e-01	 7.055075840675762e+00
 7.602967796704998e-01	 9.364762520045463e-01	 7.450202055649203e+00
 7.794860369402190e-01	 9.205653180210241e-01	 7.853764801071637e+00
 7.983583954250538e-01	 9.042471371513334e-01	 8.265819556723951e+00
 8.169010044079559e-01	 8.875312874218396e-01	 8.686296623423747e+00
 8.351014043829147e-01	 8.704278831770915e-01	 9.114998708146366e+00
 8.529475548254998e-01	 8.529475548254998e-01	 9.551599559716376e+00
 6.566503938294224e-01	 1.004395470061346e+00	 5.455986948970997e+00
 6.771131916969634e-01	 9.907157327046716e-01	 5.818298202644387e+00
 6.973294520528356e-01	 9.765917960037669e-01	 6.188828097918726e+00
 7.172848943585489e-01	 9.620302832825546e-01	 6.568029697346068e+00
 7.369654747785114e-01	 9.470384240591586e-01	 6.956246101501219e+00
 7.563574181177584e-01	 9.316240434446275e-01	 7.353704567684749e+00
 7.754472491841323e-01	 9.157955495335722e-01	 7.760511490831050e+00
 7.942218234281823e-01	 8.995619188238674e-01	 8.176648311246025e+00
 8.126683567168840e-01	 8.829326797147986e-01	 8.601968404385264e+00
 8.307744541012546e-01	 8.659178941449848e-01	 9.036194997586518e+00
 8.485281374429998e-01	 8.485281374429998e-01	 9.478920147617572e+00
 6.532303396928869e-01	 9.991642436547944e-01	 5.354080325434802e+00
 6.735865604885101e-01	 9.855557549298805e-01	 5.714498294353928e+00
 6.936975278219594e-01	 9.715053803990330e-01	 6.084330946776913e+00
 7.135490355325487e-01	 9.570197088896951e-01	 6.463971897192573e+00
 7.331271129296626e-01	 9.421059322662509e-01	 6.853700664457539e+00
 7.524180565641442e-01	 9.267718348839636e-01	 7.253677057793839e+00
 7.714084614271275e-01	 9.110257810452839e-01	 7.663936444344064e+00
 7.900852514303561e-01	 8.948767004954933e-01	 8.084385960913668e+00
 8.084357090248329e-01	 8.783340720067985e-01	 8.514801722978957e+00
 8.264475038185999e-01	 8.614079051118883e-01	 8.954827073628239e+00
 8.441087200595001e-01	 8.441087200595001e-01	 9.403971903973368e+00
 6.498102855558567e-01	 9.939330172482528e-01	 5.247935692758142e+00
 6.700599292794668e-01	 9.803957771549096e-01	 5.606557596523718e+00
 6.900656035904075e-01	 9.664189647939483e-01	 5.975813416386275e+00
 7.098131767057972e-01	 9.520091344963337e-01	 6.356037329209527e+00
 7.292887510799975e-01	 9.371734404727102e-01	 6.747445212986072e+00
 7.484786950096572e-01	 9.219196263225543e-01	 7.150129299175437e+00
 7.673696736692042e-01	 9.062560125561581e-01	 7.564053726338114e+00
 7.859486794315763e-01	 8.901914821662110e-01	 7.989051055704003e+00
 8.042030613318019e-01	 8.737354642978392e-01	 8.424819799631944e+00
 8.221205535349499e-01	 8.568979160778017e-01	 8.870923003393827e+00
 8.396893026750000e-01	 8.396893026750000e-01	 9.326787909481684e+00
 8.838834764750000e-01	 8.838834764750000e-01	 9.994115662861235e+00
 9.019977971594892e-01	 8.653900703675111e-01	 1.028802471917149e+01
 9.197215045943362e-01	 8.465295942603414e-01	 1.060734791427693e+01
 9.370435829877605e-01	 8.273145251682116e-01	 1.095073128974245e+01
 9.539535513453987e-01	 8.077577742428447e-01	 1.131661711989518e+01
 9.704414844585152e-01	 7.878726579962209e-01	 1.170325153577001e+01
 9.864980320304251e-01	 7.676728683354713e-01	 1.210869360215163e+01
 1.002114435865165e+00	 7.471724415498722e-01	 1.253082576907779e+01
 1.017282545054521e+00	 7.263857263956881e-01	 1.296736560499317e+01
 1.031994829112001e+00	 7.053273514287612e-01	 1.341587870579823e+01
 1.046244389015035e+00	 6.840121917376668e-01	 1.387379266252142e+01
 8.794640590995001e-01	 8.794640590995001e-01	 9.938218018822116e+00
 8.974878081803844e-01	 8.610631200226114e-01	 1.024043847145500e+01
 9.151228970777588e-01	 8.422969462959151e-01	 1.056690621763419e+01
 9.323583650788039e-01	 8.231779525490595e-01	 1.091623072855058e+01
 9.491837835941266e-01	 8.037189853780082e-01	 1.128682306429689e+01
 9.655892770410365e-01	 7.839332947121832e-01	 1.167690359539273e+01
 9.815655418743333e-01	 7.638345039991798e-01	 1.208451114247443e+01
 9.971038636890331e-01	 7.434365793468282e-01	 1.250751345546148e+01
 1.012196132331465e+00	 7.227537977676139e-01	 1.294361893967052e+01
 1.026834854967570e+00	 7.018007146745998e-01	 1.339038952373357e+01
 1.041013167069893e+00	 6.805921307809203e-01	 1.384525455297667e+01
 8.750446417229998e-01	 8.750446417229998e-01	 9.879828639217930e+00
 8.929778192002894e-01	 8.567361696767164e-01	 1.019050455373072e+01
 9.105242895602228e-01	 8.380642983305095e-01	 1.052426507835544e+01
 9.276731471689389e-01	 8.190413799289532e-01	 1.087968282038036e+01
 9.444140158420176e-01	 7.996801965122540e-01	 1.125513730954968e+01
 9.607370696228129e-01	 7.799939314272728e-01	 1.164882281848195e+01
 9.766330517176076e-01	 7.599961396620711e-01	 1.205875756648649e+01
 9.920932915123990e-01	 7.397007171430334e-01	 1.248279422802432e+01
 1.007109719608059e+00	 7.191218691388641e-01	 1.291863165355299e+01
 1.021674880822960e+00	 6.982740779198486e-01	 1.336382769820961e+01
 1.035781945124762e+00	 6.771720698236788e-01	 1.381581304289831e+01
 8.706252243454998e-01	 8.706252243454998e-01	 9.818978493648103e+00
 8.884678302192048e-01	 8.524092193298271e-01	 1.013825630505878e+01
 9.059256820417275e-01	 8.338316503641242e-01	 1.047946010057466e+01
 9.229879292581658e-01	 8.149048073078929e-01	 1.084112532580494e+01
 9.396442480890720e-01	 7.956414076455809e-01	 1.122159966013812e+01
 9.558848622038437e-01	 7.760545681414899e-01	 1.161905093737922e+01
 9.717005615602481e-01	 7.561577753241460e-01	 1.203147641518150e+01
 9.870827193352635e-01	 7.359648549384878e-01	 1.245671331444073e+01
 1.002023306884302e+00	 7.154899405094390e-01	 1.289245053664716e+01
 1.016514906678170e+00	 6.947474411645076e-01	 1.333624145523216e+01
 1.030550723179642e+00	 6.737520088659427e-01	 1.378551766636982e+01
 8.662058069670000e-01	 8.662058069670000e-01	 9.755698830690367e+00
 8.839578412371304e-01	 8.480822689819422e-01	 1.008372739178292e+01
 9.013270745222728e-01	 8.295990023967591e-01	 1.043252726264125e+01
 9.183027113464843e-01	 8.107682346858788e-01	 1.080059642508307e+01
 9.348744803352895e-01	 7.916026187779897e-01	 1.118625038415593e+01
 9.510326547841290e-01	 7.721152048548340e-01	 1.158763019033108e+01
 9.667680714022552e-01	 7.523194109854037e-01	 1.200271177604935e+01
 9.820721471576256e-01	 7.322289927331908e-01	 1.242931652769576e+01
 9.969368941601937e-01	 7.118580118793387e-01	 1.286512300124182e+01
 1.011354932533201e+00	 6.912208044085766e-01	 1.330767967815695e+01
 1.025319501234532e+00	 6.703319479077119e-01	 1.375441864793016e+01
 8.617863895875001e-01	 8.617863895875000e-01	 9.690021185053833e+00
 8.794478522540662e-01	 8.437553186330626e-01	 1.002695181592177e+01
 8.967284670018590e-01	 8.253663544284147e-01	 1.038350292671503e+01
 9.136174934338946e-01	 8.066316620629100e-01	 1.075813472892061e+01
 9.301047125806700e-01	 7.875638299094794e-01	 1.114913022519378e+01
 9.461804473636692e-01	 7.681758415673059e-01	 1.155460333446091e+01
 9.618355812436286e-01	 7.484810466458449e-01	 1.197250829708819e+01
 9.770615749794854e-01	 7.284931305271430e-01	 1.240065028109321e+01
 9.918504814357351e-01	 7.082260832485631e-01	 1.283669709786439e+01
 1.006194958388051e+00	 6.876941676520558e-01	 1.327819192454396e+01
 1.020088279289433e+00	 6.669118869489865e-01	 1.372256692027729e+01
 8.573669722070002e-01	 8.573669722070002e-01	 9.621977384954080e+00
 8.749378632700120e-01	 8.394283682831882e-01	 9.967963923820360e+00
 8.921298594804862e-01	 8.211337064590908e-01	 1.033242384865897e+01
 9.089322755203972e-01	 8.024950894389876e-01	 1.071377928956468e+01
 9.253349448252136e-01	 7.835250410400513e-01	 1.111028041459421e+01
 9.413282399424645e-01	 7.642364782789050e-01	 1.152001365914173e+01
 9.569030910843680e-01	 7.446426823054687e-01	 1.194091120125108e+01
 9.720510028008429e-01	 7.247572683203439e-01	 1.237076160372751e+01
 9.867640687109258e-01	 7.045941546171121e-01	 1.280722153172956e+01
 1.001034984242722e+00	 6.841675308949450e-01	 1.324782844353385e+01
 1.014857057344345e+00	 6.634918259897664e-01	 1.369001414252046e+01
 8.529475548254998e-01	 8.529475548254998e-01	 9.551599559716376e+00
 8.704278742849683e-01	 8.351014179323188e-01	 9.906798415070641e+00
 8.875312519581540e-01	 8.169010584887870e-01	 1.027932718823805e+01
 9.042470576059913e-01	 7.983585168141109e-01	 1.066756961224202e+01
 9.205651770689205e-01	 7.794862521697046e-01	 1.106974268408761e+01
 9.364760325205138e-01	 7.602971149896313e-01	 1.148390499978572e+01
 9.519706009244741e-01	 7.408043179642760e-01	 1.190796630134104e+01
 9.670404306216988e-01	 7.210214061127940e-01	 1.233969815643687e+01
 9.816776559857657e-01	 7.009622259849856e-01	 1.277674567970097e+01
 9.958750100972134e-01	 6.806408941372443e-01	 1.321664019376506e+01
 1.009625835399267e+00	 6.600717650300513e-01	 1.365681271899837e+01
 8.485281374429998e-01	 8.485281374429998e-01	 9.478920147617572e+00
 8.659178852989348e-01	 8.307744675804549e-01	 9.843490351710903e+00
 8.829326444348627e-01	 8.126684105175039e-01	 1.022425051963784e+01
 8.995618396906774e-01	 7.942219441882802e-01	 1.061954566695606e+01
 9.157954093117905e-01	 7.754474632984393e-01	 1.102755927882325e+01
 9.316238250978180e-01	 7.563577516994849e-01	 1.144632175206328e+01
 9.470381107639465e-01	 7.369659536222665e-01	 1.187372001537138e+01
 9.620298584420524e-01	 7.172855439044928e-01	 1.230750824825517e+01
 9.765912432602548e-01	 6.973302973521840e-01	 1.274531960778121e+01
 9.907150359515247e-01	 6.771142573789538e-01	 1.318467886184959e+01
 1.004394613454200e+00	 6.566517040698419e-01	 1.362301581868672e+01
 8.441087200595001e-01	 8.441087200595001e-01	 9.403971903973368e+00
 8.614078963119114e-01	 8.264475172275957e-01	 9.778075167712707e+00
 8.783340369106124e-01	 8.084357625452410e-01	 1.016723184231302e+01
 8.948766217744551e-01	 7.900853715614954e-01	 1.056974790065332e+01
 9.110256415538236e-01	 7.714086744262556e-01	 1.098377297080972e+01
 9.267716176743771e-01	 7.524183884084661e-01	 1.140730888656974e+01
 9.421056206027848e-01	 7.331275892794401e-01	 1.183821938240923e+01
 9.570192862619037e-01	 7.135496816954406e-01	 1.227424085338000e+01
 9.715048305343934e-01	 6.936983687187066e-01	 1.271299408915321e+01
 9.855550618056563e-01	 6.735876206200734e-01	 1.315199688143070e+01
 9.991633915091431e-01	 6.532316431091375e-01	 1.358867739521448e+01
 8.396893026750000e-01	 8.396893026750000e-01	 9.326787909481684e+00
 8.568979073238981e-01	 8.221205668737417e-01	 9.710588678770343e+00
 8.737354293854029e-01	 8.042031145719987e-01	 1.010830959217930e+01
 8.901914038573249e-01	 7.859487989337566e-01	 1.051821724977443e+01
 9.062558737950196e-01	 7.673698855531539e-01	 1.093842707277903e+01
 9.219194102501908e-01	 7.484790251165743e-01	 1.136691196395524e+01
 9.371731304409896e-01	 7.292892249357967e-01	 1.180151207891926e+01
 9.520087140812531e-01	 7.098138194856374e-01	 1.223994562867754e+01
 9.664184178081811e-01	 6.900664400845540e-01	 1.267982062278893e+01
 9.803950876596084e-01	 6.700609838606032e-01	 1.311864745284104e+01
 9.939321695640972e-01	 6.498115821479387e-01	 1.355385220751317e+01
 1.046244389015035e+00	 6.840121917376668e-01	 1.387379266252142e+01
 1.060024966129340e+00	 6.624553352318256e-01	 1.385555036675029e+01
 1.073330949003193e+00	 6.406720486401845e-01	 1.382077179763941e+01
 1.086157378030861e+00	 6.186777433746945e-01	 1.394147670727755e+01
 1.098499947997111e+00	 5.964879414108070e-01	 1.444872356264707e+01
 1.110355008528024e+00	 5.741182413352696e-01	 1.489577447677584e+01
 1.121719562484135e+00	 5.515842847068427e-01	 1.528534128003875e+01
 1.132591262343367e+00	 5.289017228707272e-01	 1.562008905156851e+01
 1.142968404631800e+00	 5.060861843616079e-01	 1.590262386334232e+01
 1.152849922470135e+00	 4.831532430234601e-01	 1.613548201280948e+01
 1.162235376312831e+00	 4.601183869667742e-01	 1.632112075688208e+01
 1.041013167069893e+00	 6.805921307809203e-01	 1.384525455297667e+01
 1.054724841297460e+00	 6.591430585566287e-01	 1.382193034997367e+01
 1.067964294255944e+00	 6.374686883972068e-01	 1.378127748401641e+01
 1.080726591137641e+00	 6.155843546575444e-01	 1.398666524615417e+01
 1.093007448253392e+00	 5.935055017032135e-01	 1.449460771989269e+01
 1.104803233481147e+00	 5.712476501280273e-01	 1.494204825422310e+01
 1.116110964667137e+00	 5.488263632829492e-01	 1.533164083242930e+01
 1.126928306026895e+00	 5.262572142564522e-01	 1.566599712687499e+01
 1.137253562603866e+00	 5.035557534405446e-01	 1.594767440715082e+01
 1.147085672853151e+00	 4.807374768099794e-01	 1.617916489694011e+01
 1.156424199426930e+00	 4.578177950346912e-01	 1.636288659293340e+01
 1.035781945124762e+00	 6.771720698236788e-01	 1.381581304289831e+01
 1.049424716465781e+00	 6.558307818810271e-01	 1.378757371435508e+01
 1.062597639509066e+00	 6.342653281538929e-01	 1.374121872769428e+01
 1.075295804244939e+00	 6.124909659401064e-01	 1.403549219964144e+01
 1.087514948510320e+00	 5.905230619953608e-01	 1.454416056835686e+01
 1.099251458435025e+00	 5.683770589205327e-01	 1.499202510670059e+01
 1.110502366850982e+00	 5.460684418587913e-01	 1.538168216312695e+01
 1.121265349711334e+00	 5.236127056418804e-01	 1.571569017285858e+01
 1.131538720576895e+00	 5.010253225191328e-01	 1.599655772990108e+01
 1.141321423237157e+00	 4.783217105960789e-01	 1.622673306830215e+01
 1.150613022542030e+00	 4.555172031020981e-01	 1.640859496648196e+01
 1.030550723179642e+00	 6.737520088659427e-01	 1.378551766636982e+01
 1.044124591634303e+00	 6.525185052050199e-01	 1.375253112271783e+01
 1.057230984762557e+00	 6.310619679102434e-01	 1.370064726638189e+01
 1.069865017352757e+00	 6.093975772223809e-01	 1.408801238445914e+01
 1.082022448767896e+00	 5.875406222872482e-01	 1.459743850169787e+01
 1.093699683389660e+00	 5.655064677127865e-01	 1.504576290634890e+01
 1.104893769035673e+00	 5.433105204343691e-01	 1.543552452088144e+01
 1.115602393396687e+00	 5.209681970270120e-01	 1.576922871003629e+01
 1.125823878550884e+00	 4.984948915973725e-01	 1.604933551651786e+01
 1.135557173622154e+00	 4.759059443817586e-01	 1.627824926680346e+01
 1.144801845658129e+00	 4.532166111689945e-01	 1.645830956137942e+01
 1.025319501234532e+00	 6.703319479077119e-01	 1.375441864793016e+01
 1.038824466803024e+00	 6.492062285286078e-01	 1.371685395840980e+01
 1.051864330016418e+00	 6.278586076662572e-01	 1.365961558787696e+01
 1.064434230461094e+00	 6.063041885043678e-01	 1.414428139642420e+01
 1.076529949026119e+00	 5.845581825788758e-01	 1.465449872107344e+01
 1.088147908345050e+00	 5.626358765047883e-01	 1.510332036055565e+01
 1.099285171221208e+00	 5.405525990096827e-01	 1.549322801673784e+01
 1.109939437082952e+00	 5.183236884118472e-01	 1.582667414752625e+01
 1.120109036525835e+00	 4.959644606752638e-01	 1.610607036605007e+01
 1.129792924008140e+00	 4.734901781670185e-01	 1.633377717117824e+01
 1.138990668775229e+00	 4.509160192353808e-01	 1.651209502414947e+01
 1.020088279289433e+00	 6.669118869489865e-01	 1.372256692027729e+01
 1.033524341971946e+00	 6.458939518517904e-01	 1.368059434377853e+01
 1.046497675270649e+00	 6.246552474219352e-01	 1.362918920017016e+01
 1.059003443569948e+00	 6.032107997860668e-01	 1.420435563042810e+01
 1.071037449284989e+00	 5.815757428702439e-01	 1.471539925584560e+01
 1.082596133301196e+00	 5.597652852965380e-01	 1.516475703337207e+01
 1.093676573407586e+00	 5.377946775847317e-01	 1.555485364614679e+01
 1.104276480770130e+00	 5.156791797963856e-01	 1.588808880583261e+01
 1.114394194501747e+00	 4.934340297528066e-01	 1.616682581510981e+01
 1.124028674395118e+00	 4.710744119518586e-01	 1.639338142305890e+01
 1.133179491893328e+00	 4.486154273012567e-01	 1.657001698867139e+01
 1.014857057344345e+00	 6.634918259897664e-01	 1.369001414252046e+01
 1.028224217141069e+00	 6.425816751745687e-01	 1.364380515921750e+01
 1.041131020525250e+00	 6.214518871772771e-01	 1.369203720973219e+01
 1.053572656679322e+00	 6.001174110674782e-01	 1.426829230103120e+01
 1.065544949544507e+00	 5.785933031613523e-01	 1.478019898492633e+01
 1.077044358258098e+00	 5.568946940880360e-01	 1.523013336759203e+01
 1.088067975594809e+00	 5.350367561595165e-01	 1.562046331175840e+01
 1.098613524458221e+00	 5.130346711806275e-01	 1.595353594033476e+01
 1.108679352478621e+00	 4.909035988300009e-01	 1.623166636203645e+01
 1.118264424783085e+00	 4.686586457362787e-01	 1.645712765179362e+01
 1.127368315012428e+00	 4.463148353666224e-01	 1.663214210162753e+01
 1.009625835399267e+00	 6.600717650300513e-01	 1.365681271899837e+01
 1.022924092310392e+00	 6.392693984969413e-01	 1.360654006280474e+01
 1.035764365780220e+00	 6.182485269322826e-01	 1.375877063228438e+01
 1.048141869789214e+00	 5.970240223486021e-01	 1.433614946369785e+01
 1.060052449804672e+00	 5.756108634522008e-01	 1.484895765878634e+01
 1.071492583215757e+00	 5.540241028792817e-01	 1.529951070751743e+01
 1.082459377782877e+00	 5.322788347340370e-01	 1.569011984692484e+01
 1.092950568147224e+00	 5.103901625645730e-01	 1.602307976550681e+01
 1.102964510456456e+00	 4.883731679068467e-01	 1.630065749181171e+01
 1.112500175172043e+00	 4.662428795202794e-01	 1.652508250003443e+01
 1.121557138132527e+00	 4.440142434314778e-01	 1.669853804874174e+01
 1.004394613454200e+00	 6.566517040698419e-01	 1.362301581868671e+01
 1.017623967479915e+00	 6.359571218189090e-01	 1.356885351055496e+01
 1.030397711035560e+00	 6.150451666869524e-01	 1.382944656184184e+01
 1.042711082899626e+00	 5.939306336294381e-01	 1.440798603669477e+01
 1.054559950065485e+00	 5.726284237427899e-01	 1.492173592215233e+01
 1.065940808174171e+00	 5.511535116702757e-01	 1.537295132243468e+01
 1.076850779971789e+00	 5.295209133082932e-01	 1.576388703993738e+01
 1.087287611837140e+00	 5.077456539482217e-01	 1.609678547989421e+01
 1.097249668435252e+00	 4.858427369833440e-01	 1.637386570175356e+01
 1.106735925561992e+00	 4.638271133038601e-01	 1.659731365012556e+01
 1.115745961253626e+00	 4.417136514958229e-01	 1.676927358183761e+01
 9.991633915091431e-01	 6.532316431091375e-01	 1.358867739521448e+01
 1.012323842649639e+00	 6.326448451404714e-01	 1.353080077730791e+01
 1.025031056291269e+00	 6.118418064412861e-01	 1.390412294484327e+01
 1.037280296010556e+00	 5.908372449099865e-01	 1.448386182367779e+01
 1.049067450326945e+00	 5.696459840331191e-01	 1.499859533741642e+01
 1.060389033133341e+00	 5.482829204610178e-01	 1.545051843082946e+01
 1.071242182161545e+00	 5.267629918822850e-01	 1.584182965902489e+01
 1.081624655527969e+00	 5.051011453315740e-01	 1.617471929187451e+01
 1.091534826415010e+00	 4.833123060594928e-01	 1.645135852801719e+01
 1.100971675952930e+00	 4.614113470870209e-01	 1.667388985132030e+01
 1.109934784375726e+00	 4.394130595596578e-01	 1.684441854674697e+01
 9.939321695640972e-01	 6.498115821479387e-01	 1.355385220751317e+01
 1.007023717819563e+00	 6.293325684616293e-01	 1.349243797827654e+01
 1.019664401547349e+00	 6.086384461952835e-01	 1.398285860258240e+01
 1.031849509122004e+00	 5.877438561902473e-01	 1.456383753699122e+01
 1.043574950589053e+00	 5.666635443231887e-01	 1.507959840878546e+01
 1.054837258093266e+00	 5.454123292515076e-01	 1.553227622536509e+01
 1.065633584352145e+00	 5.240050704560125e-01	 1.592401347814141e+01
 1.075961699219711e+00	 5.024566367146296e-01	 1.625694844623222e+01
 1.085819984395729e+00	 4.807818751352932e-01	 1.653320457293279e+01
 1.095207426344859e+00	 4.589955808697619e-01	 1.675488094785788e+01
 1.104123607498825e+00	 4.371124676229823e-01	 1.692404391209949e+01
 1.162235376312831e+00	 4.601183869667742e-01	 1.632112075688208e+01
 1.171124942965302e+00	 4.369969884760462e-01	 1.663804609578322e+01
 1.179519402970896e+00	 4.138042749702637e-01	 1.692014309931024e+01
 1.187420126467113e+00	 3.905553011115672e-01	 1.716720655858316e+01
 1.194829057615943e+00	 3.672649221479063e-01	 1.737897574390273e+01
 1.201748697716363e+00	 3.439477685638434e-01	 1.755513996852852e+01
 1.208182087111708e+00	 3.206182221050797e-01	 1.769534485825709e+01
 1.214132786006912e+00	 2.972903932319074e-01	 1.779919921542952e+01
 1.219604854312299e+00	 2.739781000467751e-01	 1.786628236377596e+01
 1.224602830631397e+00	 2.506948487312581e-01	 1.789615186001941e+01
 1.229131710510102e+00	 2.274538155180211e-01	 1.788835145931004e+01
 1.156424199426930e+00	 4.578177950346912e-01	 1.636288659293340e+01
 1.165269318246508e+00	 4.348120035375571e-01	 1.668698871397798e+01
 1.173621805952430e+00	 4.117352536002755e-01	 1.697623555214520e+01
 1.181483025831509e+00	 3.886025246116780e-01	 1.723037098659493e+01
 1.188854912324926e+00	 3.654285975434765e-01	 1.744908670973320e+01
 1.195739954225163e+00	 3.422280297278126e-01	 1.763202784262774e+01
 1.202141176673837e+00	 3.190151310016606e-01	 1.777879922895013e+01
 1.208062122074858e+00	 2.958039412730137e-01	 1.788897229761459e+01
 1.213506830039000e+00	 2.726082095538110e-01	 1.796209238222969e+01
 1.218479816476771e+00	 2.494413744947220e-01	 1.799768638512770e+01
 1.222986051956338e+00	 2.263165464472510e-01	 1.799527067498708e+01
 1.150613022542030e+00	 4.555172031020981e-01	 1.640859496648196e+01
 1.159413693528708e+00	 4.326270185984629e-01	 1.674003100647962e+01
 1.167724208934942e+00	 4.096662322295980e-01	 1.703659545504706e+01
 1.175545925196858e+00	 3.866497481110256e-01	 1.729798094436725e+01
 1.182880767034825e+00	 3.635922729382201e-01	 1.752383120839754e+01
 1.189731210734830e+00	 3.405082908909013e-01	 1.771374675290684e+01
 1.196100266236777e+00	 3.174120398973176e-01	 1.786729117696905e+01
 1.201991458143548e+00	 2.943174893131627e-01	 1.798399803758954e+01
 1.207408805766368e+00	 2.712383190598658e-01	 1.806337814725605e+01
 1.212356802322725e+00	 2.481879002571907e-01	 1.810492719398658e+01
 1.216840393403059e+00	 2.251792773754809e-01	 1.810813357480244e+01
 1.144801845658129e+00	 4.532166111689945e-01	 1.645830956137942e+01
 1.153558068811903e+00	 4.304420336587636e-01	 1.679723893776902e+01
 1.161826611918433e+00	 4.075972108582310e-01	 1.710129103058446e+01
 1.169608824563159e+00	 3.846969716096103e-01	 1.737010688580840e+01
 1.176906621745638e+00	 3.617559483321367e-01	 1.760328189447912e+01
 1.183722467245366e+00	 3.387885520531097e-01	 1.780037152033672e+01
 1.190059355800528e+00	 3.158089487920509e-01	 1.796089765205553e+01
 1.195920794212982e+00	 2.928310373523545e-01	 1.808435547321432e+01
 1.201310781494402e+00	 2.698684285649393e-01	 1.817022074143504e+01
 1.206233788169260e+00	 2.469344260186640e-01	 1.821795736803885e+01
 1.210694734850266e+00	 2.240420083027108e-01	 1.822702519102519e+01
 1.138990668775229e+00	 4.509160192353808e-01	 1.651209502414947e+01
 1.147702444096093e+00	 4.282570487184593e-01	 1.685867948752516e+01
 1.155929014902903e+00	 4.055281894861750e-01	 1.717039156997674e+01
 1.163671723930411e+00	 3.827441951074316e-01	 1.744682038774965e+01
 1.170932476457367e+00	 3.599196237252266e-01	 1.768751260046991e+01
 1.177713723756769e+00	 3.370688132144378e-01	 1.789197819938962e+01
 1.184018445365089e+00	 3.142058576858604e-01	 1.805969689354797e+01
 1.189850130283160e+00	 2.913445853905888e-01	 1.819012498843954e+01
 1.195212757223104e+00	 2.684985380690318e-01	 1.828270265022811e+01
 1.200110774016376e+00	 2.456809517791420e-01	 1.833686144859547e+01
 1.204549076297958e+00	 2.229047392289407e-01	 1.835203207287751e+01
 1.133179491893328e+00	 4.486154273012567e-01	 1.657001698867139e+01
 1.141846819381277e+00	 4.260720637775501e-01	 1.692442067665591e+01
 1.150031417888351e+00	 4.034591681134296e-01	 1.724396746049541e+01
 1.157734623298615e+00	 3.807914186044897e-01	 1.752819417873824e+01
 1.164958331170010e+00	 3.580832991174894e-01	 1.777659836697310e+01
 1.171704980269041e+00	 3.353490743748856e-01	 1.798864410966749e+01
 1.177977534930460e+00	 3.126027665787460e-01	 1.816376846344800e+01
 1.183779466354081e+00	 2.898581334278658e-01	 1.830138834782173e+01
 1.189114732952472e+00	 2.671286475721431e-01	 1.840090779794927e+01
 1.193987759864072e+00	 2.444274775386246e-01	 1.846172547426808e+01
 1.198403417746136e+00	 2.217674701541705e-01	 1.848324232543094e+01
 1.127368315012428e+00	 4.463148353666224e-01	 1.663214210162753e+01
 1.135991194667455e+00	 4.238870788360357e-01	 1.699453159413375e+01
 1.144133820874777e+00	 4.013901467399950e-01	 1.732209021371266e+01
 1.151797522667771e+00	 3.788386421007847e-01	 1.761430216872068e+01
 1.158984185883568e+00	 3.562469745089256e-01	 1.787061547384009e+01
 1.165696236782179e+00	 3.336293355344530e-01	 1.809044786850821e+01
 1.171936624496643e+00	 3.109996754707078e-01	 1.827319328050978e+01
 1.177708802425745e+00	 2.883716814641854e-01	 1.841822873210581e+01
 1.183016708682507e+00	 2.657587570742732e-01	 1.852492158484895e+01
 1.187864745712349e+00	 2.431740032971120e-01	 1.859263701955929e+01
 1.192257759194798e+00	 2.206302010784004e-01	 1.862074564970554e+01
 1.121557138132527e+00	 4.440142434314778e-01	 1.669853804874174e+01
 1.130135569954629e+00	 4.217020938939166e-01	 1.706908242466579e+01
 1.138236223862183e+00	 3.993211253658711e-01	 1.740483249462845e+01
 1.145860422037879e+00	 3.768858655963165e-01	 1.770521947964897e+01
 1.153010040598041e+00	 3.544106498995349e-01	 1.796964147227531e+01
 1.159687493296186e+00	 3.319095966931400e-01	 1.819746942460587e+01
 1.165895714063635e+00	 3.093965843617458e-01	 1.838805365538898e+01
 1.171638138498153e+00	 2.868852294995476e-01	 1.854073077491404e+01
 1.176918684413208e+00	 2.643888665754221e-01	 1.865483092535085e+01
 1.181741731561207e+00	 2.419205290546041e-01	 1.872968523465260e+01
 1.186112100643947e+00	 2.194929320016303e-01	 1.876463338401570e+01
 1.115745961253626e+00	 4.417136514958229e-01	 1.676927358183761e+01
 1.124279945242797e+00	 4.195171089511923e-01	 1.714814447722868e+01
 1.132338626850566e+00	 3.972521039910580e-01	 1.749226815170775e+01
 1.139923321408939e+00	 3.749330890910851e-01	 1.780102247704332e+01
 1.147035895313430e+00	 3.525743252893173e-01	 1.807375521794443e+01
 1.153678749811061e+00	 3.301898578509467e-01	 1.830979009268144e+01
 1.159854803631438e+00	 3.077934932518601e-01	 1.850843332689020e+01
 1.165567474571304e+00	 2.853987775339525e-01	 1.866898060058126e+01
 1.170820660144577e+00	 2.630189760755899e-01	 1.879072428748333e+01
 1.175618717410646e+00	 2.406670548111008e-01	 1.887296088644563e+01
 1.179966442093580e+00	 2.183556629238602e-01	 1.891499854660815e+01
 1.109934784375726e+00	 4.394130595596578e-01	 1.684441854674697e+01
 1.118424320531960e+00	 4.173321240078632e-01	 1.723179021449965e+01
 1.126441029839929e+00	 3.951830826155555e-01	 1.758447224786113e+01
 1.133986220780951e+00	 3.729803125850906e-01	 1.790178880254615e+01
 1.141061750029733e+00	 3.507380006782729e-01	 1.818303690512250e+01
 1.147670006326803e+00	 3.284701190078731e-01	 1.842749258924260e+01
 1.153813893200052e+00	 3.061904021410506e-01	 1.863441749935319e+01
 1.159496810645199e+00	 2.839123255674000e-01	 1.880306586317890e+01
 1.164722635876612e+00	 2.616490855747766e-01	 1.893269173354981e+01
 1.169495703260665e+00	 2.394135805666023e-01	 1.902255640087270e+01
 1.173820783543699e+00	 2.172183938450901e-01	 1.907193587963907e+01
 1.104123607498825e+00	 4.371124676229823e-01	 1.692404391209949e+01
 1.112568695822117e+00	 4.151471390639289e-01	 1.732009328321694e+01
 1.120543432830269e+00	 3.931140612393638e-01	 1.768152109240403e+01
 1.128049120153916e+00	 3.710275360783328e-01	 1.800759740750436e+01
 1.135087604746951e+00	 3.489016760664016e-01	 1.829756810192047e+01
 1.141661262843413e+00	 3.267503801639192e-01	 1.855066106947295e+01
 1.147772982769477e+00	 3.045873110293171e-01	 1.876609288121942e+01
 1.153426146719838e+00	 2.824258735998901e-01	 1.894307578677110e+01
 1.158624611609314e+00	 2.602791950729820e-01	 1.908082496208335e+01
 1.163372689111265e+00	 2.381601063211083e-01	 1.917856590656343e+01
 1.167675124994303e+00	 2.160811247653200e-01	 1.923554189454018e+01
 1.229131710510102e+00	 2.274538155180211e-01	 1.788835145931004e+01
 1.233196924063451e+00	 2.042678302137040e-01	 1.817222082700378e+01
 1.236804313095460e+00	 1.811493612805350e-01	 1.839962692216195e+01
 1.239960107823959e+00	 1.581105024744469e-01	 1.857092343819231e+01
 1.242670903319327e+00	 1.351629610294558e-01	 1.868651113042375e+01
 1.244943635763541e+00	 1.123180473713976e-01	 1.874684087572032e+01
 1.246785558630902e+00	 8.958666633593598e-02	 1.875241651768041e+01
 1.248204218887413e+00	 6.697930985936359e-02	 1.870379744734766e+01
 1.249207433300800e+00	 4.450605110464825e-02	 1.860160087600138e+01
 1.249803264947827e+00	 2.217653997970399e-02	 1.844650376343359e+01
 1.250000000000000e+00	 0.000000000000000e+00	 1.823924437203951e+01
 1.222986051956338e+00	 2.263165464472510e-01	 1.799527067498708e+01
 1.227030939442157e+00	 2.032464910690478e-01	 1.828136083016369e+01
 1.230620291529215e+00	 1.802436144800721e-01	 1.851130775368719e+01
 1.233760307284255e+00	 1.573199499674782e-01	 1.868552058131818e+01
 1.236457548802305e+00	 1.344871462291139e-01	 1.880445297396520e+01
 1.238718917584429e+00	 1.117564571386872e-01	 1.886860600283443e+01
 1.240551630837560e+00	 8.913873300768511e-02	 1.887853083909987e+01
 1.241963197792871e+00	 6.664441331272049e-02	 1.883483119855261e+01
 1.242961396134250e+00	 4.428352085094778e-02	 1.873816549812791e+01
 1.243554248623077e+00	 2.206565728074313e-02	 1.858924868786134e+01
 1.243750000000000e+00	 0.000000000000000e+00	 1.838885372855555e+01
 1.216840393403059e+00	 2.251792773754809e-01	 1.810813357480244e+01
 1.220864954821254e+00	 2.022251519234023e-01	 1.839624863855853e+01
 1.224436269963278e+00	 1.793378676786514e-01	 1.862855545428031e+01
 1.227560506744786e+00	 1.565293974596039e-01	 1.880551848819008e+01
 1.230244194285452e+00	 1.338113314279387e-01	 1.892764414734147e+01
 1.232494199405435e+00	 1.111948669052356e-01	 1.899548349364440e+01
 1.234317703044293e+00	 8.869079967880455e-02	 1.900963478141067e+01
 1.235722176698372e+00	 6.630951676557793e-02	 1.897074576938007e+01
 1.236715358967718e+00	 4.406099059689659e-02	 1.887951576443250e+01
 1.237305232298331e+00	 2.195477458159817e-02	 1.873669736065072e+01
 1.237500000000000e+00	 0.000000000000000e+00	 1.854309784395233e+01
 1.210694734850266e+00	 2.240420083027108e-01	 1.822702519102519e+01
 1.214698970200741e+00	 2.012038127767674e-01	 1.851696449190417e+01
 1.218252248397647e+00	 1.784321208762728e-01	 1.875144556131175e+01
 1.221360706205549e+00	 1.557388449508240e-01	 1.893098809067985e+01
 1.224030839768770e+00	 1.331355166259302e-01	 1.905615108009410e+01
 1.226269481226558e+00	 1.106332766710430e-01	 1.912753538451959e+01
 1.228083775251101e+00	 8.824286634929430e-02	 1.914578610261337e+01
 1.229481155603914e+00	 6.597462021793599e-02	 1.911159475955685e+01
 1.230469321801205e+00	 4.383846034249465e-02	 1.902570124139071e+01
 1.231056215973589e+00	 2.184389188226911e-02	 1.888889544460799e+01
 1.231250000000000e+00	 0.000000000000000e+00	 1.870201861113323e+01
 1.204549076297958e+00	 2.229047392289407e-01	 1.835203207287751e+01
 1.208532985580619e+00	 2.001824736291430e-01	 1.864359006735597e+01
 1.212068226832323e+00	 1.775263740729366e-01	 1.888005497288022e+01
 1.215160905666545e+00	 1.549482924411385e-01	 1.906200160755210e+01
 1.217817485252258e+00	 1.324597018230886e-01	 1.919004141776244e+01
 1.220044763047800e+00	 1.100716864361092e-01	 1.926482485992868e+01
 1.221849847457984e+00	 8.779493301915438e-02	 1.928704364395436e+01
 1.223240134509497e+00	 6.563972366979461e-02	 1.925743279028615e+01
 1.224223284634710e+00	 4.361593008774198e-02	 1.917677245830217e+01
 1.224807199648852e+00	 2.173300918275595e-02	 1.904588950985141e+01
 1.225000000000000e+00	 0.000000000000000e+00	 1.886565877795896e+01
 1.198403417746136e+00	 2.217674701541705e-01	 1.848324232543094e+01
 1.202367000960888e+00	 1.991611344805294e-01	 1.877620851636606e+01
 1.205884205267306e+00	 1.766206272686425e-01	 1.901446198270293e+01
 1.208961105127776e+00	 1.541577399305475e-01	 1.919863257746141e+01
 1.211604130735918e+00	 1.317838870194137e-01	 1.932938405306300e+01
 1.213820044869158e+00	 1.095100962004343e-01	 1.940741628187841e+01
 1.215615919664942e+00	 8.734699968838475e-02	 1.943346735770144e+01
 1.216999113415123e+00	 6.530482712115382e-02	 1.940831553043969e+01
 1.217977247468234e+00	 4.339339983263860e-02	 1.933278093197831e+01
 1.218558183324120e+00	 2.162212648305869e-02	 1.920772705707579e+01
 1.218750000000000e+00	 0.000000000000000e+00	 1.903406196916964e+01
 1.192257759194798e+00	 2.206302010784004e-01	 1.862074564970554e+01
 1.196201016341548e+00	 1.981397953309263e-01	 1.891490450268065e+01
 1.199700183702596e+00	 1.757148804633906e-01	 1.915474631608556e+01
 1.202761304589240e+00	 1.533671874190509e-01	 1.934095589297029e+01
 1.205390776219747e+00	 1.311080722149056e-01	 1.947424915803321e+01
 1.207595326690635e+00	 1.089485059640183e-01	 1.955537522026212e+01
 1.209381991871975e+00	 8.689906635698541e-02	 1.958511833577829e+01
 1.210758092320790e+00	 6.496993057201363e-02	 1.956429972355942e+01
 1.211731210301776e+00	 4.317086957718448e-02	 1.949377919219382e+01
 1.212309166999393e+00	 2.151124378317732e-02	 1.937445654153625e+01
 1.212500000000000e+00	 0.000000000000000e+00	 1.920727270898463e+01
 1.186112100643947e+00	 2.194929320016303e-01	 1.876463338401570e+01
 1.190035031722598e+00	 1.971184561803339e-01	 1.905976424151893e+01
 1.193516162138193e+00	 1.748091336571810e-01	 1.930098916700976e+01
 1.196561504050938e+00	 1.525766349066487e-01	 1.948904783562428e+01
 1.199177421703747e+00	 1.304322574095643e-01	 1.962470821717451e+01
 1.201370608512228e+00	 1.083869157268612e-01	 1.970876848415253e+01
 1.203148064079081e+00	 8.645113302495637e-02	 1.974205883928914e+01
 1.204517071226499e+00	 6.463503402237400e-02	 1.972544321569862e+01
 1.205485173135337e+00	 4.294833932137963e-02	 1.965982080792909e+01
 1.206060150674669e+00	 2.140036108311186e-02	 1.954612739777783e+01
 1.206250000000000e+00	 0.000000000000000e+00	 1.938533644440527e+01
 1.179966442093580e+00	 2.183556629238602e-01	 1.891499854660815e+01
 1.183869047104040e+00	 1.960971170287520e-01	 1.921087553997566e+01
 1.187332140574096e+00	 1.739033868500136e-01	 1.945327323637988e+01
 1.190361703512869e+00	 1.517860823933409e-01	 1.964298611212357e+01
 1.192964067187917e+00	 1.297564426033898e-01	 1.978083406163101e+01
 1.195145890333940e+00	 1.078253254889629e-01	 1.986766415407175e+01
 1.196914136286263e+00	 8.600319969229762e-02	 1.990435232896659e+01
 1.198276050132250e+00	 6.430013747223495e-02	 1.989180498413320e+01
 1.199239135968915e+00	 4.272580906522404e-02	 1.983096041443295e+01
 1.199811134349951e+00	 2.128947838286229e-02	 1.972279006513799e+01
 1.200000000000000e+00	 0.000000000000000e+00	 1.956829956924553e+01
 1.173820783543699e+00	 2.172183938450901e-01	 1.907193587963907e+01
 1.177703062485872e+00	 1.950757778761808e-01	 1.936832783869345e+01
 1.181148119010307e+00	 1.729976400418885e-01	 1.961168277147141e+01
 1.184161902975033e+00	 1.509955298791275e-01	 1.980284989163067e+01
 1.186750712672258e+00	 1.290806277963820e-01	 1.994270090444200e+01
 1.188921172155769e+00	 1.072637352503236e-01	 2.003213161527556e+01
 1.190680208493520e+00	 8.555526635900920e-02	 2.007206349657494e+01
 1.192035029038043e+00	 6.396524092159651e-02	 2.006344516697487e+01
 1.192993098802513e+00	 4.250327880871774e-02	 2.000725374113551e+01
 1.193562118025237e+00	 2.117859568242864e-02	 1.990449601404979e+01
 1.193750000000000e+00	 0.000000000000000e+00	 1.975620944891781e+01
 1.167675124994303e+00	 2.160811247653200e-01	 1.923554189454018e+01
 1.171537077868094e+00	 1.940544387226202e-01	 1.953221225485095e+01
 1.174964097446825e+00	 1.720918932328055e-01	 1.977630360662488e+01
 1.177962102437430e+00	 1.502049773640085e-01	 1.996871984425620e+01
 1.180537358156770e+00	 1.284048129885411e-01	 2.011038437690752e+01
 1.182696453977716e+00	 1.067021450109431e-01	 2.020224159208813e+01
 1.184446280700852e+00	 8.510733302509109e-02	 2.024525829730620e+01
 1.185794007943878e+00	 6.363034437045867e-02	 2.024042509371933e+01
 1.186747061636129e+00	 4.228074855186071e-02	 2.018875764044218e+01
 1.187313101700527e+00	 2.106771298181087e-02	 2.009129777317612e+01
 1.187500000000000e+00	 0.000000000000000e+00	 1.994911444600122e+01
 0.000000000000000e+00	 1.187500000000000e+00	-3.097870976652248e-01
 2.106771298181096e-02	 1.187313101700527e+00	-2.780739731147133e-01
 4.228074855186088e-02	 1.186747061636128e+00	-2.348203155241464e-01
 6.363034437045889e-02	 1.185794007943877e+00	-1.806672941276350e-01
 8.510733302509138e-02	 1.184446280700852e+00	-1.161137608479168e-01
 1.067021450109435e-01	 1.182696453977716e+00	-4.150479167927745e-02
 1.284048129885415e-01	 1.180537358156770e+00	 4.297878584999149e-02
 1.502049773640091e-01	 1.177962102437431e+00	 1.373296940084128e-01
 1.720918932328061e-01	 1.174964097446825e+00	 2.417221496076825e-01
 1.940544387226209e-01	 1.171537077868094e+00	 3.565182690426101e-01
 2.160811247653200e-01	 1.167675124994303e+00	 4.822727554376849e-01
 0.000000000000000e+00	 1.181250000000000e+00	-3.041668315450401e-01
 2.095683028119090e-02	 1.181064085375818e+00	-2.804640191202648e-01
 4.205821829499463e-02	 1.180501024469745e+00	-2.446197152640517e-01
 6.329544781930015e-02	 1.179552986849712e+00	-1.972717901268246e-01
 8.465939969113587e-02	 1.178212352908183e+00	-1.389200928311567e-01
 1.061405547715042e-01	 1.176471735799663e+00	-6.991521018300628e-02
 1.277289981806153e-01	 1.174324003641281e+00	 9.551812088777867e-03
 1.494144248487734e-01	 1.171762301899829e+00	 9.945860394056139e-02
 1.711861464235698e-01	 1.168780075883342e+00	 1.999592795787450e-01
 1.930330995688649e-01	 1.165371093250317e+00	 3.113907402635774e-01
 2.149438556853072e-01	 1.161529466444907e+00	 4.342772964601249e-01
 0.000000000000000e+00	 1.175000000000000e+00	-3.010587642507054e-01
 2.084594758075037e-02	 1.174815069051104e+00	-2.851452897015665e-01
 4.183568803846066e-02	 1.174254987303341e+00	-2.565121906773464e-01
 6.296055126859904e-02	 1.173311965755504e+00	-2.157947499202966e-01
 8.421146635773533e-02	 1.171978425115440e+00	-1.634944510027636e-01
 1.055789645326885e-01	 1.170247017621491e+00	-9.996794833515765e-02
 1.270531833733519e-01	 1.168110649125621e+00	-2.541697636350060e-02
 1.486238723342098e-01	 1.165562501361993e+00	 6.012062386841355e-02
 1.702803996149842e-01	 1.162596054319553e+00	 1.567785823222501e-01
 1.920117604157075e-01	 1.159205108632149e+00	 2.648684053791819e-01
 2.138065866058090e-01	 1.155383807895026e+00	 3.848839373896500e-01
 0.000000000000000e+00	 1.168750000000000e+00	-3.005100113177157e-01
 2.073506488048938e-02	 1.168566052726385e+00	-2.921627234695796e-01
 4.161315778225901e-02	 1.168008950136921e+00	-2.705404746880200e-01
 6.262565471835560e-02	 1.167070944661255e+00	-2.362766751837038e-01
 8.376353302488969e-02	 1.165744497322621e+00	-1.898750838321157e-01
 1.050173742944963e-01	 1.164022299443203e+00	-1.316989834589393e-01
 1.263773685667512e-01	 1.161897294609792e+00	-6.196127219163050e-02
 1.478333198203182e-01	 1.159362700823924e+00	 1.928435435663944e-02
 1.693746528070496e-01	 1.156412032755457e+00	 1.121509549541424e-01
 1.909904212631487e-01	 1.153039124013591e+00	 2.169244556077305e-01
 2.126693175268256e-01	 1.149238149344660e+00	 3.340681549140978e-01
 0.000000000000000e+00	 1.162500000000000e+00	-3.025687015192779e-01
 2.062418218040790e-02	 1.162317036401662e+00	-3.015622288163504e-01
 4.139062752638964e-02	 1.161762912970481e+00	-2.867482285537375e-01
 6.229075816856980e-02	 1.160829923566964e+00	-2.587589565888007e-01
 8.331559969259900e-02	 1.159510569529728e+00	-2.181010916614174e-01
 1.044557840569276e-01	 1.157797581264797e+00	-1.651451099530616e-01
 1.257015537608134e-01	 1.155683940093792e+00	-1.001155527833042e-01
 1.470427673070988e-01	 1.153162900285621e+00	-2.308235887999555e-02
 1.684689059997659e-01	 1.150228011191053e+00	 6.604656696890499e-02
 1.899690821111885e-01	 1.146873139394641e+00	 1.675313790599271e-01
 2.115320484483569e-01	 1.143092490793807e+00	 2.818047443241043e-01
 0.000000000000000e+00	 1.156250000000000e+00	-3.072840042497262e-01
 2.051329948050595e-02	 1.156068020076935e+00	-3.133907101274493e-01
 4.116809727085258e-02	 1.155516875804023e+00	-3.051800669548164e-01
 6.195586161924166e-02	 1.154588902472632e+00	-2.832838978284278e-01
 8.286766636086323e-02	 1.153276641736761e+00	-2.482124497336209e-01
 1.038941938199824e-01	 1.151572863086273e+00	-2.003439613775546e-01
 1.250257389555382e-01	 1.149470585577622e+00	-1.399151014366089e-01
 1.462522147945514e-01	 1.146963099747086e+00	-6.701244538155438e-02
 1.675631591931331e-01	 1.144043989626343e+00	 1.843484057340339e-02
 1.889477429598269e-01	 1.140707154775301e+00	 1.166609417370710e-01
 2.103947793704027e-01	 1.136946832242470e+00	 2.280678010960486e-01
 0.000000000000000e+00	 1.150000000000000e+00	-3.147061578037165e-01
 2.040241678078352e-02	 1.149819003752203e+00	-3.276960948458738e-01
 4.094556701564780e-02	 1.149270838637547e+00	-3.258815839025528e-01
 6.162096507037117e-02	 1.148347881378257e+00	-3.098947404287897e-01
 8.241973302968245e-02	 1.147042713943719e+00	-2.802500319646497e-01
 1.033326035836607e-01	 1.145348144907632e+00	-2.373340332546254e-01
 1.243499241509259e-01	 1.143257231061281e+00	-1.813960292601560e-01
 1.454616622826762e-01	 1.140763299208316e+00	-1.125396310063065e-01
 1.666574123871511e-01	 1.137859968061326e+00	-3.071556961838828e-02
 1.879264038090639e-01	 1.134541170155570e+00	 6.428416790852642e-02
 2.092575102929634e-01	 1.130801173690648e+00	 1.728307018768209e-01
 0.000000000000000e+00	 1.143750000000000e+00	-3.248864985804945e-01
 2.029153408124062e-02	 1.143569987427466e+00	-3.445273614245496e-01
 4.072303676077533e-02	 1.143024801471052e+00	-3.488993794968593e-01
 6.128606852195834e-02	 1.142106860283841e+00	-3.386356893716449e-01
 8.197179969905656e-02	 1.140808786150602e+00	-3.142556354972963e-01
 1.027710133479626e-01	 1.139123426728873e+00	-2.761547066215571e-01
 1.236741093469763e-01	 1.137043876544769e+00	-2.245952977903736e-01
 1.446711097714730e-01	 1.134563498669313e+00	-1.596984596900275e-01
 1.657516655818200e-01	 1.131675946496002e+00	-8.143679755990219e-02
 1.869050646588994e-01	 1.128375185535448e+00	 1.037131984470729e-02
 2.081202412160386e-01	 1.124655515138340e+00	 1.160660848421173e-01
 0.000000000000000e+00	 1.137500000000000e+00	-3.378774912511044e-01
 2.018065138187724e-02	 1.137320971102724e+00	-3.639345682002311e-01
 4.050050650623516e-02	 1.136778764304539e+00	-3.742810875664293e-01
 6.095117197400314e-02	 1.135865839189383e+00	-3.695519395643909e-01
 8.152386636898563e-02	 1.134574858357410e+00	-3.502720060650859e-01
 1.022094231128880e-01	 1.132898708549996e+00	-3.168462723572121e-01
 1.229982945436895e-01	 1.130830522028087e+00	-2.695507423557371e-01
 1.438805572609419e-01	 1.128363698130076e+00	-2.085243159204739e-01
 1.648459187771398e-01	 1.125491924930372e+00	-1.337617874342838e-01
 1.858837255093336e-01	 1.122209200914935e+00	-4.510812311555590e-02
 2.069829721396285e-01	 1.118509856585547e+00	 5.774582940965844e-02
 0.000000000000000e+00	 1.131250000000000e+00	-3.537327599274154e-01
 2.006976868269339e-02	 1.131071954777978e+00	-3.859688832248744e-01
 4.027797625202728e-02	 1.130532727138007e+00	-4.020754042246211e-01
 6.061627542650560e-02	 1.129624818094883e+00	-4.026897031852898e-01
 8.107593303946964e-02	 1.128340930564143e+00	-3.883428641969042e-01
 1.016478328784368e-01	 1.126673990371002e+00	-3.594499563150444e-01
 1.223224797410655e-01	 1.124617167511235e+00	-3.163010962129527e-01
 1.430900047510829e-01	 1.122163897590607e+00	-2.590534479565445e-01
 1.639401719731105e-01	 1.119307903364434e+00	-1.877243160371007e-01
 1.848623863603664e-01	 1.116043216294032e+00	-1.021854861937577e-01
 2.058457030637330e-01	 1.112364198032268e+00	-2.158964720893053e-03
 0.000000000000000e+00	 1.125000000000000e+00	-3.725071203672106e-01
 1.995888598368906e-02	 1.124822938453228e+00	-4.106826150908607e-01
 4.005544599815170e-02	 1.124286689971457e+00	-4.323321173767851e-01
 6.028137887946573e-02	 1.123383797000342e+00	-4.380962379398552e-01
 8.062799971050859e-02	 1.122107002770802e+00	-4.285129322926691e-01
 1.010862426446093e-01	 1.120449272191891e+00	-4.040079452962513e-01
 1.216466649391042e-01	 1.118403812994212e+00	-3.648860154918130e-01
 1.422994522418959e-01	 1.115964097050903e+00	-3.113229918216889e-01
 1.630344251697321e-01	 1.113123881798189e+00	-2.433590159050905e-01
 1.838410472119977e-01	 1.109877231672737e+00	-1.608929215207322e-01
 2.047084339883523e-01	 1.106218539478505e+00	-6.367799922792594e-02
 2.160811247653200e-01	 1.167675124994303e+00	 4.822727554376849e-01
 2.381601191763375e-01	 1.163372683973118e+00	 6.006290868600963e-01
 2.602792470066892e-01	 1.158624590893003e+00	 7.208191108898265e-01
 2.824259915947486e-01	 1.153426099734665e+00	 8.436221764670613e-01
 3.045875228123808e-01	 1.147772898567342e+00	 9.700451795177163e-01
 3.267507141889890e-01	 1.141661130212224e+00	 1.101319236270591e+00
 3.489021614937545e-01	 1.135087412204246e+00	 1.238893752783248e+00
 3.710282027517673e-01	 1.128048855940742e+00	 1.384427807730702e+00
 3.931149396605382e-01	 1.120543084905404e+00	 1.539778793553800e+00
 4.151482603639737e-01	 1.112568251856689e+00	 1.706988291624710e+00
 4.371138635313860e-01	 1.104123054871417e+00	 1.888265189897360e+00
 2.149438556853072e-01	 1.161529466444907e+00	 4.342772964601249e-01
 2.369066448628989e-01	 1.157249669850763e+00	 5.512234000902252e-01
 2.589093562312449e-01	 1.152526566734748e+00	 6.702680494793876e-01
 2.809395390058841e-01	 1.147355436056616e+00	 7.921746013670139e-01
 3.029844305856706e-01	 1.141731988579973e+00	 9.179303051585848e-01
 3.250309735866941e-01	 1.135652387426953e+00	 1.048743059891750e+00
 3.470658343267181e-01	 1.129113267934933e+00	 1.186035609166130e+00
 3.690754227359629e-01	 1.122111756704420e+00	 1.331437092190920e+00
 3.910459136608987e-01	 1.114645489727084e+00	 1.486771896653373e+00
 4.129632695183580e-01	 1.106712629483704e+00	 1.654045789198154e+00
 4.348132642478140e-01	 1.098311880903327e+00	 1.835429331580799e+00
 2.138065866058090e-01	 1.155383807895026e+00	 3.848839373896500e-01
 2.356531705498842e-01	 1.151126655727832e+00	 5.002377782519445e-01
 2.575394654561525e-01	 1.146428542575845e+00	 6.179263818355880e-01
 2.794530864173186e-01	 1.141284772377865e+00	 7.386975966696938e-01
 3.013813383592260e-01	 1.135691078591871e+00	 8.635196394997582e-01
 3.233112329846512e-01	 1.129643644640933e+00	 9.935779368350450e-01
 3.452295071599400e-01	 1.123139123664879e+00	 1.130269445414131e+00
 3.671226427204434e-01	 1.116174657467383e+00	 1.275194370770211e+00
 3.889768876615913e-01	 1.108747894548095e+00	 1.430145230190250e+00
 4.107782786731426e-01	 1.100857007110119e+00	 1.597093235962570e+00
 4.325126649647315e-01	 1.092500706934726e+00	 1.778172006555587e+00
 2.126693175268256e-01	 1.149238149344660e+00	 3.340681549140978e-01
 2.343996962372936e-01	 1.145003641604325e+00	 4.476475159226576e-01
 2.561695746814121e-01	 1.140330518416293e+00	 5.637691547107686e-01
 2.779666338290522e-01	 1.135214108698413e+00	 6.831658916483843e-01
 2.997782461330470e-01	 1.129650168603034e+00	 8.067875205249990e-01
 3.215914923828601e-01	 1.123634901854166e+00	 9.357977356457294e-01
 3.433931799934201e-01	 1.117164979394083e+00	 1.071568577968758e+00
 3.651698627052086e-01	 1.110237558229631e+00	 1.215672320467516e+00
 3.869078616626161e-01	 1.102850299368439e+00	 1.369870739576323e+00
 4.085932878283277e-01	 1.095001384735935e+00	 1.536101748682199e+00
 4.302120656821389e-01	 1.086689532965615e+00	 1.716463400881140e+00
 2.115320484483569e-01	 1.143092490793807e+00	 2.818047443241043e-01
 2.331462219251268e-01	 1.138880627480242e+00	 3.934271923603356e-01
 2.547996839070238e-01	 1.134232494256095e+00	 5.077706617105802e-01
 2.764801812410850e-01	 1.129143445018261e+00	 6.255534206856483e-01
 2.981751539071337e-01	 1.123609258613462e+00	 7.477074456836461e-01
 3.198717517813208e-01	 1.117626159066650e+00	 8.753754348026019e-01
 3.415568528271583e-01	 1.111190835122545e+00	 1.009905379809294e+00
 3.632170826902587e-01	 1.104300458991163e+00	 1.152842617599924e+00
 3.848388356639731e-01	 1.096952704188116e+00	 1.305919308541525e+00
 4.064082969839133e-01	 1.089145762361150e+00	 1.471041317715794e+00
 4.279114664000359e-01	 1.080878358995994e+00	 1.650272505831275e+00
 2.103947793704027e-01	 1.136946832242470e+00	 2.280678010960486e-01
 2.318927476133841e-01	 1.132757613355583e+00	 3.375506521709652e-01
 2.534297931329875e-01	 1.128134470095247e+00	 4.499044229350453e-01
 2.749937286534168e-01	 1.123072781337407e+00	 5.658333017914441e-01
 2.965720616814860e-01	 1.117568348623156e+00	 6.862520491724713e-01
 3.181520111800335e-01	 1.111617416278387e+00	 8.122830986600034e-01
 3.397205256611547e-01	 1.105216690850265e+00	 9.452512549547700e-01
 3.612643026755938e-01	 1.098363359751981e+00	 1.086675910756498e+00
 3.827698096656624e-01	 1.091055109007124e+00	 1.238260730438820e+00
 4.042233061398991e-01	 1.083290139985767e+00	 1.401880776573511e+00
 4.256108671184228e-01	 1.075067185025862e+00	 1.579567085603140e+00
 2.092575102929634e-01	 1.130801173690648e+00	 1.728307018768209e-01
 2.306392733020653e-01	 1.126634599230349e+00	 2.799909853457323e-01
 2.520599023593032e-01	 1.122036445933752e+00	 3.901431639615198e-01
 2.735072760660478e-01	 1.117002117655853e+00	 5.039778144179901e-01
 2.949689694561039e-01	 1.111527438632116e+00	 6.223930784787040e-01
 3.164322705789981e-01	 1.105608673489374e+00	 7.464918526089521e-01
 3.378841984954095e-01	 1.099242546577243e+00	 8.775766121316622e-01
 3.593115226612140e-01	 1.092426260512083e+00	 1.017141792870219e+00
 3.807007836676839e-01	 1.085157513825465e+00	 1.166863678615012e+00
 4.020383152962855e-01	 1.077434517609783e+00	 1.328587770480339e+00
 4.233102678372992e-01	 1.069256011055220e+00	 1.504313643972175e+00
 2.081202412160386e-01	 1.124655515138340e+00	 1.160660848421173e-01
 2.293857989911705e-01	 1.120511585104538e+00	 2.207205066429010e-01
 2.506900115859708e-01	 1.115938421771609e+00	 3.284587941355070e-01
 2.720208234789778e-01	 1.110931453973597e+00	 4.399583765485344e-01
 2.933658772309874e-01	 1.105486528640341e+00	 5.561013701529596e-01
 3.147125299782146e-01	 1.099599930699615e+00	 6.779718574214810e-01
 3.360478713299224e-01	 1.093268402303480e+00	 8.068508375813057e-01
 3.573587426471188e-01	 1.086489161271470e+00	 9.442087723766837e-01
 3.786317576700375e-01	 1.079259918643138e+00	 1.091695675809575e+00
 3.998533244530722e-01	 1.071578895233201e+00	 1.251128723908923e+00
 4.210096685566655e-01	 1.063444837084068e+00	 1.424477389854766e+00
 2.069829721396285e-01	 1.118509856585547e+00	 5.774582940965844e-02
 2.281323246806998e-01	 1.114388570978151e+00	 1.597107342895812e-01
 2.493201208129905e-01	 1.109840397608818e+00	 2.648223841474566e-01
 2.705343708922070e-01	 1.104860790290642e+00	 3.737455210315490e-01
 2.917627850061367e-01	 1.099445618647832e+00	 4.873468247833945e-01
 3.129927893776829e-01	 1.093591187909107e+00	 6.066922827507775e-01
 3.342115441646936e-01	 1.087294258028975e+00	 7.330422669692607e-01
 3.554059626333085e-01	 1.080552062030143e+00	 8.678442434184968e-01
 3.765627316727232e-01	 1.073362323460143e+00	 1.012723062544193e+00
 3.976683336102592e-01	 1.065723272856019e+00	 1.169468807043567e+00
 4.187090692765215e-01	 1.057633663112406e+00	 1.340022201735483e+00
 2.058457030637330e-01	 1.112364198032268e+00	-2.158964720893053e-03
 2.268788503706531e-01	 1.108265556851188e+00	 9.693236797877924e-02
 2.479502300403623e-01	 1.103742373445379e+00	 1.992041428644220e-01
 2.690479183057353e-01	 1.098790126606985e+00	 3.053088711290530e-01
 2.901596927815515e-01	 1.093404708654589e+00	 4.160983811386125e-01
 3.112730487774031e-01	 1.087582445117850e+00	 5.326212797521919e-01
 3.323752169997228e-01	 1.081320113753728e+00	 6.561181563641496e-01
 3.534531826197831e-01	 1.074614962788100e+00	 7.880144550646686e-01
 3.744937056757413e-01	 1.067464728276480e+00	 9.299109644648358e-01
 3.954833427678466e-01	 1.059867650478237e+00	 1.083571901130116e+00
 4.164084699968673e-01	 1.051822489140233e+00	 1.250910590913805e+00
 2.047084339883523e-01	 1.106218539478505e+00	-6.367799922792594e-02
 2.256253760610303e-01	 1.102142542723649e+00	 3.235526613265627e-02
 2.465803392680860e-01	 1.097644349281292e+00	 1.315733933915282e-01
 2.675614657195627e-01	 1.092719462922627e+00	 2.346171152491623e-01
 2.885566005572319e-01	 1.087363798660611e+00	 3.423239894537216e-01
 3.095533081773752e-01	 1.081573702325846e+00	 4.557259527905946e-01
 3.305388898350104e-01	 1.075345969477739e+00	 5.760446522489879e-01
 3.515004026065428e-01	 1.068677863545342e+00	 7.046844795031764e-01
 3.724246796790915e-01	 1.061567133092149e+00	 8.432232585953676e-01
 3.932983519258346e-01	 1.054012028099855e+00	 9.934005626732336e-01
 4.141078707177027e-01	 1.046011315167551e+00	 1.157103663528262e+00
 4.371138635313860e-01	 1.104123054871417e+00	 1.888265189897355e+00
 4.589967084020292e-01	 1.095206983131104e+00	 2.217169282665989e+00
 4.807827331609159e-01	 1.085819657472461e+00	 2.540833774926750e+00
 5.024572244438421e-01	 1.075961495465320e+00	 2.863031750549710e+00
 5.240053874469326e-01	 1.065633510630440e+00	 3.187755261777787e+00
 5.454123754163056e-01	 1.054837321236962e+00	 3.519184271784475e+00
 5.666633199332340e-01	 1.043575157382950e+00	 3.861652815815102e+00
 5.877433618801858e-01	 1.031849866285923e+00	 4.219612633996103e+00
 6.086376829660081e-01	 1.019664915718898e+00	 4.597594568271666e+00
 6.293315376821046e-01	 1.007024395536815e+00	 4.968222912652653e+00
 6.498102855558567e-01	 9.939330172482528e-01	 5.247935692758132e+00
 4.348132642478140e-01	 1.098311880903327e+00	 1.835429331580799e+00
 4.565809362504701e-01	 1.089442735856025e+00	 2.158746763009745e+00
 4.782522977209434e-01	 1.080104817174145e+00	 2.477224334609590e+00
 4.998127127337895e-01	 1.070298540229784e+00	 2.794517774830922e+00
 5.212474643525224e-01	 1.060024913209378e+00	 3.114497147166511e+00
 5.425417839640710e-01	 1.049285545864866e+00	 3.441216513182212e+00
 5.636808814045438e-01	 1.038082656556951e+00	 3.778880868207818e+00
 5.846499757622907e-01	 1.026419077517798e+00	 4.131810597444678e+00
 6.054343267371657e-01	 1.014298258268986e+00	 4.504403738885134e+00
 6.260192664285125e-01	 1.001724267139904e+00	 4.893495804875538e+00
 6.463902314188320e-01	 9.887017908417167e-01	 5.165782157884559e+00
 4.325126649647315e-01	 1.092500706934726e+00	 1.778172006555587e+00
 4.541651640994911e-01	 1.083678488580530e+00	 2.095793018090617e+00
 4.757218622816225e-01	 1.074389976875500e+00	 2.408962387273723e+00
 4.971682010244404e-01	 1.064635584993993e+00	 2.721219683277513e+00
 5.184895412588481e-01	 1.054416315788130e+00	 3.036314252234600e+00
 5.396711925125844e-01	 1.043733770492639e+00	 3.358175594090377e+00
 5.606984428765937e-01	 1.032590155730869e+00	 3.690881065515932e+00
 5.815565896451080e-01	 1.020988288749625e+00	 4.038621151346986e+00
 6.022309705089870e-01	 1.008931600819053e+00	 4.405662584935339e+00
 6.227069951755153e-01	 9.964241387429874e-01	 4.796309633301619e+00
 6.429701772823128e-01	 9.834705644351802e-01	 5.078427819969086e+00
 4.302120656821389e-01	 1.086689532965615e+00	 1.716463400881140e+00
 4.517493919490924e-01	 1.077914241304621e+00	 2.028282350399129e+00
 4.731914268429529e-01	 1.068675136576525e+00	 2.336026343867203e+00
 4.945236893157948e-01	 1.058972629757951e+00	 2.643119973863908e+00
 5.157316181659092e-01	 1.048807718366695e+00	 2.953193126753830e+00
 5.368006010618459e-01	 1.038181995120283e+00	 3.270052066783866e+00
 5.577160043493840e-01	 1.027097654904702e+00	 3.597647898950167e+00
 5.784632035286376e-01	 1.015557499981405e+00	 3.940042647867916e+00
 5.990276142814724e-01	 1.003564943369099e+00	 4.301373227080894e+00
 6.193947239231132e-01	 9.911240103460658e-01	 4.685813608068509e+00
 6.395501231462982e-01	 9.782393380286440e-01	 4.985847462150175e+00
 4.279114664000359e-01	 1.080878358995994e+00	 1.650272505831275e+00
 4.493336197992739e-01	 1.072149994028297e+00	 1.956187906525320e+00
 4.706609914049351e-01	 1.062960296277222e+00	 2.258393497073419e+00
 4.918791776078523e-01	 1.053309674521655e+00	 2.560200062597944e+00
 5.129736950737062e-01	 1.043199120945074e+00	 2.865119273414483e+00
 5.339300096118552e-01	 1.032630219747797e+00	 3.176835469845644e+00
 5.547335658229146e-01	 1.021605154078453e+00	 3.499174877845089e+00
 5.753698174128794e-01	 1.010126711213138e+00	 3.836072487468982e+00
 5.958242580546216e-01	 9.981982859191234e-01	 4.191536862732983e+00
 6.160824526713058e-01	 9.858238819491389e-01	 4.569613185556145e+00
 6.361300690107894e-01	 9.730081116221079e-01	 4.888014995816177e+00
 4.256108671184228e-01	 1.075067185025862e+00	 1.579567085603140e+00
 4.469178476500356e-01	 1.066385746751557e+00	 1.879481645919351e+00
 4.681305559675688e-01	 1.057245455977589e+00	 2.176039991086842e+00
 4.892346659006134e-01	 1.047646719285106e+00	 2.472440254280802e+00
 5.102157719822389e-01	 1.037590523523266e+00	 2.772077119525661e+00
 5.310594181626130e-01	 1.027078444375181e+00	 3.078514300768862e+00
 5.517511272971855e-01	 1.016112653252120e+00	 3.395454503124417e+00
 5.722764312978337e-01	 1.004695922444825e+00	 3.726707093187048e+00
 5.926209018284351e-01	 9.928316284691274e-01	 4.076153741102293e+00
 6.127701814200934e-01	 9.805237535522067e-01	 4.447712330600193e+00
 6.327100148757860e-01	 9.677768852155717e-01	 4.784903437044058e+00
 4.233102678372992e-01	 1.069256011055220e+00	 1.504313643972175e+00
 4.445020755013773e-01	 1.060621499474403e+00	 1.798134308631775e+00
 4.656001205308540e-01	 1.051530615677628e+00	 2.088940790404690e+00
 4.865901541940780e-01	 1.041983764048305e+00	 2.379819712309541e+00
 5.074578488915072e-01	 1.031981926101272e+00	 2.674049987793944e+00
 5.281888267141184e-01	 1.021526669002434e+00	 2.975075987666865e+00
 5.487686887721968e-01	 1.010620152425703e+00	 3.286478239896621e+00
 5.691830451835000e-01	 9.992651336764637e-01	 3.611941884073820e+00
 5.894175456029119e-01	 9.874649710191102e-01	 3.955223137433340e+00
 6.094579101694759e-01	 9.752236251552688e-01	 4.320114062207142e+00
 6.292899607412877e-01	 9.625456588090355e-01	 4.676484882271175e+00
 4.210096685566655e-01	 1.063444837084068e+00	 1.424477389854770e+00
 4.420863033532995e-01	 1.054857252196834e+00	 1.712115381996580e+00
 4.630696850947906e-01	 1.045815775377336e+00	 1.997069647594142e+00
 4.839456424882462e-01	 1.036320808811250e+00	 2.282316427491923e+00
 5.046999258015112e-01	 1.026373328679092e+00	 2.571020066142034e+00
 5.253182352663721e-01	 1.015974893629559e+00	 2.866506860055475e+00
 5.457862502479482e-01	 1.005127651599203e+00	 3.172236489154751e+00
 5.660896590698790e-01	 9.938343449080557e-01	 3.491771247763861e+00
 5.862141893780529e-01	 9.820983135690723e-01	 3.828743326392709e+00
 6.061456389194535e-01	 9.699234967583259e-01	 4.186820427712390e+00
 6.258699066072946e-01	 9.573144324024995e-01	 4.562730483167996e+00
 4.187090692765215e-01	 1.057633663112406e+00	 1.340022201735483e+00
 4.396705312058017e-01	 1.049093004918850e+00	 1.621393066216637e+00
 4.605392496593788e-01	 1.040100935076716e+00	 1.900399069997549e+00
 4.813011307831175e-01	 1.030657853573942e+00	 2.179907185832681e+00
 5.019420027122508e-01	 1.020764731256725e+00	 2.462968376533726e+00
 5.224476438193738e-01	 1.010423118256553e+00	 2.752792118670891e+00
 5.428038117244400e-01	 9.996351507726206e-01	 3.052718558542415e+00
 5.629962729569702e-01	 9.884035561396007e-01	 3.366188512140316e+00
 5.830108331538579e-01	 9.767316561190134e-01	 3.696711554581341e+00
 6.028333676700259e-01	 9.646233683613780e-01	 4.047832476085141e+00
 6.224498524738070e-01	 9.520832059959630e-01	 4.423096410473753e+00
 4.164084699968673e-01	 1.051822489140233e+00	 1.250910590913799e+00
 4.372547590588844e-01	 1.043328757640451e+00	 1.525934238806560e+00
 4.580088142246186e-01	 1.034386094775767e+00	 1.798900285334920e+00
 4.786566190786925e-01	 1.024994898336382e+00	 2.072567535250722e+00
 4.991840796237262e-01	 1.015156133834171e+00	 2.349874742765358e+00
 5.195770523731235e-01	 1.004871342883417e+00	 2.633915804288760e+00
 5.398213732016722e-01	 9.941426499459538e-01	 2.927912632150450e+00
 5.599028868447736e-01	 9.829727673710987e-01	 3.235185916058140e+00
 5.798074769303267e-01	 9.713649986689333e-01	 3.559124012134563e+00
 5.995210964211934e-01	 9.593232399644248e-01	 3.903150230350124e+00
 6.190297983408248e-01	 9.468519795894269e-01	 4.270688819520045e+00
 4.141078707177027e-01	 1.046011315167551e+00	 1.157103663528262e+00
 4.348389869125469e-01	 1.037564510361637e+00	 1.425704417851623e+00
 4.554783787905097e-01	 1.028671254474488e+00	 1.692543206157441e+00
 4.760121073749708e-01	 1.019331943098569e+00	 1.960271751188861e+00
 4.964261565359374e-01	 1.009547536411432e+00	 2.231717757183026e+00
 5.167064609276211e-01	 9.993195675101514e-01	 2.509860765502751e+00
 5.368389346796447e-01	 9.886501491192041e-01	 2.797805739307210e+00
 5.568095007332894e-01	 9.775419786025497e-01	 3.098754579095530e+00
 5.766041207074594e-01	 9.659983412188325e-01	 3.415975803375695e+00
 5.962088251729557e-01	 9.540231115674662e-01	 3.752772659089167e+00
 6.156097442083479e-01	 9.416207531828905e-01	 4.112449954198580e+00
 6.498102855558567e-01	 9.939330172482528e-01	 5.247935692758142e+00
 6.700599292794668e-01	 9.803957771549096e-01	 5.606557596523718e+00
 6.900656035904075e-01	 9.664189647939483e-01	 5.975813416386275e+00
 7.098131767057972e-01	 9.520091344963337e-01	 6.356037329209527e+00
 7.292887510799975e-01	 9.371734404727102e-01	 6.747445212986072e+00
 7.484786950096572e-01	 9.219196263225543e-01	 7.150129299175437e+00
 7.673696736692042e-01	 9.062560125561581e-01	 7.564053726338114e+00
 7.859486794315763e-01	 8.901914821662110e-01	 7.989051055704003e+00
 8.042030613318019e-01	 8.737354642978392e-01	 8.424819799631944e+00
 8.221205535349499e-01	 8.568979160778017e-01	 8.870923003393827e+00
 8.396893026750000e-01	 8.396893026750000e-01	 9.326787909481684e+00
 6.463902314188320e-01	 9.887017908417167e-01	 5.165782157884562e+00
 6.665332980703340e-01	 9.752357993798492e-01	 5.515609956960308e+00
 6.864336793586804e-01	 9.613325491886883e-01	 5.878286263607214e+00
 7.060773178787946e-01	 9.469985601027209e-01	 6.254068817083858e+00
 7.254503892300148e-01	 9.322409486788521e-01	 6.643089032348883e+00
 7.445393334547979e-01	 9.170674177607722e-01	 7.045346974104542e+00
 7.633308859108623e-01	 9.014862440666145e-01	 7.460707272637051e+00
 7.818121074323422e-01	 8.855062638364749e-01	 7.888896039823531e+00
 7.999704136382918e-01	 8.691368565884007e-01	 8.329498833682859e+00
 8.177936032508053e-01	 8.523879270432204e-01	 8.781959709028740e+00
 8.352698852900002e-01	 8.352698852900002e-01	 9.245581380300811e+00
 6.429701772823128e-01	 9.834705644351802e-01	 5.078427819969090e+00
 6.630066668616108e-01	 9.700758216047888e-01	 5.419665348448111e+00
 6.828017551272778e-01	 9.562461335834281e-01	 5.775999706136807e+00
 7.023414590520412e-01	 9.419879857091084e-01	 6.147612037509035e+00
 7.216120273802159e-01	 9.273084568849942e-01	 6.534549039925262e+00
 7.405999719000660e-01	 9.122152091989904e-01	 6.936718258869259e+00
 7.592920981526022e-01	 8.967164755770705e-01	 7.353884366001239e+00
 7.776755354331539e-01	 8.808210455067382e-01	 7.785666476137796e+00
 7.957377659448016e-01	 8.645382488789618e-01	 8.231536548959145e+00
 8.134666529666659e-01	 8.478779380086393e-01	 8.690818910130101e+00
 8.308504679049998e-01	 8.308504679049998e-01	 9.162690914778338e+00
 6.395501231462982e-01	 9.782393380286440e-01	 4.985847462150179e+00
 6.594800356532982e-01	 9.649158438297281e-01	 5.318703557837706e+00
 6.791698308962000e-01	 9.511597179781679e-01	 5.668938941653260e+00
 6.986056002255367e-01	 9.369774113154957e-01	 6.036657997388959e+00
 7.177736655306000e-01	 9.223759650911364e-01	 6.421822440487469e+00
 7.366606103454610e-01	 9.073630006372082e-01	 6.824246933989763e+00
 7.552533103944238e-01	 8.919467070875267e-01	 7.243595728838672e+00
 7.735389634340116e-01	 8.761358271770018e-01	 7.679380382404057e+00
 7.915051182513319e-01	 8.599396411695227e-01	 8.130958598453635e+00
 8.091397026825312e-01	 8.433679489740582e-01	 8.597534220384619e+00
 8.264310505199999e-01	 8.264310505199999e-01	 9.078158397526259e+00
 6.361300690107894e-01	 9.730081116221079e-01	 4.888014995816177e+00
 6.559534044453951e-01	 9.597558660546671e-01	 5.212703600401051e+00
 6.755379066654469e-01	 9.460733023729081e-01	 5.557088505823804e+00
 6.948697413992811e-01	 9.319668369218831e-01	 5.921197160421096e+00
 7.139353036811673e-01	 9.174434732972785e-01	 6.304906023462164e+00
 7.327212487909834e-01	 9.025107920754262e-01	 6.707936501348414e+00
 7.512145226363264e-01	 8.871769385979825e-01	 7.129851950243067e+00
 7.694023914349153e-01	 8.714506088472656e-01	 7.570055796750143e+00
 7.872724705578831e-01	 8.553410334600839e-01	 8.027790817296868e+00
 8.048127523984018e-01	 8.388579599394769e-01	 8.502139605169775e+00
 8.220116331350000e-01	 8.220116331350000e-01	 8.992026241865327e+00
 6.327100148757860e-01	 9.677768852155717e-01	 4.784903437044058e+00
 6.524267732379025e-01	 9.545958882796065e-01	 5.101643698977287e+00
 6.719059824350182e-01	 9.409868867676480e-01	 5.440432254411577e+00
 6.911338825732743e-01	 9.269562625282705e-01	 5.801219432416405e+00
 7.100969418319178e-01	 9.125109815034207e-01	 6.183796151704594e+00
 7.287818872366335e-01	 8.976585835136446e-01	 6.587790176658610e+00
 7.471757348783112e-01	 8.824071701084386e-01	 7.012663482391138e+00
 7.652658194358649e-01	 8.667653905175290e-01	 7.457710778224579e+00
 7.830398228644541e-01	 8.507424257506453e-01	 7.922059227681208e+00
 8.004858021142776e-01	 8.343479709048957e-01	 8.404669391059553e+00
 8.175922157499997e-01	 8.175922157500000e-01	 8.904337404113850e+00
 6.292899607412877e-01	 9.625456588090355e-01	 4.676484882271179e+00
 6.489001420308200e-01	 9.494359105045460e-01	 4.985501262440398e+00
 6.682740582049143e-01	 9.359004711623879e-01	 5.318953344800777e+00
 6.873980237475168e-01	 9.219456881346578e-01	 5.676714146138029e+00
 7.062585799828511e-01	 9.075784897095625e-01	 6.058488749907347e+00
 7.248425256824108e-01	 8.928063749518624e-01	 6.463810881689605e+00
 7.431369471203774e-01	 8.776374016188946e-01	 6.892040636821568e+00
 7.611292474368603e-01	 8.620801721877924e-01	 7.342363407365587e+00
 7.788071751710460e-01	 8.461438180412068e-01	 7.813790043942584e+00
 7.961588518301582e-01	 8.298379818703144e-01	 8.305158275639121e+00
 8.131727983649999e-01	 8.131727983649999e-01	 8.815135398343664e+00
 6.258699066072946e-01	 9.573144324024995e-01	 4.562730483167996e+00
 6.453735108241478e-01	 9.442759327294854e-01	 4.864252863458645e+00
 6.646421339751349e-01	 9.308140555571276e-01	 5.192634216915030e+00
 6.836621649220078e-01	 9.169351137410451e-01	 5.547670045645283e+00
 7.024202181339679e-01	 9.026459979157049e-01	 5.928979292628951e+00
 7.209031641283153e-01	 8.879541663900805e-01	 6.336001236233846e+00
 7.390981593625252e-01	 8.728676331293509e-01	 6.767993580592560e+00
 7.569926754379019e-01	 8.573949538580562e-01	 7.224031786787396e+00
 7.745745274776582e-01	 8.415452103317679e-01	 7.703009677811500e+00
 7.918319015460443e-01	 8.253279928357332e-01	 8.203641337641782e+00
 8.087533809799997e-01	 8.087533809799997e-01	 8.724464311619352e+00
 6.224498524738070e-01	 9.520832059959630e-01	 4.423096410473753e+00
 6.418468796178857e-01	 9.391159549544248e-01	 4.737874215522088e+00
 6.610102097456801e-01	 9.257276399518675e-01	 5.061456573506387e+00
 6.799263060967479e-01	 9.119245393474323e-01	 5.414075270119600e+00
 6.985818562852678e-01	 8.977135061218469e-01	 5.795262791926598e+00
 7.169638025743473e-01	 8.831019578282984e-01	 6.204363549812048e+00
 7.350593716047545e-01	 8.680978646398069e-01	 6.640532332312709e+00
 7.528561034389892e-01	 8.527097355283200e-01	 7.102734041787798e+00
 7.703418797842906e-01	 8.369466026223291e-01	 7.589744743835315e+00
 7.875049512619351e-01	 8.208180038011519e-01	 8.100154047420405e+00
 8.043339635950000e-01	 8.043339635950000e-01	 8.632368819739197e+00
 6.190297983408248e-01	 9.468519795894269e-01	 4.270688819520045e+00
 6.383202484120336e-01	 9.339559771793643e-01	 4.606340149208964e+00
 6.573782855165503e-01	 9.206412243466077e-01	 4.925401359792192e+00
 6.761904472717370e-01	 9.069139649538197e-01	 5.275917337156056e+00
 6.947434944367508e-01	 8.927810143279887e-01	 5.657333784581255e+00
 7.130244410205064e-01	 8.782497492665162e-01	 6.068899813101329e+00
 7.310205838470655e-01	 8.633280961502632e-01	 6.509666758040186e+00
 7.487195314401226e-01	 8.480245171985834e-01	 6.978488320973828e+00
 7.661092320909435e-01	 8.323479949128902e-01	 7.474022064981322e+00
 7.831780009778315e-01	 8.163080147665708e-01	 7.994732277764966e+00
 7.999145462100000e-01	 7.999145462099999e-01	 8.538894203499101e+00
 6.156097442083479e-01	 9.416207531828905e-01	 4.112449954198580e+00
 6.347936172065917e-01	 9.287959994043036e-01	 4.469624587659775e+00
 6.537463612877449e-01	 9.155548087413472e-01	 4.784448742411870e+00
 6.724545884469753e-01	 9.019033905602073e-01	 5.133183125496821e+00
 6.909051325884170e-01	 8.878485225341313e-01	 5.515186318894424e+00
 7.090850794667932e-01	 8.733975407047344e-01	 5.929611689079412e+00
 7.269817960894578e-01	 8.585583276607190e-01	 6.375406567044823e+00
 7.445829594413018e-01	 8.433392988688471e-01	 6.851312796909944e+00
 7.618765843976170e-01	 8.277493872034515e-01	 7.355868678425420e+00
 7.788510506937329e-01	 8.117980257319894e-01	 7.887412315082607e+00
 7.954951288250000e-01	 7.954951288249998e-01	 8.444086365497691e+00
 8.396893026750000e-01	 8.396893026750000e-01	 9.326787909481684e+00
 8.568979073238981e-01	 8.221205668737417e-01	 9.710588678770343e+00
 8.737354293854029e-01	 8.042031145719987e-01	 1.010830959217930e+01
 8.901914038573249e-01	 7.859487989337566e-01	 1.051821724977443e+01
 9.062558737950196e-01	 7.673698855531539e-01	 1.093842707277903e+01
 9.219194102501908e-01	 7.484790251165743e-01	 1.136691196395524e+01
 9.371731304409896e-01	 7.292892249357967e-01	 1.180151207891926e+01
 9.520087140812531e-01	 7.098138194856374e-01	 1.223994562867754e+01
 9.664184178081811e-01	 6.900664400845540e-01	 1.267982062278893e+01
 9.803950876596084e-01	 6.700609838606032e-01	 1.311864745284104e+01
 9.939321695640972e-01	 6.498115821479387e-01	 1.355385220751317e+01
 8.352698852900002e-01	 8.352698852900002e-01	 9.245581380300811e+00
 8.523879183353902e-01	 8.177936165193931e-01	 9.639560497410299e+00
 8.691368218597139e-01	 7.999704665982768e-01	 1.004519815609685e+01
 8.855061859397407e-01	 7.818122263055637e-01	 1.046077392921677e+01
 9.014861060357975e-01	 7.633310966796332e-01	 1.088442536005243e+01
 9.170672028256317e-01	 7.445396618243100e-01	 1.131415648000056e+01
 9.322406402788779e-01	 7.254508605918365e-01	 1.174784738498042e+01
 9.469981419003511e-01	 7.060779572755831e-01	 1.218326479261245e+01
 9.613320050817935e-01	 6.864345114502260e-01	 1.261807349178874e+01
 9.752351135134703e-01	 6.665343471010432e-01	 1.304984858695585e+01
 9.887009476190566e-01	 6.463915211867451e-01	 1.347608843140076e+01
 8.308504679049998e-01	 8.308504679049998e-01	 9.162690914778338e+00
 8.478779293468822e-01	 8.134666661650491e-01	 9.566818296174537e+00
 8.645382143340248e-01	 7.957378186245752e-01	 9.980333908541130e+00
 8.808209680221561e-01	 7.776756536774165e-01	 1.040153037712322e+01
 8.967163382765755e-01	 7.592923078061945e-01	 1.082856745628916e+01
 9.122149954010728e-01	 7.406002985321731e-01	 1.125948040429137e+01
 9.273081501167657e-01	 7.216124962480598e-01	 1.169218936455238e+01
 9.419875697194492e-01	 7.023420950657777e-01	 1.212450967729436e+01
 9.562455923554057e-01	 6.828025828162227e-01	 1.255416303534605e+01
 9.700751393673324e-01	 6.630077103418929e-01	 1.297878938907905e+01
 9.834697256740160e-01	 6.429714602260567e-01	 1.339595949778028e+01
 8.264310505199999e-01	 8.264310505199999e-01	 9.078158397526259e+00
 8.433679403583743e-01	 8.091397158107105e-01	 9.492403661470064e+00
 8.599396068083356e-01	 7.915051706508940e-01	 9.913757829218108e+00
 8.761357501045718e-01	 7.735390810493158e-01	 1.034052665948806e+01
 8.919465705173534e-01	 7.552535189328372e-01	 1.077089220909969e+01
 9.073627879765137e-01	 7.366609352401634e-01	 1.120292106455998e+01
 9.223756599546534e-01	 7.177741319044658e-01	 1.163457352799790e+01
 9.369769975385480e-01	 6.986062328562216e-01	 1.206371368303282e+01
 9.511591796290180e-01	 6.791706541825441e-01	 1.248812025662073e+01
 9.649151652211942e-01	 6.594810735831532e-01	 1.290549818446465e+01
 9.782385037289751e-01	 6.395513992658737e-01	 1.331349078030474e+01
 8.220116331350000e-01	 8.220116331350000e-01	 8.992026241865327e+00
 8.388579513698659e-01	 8.048127654563768e-01	 9.416358701945390e+00
 8.553409992826465e-01	 7.872725226772332e-01	 9.845511407771845e+00
 8.714505321869875e-01	 7.694025084212605e-01	 1.027780333413433e+01
 8.871768027581314e-01	 7.512147300595617e-01	 1.071143893405104e+01
 9.025105805519545e-01	 7.327215719482812e-01	 1.114451622691972e+01
 9.174431697925415e-01	 7.139357675610550e-01	 1.157503578885559e+01
 9.319664253576462e-01	 6.948703706469138e-01	 1.200091057256428e+01
 9.460727669026303e-01	 6.755387255491900e-01	 1.241997647500913e+01
 9.597551910750562e-01	 6.559544368248232e-01	 1.283000356308424e+01
 9.730072817839345e-01	 6.361313383061959e-01	 1.322870786062460e+01
 8.175922157499997e-01	 8.175922157500000e-01	 8.904337404113850e+00
 8.343479623813580e-01	 8.004858151020483e-01	 9.338726062604845e+00
 8.507423917569572e-01	 7.830398747035930e-01	 9.775636657566903e+00
 8.667653142694028e-01	 7.652659357932511e-01	 1.021340146400625e+01
 8.824070349989090e-01	 7.471759411863675e-01	 1.065024742731422e+01
 8.976583731273956e-01	 7.287822086565262e-01	 1.108430410771347e+01
 9.125106796304295e-01	 7.100974032178277e-01	 1.151361247473590e+01
 9.269558531767444e-01	 6.911345084378556e-01	 1.193613448084760e+01
 9.409863541762425e-01	 6.719067969161607e-01	 1.234976333469062e+01
 9.545952169289182e-01	 6.524278000669037e-01	 1.275233438678188e+01
 9.677760598388937e-01	 6.327112773470235e-01	 1.314163653400892e+01
 8.131727983649999e-01	 8.131727983649999e-01	 8.815135398343664e+00
 8.298379733928496e-01	 7.961588647477249e-01	 9.259548939383569e+00
 8.461437842312682e-01	 7.788072267299734e-01	 9.704176129919349e+00
 8.620800963518188e-01	 7.611293631652879e-01	 1.014736263089522e+01
 8.776372672396869e-01	 7.431371523132551e-01	 1.058735797872439e+01
 8.928061657028366e-01	 7.248428453648987e-01	 1.102232338574791e+01
 9.075781894683173e-01	 7.062590388747831e-01	 1.145034033857371e+01
 9.219452809958426e-01	 6.873986462290459e-01	 1.186941992517862e+01
 9.358999414498551e-01	 6.682748682834561e-01	 1.227751281345354e+01
 9.494352427827801e-01	 6.489011633093943e-01	 1.267251979666098e+01
 9.625448378938530e-01	 6.292912163883564e-01	 1.305230281515129e+01
 8.087533809799997e-01	 8.087533809799997e-01	 8.724464311619352e+00
 8.253279844043417e-01	 7.918319143934071e-01	 9.178871094200254e+00
 8.415451767055789e-01	 7.745745787563737e-01	 9.631172928795579e+00
 8.573948784342343e-01	 7.569927905373703e-01	 1.007972894961633e+01
 8.728674994804649e-01	 7.390983634402239e-01	 1.052281138526864e+01
 8.879539582782775e-01	 7.209034820733985e-01	 1.095861321492906e+01
 9.026456993062058e-01	 7.024206745319221e-01	 1.138525657024899e+01
 9.169347088149410e-01	 6.836627840204855e-01	 1.180080181563649e+01
 9.308135287234677e-01	 6.646429396510760e-01	 1.220325723180991e+01
 9.442752686366422e-01	 6.453745265522948e-01	 1.259058922071524e+01
 9.573136159488124e-01	 6.258711554301946e-01	 1.296073294416376e+01
 8.043339635950000e-01	 8.043339635950000e-01	 8.632368819739197e+00
 8.208179954158337e-01	 7.875049640390939e-01	 9.096736870506145e+00
 8.369465691798896e-01	 7.703419307827946e-01	 9.556670725994362e+00
 8.527096605166501e-01	 7.528562179094987e-01	 1.001054308265153e+01
 8.680977317212426e-01	 7.350595745672746e-01	 1.045664896501897e+01
 8.831017508537184e-01	 7.169641187820255e-01	 1.089321323731491e+01
 8.977132091440937e-01	 6.985823101892440e-01	 1.131839880859051e+01
 9.119241366340396e-01	 6.799269218121738e-01	 1.173031546587461e+01
 9.257271159970799e-01	 6.610110110190206e-01	 1.212702926241114e+01
 9.391152944905043e-01	 6.418478897956057e-01	 1.250657238170965e+01
 9.520823940037716e-01	 6.224510944725381e-01	 1.297654931001609e+01
 7.999145462100000e-01	 7.999145462099999e-01	 8.538894203499101e+00
 8.163080064273256e-01	 7.831780136847858e-01	 9.013191209349369e+00
 8.323479616542008e-01	 7.661092828092362e-01	 9.480713776832957e+00
 8.480244425990656e-01	 7.487196452816733e-01	 9.939848255278728e+00
 8.633279639620205e-01	 7.310207856944069e-01	 1.038891257152688e+01
 8.782495434291594e-01	 7.130247554907801e-01	 1.082616359659973e+01
 8.927807189819815e-01	 6.947439458467490e-01	 1.124980515377827e+01
 9.069135644531376e-01	 6.761910596041111e-01	 1.165799660426890e+01
 9.206407032706923e-01	 6.573790823872897e-01	 1.204886193977562e+01
 9.339553203443663e-01	 6.383212530393266e-01	 1.242049930532383e+01
 9.468511720587310e-01	 6.190310335153869e-01	 1.303154323205847e+01
 7.954951288250000e-01	 7.954951288249998e-01	 8.444086365497691e+00
 8.117980174388175e-01	 7.788510633304829e-01	 8.928279665975147e+00
 8.277493541285117e-01	 7.618766348356980e-01	 9.403346936356551e+00
 8.433392246814813e-01	 7.445830726538936e-01	 9.867688271205045e+00
 8.585581962027985e-01	 7.269819968216206e-01	 1.031964460869748e+01
 8.733973360046002e-01	 7.090853921996618e-01	 1.075750495204872e+01
 8.878482288198695e-01	 6.909055815044373e-01	 1.117951418015869e+01
 9.019029922722358e-01	 6.724551973962973e-01	 1.158388138543835e+01
 9.155542905443046e-01	 6.537471537558835e-01	 1.196878867034035e+01
 9.287953461982282e-01	 6.347946162834576e-01	 1.233240032856581e+01
 9.416199501136904e-01	 6.156109725587410e-01	 1.308885405053092e+01
 9.939321695640972e-01	 6.498115821479387e-01	 1.355385220751317e+01
 1.007023717819563e+00	 6.293325684616293e-01	 1.349243797827654e+01
 1.019664401547349e+00	 6.086384461952835e-01	 1.398285860258240e+01
 1.031849509122004e+00	 5.877438561902473e-01	 1.456383753699122e+01
 1.043574950589053e+00	 5.666635443231887e-01	 1.507959840878546e+01
 1.054837258093266e+00	 5.454123292515076e-01	 1.553227622536509e+01
 1.065633584352145e+00	 5.240050704560125e-01	 1.592401347814141e+01
 1.075961699219711e+00	 5.024566367146296e-01	 1.625694844623222e+01
 1.085819984395729e+00	 4.807818751352932e-01	 1.653320457293279e+01
 1.095207426344859e+00	 4.589955808697619e-01	 1.675488094785788e+01
 1.104123607498825e+00	 4.371124676229823e-01	 1.692404391209949e+01
 9.887009476190566e-01	 6.463915211867451e-01	 1.347608843140076e+01
 1.001723592989584e+00	 6.260202917828817e-01	 1.340459842388190e+01
 1.014297746803603e+00	 6.054350859494450e-01	 1.401155735752200e+01
 1.026418722233689e+00	 5.846504674707200e-01	 1.459057517175152e+01
 1.038082450851442e+00	 5.636811046134986e-01	 1.510575355186787e+01
 1.049285483053505e+00	 5.425417380422455e-01	 1.555906358025137e+01
 1.060024986543074e+00	 5.212471490299758e-01	 1.595248409246618e+01
 1.070298742911783e+00	 4.998121280978888e-01	 1.628799069738976e+01
 1.080105142376764e+00	 4.782514442112450e-01	 1.656754583730520e+01
 1.089443176737076e+00	 4.565798146525832e-01	 1.679308991738035e+01
 1.098312430622169e+00	 4.348118756862965e-01	 1.696653351889482e+01
 9.834697256740160e-01	 6.429714602260567e-01	 1.339595949778028e+01
 9.964234681596009e-01	 6.227080151047291e-01	 1.340144845054438e+01
 1.008931092059835e+00	 6.022317257042701e-01	 1.404316262160533e+01
 1.020987935345326e+00	 5.815570787519054e-01	 1.462064632289273e+01
 1.032589951113749e+00	 5.606986649045488e-01	 1.513568687209894e+01
 1.043733708013614e+00	 5.396711468337314e-01	 1.559009077572343e+01
 1.054416388733817e+00	 5.184892276046745e-01	 1.598567250213331e+01
 1.064635786603601e+00	 4.971676194818513e-01	 1.632424422111950e+01
 1.074390300357470e+00	 4.757210132878483e-01	 1.660760655094556e+01
 1.083678927128878e+00	 4.541640484359845e-01	 1.683754033881529e+01
 1.092501253745004e+00	 4.325112837501006e-01	 1.701579948609973e+01
 9.782385037289751e-01	 6.395513992658737e-01	 1.331349078030475e+01
 9.911233433296120e-01	 6.193957384271715e-01	 1.343867907267343e+01
 1.003564437316047e+00	 5.990283654597595e-01	 1.407771555805919e+01
 1.015557148456916e+00	 5.784636900338032e-01	 1.465410028753468e+01
 1.027097451375971e+00	 5.577162251963393e-01	 1.516945593611426e+01
 1.038181932973593e+00	 5.368005556259656e-01	 1.562542376529520e+01
 1.048807790924374e+00	 5.157313061801091e-01	 1.602365314673602e+01
 1.058972830295167e+00	 4.945231108665172e-01	 1.636579202429536e+01
 1.068675458337847e+00	 4.731905823651034e-01	 1.665347835143450e+01
 1.077914677520265e+00	 4.517482822199662e-01	 1.688833252638091e+01
 1.086690076867327e+00	 4.302106918143943e-01	 1.707195083334154e+01
 9.730072817839345e-01	 6.361313383061959e-01	 1.322870786062460e+01
 9.858232184996177e-01	 6.160834617502087e-01	 1.347847417235161e+01
 9.981977825722382e-01	 5.958250052159123e-01	 1.411525786285050e+01
 1.010126361568459e+00	 5.753703013164130e-01	 1.469098706508064e+01
 1.021604951638111e+00	 5.547337854888702e-01	 1.520711918668811e+01
 1.032630157933442e+00	 5.339299644189478e-01	 1.566512955642635e+01
 1.043199193114743e+00	 5.129733847562794e-01	 1.606650170120768e+01
 1.053309873986479e+00	 4.918786022518866e-01	 1.641271853374465e+01
 1.062960616317895e+00	 4.706601514430098e-01	 1.670525448376644e+01
 1.072150427911236e+00	 4.493325160045281e-01	 1.694556859164560e+01
 1.080878899989141e+00	 4.279100998791777e-01	 1.713509856963882e+01
 9.677760598388937e-01	 6.327112773470235e-01	 1.314163653400892e+01
 9.805230936696182e-01	 6.127711850738410e-01	 1.352086767849568e+01
 9.928311278284081e-01	 5.926216449727295e-01	 1.415583177908508e+01
 1.004695574679956e+00	 5.722769125997353e-01	 1.473135737619788e+01
 1.016112451900167e+00	 5.517513457821414e-01	 1.524873596641258e+01
 1.027078382893160e+00	 5.310593732126779e-01	 1.570927623900765e+01
 1.037590595304926e+00	 5.102154633331850e-01	 1.611429510920953e+01
 1.047646917677539e+00	 4.892340936379594e-01	 1.646510963462470e+01
 1.057245774297613e+00	 4.681297205215678e-01	 1.676302984379317e+01
 1.066386178301793e+00	 4.469167497896700e-01	 1.700935249210514e+01
 1.075067723110444e+00	 4.256095079444508e-01	 1.720535574716877e+01
 9.625448378938530e-01	 6.292912163883564e-01	 1.305230281515129e+01
 9.752229688396138e-01	 6.094589083980683e-01	 1.356589390809379e+01
 9.874644730845572e-01	 5.894182847302103e-01	 1.419948011187509e+01
 9.992647877914053e-01	 5.691835238837699e-01	 1.477526268241729e+01
 1.010619952162139e+00	 5.487689060761527e-01	 1.529436654214953e+01
 1.021526607852750e+00	 5.281887820071562e-01	 1.575793301477445e+01
 1.031981997494924e+00	 5.074575419108267e-01	 1.616711161760674e+01
 1.041983961368346e+00	 4.865895850247358e-01	 1.652305271005194e+01
 1.051530932277003e+00	 4.655992896007773e-01	 1.682690102308412e+01
 1.060621928691935e+00	 4.445009835753922e-01	 1.707979008134372e+01
 1.069256546231237e+00	 4.233089160102137e-01	 1.728283751678779e+01
 9.573136159488124e-01	 6.258711554301946e-01	 1.296073294416376e+01
 9.699228440096039e-01	 6.061466317228905e-01	 1.361358757680896e+01
 9.820978183406850e-01	 5.862149244883549e-01	 1.424624624369473e+01
 9.938340009028072e-01	 5.660901351685169e-01	 1.482275520637548e+01
 1.005127452424029e+00	 5.457864663709044e-01	 1.534407213028362e+01
 1.015974832812209e+00	 5.253181908023824e-01	 1.581117022768520e+01
 1.026373399684734e+00	 5.046996204892039e-01	 1.622503081207552e+01
 1.036321005058900e+00	 4.839450764122153e-01	 1.658663668202912e+01
 1.045816090256063e+00	 4.630688586806381e-01	 1.689696635525744e+01
 1.054857679081662e+00	 4.420852173616946e-01	 1.715698916083964e+01
 1.063445369351519e+00	 4.210083240764663e-01	 1.736766118537255e+01
 9.520823940037716e-01	 6.224510944725381e-01	 1.297654931001609e+01
 9.646227191795885e-01	 6.028343550483075e-01	 1.366398380993134e+01
 9.767311635967922e-01	 5.830115642471637e-01	 1.429617415024171e+01
 9.884032140141624e-01	 5.629967464539760e-01	 1.487388795272435e+01
 9.996349526858345e-01	 5.428040266663967e-01	 1.539791492280816e+01
 1.010423057771539e+00	 5.224475995983566e-01	 1.586905939530113e+01
 1.020764801874358e+00	 5.019416990683170e-01	 1.628813365388315e+01
 1.030658048749201e+00	 4.813005678003984e-01	 1.665595205372294e+01
 1.040101248234794e+00	 4.605384277611508e-01	 1.697332596383853e+01
 1.049093429470974e+00	 4.396694511485774e-01	 1.724105953347873e+01
 1.057634192471291e+00	 4.187077321432084e-01	 1.745994627505115e+01
 9.468511720587310e-01	 6.190310335153869e-01	 1.303154323205847e+01
 9.593225943495680e-01	 5.995220783743194e-01	 1.371711815369410e+01
 9.713645088528783e-01	 5.798082040066365e-01	 1.434930841682486e+01
 9.829724271254705e-01	 5.599033577401478e-01	 1.492871472973381e+01
 9.941424529475568e-01	 5.398215869626289e-01	 1.545595811427558e+01
 1.004871282730738e+00	 5.195770083950789e-01	 1.593167324120626e+01
 1.015156204063796e+00	 4.991837776481655e-01	 1.635650251788808e+01
 1.024995092439249e+00	 4.786560591892849e-01	 1.673109095314229e+01
 1.034386406213196e+00	 4.580079968423147e-01	 1.705608181170483e+01
 1.043329179859871e+00	 4.372536849360401e-01	 1.733211305884219e+01
 1.051823015590553e+00	 4.164071402104405e-01	 1.755981458439798e+01
 9.416199501136904e-01	 6.156109725587410e-01	 1.308885405053093e+01
 9.540224695195425e-01	 5.962098017009262e-01	 1.377302658696627e+01
 9.659978541089433e-01	 5.766048437667730e-01	 1.440569425529718e+01
 9.775416402367315e-01	 5.568099690270316e-01	 1.498729017161419e+01
 9.886499532091959e-01	 5.368391472596017e-01	 1.551826592964643e+01
 9.993195076898076e-01	 5.167064171925493e-01	 1.599908572850794e+01
 1.009547606253047e+00	 4.964258562287497e-01	 1.643022123180615e+01
 1.019332136129044e+00	 4.760115505788748e-01	 1.681214717827292e+01
 1.028671564191268e+00	 4.554775659241303e-01	 1.714533775217914e+01
 1.037564930248352e+00	 4.348379187240831e-01	 1.743026371033668e+01
 1.046011838709305e+00	 4.141065482781622e-01	 1.766739025166848e+01
 1.104123607498825e+00	 4.371124676229823e-01	 1.692404391209949e+01
 1.112568695822117e+00	 4.151471390639289e-01	 1.732009328321694e+01
 1.120543432830269e+00	 3.931140612393638e-01	 1.768152109240403e+01
 1.128049120153916e+00	 3.710275360783328e-01	 1.800759740750436e+01
 1.135087604746951e+00	 3.489016760664016e-01	 1.829756810192047e+01
 1.141661262843413e+00	 3.267503801639192e-01	 1.855066106947295e+01
 1.147772982769477e+00	 3.045873110293171e-01	 1.876609288121942e+01
 1.153426146719838e+00	 2.824258735998901e-01	 1.894307578677110e+01
 1.158624611609314e+00	 2.602791950729820e-01	 1.908082496208335e+01
 1.163372689111265e+00	 2.381601063211083e-01	 1.917856590656343e+01
 1.167675124994303e+00	 2.160811247653200e-01	 1.923554189454018e+01
 1.098312430622169e+00	 4.348118756862965e-01	 1.696653351889481e+01
 1.106713071112472e+00	 4.129621541198925e-01	 1.737670701057786e+01
 1.114645835820766e+00	 3.910450398629937e-01	 1.775164878553159e+01
 1.122112019526998e+00	 3.690747595713358e-01	 1.809064114886124e+01
 1.129113459464256e+00	 3.470653514542461e-01	 1.839294527685942e+01
 1.135652519360083e+00	 3.250306413196509e-01	 1.865780723995073e+01
 1.141732072338939e+00	 3.029842199172547e-01	 1.888446445242934e+01
 1.147355482794498e+00	 2.809394216320510e-01	 1.907215245397678e+01
 1.152526587342026e+00	 2.589093045708730e-01	 1.922011192740856e+01
 1.157249674961867e+00	 2.369066320753287e-01	 1.932759585795518e+01
 1.161529466444907e+00	 2.149438556853072e-01	 1.939387674154352e+01
 1.092501253745004e+00	 4.325112837501006e-01	 1.701579948609973e+01
 1.100857446402227e+00	 4.107771691762563e-01	 1.744000614685220e+01
 1.108748238810594e+00	 3.889760184869557e-01	 1.782837678324294e+01
 1.116174918899365e+00	 3.671219830646240e-01	 1.818020610757534e+01
 1.123139314180819e+00	 3.452290268423488e-01	 1.849477072468098e+01
 1.129643775876004e+00	 3.233109024756347e-01	 1.877133496418956e+01
 1.135691161907668e+00	 3.013811288054579e-01	 1.900915712467886e+01
 1.141284818868456e+00	 2.794529696645111e-01	 1.920749603711772e+01
 1.146428563074090e+00	 2.575394140691160e-01	 1.936561785449591e+01
 1.151126660811894e+00	 2.356531578299732e-01	 1.948280297538139e+01
 1.155383807895026e+00	 2.138065866058090e-01	 1.955835301126620e+01
 1.086690076867327e+00	 4.302106918143943e-01	 1.707195083334154e+01
 1.095001821691382e+00	 4.085921842330206e-01	 1.751009819693614e+01
 1.102850641799754e+00	 3.869069971112497e-01	 1.791181098961388e+01
 1.110237818271018e+00	 3.651692065581969e-01	 1.827639650426346e+01
 1.117165168896640e+00	 3.433927022307097e-01	 1.860314690362177e+01
 1.123635032391178e+00	 3.215911636318702e-01	 1.889134486308625e+01
 1.129650251475661e+00	 2.997780376939266e-01	 1.914026961074838e+01
 1.135214154941715e+00	 2.779665176972704e-01	 1.934920327446213e+01
 1.140330538805505e+00	 2.561695235677109e-01	 1.951743744525996e+01
 1.145003646661344e+00	 2.343996835850416e-01	 1.964427986726523e+01
 1.149238149344660e+00	 2.126693175268256e-01	 1.972906116633000e+01
 1.080878899989141e+00	 4.279100998791777e-01	 1.713509856963882e+01
 1.089146196979938e+00	 4.064071992901853e-01	 1.758709262884674e+01
 1.096953044788247e+00	 3.848379757358760e-01	 1.800205924518022e+01
 1.104300717641954e+00	 3.632164300520546e-01	 1.837931846900345e+01
 1.111191023611719e+00	 3.415563776193288e-01	 1.871817815409428e+01
 1.117626288905603e+00	 3.198714247883577e-01	 1.901793941219349e+01
 1.123609341042921e+00	 2.981749465826610e-01	 1.927790245037050e+01
 1.129143491014272e+00	 2.764800657303287e-01	 1.949737270339333e+01
 1.134232514536273e+00	 2.547996330666579e-01	 1.967566717280933e+01
 1.138880632510218e+00	 2.331462093405340e-01	 1.981212088526690e+01
 1.143092490793807e+00	 2.115320484483569e-01	 1.990609338464843e+01
 1.075067723110444e+00	 4.256095079444508e-01	 1.720535574716877e+01
 1.083290572267895e+00	 4.042222143477504e-01	 1.767110092677943e+01
 1.091055447776072e+00	 3.827689543608347e-01	 1.809923137927462e+01
 1.098363617012176e+00	 3.612636535461972e-01	 1.848908009294126e+01
 1.105216878326057e+00	 3.397200530082061e-01	 1.883997074955623e+01
 1.111617545419281e+00	 3.181516859450971e-01	 1.915122299184560e+01
 1.117568430609446e+00	 2.965718554716610e-01	 1.942215805960717e+01
 1.123072827086128e+00	 2.749936137636861e-01	 1.965210470903456e+01
 1.128134490266393e+00	 2.534297425659569e-01	 1.984040532931672e+01
 1.132757618358517e+00	 2.318927350964504e-01	 1.998642217139828e+01
 1.136946832242470e+00	 2.103947793704027e-01	 2.008954360578569e+01
 1.069256546231237e+00	 4.233089160102137e-01	 1.728283751678779e+01
 1.077434947555251e+00	 4.020372294057158e-01	 1.776223664589520e+01
 1.085157850763229e+00	 3.806999329861255e-01	 1.820343926406997e+01
 1.092426516381683e+00	 3.593108770406246e-01	 1.860579148158077e+01
 1.099242733039653e+00	 3.378837283973416e-01	 1.896863294903915e+01
 1.105608801932210e+00	 3.164319471020883e-01	 1.929130193891881e+01
 1.111527520175237e+00	 2.949687643609266e-01	 1.957314078183676e+01
 1.117002163157283e+00	 2.735071617973426e-01	 1.981350157445928e+01
 1.122036465995865e+00	 2.520598520656079e-01	 2.001175207545003e+01
 1.126634604206239e+00	 2.306392608527907e-01	 2.016728170667362e+01
 1.130801173690648e+00	 2.092575102929634e-01	 2.027950757882775e+01
 1.063445369351519e+00	 4.210083240764663e-01	 1.736766118537255e+01
 1.071579322842008e+00	 3.998522444640817e-01	 1.786061546890458e+01
 1.079260253749718e+00	 3.786309116117484e-01	 1.831479687039467e+01
 1.086489415750475e+00	 3.573581005353372e-01	 1.872956480982089e+01
 1.093268587752507e+00	 3.360474037867352e-01	 1.910427505139890e+01
 1.099600058444391e+00	 3.147122082593315e-01	 1.943828460028895e+01
 1.105486609740293e+00	 2.933656732504578e-01	 1.973095694041308e+01
 1.110931499227738e+00	 2.720207098312984e-01	 1.998166753254765e+01
 1.115938441724688e+00	 2.506899615656109e-01	 2.018980949142419e+01
 1.120511590053385e+00	 2.293857866095551e-01	 2.035479936135571e+01
 1.124655515138340e+00	 2.081202412160386e-01	 2.047608291182286e+01
 1.057634192471291e+00	 4.187077321432084e-01	 1.745994627505115e+01
 1.065723698128166e+00	 3.976672595228479e-01	 1.796635526451668e+01
 1.073362656735540e+00	 3.765618902377037e-01	 1.843342032538810e+01
 1.080552315118551e+00	 3.554053240303344e-01	 1.886051437880714e+01
 1.087294442464619e+00	 3.342110791763871e-01	 1.924700945135494e+01
 1.093591314955824e+00	 3.129924694168265e-01	 1.959228138805087e+01
 1.099445699304615e+00	 2.917625821402546e-01	 1.989571489306029e+01
 1.104860835297491e+00	 2.705342578655530e-01	 2.015670881955284e+01
 1.109840417452864e+00	 2.493200710659659e-01	 2.037468162973594e+01
 1.114388575899955e+00	 2.281323123667434e-01	 2.054907694685815e+01
 1.118509856585547e+00	 2.069829721396285e-01	 2.067936912285188e+01
 1.051823015590553e+00	 4.164071402104405e-01	 1.755981458439799e+01
 1.059868073413724e+00	 3.954822745820146e-01	 1.807957614782599e+01
 1.067465059720694e+00	 3.744928688639909e-01	 1.855942797206700e+01
 1.074615214485913e+00	 3.534525475256167e-01	 1.899875667466770e+01
 1.081320297175989e+00	 3.323747545662972e-01	 1.939695069738701e+01
 1.087582571466509e+00	 3.112727305745734e-01	 1.975340483656897e+01
 1.093404788868202e+00	 2.901594910303172e-01	 2.006752508807097e+01
 1.098790171366544e+00	 2.690478059001070e-01	 2.033873373044261e+01
 1.103742393180392e+00	 2.479501805666729e-01	 2.056647456964672e+01
 1.108265561745950e+00	 2.268788381243558e-01	 2.075021826936840e+01
 1.112364198032268e+00	 2.058457030637331e-01	 2.088946769279158e+01
 1.046011838709305e+00	 4.141065482781622e-01	 1.766739025166848e+01
 1.054012448698681e+00	 3.932972896415816e-01	 1.820040054271180e+01
 1.061567462705180e+00	 3.724238474906104e-01	 1.869294043087792e+01
 1.068678113852559e+00	 3.514997710211837e-01	 1.914441042920733e+01
 1.075346151886618e+00	 3.305384299564655e-01	 1.955421555156182e+01
 1.081573827976446e+00	 3.095529917325722e-01	 1.992176966142903e+01
 1.087363878431055e+00	 2.885563999206454e-01	 2.024650012237747e+01
 1.092719507434896e+00	 2.675613539349599e-01	 2.052785267608596e+01
 1.097644368907272e+00	 2.465802900677319e-01	 2.076529647348170e+01
 1.102142547591368e+00	 2.256253638823921e-01	 2.095832918525806e+01
 1.106218539478505e+00	 2.047084339883523e-01	 2.110648211983695e+01
 1.167675124994303e+00	 2.160811247653200e-01	 1.923554189454018e+01
 1.171537077868094e+00	 1.940544387226202e-01	 1.953221225485095e+01
 1.174964097446825e+00	 1.720918932328055e-01	 1.977630360662488e+01
 1.177962102437430e+00	 1.502049773640085e-01	 1.996871984425620e+01
 1.180537358156770e+00	 1.284048129885411e-01	 2.011038437690752e+01
 1.182696453977716e+00	 1.067021450109431e-01	 2.020224159208813e+01
 1.184446280700852e+00	 8.510733302509109e-02	 2.024525829730620e+01
 1.185794007943878e+00	 6.363034437045867e-02	 2.024042509371933e+01
 1.186747061636129e+00	 4.228074855186071e-02	 2.018875764044218e+01
 1.187313101700527e+00	 2.106771298181087e-02	 2.009129777317612e+01
 1.187500000000000e+00	 0.000000000000000e+00	 1.994911444600122e+01
 1.161529466444907e+00	 2.149438556853072e-01	 1.939387674154352e+01
 1.165371093250317e+00	 1.930330995688642e-01	 1.969212700921136e+01
 1.168780075883342e+00	 1.711861464235692e-01	 1.993779663601005e+01
 1.171762301899829e+00	 1.494144248487728e-01	 2.013176788967426e+01
 1.174324003641281e+00	 1.277289981806149e-01	 2.027494415376200e+01
 1.176471735799663e+00	 1.061405547715039e-01	 2.036825133109641e+01
 1.178212352908183e+00	 8.465939969113556e-02	 2.041263921913757e+01
 1.179552986849712e+00	 6.329544781929991e-02	 2.040908281246757e+01
 1.180501024469744e+00	 4.205821829499446e-02	 2.035858349224482e+01
 1.181064085375818e+00	 2.095683028119082e-02	 2.026217006742073e+01
 1.181250000000000e+00	 0.000000000000000e+00	 2.012089963760462e+01
 1.155383807895026e+00	 2.138065866058090e-01	 1.955835301126620e+01
 1.159205108632150e+00	 1.920117604157069e-01	 1.985837498535369e+01
 1.162596054319553e+00	 1.702803996149837e-01	 2.010582282578126e+01
 1.165562501361993e+00	 1.486238723342092e-01	 2.030155657585331e+01
 1.168110649125622e+00	 1.270531833733515e-01	 2.044645897919157e+01
 1.170247017621491e+00	 1.055789645326881e-01	 2.054143682663816e+01
 1.171978425115439e+00	 8.421146635773501e-02	 2.058742226886517e+01
 1.173311965755505e+00	 6.296055126859881e-02	 2.058537405111089e+01
 1.174254987303342e+00	 4.183568803846049e-02	 2.053627863107701e+01
 1.174815069051104e+00	 2.084594758075029e-02	 2.044115114588740e+01
 1.175000000000000e+00	 0.000000000000000e+00	 2.030103619902779e+01
 1.149238149344660e+00	 2.126693175268256e-01	 1.972906116633000e+01
 1.153039124013591e+00	 1.909904212631481e-01	 2.003104800823069e+01
 1.156412032755457e+00	 1.693746528070491e-01	 2.028047535918982e+01
 1.159362700823924e+00	 1.478333198203177e-01	 2.047818043885740e+01
 1.161897294609792e+00	 1.263773685667508e-01	 2.062502473527491e+01
 1.164022299443203e+00	 1.050173742944959e-01	 2.072189529883037e+01
 1.165744497322621e+00	 8.376353302488938e-02	 2.076970599561711e+01
 1.167070944661255e+00	 6.262565471835536e-02	 2.076939867783069e+01
 1.168008950136921e+00	 4.161315778225884e-02	 2.072194423339653e+01
 1.168566052726386e+00	 2.073506488048929e-02	 2.062834348181971e+01
 1.168750000000000e+00	 0.000000000000000e+00	 2.048962788819273e+01
 1.143092490793807e+00	 2.115320484483569e-01	 1.990609338464843e+01
 1.146873139394641e+00	 1.899690821111878e-01	 2.021023966666114e+01
 1.150228011191053e+00	 1.684689059997653e-01	 2.046184923285401e+01
 1.153162900285622e+00	 1.470427673070983e-01	 2.066173587844812e+01
 1.155683940093792e+00	 1.257015537608129e-01	 2.081073921885236e+01
 1.157797581264797e+00	 1.044557840569272e-01	 2.090972593425477e+01
 1.159510569529729e+00	 8.331559969259869e-02	 2.095959096723474e+01
 1.160829923566964e+00	 6.229075816856956e-02	 2.096125863222336e+01
 1.161762912970481e+00	 4.139062752638948e-02	 2.091568360014176e+01
 1.162317036401662e+00	 2.062418218040782e-02	 2.082385172628303e+01
 1.162500000000000e+00	 0.000000000000000e+00	 2.068678069437420e+01
 1.136946832242470e+00	 2.103947793704027e-01	 2.008954360578569e+01
 1.140707154775301e+00	 1.889477429598263e-01	 2.039604536100191e+01
 1.144043989626343e+00	 1.675631591931325e-01	 2.065004130576881e+01
 1.146963099747086e+00	 1.462522147945509e-01	 2.085232120845468e+01
 1.149470585577622e+00	 1.250257389555378e-01	 2.100370219327634e+01
 1.151572863086273e+00	 1.038941938199820e-01	 2.110502993910551e+01
 1.153276641736761e+00	 8.286766636086297e-02	 2.115717982483228e+01
 1.154588902472631e+00	 6.195586161924142e-02	 2.116105798128441e+01
 1.155516875804023e+00	 4.116809727085240e-02	 2.111760221414988e+01
 1.156068020076935e+00	 2.051329948050586e-02	 2.102778276702435e+01
 1.156250000000000e+00	 0.000000000000000e+00	 2.089260289850657e+01
 1.130801173690648e+00	 2.092575102929634e-01	 2.027950757882775e+01
 1.134541170155570e+00	 1.879264038090633e-01	 2.058856235237435e+01
 1.137859968061326e+00	 1.666574123871505e-01	 2.084515034991426e+01
 1.140763299208316e+00	 1.454616622826757e-01	 2.105003670878674e+01
 1.143257231061281e+00	 1.243499241509254e-01	 2.120401544184907e+01
 1.145348144907632e+00	 1.033326035836604e-01	 2.130791059406988e+01
 1.147042713943719e+00	 8.241973302968215e-02	 2.136257733913579e+01
 1.148347881378257e+00	 6.162096507037094e-02	 2.136890297721835e+01
 1.149270838637547e+00	 4.094556701564765e-02	 2.132780779944764e+01
 1.149819003752202e+00	 2.040241678078344e-02	 2.124024578925172e+01
 1.150000000000000e+00	 0.000000000000000e+00	 2.110720513545721e+01
 1.124655515138340e+00	 2.081202412160386e-01	 2.047608291182286e+01
 1.128375185535448e+00	 1.869050646588989e-01	 2.078788981350512e+01
 1.131675946496002e+00	 1.657516655818194e-01	 2.104727710252252e+01
 1.134563498669313e+00	 1.446711097714725e-01	 2.125498467915239e+01
 1.137043876544769e+00	 1.236741093469759e-01	 2.141178282301254e+01
 1.139123426728873e+00	 1.027710133479622e-01	 2.151847331100856e+01
 1.140808786150601e+00	 8.197179969905627e-02	 2.157589046866921e+01
 1.142106860283841e+00	 6.128606852195809e-02	 2.158490211714373e+01
 1.143024801471052e+00	 4.072303676077517e-02	 2.154641038248604e+01
 1.143569987427466e+00	 2.029153408124054e-02	 2.146135233840638e+01
 1.143750000000000e+00	 0.000000000000000e+00	 2.133070045834157e+01
 1.118509856585547e+00	 2.069829721396285e-01	 2.067936912285188e+01
 1.122209200914936e+00	 1.858837255093330e-01	 2.099412888124261e+01
 1.125491924930371e+00	 1.648459187771392e-01	 2.125652432006847e+01
 1.128363698130076e+00	 1.438805572609413e-01	 2.146726949454709e+01
 1.130830522028087e+00	 1.229982945436890e-01	 2.162711032735775e+01
 1.132898708549996e+00	 1.022094231128876e-01	 2.173682569150420e+01
 1.134574858357410e+00	 8.152386636898534e-02	 2.179722841985884e+01
 1.135865839189383e+00	 6.095117197400291e-02	 2.180916620476669e+01
 1.136778764304539e+00	 4.050050650623500e-02	 2.177352235539380e+01
 1.137320971102724e+00	 2.018065138187716e-02	 2.169121638500437e+01
 1.137500000000000e+00	 0.000000000000000e+00	 2.156320440495850e+01
 1.112364198032268e+00	 2.058457030637331e-01	 2.088946769279158e+01
 1.116043216294032e+00	 1.848623863603657e-01	 2.120738271081460e+01
 1.119307903364434e+00	 1.639401719731100e-01	 2.147299683404992e+01
 1.122163897590606e+00	 1.430900047510824e-01	 2.168699766258213e+01
 1.124617167511235e+00	 1.223224797410650e-01	 2.185010613652391e+01
 1.126673990371003e+00	 1.016478328784365e-01	 2.196307758735114e+01
 1.128340930564143e+00	 8.107593303946935e-02	 2.202670270912994e+01
 1.129624818094883e+00	 6.061627542650538e-02	 2.204180841409875e+01
 1.130532727138007e+00	 4.027797625202711e-02	 2.200925854132753e+01
 1.131071954777978e+00	 2.006976868269331e-02	 2.192995439162752e+01
 1.131250000000000e+00	 0.000000000000000e+00	 2.180483506642796e+01
 1.106218539478505e+00	 2.047084339883523e-01	 2.110648211983695e+01
 1.109877231672738e+00	 1.838410472119971e-01	 2.142775653189421e+01
 1.113123881798189e+00	 1.630344251697315e-01	 2.169680160862702e+01
 1.115964097050903e+00	 1.422994522418954e-01	 2.191427788272389e+01
 1.118403812994213e+00	 1.216466649391038e-01	 2.208088068406094e+01
 1.120449272191891e+00	 1.010862426446089e-01	 2.219734116306100e+01
 1.122107002770802e+00	 8.062799971050828e-02	 2.226442722707349e+01
 1.123383797000342e+00	 6.028137887946551e-02	 2.228294435529868e+01
 1.124286689971457e+00	 4.005544599815154e-02	 2.225373626200025e+01
 1.124822938453228e+00	 1.995888598368898e-02	 2.217768538214737e+01
 1.125000000000000e+00	 0.000000000000000e+00	 2.205571315811665e+01
 0.000000000000000e+00	 1.125000000000000e+00	-3.725071203672106e-01
 1.995888598368906e-02	 1.124822938453228e+00	-4.106826150908607e-01
 4.005544599815170e-02	 1.124286689971457e+00	-4.323321173767851e-01
 6.028137887946573e-02	 1.123383797000342e+00	-4.380962379398552e-01
 8.062799971050859e-02	 1.122107002770802e+00	-4.285129322926691e-01
 1.010862426446093e-01	 1.120449272191891e+00	-4.040079452962513e-01
 1.216466649391042e-01	 1.118403812994212e+00	-3.648860154918130e-01
 1.422994522418959e-01	 1.115964097050903e+00	-3.113229918216889e-01
 1.630344251697321e-01	 1.113123881798189e+00	-2.433590159050905e-01
 1.838410472119977e-01	 1.109877231672737e+00	-1.608929215207322e-01
 2.047084339883523e-01	 1.106218539478505e+00	-6.367799922792594e-02
 0.000000000000000e+00	 1.118750000000000e+00	-3.594135575239159e-01
 1.984800328468474e-02	 1.118573922128475e+00	-3.958014321093208e-01
 3.983291574427612e-02	 1.118040652804898e+00	-4.164474623303507e-01
 5.994648233242585e-02	 1.117142775905779e+00	-4.220093886480916e-01
 8.018006638154751e-02	 1.115873074977422e+00	-4.130423494437379e-01
 1.005246524107817e-01	 1.114224554012720e+00	-3.899892822902804e-01
 1.209708501371429e-01	 1.112190458477104e+00	-3.531720707652437e-01
 1.415088997327090e-01	 1.109764296511083e+00	-3.027835880781713e-01
 1.621286783663537e-01	 1.106939860231791e+00	-2.388807894126082e-01
 1.828197080636290e-01	 1.103711247051248e+00	-1.613790034846163e-01
 2.035711649129715e-01	 1.100072880924498e+00	-7.004757021031027e-02
 0.000000000000000e+00	 1.112500000000000e+00	-3.491906722640281e-01
 1.973712058550088e-02	 1.112324905803721e+00	-3.836217220267928e-01
 3.961038549006823e-02	 1.111794615638338e+00	-4.031316687004574e-01
 5.961158578492830e-02	 1.110901754811217e+00	-4.083962957522353e-01
 7.973213305203153e-02	 1.109639147184044e+00	-3.999887415449637e-01
 9.996306217633052e-02	 1.107999835833549e+00	-3.783698498871035e-01
 1.202950353345189e-01	 1.105977103959996e+00	-3.438792521145042e-01
 1.407183472228500e-01	 1.103564495971262e+00	-2.967273307095937e-01
 1.612229315623244e-01	 1.100755838665394e+00	-2.369882151656584e-01
 1.817983689146618e-01	 1.097545262429758e+00	-1.645939594994790e-01
 2.024338958370761e-01	 1.093927222370491e+00	-7.933004735478688e-02
 0.000000000000000e+00	 1.106250000000000e+00	-3.418943179318470e-01
 1.962623788613750e-02	 1.106075889478969e+00	-3.741979510374294e-01
 3.938785523552807e-02	 1.105548578471779e+00	-3.924380460707781e-01
 5.927668923697311e-02	 1.104660733716655e+00	-3.973093499603895e-01
 7.928419972196060e-02	 1.103405219390665e+00	-3.894038253145466e-01
 9.940147194125591e-02	 1.101775117654379e+00	-3.692009427886500e-01
 1.196192205312321e-01	 1.099763749442888e+00	-3.370586912066669e-01
 1.399277947123189e-01	 1.097364695431442e+00	-2.932054542346614e-01
 1.603171847576442e-01	 1.094571817098996e+00	-2.377329031933040e-01
 1.807770297650960e-01	 1.091379277808269e+00	-1.705900543861976e-01
 2.012966267606660e-01	 1.087781563816485e+00	-9.157863599669991e-02
 0.000000000000000e+00	 1.100000000000000e+00	-3.375816172659052e-01
 1.951535518659461e-02	 1.099826873154216e+00	-3.675858267540013e-01
 3.916532498065559e-02	 1.099302541305220e+00	-3.844211254829997e-01
 5.894179268856028e-02	 1.098419712622092e+00	-3.888021516922957e-01
 7.883626639133473e-02	 1.097171291597286e+00	-3.813405238430256e-01
 9.883988170555777e-02	 1.095550399475208e+00	-3.625350673200951e-01
 1.189434057272825e-01	 1.093550394925780e+00	-3.327627453376114e-01
 1.391372422011157e-01	 1.091164894891621e+00	-2.922704417099826e-01
 1.594114379523131e-01	 1.088387795532598e+00	-2.411677440149349e-01
 1.797556906149315e-01	 1.085213293186779e+00	-1.794208745692241e-01
 2.001593576837412e-01	 1.081635905262479e+00	-1.068479134486493e-01
 0.000000000000000e+00	 1.093750000000000e+00	-3.363109986677446e-01
 1.940447248687218e-02	 1.093577856829463e+00	-3.638423336792336e-01
 3.894279472545081e-02	 1.093056504138661e+00	-3.791366943349863e-01
 5.860689613968980e-02	 1.092178691527530e+00	-3.829295456428206e-01
 7.838833306015391e-02	 1.090937363803908e+00	-3.758530010642191e-01
 9.827829146923613e-02	 1.089325681296038e+00	-3.584259760493955e-01
 1.182675909226702e-01	 1.087337040408672e+00	-3.310450324494298e-01
 1.383466896892405e-01	 1.084965094351801e+00	-2.939760604033390e-01
 1.585056911463311e-01	 1.082203773966199e+00	-2.473469452253756e-01
 1.787343514641685e-01	 1.079047308565289e+00	-1.911413658347234e-01
 1.990220886063018e-01	 1.075490246708472e+00	-1.251938682009803e-01
 0.000000000000000e+00	 1.087500000000000e+00	-3.381422337205491e-01
 1.929358978697023e-02	 1.087328840504711e+00	-3.630257698966268e-01
 3.872026446991374e-02	 1.086810466972101e+00	-3.766418324839367e-01
 5.827199959036165e-02	 1.085937670432968e+00	-3.797476565366971e-01
 7.794039972841815e-02	 1.084703436010529e+00	-3.729966974094379e-01
 9.771670123229091e-02	 1.083100963116868e+00	-3.569287035967870e-01
 1.175917761173950e-01	 1.081123685891564e+00	-3.319604673559184e-01
 1.375561371766931e-01	 1.078765293811981e+00	-2.983773986953429e-01
 1.575999443396983e-01	 1.076019752399802e+00	-2.563260693410441e-01
 1.777130123128069e-01	 1.072881323943800e+00	-2.058078723933909e-01
 1.978848195283477e-01	 1.069344588154466e+00	-1.466739404701514e-01
 0.000000000000000e+00	 1.081250000000000e+00	-3.431364760096542e-01
 1.918270708688875e-02	 1.081079824179958e+00	-3.651957850358829e-01
 3.849773421404439e-02	 1.080564429805542e+00	-3.769949495998302e-01
 5.793710304057585e-02	 1.079696649338405e+00	-3.793139261239333e-01
 7.749246639612749e-02	 1.078469508217150e+00	-3.728283667010581e-01
 9.715511099472224e-02	 1.076876244937697e+00	-3.580996036907900e-01
 1.169159613114571e-01	 1.074910331374456e+00	-3.355652992241978e-01
 1.367655846634736e-01	 1.072565493272161e+00	-3.055309042630672e-01
 1.566941975324145e-01	 1.069835730833403e+00	-2.681620729609087e-01
 1.766916731608467e-01	 1.066715339322310e+00	-2.234781772975802e-01
 1.967475504498789e-01	 1.063198929600459e+00	-1.713470641589345e-01
 0.000000000000000e+00	 1.075000000000000e+00	-3.513563012970859e-01
 1.907182438662774e-02	 1.074830807855205e+00	-3.704134195613045e-01
 3.827520395784272e-02	 1.074318392638983e+00	-3.802558238229699e-01
 5.760220649033241e-02	 1.073455628243843e+00	-3.816871514651563e-01
 7.704453306328185e-02	 1.072235580423771e+00	-3.754061143330705e-01
 9.659352075652999e-02	 1.070651526758527e+00	-3.619963875123124e-01
 1.162401465048565e-01	 1.068696976857348e+00	-3.419171503649201e-01
 1.359750321495821e-01	 1.066365692732341e+00	-3.154944235934640e-01
 1.557884507244799e-01	 1.063651709267006e+00	-2.829133472909291e-01
 1.756703340082879e-01	 1.060549354700820e+00	-2.442115442677038e-01
 1.956102813708955e-01	 1.057053271046453e+00	-1.992737102759072e-01
 0.000000000000000e+00	 1.068750000000000e+00	-3.628657491056186e-01
 1.896094168618722e-02	 1.068581791530452e+00	-3.787411454410212e-01
 3.805267370130877e-02	 1.068072355472424e+00	-3.864856417784694e-01
 5.726730993963130e-02	 1.067214607149281e+00	-3.869275245610839e-01
 7.659659972988130e-02	 1.066001652630393e+00	-3.807894367901676e-01
 9.603193051771425e-02	 1.064426808579356e+00	-3.686781633872553e-01
 1.155643316975931e-01	 1.062483622340241e+00	-3.510750563813367e-01
 1.351844796350185e-01	 1.060165892192520e+00	-3.283272428843325e-01
 1.548827039158945e-01	 1.057467687700608e+00	-3.006397600920891e-01
 1.746489948551305e-01	 1.054383370079331e+00	-2.680687609869383e-01
 1.944730122913973e-01	 1.050907612492446e+00	-2.305159318806753e-01
 0.000000000000000e+00	 1.062500000000000e+00	-3.777303657706814e-01
 1.885005898556716e-02	 1.062332775205699e+00	-3.902429082481786e-01
 3.783014344444251e-02	 1.061826318305864e+00	-3.957470400015284e-01
 5.693241338847256e-02	 1.060973586054718e+00	-3.950966733787999e-01
 7.614866639592580e-02	 1.059767724837014e+00	-3.890392625618357e-01
 9.547034027827499e-02	 1.058202090400186e+00	-3.782054778789754e-01
 1.148885168896669e-01	 1.056270267823132e+00	-3.630995077380965e-01
 1.343939271197828e-01	 1.053966091652700e+00	-3.440901303900814e-01
 1.539769571066580e-01	 1.051283666134210e+00	-3.214026991094401e-01
 1.736276557013745e-01	 1.048217385457841e+00	-2.951121839233033e-01
 1.933357432113846e-01	 1.044761953938440e+00	-2.651374106142659e-01
 2.047084339883523e-01	 1.106218539478505e+00	-6.367799922792594e-02
 2.256253760610303e-01	 1.102142542723649e+00	 3.235526613265627e-02
 2.465803392680860e-01	 1.097644349281292e+00	 1.315733933915282e-01
 2.675614657195627e-01	 1.092719462922627e+00	 2.346171152491623e-01
 2.885566005572319e-01	 1.087363798660611e+00	 3.423239894537216e-01
 3.095533081773752e-01	 1.081573702325846e+00	 4.557259527905946e-01
 3.305388898350104e-01	 1.075345969477739e+00	 5.760446522489879e-01
 3.515004026065428e-01	 1.068677863545342e+00	 7.046844795031764e-01
 3.724246796790915e-01	 1.061567133092149e+00	 8.432232585953676e-01
 3.932983519258346e-01	 1.054012028099855e+00	 9.934005626732336e-01
 4.141078707177027e-01	 1.046011315167551e+00	 1.157103663528262e+00
 2.035711649129715e-01	 1.100072880924498e+00	-7.004757021031027e-02
 2.243719017514075e-01	 1.096019528595820e+00	 1.939417782779485e-02
 2.452104484958098e-01	 1.091546325116872e+00	 1.123186820826003e-01
 2.660750131333902e-01	 1.086648799237897e+00	 2.093446168822415e-01
 2.869535083329124e-01	 1.081322888666228e+00	 3.112836834994539e-01
 3.078335675773473e-01	 1.075564959533408e+00	 4.191382581939873e-01
 3.287025626702978e-01	 1.069371825201293e+00	 5.340968584168628e-01
 3.495476225933023e-01	 1.062740764302108e+00	 6.575273542876887e-01
 3.703556536824418e-01	 1.055669537907329e+00	 7.909678757712597e-01
 3.911133610838226e-01	 1.048156405720976e+00	 9.361153914729692e-01
 4.118072714385381e-01	 1.040200141194367e+00	 1.094811962353332e+00
 2.024338958370761e-01	 1.093927222370491e+00	-7.933004735478688e-02
 2.231184274413607e-01	 1.089896514467986e+00	 3.423434038587914e-03
 2.438405577231815e-01	 1.085448300952432e+00	 8.993182730432814e-02
 2.645885605469185e-01	 1.080578135553125e+00	 1.807920997515815e-01
 2.853504161083272e-01	 1.075281978671769e+00	 2.767905647115381e-01
 3.061138269770675e-01	 1.069556216740850e+00	 3.789006247130939e-01
 3.268662355053272e-01	 1.063397680924673e+00	 4.882783730654006e-01
 3.475948425797770e-01	 1.056803665058637e+00	 6.062559818869386e-01
 3.682866276854598e-01	 1.049771942722199e+00	 7.343328275208041e-01
 3.889283702414100e-01	 1.042300783341702e+00	 8.741643292926646e-01
 4.095066721588839e-01	 1.034388967220695e+00	 1.027548504464020e+00
 2.012966267606660e-01	 1.087781563816485e+00	-9.157863599669991e-02
 2.218649531308900e-01	 1.083773500340148e+00	-1.560923275783166e-02
 2.424706669502012e-01	 1.079350276787974e+00	 6.436145280742966e-02
 2.631021079601477e-01	 1.074507471868310e+00	 1.489090267966935e-01
 2.837473238834763e-01	 1.069241068677234e+00	 2.387948772916313e-01
 3.043940863765359e-01	 1.063547473948173e+00	 3.349640137775212e-01
 3.250299083400983e-01	 1.057423536647881e+00	 4.385408044559846e-01
 3.456420625659667e-01	 1.050866565814929e+00	 5.508225404072409e-01
 3.662176016881457e-01	 1.043874347536757e+00	 6.732707780128293e-01
 3.867433793985972e-01	 1.036445160962033e+00	 8.075004356170268e-01
 4.072060728787398e-01	 1.028577793246532e+00	 9.552666468049560e-01
 2.001593576837412e-01	 1.081635905262479e+00	-1.068479134486493e-01
 2.206114788199952e-01	 1.077650486212304e+00	-3.775747245881345e-02
 2.411007761768689e-01	 1.073252252623498e+00	 3.555478587950622e-02
 2.616156553730778e-01	 1.068436808183453e+00	 1.136434466672780e-01
 2.821442316583599e-01	 1.063200158682623e+00	 1.972454295640254e-01
 3.026743457757524e-01	 1.057538731155375e+00	 2.872779255622357e-01
 3.231935811746113e-01	 1.051449392370915e+00	 3.848342704152063e-01
 3.436892825518716e-01	 1.044929466570985e+00	 4.911776845313656e-01
 3.641485756904992e-01	 1.037976752351005e+00	 6.077328312019668e-01
 3.845583885553838e-01	 1.030589538581969e+00	 7.360751691317171e-01
 4.049054735981059e-01	 1.022766619271880e+00	 8.779181011687476e-01
 1.990220886063018e-01	 1.075490246708472e+00	-1.251938682009803e-01
 2.193580045086765e-01	 1.071527472084456e+00	-6.307635683033341e-02
 2.397308854031847e-01	 1.067154228459002e+00	 3.457617444609706e-03
 2.601292027857087e-01	 1.062366144498552e+00	 7.494195331706521e-02
 2.805411394329779e-01	 1.057159248687934e+00	 1.520895529481225e-01
 3.009546051747168e-01	 1.051529988362458e+00	 2.357903572349929e-01
 3.213572540088659e-01	 1.045475248093776e+00	 3.271073557499302e-01
 3.417365025374915e-01	 1.038992367326803e+00	 4.272705019932288e-01
 3.620795496925205e-01	 1.032079157164943e+00	 5.376684862495766e-01
 3.823733977117700e-01	 1.024733916201510e+00	 6.598383419870666e-01
 4.026048743169826e-01	 1.016955445296738e+00	 7.954528871941542e-01
 1.978848195283477e-01	 1.069344588154466e+00	-1.466739404701514e-01
 2.181045301969338e-01	 1.065404457956603e+00	-9.162242036643020e-02
 2.383609946291483e-01	 1.061056204294487e+00	-3.198573921076431e-02
 2.586427501980406e-01	 1.056295480813610e+00	 3.274964420090543e-02
 2.789380472073302e-01	 1.051118338693170e+00	 1.032730595210598e-01
 2.992348645734295e-01	 1.045521245569422e+00	 1.804477597685601e-01
 3.195209268428623e-01	 1.039501103816464e+00	 2.653070681946903e-01
 3.397837225228267e-01	 1.033055268082385e+00	 3.590484685482096e-01
 3.600105236942100e-01	 1.026181561978569e+00	 4.630255914090080e-01
 3.801884068677560e-01	 1.018878293820656e+00	 5.787380724831956e-01
 4.003042750353694e-01	 1.011144271321107e+00	 7.078192837384010e-01
 1.967475504498789e-01	 1.063198929600459e+00	-1.713470641589345e-01
 2.168510558847671e-01	 1.059281443828746e+00	-1.234537025645666e-01
 2.369911038547600e-01	 1.054958180129953e+00	-7.083249114412959e-02
 2.571562976100733e-01	 1.050224817128624e+00	-1.298992297654555e-02
 2.773349549814169e-01	 1.045077428698330e+00	 5.074019810514319e-02
 2.975151239718903e-01	 1.039512502776266e+00	 1.211949932516210e-01
 3.176845996766007e-01	 1.033526959538979e+00	 1.993787928326509e-01
 3.378309425078769e-01	 1.027118168837730e+00	 2.864574013870924e-01
 3.579414976955669e-01	 1.020283966791885e+00	 3.837502963122204e-01
 3.780034160233416e-01	 1.013022671439408e+00	 4.927207361148167e-01
 3.980036757532665e-01	 1.005333097344985e+00	 6.149637785674280e-01
 1.956102813708955e-01	 1.057053271046453e+00	-1.992737102759072e-01
 2.155975815721764e-01	 1.053158429700884e+00	-1.586297916755042e-01
 2.356212130800196e-01	 1.048860155965401e+00	-1.131414099532080e-01
 2.556698450218070e-01	 1.044154153443596e+00	-6.233477502080387e-02
 2.757318627552379e-01	 1.039036518703414e+00	-5.566391175398255e-03
 2.957953833700992e-01	 1.033503759982990e+00	 5.797528064257973e-02
 3.158482725100809e-01	 1.027552815261320e+00	 1.292662449243176e-01
 3.358781624926422e-01	 1.021181069592838e+00	 2.094414109194993e-01
 3.558724716965918e-01	 1.014386371604890e+00	 2.997870025908078e-01
 3.758184251785266e-01	 1.007167049057764e+00	 4.017309149091037e-01
 3.957030764706738e-01	 9.995219233683744e-01	 5.168310162887320e-01
 1.944730122913973e-01	 1.050907612492446e+00	-2.305159318806753e-01
 2.143441072591617e-01	 1.047035415573017e+00	-1.972118699884891e-01
 2.342513223049273e-01	 1.042762131800830e+00	-1.589728775226256e-01
 2.541833924332414e-01	 1.038083489758525e+00	-1.153445695771920e-01
 2.741287705287933e-01	 1.032995608708421e+00	-6.570572393378482e-02
 2.940756427680563e-01	 1.027495017189594e+00	-9.269840099112248e-03
 3.140119453433026e-01	 1.021578670983489e+00	 5.491142108320934e-02
 3.339253824771227e-01	 1.015243970347710e+00	 1.279428508698071e-01
 3.538034456972844e-01	 1.008488776417584e+00	 2.110783127651952e-01
 3.736334343333112e-01	 1.001311426675725e+00	 3.057113449833380e-01
 3.934024771875915e-01	 9.937107493912738e-01	 4.133637444571399e-01
 1.933357432113846e-01	 1.044761953938440e+00	-2.651374106142659e-01
 2.130906329457231e-01	 1.040912401445146e+00	-2.392627607145212e-01
 2.328814315294829e-01	 1.036664107636240e+00	-2.083889333850473e-01
 2.526969398443769e-01	 1.032012826073412e+00	-1.720806430994055e-01
 2.725256783020832e-01	 1.026954698713353e+00	-1.297385202165824e-01
 2.923559021657614e-01	 1.021486274396079e+00	-8.060056557345341e-02
 3.121756181762663e-01	 1.015604526705484e+00	-2.374545127285632e-02
 3.319726024613182e-01	 1.009306871102345e+00	 4.190226660907381e-02
 3.517344196976449e-01	 1.002591181229967e+00	 1.175649773286835e-01
 3.714484434876956e-01	 9.954558042932905e-01	 2.046028622564466e-01
 3.911018779040194e-01	 9.878995754136833e-01	 3.045027577802726e-01
 4.141078707177027e-01	 1.046011315167551e+00	 1.157103663528262e+00
 4.348389869125469e-01	 1.037564510361637e+00	 1.425704417851623e+00
 4.554783787905097e-01	 1.028671254474488e+00	 1.692543206157441e+00
 4.760121073749708e-01	 1.019331943098569e+00	 1.960271751188861e+00
 4.964261565359374e-01	 1.009547536411432e+00	 2.231717757183026e+00
 5.167064609276211e-01	 9.993195675101514e-01	 2.509860765502751e+00
 5.368389346796447e-01	 9.886501491192041e-01	 2.797805739307210e+00
 5.568095007332894e-01	 9.775419786025497e-01	 3.098754579095530e+00
 5.766041207074594e-01	 9.659983412188325e-01	 3.415975803375695e+00
 5.962088251729557e-01	 9.540231115674662e-01	 3.752772659089167e+00
 6.156097442083479e-01	 9.416207531828905e-01	 4.112449954198580e+00
 4.118072714385381e-01	 1.040200141194367e+00	 1.094811962353331e+00
 4.324232147662097e-01	 1.031800263082327e+00	 1.355935622798158e+00
 4.529479433564012e-01	 1.022956414172729e+00	 1.615491270296878e+00
 4.733675956712493e-01	 1.013668987860299e+00	 1.876032965302031e+00
 4.936682334481484e-01	 1.003938938988270e+00	 2.140287349071813e+00
 5.138358694821190e-01	 9.937677921365076e-01	 2.411130132637090e+00
 5.338564961576173e-01	 9.831576482921305e-01	 2.691560359119035e+00
 5.537161146218051e-01	 9.721111898337413e-01	 2.984672636438082e+00
 5.734007644845921e-01	 9.606316837685465e-01	 3.293627569243995e+00
 5.928965539247181e-01	 9.487229831704073e-01	 3.621620648693624e+00
 6.121896900758709e-01	 9.363895267763493e-01	 3.971849885969650e+00
 4.095066721588839e-01	 1.034388967220695e+00	 1.027548504464019e+00
 4.300074426192921e-01	 1.026036015802442e+00	 1.281088712308217e+00
 4.504175079216407e-01	 1.017241573870338e+00	 1.533242045549791e+00
 4.707230839668241e-01	 1.008006032621370e+00	 1.786466021134040e+00
 4.909103103596236e-01	 9.983303415644492e-01	 2.043387411918362e+00
 5.109652780358687e-01	 9.882160167622380e-01	 2.306779362806188e+00
 5.308740576348494e-01	 9.776651474644927e-01	 2.579536323883285e+00
 5.506227285096088e-01	 9.666804010644615e-01	 2.864646992837933e+00
 5.701974082610610e-01	 9.552650263179121e-01	 3.165165490122964e+00
 5.895842826758855e-01	 9.434228547731532e-01	 3.484181019548720e+00
 6.087696359428887e-01	 9.311583003697974e-01	 3.824786293741309e+00
 4.072060728787398e-01	 1.028577793246532e+00	 9.552666468049558e-01
 4.275916704717944e-01	 1.020271768521982e+00	 1.201120928311533e+00
 4.478870724862289e-01	 1.011526733567314e+00	 1.445756617169839e+00
 4.680785722616956e-01	 1.002343077381781e+00	 1.691535792238014e+00
 4.881523872703631e-01	 9.927217441399716e-01	 1.940986538935100e+00
 5.080946865888702e-01	 9.826642413873424e-01	 2.196780686444003e+00
 5.278916191113412e-01	 9.721726466362910e-01	 2.461709404899812e+00
 5.475293423967000e-01	 9.612496122947098e-01	 2.738656850134088e+00
 5.669940520368659e-01	 9.498983688669291e-01	 3.030572074116414e+00
 5.862720114264579e-01	 9.381227263757045e-01	 3.340439447892406e+00
 6.053495818094008e-01	 9.259270739632340e-01	 3.671247870070331e+00
 4.049054735981059e-01	 1.022766619271880e+00	 8.779181011687476e-01
 4.251758983237164e-01	 1.014507521240946e+00	 1.115987903420995e+00
 4.453566370501658e-01	 1.005811893263659e+00	 1.352994494841829e+00
 4.654340605558636e-01	 9.966801221415315e-01	 1.591205608170264e+00
 4.853944641803671e-01	 9.871131467148361e-01	 1.833051808656104e+00
 5.052240951411239e-01	 9.771124660118208e-01	 2.081104846291436e+00
 5.249091805870928e-01	 9.666801458075255e-01	 2.338053910352341e+00
 5.444359562830787e-01	 9.558188235244861e-01	 2.606679969154160e+00
 5.637906958120069e-01	 9.445317114155966e-01	 2.889828407883472e+00
 5.829597401764355e-01	 9.328225979780604e-01	 3.190380205491647e+00
 6.019295276754079e-01	 9.206958475566606e-01	 3.511221917370884e+00
 4.026048743169826e-01	 1.016955445296738e+00	 7.954528871941493e-01
 4.227601261750583e-01	 1.008743273959336e+00	 1.025643614954231e+00
 4.428262016134508e-01	 1.000097052959371e+00	 1.254913567665609e+00
 4.627895488493282e-01	 9.910171669006226e-01	 1.485437210378177e+00
 4.826365410896355e-01	 9.815045492890427e-01	 1.719548741661031e+00
 5.023535036926295e-01	 9.715606906356734e-01	 1.959721054888977e+00
 5.219267420621041e-01	 9.611876449781955e-01	 2.208542643506195e+00
 5.413425701687453e-01	 9.503880347537911e-01	 2.468692628541951e+00
 5.605873395864841e-01	 9.391650539639160e-01	 2.742914116026111e+00
 5.796474689258182e-01	 9.275224695802211e-01	 3.033986119514838e+00
 5.985094735409098e-01	 9.154646211500769e-01	 3.344694308195995e+00
 4.003042750353694e-01	 1.011144271321107e+00	 7.078192837384010e-01
 4.203443540258200e-01	 1.002979026677149e+00	 9.300403373654080e-01
 4.402957661760845e-01	 9.943822126544506e-01	 1.151470057587414e+00
 4.601450371420894e-01	 9.853542116590541e-01	 1.374190706563636e+00
 4.798786179981683e-01	 9.758959518625918e-01	 1.600441255806002e+00
 4.994829122433870e-01	 9.660089152588996e-01	 1.832596950607428e+00
 5.189443035363750e-01	 9.556951441483023e-01	 2.073146859462438e+00
 5.382491840536995e-01	 9.449572459826241e-01	 2.324669582166792e+00
 5.573839833602973e-01	 9.337983965118860e-01	 2.589807319075820e+00
 5.763351976746057e-01	 9.222223411821865e-01	 2.871238531019725e+00
 5.950894194059063e-01	 9.102333947434822e-01	 3.171649444149987e+00
 3.980036757532665e-01	 1.005333097344985e+00	 6.149637785674384e-01
 4.179285818760014e-01	 9.972147793943880e-01	 8.291285930316872e-01
 4.377653307380666e-01	 9.886673723488986e-01	 1.042618471216465e+00
 4.575005254341471e-01	 9.796912564168255e-01	 1.257424523465411e+00
 4.771206949059651e-01	 9.702873544354828e-01	 1.475691619902343e+00
 4.966123207933965e-01	 9.604571398815003e-01	 1.699698552150790e+00
 5.159618650099055e-01	 9.502026433178444e-01	 1.931836220414008e+00
 5.351557979379413e-01	 9.395264572109855e-01	 2.174584015053862e+00
 5.541806271334465e-01	 9.284317390595078e-01	 2.430484590023511e+00
 5.730229264227985e-01	 9.169222127839569e-01	 2.702117252002948e+00
 5.916693652703974e-01	 9.050021683368771e-01	 2.992070213375477e+00
 3.957030764706738e-01	 9.995219233683744e-01	 5.168310162887317e-01
 4.155128097256028e-01	 9.914505321110509e-01	 7.228571013196610e-01
 4.352348952993971e-01	 9.829525320427138e-01	 9.283115499595025e-01
 4.548560137255013e-01	 9.740283011739372e-01	 1.135095357993917e+00
 4.743627718130264e-01	 9.646787570077157e-01	 1.345260405778940e+00
 4.937417293426579e-01	 9.549053645034747e-01	 1.560990211472185e+00
 5.129794264826959e-01	 9.447101424868225e-01	 1.784578749340096e+00
 5.320624118214708e-01	 9.340956684388754e-01	 2.018407497779358e+00
 5.509772709059320e-01	 9.230650816067805e-01	 2.264920909333002e+00
 5.697106551703962e-01	 9.116220843855323e-01	 2.526600520949683e+00
 5.882493111343832e-01	 8.997709419302610e-01	 2.805937946557126e+00
 3.934024771875915e-01	 9.937107493912738e-01	 4.133637444571399e-01
 4.130970375746239e-01	 9.856862848271386e-01	 6.111727258652633e-01
 4.327044598600763e-01	 9.772376917358973e-01	 8.085002184085142e-01
 4.522115020161521e-01	 9.683653459303896e-01	 1.007158126651450e+00
 4.716048487193521e-01	 9.590701595792913e-01	 1.209106438663714e+00
 4.908711378911713e-01	 9.493535891248229e-01	 1.416434565039808e+00
 5.099969879547458e-01	 9.392176416552367e-01	 1.631340782075198e+00
 5.289690257042882e-01	 9.286648796662935e-01	 1.856109939263345e+00
 5.477739146777533e-01	 9.176984241537044e-01	 2.093089618375819e+00
 5.663983839173991e-01	 9.063219559869126e-01	 2.344664956825541e+00
 5.848292569978638e-01	 8.945397155236345e-01	 2.613232371382026e+00
 3.911018779040194e-01	 9.878995754136833e-01	 3.045027577802770e-01
 4.106812654230647e-01	 9.799220375426506e-01	 4.940204199945741e-01
 4.301740244201037e-01	 9.715228514284484e-01	 6.831335309028390e-01
 4.495669903060996e-01	 9.627023906861818e-01	 8.735659131669455e-01
 4.688469256249421e-01	 9.534615621502089e-01	 1.067186745811200e+00
 4.880005464389367e-01	 9.438018137455458e-01	 1.265992483380648e+00
 5.070145494260555e-01	 9.337251408230870e-01	 1.472086917688089e+00
 5.258756395863931e-01	 9.232340908932398e-01	 1.687659537898255e+00
 5.445705584489109e-01	 9.123317667002798e-01	 1.914962371222305e+00
 5.630861126638069e-01	 9.010218275880978e-01	 2.156285511443317e+00
 5.814092028608389e-01	 8.893084891169974e-01	 2.413931565392800e+00
 6.156097442083479e-01	 9.416207531828905e-01	 4.112449954198580e+00
 6.347936172065917e-01	 9.287959994043036e-01	 4.469624587659775e+00
 6.537463612877449e-01	 9.155548087413472e-01	 4.784448742411870e+00
 6.724545884469753e-01	 9.019033905602073e-01	 5.133183125496821e+00
 6.909051325884170e-01	 8.878485225341313e-01	 5.515186318894424e+00
 7.090850794667932e-01	 8.733975407047344e-01	 5.929611689079412e+00
 7.269817960894578e-01	 8.585583276607190e-01	 6.375406567044823e+00
 7.445829594413018e-01	 8.433392988688471e-01	 6.851312796909944e+00
 7.618765843976170e-01	 8.277493872034515e-01	 7.355868678425420e+00
 7.788510506937329e-01	 8.117980257319894e-01	 7.887412315082607e+00
 7.954951288250000e-01	 7.954951288249998e-01	 8.444086365497691e+00
 6.121896900758709e-01	 9.363895267763493e-01	 3.971849885969645e+00
 6.312669860011524e-01	 9.236360216293305e-01	 4.349460802707349e+00
 6.501144370589494e-01	 9.104683931362529e-01	 4.658060424250781e+00
 6.687187296222356e-01	 8.968928161668229e-01	 5.002490495617559e+00
 6.870667707401228e-01	 8.829160307405503e-01	 5.382021424294345e+00
 7.051457179131420e-01	 8.685453321432626e-01	 5.795711953429462e+00
 7.229430083319400e-01	 8.537885591715036e-01	 6.242408725177217e+00
 7.404463874426035e-01	 8.386540805394423e-01	 6.720747244148551e+00
 7.576439367044505e-01	 8.231507794943327e-01	 7.229154263557581e+00
 7.745241004098367e-01	 8.072880366977007e-01	 7.765851602801331e+00
 7.910757114402501e-01	 7.910757114402501e-01	 8.328861390985228e+00
 6.087696359428887e-01	 9.311583003697974e-01	 3.824786293741309e+00
 6.277403547953077e-01	 9.184760438545322e-01	 4.223438680422778e+00
 6.464825128298493e-01	 9.053819775314891e-01	 4.526116578629476e+00
 6.649828707972920e-01	 8.918822417738965e-01	 4.866576345366306e+00
 6.832284088917254e-01	 8.779835389475232e-01	 5.243999821793221e+00
 7.012063563594884e-01	 8.636931235824117e-01	 5.657350644051867e+00
 7.189042205745206e-01	 8.490187906829457e-01	 6.105374190478996e+00
 7.363098154441038e-01	 8.339688622107010e-01	 6.586598960945876e+00
 7.534112890115829e-01	 8.185521717858525e-01	 7.099339408188515e+00
 7.701971501263402e-01	 8.027780476639967e-01	 7.641700226899002e+00
 7.866562940559998e-01	 7.866562940559998e-01	 8.211582091915400e+00
 6.053495818094008e-01	 9.259270739632340e-01	 3.671247870070331e+00
 6.242137235890578e-01	 9.133160660799082e-01	 4.084809595229681e+00
 6.428505886004442e-01	 9.002955619270561e-01	 4.388584461751845e+00
 6.612470119721441e-01	 8.868716673814273e-01	 4.725415069613397e+00
 6.793900470432245e-01	 8.730510471550504e-01	 5.101103420258368e+00
 6.972669948058321e-01	 8.588409150221812e-01	 5.514517545797892e+00
 7.148654328171991e-01	 8.442490221950445e-01	 5.964300971476481e+00
 7.321732434458030e-01	 8.292836438826231e-01	 6.448874511994259e+00
 7.491786413190151e-01	 8.139535640780119e-01	 6.966439549615328e+00
 7.658701998432437e-01	 7.982680586308776e-01	 7.514982796863840e+00
 7.822368766722498e-01	 7.822368766722498e-01	 8.092282531964861e+00
 6.019295276754079e-01	 9.206958475566606e-01	 3.511221917370889e+00
 6.206870923824026e-01	 9.081560883054592e-01	 3.916629738253863e+00
 6.392186643707345e-01	 8.952091463229540e-01	 4.245430222435742e+00
 6.575111531467920e-01	 8.818610929894153e-01	 4.578980111612119e+00
 6.755516851946203e-01	 8.681185553631316e-01	 4.953313341977955e+00
 6.933276332521729e-01	 8.539887064625716e-01	 5.367201830965739e+00
 7.108266450599758e-01	 8.394792537078007e-01	 5.819186646855051e+00
 7.280366714477011e-01	 8.245984255552088e-01	 6.307580223217284e+00
 7.449459936267468e-01	 8.093549563708106e-01	 6.830470085447554e+00
 7.615432495605471e-01	 7.937580695983431e-01	 7.385724089217431e+00
 7.778174592890001e-01	 7.778174592890001e-01	 7.970997155810636e+00
 5.985094735409098e-01	 9.154646211500769e-01	 3.344694308195995e+00
 6.171604611753427e-01	 9.029961105311853e-01	 3.742121303798571e+00
 6.355867401407199e-01	 8.901227307191827e-01	 4.096618870472316e+00
 6.537752943212357e-01	 8.768505185978606e-01	 4.427243935811426e+00
 6.717133233459126e-01	 8.631860635717667e-01	 4.800609900187935e+00
 6.893882716985112e-01	 8.491364979035827e-01	 5.215392041799129e+00
 7.067878573028504e-01	 8.347094852212139e-01	 5.670028353178414e+00
 7.239000994497982e-01	 8.199132072284574e-01	 6.162722174946927e+00
 7.407133459347780e-01	 8.047563486642487e-01	 6.691446372472861e+00
 7.572162992782500e-01	 7.892480805663937e-01	 7.253949052285806e+00
 7.733980419062499e-01	 7.733980419062499e-01	 7.847760800015138e+00
 5.950894194059063e-01	 9.102333947434822e-01	 3.171649444149983e+00
 6.136338299678772e-01	 8.978361327570861e-01	 3.561277460060010e+00
 6.319548159104005e-01	 8.850363151157425e-01	 3.942114243896400e+00
 6.500394354954753e-01	 8.718399442067634e-01	 4.270177999728164e+00
 6.678749614971010e-01	 8.582535717809555e-01	 4.642972575822239e+00
 6.854489101448468e-01	 8.442842893452142e-01	 5.059076072382901e+00
 7.027490695458233e-01	 8.299397167352843e-01	 5.516822772183400e+00
 7.197635274520939e-01	 8.152279889023697e-01	 6.014306194867141e+00
 7.364806982431086e-01	 8.001577409583263e-01	 6.549383725484348e+00
 7.528893489963530e-01	 7.847380915350289e-01	 7.119682811136925e+00
 7.689786245240000e-01	 7.689786245240000e-01	 7.722608704288183e+00
 5.916693652703974e-01	 9.050021683368771e-01	 2.992070213375477e+00
 6.101071987600067e-01	 8.926761549831616e-01	 3.374090010387059e+00
 6.283228916797765e-01	 8.799498995126328e-01	 3.781878975120335e+00
 6.463035766695104e-01	 8.668293698161234e-01	 4.107752724845434e+00
 6.640365996481863e-01	 8.533210799906987e-01	 4.480379993459423e+00
 6.815095485911797e-01	 8.394320807874665e-01	 4.898241149908837e+00
 6.987102817888945e-01	 8.251699482500121e-01	 5.359566117635389e+00
 7.156269554545884e-01	 8.105427705769455e-01	 5.862337850711139e+00
 7.322480505517387e-01	 7.955591332530429e-01	 6.404297416066506e+00
 7.485623987148557e-01	 7.802281025042490e-01	 6.982950672688862e+00
 7.645592071422498e-01	 7.645592071422498e-01	 7.595576523138178e+00
 5.882493111343832e-01	 8.997709419302610e-01	 2.805937946557127e+00
 6.065805675517313e-01	 8.875161772094119e-01	 3.180549353605620e+00
 6.246909674488474e-01	 8.748634839098544e-01	 3.613075194277584e+00
 6.425677178433417e-01	 8.618187954259405e-01	 3.939937466494860e+00
 6.601982377991682e-01	 8.483885882009959e-01	 4.312809896427268e+00
 6.775701870375100e-01	 8.345798722303394e-01	 4.732873815290813e+00
 6.946714940320634e-01	 8.204001797653967e-01	 5.198254121723694e+00
 7.114903834572820e-01	 8.058575522521846e-01	 5.706822442705619e+00
 7.280154028606679e-01	 7.909605255483986e-01	 6.256202671339562e+00
 7.442354484337586e-01	 7.757181134740541e-01	 6.843778130996191e+00
 7.601397897609998e-01	 7.601397897609998e-01	 7.466700337930212e+00
 5.848292569978638e-01	 8.945397155236345e-01	 2.613232371382028e+00
 6.030539363430505e-01	 8.823561994358368e-01	 2.980644442950518e+00
 6.210590432176138e-01	 8.697770683074064e-01	 3.408201248570753e+00
 6.388318590169686e-01	 8.568082210362155e-01	 3.766700482683580e+00
 6.563598759500462e-01	 8.434560964118467e-01	 4.140239121035972e+00
 6.736308254838375e-01	 8.297276636738327e-01	 4.562959903096803e+00
 6.906327062753307e-01	 8.156304112814388e-01	 5.032882020981300e+00
 7.073538114601743e-01	 8.011723339280870e-01	 5.547764995747532e+00
 7.237827551698968e-01	 7.863619178443939e-01	 6.105114672659147e+00
 7.399084981530613e-01	 7.712081244444440e-01	 6.702190872720955e+00
 7.557203723802500e-01	 7.557203723802500e-01	 7.336016669367385e+00
 5.814092028608389e-01	 8.893084891169974e-01	 2.413931565392800e+00
 5.995273051339643e-01	 8.771962216624367e-01	 2.774362743548350e+00
 6.174271189860754e-01	 8.646906527052896e-01	 3.197205508626968e+00
 6.350960001903916e-01	 8.517976466469476e-01	 3.588008901819066e+00
 6.525215141008213e-01	 8.385236046232520e-01	 3.962643569900948e+00
 6.696914639301623e-01	 8.248754551179471e-01	 4.388484520775186e+00
 6.865939185186961e-01	 8.108606427981377e-01	 4.863444541705803e+00
 7.032172394632655e-01	 7.964871156046529e-01	 5.385170251307891e+00
 7.195501074794252e-01	 7.817633101410284e-01	 5.951048554269827e+00
 7.355815478727636e-01	 7.666981354154186e-01	 6.558214782799217e+00
 7.513009550000000e-01	 7.513009550000000e-01	 7.203562490412171e+00
 7.954951288250000e-01	 7.954951288249998e-01	 8.444086365497691e+00
 8.117980174388175e-01	 7.788510633304829e-01	 8.928279665975147e+00
 8.277493541285117e-01	 7.618766348356980e-01	 9.403346936356551e+00
 8.433392246814813e-01	 7.445830726538936e-01	 9.867688271205045e+00
 8.585581962027985e-01	 7.269819968216206e-01	 1.031964460869748e+01
 8.733973360046002e-01	 7.090853921996618e-01	 1.075750495204872e+01
 8.878482288198695e-01	 6.909055815044373e-01	 1.117951418015869e+01
 9.019029922722358e-01	 6.724551973962973e-01	 1.158388138543835e+01
 9.155542905443046e-01	 6.537471537558835e-01	 1.196878867034035e+01
 9.287953461982282e-01	 6.347946162834576e-01	 1.233240032856581e+01
 9.416199501136904e-01	 6.156109725587410e-01	 1.308885405053092e+01
 7.910757114402501e-01	 7.910757114402501e-01	 8.328861390985228e+00
 8.072880284506020e-01	 7.745241129763825e-01	 8.816211445967234e+00
 8.231507466031422e-01	 7.576439868623196e-01	 9.292621571398206e+00
 8.386540067642286e-01	 7.404465000262364e-01	 9.756505210355380e+00
 8.537884284439048e-01	 7.229432079489241e-01	 1.020622402121051e+01
 8.685451285803518e-01	 7.051460289086059e-01	 1.064009497788452e+01
 8.829157386580344e-01	 6.870672171621655e-01	 1.105639801684485e+01
 8.968924200915626e-01	 6.687193351885059e-01	 1.145338417026148e+01
 9.104678778180822e-01	 6.501152251244872e-01	 1.182928411868595e+01
 9.236353720521777e-01	 6.312679795275911e-01	 1.218231709139859e+01
 9.363887281686443e-01	 6.121909116020952e-01	 1.308658402791334e+01
 7.866562940559998e-01	 7.866562940559998e-01	 8.211582091915400e+00
 8.027780394629711e-01	 7.701971626226819e-01	 8.702067356150392e+00
 8.185521390784121e-01	 7.534113388892409e-01	 9.179792063295389e+00
 8.339687888476395e-01	 7.363099273987781e-01	 9.643183062544370e+00
 8.490186606856687e-01	 7.189044190763257e-01	 1.009062279517417e+01
 8.636929211567236e-01	 7.012066656175474e-01	 1.052045627349979e+01
 8.779832484967537e-01	 6.832288528197903e-01	 1.093099856412190e+01
 8.918818479113469e-01	 6.649834729805103e-01	 1.132054271635664e+01
 9.053814650921910e-01	 6.464832964927861e-01	 1.168736807103774e+01
 9.184753979063017e-01	 6.277413427713193e-01	 1.202974888001479e+01
 9.311575062235876e-01	 6.087708506449441e-01	 1.308622234010226e+01
 7.822368766722498e-01	 7.822368766722498e-01	 8.092282531964861e+00
 7.982680504759252e-01	 7.658702122693812e-01	 8.585881289295948e+00
 8.139535315543214e-01	 7.491786909164615e-01	 9.064891849939013e+00
 8.292835709317136e-01	 7.321733547715183e-01	 9.527754527975244e+00
 8.442488929280894e-01	 7.148656302038259e-01	 9.972872612259190e+00
 8.588407137337161e-01	 6.972673023264860e-01	 1.039861922392641e+01
 8.730507583360263e-01	 6.793904884773114e-01	 1.080334463578459e+01
 8.868712757315887e-01	 6.612476107723108e-01	 1.118538399593780e+01
 9.002950523666307e-01	 6.428513678607805e-01	 1.154306539266756e+01
 9.133154237606007e-01	 6.242147060146425e-01	 1.191214847417385e+01
 9.259262842785205e-01	 6.053507896872874e-01	 1.308778886759483e+01
 7.778174592890001e-01	 7.778174592890001e-01	 7.970997155810636e+00
 7.937580614894639e-01	 7.615432619164804e-01	 8.467687515234088e+00
 8.093549240308696e-01	 7.449460429439816e-01	 8.947954736726500e+00
 8.245983530164512e-01	 7.280367821444579e-01	 9.410252659220856e+00
 8.394791251711673e-01	 7.108268413314238e-01	 9.853005485818821e+00
 8.539885063113294e-01	 6.933279390354222e-01	 1.027461451969701e+01
 8.681182681758535e-01	 6.755521241347289e-01	 1.067346531951613e+01
 8.818607035522876e-01	 6.575117485639067e-01	 1.104793521814526e+01
 8.952086396414007e-01	 6.392194392284698e-01	 1.139640114355392e+01
 9.081554496150747e-01	 6.206880692575605e-01	 1.192558411512380e+01
 9.206950623334426e-01	 6.019307287291257e-01	 1.309130358581838e+01
 7.733980419062499e-01	 7.733980419062499e-01	 7.847760800015138e+00
 7.892480725035876e-01	 7.572163115639794e-01	 8.347520691626732e+00
 8.047563165080572e-01	 7.407133949718011e-01	 8.829014907062541e+00
 8.199131351018519e-01	 7.239002095175956e-01	 9.290710871290234e+00
 8.347093574149023e-01	 7.067880524591198e-01	 9.731053770365671e+00
 8.491362988895633e-01	 6.893885757443556e-01	 1.014847316557323e+01
 8.631857780162345e-01	 6.717137597920434e-01	 1.054138998471375e+01
 8.768501313734439e-01	 6.537758863552987e-01	 1.090822383581530e+01
 8.901222269165020e-01	 6.355875105958544e-01	 1.124740058394554e+01
 9.029954754697231e-01	 6.171614325000733e-01	 1.194120260096383e+01
 9.154638403883540e-01	 5.985106677704584e-01	 1.309678656784292e+01
 7.689786245240000e-01	 7.689786245240000e-01	 7.722608704288183e+00
 7.847380835182962e-01	 7.528893612118780e-01	 8.225415875111922e+00
 8.001577089858843e-01	 7.364807469999203e-01	 8.708106933221156e+00
 8.152279171879164e-01	 7.197636368909329e-01	 9.169162952044186e+00
 8.299395896592946e-01	 7.027492635869141e-01	 9.607050171375192e+00
 8.442840914684180e-01	 6.854492124532864e-01	 1.002022648957539e+01
 8.582532878571693e-01	 6.678753954492540e-01	 1.040714829058362e+01
 8.718395591950575e-01	 6.500400241464864e-01	 1.076627755248199e+01
 8.850358141919342e-01	 6.319555819629344e-01	 1.109608918011533e+01
 8.978355013245467e-01	 6.136347957421808e-01	 1.195902614033149e+01
 9.102326184432551e-01	 5.950906068112862e-01	 1.310425798718708e+01
 7.645592071422498e-01	 7.645592071422498e-01	 7.595576523138178e+00
 7.802280945335894e-01	 7.485624108601767e-01	 8.101408532835466e+00
 7.955591014643505e-01	 7.322480990283385e-01	 8.585265787585278e+00
 8.105426992746437e-01	 7.156270642644684e-01	 9.045643072970643e+00
 8.251698219043437e-01	 6.987104747148063e-01	 9.481027755429446e+00
 8.394318840478932e-01	 6.815098491622145e-01	 9.889906152325294e+00
 8.533207976986584e-01	 6.640370311063615e-01	 1.027077019451738e+01
 8.668289870171287e-01	 6.463041619374701e-01	 1.062212432962403e+01
 8.799494014676974e-01	 6.283236533297095e-01	 1.094249261031566e+01
 8.926755271795448e-01	 6.101081589838833e-01	 1.197907710227025e+01
 9.050013964981455e-01	 5.916705458516083e-01	 1.311373812072086e+01
 7.601397897609998e-01	 7.601397897609998e-01	 7.466700337930212e+00
 7.757181055494677e-01	 7.442354605088755e-01	 7.975534554383848e+00
 7.909604939434561e-01	 7.280154510570566e-01	 8.460526854276763e+00
 8.058574813620351e-01	 7.114904916382032e-01	 8.920185800337647e+00
 8.204000541500504e-01	 6.946716858427967e-01	 9.353019960713185e+00
 8.345796766279890e-01	 6.775704858711398e-01	 9.757544156715102e+00
 8.483883075407015e-01	 6.601986667633654e-01	 1.013228596075959e+01
 8.618184148396573e-01	 6.425682997282495e-01	 1.047579239416210e+01
 8.748629887437911e-01	 6.246917246961800e-01	 1.080278790019568e+01
 8.875155530347176e-01	 6.065815222251805e-01	 1.200137802089167e+01
 8.997701745530252e-01	 5.882504848914254e-01	 1.312524735167053e+01
 7.557203723802500e-01	 7.557203723802500e-01	 7.336016669367385e+00
 7.712081165659306e-01	 7.399085101579738e-01	 7.847830264136417e+00
 7.863618864232010e-01	 7.237828030860737e-01	 8.333925941196433e+00
 8.011722634500894e-01	 7.073539190121366e-01	 8.792826106735607e+00
 8.156302863964140e-01	 6.906328969708853e-01	 9.223060607881463e+00
 8.297274692087055e-01	 6.736311225800626e-01	 9.623172857914772e+00
 8.434558173832983e-01	 6.563603024202657e-01	 9.991726169380685e+00
 8.568078426626429e-01	 6.388324375188247e-01	 1.032731024622085e+01
 8.697765760202159e-01	 6.210597960623455e-01	 1.083754064798733e+01
 8.823555788900656e-01	 6.030548854660728e-01	 1.202595160020302e+01
 8.945389526078943e-01	 5.848304239307369e-01	 1.313880617272811e+01
 7.513009550000000e-01	 7.513009550000000e-01	 7.203562490412171e+00
 7.666981275829785e-01	 7.355815598074720e-01	 7.718332434053385e+00
 7.817632789035854e-01	 7.195501551153904e-01	 8.205499292487836e+00
 7.964870455388072e-01	 7.032173463862689e-01	 8.663599383028393e+00
 8.108605186434349e-01	 6.865941080990721e-01	 9.091183911306576e+00
 8.248752617900428e-01	 6.696917592889827e-01	 9.486824973733221e+00
 8.385233272264494e-01	 6.525219380770627e-01	 9.849121725565690e+00
 8.517972704860858e-01	 6.350965753091957e-01	 1.017670666716422e+01
 8.646901632969713e-01	 6.174278674282064e-01	 1.087480144389361e+01
 8.771956047455881e-01	 5.995282487065597e-01	 1.205282071910320e+01
 8.893077306627529e-01	 5.814103629695435e-01	 1.315443518927110e+01
 9.416199501136904e-01	 6.156109725587410e-01	 1.308885405053093e+01
 9.540224695195425e-01	 5.962098017009262e-01	 1.377302658696627e+01
 9.659978541089433e-01	 5.766048437667730e-01	 1.440569425529718e+01
 9.775416402367315e-01	 5.568099690270316e-01	 1.498729017161419e+01
 9.886499532091959e-01	 5.368391472596017e-01	 1.551826592964643e+01
 9.993195076898076e-01	 5.167064171925493e-01	 1.599908572850794e+01
 1.009547606253047e+00	 4.964258562287497e-01	 1.643022123180615e+01
 1.019332136129044e+00	 4.760115505788748e-01	 1.681214717827292e+01
 1.028671564191268e+00	 4.554775659241303e-01	 1.714533775217914e+01
 1.037564930248352e+00	 4.348379187240831e-01	 1.743026371033668e+01
 1.046011838709305e+00	 4.141065482781622e-01	 1.766739025166848e+01
 9.363887281686443e-01	 6.121909116020952e-01	 1.308658402791334e+01
 9.487223446894164e-01	 5.928975250275331e-01	 1.376845817089756e+01
 9.606311993648236e-01	 5.734014835269096e-01	 1.440129131119469e+01
 9.721108533477332e-01	 5.537165803139155e-01	 1.498531265731217e+01
 9.831574534705110e-01	 5.338567075565743e-01	 1.552076664684499e+01
 9.937677326484988e-01	 5.138358259900196e-01	 1.600790804697940e+01
 1.003939008441876e+00	 4.936679348093340e-01	 1.644699776813538e+01
 1.013669179818383e+00	 4.733670419684649e-01	 1.683829940503985e+01
 1.022956722168860e+00	 4.529471350059461e-01	 1.718207650805785e+01
 1.031800680636339e+00	 4.324221525121261e-01	 1.747859057663091e+01
 1.040200661827557e+00	 4.118059563458839e-01	 1.772809975634890e+01
 9.311575062235876e-01	 6.087708506449441e-01	 1.308622234010226e+01
 9.434222198590955e-01	 5.895852483535454e-01	 1.376641330772573e+01
 9.552645446203550e-01	 5.701981232863821e-01	 1.440005327413902e+01
 9.666800664582633e-01	 5.506231916000869e-01	 1.498716650730630e+01
 9.776649537312624e-01	 5.308742678528068e-01	 1.552778918051238e+01
 9.882159576065644e-01	 5.109652347867418e-01	 1.602196544985453e+01
 9.983304106300467e-01	 4.909100133891826e-01	 1.646974422703759e+01
 1.008006223507062e+00	 4.707225333573514e-01	 1.687117665585847e+01
 1.017241880145820e+00	 4.504167040871099e-01	 1.722631428973684e+01
 1.026036431023750e+00	 4.300063862995889e-01	 1.753520795714302e+01
 1.034389484945319e+00	 4.095053644131161e-01	 1.779790729195404e+01
 9.259262842785205e-01	 6.053507896872874e-01	 1.308778886759483e+01
 9.381220950285795e-01	 5.862729716789622e-01	 1.376692385955781e+01
 9.498978898755379e-01	 5.669947630451908e-01	 1.440202430845775e+01
 9.612492795683215e-01	 5.475298028855463e-01	 1.499290848130467e+01
 9.721724539914496e-01	 5.278918281482988e-01	 1.553940315116746e+01
 9.826641825640042e-01	 5.080946435827162e-01	 1.604134065599089e+01
 9.927218128175598e-01	 4.881520919682955e-01	 1.649855663526443e+01
 1.002343267195081e+00	 4.680780247455344e-01	 1.691088844698860e+01
 1.011527038122148e+00	 4.478862731676225e-01	 1.727817425678493e+01
 1.020272181410586e+00	 4.275906200864715e-01	 1.760025278096131e+01
 1.028578308062591e+00	 4.072047724798583e-01	 1.787696365602454e+01
 9.206950623334426e-01	 6.019307287291257e-01	 1.309130358581838e+01
 9.328219701978682e-01	 5.829606950037843e-01	 1.377002204723886e+01
 9.445312351303716e-01	 5.637914028033355e-01	 1.440724920969497e+01
 9.558184926779082e-01	 5.444364141702933e-01	 1.500259625080539e+01
 9.666799542510729e-01	 5.249093884430507e-01	 1.555567937920011e+01
 9.771124075208180e-01	 5.052240523779424e-01	 1.606611787910567e+01
 9.871132150044155e-01	 4.853941705466729e-01	 1.653353281571493e+01
 9.966803108824405e-01	 4.654335161330141e-01	 1.695754639780848e+01
 1.005812196097844e+00	 4.453558422474835e-01	 1.733778198392399e+01
 1.014507931796846e+00	 4.251748538727739e-01	 1.767386470880290e+01
 1.022767131179374e+00	 4.049041805461108e-01	 1.796542269802422e+01
 9.154638403883540e-01	 5.985106677704584e-01	 1.309678656784292e+01
 9.275218453669616e-01	 5.796484183280115e-01	 1.377574046060218e+01
 9.391645803848568e-01	 5.605880425608165e-01	 1.441577342264604e+01
 9.503877057870230e-01	 5.413430254543278e-01	 1.501628842514792e+01
 9.611874545101320e-01	 5.219269487370621e-01	 1.557668991915326e+01
 9.715606324770054e-01	 5.023534611724205e-01	 1.609638287048593e+01
 9.815046171906130e-01	 4.826362491243143e-01	 1.657477243875372e+01
 9.910173545691400e-01	 4.627890075197903e-01	 1.701126429090378e+01
 1.000097354072907e+00	 4.428254113266930e-01	 1.740526553003326e+01
 1.008743682182532e+00	 4.227590876584962e-01	 1.775618621106028e+01
 1.016955954295666e+00	 4.026035886118736e-01	 1.806344140653776e+01
 9.102326184432551e-01	 5.950906068112862e-01	 1.310425798718708e+01
 9.222217205358605e-01	 5.763361416516439e-01	 1.378411206907184e+01
 9.337979256389933e-01	 5.573846823176334e-01	 1.442764306001391e+01
 9.449569188956665e-01	 5.382496367376502e-01	 1.503404457846245e+01
 9.556949547686273e-01	 5.189445090303332e-01	 1.560250809518736e+01
 9.660088574325674e-01	 4.994828699661508e-01	 1.613222296317187e+01
 9.758960193761529e-01	 4.798783277012202e-01	 1.662237707529944e+01
 9.853543982551802e-01	 4.601444989058631e-01	 1.707215813422882e+01
 9.943825120473381e-01	 4.402949804052509e-01	 1.748075550953326e+01
 1.002979432567641e+00	 4.203433214436381e-01	 1.784736264853890e+01
 1.011144777411470e+00	 4.003029966771468e-01	 1.817117999947543e+01
 9.050013964981455e-01	 5.916705458516083e-01	 1.311373812072086e+01
 9.169215957045638e-01	 5.730238649746811e-01	 1.379517023263397e+01
 9.284312708927808e-01	 5.541813220737865e-01	 1.444290492171329e+01
 9.395261320038381e-01	 5.351562480202601e-01	 1.505592527755400e+01
 9.502024550265584e-01	 5.159620693228640e-01	 1.563320853777395e+01
 9.604570823875032e-01	 4.966122787591328e-01	 1.617372711767210e+01
 9.702874215610351e-01	 4.771204062773905e-01	 1.667645025175391e+01
 9.796914419405601e-01	 4.574999902912325e-01	 1.714034622542364e+01
 9.886676700211368e-01	 4.377645494831573e-01	 1.756438516624516e+01
 9.972151829521755e-01	 4.179275552281999e-01	 1.794754235599542e+01
 1.005333600526783e+00	 3.980024047419303e-01	 1.828880201740620e+01
 8.997701745530252e-01	 5.882504848914254e-01	 1.312524735167054e+01
 9.116214708730721e-01	 5.697115882971234e-01	 1.380894871319013e+01
 9.230646161462198e-01	 5.509779618292756e-01	 1.446160651484720e+01
 9.340953451115379e-01	 5.320628593021577e-01	 1.508199211075924e+01
 9.447099552839260e-01	 5.129796296146547e-01	 1.566886722167040e+01
 9.549053073418129e-01	 4.937416875513668e-01	 1.622098596927354e+01
 9.646788237452593e-01	 4.743624848528251e-01	 1.673709750684741e+01
 9.740284856252802e-01	 4.548554816758984e-01	 1.721594921837446e+01
 9.829528279943035e-01	 4.352341185604123e-01	 1.765629044982713e+01
 9.914509333361348e-01	 4.155117890121817e-01	 1.805687672858952e+01
 9.995224236416068e-01	 3.957018128062239e-01	 1.841647442014656e+01
 8.945389526078943e-01	 5.848304239307369e-01	 1.313880617272810e+01
 9.063213460413851e-01	 5.663993116189707e-01	 1.382548168630908e+01
 9.176979613993100e-01	 5.477746015841010e-01	 1.448379607438563e+01
 9.286645582187663e-01	 5.289694705833431e-01	 1.511230771781589e+01
 9.392174555407290e-01	 5.099971899057049e-01	 1.570956150522597e+01
 9.493535322954966e-01	 4.908710963428530e-01	 1.627409187701205e+01
 9.590702259288257e-01	 4.716045634275239e-01	 1.680442645047901e+01
 9.683655293093408e-01	 4.522109730598609e-01	 1.729909019210988e+01
 9.772379859668381e-01	 4.327036876370157e-01	 1.775661009489214e+01
 9.856866837195182e-01	 4.130960227955831e-01	 1.817552031136934e+01
 9.937112467559407e-01	 3.934012208700279e-01	 1.855436768673859e+01
 8.893077306627529e-01	 5.814103629695435e-01	 1.315443518927110e+01
 9.010212212095035e-01	 5.630870349402234e-01	 1.384480375339365e+01
 9.123313066520512e-01	 5.445712413382624e-01	 1.450952258457273e+01
 9.232337713255228e-01	 5.258760818638161e-01	 1.514693582078609e+01
 9.337249557969681e-01	 5.070147501960147e-01	 1.575537017107632e+01
 9.438017572485544e-01	 4.880005051335909e-01	 1.633313897437044e+01
 9.534616281117342e-01	 4.688466420014871e-01	 1.687854682463297e+01
 9.627025729927415e-01	 4.495664644431200e-01	 1.738989472212848e+01
 9.715231439387405e-01	 4.301732567129676e-01	 1.786548570291859e+01
 9.799224341023265e-01	 4.106802565784043e-01	 1.830363089191566e+01
 9.879000698697851e-01	 3.911006289333422e-01	 1.870265591895664e+01
 1.046011838709305e+00	 4.141065482781622e-01	 1.766739025166848e+01
 1.054012448698681e+00	 3.932972896415816e-01	 1.820040054271180e+01
 1.061567462705180e+00	 3.724238474906104e-01	 1.869294043087792e+01
 1.068678113852559e+00	 3.514997710211837e-01	 1.914441042920733e+01
 1.075346151886618e+00	 3.305384299564655e-01	 1.955421555156182e+01
 1.081573827976446e+00	 3.095529917325722e-01	 1.992176966142903e+01
 1.087363878431055e+00	 2.885563999206454e-01	 2.024650012237747e+01
 1.092719507434896e+00	 2.675613539349599e-01	 2.052785267608596e+01
 1.097644368907272e+00	 2.465802900677319e-01	 2.076529647348170e+01
 1.102142547591368e+00	 2.256253638823921e-01	 2.095832918525806e+01
 1.106218539478505e+00	 2.047084339883523e-01	 2.110648211983695e+01
 1.040200661827557e+00	 4.118059563458839e-01	 1.772809975634890e+01
 1.048156823983143e+00	 3.911123047011488e-01	 1.827661059948477e+01
 1.055669865689176e+00	 3.703548261172301e-01	 1.878399443170968e+01
 1.062741013218729e+00	 3.495469945167508e-01	 1.924964886582438e+01
 1.069372006596789e+00	 3.287021053466337e-01	 1.967297933412996e+01
 1.075565084485949e+00	 3.078332528905708e-01	 2.005340330190866e+01
 1.081322967993503e+00	 2.869533088109735e-01	 2.039035476490370e+01
 1.086648843502876e+00	 2.660749019698129e-01	 2.068328895886598e+01
 1.091546344633818e+00	 2.452103995687910e-01	 2.093168720889693e+01
 1.096019533436495e+00	 2.243718896404284e-01	 2.113506184707933e+01
 1.100072880924498e+00	 2.035711649129715e-01	 2.129296112867456e+01
 1.034389484945319e+00	 4.095053644131161e-01	 1.779790729195404e+01
 1.042301199267208e+00	 3.889273197603154e-01	 1.836189428207286e+01
 1.049772268672862e+00	 3.682858047435174e-01	 1.888410195644572e+01
 1.056803912584663e+00	 3.475942180120330e-01	 1.936392509772049e+01
 1.063397861306787e+00	 3.268657807365440e-01	 1.980076958983737e+01
 1.069556340995332e+00	 3.061135140483179e-01	 2.019405649751246e+01
 1.075282057555875e+00	 2.853502177010361e-01	 2.054322641228239e+01
 1.080578179570813e+00	 2.645884500043668e-01	 2.084774399529703e+01
 1.085448320360346e+00	 2.438405090694980e-01	 2.110710264676237e+01
 1.089896519281619e+00	 2.231184153980408e-01	 2.132082923271879e+01
 1.093927222370491e+00	 2.024338958370760e-01	 2.148848880162336e+01
 1.028578308062591e+00	 4.072047724798583e-01	 1.787696365602455e+01
 1.036445574550879e+00	 3.867423348190815e-01	 1.845640198186343e+01
 1.043874671656237e+00	 3.662167833694726e-01	 1.899341288854943e+01
 1.050866811950360e+00	 3.456414415070303e-01	 1.948738840038724e+01
 1.057423716016612e+00	 3.250294561261960e-01	 1.993773488822294e+01
 1.063547597504596e+00	 3.043937752058128e-01	 2.034387701623787e+01
 1.069241147118170e+00	 2.837471265908329e-01	 2.070526193807777e+01
 1.074507515638708e+00	 2.631019980386216e-01	 2.102136367460026e+01
 1.079350296086854e+00	 2.424706185698530e-01	 2.129168760528977e+01
 1.083773505126738e+00	 2.218649411552291e-01	 2.151577500619533e+01
 1.087781563816485e+00	 2.012966267606660e-01	 2.169320756902449e+01
 1.022767131179374e+00	 4.049041805461108e-01	 1.796542269802422e+01
 1.030589949834155e+00	 3.845573498774475e-01	 1.856028713959871e+01
 1.037977074639302e+00	 3.641477619950954e-01	 1.911208015750181e+01
 1.044929711315819e+00	 3.436886650017427e-01	 1.962019109124382e+01
 1.051449570726263e+00	 3.231931315155895e-01	 2.008402683592736e+01
 1.057538854013740e+00	 3.026740363630560e-01	 2.050301565764118e+01
 1.063200236680390e+00	 2.821440354803642e-01	 2.087661124117355e+01
 1.068436851706560e+00	 2.616155460725771e-01	 2.120429690440139e+01
 1.073252271813344e+00	 2.411007280698561e-01	 2.148558991352750e+01
 1.077650490971851e+00	 2.206114669119935e-01	 2.172004583416674e+01
 1.081635905262478e+00	 2.001593576837412e-01	 2.190726285505461e+01
 1.016955954295666e+00	 4.026035886118736e-01	 1.806344140653776e+01
 1.024734325117036e+00	 3.823723649354129e-01	 1.867370633250054e+01
 1.032079477622055e+00	 3.620787406203863e-01	 1.924025982583104e+01
 1.038992610681042e+00	 3.417358884961702e-01	 1.976248861654927e+01
 1.045475425435741e+00	 3.213568069047251e-01	 2.023980016346730e+01
 1.051530110522764e+00	 3.009542975200472e-01	 2.067162633945365e+01
 1.057159326242533e+00	 2.805409443696298e-01	 2.105742733221066e+01
 1.062366187774369e+00	 2.601290941062337e-01	 2.139669569697083e+01
 1.067154247539815e+00	 2.397308375695071e-01	 2.168896049738433e+01
 1.071527476816960e+00	 2.193579926683338e-01	 2.193379147171926e+01
 1.075490246708472e+00	 1.990220886063018e-01	 2.213080316326406e+01
 1.011144777411470e+00	 4.003029966771468e-01	 1.817117999947543e+01
 1.018878700399522e+00	 3.801873799929780e-01	 1.879681936439868e+01
 1.026181880604498e+00	 3.600097192453448e-01	 1.937811117914219e+01
 1.033055510046029e+00	 3.397831119903129e-01	 1.991443964131156e+01
 1.039501280145047e+00	 3.195204822936025e-01	 2.040521281500195e+01
 1.045521367031669e+00	 2.992345586767866e-01	 2.084986618718413e+01
 1.051118415804600e+00	 2.789378532586298e-01	 2.124786642300539e+01
 1.056295523842136e+00	 2.586426421395911e-01	 2.159871525843757e+01
 1.061056223266267e+00	 2.383609470688060e-01	 2.190195346861981e+01
 1.065404462662065e+00	 2.181045184242502e-01	 2.215716485111558e+01
 1.069344588154466e+00	 1.978848195283477e-01	 2.236398016506457e+01
 1.005333600526783e+00	 3.980024047419303e-01	 1.828880201740620e+01
 1.013023075681613e+00	 3.780023950501427e-01	 1.892978935898595e+01
 1.020284283586631e+00	 3.579406978699712e-01	 1.952579681926991e+01
 1.027118409410778e+00	 3.378303354841707e-01	 2.007620614231522e+01
 1.033527134854179e+00	 3.176841576822215e-01	 2.058042604121301e+01
 1.039512623540453e+00	 2.975148198332739e-01	 2.103789562682944e+01
 1.045077505366590e+00	 2.773347621473641e-01	 2.144808801906916e+01
 1.050224859909860e+00	 2.571561901726495e-01	 2.181051408109732e+01
 1.054958198992700e+00	 2.369910565677530e-01	 2.212472621692075e+01
 1.059281448507164e+00	 2.168510441797426e-01	 2.239032217362081e+01
 1.063198929600459e+00	 1.967475504498789e-01	 2.260694879128605e+01
 9.995224236416068e-01	 3.957018128062239e-01	 1.841647442014656e+01
 1.007167450963309e+00	 3.758174101069069e-01	 1.907278285632533e+01
 1.014386686568452e+00	 3.558716764942654e-01	 1.968348276068047e+01
 1.021181308775291e+00	 3.358775589777435e-01	 2.024795350439371e+01
 1.027552989563138e+00	 3.158478330705823e-01	 2.076560449542432e+01
 1.033503880049119e+00	 2.957950809895096e-01	 2.123587848081880e+01
 1.039036594928505e+00	 2.757316710358328e-01	 2.165825501535520e+01
 1.044154195977542e+00	 2.556697382054086e-01	 2.203225403894052e+01
 1.048860174719115e+00	 2.356211660663479e-01	 2.235743950518997e+01
 1.053158434352260e+00	 2.155975699348111e-01	 2.263342300453154e+01
 1.057053271046453e+00	 1.956102813708955e-01	 2.285986732692697e+01
 9.937112467559407e-01	 3.934012208700279e-01	 1.855436768673859e+01
 1.001311826244610e+00	 3.736324251632709e-01	 1.922596991274416e+01
 1.008489089549963e+00	 3.538026551182273e-01	 1.985133853025619e+01
 1.015244208139567e+00	 3.339247824710316e-01	 2.042985062008009e+01
 1.021578844271924e+00	 3.140115084586850e-01	 2.096091633309456e+01
 1.027495136557664e+00	 2.940753421454933e-01	 2.144398206732474e+01
 1.032995684490343e+00	 2.741285799240361e-01	 2.187853379536532e+01
 1.038083532045181e+00	 2.541832862378688e-01	 2.226410048653234e+01
 1.042762150445510e+00	 2.342512755645909e-01	 2.260025756817812e+01
 1.047035420197350e+00	 2.143440956894554e-01	 2.288663037153925e+01
 1.050907612492446e+00	 1.944730122913974e-01	 2.312289750922951e+01
 9.879000698697851e-01	 3.911006289333422e-01	 1.870265591895664e+01
 9.954562015255157e-01	 3.714474402192344e-01	 1.938952420425366e+01
 1.002591492531163e+00	 3.517336337418570e-01	 2.002953727060201e+01
 1.009307107503605e+00	 3.319720059640346e-01	 2.062206999277457e+01
 1.015604698980536e+00	 3.121751838465295e-01	 2.116653331482096e+01
 1.021486393066090e+00	 2.923556033012252e-01	 2.166237730307895e+01
 1.026954774052105e+00	 2.725254888119736e-01	 2.210909433375404e+01
 1.032012868112777e+00	 2.526968342700297e-01	 2.250622236138256e+01
 1.036664126171887e+00	 2.328813850624818e-01	 2.285334821459703e+01
 1.040912406042436e+00	 2.130906214436759e-01	 2.315011086656566e+01
 1.044761953938440e+00	 1.933357432113846e-01	 2.339620462921620e+01
 1.106218539478505e+00	 2.047084339883523e-01	 2.110648211983695e+01
 1.109877231672738e+00	 1.838410472119971e-01	 2.142775653189421e+01
 1.113123881798189e+00	 1.630344251697315e-01	 2.169680160862702e+01
 1.115964097050903e+00	 1.422994522418954e-01	 2.191427788272389e+01
 1.118403812994213e+00	 1.216466649391038e-01	 2.208088068406094e+01
 1.120449272191891e+00	 1.010862426446089e-01	 2.219734116306100e+01
 1.122107002770802e+00	 8.062799971050828e-02	 2.226442722707349e+01
 1.123383797000342e+00	 6.028137887946551e-02	 2.228294435529868e+01
 1.124286689971457e+00	 4.005544599815154e-02	 2.225373626200025e+01
 1.124822938453228e+00	 1.995888598368898e-02	 2.217768538214737e+01
 1.125000000000000e+00	 0.000000000000000e+00	 2.205571315811665e+01
 1.100072880924498e+00	 2.035711649129715e-01	 2.129296112867456e+01
 1.103711247051248e+00	 1.828197080636284e-01	 2.161849912989288e+01
 1.106939860231792e+00	 1.621286783663531e-01	 2.189186931534709e+01
 1.109764296511083e+00	 1.415088997327085e-01	 2.211371894502788e+01
 1.112190458477105e+00	 1.209708501371425e-01	 2.228473079726660e+01
 1.114224554012720e+00	 1.005246524107813e-01	 2.240562414896308e+01
 1.115873074977423e+00	 8.018006638154723e-02	 2.247715566630093e+01
 1.117142775905779e+00	 5.994648233242563e-02	 2.250012017235695e+01
 1.118040652804898e+00	 3.983291574427596e-02	 2.247535126217028e+01
 1.118573922128475e+00	 1.984800328468466e-02	 2.240372174016778e+01
 1.118750000000000e+00	 0.000000000000000e+00	 2.228614385925966e+01
 1.093927222370491e+00	 2.024338958370760e-01	 2.148848880162336e+01
 1.097545262429759e+00	 1.817983689146612e-01	 2.181841841894995e+01
 1.100755838665394e+00	 1.612229315623238e-01	 2.209625134328837e+01
 1.103564495971262e+00	 1.407183472228495e-01	 2.232262104508317e+01
 1.105977103959997e+00	 1.202950353345185e-01	 2.249819721283108e+01
 1.107999835833550e+00	 9.996306217633016e-02	 2.262368669365370e+01
 1.109639147184044e+00	 7.973213305203124e-02	 2.269983434177148e+01
 1.110901754811217e+00	 5.961158578492809e-02	 2.272742374214416e+01
 1.111794615638339e+00	 3.961038549006808e-02	 2.270727778064553e+01
 1.112324905803722e+00	 1.973712058550080e-02	 2.264025903640524e+01
 1.112500000000000e+00	 0.000000000000000e+00	 2.252726997629944e+01
 1.087781563816485e+00	 2.012966267606660e-01	 2.169320756902449e+01
 1.091379277808269e+00	 1.807770297650954e-01	 2.202765739039670e+01
 1.094571817098995e+00	 1.603171847576436e-01	 2.231009127596756e+01
 1.097364695431442e+00	 1.399277947123184e-01	 2.254112838893403e+01
 1.099763749442888e+00	 1.196192205312316e-01	 2.272142478885816e+01
 1.101775117654379e+00	 9.940147194125558e-02	 2.285167433605730e+01
 1.103405219390665e+00	 7.928419972196031e-02	 2.293260950125415e+01
 1.104660733716655e+00	 5.927668923697291e-02	 2.296500204859000e+01
 1.105548578471779e+00	 3.938785523552791e-02	 2.294966356414896e+01
 1.106075889478969e+00	 1.962623788613743e-02	 2.288744580634473e+01
 1.106250000000000e+00	 0.000000000000000e+00	 2.277924085880342e+01
 1.081635905262478e+00	 2.001593576837412e-01	 2.190726285505461e+01
 1.085213293186779e+00	 1.797556906149309e-01	 2.224636206252194e+01
 1.088387795532598e+00	 1.594114379523125e-01	 2.253353575876100e+01
 1.091164894891622e+00	 1.391372422011152e-01	 2.276938828107723e+01
 1.093550394925781e+00	 1.189434057272820e-01	 2.295456152009826e+01
 1.095550399475209e+00	 9.883988170555739e-02	 2.308973579144892e+01
 1.097171291597287e+00	 7.883626639133443e-02	 2.317563060999109e+01
 1.098419712622093e+00	 5.894179268856006e-02	 2.321300533554625e+01
 1.099302541305220e+00	 3.916532498065542e-02	 2.320265966300887e+01
 1.099826873154216e+00	 1.951535518659453e-02	 2.314543393390272e+01
 1.100000000000000e+00	 0.000000000000000e+00	 2.304220925064799e+01
 1.075490246708472e+00	 1.990220886063018e-01	 2.213080316326406e+01
 1.079047308565290e+00	 1.787343514641679e-01	 2.247468156705674e+01
 1.082203773966200e+00	 1.585056911463306e-01	 2.276673458638626e+01
 1.084965094351802e+00	 1.383466896892400e-01	 2.300755121298933e+01
 1.087337040408672e+00	 1.182675909226697e-01	 2.319775862756680e+01
 1.089325681296038e+00	 9.827829146923577e-02	 2.333802304220718e+01
 1.090937363803908e+00	 7.838833306015364e-02	 2.342905044262535e+01
 1.092178691527530e+00	 5.860689613968957e-02	 2.347158719992721e+01
 1.093056504138661e+00	 3.894279472545065e-02	 2.346642052554768e+01
 1.093577856829463e+00	 1.940447248687210e-02	 2.341437874709651e+01
 1.093750000000000e+00	 0.000000000000000e+00	 2.331633138699857e+01
 1.069344588154466e+00	 1.978848195283477e-01	 2.236398016506457e+01
 1.072881323943800e+00	 1.777130123128063e-01	 2.271276823864103e+01
 1.076019752399802e+00	 1.575999443396977e-01	 2.300984079340061e+01
 1.078765293811981e+00	 1.375561371766926e-01	 2.325577095470660e+01
 1.081123685891564e+00	 1.175917761173946e-01	 2.345117065125307e+01
 1.083100963116868e+00	 9.771670123229056e-02	 2.359669143169641e+01
 1.084703436010529e+00	 7.794039972841788e-02	 2.369302517829856e+01
 1.085937670432968e+00	 5.827199959036142e-02	 2.374090468806222e+01
 1.086810466972102e+00	 3.872026446991360e-02	 2.374110409572539e+01
 1.087328840504711e+00	 1.929358978697015e-02	 2.369443911701263e+01
 1.087500000000000e+00	 0.000000000000000e+00	 2.360176709463422e+01
 1.063198929600459e+00	 1.967475504498789e-01	 2.260694879128605e+01
 1.066715339322310e+00	 1.766916731608462e-01	 2.296077770739324e+01
 1.069835730833404e+00	 1.566941975324140e-01	 2.326301074783784e+01
 1.072565493272161e+00	 1.367655846634732e-01	 2.351420464958105e+01
 1.074910331374456e+00	 1.169159613114567e-01	 2.371495554604431e+01
 1.076876244937697e+00	 9.715511099472186e-02	 2.386589976140516e+01
 1.078469508217150e+00	 7.749246639612718e-02	 2.396771449904694e+01
 1.079696649338405e+00	 5.793710304057563e-02	 2.402111839538976e+01
 1.080564429805542e+00	 3.849773421404423e-02	 2.402687191416951e+01
 1.081079824179958e+00	 1.918270708688867e-02	 2.398577756020788e+01
 1.081250000000000e+00	 0.000000000000000e+00	 2.389867989575135e+01
 1.057053271046453e+00	 1.956102813708955e-01	 2.285986732692697e+01
 1.060549354700820e+00	 1.756703340082873e-01	 2.321886899470911e+01
 1.063651709267006e+00	 1.557884507244794e-01	 2.352640424811175e+01
 1.066365692732340e+00	 1.359750321495816e-01	 2.378301291234195e+01
 1.068696976857348e+00	 1.162401465048560e-01	 2.398927478099591e+01
 1.070651526758527e+00	 9.659352075652966e-02	 2.414581039147289e+01
 1.072235580423771e+00	 7.704453306328157e-02	 2.425328169162959e+01
 1.073455628243843e+00	 5.760220649033218e-02	 2.431239256962913e+01
 1.074318392638983e+00	 3.827520395784257e-02	 2.432388922272957e+01
 1.074830807855205e+00	 1.907182438662767e-02	 2.428856034468209e+01
 1.075000000000000e+00	 0.000000000000000e+00	 2.420723711538877e+01
 1.050907612492446e+00	 1.944730122913974e-01	 2.312289750922951e+01
 1.054383370079331e+00	 1.746489948551299e-01	 2.348720461242180e+01
 1.057467687700608e+00	 1.548827039158939e-01	 2.380018462331962e+01
 1.060165892192520e+00	 1.351844796350180e-01	 2.406235993059799e+01
 1.062483622340241e+00	 1.155643316975926e-01	 2.427429344208513e+01
 1.064426808579356e+00	 9.603193051771390e-02	 2.443658934474431e+01
 1.066001652630393e+00	 7.659659972988100e-02	 2.454989375292974e+01
 1.067214607149281e+00	 5.726730993963109e-02	 2.461489521757240e+01
 1.068072355472423e+00	 3.805267370130860e-02	 2.463232507269980e+01
 1.068581791530452e+00	 1.896094168618714e-02	 2.460295759956965e+01
 1.068750000000000e+00	 0.000000000000000e+00	 2.452760999262189e+01
 1.044761953938440e+00	 1.933357432113846e-01	 2.339620462921620e+01
 1.048217385457841e+00	 1.736276557013739e-01	 2.376595066546189e+01
 1.051283666134210e+00	 1.539769571066575e-01	 2.408451883708584e+01
 1.053966091652700e+00	 1.343939271197823e-01	 2.435241356992215e+01
 1.056270267823132e+00	 1.148885168896664e-01	 2.457018033859072e+01
 1.058202090400186e+00	 9.547034027827463e-02	 2.473840641449565e+01
 1.059767724837014e+00	 7.614866639592550e-02	 2.485772149907607e+01
 1.060973586054718e+00	 5.693241338847237e-02	 2.492879821564529e+01
 1.061826318305864e+00	 3.783014344444236e-02	 2.495235243686172e+01
 1.062332775205699e+00	 1.885005898556709e-02	 2.492914342870206e+01
 1.062500000000000e+00	 0.000000000000000e+00	 2.485997379568148e+01
 0.000000000000000e+00	 1.062500000000000e+00	-3.777303657706814e-01
 1.885005898556716e-02	 1.062332775205699e+00	-3.902429082481786e-01
 3.783014344444251e-02	 1.061826318305864e+00	-3.957470400015284e-01
 5.693241338847256e-02	 1.060973586054718e+00	-3.950966733787999e-01
 7.614866639592580e-02	 1.059767724837014e+00	-3.890392625618357e-01
 9.547034027827499e-02	 1.058202090400186e+00	-3.782054778789754e-01
 1.148885168896669e-01	 1.056270267823132e+00	-3.630995077380965e-01
 1.343939271197828e-01	 1.053966091652700e+00	-3.440901303900814e-01
 1.539769571066580e-01	 1.051283666134210e+00	-3.214026991094401e-01
 1.736276557013745e-01	 1.048217385457841e+00	-2.951121839233033e-01
 1.933357432113846e-01	 1.044761953938440e+00	-2.651374106142659e-01
 0.000000000000000e+00	 1.056250000000000e+00	-3.286094896681462e-01
 1.873917628494711e-02	 1.056083758880946e+00	-3.406559182276001e-01
 3.760761318757626e-02	 1.055580281139305e+00	-3.465739243516697e-01
 5.659751683731380e-02	 1.054732564960156e+00	-3.472342578172771e-01
 7.570073306197027e-02	 1.053533797043635e+00	-3.434008917293796e-01
 9.490875003883571e-02	 1.051977372221015e+00	-3.357206391296175e-01
 1.142127020817406e-01	 1.050056913306024e+00	-3.247133852530046e-01
 1.336033746045470e-01	 1.047766291112880e+00	-3.107630766142200e-01
 1.530712102974217e-01	 1.045099644567812e+00	-2.941096095193174e-01
 1.726063165476185e-01	 1.042051400836352e+00	-2.748417602574955e-01
 1.921984741313718e-01	 1.038616295384433e+00	-2.528912969312795e-01
 0.000000000000000e+00	 1.050000000000000e+00	-2.836488536735282e-01
 1.862829358450659e-02	 1.049834742556193e+00	-2.950611539138492e-01
 3.738508293104230e-02	 1.049334243972746e+00	-3.012610000366855e-01
 5.626262028661271e-02	 1.048491543865594e+00	-3.031368828407657e-01
 7.525279972856971e-02	 1.047299869250256e+00	-3.014701052935935e-01
 9.434715980001999e-02	 1.045752654041845e+00	-2.969243342033234e-01
 1.135368872744772e-01	 1.043843558788917e+00	-2.900357557956448e-01
 1.328128220899834e-01	 1.041566490573060e+00	-2.812039753868443e-01
 1.521654634888362e-01	 1.038915623001414e+00	-2.706838028449003e-01
 1.715849773944611e-01	 1.035885416214862e+00	-2.585780652716068e-01
 1.910612050518737e-01	 1.032470636830427e+00	-2.448315861651231e-01
 0.000000000000000e+00	 1.043750000000000e+00	-2.429308214313979e-01
 1.851741088424558e-02	 1.043585726231440e+00	-2.535395675531387e-01
 3.716255267484064e-02	 1.043088206806186e+00	-2.598880704583473e-01
 5.592772373636928e-02	 1.042250522771031e+00	-2.628834734325798e-01
 7.480486639572408e-02	 1.041065941456877e+00	-2.633252280251743e-01
 9.378556956182775e-02	 1.039527935862674e+00	-2.618945735329699e-01
 1.128610724678765e-01	 1.037630204271808e+00	-2.591446088594163e-01
 1.320222695760919e-01	 1.035366690033239e+00	-2.554910960204193e-01
 1.512597166809016e-01	 1.032731601435016e+00	-2.512041361434409e-01
 1.705636382419024e-01	 1.029719431593373e+00	-2.464008586368389e-01
 1.899239359728903e-01	 1.026324978276420e+00	-2.410392621592052e-01
 0.000000000000000e+00	 1.037500000000000e+00	-2.065397412523970e-01
 1.840652818416411e-02	 1.037336709906688e+00	-2.161740658137785e-01
 3.694002241897128e-02	 1.036842169639627e+00	-2.225368724621051e-01
 5.559282718658347e-02	 1.036009501676469e+00	-2.265548765411873e-01
 7.435693306343340e-02	 1.034832013663499e+00	-2.290465049011190e-01
 9.322397932425903e-02	 1.033303217683504e+00	-2.307112959178732e-01
 1.121852576619387e-01	 1.031416849754701e+00	-2.321198805757869e-01
 1.312317170628725e-01	 1.029166889493419e+00	-2.337046830205622e-01
 1.503539698736178e-01	 1.026547579868618e+00	-2.357514806553311e-01
 1.695422990899421e-01	 1.023553446971883e+00	-2.383919637674499e-01
 1.887866668944215e-01	 1.020179319722414e+00	-2.415974327460106e-01
 0.000000000000000e+00	 1.031250000000000e+00	-1.745620062545830e-01
 1.829564548426216e-02	 1.031087693581935e+00	-1.830495690111920e-01
 3.671749216343421e-02	 1.030596132473068e+00	-1.892911349280939e-01
 5.525793063725532e-02	 1.029768480581907e+00	-1.942339193228824e-01
 7.390899973169765e-02	 1.028598085870120e+00	-1.987161592900453e-01
 9.266238908731385e-02	 1.027078499504333e+00	-2.034564269581933e-01
 1.115094428566635e-01	 1.025203495237592e+00	-2.090435127024564e-01
 1.304411645503251e-01	 1.022967088953598e+00	-2.159270159380200e-01
 1.494482230669850e-01	 1.020363558302220e+00	-2.244087828389367e-01
 1.685209599385805e-01	 1.017387462350393e+00	-2.346353303599886e-01
 1.876493978164674e-01	 1.014033661168407e+00	-2.465913941090943e-01
 0.000000000000000e+00	 1.025000000000000e+00	-1.470861167044411e-01
 1.818476278453973e-02	 1.024838677257182e+00	-1.542530724979803e-01
 3.649496190822944e-02	 1.024350095306508e+00	-1.602366395023607e-01
 5.492303408838484e-02	 1.023527459487344e+00	-1.660054695125641e-01
 7.346106640051682e-02	 1.022364158076741e+00	-1.724184532708692e-01
 9.210079885099220e-02	 1.020853781325163e+00	-1.802139396283255e-01
 1.108336280520512e-01	 1.018990140720484e+00	-1.899995137723343e-01
 1.296506120384499e-01	 1.016767288413778e+00	-2.022424714158619e-01
 1.485424762610030e-01	 1.014179536735822e+00	-2.172611276414735e-01
 1.674996207878175e-01	 1.011221477728904e+00	-2.352170992167983e-01
 1.865121287390279e-01	 1.007888002614401e+00	-2.561086975024995e-01
 0.000000000000000e+00	 1.018750000000000e+00	-1.242027446542959e-01
 1.807388008499683e-02	 1.018589660932429e+00	-1.298737103189165e-01
 3.627243165335697e-02	 1.018104058139949e+00	-1.354612835652333e-01
 5.458813753997201e-02	 1.017286438392782e+00	-1.419564980194710e-01
 7.301313306989096e-02	 1.016130230283362e+00	-1.502397501693133e-01
 9.153920861529403e-02	 1.014629063145992e+00	-1.610699170798493e-01
 1.101578132481016e-01	 1.012776786203376e+00	-1.750740224884701e-01
 1.288600595272467e-01	 1.010567487873958e+00	-1.927375875142592e-01
 1.476367294556720e-01	 1.007995515169424e+00	-2.143958040936442e-01
 1.664782816376531e-01	 1.005055493107414e+00	-2.402256694599347e-01
 1.853748596621032e-01	 1.001742344060394e+00	-2.702392184232445e-01
 0.000000000000000e+00	 1.012500000000000e+00	-1.060048009717196e-01
 1.796299738563345e-02	 1.012340644607676e+00	-1.100028212150361e-01
 3.604990139881679e-02	 1.011858020973390e+00	-1.150551455337565e-01
 5.425324099201681e-02	 1.011045417298220e+00	-1.221761438392654e-01
 7.256519973982002e-02	 1.009896302489984e+00	-1.322685794116936e-01
 9.097761838021941e-02	 1.008404344966822e+00	-1.461126177719536e-01
 1.094819984448148e-01	 1.006563431686268e+00	-1.643553734732497e-01
 1.280695070167156e-01	 1.004367687334138e+00	-1.875011304237799e-01
 1.467309826509918e-01	 1.001811493603026e+00	-2.159023733402377e-01
 1.654569424880872e-01	 9.988895084859244e-01	-2.497517682313344e-01
 1.842375905856931e-01	 9.955966855063875e-01	-2.890752283489841e-01
 0.000000000000000e+00	 1.006250000000000e+00	-9.258750486934542e-02
 1.785211468644960e-02	 1.006091628282923e+00	-9.473401709741847e-02
 3.582737114460891e-02	 1.005611983806831e+00	-9.911055259232437e-02
 5.391834444451928e-02	 1.004804396203657e+00	-1.067557813866582e-01
 7.211726641030401e-02	 1.003662374696605e+00	-1.185957037929919e-01
 9.041602814576830e-02	 1.002179626787651e+00	-1.354325430247929e-01
 1.088061836421908e-01	 1.000350077169160e+00	-1.579341654633604e-01
 1.272789545068566e-01	 9.981678867943174e-01	-1.866241636593577e-01
 1.458252358469624e-01	 9.956274720366279e-01	-2.218727392006796e-01
 1.644356033391200e-01	 9.927235238644347e-01	-2.638885229911669e-01
 1.831003215097977e-01	 9.894510269523812e-01	-3.127114691446917e-01
 0.000000000000000e+00	 1.000000000000000e+00	-8.404845603888322e-02
 1.774123198744527e-02	 9.998426119581704e-01	-8.416325407959135e-02
 3.560484089073333e-02	 9.993659466402712e-01	-8.772215096986002e-02
 5.358344789747940e-02	 9.985633751090949e-01	-9.578909035076411e-02
 7.166933308134298e-02	 9.974284469032260e-01	-1.093141892729115e-01
 8.985443791194071e-02	 9.959549086084809e-01	-1.291225071108624e-01
 1.081303688402295e-01	 9.941367226520526e-01	-1.559033320625574e-01
 1.264884019976696e-01	 9.919680862544972e-01	-1.902001198539400e-01
 1.449194890435840e-01	 9.894434504702300e-01	-2.324012213773616e-01
 1.634142641907513e-01	 9.865575392429451e-01	-2.827315365285181e-01
 1.819630524344169e-01	 9.833053683983746e-01	-3.412452302656730e-01
 1.933357432113846e-01	 1.044761953938440e+00	-2.651374106142659e-01
 2.130906329457231e-01	 1.040912401445146e+00	-2.392627607145212e-01
 2.328814315294829e-01	 1.036664107636240e+00	-2.083889333850473e-01
 2.526969398443769e-01	 1.032012826073412e+00	-1.720806430994055e-01
 2.725256783020832e-01	 1.026954698713353e+00	-1.297385202165824e-01
 2.923559021657614e-01	 1.021486274396079e+00	-8.060056557345341e-02
 3.121756181762663e-01	 1.015604526705484e+00	-2.374545127285632e-02
 3.319726024613182e-01	 1.009306871102345e+00	 4.190226660907381e-02
 3.517344196976449e-01	 1.002591181229967e+00	 1.175649773286835e-01
 3.714484434876956e-01	 9.954558042932905e-01	 2.046028622564466e-01
 3.911018779040194e-01	 9.878995754136833e-01	 3.045027577802726e-01
 1.921984741313718e-01	 1.038616295384433e+00	-2.528912969312795e-01
 2.118371586322820e-01	 1.034789387317274e+00	-2.346494244489472e-01
 2.315115407540291e-01	 1.030566083471650e+00	-2.114217711639057e-01
 2.512104872554910e-01	 1.025942162388299e+00	-1.827925670490518e-01
 2.709225860753349e-01	 1.020913788718284e+00	-1.481843856065961e-01
 2.906361615634068e-01	 1.015477531602564e+00	-1.068594818180397e-01
 3.103392910091434e-01	 1.009630382427480e+00	-5.792294332364767e-02
 3.300198224453954e-01	 1.003369771856979e+00	-3.277200357190146e-04
 3.496653936978499e-01	 9.966935860423510e-01	 6.711842188722628e-02
 3.692634526418824e-01	 9.896001819108566e-01	 1.457439969059628e-01
 3.888012786202024e-01	 9.820884014360928e-01	 2.370029457622929e-01
 1.910612050518737e-01	 1.032470636830427e+00	-2.448315861651231e-01
 2.105836843192603e-01	 1.028666373189408e+00	-2.343098145908566e-01
 2.301416499789085e-01	 1.024468059307079e+00	-2.188429103325578e-01
 2.497240346668616e-01	 1.019871498703228e+00	-1.980343391175161e-01
 2.693194938487760e-01	 1.014872878723291e+00	-1.713282214523906e-01
 2.889164209611843e-01	 1.009468788809169e+00	-1.380105525642956e-01
 3.085029638421054e-01	 1.003656238149648e+00	-9.721220332594083e-02
 3.280670424295205e-01	 9.974326726118505e-01	-4.791376688897575e-02
 3.475963676980764e-01	 9.907959908550451e-01	 1.104770316560799e-02
 3.670784617960745e-01	 9.837445595288178e-01	 8.097003806667624e-02
 3.865006793363855e-01	 9.762772274589921e-01	 1.632753797355408e-01
 1.899239359728903e-01	 1.026324978276420e+00	-2.410392621592052e-01
 2.093302100066580e-01	 1.022543359061546e+00	-2.383240858759179e-01
 2.287717592041210e-01	 1.018370035142527e+00	-2.307317808123766e-01
 2.482375820784887e-01	 1.013800835018200e+00	-2.178847749565813e-01
 2.677164016224066e-01	 1.008831968728375e+00	-1.992483460975571e-01
 2.871966803590940e-01	 1.003460046015893e+00	-1.741317223717145e-01
 3.066666366751526e-01	 9.976820938719897e-01	-1.416909322651181e-01
 3.261142624136938e-01	 9.914955733669590e-01	-1.009334683458212e-01
 3.455273416983244e-01	 9.848983956680502e-01	-5.072481046301913e-02
 3.648934709502721e-01	 9.778889371471738e-01	 1.020316619259498e-02
 3.842000800525686e-01	 9.704660534823814e-01	 8.324189469024357e-02
 1.887866668944215e-01	 1.020179319722414e+00	-2.415974327460106e-01
 2.080767356944749e-01	 1.016420344933688e+00	-2.467745306691218e-01
 2.274018684296667e-01	 1.012272010977993e+00	-2.471699691055300e-01
 2.467511294903722e-01	 1.007730171333215e+00	-2.424248711162518e-01
 2.661133093962266e-01	 1.002791058733535e+00	-2.320252885164176e-01
 2.854769397571360e-01	 9.974513032227366e-01	-2.153031816140762e-01
 3.048303095082848e-01	 9.917079495945044e-01	-1.914391175939425e-01
 3.241614823979152e-01	 9.855584741223039e-01	-1.594667514066384e-01
 3.434583156985938e-01	 9.790008004813658e-01	-1.182791348492143e-01
 3.627084801044750e-01	 9.720333147659248e-01	-6.663687956861608e-02
 3.818994807687515e-01	 9.646548795062599e-01	-3.178178205700100e-03
 1.876493978164674e-01	 1.014033661168407e+00	-2.465913941090943e-01
 2.068232613827111e-01	 1.010297330805836e+00	-2.597456437425114e-01
 2.260319776555456e-01	 1.006173986813478e+00	-2.682412836454175e-01
 2.452646769025122e-01	 1.001659507648272e+00	-2.717378711339671e-01
 2.645102171702361e-01	 9.967501487387709e-01	-2.697418553040678e-01
 2.837571991553102e-01	 9.914425604297001e-01	-2.616074345330324e-01
 3.029939823415020e-01	 9.857338053171925e-01	-2.465391025210750e-01
 3.222087023821846e-01	 9.796213748778858e-01	-2.235959463630519e-01
 3.413892896988848e-01	 9.731032052949924e-01	-1.916977423159170e-01
 3.605234892586834e-01	 9.661776923850708e-01	-1.496328753523675e-01
 3.795988814849346e-01	 9.588437055306284e-01	-9.606808747894457e-02
 1.865121287390279e-01	 1.007888002614401e+00	-2.561086975024995e-01
 2.055697870713666e-01	 1.004174316677988e+00	-2.773241894203440e-01
 2.246620868817576e-01	 1.000075962648983e+00	-2.940318225387695e-01
 2.437782243149087e-01	 9.955888439633719e-01	-3.059093340386410e-01
 2.629071249444350e-01	 9.907092387440832e-01	-3.124832001150830e-01
 2.820374585536166e-01	 9.854338176367832e-01	-3.131293697838475e-01
 3.011576551748044e-01	 9.797596610400535e-01	-3.070756578313842e-01
 3.202559223665021e-01	 9.736842756337049e-01	-2.934058600679217e-01
 3.393202636991972e-01	 9.672056101089295e-01	-2.710656365513606e-01
 3.583384984128972e-01	 9.603220700046120e-01	-2.388701892655651e-01
 3.772982822011176e-01	 9.530325315554864e-01	-1.955137399998053e-01
 1.853748596621032e-01	 1.001742344060394e+00	-2.702392184232445e-01
 2.043163127604413e-01	 9.980513025501441e-01	-2.995992711996056e-01
 2.232921961083029e-01	 9.939779384845057e-01	-3.246300438022347e-01
 2.422917717275616e-01	 9.895181802785145e-01	-3.450272053799872e-01
 2.613040327188232e-01	 9.846683287494713e-01	-3.603368956595290e-01
 2.803177179520553e-01	 9.794250748439861e-01	-3.699563335752130e-01
 2.993213280081917e-01	 9.737855167630879e-01	-3.731360563517891e-01
 3.183031423508675e-01	 9.677471763897602e-01	-3.689838519040629e-01
 3.372512376995310e-01	 9.613080149231776e-01	-3.564704302579134e-01
 3.561535075671162e-01	 9.544664476245480e-01	-3.344368608911896e-01
 3.749976829173007e-01	 9.472213575808344e-01	-3.016037825277824e-01
 1.842375905856931e-01	 9.955966855063875e-01	-2.890752283489841e-01
 2.030628384499355e-01	 9.919282884223054e-01	-3.266624039443262e-01
 2.219223053351812e-01	 9.878799143200475e-01	-3.601268381964342e-01
 2.408053191404711e-01	 9.834475165936996e-01	-3.891818908842906e-01
 2.597009404934010e-01	 9.786274187549361e-01	-4.133930083649879e-01
 2.785979773506261e-01	 9.734163320513086e-01	-4.321782055217795e-01
 2.974850008416641e-01	 9.678113724862952e-01	-4.448101501757415e-01
 3.163503623352811e-01	 9.618100771460524e-01	-4.504199125655624e-01
 3.351822116998862e-01	 9.554104197377361e-01	-4.480024256778070e-01
 3.539685167213408e-01	 9.486108252448792e-01	-4.364236837449960e-01
 3.726970836334838e-01	 9.414101836066719e-01	-4.144296862750907e-01
 1.831003215097977e-01	 9.894510269523812e-01	-3.127114691446917e-01
 2.018093641398489e-01	 9.858052742944714e-01	-3.586075887737064e-01
 2.205524145623929e-01	 9.817818901556085e-01	-4.006156047798224e-01
 2.393188665536370e-01	 9.773768529089273e-01	-4.384663328590999e-01
 2.580978482681682e-01	 9.725865087604770e-01	-4.717441758216010e-01
 2.768782367493292e-01	 9.674075892587506e-01	-4.998874773202715e-01
 2.956486736752214e-01	 9.618372282096757e-01	-5.221904507626518e-01
 3.143975823197428e-01	 9.558729779025819e-01	-5.378067457768689e-01
 3.331131857002630e-01	 9.495128245526055e-01	-5.457546981186385e-01
 3.517835258755707e-01	 9.427552028656052e-01	-5.449242907993033e-01
 3.703964843496668e-01	 9.355990096329994e-01	-5.340858346226582e-01
 1.819630524344169e-01	 9.833053683983746e-01	-3.412452302656730e-01
 2.005558898301816e-01	 9.796822601666423e-01	-3.955313907578351e-01
 2.191825237899375e-01	 9.756838659911878e-01	-4.461923292905214e-01
 2.378324139670594e-01	 9.713061892241978e-01	-4.929760894612727e-01
 2.564947560431247e-01	 9.665455987660938e-01	-5.354856871311497e-01
 2.751584961481644e-01	 9.613988464663125e-01	-5.731793343779192e-01
 2.938123465088638e-01	 9.558630839332296e-01	-6.053722120465204e-01
 3.124448023042525e-01	 9.499358786593476e-01	-6.312398530732102e-01
 3.310441597006611e-01	 9.436152293677856e-01	-6.498231826114402e-01
 3.495985350298059e-01	 9.368995804867262e-01	-6.600352432161893e-01
 3.680958850658499e-01	 9.297878356598163e-01	-6.606696141260808e-01
 3.911018779040194e-01	 9.878995754136833e-01	 3.045027577802770e-01
 4.106812654230647e-01	 9.799220375426506e-01	 4.940204199945741e-01
 4.301740244201037e-01	 9.715228514284484e-01	 6.831335309028390e-01
 4.495669903060996e-01	 9.627023906861818e-01	 8.735659131669455e-01
 4.688469256249421e-01	 9.534615621502089e-01	 1.067186745811200e+00
 4.880005464389367e-01	 9.438018137455458e-01	 1.265992483380648e+00
 5.070145494260555e-01	 9.337251408230870e-01	 1.472086917688089e+00
 5.258756395863931e-01	 9.232340908932398e-01	 1.687659537898255e+00
 5.445705584489109e-01	 9.123317667002798e-01	 1.914962371222305e+00
 5.630861126638069e-01	 9.010218275880978e-01	 2.156285511443317e+00
 5.814092028608389e-01	 8.893084891169974e-01	 2.413931565392800e+00
 3.888012786202024e-01	 9.820884014360928e-01	 2.370029457622929e-01
 4.082654932712178e-01	 9.741577902581628e-01	 4.172789525941614e-01
 4.276435889798152e-01	 9.658080111209993e-01	 5.967145122376971e-01
 4.469224785957173e-01	 9.570394354419742e-01	 7.769533347883142e-01
 4.660890025302029e-01	 9.478529647211262e-01	 9.597839120594942e-01
 4.851299549863892e-01	 9.382500383662683e-01	 1.147122027475316e+00
 5.040321108970832e-01	 9.282326399909374e-01	 1.340991435737373e+00
 5.227822534682621e-01	 9.178033021201863e-01	 1.543502863277590e+00
 5.413672022198941e-01	 9.069651092468548e-01	 1.756831506558493e+00
 5.597738414101173e-01	 8.957216991892828e-01	 1.983193229817763e+00
 5.779891487238087e-01	 8.840772627103605e-01	 2.224819686389123e+00
 3.865006793363855e-01	 9.762772274589921e-01	 1.632753797355462e-01
 4.058497211193758e-01	 9.683935429742504e-01	 3.341915518257639e-01
 4.251131535395460e-01	 9.600931708141829e-01	 5.038115514346493e-01
 4.442779668853784e-01	 9.513764801984261e-01	 6.736999897377789e-01
 4.633310794355420e-01	 9.422443672927018e-01	 8.455657751762604e-01
 4.822593635339635e-01	 9.326982629876168e-01	 1.021245208744397e+00
 5.010496723682871e-01	 9.227401391593514e-01	 1.202683275531794e+00
 5.196888673503717e-01	 9.123725133476044e-01	 1.391913278827855e+00
 5.381638459911924e-01	 9.015984517937791e-01	 1.591034988682448e+00
 5.564615701568275e-01	 8.904215707906631e-01	 1.802191500946834e+00
 5.745690945872735e-01	 8.788460363037338e-01	 2.027545025004065e+00
 3.842000800525686e-01	 9.704660534823814e-01	 8.324189469024401e-02
 4.034339489675387e-01	 9.626292956909134e-01	 2.446834050776443e-01
 4.225827180992962e-01	 9.543783305079983e-01	 4.043530060866392e-01
 4.416334551750831e-01	 9.457135249555377e-01	 5.637372098624238e-01
 4.605731563409585e-01	 9.366357698649349e-01	 7.244664316510925e-01
 4.793887720816601e-01	 9.271464876095911e-01	 8.882986652135669e-01
 4.980672338396673e-01	 9.172476383283298e-01	 1.057101380271855e+00
 5.165954812327221e-01	 9.069417245754943e-01	 1.232831783618906e+00
 5.349604897628057e-01	 8.962317943410518e-01	 1.417515610668029e+00
 5.531492989039374e-01	 8.851214423922381e-01	 1.613224637948073e+00
 5.711490404512327e-01	 8.736148098971181e-01	 1.822053128874801e+00
 3.818994807687515e-01	 9.646548795062599e-01	-3.178178205704763e-03
 4.010181768157063e-01	 9.568650484081520e-01	 1.486772210773368e-01
 4.200522826590655e-01	 9.486634902024459e-01	 2.982647746862808e-01
 4.389889434648318e-01	 9.400505697133096e-01	 4.469938817679413e-01
 4.578152332464531e-01	 9.310271724378260e-01	 5.964175408027250e-01
 4.765181806294787e-01	 9.215947122321917e-01	 7.482165999465210e-01
 4.950847953112238e-01	 9.117551374978721e-01	 9.041822544793996e-01
 5.135020951153132e-01	 9.015109358038559e-01	 1.066196928351603e+00
 5.317571335347344e-01	 8.908651368886734e-01	 1.236213701528177e+00
 5.498370276514472e-01	 8.798213139940088e-01	 1.416234468160237e+00
 5.677289863156866e-01	 8.683835834905127e-01	 1.608287032115320e+00
 3.795988814849346e-01	 9.588437055306284e-01	-9.606808747894502e-02
 3.986024046638788e-01	 9.511008011259654e-01	 4.609315478037002e-02
 4.175218472188544e-01	 9.429486498975260e-01	 1.854702221064624e-01
 4.363444317546239e-01	 9.343876144717409e-01	 3.233963727209670e-01
 4.550573101520257e-01	 9.254185750113748e-01	 4.613482509271594e-01
 4.736475891774192e-01	 9.160429368554183e-01	 6.009307072576451e-01
 4.921023567829566e-01	 9.062626366679781e-01	 7.438598900972073e-01
 5.104087089981447e-01	 8.960801470326889e-01	 8.919447411672105e-01
 5.285537773069781e-01	 8.854984794366438e-01	 1.047067051544427e+00
 5.465247563993567e-01	 8.745211855959745e-01	 1.211160257815489e+00
 5.643089321806354e-01	 8.631523570839182e-01	 1.386187179150406e+00
 3.772982822011176e-01	 9.530325315554864e-01	-1.955137399998041e-01
 3.961866325120559e-01	 9.453365538443546e-01	-6.315127048971925e-02
 4.149914117786624e-01	 9.372338095932381e-01	 6.589010235644777e-02
 4.336999200444597e-01	 9.287246592308324e-01	 1.928684538390002e-01
 4.522993870576759e-01	 9.198099775855815e-01	 3.191851227406033e-01
 4.707769977254818e-01	 9.104911614792706e-01	 4.463700962264825e-01
 4.891199182548658e-01	 9.007701358386486e-01	 5.760656898864410e-01
 5.073153228812169e-01	 8.906493582619939e-01	 7.100086507370066e-01
 5.253504210795370e-01	 8.801318219849630e-01	 8.500108348675489e-01
 5.432124851476661e-01	 8.692210571981352e-01	 9.979386339585105e-01
 5.608888780460786e-01	 8.579211306773340e-01	 1.155691345760541e+00
 3.749976829173007e-01	 9.472213575808344e-01	-3.016037825277831e-01
 3.937708603602381e-01	 9.395723065633189e-01	-1.791412437638908e-01
 4.124609763384898e-01	 9.315189692895822e-01	-6.055752150460791e-02
 4.310554083343390e-01	 9.230617039905832e-01	 5.533122045460104e-02
 4.495414639634041e-01	 9.142013801604458e-01	 1.698520500056725e-01
 4.679064062736666e-01	 9.049393861037491e-01	 2.844612113957963e-01
 4.861374797269510e-01	 8.952776350098828e-01	 4.007283880046455e-01
 5.042219367645299e-01	 8.852185694917706e-01	 5.203194065257116e-01
 5.221470648524108e-01	 8.747651645336308e-01	 6.449775292671655e-01
 5.399002138963752e-01	 8.639209288004910e-01	 7.765035034884474e-01
 5.574688239120166e-01	 8.526899042707606e-01	 9.167345572232151e-01
 3.726970836334838e-01	 9.414101836066719e-01	-4.144296862750902e-01
 3.913550882084249e-01	 9.338080592828587e-01	-3.019647501449452e-01
 4.099305408983365e-01	 9.258041289865587e-01	-1.939573604254334e-01
 4.284108966242621e-01	 9.173987487509939e-01	-8.929699047028183e-02
 4.467835408692102e-01	 9.085927827359682e-01	 1.327017722089929e-02
 4.650358148219733e-01	 8.993876107288533e-01	 1.151277505314693e-01
 4.831550411992128e-01	 8.897851341816810e-01	 2.177739676400012e-01
 5.011285506480834e-01	 8.797877807220186e-01	 3.228049961007562e-01
 5.189437086255998e-01	 8.693985070826473e-01	 4.318968329116231e-01
 5.365879426454840e-01	 8.586208004030418e-01	 5.467859692034930e-01
 5.540487697784493e-01	 8.474586778641980e-01	 6.692490034191203e-01
 3.703964843496668e-01	 9.355990096329994e-01	-5.340858346226578e-01
 3.889393160566166e-01	 9.280438120029740e-01	-4.317126576401338e-01
 4.074001054582026e-01	 9.200892886841676e-01	-3.343969855076758e-01
 4.257663849142288e-01	 9.117357935120645e-01	-2.411006860094617e-01
 4.440256177750941e-01	 9.029841853121484e-01	-1.506421857654451e-01
 4.621652233704021e-01	 8.938358353545839e-01	-6.170942067834151e-02
 4.801726026716508e-01	 8.842926333540435e-01	 2.712557557840051e-02
 4.980351645318775e-01	 8.743569919527385e-01	 1.173905593567085e-01
 5.157403523991042e-01	 8.640318496320131e-01	 2.106955780440900e-01
 5.332756713949930e-01	 8.533206720057880e-01	 3.087142427194373e-01
 5.506287156453767e-01	 8.422274514576459e-01	 4.131639507773420e-01
 3.680958850658499e-01	 9.297878356598163e-01	-6.606696141260808e-01
 3.865235439048131e-01	 9.222795647236649e-01	-5.684788072524003e-01
 4.048696700180880e-01	 9.143744483824082e-01	-4.819669173885273e-01
 4.231218732042392e-01	 9.060728382737947e-01	-4.001673061467501e-01
 4.412676946810558e-01	 8.973755878889862e-01	-3.219696523323681e-01
 4.592946319189529e-01	 8.882840599809401e-01	-2.461323571286438e-01
 4.771901641442650e-01	 8.788001325269700e-01	-1.712965664332982e-01
 4.949417784159122e-01	 8.689262031839300e-01	-9.600170047323478e-02
 5.125369961729235e-01	 8.586651921817273e-01	-1.870235857832508e-02
 5.299634001449015e-01	 8.480205436087291e-01	 6.221355411730203e-02
 5.472086615127988e-01	 8.369962250511043e-01	 1.484056509171355e-01
 5.814092028608389e-01	 8.893084891169974e-01	 2.413931565392800e+00
 5.995273051339643e-01	 8.771962216624367e-01	 2.774362743548350e+00
 6.174271189860754e-01	 8.646906527052896e-01	 3.197205508626968e+00
 6.350960001903916e-01	 8.517976466469476e-01	 3.588008901819066e+00
 6.525215141008213e-01	 8.385236046232520e-01	 3.962643569900948e+00
 6.696914639301623e-01	 8.248754551179471e-01	 4.388484520775186e+00
 6.865939185186961e-01	 8.108606427981377e-01	 4.863444541705803e+00
 7.032172394632655e-01	 7.964871156046529e-01	 5.385170251307891e+00
 7.195501074794252e-01	 7.817633101410284e-01	 5.951048554269827e+00
 7.355815478727636e-01	 7.666981354154186e-01	 6.558214782799217e+00
 7.513009550000000e-01	 7.513009550000000e-01	 7.203562490412171e+00
 5.779891487238087e-01	 8.840772627103605e-01	 2.224819686389123e+00
 5.960006739249657e-01	 8.720362438890390e-01	 2.573523337461701e+00
 6.137951947547025e-01	 8.596042371031826e-01	 2.986984344223846e+00
 6.313601413640429e-01	 8.467870722577020e-01	 3.405809350299721e+00
 6.486831522518732e-01	 8.335911128346971e-01	 3.777042922698575e+00
 6.657521023767976e-01	 8.200232465621237e-01	 4.201495528979304e+00
 6.825551307623900e-01	 8.060908743149267e-01	 4.676943773689250e+00
 6.990806674666884e-01	 7.918018972813406e-01	 5.200891721838635e+00
 7.153174597892729e-01	 7.771647024378229e-01	 5.770577947632065e+00
 7.312545975927585e-01	 7.621881463865958e-01	 6.382984299741498e+00
 7.468815376199999e-01	 7.468815376199999e-01	 7.034846344582042e+00
 5.745690945872735e-01	 8.788460363037338e-01	 2.027545025004062e+00
 5.924740427165472e-01	 8.668762661154716e-01	 2.364911041579567e+00
 6.101632705239651e-01	 8.545178215007645e-01	 2.769417481669338e+00
 6.276242825383560e-01	 8.417764978680439e-01	 3.217023056300563e+00
 6.448447904035826e-01	 8.286586210456672e-01	 3.585454271001353e+00
 6.618127408240561e-01	 8.151710380058040e-01	 4.009150594084135e+00
 6.785163430066431e-01	 8.013211058312381e-01	 4.485751423182512e+00
 6.949440954705757e-01	 7.871166789576106e-01	 5.012617147054979e+00
 7.110848120994610e-01	 7.725660947342980e-01	 5.586836791470604e+00
 7.269276473129380e-01	 7.576781573575931e-01	 6.205237411998353e+00
 7.424621202400001e-01	 7.424621202400001e-01	 6.864395190962584e+00
 5.711490404512327e-01	 8.736148098971181e-01	 1.822053128874801e+00
 5.889474115087083e-01	 8.617162883417343e-01	 2.148484040278741e+00
 6.065313462938635e-01	 8.494314058980357e-01	 2.544476220561199e+00
 6.238884237133304e-01	 8.367659234779731e-01	 3.010920905919969e+00
 6.410064285559492e-01	 8.237261292561637e-01	 3.387834161202705e+00
 6.578733792719378e-01	 8.103188294489887e-01	 3.811418813844022e+00
 6.744775552514548e-01	 7.965513373470722e-01	 4.289849561927907e+00
 6.908075234749277e-01	 7.824314606334615e-01	 4.820341971183629e+00
 7.068521644099885e-01	 7.679674870304535e-01	 5.399834275807841e+00
 7.226006970333029e-01	 7.531681683284103e-01	 6.024997402537217e+00
 7.380427028600001e-01	 7.380427028600001e-01	 6.692246725577502e+00
 5.677289863156866e-01	 8.683835834905127e-01	 1.608287032115317e+00
 5.854207803014495e-01	 8.565563105678273e-01	 1.924198252551538e+00
 6.028994220643973e-01	 8.443449902949958e-01	 2.312129856185768e+00
 6.201525648889665e-01	 8.317553490874897e-01	 2.772788215659657e+00
 6.371680667089734e-01	 8.187936374661856e-01	 3.184137694588601e+00
 6.539340177204432e-01	 8.054666208916773e-01	 3.608268138075523e+00
 6.704387674968262e-01	 7.917815688624287e-01	 4.089219421913917e+00
 6.866709514797442e-01	 7.777462423088940e-01	 4.624061117336044e+00
 7.026195167208560e-01	 7.633688793262897e-01	 5.209579398050185e+00
 7.182737467538526e-01	 7.486581792990478e-01	 5.842287699456251e+00
 7.336232854800000e-01	 7.336232854800000e-01	 6.518439135929020e+00
 5.643089321806354e-01	 8.631523570839182e-01	 1.386187179150401e+00
 5.818941490947709e-01	 8.513963327937503e-01	 1.692007263358118e+00
 5.992674978355668e-01	 8.392585746916443e-01	 2.072345618781526e+00
 6.164167060652640e-01	 8.267447746965939e-01	 2.527724176415612e+00
 6.333297048626551e-01	 8.138611456757335e-01	 2.974318483546807e+00
 6.499946561695715e-01	 8.006144123338700e-01	 3.399665333871171e+00
 6.663999797427561e-01	 7.870118003773077e-01	 3.883841369927421e+00
 6.825343794850253e-01	 7.730610239839077e-01	 4.423768971715576e+00
 6.983868690320634e-01	 7.587702716218062e-01	 5.016080957152727e+00
 7.139467964745874e-01	 7.441481902695054e-01	 5.657131880381815e+00
 7.292038680999998e-01	 7.292038680999999e-01	 6.343011115891227e+00
 5.608888780460786e-01	 8.579211306773340e-01	 1.155691345760541e+00
 5.783675178886720e-01	 8.462363550195033e-01	 1.451862252465535e+00
 5.956355736073720e-01	 8.341721590879827e-01	 1.825088610580647e+00
 6.126808472422232e-01	 8.217342003052857e-01	 2.275708300941663e+00
 6.294913430169941e-01	 8.089286538848068e-01	 2.758328606173748e+00
 6.460552946193235e-01	 7.957622037755665e-01	 3.185575949541485e+00
 6.623611919892450e-01	 7.822420318917090e-01	 3.673694881177849e+00
 6.783978074907709e-01	 7.683758056585025e-01	 4.219459367249943e+00
 6.941542213436107e-01	 7.541716639170036e-01	 4.819347547567489e+00
 7.096198461955070e-01	 7.396382012397831e-01	 5.469553677027807e+00
 7.247844507200000e-01	 7.247844507200001e-01	 6.166001881148400e+00
 5.574688239120166e-01	 8.526899042707606e-01	 9.167345572232155e-01
 5.748408866831533e-01	 8.410763772450868e-01	 1.203711920671317e+00
 5.920036493798129e-01	 8.290857434840098e-01	 1.570321740531609e+00
 6.089449884198436e-01	 8.167236259135645e-01	 2.016718208083137e+00
 6.256529811719908e-01	 8.039961620934060e-01	 2.536118559209969e+00
 6.421159330696986e-01	 7.909099952167671e-01	 2.965964277227333e+00
 6.583224042362933e-01	 7.774722634056334e-01	 3.458758511945700e+00
 6.742612354969811e-01	 7.636905873326790e-01	 4.011125566618112e+00
 6.899215736554977e-01	 7.495730562118815e-01	 4.619387552970944e+00
 7.052928959166118e-01	 7.351282122098811e-01	 5.279576979921405e+00
 7.203650333400000e-01	 7.203650333400000e-01	 5.987451185201309e+00
 5.540487697784493e-01	 8.474586778641980e-01	 6.692490034191141e-01
 5.713142554782142e-01	 8.359163994705003e-01	 9.475024132893843e-01
 5.883717251528892e-01	 8.239993278797256e-01	 1.308005656606180e+00
 6.052091295981258e-01	 8.117130515214309e-01	 1.750729564322457e+00
 6.218146193276447e-01	 7.990636703015306e-01	 2.275314905676444e+00
 6.381765715206971e-01	 7.860577866574717e-01	 2.740793314131516e+00
 6.542836164839004e-01	 7.727024949190801e-01	 3.239009871221573e+00
 6.701246635036557e-01	 7.590053690064370e-01	 3.798760244650953e+00
 6.856889259677246e-01	 7.449744485064401e-01	 4.416209139759028e+00
 7.009659456379015e-01	 7.306182231797991e-01	 5.087225843305422e+00
 7.159456159599999e-01	 7.159456159599999e-01	 5.807399335966265e+00
 5.506287156453767e-01	 8.422274514576459e-01	 4.131639507773471e-01
 5.677876242738553e-01	 8.307564216957439e-01	 6.831772407890633e-01
 5.847398009266012e-01	 8.189129122751307e-01	 1.038098675582647e+00
 6.014732707770695e-01	 8.067024771288849e-01	 1.477716023146748e+00
 6.179762574839562e-01	 7.941311785091811e-01	 2.001478052832609e+00
 6.342372099723189e-01	 7.812055780976803e-01	 2.510024722301225e+00
 6.502448287320667e-01	 7.679327264320492e-01	 3.014425591287981e+00
 6.659880915107951e-01	 7.543201506797762e-01	 3.582355470074836e+00
 6.814562782802914e-01	 7.403758408006790e-01	 4.209820250298039e+00
 6.966389953593761e-01	 7.261082341495374e-01	 4.892524490222479e+00
 7.115261985799999e-01	 7.115261985799999e-01	 5.625887212993711e+00
 5.472086615127988e-01	 8.369962250511043e-01	 1.484056509171401e-01
 5.642609930700763e-01	 8.255964439208178e-01	 4.106771964557801e-01
 5.811078767009489e-01	 8.138264966702249e-01	 7.605567101960752e-01
 5.977374119566745e-01	 8.016919027359262e-01	 1.197649162142498e+00
 6.141378956409251e-01	 7.891986867163574e-01	 1.721211468285313e+00
 6.302978484245640e-01	 7.763533695373930e-01	 2.273618786906608e+00
 6.462060409807919e-01	 7.631629579445409e-01	 2.784981297195961e+00
 6.618515195183989e-01	 7.496349323526968e-01	 3.361902686570350e+00
 6.772236305931981e-01	 7.357772330945985e-01	 4.000228595925499e+00
 6.923120450810357e-01	 7.215982451190956e-01	 4.695497317790013e+00
 7.071067811999999e-01	 7.071067811999999e-01	 5.442956285331385e+00
 7.513009550000000e-01	 7.513009550000000e-01	 7.203562490412171e+00
 7.666981275829785e-01	 7.355815598074720e-01	 7.718332434053385e+00
 7.817632789035854e-01	 7.195501551153904e-01	 8.205499292487836e+00
 7.964870455388072e-01	 7.032173463862689e-01	 8.663599383028393e+00
 8.108605186434349e-01	 6.865941080990721e-01	 9.091183911306576e+00
 8.248752617900428e-01	 6.696917592889827e-01	 9.486824973733221e+00
 8.385233272264494e-01	 6.525219380770627e-01	 9.849121725565690e+00
 8.517972704860858e-01	 6.350965753091957e-01	 1.017670666716422e+01
 8.646901632969713e-01	 6.174278674282064e-01	 1.087480144389361e+01
 8.771956047455881e-01	 5.995282487065597e-01	 1.205282071910320e+01
 8.893077306627529e-01	 5.814103629695435e-01	 1.315443518927110e+01
 7.468815376199999e-01	 7.468815376199999e-01	 7.034846344582042e+00
 7.621881386002288e-01	 7.312546094572627e-01	 7.546812358451087e+00
 7.771646713841293e-01	 7.153175071450270e-01	 8.029554656016568e+00
 7.918018276276478e-01	 6.990807737607333e-01	 8.481650470549448e+00
 8.060907508905456e-01	 6.825553192275873e-01	 8.901698264579110e+00
 8.200230543714423e-01	 6.657523959982131e-01	 9.288323509861355e+00
 8.335908370696403e-01	 6.486835737341364e-01	 9.640184597475837e+00
 8.467866983095513e-01	 6.313607130997951e-01	 9.955978832664316e+00
 8.596037505737367e-01	 6.137959387942326e-01	 1.084326782230345e+01
 8.720356306011129e-01	 5.960016119471339e-01	 1.200782110159138e+01
 8.840765087176115e-01	 5.779903020083444e-01	 1.309556111243080e+01
 7.424621202400001e-01	 7.424621202400001e-01	 6.864395190962584e+00
 7.576781496172992e-01	 7.269276591072382e-01	 7.373420839426166e+00
 7.725660638643541e-01	 7.110848591750033e-01	 7.851595236534682e+00
 7.871166097160696e-01	 6.949442011356616e-01	 8.297536811300988e+00
 8.013209831371788e-01	 6.785165303566614e-01	 8.709891568148995e+00
 8.151708469523459e-01	 6.618130327080667e-01	 9.087338643455043e+00
 8.286583469123570e-01	 6.448452093918682e-01	 9.428595956785434e+00
 8.417761261326041e-01	 6.276248508910566e-01	 9.732425913471523e+00
 8.545173378501913e-01	 6.101640101608944e-01	 1.081344219320261e+01
 8.668756564564682e-01	 5.924749751882884e-01	 1.196422872127283e+01
 8.788452867724807e-01	 5.745702410476402e-01	 1.303778437053966e+01
 7.380427028600001e-01	 7.380427028600001e-01	 6.692246725577502e+00
 7.531681606341901e-01	 7.226007087573990e-01	 7.198193327357179e+00
 7.679674563442594e-01	 7.068522112053193e-01	 7.671653943528807e+00
 7.824313918040723e-01	 6.908076285110547e-01	 8.111288483833523e+00
 7.965512153833345e-01	 6.744777414862949e-01	 8.515790785588697e+00
 8.103186395327531e-01	 6.578736694185437e-01	 8.883893945846644e+00
 8.237258567545990e-01	 6.410068450502568e-01	 9.214375712851979e+00
 8.367655539552441e-01	 6.238889886829792e-01	 9.569577013547891e+00
 8.494309251263348e-01	 6.065320815281918e-01	 1.078533485127610e+01
 8.617156823116539e-01	 5.889483384300228e-01	 1.192205022417367e+01
 8.736140648273604e-01	 5.711501800874307e-01	 1.298110770433198e+01
 7.336232854800000e-01	 7.336232854800000e-01	 6.518439135929020e+00
 7.486581716509005e-01	 7.182737584077445e-01	 7.021165709927985e+00
 7.633688488238455e-01	 7.026195632359753e-01	 7.489764063398709e+00
 7.777461738916567e-01	 6.866710558869124e-01	 7.922935877121002e+00
 7.917814476290130e-01	 6.704389526164870e-01	 8.319423118445377e+00
 8.054664321126649e-01	 6.539343061296441e-01	 8.678013148087114e+00
 8.187933665963667e-01	 6.371684807093032e-01	 8.997543850856342e+00
 8.317549817774721e-01	 6.201531264755635e-01	 9.557115421234782e+00
 8.443445124021675e-01	 6.029001528961251e-01	 1.075895598305696e+01
 8.565557081666691e-01	 5.854217016723370e-01	 1.188129204848690e+01
 8.683828428822506e-01	 5.677301191277158e-01	 1.292553354218467e+01
 7.292038680999998e-01	 7.292038680999999e-01	 6.343011115891227e+00
 7.441481826674313e-01	 7.139468080582748e-01	 6.842374325380409e+00
 7.587702413031117e-01	 6.983869152669709e-01	 7.305959270879679e+00
 7.730609559788225e-01	 6.825344832632346e-01	 7.732509699968055e+00
 7.870116798742136e-01	 6.664001637472385e-01	 8.120816013451849e+00
 8.006142246920803e-01	 6.499949428413681e-01	 8.469720145786418e+00
 8.138608764376607e-01	 6.333301163690070e-01	 8.778120434099911e+00
 8.267444095992872e-01	 6.164172642688092e-01	 9.546693395480824e+00
 8.392580996776888e-01	 5.992682242646937e-01	 1.073431566364850e+01
 8.513957340215146e-01	 5.818950649152311e-01	 1.184196041827484e+01
 8.631516209371516e-01	 5.643100581684956e-01	 1.287106399065205e+01
 7.247844507200000e-01	 7.247844507200001e-01	 6.166001881148400e+00
 7.396381936837823e-01	 7.096198577089906e-01	 6.661855976249988e+00
 7.541716337820586e-01	 6.941542672983068e-01	 7.120273640880872e+00
 7.683757380655695e-01	 6.783979106400214e-01	 7.540040990760373e+00
 7.822419121189370e-01	 6.623613748785490e-01	 7.919997170002054e+00
 7.957620172709999e-01	 6.460555795537148e-01	 8.259039004129798e+00
 8.089283862784797e-01	 6.294917520293682e-01	 8.556125606386681e+00
 8.217338374206895e-01	 6.126814020627164e-01	 9.538324575226516e+00
 8.341716869528994e-01	 5.956362956338982e-01	 1.071142385332748e+01
 8.462357598761907e-01	 5.783684281587053e-01	 1.180406133694018e+01
 8.579203989920633e-01	 5.608899972097702e-01	 1.281770082465424e+01
 7.203650333400000e-01	 7.203650333400000e-01	 5.987451185201309e+00
 7.351282046999534e-01	 7.052929073598911e-01	 6.479647943608974e+00
 7.495730262606861e-01	 6.899216193299822e-01	 6.932741660761941e+00
 7.636905201518982e-01	 6.742613380172728e-01	 7.345561127575367e+00
 7.774721443631829e-01	 6.583225860104185e-01	 7.716994547901642e+00
 7.909098098494234e-01	 6.421162162666852e-01	 8.045993963080111e+00
 8.039958961188247e-01	 6.256533876903870e-01	 8.331579594492409e+00
 8.167232652416797e-01	 6.089455398572854e-01	 9.532022584605450e+00
 8.290852742277989e-01	 5.920043670037383e-01	 1.069029039402134e+01
 8.410757857306966e-01	 5.748417914027594e-01	 1.176760058045800e+01
 8.526891770469852e-01	 5.574699362515393e-01	 1.276544547730435e+01
 7.159456159599999e-01	 7.159456159599999e-01	 5.807399335966265e+00
 7.306182157159445e-01	 7.009659570109766e-01	 6.295788001835126e+00
 7.449744187389942e-01	 6.856889713619975e-01	 6.743398243061829e+00
 7.590053022378078e-01	 6.701247653949886e-01	 7.149101838665851e+00
 7.727023766069515e-01	 6.542837971428470e-01	 7.511836375405053e+00
 7.860576024273510e-01	 6.381768529802788e-01	 7.830609442772007e+00
 7.990634059586956e-01	 6.218150233520632e-01	 8.301891976172149e+00
 8.117126930622569e-01	 6.052096776525158e-01	 9.527801032486058e+00
 8.239988615023874e-01	 5.883724383742140e-01	 1.067092500565602e+01
 8.359158115850329e-01	 5.713151546473936e-01	 1.173258369035581e+01
 8.474579551019181e-01	 5.540498752938033e-01	 1.271429902935877e+01
 7.115261985799999e-01	 7.115261985799999e-01	 5.625887212993711e+00
 7.261082267317558e-01	 6.966390066622471e-01	 6.110314433931797e+00
 7.403758112169828e-01	 6.814563233943527e-01	 6.552278738704069e+00
 7.543200843232991e-01	 6.659881927731689e-01	 6.950695213334950e+00
 7.679326088502424e-01	 6.502450082758346e-01	 7.304551157552015e+00
 7.812053950047827e-01	 6.342374896944958e-01	 7.612910049107450e+00
 7.941309157980918e-01	 6.179766590143968e-01	 8.314677451270608e+00
 8.067021208824219e-01	 6.014738154484076e-01	 9.525673511998864e+00
 8.189124487766648e-01	 5.847405097453252e-01	 1.065333728236635e+01
 8.307558374391991e-01	 5.677885178926076e-01	 1.169901596643257e+01
 8.422267331568614e-01	 5.506298143365619e-01	 1.266426219827422e+01
 7.071067811999999e-01	 7.071067811999999e-01	 5.442956285331385e+00
 7.215982377473874e-01	 6.923120563137024e-01	 5.923266047423744e+00
 7.357772036946522e-01	 6.772236754270479e-01	 6.359418950694763e+00
 7.496348664083717e-01	 6.618516201518141e-01	 6.750373713220132e+00
 7.631628410930560e-01	 6.462062194093813e-01	 7.095167684818107e+00
 7.763531875817185e-01	 6.302981264093361e-01	 7.392920579560522e+00
 7.891984256370139e-01	 6.141382946773880e-01	 8.329877495585636e+00
 8.016915487021741e-01	 5.977379532449609e-01	 9.525653600043652e+00
 8.138260360506314e-01	 5.811085811170723e-01	 1.063753668856610e+01
 8.255958632931957e-01	 5.642618811384016e-01	 1.166690245920533e+01
 8.369955112118157e-01	 5.472097533798153e-01	 1.261533532685538e+01
 8.893077306627529e-01	 5.814103629695435e-01	 1.315443518927110e+01
 9.010212212095035e-01	 5.630870349402234e-01	 1.384480375339365e+01
 9.123313066520512e-01	 5.445712413382624e-01	 1.450952258457273e+01
 9.232337713255228e-01	 5.258760818638161e-01	 1.514693582078609e+01
 9.337249557969681e-01	 5.070147501960147e-01	 1.575537017107632e+01
 9.438017572485544e-01	 4.880005051335909e-01	 1.633313897437044e+01
 9.534616281117342e-01	 4.688466420014871e-01	 1.687854682463297e+01
 9.627025729927415e-01	 4.495664644431200e-01	 1.738989472212848e+01
 9.715231439387405e-01	 4.301732567129676e-01	 1.786548570291859e+01
 9.799224341023265e-01	 4.106802565784043e-01	 1.830363089191566e+01
 9.879000698697851e-01	 3.911006289333422e-01	 1.870265591895664e+01
 8.840765087176115e-01	 5.779903020083444e-01	 1.309556111243080e+01
 8.957210963776212e-01	 5.597747582613783e-01	 1.378871668110494e+01
 9.069646519047927e-01	 5.413678810922495e-01	 1.445964769377252e+01
 9.178029844322796e-01	 5.227826931440532e-01	 1.510641960017826e+01
 9.282324560532074e-01	 5.040323104860427e-01	 1.572707518603477e+01
 9.382499822016123e-01	 4.851299139240159e-01	 1.631963994129018e+01
 9.478530302946430e-01	 4.660887205751213e-01	 1.688212797915594e+01
 9.570396166761426e-01	 4.469219558260492e-01	 1.741254845756044e+01
 9.658083019106427e-01	 4.276428257886034e-01	 1.790891244752910e+01
 9.741581844851347e-01	 4.082644903609378e-01	 1.836924018672753e+01
 9.820888929836293e-01	 3.888000369964117e-01	 1.879156865114344e+01
 8.788452867724807e-01	 5.745702410476402e-01	 1.303778437053966e+01
 8.904209715459346e-01	 5.564624815829332e-01	 1.373474995416153e+01
 9.015979971578826e-01	 5.381645208465514e-01	 1.441295238513605e+01
 9.123721975395074e-01	 5.196893044245310e-01	 1.507017651375426e+01
 9.227399563100105e-01	 5.010498707762467e-01	 1.570417920449530e+01
 9.326982071552958e-01	 4.822593227145630e-01	 1.631269602128812e+01
 9.422444324782094e-01	 4.633307991488335e-01	 1.689344844831704e+01
 9.513766603602029e-01	 4.442774472090222e-01	 1.744415158987116e+01
 9.600934598831773e-01	 4.251123948642584e-01	 1.796252228605320e+01
 9.683939348685183e-01	 4.058487241434762e-01	 1.844628757544610e+01
 9.762777160979634e-01	 3.864994450594811e-01	 1.889319343115968e+01
 8.736140648273604e-01	 5.711501800874307e-01	 1.298110770433198e+01
 8.851208467144430e-01	 5.531502049048878e-01	 1.368292624838678e+01
 8.962313424113219e-01	 5.349611606011688e-01	 1.436947980523046e+01
 9.069414106472076e-01	 5.165959157052495e-01	 1.503827067012664e+01
 9.172474565673776e-01	 4.980674310666272e-01	 1.568676774348662e+01
 9.271464321096059e-01	 4.793887315052322e-01	 1.631241454084062e+01
 9.366358346624335e-01	 4.605728777226235e-01	 1.691263772349298e+01
 9.457137040449233e-01	 4.416329385920386e-01	 1.748485608513491e+01
 9.543786178563443e-01	 4.225819639399329e-01	 1.802648992349076e+01
 9.626296852524773e-01	 4.034329579260195e-01	 1.853497072089506e+01
 9.704665392127868e-01	 3.841988531225505e-01	 1.900775105361381e+01
 8.683828428822506e-01	 5.677301191277158e-01	 1.292553354218466e+01
 8.798207218831460e-01	 5.498379282272421e-01	 1.363326839859634e+01
 8.908646876651093e-01	 5.317578003561012e-01	 1.432927374533953e+01
 9.015106237553792e-01	 5.135025269862086e-01	 1.501076732170716e+01
 9.117549568253088e-01	 4.950849913571840e-01	 1.567492797523797e+01
 9.215946570645414e-01	 4.765181402960234e-01	 1.631890500429006e+01
 9.310272368473157e-01	 4.578149562964914e-01	 1.693982800678574e+01
 9.400507477303034e-01	 4.389884299750986e-01	 1.753481716212556e+01
 9.486637758301429e-01	 4.200515330156266e-01	 1.810099386754440e+01
 9.568654356370117e-01	 4.010171917085674e-01	 1.863549164554671e+01
 9.646553623281005e-01	 3.818982611856199e-01	 1.913546723556459e+01
 8.631516209371516e-01	 5.643100581684956e-01	 1.287106399065205e+01
 8.745205970520447e-01	 5.465256515499962e-01	 1.358579940341657e+01
 8.854980329192456e-01	 5.285544401113487e-01	 1.429237866100160e+01
 8.960798368640223e-01	 5.104091382674082e-01	 1.498773289936725e+01
 9.062624570838039e-01	 4.921025516479171e-01	 1.566874877733733e+01
 9.160428820201031e-01	 4.736475490869365e-01	 1.633227915984074e+01
 9.254186390328555e-01	 4.550570348704370e-01	 1.697515429316556e+01
 9.343877914163435e-01	 4.363439213582026e-01	 1.759419339088271e+01
 9.429489338045740e-01	 4.175211020913397e-01	 1.818621654385282e+01
 9.511011860221213e-01	 3.986014254911202e-01	 1.874805686363182e+01
 9.588441854439035e-01	 3.795976692486892e-01	 1.927657276568610e+01
 8.579203989920633e-01	 5.608899972097702e-01	 1.281770082465424e+01
 8.692204722211384e-01	 5.432133748731502e-01	 1.354054243027907e+01
 8.801313781737309e-01	 5.253510798669113e-01	 1.425883969226031e+01
 8.906490499731375e-01	 5.073157495488486e-01	 1.496923504836688e+01
 9.007699573428635e-01	 4.891201119388265e-01	 1.566832078472331e+01
 9.104911069762909e-01	 4.707769578779718e-01	 1.635265106796946e+01
 9.198100412190531e-01	 4.522991134444607e-01	 1.701875445561994e+01
 9.287248351030430e-01	 4.336994127413499e-01	 1.766314679488455e+01
 9.372340917796376e-01	 4.149906711670722e-01	 1.828234441543982e+01
 9.453369364078066e-01	 3.961856592736779e-01	 1.887287751808379e+01
 9.530330085601965e-01	 3.772970773117586e-01	 1.943130365889031e+01
 8.526891770469852e-01	 5.574699362515393e-01	 1.276544547730434e+01
 8.639203473904270e-01	 5.399010981967041e-01	 1.349752082059851e+01
 8.747647234285648e-01	 5.221477196227892e-01	 1.422870268466203e+01
 8.852182630827241e-01	 5.042223608305296e-01	 1.495534266560513e+01
 8.952774576024866e-01	 4.861376722299121e-01	 1.567373644359205e+01
 9.049393319331045e-01	 4.679063666691293e-01	 1.638013717235378e+01
 9.142014434059088e-01	 4.495411920185622e-01	 1.707076933343577e+01
 9.230618787904024e-01	 4.310549041245411e-01	 1.774184295698178e+01
 9.315192497553331e-01	 4.124602402428239e-01	 1.838956810656117e+01
 9.395726867940669e-01	 3.937698930562403e-01	 1.901016952252347e+01
 9.472218316769789e-01	 3.749964853748281e-01	 1.959990131664115e+01
 8.474579551019181e-01	 5.540498752938033e-01	 1.271429902935877e+01
 8.586202225599111e-01	 5.365888215206577e-01	 1.345675809514196e+01
 8.693980686837477e-01	 5.189443593789821e-01	 1.420201421103063e+01
 8.797874761927823e-01	 5.011289721124513e-01	 1.494612593825229e+01
 8.897849578626738e-01	 4.831552325211741e-01	 1.568509006730052e+01
 8.993875568905441e-01	 4.650357754604086e-01	 1.641485637342801e+01
 9.085928455934221e-01	 4.467832705927415e-01	 1.713134282375219e+01
 9.173989224784217e-01	 4.284103955077758e-01	 1.783045112925472e+01
 9.258044077316606e-01	 4.099298093185951e-01	 1.850808253113671e+01
 9.338084371809028e-01	 3.913541268388075e-01	 1.916015370850232e+01
 9.414106547942513e-01	 3.726958934378975e-01	 1.978261269320585e+01
 8.422267331568614e-01	 5.506298143365619e-01	 1.266426219827422e+01
 8.533200977295899e-01	 5.332765448450111e-01	 1.341827795959965e+01
 8.640314139392792e-01	 5.157409991354902e-01	 1.417882159405376e+01
 8.743566893033125e-01	 4.980355833946136e-01	 1.494165638381872e+01
 8.842924581234252e-01	 4.801727928126123e-01	 1.570247789435197e+01
 8.938357818486097e-01	 4.621651842518100e-01	 1.645693010467991e+01
 9.029842477815930e-01	 4.440253491669987e-01	 1.720062197652473e+01
 9.117359661671007e-01	 4.257658868910541e-01	 1.792914434696397e+01
 9.200895657086205e-01	 4.073993783943854e-01	 1.863808702597093e+01
 9.280441875683141e-01	 3.889383606213797e-01	 1.932305597823357e+01
 9.355994779120133e-01	 3.703953015009668e-01	 1.997969046810273e+01
 8.369955112118157e-01	 5.472097533798153e-01	 1.261533532685539e+01
 8.480199728994640e-01	 5.299642681697643e-01	 1.338210431036356e+01
 8.586647591951594e-01	 5.125376388923134e-01	 1.415917292971622e+01
 8.689259024143139e-01	 4.949421946770164e-01	 1.494200689172953e+01
 8.787999583847405e-01	 4.771903531042268e-01	 1.572599814855762e+01
 8.882840068073012e-01	 4.592945930433335e-01	 1.650648241180782e+01
 8.973756499704221e-01	 4.412674277413337e-01	 1.727875709305080e+01
 9.060730098564393e-01	 4.231213782743761e-01	 1.803809954677596e+01
 9.143747236862125e-01	 4.048689474701951e-01	 1.877978548896681e+01
 9.222799379563007e-01	 3.865225944039565e-01	 1.949910746304986e+01
 9.297883010302648e-01	 3.680947095640363e-01	 2.019139322501473e+01
 9.879000698697851e-01	 3.911006289333422e-01	 1.870265591895664e+01
 9.954562015255157e-01	 3.714474402192344e-01	 1.938952420425366e+01
 1.002591492531163e+00	 3.517336337418570e-01	 2.002953727060201e+01
 1.009307107503605e+00	 3.319720059640346e-01	 2.062206999277457e+01
 1.015604698980536e+00	 3.121751838465295e-01	 2.116653331482096e+01
 1.021486393066090e+00	 2.923556033012252e-01	 2.166237730307895e+01
 1.026954774052105e+00	 2.725254888119736e-01	 2.210909433375404e+01
 1.032012868112777e+00	 2.526968342700297e-01	 2.250622236138256e+01
 1.036664126171887e+00	 2.328813850624818e-01	 2.285334821459703e+01
 1.040912406042436e+00	 2.130906214436759e-01	 2.315011086656566e+01
 1.044761953938440e+00	 1.933357432113846e-01	 2.339620462921620e+01
 9.820888929836293e-01	 3.888000369964117e-01	 1.879156865114344e+01
 9.896005768064213e-01	 3.692624552750003e-01	 1.949571106239493e+01
 9.966938955123626e-01	 3.496646123653315e-01	 2.015234255161569e+01
 1.003370006867644e+00	 3.300192294569193e-01	 2.076084550599673e+01
 1.009630553689149e+00	 3.103388592342874e-01	 2.132064094658185e+01
 1.015477649574516e+00	 2.906358644568971e-01	 2.183119143471666e+01
 1.020913863613867e+00	 2.709223976998730e-01	 2.229200410062409e+01
 1.025942204180374e+00	 2.512103823021694e-01	 2.270263374233370e+01
 1.030566101898264e+00	 2.315114945603633e-01	 2.306268594331777e+01
 1.034789391887521e+00	 2.118371471978940e-01	 2.337182015813463e+01
 1.038616295384433e+00	 1.921984741313718e-01	 2.362975271709219e+01
 9.762777160979634e-01	 3.864994450594811e-01	 1.889319343115967e+01
 9.837449520877226e-01	 3.670774703307718e-01	 1.961452701916417e+01
 9.907962984938737e-01	 3.475955909888275e-01	 2.028769827837376e+01
 9.974329062319202e-01	 3.280664529498521e-01	 2.091209727706894e+01
 1.003656408397935e+00	 3.085025346221302e-01	 2.148715524420920e+01
 1.009468906083062e+00	 2.889161256127013e-01	 2.201234733031729e+01
 1.014872953175706e+00	 2.693193065879619e-01	 2.248719547827197e+01
 1.019871540248013e+00	 2.497239303345656e-01	 2.291127135412681e+01
 1.024468077624660e+00	 2.301416040585780e-01	 2.328419928821877e+01
 1.028666377732611e+00	 2.105836729525313e-01	 2.360565917777360e+01
 1.032470636830427e+00	 1.910612050518737e-01	 2.387538930389922e+01
 9.704665392127868e-01	 3.841988531225505e-01	 1.900775105361382e+01
 9.778893273694181e-01	 3.648924853865484e-01	 1.974619145722237e+01
 9.848987014756951e-01	 3.455265696123447e-01	 2.043582232987295e+01
 9.914958055964326e-01	 3.261136764428329e-01	 2.107604159295935e+01
 9.976822631068939e-01	 3.066662100100583e-01	 2.166629081791308e+01
 1.003460162591727e+00	 2.871963867686377e-01	 2.220605784249813e+01
 1.008832042737620e+00	 2.677162154762401e-01	 2.269487948501923e+01
 1.013800876315694e+00	 2.482374783672182e-01	 2.313234430842909e+01
 1.018370053351074e+00	 2.287717135571258e-01	 2.351809538648744e+01
 1.022543363577707e+00	 2.093301987075880e-01	 2.385183302506145e+01
 1.026324978276420e+00	 1.899239359728903e-01	 2.413331739331379e+01
 9.646553623281005e-01	 3.818982611856199e-01	 1.913546723556459e+01
 9.720337026515095e-01	 3.627075004423307e-01	 1.989092865472212e+01
 9.790011044578273e-01	 3.434575482358835e-01	 2.059693745306962e+01
 9.855587049611823e-01	 3.241608999358618e-01	 2.125289958054692e+01
 9.917081178160257e-01	 3.048298853980713e-01	 2.185826708930475e+01
 9.974514191005123e-01	 2.854766479247065e-01	 2.241254060636376e+01
 1.002791132299611e+00	 2.661131243647079e-01	 2.291527189241198e+01
 1.007730212383418e+00	 2.467510264001273e-01	 2.336606644057661e+01
 1.012272029077507e+00	 2.274018230560069e-01	 2.376458606918602e+01
 1.016420349422807e+00	 2.080767244630641e-01	 2.411055146347313e+01
 1.020179319722414e+00	 1.887866668944215e-01	 2.440374462279840e+01
 9.588441854439035e-01	 3.795976692486892e-01	 1.927657276568610e+01
 9.661780779339952e-01	 3.605225154981182e-01	 2.004896793365572e+01
 9.731035074402701e-01	 3.413885268594438e-01	 2.077127141039367e+01
 9.796216043261683e-01	 3.222081234289387e-01	 2.144289735328526e+01
 9.857339725253311e-01	 3.029935607861693e-01	 2.206330843719705e+01
 9.914426756094170e-01	 2.837569090809073e-01	 2.263201818442992e+01
 9.967502218616779e-01	 2.645100332533650e-01	 2.314859336925829e+01
 1.001659548451185e+00	 2.452645744332929e-01	 2.361265645271602e+01
 1.006174004803960e+00	 2.260319325552210e-01	 2.402388800349012e+01
 1.010297335267911e+00	 2.068232502189594e-01	 2.438202906170996e+01
 1.014033661168407e+00	 1.876493978164674e-01	 2.468688340401941e+01
 9.530330085601965e-01	 3.772970773117586e-01	 1.943130365889031e+01
 9.603224532168761e-01	 3.583375305539112e-01	 2.022054381363069e+01
 9.672059104230240e-01	 3.393195054830255e-01	 2.095905713265922e+01
 9.736845036913913e-01	 3.202553469220638e-01	 2.164626616323254e+01
 9.797598272348097e-01	 3.011572361743524e-01	 2.228164434873810e+01
 9.854339321184410e-01	 2.820371702372405e-01	 2.286471821684959e+01
 9.907093114238209e-01	 2.629069421422116e-01	 2.339506963093478e+01
 9.955888845189945e-01	 2.437781224667149e-01	 2.387233806218261e+01
 1.000075980530431e+00	 2.246620420547684e-01	 2.429622284013113e+01
 1.004174321113020e+00	 2.055697759752740e-01	 2.466648534020027e+01
 1.007888002614401e+00	 1.865121287390279e-01	 2.498295106840201e+01
 9.472218316769789e-01	 3.749964853748281e-01	 1.959990131664115e+01
 9.544668285001521e-01	 3.561525456097094e-01	 2.040589617130617e+01
 9.613083134060882e-01	 3.372504841066286e-01	 2.116053287760438e+01
 9.677474030568514e-01	 3.183025704152369e-01	 2.186324255867731e+01
 9.737856819444611e-01	 2.993209115626206e-01	 2.251350957610905e+01
 9.794251886275849e-01	 2.803174313937058e-01	 2.311087357716851e+01
 9.846684009860401e-01	 2.613038510312476e-01	 2.365493159418960e+01
 9.895182205868466e-01	 2.422916705003934e-01	 2.414534015534089e+01
 9.939779562569203e-01	 2.232921515546489e-01	 2.458181736626637e+01
 9.980513069581338e-01	 2.043163017320078e-01	 2.496414492299313e+01
 1.001742344060394e+00	 1.853748596621032e-01	 2.529217001804300e+01
 9.414106547942513e-01	 3.726958934378975e-01	 1.978261269320585e+01
 9.486112037838231e-01	 3.539675606655132e-01	 2.060527040573363e+01
 9.554107163894634e-01	 3.351814627302532e-01	 2.137594239430186e+01
 9.618103024225481e-01	 3.163497939084580e-01	 2.209406854760221e+01
 9.678115366542858e-01	 2.974845869509737e-01	 2.275914429902505e+01
 9.734164451368483e-01	 2.785976925503033e-01	 2.337072253384990e+01
 9.786274905483356e-01	 2.597007599204731e-01	 2.392841553767818e+01
 9.834475566547414e-01	 2.408052185343285e-01	 2.443189694712211e+01
 9.878799319834292e-01	 2.219222610548625e-01	 2.488090366401038e+01
 9.919282928032523e-01	 2.030628274891611e-01	 2.527523769527724e+01
 9.955966855063877e-01	 1.842375905856931e-01	 2.561476788221314e+01
 9.355994779120133e-01	 3.703953015009668e-01	 1.997969046810272e+01
 9.427555790678890e-01	 3.517825757213223e-01	 2.081891760985993e+01
 9.495131193731493e-01	 3.331124413538993e-01	 2.160553509369787e+01
 9.558732017884815e-01	 3.143970174017272e-01	 2.233899176724015e+01
 9.618373913642838e-01	 2.956482623394119e-01	 2.301879429329217e+01
 9.674077016462318e-01	 2.768779537070331e-01	 2.364450891781832e+01
 9.725865801107074e-01	 2.580976688098879e-01	 2.421576326848256e+01
 9.773768927226787e-01	 2.393187665685200e-01	 2.473224814650797e+01
 9.817819077099565e-01	 2.205523705554094e-01	 2.519371927487476e+01
 9.858052786483756e-01	 2.018093532467336e-01	 2.559999896677061e+01
 9.894510269523811e-01	 1.831003215097976e-01	 2.595097767969171e+01
 9.297883010302648e-01	 3.680947095640363e-01	 2.019139322501472e+01
 9.368999543523499e-01	 3.495975907771367e-01	 2.104709474846158e+01
 9.436155223571460e-01	 3.310434199775669e-01	 2.184956622554542e+01
 9.499361011546518e-01	 3.124442408950445e-01	 2.259826565998803e+01
 9.558632460744551e-01	 2.938119377279352e-01	 2.329271110568511e+01
 9.613989581557346e-01	 2.751582148638951e-01	 2.393248229628656e+01
 9.665456696731551e-01	 2.564945776994922e-01	 2.451722229487434e+01
 9.713062287906588e-01	 2.378323146029679e-01	 2.504663912821968e+01
 9.756838834365028e-01	 2.191824800562894e-01	 2.552050737037443e+01
 9.796822644935033e-01	 2.005558790047254e-01	 2.593866964123693e+01
 9.833053683983746e-01	 1.819630524344169e-01	 2.630103798718855e+01
 1.044761953938440e+00	 1.933357432113846e-01	 2.339620462921620e+01
 1.048217385457841e+00	 1.736276557013739e-01	 2.376595066546189e+01
 1.051283666134210e+00	 1.539769571066575e-01	 2.408451883708584e+01
 1.053966091652700e+00	 1.343939271197823e-01	 2.435241356992215e+01
 1.056270267823132e+00	 1.148885168896664e-01	 2.457018033859072e+01
 1.058202090400186e+00	 9.547034027827463e-02	 2.473840641449565e+01
 1.059767724837014e+00	 7.614866639592550e-02	 2.485772149907607e+01
 1.060973586054718e+00	 5.693241338847237e-02	 2.492879821564529e+01
 1.061826318305864e+00	 3.783014344444236e-02	 2.495235243686172e+01
 1.062332775205699e+00	 1.885005898556709e-02	 2.492914342870206e+01
 1.062500000000000e+00	 0.000000000000000e+00	 2.485997379568148e+01
 1.038616295384433e+00	 1.921984741313718e-01	 2.362975271709219e+01
 1.042051400836352e+00	 1.726063165476180e-01	 2.400708979094020e+01
 1.045099644567812e+00	 1.530712102974212e-01	 2.433309769501224e+01
 1.047766291112880e+00	 1.336033746045466e-01	 2.460822746312678e+01
 1.050056913306024e+00	 1.142127020817402e-01	 2.483297390836065e+01
 1.051977372221016e+00	 9.490875003883541e-02	 2.500787639838030e+01
 1.053533797043635e+00	 7.570073306196999e-02	 2.513351950083088e+01
 1.054732564960156e+00	 5.659751683731360e-02	 2.521053347326131e+01
 1.055580281139305e+00	 3.760761318757612e-02	 2.523959457578597e+01
 1.056083758880946e+00	 1.873917628494704e-02	 2.522142518851392e+01
 1.056250000000000e+00	 0.000000000000000e+00	 2.515679371964107e+01
 1.032470636830427e+00	 1.910612050518737e-01	 2.387538930389922e+01
 1.035885416214862e+00	 1.715849773944606e-01	 2.426068337164560e+01
 1.038915623001414e+00	 1.521654634888356e-01	 2.459450301061219e+01
 1.041566490573059e+00	 1.328128220899830e-01	 2.487724503792651e+01
 1.043843558788917e+00	 1.135368872744768e-01	 2.510935277726508e+01
 1.045752654041845e+00	 9.434715980001965e-02	 2.529131686518897e+01
 1.047299869250256e+00	 7.525279972856942e-02	 2.542367591220279e+01
 1.048491543865594e+00	 5.626262028661251e-02	 2.550701699413723e+01
 1.049334243972746e+00	 3.738508293104215e-02	 2.554197595319750e+01
 1.049834742556193e+00	 1.862829358450651e-02	 2.552923749185469e+01
 1.050000000000000e+00	 0.000000000000000e+00	 2.546953504661549e+01
 1.026324978276420e+00	 1.899239359728903e-01	 2.413331739331379e+01
 1.029719431593372e+00	 1.705636382419018e-01	 2.452693949471535e+01
 1.032731601435016e+00	 1.512597166809010e-01	 2.486894793493261e+01
 1.035366690033239e+00	 1.320222695760914e-01	 2.515968448256210e+01
 1.037630204271809e+00	 1.128610724678761e-01	 2.539954013720739e+01
 1.039527935862675e+00	 9.378556956182743e-02	 2.558895597049477e+01
 1.041065941456878e+00	 7.480486639572381e-02	 2.572842380633469e+01
 1.042250522771031e+00	 5.592772373636906e-02	 2.581848671713304e+01
 1.043088206806186e+00	 3.716255267484049e-02	 2.585973931642036e+01
 1.043585726231440e+00	 1.851741088424552e-02	 2.585282783220901e+01
 1.043750000000000e+00	 0.000000000000000e+00	 2.579844994924064e+01
 1.020179319722414e+00	 1.887866668944215e-01	 2.440374462279840e+01
 1.023553446971883e+00	 1.695422990899416e-01	 2.480607102516517e+01
 1.026547579868618e+00	 1.503539698736173e-01	 2.515665054165581e+01
 1.029166889493419e+00	 1.312317170628720e-01	 2.545576905308425e+01
 1.031416849754700e+00	 1.121852576619383e-01	 2.570376439325339e+01
 1.033303217683504e+00	 9.322397932425873e-02	 2.590102722833008e+01
 1.034832013663499e+00	 7.435693306343312e-02	 2.604800175984331e+01
 1.036009501676469e+00	 5.559282718658326e-02	 2.614518622909574e+01
 1.036842169639627e+00	 3.694002241897112e-02	 2.619313320456657e+01
 1.037336709906687e+00	 1.840652818416404e-02	 2.619244963773449e+01
 1.037500000000000e+00	 0.000000000000000e+00	 2.614379667660060e+01
 1.014033661168407e+00	 1.876493978164674e-01	 2.468688340401941e+01
 1.017387462350394e+00	 1.685209599385800e-01	 2.509829575067352e+01
 1.020363558302220e+00	 1.494482230669845e-01	 2.545783397627001e+01
 1.022967088953598e+00	 1.304411645503247e-01	 2.576572722692344e+01
 1.025203495237593e+00	 1.115094428566631e-01	 2.602225932160594e+01
 1.027078499504333e+00	 9.266238908731354e-02	 2.622776967356420e+01
 1.028598085870120e+00	 7.390899973169737e-02	 2.638265401959123e+01
 1.029768480581907e+00	 5.525793063725513e-02	 2.648736493601068e+01
 1.030596132473068e+00	 3.671749216343406e-02	 2.654241212404457e+01
 1.031087693581935e+00	 1.829564548426208e-02	 2.654836245110042e+01
 1.031250000000000e+00	 0.000000000000000e+00	 2.650583973836236e+01
 1.007888002614401e+00	 1.865121287390279e-01	 2.498295106840201e+01
 1.011221477728904e+00	 1.674996207878170e-01	 2.540383653166274e+01
 1.014179536735822e+00	 1.485424762610025e-01	 2.577272661069757e+01
 1.016767288413778e+00	 1.296506120384494e-01	 2.608979286207862e+01
 1.018990140720485e+00	 1.108336280520508e-01	 2.635526423335926e+01
 1.020853781325163e+00	 9.210079885099187e-02	 2.656942803022140e+01
 1.022364158076741e+00	 7.346106640051656e-02	 2.673263067556021e+01
 1.023527459487344e+00	 5.492303408838464e-02	 2.684527824041412e+01
 1.024350095306508e+00	 3.649496190822930e-02	 2.690783673048919e+01
 1.024838677257182e+00	 1.818476278453965e-02	 2.692083211590566e+01
 1.025000000000000e+00	 0.000000000000000e+00	 2.688485009564733e+01
 1.001742344060394e+00	 1.853748596621032e-01	 2.529217001804300e+01
 1.005055493107414e+00	 1.664782816376525e-01	 2.572292145690478e+01
 1.007995515169424e+00	 1.476367294556715e-01	 2.610156220361522e+01
 1.010567487873958e+00	 1.288600595272462e-01	 2.642820536216496e+01
 1.012776786203377e+00	 1.101578132481012e-01	 2.670302414428065e+01
 1.014629063145992e+00	 9.153920861529372e-02	 2.692625288599504e+01
 1.016130230283362e+00	 7.301313306989071e-02	 2.709818784008786e+01
 1.017286438392782e+00	 5.458813753997180e-02	 2.721918772533661e+01
 1.018104058139949e+00	 3.627243165335682e-02	 2.728967401738806e+01
 1.018589660932429e+00	 1.807388008499675e-02	 2.731013096995866e+01
 1.018750000000000e+00	 0.000000000000000e+00	 2.728110535892857e+01
 9.955966855063877e-01	 1.842375905856931e-01	 2.561476788221314e+01
 9.988895084859244e-01	 1.654569424880867e-01	 2.605578400488997e+01
 1.001811493603026e+00	 1.467309826509912e-01	 2.644458006671178e+01
 1.004367687334138e+00	 1.280695070167151e-01	 2.678120984757529e+01
 1.006563431686268e+00	 1.094819984448144e-01	 2.706578995088096e+01
 1.008404344966822e+00	 9.097761838021909e-02	 2.729850087322486e+01
 1.009896302489984e+00	 7.256519973981976e-02	 2.747958783374296e+01
 1.011045417298220e+00	 5.425324099201662e-02	 2.760936134505890e+01
 1.011858020973390e+00	 3.604990139881664e-02	 2.768819751169433e+01
 1.012340644607676e+00	 1.796299738563338e-02	 2.771653804571606e+01
 1.012500000000000e+00	 0.000000000000000e+00	 2.769488999325769e+01
 9.894510269523811e-01	 1.831003215097976e-01	 2.595097767969171e+01
 9.927235238644349e-01	 1.644356033391194e-01	 2.640266321120961e+01
 9.956274720366280e-01	 1.458252358469619e-01	 2.680202523714197e+01
 9.981678867943176e-01	 1.272789545068561e-01	 2.714905733301939e+01
 1.000350077169160e+00	 1.088061836421904e-01	 2.744381861304590e+01
 1.002179626787651e+00	 9.041602814576796e-02	 2.768643485661898e+01
 1.003662374696605e+00	 7.211726641030376e-02	 2.787709937812751e+01
 1.004804396203657e+00	 5.391834444451908e-02	 2.801607362297679e+01
 1.005611983806831e+00	 3.582737114460877e-02	 2.810368747672955e+01
 1.006091628282923e+00	 1.785211468644953e-02	 2.814033927819093e+01
 1.006250000000000e+00	 0.000000000000000e+00	 2.812649553114001e+01
 9.833053683983746e-01	 1.819630524344169e-01	 2.630103798718855e+01
 9.865575392429453e-01	 1.634142641907508e-01	 2.676380384221535e+01
 9.894434504702300e-01	 1.449194890435835e-01	 2.717414865644735e+01
 9.919680862544974e-01	 1.264884019976692e-01	 2.753200491172153e+01
 9.941367226520526e-01	 1.081303688402291e-01	 2.783737334351704e+01
 9.959549086084809e-01	 8.985443791194039e-02	 2.809032412801538e+01
 9.974284469032260e-01	 7.166933308134271e-02	 2.829099779590910e+01
 9.985633751090949e-01	 5.358344789747919e-02	 2.843960585688620e+01
 9.993659466402712e-01	 3.560484089073318e-02	 2.853643112269476e+01
 9.998426119581703e-01	 1.774123198744520e-02	 2.858182772065777e+01
 1.000000000000000e+00	 0.000000000000000e+00	 2.857622079339235e+01
