patch_n	x	y	stress_yy
0	 0.000000000000000e+00	 0.000000000000000e+00	 3.455548246153845e+00
0	 0.000000000000000e+00	 6.250000000000000e-02	 2.842225680553845e+00
0	 0.000000000000000e+00	 1.250000000000000e-01	 2.166866693907692e+00
0	 0.000000000000000e+00	 1.875000000000000e-01	 1.429471286215385e+00
0	 0.000000000000000e+00	 2.500000000000000e-01	 6.300394574769228e-01
0	 0.000000000000000e+00	 3.125000000000000e-01	-2.314287923076924e-01
0	 0.000000000000000e+00	 3.750000000000000e-01	-1.154933463138461e+00
0	 0.000000000000000e+00	 4.375000000000000e-01	-2.140474555015384e+00
0	 0.000000000000000e+00	 5.000000000000000e-01	-3.188052067938461e+00
0	 0.000000000000000e+00	 5.624999999999999e-01	-4.297666001907691e+00
0	 0.000000000000000e+00	 6.250000000000000e-01	-5.469316356923076e+00
0	 6.250000000000000e-02	 0.000000000000000e+00	 3.899920647046152e+00
0	 6.250000000000000e-02	 6.250000000000000e-02	 3.165636385679692e+00
0	 6.249999999999997e-02	 1.250000000000000e-01	 2.373065358983383e+00
0	 6.250000000000000e-02	 1.875000000000000e-01	 1.522207566957229e+00
0	 6.249999999999999e-02	 2.499999999999999e-01	 6.130630096012301e-01
0	 6.250000000000000e-02	 3.125000000000001e-01	-3.543683130846155e-01
0	 6.249999999999999e-02	 3.750000000000000e-01	-1.380086401100308e+00
0	 6.250000000000000e-02	 4.375000000000000e-01	-2.464091254445845e+00
0	 6.250000000000000e-02	 5.000000000000000e-01	-3.606382873121230e+00
0	 6.250000000000000e-02	 5.624999999999999e-01	-4.806961257126460e+00
0	 6.250000000000000e-02	 6.250000000000000e-01	-6.065826406461539e+00
0	 1.250000000000000e-01	 0.000000000000000e+00	 4.250994575323076e+00
0	 1.250000000000000e-01	 6.249999999999999e-02	 3.429172512836307e+00
0	 1.250000000000000e-01	 1.250000000000000e-01	 2.552813340736000e+00
0	 1.250000000000000e-01	 1.875000000000000e-01	 1.621917059022153e+00
0	 1.250000000000000e-01	 2.500000000000001e-01	 6.364836676947687e-01
0	 1.250000000000000e-01	 3.125000000000001e-01	-4.034868332461540e-01
0	 1.250000000000000e-01	 3.750000000000000e-01	-1.497994443800616e+00
0	 1.250000000000000e-01	 4.375000000000000e-01	-2.647039163968615e+00
0	 1.250000000000000e-01	 4.999999999999999e-01	-3.850620993750152e+00
0	 1.250000000000000e-01	 5.624999999999999e-01	-5.108739933145229e+00
0	 1.250000000000000e-01	 6.250000000000001e-01	-6.421395982153845e+00
0	 1.875000000000000e-01	 0.000000000000000e+00	 4.508770030984614e+00
0	 1.875000000000000e-01	 6.250000000000000e-02	 3.632834062023693e+00
0	 1.875000000000001e-01	 1.250000000000000e-01	 2.706110639165538e+00
0	 1.875000000000000e-01	 1.875000000000000e-01	 1.728599762410153e+00
0	 1.875000000000000e-01	 2.500000000000000e-01	 7.003014317575385e-01
0	 1.875000000000000e-01	 3.125000000000000e-01	-3.787843527923077e-01
0	 1.875000000000000e-01	 3.749999999999999e-01	-1.508657591239384e+00
0	 1.875000000000001e-01	 4.375000000000001e-01	-2.689318283583692e+00
0	 1.875000000000000e-01	 4.999999999999999e-01	-3.920766429825229e+00
0	 1.875000000000000e-01	 5.624999999999999e-01	-5.203002029963999e+00
0	 1.875000000000000e-01	 6.250000000000002e-01	-6.536025083999999e+00
0	 2.500000000000000e-01	 0.000000000000000e+00	 4.673247014030768e+00
0	 2.499999999999999e-01	 6.249999999999999e-02	 3.776621033241847e+00
0	 2.500000000000000e-01	 1.250000000000000e-01	 2.832957254271999e+00
0	 2.500000000000000e-01	 1.875000000000000e-01	 1.842255677121231e+00
0	 2.500000000000000e-01	 2.500000000000000e-01	 8.045163017895380e-01
0	 2.500000000000001e-01	 3.125000000000000e-01	-2.802608717230770e-01
0	 2.500000000000001e-01	 3.750000000000001e-01	-1.412075843416615e+00
0	 2.500000000000000e-01	 4.375000000000000e-01	-2.590928613291076e+00
0	 2.500000000000000e-01	 5.000000000000000e-01	-3.816819181346461e+00
0	 2.499999999999999e-01	 5.624999999999999e-01	-5.089747547582768e+00
0	 2.500000000000000e-01	 6.249999999999999e-01	-6.409713712000000e+00
0	 3.125000000000000e-01	 0.000000000000000e+00	 4.744425524461539e+00
0	 3.125000000000001e-01	 6.250000000000000e-02	 3.860533426490769e+00
0	 3.125000000000001e-01	 1.250000000000000e-01	 2.933353186055384e+00
0	 3.125000000000001e-01	 1.875000000000000e-01	 1.962884803155384e+00
0	 3.125000000000000e-01	 2.500000000000000e-01	 9.491282777907690e-01
0	 3.125000000000000e-01	 3.125000000000000e-01	-1.079163900384616e-01
0	 3.125000000000000e-01	 3.750000000000000e-01	-1.208249200332307e+00
0	 3.125000000000000e-01	 4.375000000000000e-01	-2.351870153090769e+00
0	 3.125000000000000e-01	 4.999999999999999e-01	-3.538779248313844e+00
0	 3.124999999999999e-01	 5.625000000000000e-01	-4.768976486001538e+00
0	 3.125000000000000e-01	 6.250000000000000e-01	-6.042461866153847e+00
0	 3.750000000000000e-01	 0.000000000000000e+00	 4.722305562276922e+00
0	 3.750000000000000e-01	 6.249999999999999e-02	 3.884571241770461e+00
0	 3.750000000000000e-01	 1.250000000000000e-01	 3.007298434515692e+00
0	 3.749999999999999e-01	 1.875000000000000e-01	 2.090487140512614e+00
0	 3.750000000000001e-01	 2.500000000000001e-01	 1.134137359761231e+00
0	 3.750000000000000e-01	 3.125000000000000e-01	 1.382490922615384e-01
0	 3.749999999999999e-01	 3.749999999999999e-01	-8.971776619864613e-01
0	 3.750000000000000e-01	 4.375000000000000e-01	-1.972142902982769e+00
0	 3.749999999999999e-01	 4.999999999999998e-01	-3.086646630727383e+00
0	 3.750000000000000e-01	 5.625000000000000e-01	-4.240688845220306e+00
0	 3.750000000000000e-01	 6.250000000000000e-01	-5.434269546461539e+00
0	 4.375000000000000e-01	 0.000000000000000e+00	 4.606887127476923e+00
0	 4.374999999999999e-01	 6.249999999999999e-02	 3.848734479080922e+00
0	 4.375000000000000e-01	 1.250000000000000e-01	 3.054792999652923e+00
0	 4.375000000000000e-01	 1.875000000000001e-01	 2.225062689192923e+00
0	 4.375000000000000e-01	 2.500000000000000e-01	 1.359543547700923e+00
0	 4.374999999999999e-01	 3.125000000000000e-01	 4.582355751769228e-01
0	 4.375000000000000e-01	 3.749999999999999e-01	-4.788612283790774e-01
0	 4.374999999999999e-01	 4.374999999999999e-01	-1.451746862967077e+00
0	 4.375000000000000e-01	 4.999999999999999e-01	-2.460421328587076e+00
0	 4.375000000000000e-01	 5.625000000000000e-01	-3.504884625239075e+00
0	 4.374999999999999e-01	 6.250000000000001e-01	-4.585136752923077e+00
0	 5.000000000000000e-01	 0.000000000000000e+00	 4.398170220061538e+00
0	 4.999999999999999e-01	 6.249999999999999e-02	 3.753023138422153e+00
0	 4.999999999999999e-01	 1.250000000000000e-01	 3.075836881467076e+00
0	 4.999999999999999e-01	 1.875000000000000e-01	 2.366611449196307e+00
0	 5.000000000000000e-01	 2.500000000000000e-01	 1.625346841609846e+00
0	 4.999999999999999e-01	 3.125000000000000e-01	 8.520430587076918e-01
0	 4.999999999999999e-01	 3.750000000000000e-01	 4.670010048984563e-02
0	 4.999999999999999e-01	 4.375000000000000e-01	-7.906820330436932e-01
0	 4.999999999999999e-01	 4.999999999999999e-01	-1.660103341892923e+00
0	 4.999999999999999e-01	 5.624999999999999e-01	-2.561563826057847e+00
0	 4.999999999999999e-01	 6.250000000000000e-01	-3.495063485538464e+00
0	 5.624999999999999e-01	 0.000000000000000e+00	 4.096154840030770e+00
0	 5.624999999999999e-01	 6.250000000000000e-02	 3.597437219794153e+00
0	 5.624999999999999e-01	 1.250000000000000e-01	 3.070430079958154e+00
0	 5.624999999999999e-01	 1.875000000000000e-01	 2.515133420522769e+00
0	 5.625000000000000e-01	 2.500000000000001e-01	 1.931547241488000e+00
0	 5.624999999999999e-01	 3.124999999999999e-01	 1.319671542853846e+00
0	 5.625000000000001e-01	 3.750000000000001e-01	 6.795063246203070e-01
0	 5.625000000000000e-01	 4.375000000000000e-01	 1.105158678738399e-02
0	 5.624999999999999e-01	 4.999999999999999e-01	-6.856926706449238e-01
0	 5.624999999999999e-01	 5.624999999999999e-01	-1.410726447676616e+00
0	 5.624999999999999e-01	 6.250000000000000e-01	-2.164049744307694e+00
0	 6.250000000000000e-01	 0.000000000000000e+00	 3.700840987384615e+00
0	 6.250000000000000e-01	 6.250000000000000e-02	 3.381976723196923e+00
0	 6.250000000000000e-01	 1.250000000000000e-01	 3.038572595126154e+00
0	 6.250000000000000e-01	 1.875000000000000e-01	 2.670628603172308e+00
0	 6.249999999999999e-01	 2.500000000000000e-01	 2.278144747335385e+00
0	 6.250000000000000e-01	 3.125000000000000e-01	 1.861121027615384e+00
0	 6.249999999999999e-01	 3.750000000000000e-01	 1.419557444012308e+00
0	 6.250000000000001e-01	 4.374999999999999e-01	 9.534539965261535e-01
0	 6.250000000000000e-01	 5.000000000000000e-01	 4.628106851569235e-01
0	 6.250000000000000e-01	 5.624999999999999e-01	-5.237249009538414e-02
0	 6.250000000000000e-01	 6.250000000000000e-01	-5.920955292307692e-01
0	 0.000000000000000e+00	 6.250000000000000e-01	-5.469316356923076e+00
0	 0.000000000000000e+00	 6.875000000000000e-01	-7.514085891076879e-01
0	 0.000000000000000e+00	 7.500000000000002e-01	 4.008966140800007e+00
0	 0.000000000000000e+00	 8.125000000000002e-01	 8.811807832800012e+00
0	 0.000000000000000e+00	 8.750000000000002e-01	 1.365711648689232e+01
0	 0.000000000000000e+00	 9.375000000000002e-01	 1.854489210307695e+01
0	 0.000000000000000e+00	 1.000000000000000e+00	 2.347513468135387e+01
0	 0.000000000000000e+00	 1.062500000000000e+00	 2.844784422172311e+01
0	 0.000000000000000e+00	 1.125000000000000e+00	 3.346302072418464e+01
0	 0.000000000000000e+00	 1.187500000000000e+00	 3.852066418873849e+01
0	 0.000000000000000e+00	 1.250000000000000e+00	 4.362077461538461e+01
0	 6.250000000000000e-02	 6.250000000000000e-01	-6.065826406461539e+00
0	 6.250000000000000e-02	 6.875000000000001e-01	-1.054999131387688e+00
0	 6.250000000000000e-02	 7.500000000000000e-01	 3.996485546080007e+00
0	 6.250000000000000e-02	 8.125000000000002e-01	 9.088627625941548e+00
0	 6.249999999999999e-02	 8.750000000000002e-01	 1.422142710819694e+01
0	 6.249999999999998e-02	 9.375000000000002e-01	 1.939488399284617e+01
0	 6.250000000000000e-02	 1.000000000000000e+00	 2.460899827988926e+01
0	 6.250000000000000e-02	 1.062500000000000e+00	 2.986376996932618e+01
0	 6.249999999999999e-02	 1.125000000000000e+00	 3.515919906115696e+01
0	 6.250000000000000e-02	 1.187500000000001e+00	 4.049528555538157e+01
0	 6.250000000000000e-02	 1.250000000000000e+00	 4.587202945199999e+01
0	 1.250000000000000e-01	 6.250000000000001e-01	-6.421395982153845e+00
0	 1.250000000000000e-01	 6.875000000000000e-01	-1.181193232498457e+00
0	 1.250000000000000e-01	 7.500000000000000e-01	 4.097857359852317e+00
0	 1.250000000000000e-01	 8.125000000000004e-01	 9.415755794898477e+00
0	 1.250000000000000e-01	 8.750000000000002e-01	 1.477250207264002e+01
0	 1.250000000000000e-01	 9.375000000000002e-01	 2.016809619307694e+01
0	 1.250000000000000e-01	 1.000000000000000e+00	 2.560253815620926e+01
0	 1.250000000000000e-01	 1.062500000000000e+00	 3.107582796203695e+01
0	 1.250000000000000e-01	 1.125000000000000e+00	 3.658796561056003e+01
0	 1.250000000000000e-01	 1.187500000000000e+00	 4.213895110177849e+01
0	 1.250000000000000e-01	 1.250000000000000e+00	 4.772878443569230e+01
0	 1.875000000000000e-01	 6.250000000000002e-01	-6.536025083999999e+00
0	 1.875000000000000e-01	 6.875000000000001e-01	-1.129990892439996e+00
0	 1.875000000000000e-01	 7.500000000000001e-01	 4.313081582116930e+00
0	 1.875000000000001e-01	 8.125000000000002e-01	 9.793192339670785e+00
0	 1.875000000000000e-01	 8.750000000000002e-01	 1.531034138022155e+01
0	 1.875000000000000e-01	 9.375000000000002e-01	 2.086452870376926e+01
0	 1.875000000000000e-01	 1.000000000000000e+00	 2.645575431031389e+01
0	 1.875000000000000e-01	 1.062500000000000e+00	 3.208401819985541e+01
0	 1.875000000000001e-01	 1.125000000000000e+00	 3.774932037239387e+01
0	 1.875000000000000e-01	 1.187500000000000e+00	 4.345166082792926e+01
0	 1.875000000000000e-01	 1.250000000000000e+00	 4.919103956646155e+01
0	 2.500000000000000e-01	 6.249999999999999e-01	-6.409713712000000e+00
0	 2.500000000000001e-01	 6.875000000000001e-01	-9.013921112123027e-01
0	 2.500000000000001e-01	 7.500000000000002e-01	 4.642158212873856e+00
0	 2.500000000000001e-01	 8.125000000000002e-01	 1.022093726025848e+01
0	 2.500000000000001e-01	 8.750000000000002e-01	 1.583494503094156e+01
0	 2.499999999999999e-01	 9.375000000000002e-01	 2.148418152492310e+01
0	 2.499999999999999e-01	 1.000000000000000e+00	 2.716864674220311e+01
0	 2.500000000000001e-01	 1.062500000000001e+00	 3.288834068278157e+01
0	 2.500000000000001e-01	 1.125000000000000e+00	 3.864326334665850e+01
0	 2.500000000000000e-01	 1.187500000000000e+00	 4.443341473383388e+01
0	 2.500000000000000e-01	 1.250000000000000e+00	 5.025879484430768e+01
0	 3.125000000000000e-01	 6.250000000000000e-01	-6.042461866153847e+00
0	 3.125000000000000e-01	 6.875000000000000e-01	-4.953968888153805e-01
0	 3.125000000000000e-01	 7.500000000000001e-01	 5.085087252123085e+00
0	 3.125000000000001e-01	 8.125000000000002e-01	 1.069899055666155e+01
0	 3.125000000000000e-01	 8.750000000000002e-01	 1.634631302480002e+01
0	 3.125000000000000e-01	 9.375000000000002e-01	 2.202705465653849e+01
0	 3.125000000000000e-01	 1.000000000000000e+00	 2.774121545187695e+01
0	 3.124999999999999e-01	 1.062500000000000e+00	 3.348879541081541e+01
0	 3.125000000000001e-01	 1.125000000000001e+00	 3.926979453335389e+01
0	 3.125000000000000e-01	 1.187500000000001e+00	 4.508421281949236e+01
0	 3.125000000000000e-01	 1.250000000000000e+00	 5.093205026923076e+01
0	 3.750000000000000e-01	 6.250000000000000e-01	-5.434269546461539e+00
0	 3.750000000000000e-01	 6.875000000000001e-01	 8.799477475077377e-02
0	 3.750000000000000e-01	 7.500000000000001e-01	 5.641868699864624e+00
0	 3.750000000000000e-01	 8.125000000000002e-01	 1.122735222888001e+01
0	 3.749999999999999e-01	 8.750000000000001e-01	 1.684444536179694e+01
0	 3.750000000000000e-01	 9.375000000000002e-01	 2.249314809861541e+01
0	 3.750000000000000e-01	 1.000000000000000e+00	 2.817346043933540e+01
0	 3.750000000000000e-01	 1.062500000000001e+00	 3.388538238395696e+01
0	 3.750000000000001e-01	 1.125000000000000e+00	 3.962891393248002e+01
0	 3.750000000000000e-01	 1.187500000000001e+00	 4.540405508490465e+01
0	 3.750000000000000e-01	 1.250000000000000e+00	 5.121080584123077e+01
0	 4.374999999999999e-01	 6.250000000000001e-01	-4.585136752923077e+00
0	 4.374999999999998e-01	 6.875000000000000e-01	 8.487828794861570e-01
0	 4.375000000000000e-01	 7.500000000000003e-01	 6.312502556098470e+00
0	 4.374999999999999e-01	 8.125000000000001e-01	 1.180602227691386e+01
0	 4.375000000000000e-01	 8.750000000000002e-01	 1.732934204193232e+01
0	 4.375000000000001e-01	 9.375000000000003e-01	 2.288246185115387e+01
0	 4.375000000000000e-01	 1.000000000000000e+00	 2.846538170457849e+01
0	 4.374999999999999e-01	 1.062500000000000e+00	 3.407810160220617e+01
0	 4.375000000000000e-01	 1.125000000000000e+00	 3.972062154403697e+01
0	 4.374999999999999e-01	 1.187500000000000e+00	 4.539294153007080e+01
0	 4.374999999999999e-01	 1.250000000000000e+00	 5.109506156030770e+01
0	 4.999999999999999e-01	 6.250000000000000e-01	-3.495063485538464e+00
0	 5.000000000000000e-01	 6.875000000000001e-01	 1.786967425390772e+00
0	 4.999999999999999e-01	 7.500000000000000e-01	 7.096988820824619e+00
0	 4.999999999999999e-01	 8.125000000000002e-01	 1.243500070076309e+01
0	 5.000000000000000e-01	 8.750000000000003e-01	 1.780100306520617e+01
0	 4.999999999999999e-01	 9.375000000000001e-01	 2.319499591415387e+01
0	 5.000000000000000e-01	 1.000000000000000e+00	 2.861697924760618e+01
0	 4.999999999999999e-01	 1.062500000000000e+00	 3.406695306556311e+01
0	 5.000000000000000e-01	 1.125000000000001e+00	 3.954491736802465e+01
0	 5.000000000000000e-01	 1.187500000000001e+00	 4.505087215499080e+01
0	 4.999999999999999e-01	 1.250000000000000e+00	 5.058481742646153e+01
0	 5.624999999999999e-01	 6.250000000000000e-01	-2.164049744307694e+00
0	 5.625000000000000e-01	 6.875000000000001e-01	 2.902548412464619e+00
0	 5.625000000000000e-01	 7.500000000000002e-01	 7.995327494043083e+00
0	 5.624999999999999e-01	 8.125000000000002e-01	 1.311428750042771e+01
0	 5.625000000000000e-01	 8.750000000000002e-01	 1.825942843161847e+01
0	 5.625000000000000e-01	 9.375000000000003e-01	 2.343075028761541e+01
0	 5.625000000000001e-01	 1.000000000000000e+00	 2.862825306841849e+01
0	 5.625000000000000e-01	 1.062500000000000e+00	 3.385193677402772e+01
0	 5.624999999999999e-01	 1.125000000000000e+00	 3.910180140444310e+01
0	 5.625000000000000e-01	 1.187500000000000e+00	 4.437784695966465e+01
0	 5.624999999999999e-01	 1.250000000000000e+00	 4.968007343969231e+01
0	 6.250000000000000e-01	 6.250000000000000e-01	-5.920955292307692e-01
0	 6.250000000000000e-01	 6.875000000000000e-01	 4.195525840707697e+00
0	 6.250000000000000e-01	 7.500000000000002e-01	 9.007518575753855e+00
0	 6.250000000000000e-01	 8.125000000000002e-01	 1.384388267590771e+01
0	 6.250000000000000e-01	 8.750000000000002e-01	 1.870461814116925e+01
0	 6.250000000000000e-01	 9.375000000000002e-01	 2.358972497153848e+01
0	 6.250000000000000e-01	 1.000000000000000e+00	 2.849920316701541e+01
0	 6.250000000000001e-01	 1.062500000000000e+00	 3.343305272760003e+01
0	 6.250000000000001e-01	 1.125000000000001e+00	 3.839127365329234e+01
0	 6.250000000000000e-01	 1.187500000000000e+00	 4.337386594409234e+01
0	 6.250000000000000e-01	 1.250000000000000e+00	 4.838082960000001e+01
0	 0.000000000000000e+00	 1.250000000000000e+00	 4.362077461538461e+01
0	 0.000000000000000e+00	 1.312500000000000e+00	 4.144121037292307e+01
0	 0.000000000000000e+00	 1.375000000000000e+00	 3.923899307323077e+01
0	 0.000000000000000e+00	 1.437500000000000e+00	 3.701412271630769e+01
0	 0.000000000000000e+00	 1.500000000000000e+00	 3.476659930215383e+01
0	 0.000000000000000e+00	 1.562500000000000e+00	 3.249642283076922e+01
0	 0.000000000000000e+00	 1.625000000000000e+00	 3.020359330215383e+01
0	 0.000000000000000e+00	 1.687500000000000e+00	 2.788811071630768e+01
0	 0.000000000000000e+00	 1.750000000000000e+00	 2.554997507323074e+01
0	 0.000000000000000e+00	 1.812500000000000e+00	 2.318918637292306e+01
0	 0.000000000000000e+00	 1.875000000000000e+00	 2.080574461538461e+01
0	 6.250000000000000e-02	 1.250000000000000e+00	 4.587202945199999e+01
0	 6.250000000000000e-02	 1.312500000000000e+00	 4.325877413932308e+01
0	 6.250000000000000e-02	 1.375000000000000e+00	 4.062456647753844e+01
0	 6.250000000000000e-02	 1.437500000000000e+00	 3.796940646664613e+01
0	 6.249999999999999e-02	 1.500000000000000e+00	 3.529329410664614e+01
0	 6.249999999999998e-02	 1.562500000000000e+00	 3.259622939753844e+01
0	 6.250000000000000e-02	 1.625000000000000e+00	 2.987821233932306e+01
0	 6.250000000000000e-02	 1.687500000000000e+00	 2.713924293199998e+01
0	 6.249999999999999e-02	 1.750000000000000e+00	 2.437932117556920e+01
0	 6.250000000000000e-02	 1.812500000000001e+00	 2.159844707003074e+01
0	 6.250000000000000e-02	 1.875000000000000e+00	 1.879662061538461e+01
0	 1.250000000000000e-01	 1.250000000000000e+00	 4.772878443569230e+01
0	 1.250000000000000e-01	 1.312500000000000e+00	 4.473902170886151e+01
0	 1.250000000000000e-01	 1.375000000000000e+00	 4.173000734104615e+01
0	 1.250000000000000e-01	 1.437500000000001e+00	 3.870174133224614e+01
0	 1.250000000000000e-01	 1.500000000000000e+00	 3.565422368246151e+01
0	 1.250000000000000e-01	 1.562500000000000e+00	 3.258745439169229e+01
0	 1.250000000000000e-01	 1.625000000000000e+00	 2.950143345993844e+01
0	 1.250000000000000e-01	 1.687500000000000e+00	 2.639616088719998e+01
0	 1.250000000000000e-01	 1.750000000000000e+00	 2.327163667347689e+01
0	 1.250000000000000e-01	 1.812500000000000e+00	 2.012786081876920e+01
0	 1.250000000000000e-01	 1.875000000000000e+00	 1.696483332307691e+01
0	 1.875000000000000e-01	 1.250000000000000e+00	 4.919103956646155e+01
0	 1.875000000000000e-01	 1.312500000000000e+00	 4.588195308153846e+01
0	 1.875000000000000e-01	 1.375000000000000e+00	 4.255531566375383e+01
0	 1.875000000000001e-01	 1.437500000000000e+00	 3.921112731310768e+01
0	 1.875000000000000e-01	 1.500000000000000e+00	 3.584938802959999e+01
0	 1.875000000000000e-01	 1.562500000000001e+00	 3.247009781323075e+01
0	 1.875000000000000e-01	 1.625000000000000e+00	 2.907325666399997e+01
0	 1.875000000000000e-01	 1.687500000000000e+00	 2.565886458190766e+01
0	 1.875000000000001e-01	 1.750000000000001e+00	 2.222692156695383e+01
0	 1.875000000000000e-01	 1.812500000000000e+00	 1.877742761913843e+01
0	 1.875000000000000e-01	 1.875000000000000e+00	 1.531038273846153e+01
0	 2.500000000000000e-01	 1.250000000000000e+00	 5.025879484430768e+01
0	 2.500000000000001e-01	 1.312500000000000e+00	 4.668756825735382e+01
0	 2.500000000000001e-01	 1.375000000000000e+00	 4.310049144566153e+01
0	 2.500000000000001e-01	 1.437500000000000e+00	 3.949756440923075e+01
0	 2.500000000000001e-01	 1.500000000000000e+00	 3.587878714806153e+01
0	 2.499999999999999e-01	 1.562500000000000e+00	 3.224415966215382e+01
0	 2.499999999999999e-01	 1.625000000000000e+00	 2.859368195150766e+01
0	 2.500000000000001e-01	 1.687500000000000e+00	 2.492735401612305e+01
0	 2.500000000000001e-01	 1.750000000000001e+00	 2.124517585599997e+01
0	 2.500000000000000e-01	 1.812500000000000e+00	 1.754714747113842e+01
0	 2.500000000000000e-01	 1.875000000000000e+00	 1.383326886153846e+01
0	 3.125000000000000e-01	 1.250000000000000e+00	 5.093205026923076e+01
0	 3.125000000000000e-01	 1.312500000000000e+00	 4.715586723630769e+01
0	 3.125000000000000e-01	 1.375000000000000e+00	 4.336553468676923e+01
0	 3.125000000000001e-01	 1.437500000000000e+00	 3.956105262061536e+01
0	 3.125000000000000e-01	 1.500000000000000e+00	 3.574242103784614e+01
0	 3.125000000000000e-01	 1.562500000000000e+00	 3.190963993846152e+01
0	 3.125000000000000e-01	 1.625000000000000e+00	 2.806270932246151e+01
0	 3.124999999999999e-01	 1.687500000000000e+00	 2.420162918984613e+01
0	 3.125000000000001e-01	 1.750000000000001e+00	 2.032639954061536e+01
0	 3.125000000000000e-01	 1.812500000000000e+00	 1.643702037476919e+01
0	 3.125000000000000e-01	 1.875000000000000e+00	 1.253349169230769e+01
0	 3.750000000000000e-01	 1.250000000000000e+00	 5.121080584123077e+01
0	 3.750000000000000e-01	 1.312500000000000e+00	 4.728685001839998e+01
0	 3.750000000000000e-01	 1.375000000000000e+00	 4.335044538707692e+01
0	 3.750000000000000e-01	 1.437500000000000e+00	 3.940159194726152e+01
0	 3.749999999999999e-01	 1.500000000000000e+00	 3.544028969895383e+01
0	 3.750000000000000e-01	 1.562500000000000e+00	 3.146653864215381e+01
0	 3.750000000000000e-01	 1.625000000000000e+00	 2.748033877686151e+01
0	 3.750000000000000e-01	 1.687500000000001e+00	 2.348169010307689e+01
0	 3.750000000000001e-01	 1.750000000000001e+00	 1.947059262079997e+01
0	 3.750000000000000e-01	 1.812500000000001e+00	 1.544704633003073e+01
0	 3.750000000000000e-01	 1.875000000000000e+00	 1.141105123076922e+01
0	 4.374999999999999e-01	 1.250000000000000e+00	 5.109506156030770e+01
0	 4.374999999999998e-01	 1.312500000000000e+00	 4.708051660363076e+01
0	 4.375000000000000e-01	 1.375000000000000e+00	 4.305522354658461e+01
0	 4.374999999999999e-01	 1.437500000000000e+00	 3.901918238916922e+01
0	 4.375000000000000e-01	 1.500000000000000e+00	 3.497239313138460e+01
0	 4.375000000000001e-01	 1.562500000000000e+00	 3.091485577323076e+01
0	 4.375000000000000e-01	 1.625000000000000e+00	 2.684657031470767e+01
0	 4.374999999999999e-01	 1.687500000000000e+00	 2.276753675581536e+01
0	 4.375000000000000e-01	 1.750000000000000e+00	 1.867775509655382e+01
0	 4.374999999999999e-01	 1.812500000000000e+00	 1.457722533692304e+01
0	 4.374999999999999e-01	 1.875000000000000e+00	 1.046594747692307e+01
0	 4.999999999999999e-01	 1.250000000000000e+00	 5.058481742646153e+01
0	 5.000000000000000e-01	 1.312500000000000e+00	 4.653686699199999e+01
0	 4.999999999999999e-01	 1.375000000000000e+00	 4.247986916529227e+01
0	 4.999999999999999e-01	 1.437500000000000e+00	 3.841382394633844e+01
0	 5.000000000000000e-01	 1.500000000000000e+00	 3.433873133513845e+01
0	 4.999999999999999e-01	 1.562500000000000e+00	 3.025459133169229e+01
0	 5.000000000000000e-01	 1.625000000000000e+00	 2.616140393599998e+01
0	 4.999999999999999e-01	 1.687500000000000e+00	 2.205916914806151e+01
0	 5.000000000000000e-01	 1.750000000000001e+00	 1.794788696787689e+01
0	 5.000000000000000e-01	 1.812500000000001e+00	 1.382755739544612e+01
0	 4.999999999999999e-01	 1.875000000000000e+00	 9.698180430769229e+00
0	 5.624999999999999e-01	 1.250000000000000e+00	 4.968007343969231e+01
0	 5.625000000000000e-01	 1.312500000000000e+00	 4.565590118350769e+01
0	 5.625000000000000e-01	 1.375000000000000e+00	 4.162438224319999e+01
0	 5.624999999999999e-01	 1.437500000000000e+00	 3.758551661876922e+01
0	 5.625000000000000e-01	 1.500000000000000e+00	 3.353930431021536e+01
0	 5.625000000000000e-01	 1.562500000000000e+00	 2.948574531753844e+01
0	 5.625000000000001e-01	 1.625000000000001e+00	 2.542483964073844e+01
0	 5.625000000000000e-01	 1.687500000000000e+00	 2.135658727981536e+01
0	 5.624999999999999e-01	 1.750000000000000e+00	 1.728098823476919e+01
0	 5.625000000000000e-01	 1.812500000000001e+00	 1.319804250559996e+01
0	 5.624999999999999e-01	 1.875000000000000e+00	 9.107750092307690e+00
0	 6.250000000000000e-01	 1.250000000000000e+00	 4.838082960000001e+01
0	 6.250000000000000e-01	 1.312500000000000e+00	 4.443761917815384e+01
0	 6.250000000000000e-01	 1.375000000000000e+00	 4.048876278030768e+01
0	 6.250000000000000e-01	 1.437500000000000e+00	 3.653426040646153e+01
0	 6.250000000000000e-01	 1.500000000000000e+00	 3.257411205661537e+01
0	 6.250000000000000e-01	 1.562500000000000e+00	 2.860831773076921e+01
0	 6.250000000000000e-01	 1.625000000000000e+00	 2.463687742892305e+01
0	 6.250000000000001e-01	 1.687500000000000e+00	 2.065979115107690e+01
0	 6.250000000000001e-01	 1.750000000000001e+00	 1.667705889723074e+01
0	 6.250000000000000e-01	 1.812500000000000e+00	 1.268868066738458e+01
0	 6.250000000000000e-01	 1.875000000000000e+00	 8.694656461538459e+00
0	 0.000000000000000e+00	 1.875000000000000e+00	 2.080574461538461e+01
0	 0.000000000000000e+00	 1.937500000000000e+00	 1.903620090061537e+01
0	 0.000000000000000e+00	 2.000000000000000e+00	 1.728038996553846e+01
0	 0.000000000000000e+00	 2.062500000000000e+00	 1.553831181015384e+01
0	 0.000000000000000e+00	 2.125000000000000e+00	 1.380996643446153e+01
0	 0.000000000000000e+00	 2.187500000000000e+00	 1.209535383846152e+01
0	 0.000000000000000e+00	 2.250000000000000e+00	 1.039447402215383e+01
0	 0.000000000000000e+00	 2.312500000000000e+00	 8.707326985538455e+00
0	 0.000000000000000e+00	 2.375000000000000e+00	 7.033912728615372e+00
0	 0.000000000000000e+00	 2.437500000000000e+00	 5.374231251384601e+00
0	 0.000000000000000e+00	 2.500000000000000e+00	 3.728282553846157e+00
0	 6.250000000000000e-02	 1.875000000000000e+00	 1.879662061538461e+01
0	 6.250000000000000e-02	 1.937500000000000e+00	 1.727768155536922e+01
0	 6.250000000000000e-02	 2.000000000000000e+00	 1.577133235009230e+01
0	 6.250000000000000e-02	 2.062500000000000e+00	 1.427757299955383e+01
0	 6.249999999999999e-02	 2.125000000000000e+00	 1.279640350375383e+01
0	 6.249999999999998e-02	 2.187500000000000e+00	 1.132782386269229e+01
0	 6.250000000000000e-02	 2.250000000000000e+00	 9.871834076369224e+00
0	 6.250000000000000e-02	 2.312500000000000e+00	 8.428434144784607e+00
0	 6.249999999999999e-02	 2.375000000000000e+00	 6.997624067938454e+00
0	 6.250000000000000e-02	 2.437500000000000e+00	 5.579403845830766e+00
0	 6.250000000000000e-02	 2.500000000000000e+00	 4.173773478461544e+00
0	 1.250000000000000e-01	 1.875000000000000e+00	 1.696483332307691e+01
0	 1.250000000000000e-01	 1.937500000000000e+00	 1.567763736396923e+01
0	 1.250000000000000e-01	 2.000000000000000e+00	 1.440188833464615e+01
0	 1.250000000000000e-01	 2.062500000000001e+00	 1.313758623510769e+01
0	 1.250000000000000e-01	 2.125000000000001e+00	 1.188473106535384e+01
0	 1.250000000000000e-01	 2.187500000000000e+00	 1.064332282538461e+01
0	 1.250000000000000e-01	 2.250000000000000e+00	 9.413361515199995e+00
0	 1.250000000000000e-01	 2.312500000000000e+00	 8.194847134800000e+00
0	 1.250000000000000e-01	 2.375000000000000e+00	 6.987779684184612e+00
0	 1.250000000000000e-01	 2.437500000000000e+00	 5.792159163353848e+00
0	 1.250000000000000e-01	 2.500000000000000e+00	 4.607985572307688e+00
0	 1.875000000000000e-01	 1.875000000000000e+00	 1.531038273846153e+01
0	 1.875000000000000e-01	 1.937500000000000e+00	 1.423606832641538e+01
0	 1.875000000000000e-01	 2.000000000000000e+00	 1.317205791919999e+01
0	 1.875000000000001e-01	 2.062500000000000e+00	 1.211835151681538e+01
0	 1.875000000000000e-01	 2.125000000000000e+00	 1.107494911926153e+01
0	 1.875000000000000e-01	 2.187500000000000e+00	 1.004185072653846e+01
0	 1.875000000000000e-01	 2.250000000000000e+00	 9.019056338646148e+00
0	 1.875000000000000e-01	 2.312500000000000e+00	 8.006565955584607e+00
0	 1.875000000000001e-01	 2.375000000000001e+00	 7.004379577353835e+00
0	 1.875000000000000e-01	 2.437500000000000e+00	 6.012497203953842e+00
0	 1.875000000000000e-01	 2.500000000000000e+00	 5.030918835384613e+00
0	 2.500000000000000e-01	 1.875000000000000e+00	 1.383326886153846e+01
0	 2.500000000000001e-01	 1.937500000000000e+00	 1.295297444270769e+01
0	 2.500000000000001e-01	 2.000000000000000e+00	 1.208184110375384e+01
0	 2.500000000000001e-01	 2.062500000000000e+00	 1.121986884467691e+01
0	 2.500000000000001e-01	 2.125000000000001e+00	 1.036705766547692e+01
0	 2.499999999999999e-01	 2.187500000000000e+00	 9.523407566153841e+00
0	 2.499999999999999e-01	 2.250000000000000e+00	 8.688918546707685e+00
0	 2.500000000000001e-01	 2.312500000000001e+00	 7.863590607138456e+00
0	 2.500000000000001e-01	 2.375000000000000e+00	 7.047423747446145e+00
0	 2.500000000000000e-01	 2.437500000000001e+00	 6.240417967630767e+00
0	 2.500000000000000e-01	 2.500000000000000e+00	 5.442573267692298e+00
0	 3.125000000000000e-01	 1.875000000000000e+00	 1.253349169230769e+01
0	 3.125000000000000e-01	 1.937500000000000e+00	 1.182835571284615e+01
0	 3.125000000000000e-01	 2.000000000000000e+00	 1.113123788830769e+01
0	 3.125000000000001e-01	 2.062500000000000e+00	 1.044213821869230e+01
0	 3.125000000000000e-01	 2.125000000000000e+00	 9.761056703999994e+00
0	 3.125000000000000e-01	 2.187500000000000e+00	 9.087993344230766e+00
0	 3.125000000000000e-01	 2.250000000000000e+00	 8.422948139384609e+00
0	 3.124999999999999e-01	 2.312500000000000e+00	 7.765921089461534e+00
0	 3.125000000000001e-01	 2.375000000000001e+00	 7.116912194461530e+00
0	 3.125000000000000e-01	 2.437500000000000e+00	 6.475921454384608e+00
0	 3.125000000000000e-01	 2.500000000000000e+00	 5.842948869230765e+00
0	 3.750000000000000e-01	 1.875000000000000e+00	 1.141105123076922e+01
0	 3.750000000000000e-01	 1.937500000000000e+00	 1.086221213683077e+01
0	 3.750000000000000e-01	 2.000000000000000e+00	 1.032024827286154e+01
0	 3.750000000000000e-01	 2.062500000000000e+00	 9.785159638861536e+00
0	 3.749999999999999e-01	 2.125000000000000e+00	 9.256946234830769e+00
0	 3.750000000000000e-01	 2.187500000000000e+00	 8.735608060769232e+00
0	 3.750000000000000e-01	 2.250000000000000e+00	 8.221145116676919e+00
0	 3.750000000000000e-01	 2.312500000000001e+00	 7.713557402553843e+00
0	 3.750000000000001e-01	 2.375000000000001e+00	 7.212844918399998e+00
0	 3.750000000000000e-01	 2.437500000000001e+00	 6.719007664215381e+00
0	 3.750000000000000e-01	 2.500000000000000e+00	 6.232045640000004e+00
0	 4.374999999999999e-01	 1.875000000000000e+00	 1.046594747692307e+01
0	 4.374999999999998e-01	 1.937500000000000e+00	 1.005454371466153e+01
0	 4.375000000000000e-01	 2.000000000000000e+00	 9.648872257415382e+00
0	 4.374999999999999e-01	 2.062500000000000e+00	 9.248933105184616e+00
0	 4.375000000000000e-01	 2.125000000000000e+00	 8.854726257969224e+00
0	 4.375000000000001e-01	 2.187500000000001e+00	 8.466251715769225e+00
0	 4.375000000000000e-01	 2.250000000000001e+00	 8.083509478584613e+00
0	 4.374999999999999e-01	 2.312500000000000e+00	 7.706499546415379e+00
0	 4.375000000000000e-01	 2.375000000000000e+00	 7.335221919261533e+00
0	 4.374999999999999e-01	 2.437500000000000e+00	 6.969676597123071e+00
0	 4.374999999999999e-01	 2.500000000000000e+00	 6.609863579999999e+00
0	 4.999999999999999e-01	 1.875000000000000e+00	 9.698180430769229e+00
0	 5.000000000000000e-01	 1.937500000000000e+00	 9.405350446338460e+00
0	 4.999999999999999e-01	 2.000000000000000e+00	 9.117109841969226e+00
0	 4.999999999999999e-01	 2.062500000000000e+00	 8.833458617661538e+00
0	 5.000000000000000e-01	 2.125000000000000e+00	 8.554396773415387e+00
0	 4.999999999999999e-01	 2.187500000000000e+00	 8.279924309230765e+00
0	 5.000000000000000e-01	 2.250000000000000e+00	 8.010041225107688e+00
0	 4.999999999999999e-01	 2.312500000000001e+00	 7.744747521046154e+00
0	 5.000000000000000e-01	 2.375000000000000e+00	 7.484043197046160e+00
0	 5.000000000000000e-01	 2.437500000000000e+00	 7.227928253107697e+00
0	 4.999999999999999e-01	 2.500000000000000e+00	 6.976402689230771e+00
0	 5.624999999999999e-01	 1.875000000000000e+00	 9.107750092307690e+00
0	 5.625000000000000e-01	 1.937500000000000e+00	 8.914632331861540e+00
0	 5.625000000000000e-01	 2.000000000000000e+00	 8.724961026523076e+00
0	 5.624999999999999e-01	 2.062500000000000e+00	 8.538736176292307e+00
0	 5.625000000000000e-01	 2.125000000000000e+00	 8.355957781169234e+00
0	 5.625000000000000e-01	 2.187500000000000e+00	 8.176625841153843e+00
0	 5.625000000000001e-01	 2.250000000000001e+00	 8.000740356246151e+00
0	 5.625000000000000e-01	 2.312500000000000e+00	 7.828301326446155e+00
0	 5.624999999999999e-01	 2.375000000000000e+00	 7.659308751753847e+00
0	 5.625000000000000e-01	 2.437500000000001e+00	 7.493762632169222e+00
0	 5.624999999999999e-01	 2.500000000000000e+00	 7.331662967692305e+00
0	 6.250000000000000e-01	 1.875000000000000e+00	 8.694656461538459e+00
0	 6.250000000000000e-01	 1.937500000000000e+00	 8.582389371230764e+00
0	 6.250000000000000e-01	 2.000000000000000e+00	 8.472425811076917e+00
0	 6.250000000000000e-01	 2.062500000000000e+00	 8.364765781076919e+00
0	 6.250000000000000e-01	 2.125000000000000e+00	 8.259409281230768e+00
0	 6.250000000000000e-01	 2.187500000000000e+00	 8.156356311538458e+00
0	 6.250000000000000e-01	 2.250000000000000e+00	 8.055606872000002e+00
0	 6.250000000000001e-01	 2.312500000000000e+00	 7.957160962615384e+00
0	 6.250000000000001e-01	 2.375000000000001e+00	 7.861018583384621e+00
0	 6.250000000000000e-01	 2.437500000000001e+00	 7.767179734307694e+00
0	 6.250000000000000e-01	 2.500000000000000e+00	 7.675644415384618e+00
0	 0.000000000000000e+00	 2.500000000000000e+00	 3.728282553846157e+00
0	 0.000000000000000e+00	 2.562500000000000e+00	 4.348755608000004e+00
0	 0.000000000000000e+00	 2.625000000000000e+00	 4.953786770461537e+00
0	 0.000000000000000e+00	 2.687499999999999e+00	 5.543376041230768e+00
0	 0.000000000000000e+00	 2.750000000000000e+00	 6.117523420307682e+00
0	 0.000000000000000e+00	 2.812499999999999e+00	 6.676228907692308e+00
0	 0.000000000000000e+00	 2.874999999999999e+00	 7.219492503384603e+00
0	 0.000000000000000e+00	 2.937499999999999e+00	 7.747314207384597e+00
0	 0.000000000000000e+00	 2.999999999999998e+00	 8.259694019692294e+00
0	 0.000000000000000e+00	 3.062499999999998e+00	 8.756631940307685e+00
0	 0.000000000000000e+00	 3.125000000000000e+00	 9.238127969230773e+00
0	 6.250000000000000e-02	 2.500000000000000e+00	 4.173773478461544e+00
0	 6.249999999999999e-02	 2.562500000000000e+00	 4.725285703876918e+00
0	 6.249999999999998e-02	 2.624999999999999e+00	 5.263193103200003e+00
0	 6.250000000000000e-02	 2.687499999999999e+00	 5.787495676430768e+00
0	 6.250000000000000e-02	 2.749999999999999e+00	 6.298193423569225e+00
0	 6.249999999999997e-02	 2.812499999999999e+00	 6.795286344615382e+00
0	 6.249999999999999e-02	 2.874999999999999e+00	 7.278774439569223e+00
0	 6.249999999999999e-02	 2.937499999999998e+00	 7.748657708430759e+00
0	 6.249999999999999e-02	 2.999999999999999e+00	 8.204936151199989e+00
0	 6.249999999999999e-02	 3.062499999999997e+00	 8.647609767876911e+00
0	 6.250000000000000e-02	 3.125000000000000e+00	 9.076678558461532e+00
0	 1.250000000000000e-01	 2.500000000000000e+00	 4.607985572307688e+00
0	 1.250000000000000e-01	 2.562499999999999e+00	 5.093898648984618e+00
0	 1.250000000000000e-01	 2.625000000000000e+00	 5.568043965169229e+00
0	 1.250000000000000e-01	 2.687500000000000e+00	 6.030421520861535e+00
0	 1.250000000000000e-01	 2.749999999999998e+00	 6.481031316061534e+00
0	 1.250000000000000e-01	 2.812499999999999e+00	 6.919873350769222e+00
0	 1.250000000000000e-01	 2.874999999999998e+00	 7.346947624984608e+00
0	 1.250000000000000e-01	 2.937499999999999e+00	 7.762254138707680e+00
0	 1.250000000000000e-01	 2.999999999999999e+00	 8.165792891938452e+00
0	 1.250000000000000e-01	 3.062499999999997e+00	 8.557563884676917e+00
0	 1.250000000000000e-01	 3.125000000000000e+00	 8.937567116923081e+00
0	 1.875000000000000e-01	 2.500000000000000e+00	 5.030918835384613e+00
0	 1.875000000000000e-01	 2.562500000000000e+00	 5.454594443323076e+00
0	 1.875000000000000e-01	 2.625000000000000e+00	 5.868339356369221e+00
0	 1.875000000000000e-01	 2.687500000000000e+00	 6.272153574523076e+00
0	 1.875000000000000e-01	 2.749999999999999e+00	 6.666037097784608e+00
0	 1.875000000000000e-01	 2.812499999999999e+00	 7.049989926153837e+00
0	 1.875000000000000e-01	 2.874999999999999e+00	 7.424012059630760e+00
0	 1.875000000000000e-01	 2.937499999999999e+00	 7.788103498215385e+00
0	 1.875000000000001e-01	 2.999999999999998e+00	 8.142264241907688e+00
0	 1.875000000000000e-01	 3.062499999999998e+00	 8.486494290707679e+00
0	 1.875000000000000e-01	 3.125000000000000e+00	 8.820793644615389e+00
0	 2.500000000000000e-01	 2.500000000000000e+00	 5.442573267692298e+00
0	 2.500000000000001e-01	 2.562500000000000e+00	 5.807373086892307e+00
0	 2.500000000000001e-01	 2.625000000000000e+00	 6.164079276799995e+00
0	 2.500000000000000e-01	 2.687499999999999e+00	 6.512691837415383e+00
0	 2.500000000000000e-01	 2.749999999999999e+00	 6.853210768738464e+00
0	 2.499999999999999e-01	 2.812499999999999e+00	 7.185636070769224e+00
0	 2.500000000000000e-01	 2.874999999999998e+00	 7.509967743507687e+00
0	 2.500000000000000e-01	 2.937499999999999e+00	 7.826205786953841e+00
0	 2.500000000000000e-01	 2.999999999999998e+00	 8.134350201107692e+00
0	 2.499999999999999e-01	 3.062499999999997e+00	 8.434400985969225e+00
0	 2.500000000000000e-01	 3.125000000000000e+00	 8.726358141538466e+00
0	 3.125000000000000e-01	 2.500000000000000e+00	 5.842948869230765e+00
0	 3.125000000000000e-01	 2.562500000000000e+00	 6.152234579692306e+00
0	 3.125000000000001e-01	 2.625000000000000e+00	 6.455263726461542e+00
0	 3.125000000000000e-01	 2.687499999999999e+00	 6.752036309538457e+00
0	 3.125000000000001e-01	 2.750000000000000e+00	 7.042552328923074e+00
0	 3.125000000000000e-01	 2.812499999999999e+00	 7.326811784615382e+00
0	 3.125000000000000e-01	 2.874999999999999e+00	 7.604814676615381e+00
0	 3.125000000000000e-01	 2.937499999999998e+00	 7.876561004923069e+00
0	 3.125000000000000e-01	 2.999999999999999e+00	 8.142050769538461e+00
0	 3.125000000000000e-01	 3.062499999999998e+00	 8.401283970461527e+00
0	 3.125000000000000e-01	 3.125000000000000e+00	 8.654260607692313e+00
0	 3.750000000000000e-01	 2.500000000000000e+00	 6.232045640000004e+00
0	 3.749999999999999e-01	 2.562500000000000e+00	 6.489178921723078e+00
0	 3.750000000000001e-01	 2.625000000000000e+00	 6.741892705353841e+00
0	 3.749999999999999e-01	 2.687499999999999e+00	 6.990186990892305e+00
0	 3.750000000000000e-01	 2.750000000000000e+00	 7.234061778338453e+00
0	 3.750000000000001e-01	 2.812500000000000e+00	 7.473517067692307e+00
0	 3.749999999999999e-01	 2.874999999999999e+00	 7.708552858953841e+00
0	 3.749999999999999e-01	 2.937499999999999e+00	 7.939169152123066e+00
0	 3.750000000000001e-01	 2.999999999999998e+00	 8.165365947199991e+00
0	 3.750000000000001e-01	 3.062499999999998e+00	 8.387143244184605e+00
0	 3.750000000000000e-01	 3.125000000000000e+00	 8.604501043076930e+00
0	 4.374999999999999e-01	 2.500000000000000e+00	 6.609863579999999e+00
0	 4.374999999999999e-01	 2.562500000000000e+00	 6.818206112984613e+00
0	 4.375000000000000e-01	 2.625000000000000e+00	 7.023966213476921e+00
0	 4.375000000000001e-01	 2.687500000000000e+00	 7.227143881476921e+00
0	 4.375000000000000e-01	 2.749999999999999e+00	 7.427739116984609e+00
0	 4.375000000000000e-01	 2.812499999999999e+00	 7.625751919999994e+00
0	 4.375000000000000e-01	 2.875000000000000e+00	 7.821182290523074e+00
0	 4.375000000000000e-01	 2.937499999999999e+00	 8.014030228553844e+00
0	 4.374999999999999e-01	 2.999999999999998e+00	 8.204295734092305e+00
0	 4.375000000000000e-01	 3.062499999999998e+00	 8.391978807138463e+00
0	 4.374999999999999e-01	 3.125000000000000e+00	 8.577079447692309e+00
0	 4.999999999999999e-01	 2.500000000000000e+00	 6.976402689230771e+00
0	 4.999999999999999e-01	 2.562500000000000e+00	 7.139316153476924e+00
0	 4.999999999999999e-01	 2.625000000000000e+00	 7.301484250830764e+00
0	 4.999999999999998e-01	 2.687499999999999e+00	 7.462906981292301e+00
0	 5.000000000000000e-01	 2.749999999999999e+00	 7.623584344861539e+00
0	 4.999999999999999e-01	 2.812499999999999e+00	 7.783516341538459e+00
0	 4.999999999999999e-01	 2.874999999999999e+00	 7.942702971323074e+00
0	 4.999999999999999e-01	 2.937499999999998e+00	 8.101144234215381e+00
0	 5.000000000000000e-01	 2.999999999999998e+00	 8.258840130215383e+00
0	 4.999999999999999e-01	 3.062499999999997e+00	 8.415790659323074e+00
0	 4.999999999999999e-01	 3.125000000000000e+00	 8.571995821538458e+00
0	 5.624999999999999e-01	 2.500000000000000e+00	 7.331662967692305e+00
0	 5.624999999999999e-01	 2.562500000000000e+00	 7.452509043200002e+00
0	 5.624999999999999e-01	 2.625000000000000e+00	 7.574446817415384e+00
0	 5.625000000000001e-01	 2.687500000000000e+00	 7.697476290338459e+00
0	 5.625000000000000e-01	 2.750000000000000e+00	 7.821597461969231e+00
0	 5.624999999999999e-01	 2.812499999999999e+00	 7.946810332307691e+00
0	 5.624999999999999e-01	 2.874999999999999e+00	 8.073114901353843e+00
0	 5.625000000000000e-01	 2.937499999999999e+00	 8.200511169107690e+00
0	 5.625000000000000e-01	 2.999999999999999e+00	 8.328999135569228e+00
0	 5.625000000000000e-01	 3.062499999999998e+00	 8.458578800738456e+00
0	 5.624999999999999e-01	 3.125000000000000e+00	 8.589250164615388e+00
0	 6.250000000000000e-01	 2.500000000000000e+00	 7.675644415384618e+00
0	 6.250000000000000e-01	 2.562500000000000e+00	 7.757784782153852e+00
0	 6.250000000000001e-01	 2.625000000000000e+00	 7.842853913230771e+00
0	 6.249999999999999e-01	 2.687499999999999e+00	 7.930851808615382e+00
0	 6.250000000000000e-01	 2.750000000000000e+00	 8.021778468307694e+00
0	 6.250000000000000e-01	 2.812499999999999e+00	 8.115633892307695e+00
0	 6.250000000000000e-01	 2.874999999999999e+00	 8.212418080615381e+00
0	 6.249999999999999e-01	 2.937499999999998e+00	 8.312131033230765e+00
0	 6.250000000000000e-01	 2.999999999999998e+00	 8.414772750153841e+00
0	 6.250000000000000e-01	 3.062499999999998e+00	 8.520343231384615e+00
0	 6.250000000000000e-01	 3.125000000000000e+00	 8.628842476923078e+00
0	 0.000000000000000e+00	 3.125000000000000e+00	 9.238127969230773e+00
0	 0.000000000000000e+00	 3.187500000000000e+00	 9.126518952307684e+00
0	 0.000000000000000e+00	 3.250000000000000e+00	 9.025586658461538e+00
0	 0.000000000000000e+00	 3.312499999999999e+00	 8.935331087692310e+00
0	 0.000000000000000e+00	 3.374999999999999e+00	 8.855752239999997e+00
0	 0.000000000000000e+00	 3.437499999999999e+00	 8.786850115384610e+00
0	 0.000000000000000e+00	 3.499999999999999e+00	 8.728624713846152e+00
0	 0.000000000000000e+00	 3.562499999999999e+00	 8.681076035384615e+00
0	 0.000000000000000e+00	 3.624999999999998e+00	 8.644204079999989e+00
0	 0.000000000000000e+00	 3.687499999999998e+00	 8.618008847692286e+00
0	 0.000000000000000e+00	 3.750000000000000e+00	 8.602490338461530e+00
0	 6.250000000000000e-02	 3.125000000000000e+00	 9.076678558461532e+00
0	 6.249999999999999e-02	 3.187499999999999e+00	 8.990398341769232e+00
0	 6.249999999999998e-02	 3.249999999999999e+00	 8.913453028923076e+00
0	 6.250000000000000e-02	 3.312500000000000e+00	 8.845842619923072e+00
0	 6.250000000000000e-02	 3.374999999999999e+00	 8.787567114769224e+00
0	 6.249999999999997e-02	 3.437499999999998e+00	 8.738626513461535e+00
0	 6.249999999999999e-02	 3.499999999999999e+00	 8.699020815999999e+00
0	 6.249999999999999e-02	 3.562499999999999e+00	 8.668750022384600e+00
0	 6.249999999999999e-02	 3.624999999999998e+00	 8.647814132615373e+00
0	 6.249999999999999e-02	 3.687499999999998e+00	 8.636213146692310e+00
0	 6.250000000000000e-02	 3.750000000000001e+00	 8.633947064615379e+00
0	 1.250000000000000e-01	 3.125000000000000e+00	 8.937567116923081e+00
0	 1.250000000000000e-01	 3.187500000000000e+00	 8.874513718923076e+00
0	 1.250000000000000e-01	 3.250000000000000e+00	 8.819453405538455e+00
0	 1.250000000000000e-01	 3.312500000000000e+00	 8.772386176769233e+00
0	 1.250000000000000e-01	 3.374999999999999e+00	 8.733312032615382e+00
0	 1.250000000000000e-01	 3.437500000000000e+00	 8.702230973076924e+00
0	 1.250000000000000e-01	 3.499999999999998e+00	 8.679142998153843e+00
0	 1.250000000000000e-01	 3.562499999999998e+00	 8.664048107846156e+00
0	 1.250000000000000e-01	 3.624999999999999e+00	 8.656946302153839e+00
0	 1.250000000000000e-01	 3.687499999999998e+00	 8.657837581076917e+00
0	 1.250000000000000e-01	 3.750000000000000e+00	 8.666721944615375e+00
0	 1.875000000000000e-01	 3.125000000000000e+00	 8.820793644615389e+00
0	 1.875000000000000e-01	 3.187500000000000e+00	 8.778865083769235e+00
0	 1.875000000000000e-01	 3.250000000000000e+00	 8.743587788307693e+00
0	 1.875000000000000e-01	 3.312500000000000e+00	 8.714961758230768e+00
0	 1.875000000000000e-01	 3.374999999999999e+00	 8.692986993538462e+00
0	 1.875000000000000e-01	 3.437499999999999e+00	 8.677663494230769e+00
0	 1.875000000000000e-01	 3.499999999999999e+00	 8.668991260307692e+00
0	 1.875000000000000e-01	 3.562499999999999e+00	 8.666970291769227e+00
0	 1.875000000000001e-01	 3.624999999999999e+00	 8.671600588615386e+00
0	 1.875000000000000e-01	 3.687499999999998e+00	 8.682882150846149e+00
0	 1.875000000000000e-01	 3.750000000000000e+00	 8.700814978461535e+00
0	 2.500000000000000e-01	 3.125000000000000e+00	 8.726358141538466e+00
0	 2.500000000000001e-01	 3.187500000000000e+00	 8.703452436307693e+00
0	 2.500000000000001e-01	 3.250000000000000e+00	 8.685856177230770e+00
0	 2.500000000000000e-01	 3.312500000000000e+00	 8.673569364307692e+00
0	 2.500000000000000e-01	 3.374999999999999e+00	 8.666591997538459e+00
0	 2.499999999999999e-01	 3.437499999999999e+00	 8.664924076923072e+00
0	 2.500000000000000e-01	 3.499999999999998e+00	 8.668565602461534e+00
0	 2.500000000000000e-01	 3.562499999999997e+00	 8.677516574153843e+00
0	 2.500000000000000e-01	 3.624999999999999e+00	 8.691776991999992e+00
0	 2.499999999999999e-01	 3.687499999999998e+00	 8.711346855999990e+00
0	 2.500000000000000e-01	 3.750000000000000e+00	 8.736226166153852e+00
0	 3.125000000000000e-01	 3.125000000000000e+00	 8.654260607692313e+00
0	 3.125000000000000e-01	 3.187499999999999e+00	 8.648275776538458e+00
0	 3.125000000000001e-01	 3.250000000000000e+00	 8.646258572307694e+00
0	 3.125000000000000e-01	 3.312499999999999e+00	 8.648208994999997e+00
0	 3.125000000000001e-01	 3.375000000000000e+00	 8.654127044615382e+00
0	 3.125000000000000e-01	 3.437499999999999e+00	 8.664012721153846e+00
0	 3.125000000000000e-01	 3.499999999999999e+00	 8.677866024615385e+00
0	 3.125000000000000e-01	 3.562499999999998e+00	 8.695686955000003e+00
0	 3.125000000000000e-01	 3.624999999999998e+00	 8.717475512307683e+00
0	 3.125000000000000e-01	 3.687499999999998e+00	 8.743231696538459e+00
0	 3.125000000000000e-01	 3.750000000000000e+00	 8.772955507692306e+00
0	 3.750000000000000e-01	 3.125000000000000e+00	 8.604501043076930e+00
0	 3.749999999999999e-01	 3.187500000000000e+00	 8.613335104461539e+00
0	 3.750000000000001e-01	 3.250000000000000e+00	 8.624794973538460e+00
0	 3.749999999999999e-01	 3.312499999999999e+00	 8.638880650307692e+00
0	 3.750000000000000e-01	 3.375000000000000e+00	 8.655592134769224e+00
0	 3.750000000000001e-01	 3.437500000000000e+00	 8.674929426923079e+00
0	 3.749999999999999e-01	 3.499999999999999e+00	 8.696892526769238e+00
0	 3.749999999999999e-01	 3.562499999999999e+00	 8.721481434307691e+00
0	 3.750000000000001e-01	 3.624999999999998e+00	 8.748696149538457e+00
0	 3.750000000000001e-01	 3.687499999999998e+00	 8.778536672461536e+00
0	 3.750000000000000e-01	 3.750000000000000e+00	 8.811003003076932e+00
0	 4.374999999999999e-01	 3.125000000000000e+00	 8.577079447692309e+00
0	 4.374999999999999e-01	 3.187499999999999e+00	 8.598630420076926e+00
0	 4.375000000000000e-01	 3.249999999999999e+00	 8.621465380923079e+00
0	 4.375000000000001e-01	 3.312500000000000e+00	 8.645584330230768e+00
0	 4.375000000000000e-01	 3.375000000000000e+00	 8.670987267999998e+00
0	 4.375000000000000e-01	 3.437499999999999e+00	 8.697674194230766e+00
0	 4.375000000000000e-01	 3.500000000000000e+00	 8.725645108923075e+00
0	 4.375000000000000e-01	 3.562499999999999e+00	 8.754900012076931e+00
0	 4.374999999999999e-01	 3.624999999999999e+00	 8.785438903692310e+00
0	 4.375000000000000e-01	 3.687499999999998e+00	 8.817261783769226e+00
0	 4.374999999999999e-01	 3.750000000000000e+00	 8.850368652307695e+00
0	 4.999999999999999e-01	 3.125000000000000e+00	 8.571995821538458e+00
0	 4.999999999999999e-01	 3.187499999999999e+00	 8.604161723384610e+00
0	 4.999999999999999e-01	 3.250000000000000e+00	 8.636269794461537e+00
0	 4.999999999999998e-01	 3.312499999999999e+00	 8.668320034769227e+00
0	 5.000000000000000e-01	 3.374999999999999e+00	 8.700312444307690e+00
0	 4.999999999999999e-01	 3.437499999999998e+00	 8.732247023076921e+00
0	 4.999999999999999e-01	 3.499999999999998e+00	 8.764123771076925e+00
0	 4.999999999999999e-01	 3.562499999999999e+00	 8.795942688307694e+00
0	 5.000000000000000e-01	 3.624999999999999e+00	 8.827703774769228e+00
0	 4.999999999999999e-01	 3.687499999999998e+00	 8.859407030461540e+00
0	 4.999999999999999e-01	 3.750000000000000e+00	 8.891052455384623e+00
0	 5.624999999999999e-01	 3.125000000000000e+00	 8.589250164615388e+00
0	 5.624999999999999e-01	 3.187500000000000e+00	 8.629929014384608e+00
0	 5.624999999999999e-01	 3.250000000000000e+00	 8.669208214153842e+00
0	 5.625000000000001e-01	 3.312500000000000e+00	 8.707087763923068e+00
0	 5.625000000000000e-01	 3.375000000000000e+00	 8.743567663692305e+00
0	 5.624999999999999e-01	 3.437499999999998e+00	 8.778647913461532e+00
0	 5.624999999999999e-01	 3.499999999999999e+00	 8.812328513230767e+00
0	 5.625000000000000e-01	 3.562499999999999e+00	 8.844609462999999e+00
0	 5.625000000000000e-01	 3.624999999999998e+00	 8.875490762769227e+00
0	 5.625000000000000e-01	 3.687499999999998e+00	 8.904972412538454e+00
0	 5.624999999999999e-01	 3.750000000000000e+00	 8.933054412307690e+00
0	 6.250000000000000e-01	 3.125000000000000e+00	 8.628842476923078e+00
0	 6.250000000000000e-01	 3.187500000000000e+00	 8.675932293076912e+00
0	 6.250000000000001e-01	 3.250000000000000e+00	 8.720280640000000e+00
0	 6.249999999999999e-01	 3.312499999999999e+00	 8.761887517692308e+00
0	 6.250000000000000e-01	 3.374999999999999e+00	 8.800752926153844e+00
0	 6.250000000000000e-01	 3.437499999999999e+00	 8.836876865384614e+00
0	 6.250000000000000e-01	 3.499999999999999e+00	 8.870259335384617e+00
0	 6.249999999999999e-01	 3.562499999999998e+00	 8.900900336153848e+00
0	 6.250000000000000e-01	 3.624999999999999e+00	 8.928799867692309e+00
0	 6.250000000000000e-01	 3.687499999999998e+00	 8.953957929999993e+00
0	 6.250000000000000e-01	 3.750000000000000e+00	 8.976374523076924e+00
0	 0.000000000000000e+00	 3.750000000000000e+00	 8.602490338461530e+00
0	 0.000000000000000e+00	 3.812500000000000e+00	 8.678210787076914e+00
0	 0.000000000000000e+00	 3.874999999999999e+00	 8.750219812923076e+00
0	 0.000000000000000e+00	 3.937500000000000e+00	 8.818517415999990e+00
0	 0.000000000000000e+00	 4.000000000000000e+00	 8.883103596307683e+00
0	 0.000000000000000e+00	 4.062499999999999e+00	 8.943978353846154e+00
0	 0.000000000000000e+00	 4.124999999999999e+00	 9.001141688615375e+00
0	 0.000000000000000e+00	 4.187499999999999e+00	 9.054593600615378e+00
0	 0.000000000000000e+00	 4.249999999999998e+00	 9.104334089846152e+00
0	 0.000000000000000e+00	 4.312499999999998e+00	 9.150363156307691e+00
0	 0.000000000000000e+00	 4.375000000000000e+00	 9.192680800000002e+00
0	 6.250000000000000e-02	 3.750000000000001e+00	 8.633947064615379e+00
0	 6.249999999999999e-02	 3.812500000000000e+00	 8.702997198399993e+00
0	 6.249999999999998e-02	 3.874999999999999e+00	 8.768886472369225e+00
0	 6.250000000000000e-02	 3.937499999999999e+00	 8.831614886523077e+00
0	 6.250000000000000e-02	 3.999999999999999e+00	 8.891182440861529e+00
0	 6.249999999999997e-02	 4.062499999999998e+00	 8.947589135384607e+00
0	 6.249999999999999e-02	 4.124999999999999e+00	 9.000834970092313e+00
0	 6.249999999999999e-02	 4.187499999999998e+00	 9.050919944984610e+00
0	 6.249999999999999e-02	 4.249999999999999e+00	 9.097844060061529e+00
0	 6.249999999999999e-02	 4.312499999999998e+00	 9.141607315323075e+00
0	 6.250000000000000e-02	 4.375000000000000e+00	 9.182209710769232e+00
0	 1.250000000000000e-01	 3.750000000000000e+00	 8.666721944615375e+00
0	 1.250000000000000e-01	 3.812500000000000e+00	 8.729361431261530e+00
0	 1.250000000000000e-01	 3.875000000000000e+00	 8.789390621046149e+00
0	 1.250000000000000e-01	 3.937499999999999e+00	 8.846809513969228e+00
0	 1.250000000000000e-01	 3.999999999999999e+00	 8.901618110030764e+00
0	 1.250000000000000e-01	 4.062499999999999e+00	 8.953816409230763e+00
0	 1.250000000000000e-01	 4.124999999999997e+00	 9.003404411569226e+00
0	 1.250000000000000e-01	 4.187499999999997e+00	 9.050382117046157e+00
0	 1.250000000000000e-01	 4.249999999999999e+00	 9.094749525661532e+00
0	 1.250000000000000e-01	 4.312499999999999e+00	 9.136506637415380e+00
0	 1.250000000000000e-01	 4.375000000000001e+00	 9.175653452307685e+00
0	 1.875000000000000e-01	 3.750000000000000e+00	 8.700814978461535e+00
0	 1.875000000000000e-01	 3.812500000000000e+00	 8.757303485661541e+00
0	 1.875000000000000e-01	 3.875000000000000e+00	 8.811732258953848e+00
0	 1.875000000000000e-01	 3.937499999999999e+00	 8.864101298338454e+00
0	 1.875000000000000e-01	 3.999999999999998e+00	 8.914410603815380e+00
0	 1.875000000000000e-01	 4.062499999999999e+00	 8.962660175384608e+00
0	 1.875000000000000e-01	 4.124999999999999e+00	 9.008850013046153e+00
0	 1.875000000000000e-01	 4.187499999999999e+00	 9.052980116799999e+00
0	 1.875000000000001e-01	 4.249999999999999e+00	 9.095050486646146e+00
0	 1.875000000000000e-01	 4.312499999999998e+00	 9.135061122584611e+00
0	 1.875000000000000e-01	 4.375000000000001e+00	 9.173012024615394e+00
0	 2.500000000000000e-01	 3.750000000000000e+00	 8.736226166153852e+00
0	 2.500000000000001e-01	 3.812500000000001e+00	 8.786823361600000e+00
0	 2.500000000000001e-01	 3.875000000000000e+00	 8.835911386092310e+00
0	 2.500000000000000e-01	 3.937500000000000e+00	 8.883490239630770e+00
0	 2.500000000000000e-01	 3.999999999999999e+00	 8.929559922215381e+00
0	 2.499999999999999e-01	 4.062499999999999e+00	 8.974120433846149e+00
0	 2.500000000000000e-01	 4.124999999999998e+00	 9.017171774523074e+00
0	 2.500000000000000e-01	 4.187499999999997e+00	 9.058713944246144e+00
0	 2.500000000000000e-01	 4.249999999999998e+00	 9.098746943015383e+00
0	 2.499999999999999e-01	 4.312499999999997e+00	 9.137270770830755e+00
0	 2.500000000000000e-01	 4.375000000000000e+00	 9.174285427692293e+00
0	 3.125000000000000e-01	 3.750000000000000e+00	 8.772955507692306e+00
0	 3.125000000000000e-01	 3.812499999999999e+00	 8.817921059076916e+00
0	 3.125000000000001e-01	 3.875000000000000e+00	 8.861928002461541e+00
0	 3.125000000000000e-01	 3.937499999999999e+00	 8.904976337846154e+00
0	 3.125000000000001e-01	 3.999999999999999e+00	 8.947066065230766e+00
0	 3.125000000000000e-01	 4.062499999999999e+00	 8.988197184615384e+00
0	 3.125000000000000e-01	 4.124999999999999e+00	 9.028369695999992e+00
0	 3.125000000000000e-01	 4.187499999999998e+00	 9.067583599384607e+00
0	 3.125000000000000e-01	 4.249999999999998e+00	 9.105838894769223e+00
0	 3.125000000000000e-01	 4.312499999999998e+00	 9.143135582153832e+00
0	 3.125000000000000e-01	 4.375000000000000e+00	 9.179473661538459e+00
0	 3.750000000000000e-01	 3.750000000000000e+00	 8.811003003076932e+00
0	 3.749999999999999e-01	 3.812500000000000e+00	 8.850596578092301e+00
0	 3.750000000000001e-01	 3.875000000000000e+00	 8.889782108061535e+00
0	 3.749999999999999e-01	 3.937499999999999e+00	 8.928559592984609e+00
0	 3.750000000000000e-01	 4.000000000000000e+00	 8.966929032861529e+00
0	 3.750000000000001e-01	 4.062500000000000e+00	 9.004890427692303e+00
0	 3.749999999999999e-01	 4.124999999999998e+00	 9.042443777476917e+00
0	 3.749999999999999e-01	 4.187499999999999e+00	 9.079589082215382e+00
0	 3.750000000000001e-01	 4.249999999999999e+00	 9.116326341907687e+00
0	 3.750000000000001e-01	 4.312499999999998e+00	 9.152655556553839e+00
0	 3.750000000000000e-01	 4.375000000000001e+00	 9.188576726153824e+00
0	 4.374999999999999e-01	 3.750000000000000e+00	 8.850368652307695e+00
0	 4.374999999999999e-01	 3.812500000000000e+00	 8.884849918646148e+00
0	 4.375000000000000e-01	 3.875000000000000e+00	 8.919473702892308e+00
0	 4.375000000000001e-01	 3.937499999999999e+00	 8.954240005046156e+00
0	 4.375000000000000e-01	 4.000000000000000e+00	 8.989148825107689e+00
0	 4.375000000000000e-01	 4.062499999999999e+00	 9.024200163076927e+00
0	 4.375000000000000e-01	 4.124999999999999e+00	 9.059394018953848e+00
0	 4.375000000000000e-01	 4.187499999999998e+00	 9.094730392738466e+00
0	 4.374999999999999e-01	 4.249999999999998e+00	 9.130209284430757e+00
0	 4.375000000000000e-01	 4.312499999999998e+00	 9.165830694030754e+00
0	 4.374999999999999e-01	 4.375000000000000e+00	 9.201594621538465e+00
0	 4.999999999999999e-01	 3.750000000000000e+00	 8.891052455384623e+00
0	 4.999999999999999e-01	 3.812499999999999e+00	 8.920681080738458e+00
0	 4.999999999999999e-01	 3.875000000000000e+00	 8.951002786953845e+00
0	 4.999999999999998e-01	 3.937499999999998e+00	 8.982017574030767e+00
0	 5.000000000000000e-01	 3.999999999999999e+00	 9.013725441969228e+00
0	 4.999999999999999e-01	 4.062499999999998e+00	 9.046126390769221e+00
0	 4.999999999999999e-01	 4.124999999999998e+00	 9.079220420430762e+00
0	 4.999999999999999e-01	 4.187499999999998e+00	 9.113007530953846e+00
0	 5.000000000000000e-01	 4.249999999999998e+00	 9.147487722338465e+00
0	 4.999999999999999e-01	 4.312499999999997e+00	 9.182660994584605e+00
0	 4.999999999999999e-01	 4.375000000000000e+00	 9.218527347692303e+00
0	 5.624999999999999e-01	 3.750000000000000e+00	 8.933054412307690e+00
0	 5.624999999999999e-01	 3.812500000000000e+00	 8.958090064369234e+00
0	 5.624999999999999e-01	 3.874999999999999e+00	 8.984369360246165e+00
0	 5.625000000000001e-01	 3.937500000000000e+00	 9.011892299938459e+00
0	 5.625000000000000e-01	 3.999999999999999e+00	 9.040658883446152e+00
0	 5.624999999999999e-01	 4.062499999999998e+00	 9.070669110769224e+00
0	 5.624999999999999e-01	 4.124999999999998e+00	 9.101922981907691e+00
0	 5.625000000000000e-01	 4.187499999999998e+00	 9.134420496861532e+00
0	 5.625000000000000e-01	 4.249999999999998e+00	 9.168161655630765e+00
0	 5.625000000000000e-01	 4.312499999999998e+00	 9.203146458215393e+00
0	 5.624999999999999e-01	 4.375000000000000e+00	 9.239374904615376e+00
0	 6.250000000000000e-01	 3.750000000000000e+00	 8.976374523076924e+00
0	 6.250000000000000e-01	 3.812500000000000e+00	 8.997076869538470e+00
0	 6.250000000000001e-01	 3.875000000000000e+00	 9.019573422769234e+00
0	 6.249999999999999e-01	 3.937499999999999e+00	 9.043864182769221e+00
0	 6.250000000000000e-01	 4.000000000000000e+00	 9.069949149538461e+00
0	 6.250000000000000e-01	 4.062499999999999e+00	 9.097828323076925e+00
0	 6.250000000000000e-01	 4.124999999999999e+00	 9.127501703384612e+00
0	 6.249999999999999e-01	 4.187499999999998e+00	 9.158969290461529e+00
0	 6.250000000000000e-01	 4.249999999999998e+00	 9.192231084307695e+00
0	 6.250000000000000e-01	 4.312499999999998e+00	 9.227287084923068e+00
0	 6.250000000000000e-01	 4.375000000000000e+00	 9.264137292307685e+00
0	 0.000000000000000e+00	 4.375000000000000e+00	 9.192680800000002e+00
0	 0.000000000000000e+00	 4.437500000000000e+00	 9.205827961846152e+00
0	 0.000000000000000e+00	 4.500000000000000e+00	 9.220784967384617e+00
0	 0.000000000000000e+00	 4.562499999999999e+00	 9.237551816615390e+00
0	 0.000000000000000e+00	 4.625000000000000e+00	 9.256128509538458e+00
0	 0.000000000000000e+00	 4.687499999999999e+00	 9.276515046153840e+00
0	 0.000000000000000e+00	 4.749999999999998e+00	 9.298711426461541e+00
0	 0.000000000000000e+00	 4.812499999999999e+00	 9.322717650461549e+00
0	 0.000000000000000e+00	 4.874999999999998e+00	 9.348533718153851e+00
0	 0.000000000000000e+00	 4.937499999999998e+00	 9.376159629538460e+00
0	 0.000000000000000e+00	 5.000000000000000e+00	 9.405595384615388e+00
0	 6.250000000000000e-02	 4.375000000000000e+00	 9.182209710769232e+00
0	 6.249999999999999e-02	 4.437499999999999e+00	 9.197173620184607e+00
0	 6.249999999999998e-02	 4.499999999999999e+00	 9.213719285046151e+00
0	 6.250000000000000e-02	 4.562500000000000e+00	 9.231846705353846e+00
0	 6.250000000000000e-02	 4.624999999999999e+00	 9.251555881107686e+00
0	 6.249999999999997e-02	 4.687499999999998e+00	 9.272846812307696e+00
0	 6.249999999999999e-02	 4.749999999999999e+00	 9.295719498953842e+00
0	 6.249999999999999e-02	 4.812499999999997e+00	 9.320173941046155e+00
0	 6.249999999999999e-02	 4.874999999999998e+00	 9.346210138584606e+00
0	 6.249999999999999e-02	 4.937499999999996e+00	 9.373828091569230e+00
0	 6.250000000000000e-02	 5.000000000000001e+00	 9.403027800000007e+00
0	 1.250000000000000e-01	 4.375000000000001e+00	 9.175653452307685e+00
0	 1.250000000000000e-01	 4.437499999999999e+00	 9.192213016984619e+00
0	 1.250000000000000e-01	 4.500000000000001e+00	 9.210126248861544e+00
0	 1.250000000000000e-01	 4.562499999999999e+00	 9.229393147938458e+00
0	 1.250000000000000e-01	 4.624999999999998e+00	 9.250013714215381e+00
0	 1.250000000000000e-01	 4.687499999999997e+00	 9.271987947692310e+00
0	 1.250000000000000e-01	 4.749999999999998e+00	 9.295315848369228e+00
0	 1.250000000000000e-01	 4.812499999999998e+00	 9.319997416246158e+00
0	 1.250000000000000e-01	 4.875000000000000e+00	 9.346032651323087e+00
0	 1.250000000000000e-01	 4.937499999999998e+00	 9.373421553599986e+00
0	 1.250000000000000e-01	 5.000000000000000e+00	 9.402164123076926e+00
0	 1.875000000000000e-01	 4.375000000000001e+00	 9.173012024615394e+00
0	 1.875000000000000e-01	 4.437500000000000e+00	 9.190946152246150e+00
0	 1.875000000000000e-01	 4.499999999999999e+00	 9.210005858830765e+00
0	 1.875000000000000e-01	 4.562500000000000e+00	 9.230191144369229e+00
0	 1.875000000000000e-01	 4.624999999999998e+00	 9.251502008861536e+00
0	 1.875000000000000e-01	 4.687500000000000e+00	 9.273938452307686e+00
0	 1.875000000000000e-01	 4.749999999999998e+00	 9.297500474707693e+00
0	 1.875000000000000e-01	 4.812499999999999e+00	 9.322188076061547e+00
0	 1.875000000000001e-01	 4.874999999999998e+00	 9.348001256369233e+00
0	 1.875000000000000e-01	 4.937499999999997e+00	 9.374940015630759e+00
0	 1.875000000000000e-01	 5.000000000000000e+00	 9.403004353846162e+00
0	 2.500000000000000e-01	 4.375000000000000e+00	 9.174285427692293e+00
0	 2.500000000000001e-01	 4.437500000000001e+00	 9.193373025969219e+00
0	 2.500000000000001e-01	 4.500000000000000e+00	 9.213358114953847e+00
0	 2.500000000000000e-01	 4.562499999999999e+00	 9.234240694646143e+00
0	 2.500000000000000e-01	 4.624999999999999e+00	 9.256020765046161e+00
0	 2.499999999999999e-01	 4.687499999999998e+00	 9.278698326153840e+00
0	 2.500000000000000e-01	 4.749999999999998e+00	 9.302273377969227e+00
0	 2.500000000000000e-01	 4.812499999999997e+00	 9.326745920492302e+00
0	 2.500000000000000e-01	 4.874999999999998e+00	 9.352115953723075e+00
0	 2.499999999999999e-01	 4.937499999999997e+00	 9.378383477661533e+00
0	 2.500000000000000e-01	 5.000000000000000e+00	 9.405548492307698e+00
0	 3.125000000000000e-01	 4.375000000000000e+00	 9.179473661538459e+00
0	 3.125000000000000e-01	 4.437499999999999e+00	 9.199493638153836e+00
0	 3.125000000000001e-01	 4.500000000000000e+00	 9.220183017230774e+00
0	 3.125000000000000e-01	 4.562499999999999e+00	 9.241541798769227e+00
0	 3.125000000000001e-01	 4.625000000000000e+00	 9.263569982769230e+00
0	 3.125000000000000e-01	 4.687499999999999e+00	 9.286267569230777e+00
0	 3.125000000000000e-01	 4.749999999999998e+00	 9.309634558153844e+00
0	 3.125000000000000e-01	 4.812499999999998e+00	 9.333670949538455e+00
0	 3.125000000000000e-01	 4.874999999999998e+00	 9.358376743384619e+00
0	 3.125000000000000e-01	 4.937499999999998e+00	 9.383751939692301e+00
0	 3.125000000000000e-01	 5.000000000000000e+00	 9.409796538461537e+00
0	 3.750000000000000e-01	 4.375000000000001e+00	 9.188576726153824e+00
0	 3.749999999999999e-01	 4.437499999999999e+00	 9.209307988799992e+00
0	 3.750000000000001e-01	 4.500000000000000e+00	 9.230480565661535e+00
0	 3.749999999999999e-01	 4.562499999999999e+00	 9.252094456738455e+00
0	 3.750000000000000e-01	 4.624999999999999e+00	 9.274149662030769e+00
0	 3.750000000000001e-01	 4.687499999999998e+00	 9.296646181538465e+00
0	 3.749999999999999e-01	 4.749999999999998e+00	 9.319584015261535e+00
0	 3.749999999999999e-01	 4.812499999999999e+00	 9.342963163200007e+00
0	 3.750000000000001e-01	 4.874999999999999e+00	 9.366783625353854e+00
0	 3.750000000000001e-01	 4.937499999999999e+00	 9.391045401723064e+00
0	 3.750000000000000e-01	 5.000000000000001e+00	 9.415748492307705e+00
0	 4.374999999999999e-01	 4.375000000000000e+00	 9.201594621538465e+00
0	 4.374999999999999e-01	 4.437499999999998e+00	 9.222816077907687e+00
0	 4.375000000000000e-01	 4.500000000000000e+00	 9.244250760246153e+00
0	 4.375000000000001e-01	 4.562500000000000e+00	 9.265898668553845e+00
0	 4.375000000000000e-01	 4.624999999999999e+00	 9.287759802830765e+00
0	 4.375000000000000e-01	 4.687499999999998e+00	 9.309834163076914e+00
0	 4.375000000000000e-01	 4.750000000000000e+00	 9.332121749292302e+00
0	 4.375000000000000e-01	 4.812499999999999e+00	 9.354622561476926e+00
0	 4.374999999999999e-01	 4.874999999999998e+00	 9.377336599630764e+00
0	 4.375000000000000e-01	 4.937499999999998e+00	 9.400263863753828e+00
0	 4.374999999999999e-01	 5.000000000000000e+00	 9.423404353846147e+00
0	 4.999999999999999e-01	 4.375000000000000e+00	 9.218527347692303e+00
0	 4.999999999999999e-01	 4.437500000000000e+00	 9.240017905476918e+00
0	 4.999999999999999e-01	 4.500000000000000e+00	 9.261493600984611e+00
0	 4.999999999999998e-01	 4.562499999999999e+00	 9.282954434215378e+00
0	 5.000000000000000e-01	 4.624999999999999e+00	 9.304400405169224e+00
0	 4.999999999999999e-01	 4.687499999999998e+00	 9.325831513846145e+00
0	 4.999999999999999e-01	 4.749999999999997e+00	 9.347247760246146e+00
0	 4.999999999999999e-01	 4.812500000000000e+00	 9.368649144369236e+00
0	 5.000000000000000e-01	 4.874999999999998e+00	 9.390035666215383e+00
0	 4.999999999999999e-01	 4.937499999999997e+00	 9.411407325784616e+00
0	 4.999999999999999e-01	 5.000000000000000e+00	 9.432764123076922e+00
0	 5.624999999999999e-01	 4.375000000000000e+00	 9.239374904615376e+00
0	 5.624999999999999e-01	 4.437500000000000e+00	 9.260913471507685e+00
0	 5.624999999999999e-01	 4.500000000000000e+00	 9.282209087876906e+00
0	 5.625000000000001e-01	 4.562500000000000e+00	 9.303261753723069e+00
0	 5.625000000000000e-01	 4.624999999999999e+00	 9.324071469046142e+00
0	 5.624999999999999e-01	 4.687499999999998e+00	 9.344638233846155e+00
0	 5.624999999999999e-01	 4.749999999999999e+00	 9.364962048123072e+00
0	 5.625000000000000e-01	 4.812499999999998e+00	 9.385042911876923e+00
0	 5.625000000000000e-01	 4.874999999999998e+00	 9.404880825107687e+00
0	 5.625000000000000e-01	 4.937499999999997e+00	 9.424475787815380e+00
0	 5.624999999999999e-01	 5.000000000000000e+00	 9.443827799999996e+00
0	 6.250000000000000e-01	 4.375000000000000e+00	 9.264137292307685e+00
0	 6.250000000000000e-01	 4.437499999999999e+00	 9.285502775999980e+00
0	 6.250000000000001e-01	 4.500000000000001e+00	 9.306397220923067e+00
0	 6.249999999999999e-01	 4.562499999999999e+00	 9.326820627076927e+00
0	 6.250000000000000e-01	 4.625000000000000e+00	 9.346772994461537e+00
0	 6.250000000000000e-01	 4.687499999999999e+00	 9.366254323076916e+00
0	 6.250000000000000e-01	 4.749999999999999e+00	 9.385264612923081e+00
0	 6.249999999999999e-01	 4.812499999999998e+00	 9.403803863999995e+00
0	 6.250000000000000e-01	 4.874999999999998e+00	 9.421872076307690e+00
0	 6.250000000000000e-01	 4.937499999999998e+00	 9.439469249846152e+00
0	 6.250000000000000e-01	 5.000000000000000e+00	 9.456595384615387e+00
0	 0.000000000000000e+00	 5.000000000000000e+00	 9.405595384615388e+00
0	 0.000000000000000e+00	 5.062500000000000e+00	 9.422549840000014e+00
0	 0.000000000000000e+00	 5.125000000000000e+00	 9.439250006153847e+00
0	 0.000000000000000e+00	 5.187499999999999e+00	 9.455695883076910e+00
0	 0.000000000000000e+00	 5.249999999999999e+00	 9.471887470769236e+00
0	 0.000000000000000e+00	 5.312499999999999e+00	 9.487824769230768e+00
0	 0.000000000000000e+00	 5.374999999999998e+00	 9.503507778461525e+00
0	 0.000000000000000e+00	 5.437499999999999e+00	 9.518936498461535e+00
0	 0.000000000000000e+00	 5.499999999999998e+00	 9.534110929230758e+00
0	 0.000000000000000e+00	 5.562499999999998e+00	 9.549031070769214e+00
0	 0.000000000000000e+00	 5.625000000000000e+00	 9.563696923076911e+00
0	 6.250000000000000e-02	 5.000000000000001e+00	 9.403027800000007e+00
0	 6.249999999999999e-02	 5.062499999999999e+00	 9.419910929076927e+00
0	 6.249999999999998e-02	 5.125000000000000e+00	 9.436601784000006e+00
0	 6.250000000000000e-02	 5.187500000000000e+00	 9.453100364769226e+00
0	 6.250000000000000e-02	 5.249999999999998e+00	 9.469406671384604e+00
0	 6.249999999999997e-02	 5.312499999999998e+00	 9.485520703846138e+00
0	 6.249999999999999e-02	 5.374999999999998e+00	 9.501442462153841e+00
0	 6.249999999999999e-02	 5.437499999999997e+00	 9.517171946307686e+00
0	 6.249999999999999e-02	 5.499999999999998e+00	 9.532709156307670e+00
0	 6.249999999999999e-02	 5.562499999999997e+00	 9.548054092153837e+00
0	 6.250000000000000e-02	 5.625000000000000e+00	 9.563206753846154e+00
0	 1.250000000000000e-01	 5.000000000000000e+00	 9.402164123076926e+00
0	 1.250000000000000e-01	 5.062499999999999e+00	 9.418912624307710e+00
0	 1.250000000000000e-01	 5.125000000000000e+00	 9.435530866461530e+00
0	 1.250000000000000e-01	 5.187499999999999e+00	 9.452018849538465e+00
0	 1.250000000000000e-01	 5.249999999999998e+00	 9.468376573538462e+00
0	 1.250000000000000e-01	 5.312499999999998e+00	 9.484604038461532e+00
0	 1.250000000000000e-01	 5.374999999999997e+00	 9.500701244307699e+00
0	 1.250000000000000e-01	 5.437499999999998e+00	 9.516668191076917e+00
0	 1.250000000000000e-01	 5.499999999999998e+00	 9.532504878769236e+00
0	 1.250000000000000e-01	 5.562499999999998e+00	 9.548211307384603e+00
0	 1.250000000000000e-01	 5.625000000000000e+00	 9.563787476923066e+00
0	 1.875000000000000e-01	 5.000000000000000e+00	 9.403004353846162e+00
0	 1.875000000000000e-01	 5.062500000000000e+00	 9.419554925692312e+00
0	 1.875000000000000e-01	 5.124999999999999e+00	 9.436037253538457e+00
0	 1.875000000000000e-01	 5.187500000000000e+00	 9.452451337384616e+00
0	 1.875000000000000e-01	 5.249999999999999e+00	 9.468797177230760e+00
0	 1.875000000000000e-01	 5.312500000000000e+00	 9.485074773076921e+00
0	 1.875000000000000e-01	 5.374999999999998e+00	 9.501284124923073e+00
0	 1.875000000000000e-01	 5.437499999999999e+00	 9.517425232769224e+00
0	 1.875000000000001e-01	 5.499999999999997e+00	 9.533498096615375e+00
0	 1.875000000000000e-01	 5.562499999999998e+00	 9.549502716461530e+00
0	 1.875000000000000e-01	 5.625000000000001e+00	 9.565439092307669e+00
0	 2.500000000000000e-01	 5.000000000000000e+00	 9.405548492307698e+00
0	 2.500000000000001e-01	 5.062500000000000e+00	 9.421837833230773e+00
0	 2.500000000000001e-01	 5.125000000000001e+00	 9.438120945230771e+00
0	 2.500000000000000e-01	 5.187499999999999e+00	 9.454397828307693e+00
0	 2.500000000000000e-01	 5.249999999999999e+00	 9.470668482461541e+00
0	 2.499999999999999e-01	 5.312499999999997e+00	 9.486932907692296e+00
0	 2.500000000000000e-01	 5.374999999999999e+00	 9.503191103999997e+00
0	 2.500000000000000e-01	 5.437499999999996e+00	 9.519443071384611e+00
0	 2.500000000000000e-01	 5.499999999999999e+00	 9.535688809846148e+00
0	 2.499999999999999e-01	 5.562499999999996e+00	 9.551928319384597e+00
0	 2.500000000000000e-01	 5.625000000000001e+00	 9.568161599999989e+00
0	 3.125000000000000e-01	 5.000000000000000e+00	 9.409796538461537e+00
0	 3.125000000000000e-01	 5.062499999999999e+00	 9.425761346923075e+00
0	 3.125000000000001e-01	 5.125000000000000e+00	 9.441781941538464e+00
0	 3.125000000000000e-01	 5.187499999999999e+00	 9.457858322307695e+00
0	 3.125000000000001e-01	 5.250000000000001e+00	 9.473990489230765e+00
0	 3.125000000000000e-01	 5.312499999999999e+00	 9.490178442307688e+00
0	 3.125000000000000e-01	 5.375000000000000e+00	 9.506422181538458e+00
0	 3.125000000000000e-01	 5.437499999999998e+00	 9.522721706923072e+00
0	 3.125000000000000e-01	 5.499999999999997e+00	 9.539077018461533e+00
0	 3.125000000000000e-01	 5.562499999999997e+00	 9.555488116153846e+00
0	 3.125000000000000e-01	 5.625000000000000e+00	 9.571954999999985e+00
0	 3.750000000000000e-01	 5.000000000000001e+00	 9.415748492307705e+00
0	 3.749999999999999e-01	 5.062500000000000e+00	 9.431325466769227e+00
0	 3.750000000000001e-01	 5.125000000000000e+00	 9.447020242461541e+00
0	 3.749999999999999e-01	 5.187499999999998e+00	 9.462832819384614e+00
0	 3.750000000000000e-01	 5.250000000000001e+00	 9.478763197538466e+00
0	 3.750000000000001e-01	 5.312500000000001e+00	 9.494811376923074e+00
0	 3.749999999999999e-01	 5.374999999999998e+00	 9.510977357538451e+00
0	 3.749999999999999e-01	 5.437499999999999e+00	 9.527261139384608e+00
0	 3.750000000000001e-01	 5.499999999999999e+00	 9.543662722461541e+00
0	 3.750000000000001e-01	 5.562500000000000e+00	 9.560182106769227e+00
0	 3.750000000000000e-01	 5.625000000000001e+00	 9.576819292307677e+00
0	 4.374999999999999e-01	 5.000000000000000e+00	 9.423404353846147e+00
0	 4.374999999999999e-01	 5.062500000000000e+00	 9.438530192769230e+00
0	 4.375000000000000e-01	 5.124999999999999e+00	 9.453835848000001e+00
0	 4.375000000000001e-01	 5.187500000000000e+00	 9.469321319538464e+00
0	 4.375000000000000e-01	 5.250000000000000e+00	 9.484986607384608e+00
0	 4.375000000000000e-01	 5.312499999999998e+00	 9.500831711538446e+00
0	 4.375000000000000e-01	 5.374999999999998e+00	 9.516856631999993e+00
0	 4.375000000000000e-01	 5.437499999999999e+00	 9.533061368769220e+00
0	 4.374999999999999e-01	 5.499999999999998e+00	 9.549445921846139e+00
0	 4.375000000000000e-01	 5.562499999999998e+00	 9.566010291230770e+00
0	 4.374999999999999e-01	 5.625000000000000e+00	 9.582754476923068e+00
0	 4.999999999999999e-01	 5.000000000000000e+00	 9.432764123076922e+00
0	 4.999999999999999e-01	 5.062499999999999e+00	 9.447375524923075e+00
0	 4.999999999999999e-01	 5.124999999999999e+00	 9.462228758153845e+00
0	 4.999999999999998e-01	 5.187499999999999e+00	 9.477323822769229e+00
0	 5.000000000000000e-01	 5.250000000000000e+00	 9.492660718769226e+00
0	 4.999999999999999e-01	 5.312499999999998e+00	 9.508239446153842e+00
0	 4.999999999999999e-01	 5.374999999999998e+00	 9.524060004923072e+00
0	 4.999999999999999e-01	 5.437499999999999e+00	 9.540122395076923e+00
0	 5.000000000000000e-01	 5.499999999999998e+00	 9.556426616615390e+00
0	 4.999999999999999e-01	 5.562499999999998e+00	 9.572972669538467e+00
0	 4.999999999999999e-01	 5.625000000000001e+00	 9.589760553846151e+00
0	 5.624999999999999e-01	 5.000000000000000e+00	 9.443827799999996e+00
0	 5.624999999999999e-01	 5.062500000000000e+00	 9.457861463230779e+00
0	 5.624999999999999e-01	 5.125000000000000e+00	 9.472198972923074e+00
0	 5.625000000000001e-01	 5.187500000000001e+00	 9.486840329076927e+00
0	 5.625000000000000e-01	 5.249999999999999e+00	 9.501785531692303e+00
0	 5.624999999999999e-01	 5.312499999999998e+00	 9.517034580769225e+00
0	 5.624999999999999e-01	 5.374999999999998e+00	 9.532587476307690e+00
0	 5.625000000000000e-01	 5.437499999999999e+00	 9.548444218307679e+00
0	 5.625000000000000e-01	 5.499999999999999e+00	 9.564604806769225e+00
0	 5.625000000000000e-01	 5.562499999999997e+00	 9.581069241692305e+00
0	 5.624999999999999e-01	 5.625000000000000e+00	 9.597837523076921e+00
0	 6.250000000000000e-01	 5.000000000000000e+00	 9.456595384615387e+00
0	 6.250000000000000e-01	 5.062500000000000e+00	 9.469988007692308e+00
0	 6.250000000000001e-01	 5.125000000000001e+00	 9.483746492307702e+00
0	 6.249999999999999e-01	 5.187499999999999e+00	 9.497870838461532e+00
0	 6.250000000000000e-01	 5.249999999999999e+00	 9.512361046153845e+00
0	 6.250000000000000e-01	 5.312499999999999e+00	 9.527217115384614e+00
0	 6.250000000000000e-01	 5.374999999999998e+00	 9.542439046153842e+00
0	 6.249999999999999e-01	 5.437499999999998e+00	 9.558026838461537e+00
0	 6.250000000000000e-01	 5.499999999999998e+00	 9.573980492307687e+00
0	 6.250000000000000e-01	 5.562499999999998e+00	 9.590300007692306e+00
0	 6.250000000000000e-01	 5.625000000000000e+00	 9.606985384615378e+00
0	 0.000000000000000e+00	 5.625000000000000e+00	 9.563696923076911e+00
0	 0.000000000000000e+00	 5.687499999999999e+00	 9.575760067692302e+00
0	 0.000000000000000e+00	 5.749999999999999e+00	 9.588093009230747e+00
0	 0.000000000000000e+00	 5.812499999999999e+00	 9.600695747692308e+00
0	 0.000000000000000e+00	 5.874999999999999e+00	 9.613568283076916e+00
0	 0.000000000000000e+00	 5.937499999999998e+00	 9.626710615384615e+00
0	 0.000000000000000e+00	 5.999999999999998e+00	 9.640122744615390e+00
0	 0.000000000000000e+00	 6.062499999999999e+00	 9.653804670769219e+00
0	 0.000000000000000e+00	 6.124999999999998e+00	 9.667756393846137e+00
0	 0.000000000000000e+00	 6.187499999999998e+00	 9.681977913846158e+00
0	 0.000000000000000e+00	 6.250000000000000e+00	 9.696469230769225e+00
0	 6.250000000000000e-02	 5.625000000000000e+00	 9.563206753846154e+00
0	 6.249999999999999e-02	 5.687499999999998e+00	 9.575264334923077e+00
0	 6.249999999999998e-02	 5.749999999999999e+00	 9.587569558153831e+00
0	 6.250000000000000e-02	 5.812499999999999e+00	 9.600122423538451e+00
0	 6.250000000000000e-02	 5.874999999999998e+00	 9.612922931076918e+00
0	 6.249999999999997e-02	 5.937499999999998e+00	 9.625971080769226e+00
0	 6.249999999999999e-02	 5.999999999999999e+00	 9.639266872615377e+00
0	 6.249999999999999e-02	 6.062499999999996e+00	 9.652810306615379e+00
0	 6.249999999999999e-02	 6.124999999999998e+00	 9.666601382769242e+00
0	 6.249999999999999e-02	 6.187499999999997e+00	 9.680640101076893e+00
0	 6.250000000000000e-02	 6.250000000000000e+00	 9.694926461538437e+00
0	 1.250000000000000e-01	 5.625000000000000e+00	 9.563787476923066e+00
0	 1.250000000000000e-01	 5.687499999999998e+00	 9.575809555999996e+00
0	 1.250000000000000e-01	 5.750000000000001e+00	 9.588057122461521e+00
0	 1.250000000000000e-01	 5.812499999999999e+00	 9.600530176307693e+00
0	 1.250000000000000e-01	 5.874999999999998e+00	 9.613228717538462e+00
0	 1.250000000000000e-01	 5.937499999999999e+00	 9.626152746153842e+00
0	 1.250000000000000e-01	 5.999999999999997e+00	 9.639302262153841e+00
0	 1.250000000000000e-01	 6.062499999999997e+00	 9.652677265538449e+00
0	 1.250000000000000e-01	 6.125000000000000e+00	 9.666277756307686e+00
0	 1.250000000000000e-01	 6.187499999999998e+00	 9.680103734461539e+00
0	 1.250000000000000e-01	 6.250000000000000e+00	 9.694155199999980e+00
0	 1.875000000000000e-01	 5.625000000000001e+00	 9.565439092307669e+00
0	 1.875000000000000e-01	 5.687500000000000e+00	 9.577395730923069e+00
0	 1.875000000000000e-01	 5.749999999999999e+00	 9.589555702153840e+00
0	 1.875000000000000e-01	 5.812500000000001e+00	 9.601919005999996e+00
0	 1.875000000000000e-01	 5.874999999999999e+00	 9.614485642461537e+00
0	 1.875000000000000e-01	 5.937500000000000e+00	 9.627255611538454e+00
0	 1.875000000000000e-01	 5.999999999999998e+00	 9.640228913230761e+00
0	 1.875000000000000e-01	 6.062500000000000e+00	 9.653405547538460e+00
0	 1.875000000000001e-01	 6.125000000000000e+00	 9.666785514461532e+00
0	 1.875000000000000e-01	 6.187499999999997e+00	 9.680368814000001e+00
0	 1.875000000000000e-01	 6.250000000000001e+00	 9.694155446153855e+00
0	 2.500000000000000e-01	 5.625000000000001e+00	 9.568161599999989e+00
0	 2.500000000000001e-01	 5.687500000000000e+00	 9.580022859692303e+00
0	 2.500000000000001e-01	 5.750000000000000e+00	 9.592065297230771e+00
0	 2.500000000000000e-01	 5.812500000000000e+00	 9.604288912615370e+00
0	 2.500000000000000e-01	 5.874999999999999e+00	 9.616693705846147e+00
0	 2.499999999999999e-01	 5.937499999999999e+00	 9.629279676923069e+00
0	 2.500000000000000e-01	 5.999999999999997e+00	 9.642046825846146e+00
0	 2.500000000000000e-01	 6.062499999999998e+00	 9.654995152615378e+00
0	 2.500000000000000e-01	 6.124999999999999e+00	 9.668124657230766e+00
0	 2.499999999999999e-01	 6.187499999999996e+00	 9.681435339692312e+00
0	 2.500000000000000e-01	 6.250000000000000e+00	 9.694927199999992e+00
0	 3.125000000000000e-01	 5.625000000000000e+00	 9.571954999999985e+00
0	 3.125000000000000e-01	 5.687499999999999e+00	 9.583690942307687e+00
0	 3.125000000000001e-01	 5.750000000000000e+00	 9.595585907692294e+00
0	 3.125000000000000e-01	 5.812499999999998e+00	 9.607639896153843e+00
0	 3.125000000000001e-01	 5.875000000000000e+00	 9.619852907692312e+00
0	 3.125000000000000e-01	 5.937499999999999e+00	 9.632224942307689e+00
0	 3.125000000000000e-01	 5.999999999999998e+00	 9.644756000000005e+00
0	 3.125000000000000e-01	 6.062499999999997e+00	 9.657446080769226e+00
0	 3.125000000000000e-01	 6.124999999999998e+00	 9.670295184615377e+00
0	 3.125000000000000e-01	 6.187499999999999e+00	 9.683303311538475e+00
0	 3.125000000000000e-01	 6.250000000000000e+00	 9.696470461538460e+00
0	 3.750000000000000e-01	 5.625000000000001e+00	 9.576819292307677e+00
0	 3.749999999999999e-01	 5.687499999999999e+00	 9.588399978769216e+00
0	 3.750000000000001e-01	 5.750000000000001e+00	 9.600117533538466e+00
0	 3.749999999999999e-01	 5.812499999999999e+00	 9.611971956615383e+00
0	 3.750000000000000e-01	 5.875000000000000e+00	 9.623963247999999e+00
0	 3.750000000000001e-01	 5.937499999999999e+00	 9.636091407692311e+00
0	 3.749999999999999e-01	 5.999999999999998e+00	 9.648356435692305e+00
0	 3.749999999999999e-01	 6.062499999999998e+00	 9.660758331999993e+00
0	 3.750000000000001e-01	 6.124999999999998e+00	 9.673297096615386e+00
0	 3.750000000000001e-01	 6.187499999999999e+00	 9.685972729538454e+00
0	 3.750000000000000e-01	 6.250000000000001e+00	 9.698785230769225e+00
0	 4.374999999999999e-01	 5.625000000000000e+00	 9.582754476923068e+00
0	 4.374999999999999e-01	 5.687500000000000e+00	 9.594149969076913e+00
0	 4.375000000000000e-01	 5.750000000000000e+00	 9.605660174769227e+00
0	 4.375000000000001e-01	 5.812500000000000e+00	 9.617285094000005e+00
0	 4.375000000000000e-01	 5.874999999999999e+00	 9.629024726769234e+00
0	 4.375000000000000e-01	 5.937499999999999e+00	 9.640879073076929e+00
0	 4.375000000000000e-01	 6.000000000000000e+00	 9.652848132923070e+00
0	 4.375000000000000e-01	 6.062499999999998e+00	 9.664931906307691e+00
0	 4.374999999999999e-01	 6.124999999999998e+00	 9.677130393230767e+00
0	 4.375000000000000e-01	 6.187499999999997e+00	 9.689443593692323e+00
0	 4.374999999999999e-01	 6.250000000000000e+00	 9.701871507692312e+00
0	 4.999999999999999e-01	 5.625000000000001e+00	 9.589760553846151e+00
0	 4.999999999999999e-01	 5.687500000000000e+00	 9.600940913230762e+00
0	 4.999999999999999e-01	 5.750000000000000e+00	 9.612213831384619e+00
0	 4.999999999999998e-01	 5.812499999999998e+00	 9.623579308307697e+00
0	 5.000000000000000e-01	 5.874999999999999e+00	 9.635037344000001e+00
0	 4.999999999999999e-01	 5.937499999999998e+00	 9.646587938461536e+00
0	 4.999999999999999e-01	 5.999999999999998e+00	 9.658231091692304e+00
0	 4.999999999999999e-01	 6.062499999999998e+00	 9.669966803692315e+00
0	 5.000000000000000e-01	 6.124999999999999e+00	 9.681795074461538e+00
0	 4.999999999999999e-01	 6.187499999999997e+00	 9.693715904000001e+00
0	 4.999999999999999e-01	 6.250000000000001e+00	 9.705729292307696e+00
0	 5.624999999999999e-01	 5.625000000000000e+00	 9.597837523076921e+00
0	 5.624999999999999e-01	 5.687500000000000e+00	 9.608772811230768e+00
0	 5.624999999999999e-01	 5.749999999999999e+00	 9.619778503384588e+00
0	 5.625000000000001e-01	 5.812499999999999e+00	 9.630854599538459e+00
0	 5.625000000000000e-01	 5.874999999999999e+00	 9.642001099692305e+00
0	 5.624999999999999e-01	 5.937499999999997e+00	 9.653218003846144e+00
0	 5.624999999999999e-01	 5.999999999999998e+00	 9.664505311999996e+00
0	 5.625000000000000e-01	 6.062499999999999e+00	 9.675863024153850e+00
0	 5.625000000000000e-01	 6.124999999999998e+00	 9.687291140307691e+00
0	 5.625000000000000e-01	 6.187499999999998e+00	 9.698789660461541e+00
0	 5.624999999999999e-01	 6.250000000000000e+00	 9.710358584615374e+00
0	 6.250000000000000e-01	 5.625000000000000e+00	 9.606985384615378e+00
0	 6.250000000000000e-01	 5.687500000000000e+00	 9.617645663076917e+00
0	 6.250000000000001e-01	 5.750000000000000e+00	 9.628354190769228e+00
0	 6.249999999999999e-01	 5.812499999999999e+00	 9.639110967692309e+00
0	 6.250000000000000e-01	 5.874999999999999e+00	 9.649915993846150e+00
0	 6.250000000000000e-01	 5.937499999999999e+00	 9.660769269230775e+00
0	 6.250000000000000e-01	 5.999999999999998e+00	 9.671670793846159e+00
0	 6.249999999999999e-01	 6.062499999999998e+00	 9.682620567692313e+00
0	 6.250000000000000e-01	 6.124999999999998e+00	 9.693618590769230e+00
0	 6.250000000000000e-01	 6.187499999999998e+00	 9.704664863076935e+00
0	 6.250000000000000e-01	 6.250000000000000e+00	 9.715759384615389e+00
0	 0.000000000000000e+00	 6.250000000000000e+00	 9.696469230769225e+00
0	 0.000000000000000e+00	 6.312500000000001e+00	 9.705085249230763e+00
0	 0.000000000000000e+00	 6.374999999999999e+00	 9.713798412307693e+00
0	 0.000000000000000e+00	 6.437499999999999e+00	 9.722608719999982e+00
0	 0.000000000000000e+00	 6.499999999999999e+00	 9.731516172307698e+00
0	 0.000000000000000e+00	 6.562499999999999e+00	 9.740520769230779e+00
0	 0.000000000000000e+00	 6.624999999999998e+00	 9.749622510769212e+00
0	 0.000000000000000e+00	 6.687499999999999e+00	 9.758821396923082e+00
0	 0.000000000000000e+00	 6.749999999999998e+00	 9.768117427692324e+00
0	 0.000000000000000e+00	 6.812499999999998e+00	 9.777510603076921e+00
0	 0.000000000000000e+00	 6.875000000000000e+00	 9.787000923076935e+00
0	 6.250000000000000e-02	 6.250000000000000e+00	 9.694926461538437e+00
0	 6.249999999999999e-02	 6.312499999999999e+00	 9.703648984923047e+00
0	 6.249999999999998e-02	 6.374999999999999e+00	 9.712470419692290e+00
0	 6.250000000000000e-02	 6.437500000000000e+00	 9.721390765846154e+00
0	 6.250000000000000e-02	 6.499999999999997e+00	 9.730410023384607e+00
0	 6.249999999999997e-02	 6.562499999999997e+00	 9.739528192307681e+00
0	 6.249999999999999e-02	 6.624999999999998e+00	 9.748745272615391e+00
0	 6.249999999999999e-02	 6.687499999999997e+00	 9.758061264307711e+00
0	 6.249999999999999e-02	 6.749999999999999e+00	 9.767476167384604e+00
0	 6.249999999999999e-02	 6.812499999999997e+00	 9.776989981846166e+00
0	 6.250000000000000e-02	 6.875000000000001e+00	 9.786602707692332e+00
0	 1.250000000000000e-01	 6.250000000000000e+00	 9.694155199999980e+00
0	 1.250000000000000e-01	 6.312499999999998e+00	 9.702951446769227e+00
0	 1.250000000000000e-01	 6.375000000000000e+00	 9.711848371692295e+00
0	 1.250000000000000e-01	 6.437499999999999e+00	 9.720845974769224e+00
0	 1.250000000000000e-01	 6.499999999999998e+00	 9.729944255999996e+00
0	 1.250000000000000e-01	 6.562499999999998e+00	 9.739143215384619e+00
0	 1.250000000000000e-01	 6.624999999999998e+00	 9.748442852923075e+00
0	 1.250000000000000e-01	 6.687499999999996e+00	 9.757843168615393e+00
0	 1.250000000000000e-01	 6.750000000000000e+00	 9.767344162461544e+00
0	 1.250000000000000e-01	 6.812499999999997e+00	 9.776945834461545e+00
0	 1.250000000000000e-01	 6.874999999999999e+00	 9.786648184615409e+00
0	 1.875000000000000e-01	 6.250000000000001e+00	 9.694155446153855e+00
0	 1.875000000000000e-01	 6.312500000000000e+00	 9.702992634769233e+00
0	 1.875000000000000e-01	 6.374999999999999e+00	 9.711932268307692e+00
0	 1.875000000000000e-01	 6.437499999999998e+00	 9.720974346769225e+00
0	 1.875000000000000e-01	 6.499999999999998e+00	 9.730118870153836e+00
0	 1.875000000000000e-01	 6.562499999999998e+00	 9.739365838461543e+00
0	 1.875000000000000e-01	 6.624999999999998e+00	 9.748715251692314e+00
0	 1.875000000000000e-01	 6.687499999999998e+00	 9.758167109846152e+00
0	 1.875000000000001e-01	 6.750000000000000e+00	 9.767721412923091e+00
0	 1.875000000000000e-01	 6.812499999999998e+00	 9.777378160923069e+00
0	 1.875000000000000e-01	 6.875000000000001e+00	 9.787137353846138e+00
0	 2.500000000000000e-01	 6.250000000000000e+00	 9.694927199999992e+00
0	 2.500000000000001e-01	 6.312500000000002e+00	 9.703772548923087e+00
0	 2.500000000000001e-01	 6.375000000000001e+00	 9.712722109538456e+00
0	 2.500000000000000e-01	 6.437500000000000e+00	 9.721775881846147e+00
0	 2.500000000000000e-01	 6.499999999999998e+00	 9.730933865846145e+00
0	 2.499999999999999e-01	 6.562499999999996e+00	 9.740196061538459e+00
0	 2.500000000000000e-01	 6.624999999999996e+00	 9.749562468923070e+00
0	 2.500000000000000e-01	 6.687499999999997e+00	 9.759033087999988e+00
0	 2.500000000000000e-01	 6.749999999999998e+00	 9.768607918769220e+00
0	 2.499999999999999e-01	 6.812499999999996e+00	 9.778286961230753e+00
0	 2.500000000000000e-01	 6.875000000000000e+00	 9.788070215384613e+00
0	 3.125000000000000e-01	 6.250000000000000e+00	 9.696470461538460e+00
0	 3.125000000000000e-01	 6.312499999999999e+00	 9.705291189230753e+00
0	 3.125000000000001e-01	 6.375000000000000e+00	 9.714217895384616e+00
0	 3.125000000000000e-01	 6.437499999999999e+00	 9.723250579999998e+00
0	 3.125000000000001e-01	 6.499999999999999e+00	 9.732389243076927e+00
0	 3.125000000000000e-01	 6.562500000000000e+00	 9.741633884615384e+00
0	 3.125000000000000e-01	 6.624999999999998e+00	 9.750984504615380e+00
0	 3.125000000000000e-01	 6.687499999999998e+00	 9.760441103076930e+00
0	 3.125000000000000e-01	 6.749999999999998e+00	 9.770003680000002e+00
0	 3.125000000000000e-01	 6.812499999999998e+00	 9.779672235384599e+00
0	 3.125000000000000e-01	 6.875000000000000e+00	 9.789446769230770e+00
0	 3.750000000000000e-01	 6.250000000000001e+00	 9.698785230769225e+00
0	 3.749999999999999e-01	 6.312499999999998e+00	 9.707548555692306e+00
0	 3.750000000000001e-01	 6.375000000000001e+00	 9.716419625846145e+00
0	 3.749999999999999e-01	 6.437500000000000e+00	 9.725398441230757e+00
0	 3.750000000000000e-01	 6.500000000000000e+00	 9.734485001846142e+00
0	 3.750000000000001e-01	 6.562499999999999e+00	 9.743679307692304e+00
0	 3.749999999999999e-01	 6.624999999999998e+00	 9.752981358769230e+00
0	 3.749999999999999e-01	 6.687499999999997e+00	 9.762391155076930e+00
0	 3.750000000000001e-01	 6.749999999999999e+00	 9.771908696615382e+00
0	 3.750000000000001e-01	 6.812499999999999e+00	 9.781533983384611e+00
0	 3.750000000000000e-01	 6.875000000000000e+00	 9.791267015384619e+00
0	 4.374999999999999e-01	 6.250000000000000e+00	 9.701871507692312e+00
0	 4.374999999999999e-01	 6.312499999999997e+00	 9.710544648307678e+00
0	 4.375000000000000e-01	 6.374999999999998e+00	 9.719327300923082e+00
0	 4.375000000000001e-01	 6.437500000000000e+00	 9.728219465538459e+00
0	 4.375000000000000e-01	 6.500000000000000e+00	 9.737221142153849e+00
0	 4.375000000000000e-01	 6.562499999999999e+00	 9.746332330769235e+00
0	 4.375000000000000e-01	 6.624999999999999e+00	 9.755553031384622e+00
0	 4.375000000000000e-01	 6.687499999999998e+00	 9.764883243999996e+00
0	 4.374999999999999e-01	 6.749999999999999e+00	 9.774322968615387e+00
0	 4.375000000000000e-01	 6.812499999999998e+00	 9.783872205230756e+00
0	 4.374999999999999e-01	 6.875000000000000e+00	 9.793530953846137e+00
0	 4.999999999999999e-01	 6.250000000000001e+00	 9.705729292307696e+00
0	 4.999999999999999e-01	 6.312499999999999e+00	 9.714279467076922e+00
0	 4.999999999999999e-01	 6.375000000000000e+00	 9.722940920615395e+00
0	 4.999999999999998e-01	 6.437499999999999e+00	 9.731713652923078e+00
0	 5.000000000000000e-01	 6.499999999999998e+00	 9.740597664000008e+00
0	 4.999999999999999e-01	 6.562499999999998e+00	 9.749592953846147e+00
0	 4.999999999999999e-01	 6.624999999999997e+00	 9.758699522461535e+00
0	 4.999999999999999e-01	 6.687499999999998e+00	 9.767917369846154e+00
0	 5.000000000000000e-01	 6.749999999999999e+00	 9.777246496000011e+00
0	 4.999999999999999e-01	 6.812499999999998e+00	 9.786686900923053e+00
0	 4.999999999999999e-01	 6.875000000000000e+00	 9.796238584615379e+00
0	 5.624999999999999e-01	 6.250000000000000e+00	 9.710358584615374e+00
0	 5.624999999999999e-01	 6.312499999999999e+00	 9.718753012000001e+00
0	 5.624999999999999e-01	 6.375000000000000e+00	 9.727260484923079e+00
0	 5.625000000000001e-01	 6.437500000000000e+00	 9.735881003384614e+00
0	 5.625000000000000e-01	 6.500000000000000e+00	 9.744614567384616e+00
0	 5.624999999999999e-01	 6.562499999999998e+00	 9.753461176923082e+00
0	 5.624999999999999e-01	 6.624999999999998e+00	 9.762420831999993e+00
0	 5.625000000000000e-01	 6.687500000000000e+00	 9.771493532615379e+00
0	 5.625000000000000e-01	 6.749999999999998e+00	 9.780679278769215e+00
0	 5.625000000000000e-01	 6.812499999999998e+00	 9.789978070461515e+00
0	 5.624999999999999e-01	 6.875000000000000e+00	 9.799389907692312e+00
0	 6.250000000000000e-01	 6.250000000000000e+00	 9.715759384615389e+00
0	 6.250000000000000e-01	 6.312500000000000e+00	 9.723965283076922e+00
0	 6.250000000000001e-01	 6.375000000000000e+00	 9.732285993846167e+00
0	 6.249999999999999e-01	 6.437499999999999e+00	 9.740721516923070e+00
0	 6.250000000000000e-01	 6.499999999999999e+00	 9.749271852307693e+00
0	 6.250000000000000e-01	 6.562499999999998e+00	 9.757937000000004e+00
0	 6.250000000000000e-01	 6.624999999999998e+00	 9.766716959999981e+00
0	 6.249999999999999e-01	 6.687499999999998e+00	 9.775611732307695e+00
0	 6.250000000000000e-01	 6.749999999999998e+00	 9.784621316923078e+00
0	 6.250000000000000e-01	 6.812499999999998e+00	 9.793745713846160e+00
0	 6.250000000000000e-01	 6.875000000000000e+00	 9.802984923076917e+00
0	 0.000000000000000e+00	 6.875000000000000e+00	 9.787000923076935e+00
0	 0.000000000000000e+00	 6.937500000000000e+00	 9.794023886153862e+00
0	 0.000000000000000e+00	 6.999999999999999e+00	 9.801158375384617e+00
0	 0.000000000000000e+00	 7.062499999999999e+00	 9.808404390769246e+00
0	 0.000000000000000e+00	 7.125000000000000e+00	 9.815761932307698e+00
0	 0.000000000000000e+00	 7.187499999999998e+00	 9.823231000000016e+00
0	 0.000000000000000e+00	 7.249999999999999e+00	 9.830811593846173e+00
0	 0.000000000000000e+00	 7.312499999999999e+00	 9.838503713846160e+00
0	 0.000000000000000e+00	 7.374999999999998e+00	 9.846307359999997e+00
0	 0.000000000000000e+00	 7.437499999999998e+00	 9.854222532307711e+00
0	 0.000000000000000e+00	 7.500000000000000e+00	 9.862249230769240e+00
0	 6.250000000000000e-02	 6.875000000000001e+00	 9.786602707692332e+00
0	 6.249999999999999e-02	 6.937499999999998e+00	 9.793614687999998e+00
0	 6.249999999999998e-02	 6.999999999999998e+00	 9.800736555076940e+00
0	 6.250000000000000e-02	 7.062499999999998e+00	 9.807968308923082e+00
0	 6.250000000000000e-02	 7.124999999999996e+00	 9.815309949538463e+00
0	 6.249999999999997e-02	 7.187499999999999e+00	 9.822761476923077e+00
0	 6.249999999999999e-02	 7.249999999999998e+00	 9.830322891076943e+00
0	 6.249999999999999e-02	 7.312499999999997e+00	 9.837994192000011e+00
0	 6.249999999999999e-02	 7.374999999999998e+00	 9.845775379692300e+00
0	 6.249999999999999e-02	 7.437499999999997e+00	 9.853666454153869e+00
0	 6.250000000000000e-02	 7.500000000000000e+00	 9.861667415384632e+00
0	 1.250000000000000e-01	 6.874999999999999e+00	 9.786648184615409e+00
0	 1.250000000000000e-01	 6.937499999999998e+00	 9.793636388307702e+00
0	 1.250000000000000e-01	 6.999999999999999e+00	 9.800732839384619e+00
0	 1.250000000000000e-01	 7.062499999999997e+00	 9.807937537846154e+00
0	 1.250000000000000e-01	 7.124999999999997e+00	 9.815250483692315e+00
0	 1.250000000000000e-01	 7.187499999999998e+00	 9.822671676923072e+00
0	 1.250000000000000e-01	 7.249999999999998e+00	 9.830201117538456e+00
0	 1.250000000000000e-01	 7.312499999999996e+00	 9.837838805538462e+00
0	 1.250000000000000e-01	 7.375000000000000e+00	 9.845584740923071e+00
0	 1.250000000000000e-01	 7.437499999999998e+00	 9.853438923692314e+00
0	 1.250000000000000e-01	 7.500000000000000e+00	 9.861401353846162e+00
0	 1.875000000000000e-01	 6.875000000000001e+00	 9.787137353846138e+00
0	 1.875000000000000e-01	 6.937499999999999e+00	 9.794088987076936e+00
0	 1.875000000000000e-01	 6.999999999999999e+00	 9.801147228307705e+00
0	 1.875000000000000e-01	 7.062500000000000e+00	 9.808312077538462e+00
0	 1.875000000000000e-01	 7.124999999999997e+00	 9.815583534769234e+00
0	 1.875000000000000e-01	 7.187499999999998e+00	 9.822961600000003e+00
0	 1.875000000000000e-01	 7.249999999999998e+00	 9.830446273230777e+00
0	 1.875000000000000e-01	 7.312499999999999e+00	 9.838037554461543e+00
0	 1.875000000000001e-01	 7.374999999999998e+00	 9.845735443692330e+00
0	 1.875000000000000e-01	 7.437499999999998e+00	 9.853539940923072e+00
0	 1.875000000000000e-01	 7.500000000000001e+00	 9.861451046153867e+00
0	 2.500000000000000e-01	 6.875000000000000e+00	 9.788070215384613e+00
0	 2.500000000000001e-01	 6.937500000000000e+00	 9.794972484307680e+00
0	 2.500000000000001e-01	 7.000000000000001e+00	 9.801979721846152e+00
0	 2.500000000000000e-01	 7.062500000000000e+00	 9.809091927999988e+00
0	 2.500000000000000e-01	 7.124999999999997e+00	 9.816309102769230e+00
0	 2.499999999999999e-01	 7.187499999999997e+00	 9.823631246153850e+00
0	 2.500000000000000e-01	 7.249999999999997e+00	 9.831058358153843e+00
0	 2.500000000000000e-01	 7.312499999999996e+00	 9.838590438769229e+00
0	 2.500000000000000e-01	 7.374999999999998e+00	 9.846227488000006e+00
0	 2.499999999999999e-01	 7.437499999999996e+00	 9.853969505846138e+00
0	 2.500000000000000e-01	 7.500000000000000e+00	 9.861816492307698e+00
0	 3.125000000000000e-01	 6.875000000000000e+00	 9.789446769230770e+00
0	 3.125000000000000e-01	 6.937499999999998e+00	 9.796286879999997e+00
0	 3.125000000000001e-01	 7.000000000000000e+00	 9.803230320000006e+00
0	 3.125000000000000e-01	 7.062499999999999e+00	 9.810277089230770e+00
0	 3.125000000000001e-01	 7.125000000000001e+00	 9.817427187692299e+00
0	 3.125000000000000e-01	 7.187499999999999e+00	 9.824680615384622e+00
0	 3.125000000000000e-01	 7.249999999999999e+00	 9.832037372307685e+00
0	 3.125000000000000e-01	 7.312499999999997e+00	 9.839497458461533e+00
0	 3.125000000000000e-01	 7.374999999999998e+00	 9.847060873846143e+00
0	 3.125000000000000e-01	 7.437499999999997e+00	 9.854727618461537e+00
0	 3.125000000000000e-01	 7.500000000000000e+00	 9.862497692307702e+00
0	 3.750000000000000e-01	 6.875000000000000e+00	 9.791267015384619e+00
0	 3.749999999999999e-01	 6.937499999999998e+00	 9.798032174153823e+00
0	 3.750000000000001e-01	 7.000000000000002e+00	 9.804899022769225e+00
0	 3.749999999999999e-01	 7.062499999999999e+00	 9.811867561230766e+00
0	 3.750000000000000e-01	 7.125000000000000e+00	 9.818937789538465e+00
0	 3.750000000000001e-01	 7.187500000000000e+00	 9.826109707692297e+00
0	 3.749999999999999e-01	 7.249999999999998e+00	 9.833383315692307e+00
0	 3.749999999999999e-01	 7.312499999999998e+00	 9.840758613538465e+00
0	 3.750000000000001e-01	 7.374999999999998e+00	 9.848235601230767e+00
0	 3.750000000000001e-01	 7.437500000000000e+00	 9.855814278769245e+00
0	 3.750000000000000e-01	 7.500000000000000e+00	 9.863494646153850e+00
0	 4.374999999999999e-01	 6.875000000000000e+00	 9.793530953846137e+00
0	 4.374999999999999e-01	 6.937499999999997e+00	 9.800208366769246e+00
0	 4.375000000000000e-01	 7.000000000000000e+00	 9.806985830153849e+00
0	 4.375000000000001e-01	 7.062500000000001e+00	 9.813863344000001e+00
0	 4.375000000000000e-01	 7.125000000000000e+00	 9.820840908307687e+00
0	 4.375000000000000e-01	 7.187499999999999e+00	 9.827918523076921e+00
0	 4.375000000000000e-01	 7.249999999999999e+00	 9.835096188307682e+00
0	 4.375000000000000e-01	 7.312499999999998e+00	 9.842373904000002e+00
0	 4.374999999999999e-01	 7.374999999999998e+00	 9.849751670153839e+00
0	 4.375000000000000e-01	 7.437499999999998e+00	 9.857229486769214e+00
0	 4.374999999999999e-01	 7.500000000000000e+00	 9.864807353846173e+00
0	 4.999999999999999e-01	 6.875000000000000e+00	 9.796238584615379e+00
0	 4.999999999999999e-01	 6.937499999999998e+00	 9.802815457846140e+00
0	 4.999999999999999e-01	 7.000000000000001e+00	 9.809490742153853e+00
0	 4.999999999999998e-01	 7.062499999999998e+00	 9.816264437538448e+00
0	 5.000000000000000e-01	 7.124999999999998e+00	 9.823136543999992e+00
0	 4.999999999999999e-01	 7.187499999999997e+00	 9.830107061538451e+00
0	 4.999999999999999e-01	 7.249999999999998e+00	 9.837175990153828e+00
0	 4.999999999999999e-01	 7.312499999999998e+00	 9.844343329846126e+00
0	 5.000000000000000e-01	 7.375000000000000e+00	 9.851609080615374e+00
0	 4.999999999999999e-01	 7.437499999999997e+00	 9.858973242461543e+00
0	 4.999999999999999e-01	 7.500000000000002e+00	 9.866435815384600e+00
0	 5.624999999999999e-01	 6.875000000000000e+00	 9.799389907692312e+00
0	 5.624999999999999e-01	 6.937500000000000e+00	 9.805853447384608e+00
0	 5.624999999999999e-01	 6.999999999999998e+00	 9.812413758769221e+00
0	 5.625000000000001e-01	 7.062500000000001e+00	 9.819070841846143e+00
0	 5.625000000000000e-01	 7.125000000000001e+00	 9.825824696615371e+00
0	 5.624999999999999e-01	 7.187499999999999e+00	 9.832675323076920e+00
0	 5.624999999999999e-01	 7.249999999999998e+00	 9.839622721230747e+00
0	 5.625000000000000e-01	 7.312499999999999e+00	 9.846666891076923e+00
0	 5.625000000000000e-01	 7.374999999999998e+00	 9.853807832615377e+00
0	 5.625000000000000e-01	 7.437499999999997e+00	 9.861045545846146e+00
0	 5.624999999999999e-01	 7.500000000000000e+00	 9.868380030769202e+00
0	 6.250000000000000e-01	 6.875000000000000e+00	 9.802984923076917e+00
0	 6.250000000000000e-01	 6.937500000000000e+00	 9.809322335384614e+00
0	 6.250000000000001e-01	 7.000000000000000e+00	 9.815754879999979e+00
0	 6.249999999999999e-01	 7.062500000000000e+00	 9.822282556923078e+00
0	 6.250000000000000e-01	 7.125000000000000e+00	 9.828905366153842e+00
0	 6.250000000000000e-01	 7.187499999999998e+00	 9.835623307692309e+00
0	 6.250000000000000e-01	 7.249999999999998e+00	 9.842436381538461e+00
0	 6.249999999999999e-01	 7.312499999999998e+00	 9.849344587692300e+00
0	 6.250000000000000e-01	 7.374999999999998e+00	 9.856347926153834e+00
0	 6.250000000000000e-01	 7.437499999999998e+00	 9.863446396923067e+00
0	 6.250000000000000e-01	 7.500000000000000e+00	 9.870639999999991e+00
0	 0.000000000000000e+00	 7.500000000000000e+00	 9.862249230769240e+00
0	 0.000000000000000e+00	 7.562500000000001e+00	 9.867428953846172e+00
0	 0.000000000000000e+00	 7.624999999999999e+00	 9.872726276923089e+00
0	 0.000000000000000e+00	 7.687499999999999e+00	 9.878141200000011e+00
0	 0.000000000000000e+00	 7.750000000000000e+00	 9.883673723076939e+00
0	 0.000000000000000e+00	 7.812499999999998e+00	 9.889323846153848e+00
0	 0.000000000000000e+00	 7.874999999999999e+00	 9.895091569230765e+00
0	 0.000000000000000e+00	 7.937499999999998e+00	 9.900976892307684e+00
0	 0.000000000000000e+00	 7.999999999999998e+00	 9.906979815384616e+00
0	 0.000000000000000e+00	 8.062499999999996e+00	 9.913100338461565e+00
0	 0.000000000000000e+00	 8.125000000000000e+00	 9.919338461538453e+00
0	 6.250000000000000e-02	 7.500000000000000e+00	 9.861667415384632e+00
0	 6.249999999999999e-02	 7.562500000000001e+00	 9.866875398769231e+00
0	 6.249999999999998e-02	 7.624999999999998e+00	 9.872199758153855e+00
0	 6.250000000000000e-02	 7.687499999999999e+00	 9.877640493538475e+00
0	 6.250000000000000e-02	 7.749999999999999e+00	 9.883197604923069e+00
0	 6.249999999999997e-02	 7.812499999999997e+00	 9.888871092307685e+00
0	 6.249999999999999e-02	 7.875000000000000e+00	 9.894660955692306e+00
0	 6.249999999999999e-02	 7.937499999999996e+00	 9.900567195076921e+00
0	 6.249999999999999e-02	 7.999999999999997e+00	 9.906589810461535e+00
0	 6.249999999999999e-02	 8.062499999999995e+00	 9.912728801846143e+00
0	 6.250000000000000e-02	 8.125000000000002e+00	 9.918984169230741e+00
0	 1.250000000000000e-01	 7.500000000000000e+00	 9.861401353846162e+00
0	 1.250000000000000e-01	 7.562499999999998e+00	 9.866625385230787e+00
0	 1.250000000000000e-01	 7.625000000000000e+00	 9.871964568615386e+00
0	 1.250000000000000e-01	 7.687500000000000e+00	 9.877418903999992e+00
0	 1.250000000000000e-01	 7.749999999999997e+00	 9.882988391384609e+00
0	 1.250000000000000e-01	 7.812499999999998e+00	 9.888673030769221e+00
0	 1.250000000000000e-01	 7.874999999999996e+00	 9.894472822153851e+00
0	 1.250000000000000e-01	 7.937499999999998e+00	 9.900387765538472e+00
0	 1.250000000000000e-01	 8.000000000000002e+00	 9.906417860923076e+00
0	 1.250000000000000e-01	 8.062499999999998e+00	 9.912563108307683e+00
0	 1.250000000000000e-01	 8.125000000000000e+00	 9.918823507692286e+00
0	 1.875000000000000e-01	 7.500000000000001e+00	 9.861451046153867e+00
0	 1.875000000000000e-01	 7.562499999999999e+00	 9.866678913230771e+00
0	 1.875000000000000e-01	 7.625000000000000e+00	 9.872020708307693e+00
0	 1.875000000000000e-01	 7.687499999999999e+00	 9.877476431384622e+00
0	 1.875000000000000e-01	 7.749999999999996e+00	 9.883046082461538e+00
0	 1.875000000000000e-01	 7.812499999999999e+00	 9.888729661538459e+00
0	 1.875000000000000e-01	 7.874999999999999e+00	 9.894527168615383e+00
0	 1.875000000000000e-01	 7.937499999999999e+00	 9.900438603692304e+00
0	 1.875000000000001e-01	 7.999999999999998e+00	 9.906463966769227e+00
0	 1.875000000000000e-01	 8.062499999999998e+00	 9.912603257846174e+00
0	 1.875000000000000e-01	 8.125000000000002e+00	 9.918856476923072e+00
0	 2.500000000000000e-01	 7.500000000000000e+00	 9.861816492307698e+00
0	 2.500000000000001e-01	 7.562500000000000e+00	 9.867035982769242e+00
0	 2.500000000000001e-01	 7.625000000000001e+00	 9.872368177230781e+00
0	 2.500000000000000e-01	 7.687499999999998e+00	 9.877813075692314e+00
0	 2.500000000000000e-01	 7.749999999999998e+00	 9.883370678153852e+00
0	 2.499999999999999e-01	 7.812499999999998e+00	 9.889040984615388e+00
0	 2.500000000000000e-01	 7.874999999999996e+00	 9.894823995076937e+00
0	 2.500000000000000e-01	 7.937499999999996e+00	 9.900719709538464e+00
0	 2.500000000000000e-01	 8.000000000000000e+00	 9.906728128000005e+00
0	 2.499999999999999e-01	 8.062499999999996e+00	 9.912849250461530e+00
0	 2.500000000000000e-01	 8.125000000000000e+00	 9.919083076923080e+00
0	 3.125000000000000e-01	 7.500000000000000e+00	 9.862497692307702e+00
0	 3.125000000000000e-01	 7.562499999999998e+00	 9.867696593846151e+00
0	 3.125000000000001e-01	 7.625000000000000e+00	 9.873006975384627e+00
0	 3.125000000000000e-01	 7.687499999999999e+00	 9.878428836923078e+00
0	 3.125000000000001e-01	 7.750000000000000e+00	 9.883962178461545e+00
0	 3.125000000000000e-01	 7.812499999999999e+00	 9.889607000000009e+00
0	 3.125000000000000e-01	 7.874999999999997e+00	 9.895363301538453e+00
0	 3.125000000000000e-01	 7.937499999999998e+00	 9.901231083076922e+00
0	 3.125000000000000e-01	 7.999999999999998e+00	 9.907210344615400e+00
0	 3.125000000000000e-01	 8.062499999999996e+00	 9.913301086153844e+00
0	 3.125000000000000e-01	 8.125000000000000e+00	 9.919503307692313e+00
0	 3.750000000000000e-01	 7.500000000000000e+00	 9.863494646153850e+00
0	 3.749999999999999e-01	 7.562499999999999e+00	 9.868660746461545e+00
0	 3.750000000000001e-01	 7.625000000000001e+00	 9.873937102769228e+00
0	 3.749999999999999e-01	 7.687499999999999e+00	 9.879323715076938e+00
0	 3.750000000000000e-01	 7.750000000000000e+00	 9.884820583384615e+00
0	 3.750000000000001e-01	 7.812500000000000e+00	 9.890427707692325e+00
0	 3.749999999999999e-01	 7.874999999999998e+00	 9.896145088000004e+00
0	 3.749999999999999e-01	 7.937499999999999e+00	 9.901972724307718e+00
0	 3.750000000000001e-01	 7.999999999999999e+00	 9.907910616615407e+00
0	 3.750000000000001e-01	 8.062500000000000e+00	 9.913958764923070e+00
0	 3.750000000000000e-01	 8.125000000000002e+00	 9.920117169230748e+00
0	 4.374999999999999e-01	 7.500000000000000e+00	 9.864807353846173e+00
0	 4.374999999999999e-01	 7.562499999999998e+00	 9.869928440615395e+00
0	 4.375000000000000e-01	 7.625000000000000e+00	 9.875158559384616e+00
0	 4.375000000000001e-01	 7.687499999999999e+00	 9.880497710153858e+00
0	 4.375000000000000e-01	 7.750000000000000e+00	 9.885945892923074e+00
0	 4.375000000000000e-01	 7.812500000000000e+00	 9.891503107692307e+00
0	 4.375000000000000e-01	 7.874999999999999e+00	 9.897169354461552e+00
0	 4.375000000000000e-01	 7.937499999999998e+00	 9.902944633230780e+00
0	 4.374999999999999e-01	 7.999999999999998e+00	 9.908828944000017e+00
0	 4.375000000000000e-01	 8.062499999999998e+00	 9.914822286769240e+00
0	 4.374999999999999e-01	 8.125000000000000e+00	 9.920924661538438e+00
0	 4.999999999999999e-01	 7.500000000000002e+00	 9.866435815384600e+00
0	 4.999999999999999e-01	 7.562499999999999e+00	 9.871499676307673e+00
0	 4.999999999999999e-01	 7.625000000000001e+00	 9.876671345230767e+00
0	 4.999999999999998e-01	 7.687499999999998e+00	 9.881950822153838e+00
0	 5.000000000000000e-01	 7.749999999999999e+00	 9.887338107076914e+00
0	 4.999999999999999e-01	 7.812499999999999e+00	 9.892833200000000e+00
0	 4.999999999999999e-01	 7.874999999999997e+00	 9.898436100923089e+00
0	 4.999999999999999e-01	 7.937499999999998e+00	 9.904146809846171e+00
0	 5.000000000000000e-01	 7.999999999999999e+00	 9.909965326769232e+00
0	 4.999999999999999e-01	 8.062499999999996e+00	 9.915891651692338e+00
0	 4.999999999999999e-01	 8.125000000000002e+00	 9.921925784615382e+00
0	 5.624999999999999e-01	 7.500000000000000e+00	 9.868380030769202e+00
0	 5.624999999999999e-01	 7.562500000000001e+00	 9.873374453538442e+00
0	 5.624999999999999e-01	 7.625000000000001e+00	 9.878475460307691e+00
0	 5.625000000000001e-01	 7.687500000000000e+00	 9.883683051076915e+00
0	 5.625000000000000e-01	 7.750000000000000e+00	 9.888997225846156e+00
0	 5.624999999999999e-01	 7.812499999999997e+00	 9.894417984615375e+00
0	 5.624999999999999e-01	 7.874999999999999e+00	 9.899945327384611e+00
0	 5.625000000000000e-01	 7.937499999999999e+00	 9.905579254153853e+00
0	 5.625000000000000e-01	 7.999999999999998e+00	 9.911319764923078e+00
0	 5.625000000000000e-01	 8.062499999999998e+00	 9.917166859692308e+00
0	 5.624999999999999e-01	 8.125000000000002e+00	 9.923120538461577e+00
0	 6.250000000000000e-01	 7.500000000000000e+00	 9.870639999999991e+00
0	 6.250000000000000e-01	 7.562500000000000e+00	 9.875552772307685e+00
0	 6.250000000000001e-01	 7.625000000000000e+00	 9.880570904615398e+00
0	 6.249999999999999e-01	 7.687499999999999e+00	 9.885694396923066e+00
0	 6.250000000000000e-01	 7.750000000000000e+00	 9.890923249230779e+00
0	 6.250000000000000e-01	 7.812499999999999e+00	 9.896257461538459e+00
0	 6.250000000000000e-01	 7.874999999999998e+00	 9.901697033846149e+00
0	 6.249999999999999e-01	 7.937499999999997e+00	 9.907241966153851e+00
0	 6.250000000000000e-01	 7.999999999999998e+00	 9.912892258461550e+00
0	 6.250000000000000e-01	 8.062499999999996e+00	 9.918647910769236e+00
0	 6.250000000000000e-01	 8.125000000000000e+00	 9.924508923076937e+00
0	 0.000000000000000e+00	 8.125000000000000e+00	 9.919338461538453e+00
0	 0.000000000000000e+00	 8.187500000000000e+00	 9.923110840000007e+00
0	 0.000000000000000e+00	 8.250000000000000e+00	 9.927020590769200e+00
0	 0.000000000000000e+00	 8.312499999999998e+00	 9.931067713846140e+00
0	 0.000000000000000e+00	 8.374999999999998e+00	 9.935252209230761e+00
0	 0.000000000000000e+00	 8.437500000000000e+00	 9.939574076923071e+00
0	 0.000000000000000e+00	 8.500000000000000e+00	 9.944033316923070e+00
0	 0.000000000000000e+00	 8.562500000000000e+00	 9.948629929230764e+00
0	 0.000000000000000e+00	 8.624999999999998e+00	 9.953363913846179e+00
0	 0.000000000000000e+00	 8.687499999999998e+00	 9.958235270769221e+00
0	 0.000000000000000e+00	 8.750000000000000e+00	 9.963243999999996e+00
0	 6.250000000000000e-02	 8.125000000000002e+00	 9.918984169230741e+00
0	 6.249999999999999e-02	 8.187500000000000e+00	 9.922757384769220e+00
0	 6.249999999999998e-02	 8.249999999999998e+00	 9.926667268307673e+00
0	 6.250000000000000e-02	 8.312499999999998e+00	 9.930713819846137e+00
0	 6.250000000000000e-02	 8.375000000000000e+00	 9.934897039384602e+00
0	 6.249999999999997e-02	 8.437499999999995e+00	 9.939216926923059e+00
0	 6.249999999999999e-02	 8.500000000000002e+00	 9.943673482461524e+00
0	 6.249999999999999e-02	 8.562499999999996e+00	 9.948266705999981e+00
0	 6.249999999999999e-02	 8.625000000000000e+00	 9.952996597538441e+00
0	 6.249999999999999e-02	 8.687499999999996e+00	 9.957863157076906e+00
0	 6.250000000000000e-02	 8.750000000000002e+00	 9.962866384615385e+00
0	 1.250000000000000e-01	 8.125000000000000e+00	 9.918823507692286e+00
0	 1.250000000000000e-01	 8.187499999999998e+00	 9.922591508000028e+00
0	 1.250000000000000e-01	 8.250000000000000e+00	 9.926495471999996e+00
0	 1.250000000000000e-01	 8.312500000000000e+00	 9.930535399692303e+00
0	 1.250000000000000e-01	 8.374999999999996e+00	 9.934711291076930e+00
0	 1.250000000000000e-01	 8.437500000000000e+00	 9.939023146153843e+00
0	 1.250000000000000e-01	 8.499999999999995e+00	 9.943470964923083e+00
0	 1.250000000000000e-01	 8.562500000000000e+00	 9.948054747384605e+00
0	 1.250000000000000e-01	 8.625000000000000e+00	 9.952774493538465e+00
0	 1.250000000000000e-01	 8.687499999999998e+00	 9.957630203384603e+00
0	 1.250000000000000e-01	 8.750000000000000e+00	 9.962621876923080e+00
0	 1.875000000000000e-01	 8.125000000000002e+00	 9.918856476923072e+00
0	 1.875000000000000e-01	 8.187500000000000e+00	 9.922613209692319e+00
0	 1.875000000000000e-01	 8.250000000000000e+00	 9.926505201846149e+00
0	 1.875000000000000e-01	 8.312500000000002e+00	 9.930532453384609e+00
0	 1.875000000000000e-01	 8.374999999999996e+00	 9.934694964307685e+00
0	 1.875000000000000e-01	 8.437500000000000e+00	 9.938992734615383e+00
0	 1.875000000000000e-01	 8.499999999999998e+00	 9.943425764307687e+00
0	 1.875000000000000e-01	 8.562500000000000e+00	 9.947994053384617e+00
0	 1.875000000000001e-01	 8.625000000000000e+00	 9.952697601846150e+00
0	 1.875000000000000e-01	 8.687499999999998e+00	 9.957536409692318e+00
0	 1.875000000000000e-01	 8.750000000000000e+00	 9.962510476923079e+00
0	 2.500000000000000e-01	 8.125000000000000e+00	 9.919083076923080e+00
0	 2.500000000000001e-01	 8.187499999999998e+00	 9.922822489846144e+00
0	 2.500000000000001e-01	 8.250000000000002e+00	 9.926696457846145e+00
0	 2.500000000000000e-01	 8.312500000000000e+00	 9.930704980923068e+00
0	 2.500000000000000e-01	 8.374999999999998e+00	 9.934848059076920e+00
0	 2.499999999999999e-01	 8.437499999999998e+00	 9.939125692307691e+00
0	 2.500000000000000e-01	 8.499999999999998e+00	 9.943537880615377e+00
0	 2.500000000000000e-01	 8.562499999999996e+00	 9.948084623999996e+00
0	 2.500000000000000e-01	 8.624999999999998e+00	 9.952765922461525e+00
0	 2.499999999999999e-01	 8.687499999999996e+00	 9.957581775999993e+00
0	 2.500000000000000e-01	 8.750000000000002e+00	 9.962532184615382e+00
0	 3.125000000000000e-01	 8.125000000000000e+00	 9.919503307692313e+00
0	 3.125000000000000e-01	 8.187499999999996e+00	 9.923219348461547e+00
0	 3.125000000000001e-01	 8.250000000000002e+00	 9.927069239999994e+00
0	 3.125000000000000e-01	 8.312499999999998e+00	 9.931052982307692e+00
0	 3.125000000000001e-01	 8.375000000000000e+00	 9.935170575384618e+00
0	 3.125000000000000e-01	 8.437499999999998e+00	 9.939422019230776e+00
0	 3.125000000000000e-01	 8.500000000000000e+00	 9.943807313846150e+00
0	 3.125000000000000e-01	 8.562499999999996e+00	 9.948326459230763e+00
0	 3.125000000000000e-01	 8.624999999999998e+00	 9.952979455384614e+00
0	 3.125000000000000e-01	 8.687499999999998e+00	 9.957766302307679e+00
0	 3.125000000000000e-01	 8.750000000000000e+00	 9.962686999999990e+00
0	 3.750000000000000e-01	 8.125000000000002e+00	 9.920117169230748e+00
0	 3.749999999999999e-01	 8.187500000000000e+00	 9.923803785538489e+00
0	 3.750000000000001e-01	 8.250000000000000e+00	 9.927623548307700e+00
0	 3.749999999999999e-01	 8.312500000000000e+00	 9.931576457538458e+00
0	 3.750000000000000e-01	 8.375000000000002e+00	 9.935662513230774e+00
0	 3.750000000000001e-01	 8.437500000000002e+00	 9.939881715384617e+00
0	 3.749999999999999e-01	 8.499999999999998e+00	 9.944234064000007e+00
0	 3.749999999999999e-01	 8.562500000000000e+00	 9.948719559076920e+00
0	 3.750000000000001e-01	 8.625000000000000e+00	 9.953338200615361e+00
0	 3.750000000000001e-01	 8.687499999999998e+00	 9.958089988615358e+00
0	 3.750000000000000e-01	 8.750000000000002e+00	 9.962974923076919e+00
0	 4.374999999999999e-01	 8.125000000000000e+00	 9.920924661538438e+00
0	 4.374999999999999e-01	 8.187499999999998e+00	 9.924575801076926e+00
0	 4.375000000000000e-01	 8.249999999999998e+00	 9.928359382769219e+00
0	 4.375000000000001e-01	 8.312500000000002e+00	 9.932275406615394e+00
0	 4.375000000000000e-01	 8.375000000000000e+00	 9.936323872615391e+00
0	 4.375000000000000e-01	 8.437499999999998e+00	 9.940504780769233e+00
0	 4.375000000000000e-01	 8.500000000000000e+00	 9.944818131076913e+00
0	 4.375000000000000e-01	 8.562499999999998e+00	 9.949263923538455e+00
0	 4.374999999999999e-01	 8.624999999999998e+00	 9.953842158153863e+00
0	 4.375000000000000e-01	 8.687499999999998e+00	 9.958552834923063e+00
0	 4.374999999999999e-01	 8.750000000000000e+00	 9.963395953846122e+00
0	 4.999999999999999e-01	 8.125000000000002e+00	 9.921925784615382e+00
0	 4.999999999999999e-01	 8.187500000000000e+00	 9.925535395076935e+00
0	 4.999999999999999e-01	 8.250000000000002e+00	 9.929276743384635e+00
0	 4.999999999999998e-01	 8.312499999999998e+00	 9.933149829538472e+00
0	 5.000000000000000e-01	 8.374999999999998e+00	 9.937154653538485e+00
0	 4.999999999999999e-01	 8.437499999999998e+00	 9.941291215384620e+00
0	 4.999999999999999e-01	 8.499999999999998e+00	 9.945559515076921e+00
0	 4.999999999999999e-01	 8.562499999999998e+00	 9.949959552615386e+00
0	 5.000000000000000e-01	 8.625000000000000e+00	 9.954491327999996e+00
0	 4.999999999999999e-01	 8.687499999999998e+00	 9.959154841230758e+00
0	 4.999999999999999e-01	 8.750000000000000e+00	 9.963950092307691e+00
0	 5.624999999999999e-01	 8.125000000000002e+00	 9.923120538461577e+00
0	 5.624999999999999e-01	 8.187500000000000e+00	 9.926682567538480e+00
0	 5.624999999999999e-01	 8.250000000000000e+00	 9.930375630153849e+00
0	 5.625000000000001e-01	 8.312500000000000e+00	 9.934199726307698e+00
0	 5.625000000000000e-01	 8.375000000000000e+00	 9.938154855999997e+00
0	 5.624999999999999e-01	 8.437499999999998e+00	 9.942241019230764e+00
0	 5.624999999999999e-01	 8.499999999999998e+00	 9.946458216000000e+00
0	 5.625000000000000e-01	 8.562499999999998e+00	 9.950806446307691e+00
0	 5.625000000000000e-01	 8.624999999999998e+00	 9.955285710153852e+00
0	 5.625000000000000e-01	 8.687499999999996e+00	 9.959896007538479e+00
0	 5.624999999999999e-01	 8.750000000000000e+00	 9.964637338461531e+00
0	 6.250000000000000e-01	 8.125000000000000e+00	 9.924508923076937e+00
0	 6.250000000000000e-01	 8.187500000000000e+00	 9.928017318461546e+00
0	 6.250000000000001e-01	 8.250000000000002e+00	 9.931656043076913e+00
0	 6.249999999999999e-01	 8.312500000000000e+00	 9.935425096923094e+00
0	 6.250000000000000e-01	 8.374999999999998e+00	 9.939324479999996e+00
0	 6.250000000000000e-01	 8.437500000000000e+00	 9.943354192307694e+00
0	 6.250000000000000e-01	 8.500000000000000e+00	 9.947514233846160e+00
0	 6.249999999999999e-01	 8.562499999999998e+00	 9.951804604615379e+00
0	 6.250000000000000e-01	 8.625000000000000e+00	 9.956225304615380e+00
0	 6.250000000000000e-01	 8.687499999999998e+00	 9.960776333846106e+00
0	 6.250000000000000e-01	 8.750000000000000e+00	 9.965457692307684e+00
0	 0.000000000000000e+00	 8.750000000000000e+00	 9.963243999999996e+00
0	 0.000000000000000e+00	 8.812500000000002e+00	 9.965406815384624e+00
0	 0.000000000000000e+00	 8.875000000000000e+00	 9.967753969230760e+00
0	 0.000000000000000e+00	 8.937499999999998e+00	 9.970285461538435e+00
0	 0.000000000000000e+00	 9.000000000000000e+00	 9.973001292307698e+00
0	 0.000000000000000e+00	 9.062499999999998e+00	 9.975901461538434e+00
0	 0.000000000000000e+00	 9.124999999999998e+00	 9.978985969230738e+00
0	 0.000000000000000e+00	 9.187500000000000e+00	 9.982254815384598e+00
0	 0.000000000000000e+00	 9.249999999999998e+00	 9.985707999999986e+00
0	 0.000000000000000e+00	 9.312499999999998e+00	 9.989345523076860e+00
0	 0.000000000000000e+00	 9.375000000000000e+00	 9.993167384615367e+00
0	 6.250000000000000e-02	 8.750000000000002e+00	 9.962866384615385e+00
0	 6.249999999999999e-02	 8.812499999999998e+00	 9.965029902769233e+00
0	 6.249999999999998e-02	 8.875000000000000e+00	 9.967376527999996e+00
0	 6.250000000000000e-02	 8.937499999999998e+00	 9.969906260307685e+00
0	 6.250000000000000e-02	 8.999999999999996e+00	 9.972619099692306e+00
0	 6.249999999999997e-02	 9.062499999999996e+00	 9.975515046153841e+00
0	 6.249999999999999e-02	 9.124999999999996e+00	 9.978594099692298e+00
0	 6.249999999999999e-02	 9.187499999999996e+00	 9.981856260307669e+00
0	 6.249999999999999e-02	 9.249999999999998e+00	 9.985301528000019e+00
0	 6.249999999999999e-02	 9.312499999999996e+00	 9.988929902769202e+00
0	 6.250000000000000e-02	 9.375000000000000e+00	 9.992741384615378e+00
0	 1.250000000000000e-01	 8.750000000000000e+00	 9.962621876923080e+00
0	 1.250000000000000e-01	 8.812500000000000e+00	 9.964783190153842e+00
0	 1.250000000000000e-01	 8.875000000000000e+00	 9.967126379076905e+00
0	 1.250000000000000e-01	 8.937499999999998e+00	 9.969651443692303e+00
0	 1.250000000000000e-01	 8.999999999999996e+00	 9.972358383999993e+00
0	 1.250000000000000e-01	 9.062499999999998e+00	 9.975247199999993e+00
0	 1.250000000000000e-01	 9.124999999999998e+00	 9.978317891692296e+00
0	 1.250000000000000e-01	 9.187499999999996e+00	 9.981570459076909e+00
0	 1.250000000000000e-01	 9.250000000000000e+00	 9.985004902153845e+00
0	 1.250000000000000e-01	 9.312499999999998e+00	 9.988621220923086e+00
0	 1.250000000000000e-01	 9.375000000000000e+00	 9.992419415384621e+00
0	 1.875000000000000e-01	 8.750000000000000e+00	 9.962510476923079e+00
0	 1.875000000000000e-01	 8.812500000000000e+00	 9.964666677538460e+00
0	 1.875000000000000e-01	 8.875000000000000e+00	 9.967003522461523e+00
0	 1.875000000000000e-01	 8.937499999999998e+00	 9.969521011692299e+00
0	 1.875000000000000e-01	 8.999999999999996e+00	 9.972219145230756e+00
0	 1.875000000000000e-01	 9.062500000000002e+00	 9.975097923076900e+00
0	 1.875000000000000e-01	 9.124999999999998e+00	 9.978157345230766e+00
0	 1.875000000000000e-01	 9.187500000000000e+00	 9.981397411692306e+00
0	 1.875000000000001e-01	 9.249999999999998e+00	 9.984818122461512e+00
0	 1.875000000000000e-01	 9.312499999999998e+00	 9.988419477538443e+00
0	 1.875000000000000e-01	 9.375000000000002e+00	 9.992201476923078e+00
0	 2.500000000000000e-01	 8.750000000000002e+00	 9.962532184615382e+00
0	 2.500000000000001e-01	 8.812500000000000e+00	 9.964680364923094e+00
0	 2.500000000000001e-01	 8.875000000000002e+00	 9.967007958153841e+00
0	 2.500000000000000e-01	 8.937500000000000e+00	 9.969514964307702e+00
0	 2.500000000000000e-01	 9.000000000000000e+00	 9.972201383384615e+00
0	 2.499999999999999e-01	 9.062499999999996e+00	 9.975067215384627e+00
0	 2.500000000000000e-01	 9.124999999999995e+00	 9.978112460307690e+00
0	 2.500000000000000e-01	 9.187499999999998e+00	 9.981337118153853e+00
0	 2.500000000000000e-01	 9.249999999999998e+00	 9.984741188923074e+00
0	 2.499999999999999e-01	 9.312499999999996e+00	 9.988324672615386e+00
0	 2.500000000000000e-01	 9.375000000000000e+00	 9.992087569230765e+00
0	 3.125000000000000e-01	 8.750000000000000e+00	 9.962686999999990e+00
0	 3.125000000000000e-01	 8.812499999999998e+00	 9.964824252307686e+00
0	 3.125000000000001e-01	 8.875000000000002e+00	 9.967139686153848e+00
0	 3.125000000000000e-01	 8.937500000000000e+00	 9.969633301538460e+00
0	 3.125000000000001e-01	 9.000000000000002e+00	 9.972305098461534e+00
0	 3.125000000000000e-01	 9.062499999999998e+00	 9.975155076923063e+00
0	 3.125000000000000e-01	 9.124999999999998e+00	 9.978183236923069e+00
0	 3.125000000000000e-01	 9.187499999999996e+00	 9.981389578461549e+00
0	 3.125000000000000e-01	 9.249999999999998e+00	 9.984774101538465e+00
0	 3.125000000000000e-01	 9.312499999999998e+00	 9.988336806153841e+00
0	 3.125000000000000e-01	 9.375000000000000e+00	 9.992077692307694e+00
0	 3.750000000000000e-01	 8.750000000000002e+00	 9.962974923076919e+00
0	 3.749999999999999e-01	 8.812500000000000e+00	 9.965098339692316e+00
0	 3.750000000000001e-01	 8.875000000000000e+00	 9.967398706461516e+00
0	 3.749999999999999e-01	 8.937499999999998e+00	 9.969876023384604e+00
0	 3.750000000000000e-01	 9.000000000000000e+00	 9.972530290461533e+00
0	 3.750000000000001e-01	 9.062500000000000e+00	 9.975361507692305e+00
0	 3.749999999999999e-01	 9.124999999999998e+00	 9.978369675076948e+00
0	 3.749999999999999e-01	 9.187500000000000e+00	 9.981554792615375e+00
0	 3.750000000000001e-01	 9.249999999999998e+00	 9.984916860307687e+00
0	 3.750000000000001e-01	 9.312499999999998e+00	 9.988455878153866e+00
0	 3.750000000000000e-01	 9.375000000000000e+00	 9.992171846153846e+00
0	 4.374999999999999e-01	 8.750000000000000e+00	 9.963395953846122e+00
0	 4.374999999999999e-01	 8.812499999999998e+00	 9.965502627076903e+00
0	 4.375000000000000e-01	 8.875000000000000e+00	 9.967785019076901e+00
0	 4.375000000000001e-01	 8.937500000000000e+00	 9.970243129846148e+00
0	 4.375000000000000e-01	 9.000000000000000e+00	 9.972876959384614e+00
0	 4.375000000000000e-01	 9.062499999999998e+00	 9.975686507692314e+00
0	 4.375000000000000e-01	 9.125000000000000e+00	 9.978671774769225e+00
0	 4.375000000000000e-01	 9.187499999999996e+00	 9.981832760615360e+00
0	 4.374999999999999e-01	 9.249999999999998e+00	 9.985169465230772e+00
0	 4.375000000000000e-01	 9.312499999999998e+00	 9.988681888615378e+00
0	 4.374999999999999e-01	 9.375000000000000e+00	 9.992370030769242e+00
0	 4.999999999999999e-01	 8.750000000000000e+00	 9.963950092307691e+00
0	 4.999999999999999e-01	 8.812499999999998e+00	 9.966037114461512e+00
0	 4.999999999999999e-01	 8.875000000000000e+00	 9.968298623999987e+00
0	 4.999999999999998e-01	 8.937499999999998e+00	 9.970734620923073e+00
0	 5.000000000000000e-01	 8.999999999999998e+00	 9.973345105230765e+00
0	 4.999999999999999e-01	 9.062499999999998e+00	 9.976130076923090e+00
0	 4.999999999999999e-01	 9.124999999999998e+00	 9.979089535999988e+00
0	 4.999999999999999e-01	 9.187499999999998e+00	 9.982223482461560e+00
0	 5.000000000000000e-01	 9.249999999999998e+00	 9.985531916307684e+00
0	 4.999999999999999e-01	 9.312499999999996e+00	 9.989014837538477e+00
0	 4.999999999999999e-01	 9.375000000000000e+00	 9.992672246153846e+00
0	 5.624999999999999e-01	 8.750000000000000e+00	 9.964637338461531e+00
0	 5.624999999999999e-01	 8.812500000000000e+00	 9.966701801846146e+00
0	 5.624999999999999e-01	 8.875000000000000e+00	 9.968939521230759e+00
0	 5.625000000000001e-01	 8.937500000000002e+00	 9.971350496615372e+00
0	 5.625000000000000e-01	 8.999999999999998e+00	 9.973934728000001e+00
0	 5.624999999999999e-01	 9.062499999999998e+00	 9.976692215384617e+00
0	 5.624999999999999e-01	 9.125000000000000e+00	 9.979622958769237e+00
0	 5.625000000000000e-01	 9.187500000000000e+00	 9.982726958153833e+00
0	 5.625000000000000e-01	 9.250000000000000e+00	 9.986004213538466e+00
0	 5.625000000000000e-01	 9.312499999999998e+00	 9.989454724923089e+00
0	 5.624999999999999e-01	 9.375000000000000e+00	 9.993078492307728e+00
0	 6.250000000000000e-01	 8.750000000000000e+00	 9.965457692307684e+00
0	 6.250000000000000e-01	 8.812500000000000e+00	 9.967496689230764e+00
0	 6.250000000000001e-01	 8.875000000000002e+00	 9.969707710769246e+00
0	 6.249999999999999e-01	 8.937499999999998e+00	 9.972090756923075e+00
0	 6.250000000000000e-01	 9.000000000000000e+00	 9.974645827692308e+00
0	 6.250000000000000e-01	 9.062500000000000e+00	 9.977372923076906e+00
0	 6.250000000000000e-01	 9.124999999999998e+00	 9.980272043076909e+00
0	 6.249999999999999e-01	 9.187499999999998e+00	 9.983343187692306e+00
0	 6.250000000000000e-01	 9.249999999999998e+00	 9.986586356923095e+00
0	 6.250000000000000e-01	 9.312499999999998e+00	 9.990001550769234e+00
0	 6.250000000000000e-01	 9.375000000000000e+00	 9.993588769230778e+00
0	 0.000000000000000e+00	 9.375000000000000e+00	 9.993167384615367e+00
0	 0.000000000000000e+00	 9.437500000000002e+00	 9.993171747692287e+00
0	 0.000000000000000e+00	 9.500000000000000e+00	 9.993438006153832e+00
0	 0.000000000000000e+00	 9.562499999999998e+00	 9.993966160000005e+00
0	 0.000000000000000e+00	 9.625000000000000e+00	 9.994756209230763e+00
0	 0.000000000000000e+00	 9.687500000000000e+00	 9.995808153846196e+00
0	 0.000000000000000e+00	 9.749999999999998e+00	 9.997121993846186e+00
0	 0.000000000000000e+00	 9.812499999999998e+00	 9.998697729230820e+00
0	 0.000000000000000e+00	 9.874999999999998e+00	 1.000053536000001e+01
0	 0.000000000000000e+00	 9.937499999999998e+00	 1.000263488615387e+01
0	 0.000000000000000e+00	 1.000000000000000e+01	 1.000499630769235e+01
0	 6.250000000000000e-02	 9.375000000000000e+00	 9.992741384615378e+00
0	 6.250000000000000e-02	 9.437500000000000e+00	 9.992745259538447e+00
0	 6.249999999999997e-02	 9.499999999999998e+00	 9.993009515076917e+00
0	 6.249999999999999e-02	 9.562500000000000e+00	 9.993534151230760e+00
0	 6.250000000000000e-02	 9.625000000000000e+00	 9.994319168000002e+00
0	 6.249999999999999e-02	 9.687499999999996e+00	 9.995364565384669e+00
0	 6.250000000000000e-02	 9.749999999999998e+00	 9.996670343384642e+00
0	 6.250000000000000e-02	 9.812500000000000e+00	 9.998236502000054e+00
0	 6.250000000000000e-02	 9.874999999999998e+00	 1.000006304123083e+01
0	 6.249999999999999e-02	 9.937499999999996e+00	 1.000214996107694e+01
0	 6.250000000000000e-02	 1.000000000000000e+01	 1.000449726153843e+01
0	 1.250000000000000e-01	 9.375000000000000e+00	 9.992419415384621e+00
0	 1.250000000000000e-01	 9.437499999999998e+00	 9.992423469846139e+00
0	 1.250000000000000e-01	 9.499999999999998e+00	 9.992686390153843e+00
0	 1.250000000000000e-01	 9.562500000000002e+00	 9.993208176307691e+00
0	 1.250000000000000e-01	 9.624999999999998e+00	 9.993988828307691e+00
0	 1.250000000000000e-01	 9.687500000000000e+00	 9.995028346153854e+00
0	 1.250000000000000e-01	 9.749999999999998e+00	 9.996326729846141e+00
0	 1.250000000000000e-01	 9.812499999999998e+00	 9.997883979384641e+00
0	 1.250000000000000e-01	 9.875000000000000e+00	 9.999700094769210e+00
0	 1.250000000000000e-01	 9.937499999999998e+00	 1.000177507600002e+01
0	 1.250000000000000e-01	 1.000000000000000e+01	 1.000410892307694e+01
0	 1.875000000000000e-01	 9.375000000000002e+00	 9.992201476923078e+00
0	 1.875000000000000e-01	 9.437500000000000e+00	 9.992206378615405e+00
0	 1.875000000000000e-01	 9.499999999999998e+00	 9.992468631384629e+00
0	 1.875000000000000e-01	 9.562499999999998e+00	 9.992988235230783e+00
0	 1.875000000000000e-01	 9.624999999999998e+00	 9.993765190153841e+00
0	 1.875000000000001e-01	 9.687500000000000e+00	 9.994799496153874e+00
0	 1.875000000000000e-01	 9.749999999999998e+00	 9.996091153230784e+00
0	 1.875000000000001e-01	 9.812499999999996e+00	 9.997640161384647e+00
0	 1.875000000000001e-01	 9.875000000000000e+00	 9.999446520615436e+00
0	 1.875000000000000e-01	 9.937499999999998e+00	 1.000151023092312e+01
0	 1.875000000000000e-01	 1.000000000000000e+01	 1.000383129230772e+01
0	 2.500000000000000e-01	 9.375000000000000e+00	 9.992087569230765e+00
0	 2.500000000000000e-01	 9.437499999999998e+00	 9.992093985846148e+00
0	 2.500000000000000e-01	 9.500000000000000e+00	 9.992356238769235e+00
0	 2.500000000000000e-01	 9.562499999999998e+00	 9.992874328000017e+00
0	 2.500000000000000e-01	 9.624999999999998e+00	 9.993648253538485e+00
0	 2.500000000000000e-01	 9.687500000000000e+00	 9.994678015384649e+00
0	 2.500000000000000e-01	 9.749999999999998e+00	 9.995963613538468e+00
0	 2.500000000000001e-01	 9.812500000000002e+00	 9.997505048000011e+00
0	 2.500000000000000e-01	 9.874999999999996e+00	 9.999302318769296e+00
0	 2.499999999999999e-01	 9.937499999999996e+00	 1.000135542584614e+01
0	 2.500000000000000e-01	 1.000000000000000e+01	 1.000366436923079e+01
0	 3.125000000000000e-01	 9.375000000000000e+00	 9.992077692307694e+00
0	 3.125000000000000e-01	 9.437500000000000e+00	 9.992086291538458e+00
0	 3.125000000000001e-01	 9.500000000000000e+00	 9.992349212307705e+00
0	 3.125000000000000e-01	 9.562500000000000e+00	 9.992866454615394e+00
0	 3.125000000000001e-01	 9.625000000000000e+00	 9.993638018461549e+00
0	 3.125000000000000e-01	 9.687500000000002e+00	 9.994663903846179e+00
0	 3.125000000000000e-01	 9.750000000000000e+00	 9.995944110769249e+00
0	 3.125000000000000e-01	 9.812500000000000e+00	 9.997478639230778e+00
0	 3.125000000000000e-01	 9.874999999999996e+00	 9.999267489230785e+00
0	 3.125000000000000e-01	 9.937499999999998e+00	 1.000131066076920e+01
0	 3.125000000000000e-01	 1.000000000000000e+01	 1.000360815384617e+01
0	 3.750000000000000e-01	 9.375000000000000e+00	 9.992171846153846e+00
0	 3.750000000000001e-01	 9.437500000000000e+00	 9.992183295692318e+00
0	 3.750000000000000e-01	 9.500000000000000e+00	 9.992447552000005e+00
0	 3.750000000000001e-01	 9.562500000000000e+00	 9.992964615076943e+00
0	 3.750000000000000e-01	 9.625000000000000e+00	 9.993734484923095e+00
0	 3.750000000000000e-01	 9.687500000000000e+00	 9.994757161538471e+00
0	 3.750000000000000e-01	 9.750000000000000e+00	 9.996032644923083e+00
0	 3.750000000000000e-01	 9.812500000000000e+00	 9.997560935076940e+00
0	 3.750000000000001e-01	 9.874999999999998e+00	 9.999342032000049e+00
0	 3.750000000000000e-01	 9.937499999999998e+00	 1.000137593569234e+01
0	 3.750000000000000e-01	 1.000000000000000e+01	 1.000366264615388e+01
0	 4.374999999999999e-01	 9.375000000000000e+00	 9.992370030769242e+00
0	 4.375000000000000e-01	 9.437500000000002e+00	 9.992384998307713e+00
0	 4.375000000000000e-01	 9.500000000000000e+00	 9.992651257846155e+00
0	 4.375000000000000e-01	 9.562500000000000e+00	 9.993168809384596e+00
0	 4.374999999999999e-01	 9.624999999999998e+00	 9.993937652923091e+00
0	 4.374999999999999e-01	 9.687499999999998e+00	 9.994957788461528e+00
0	 4.375000000000000e-01	 9.750000000000000e+00	 9.996229216000026e+00
0	 4.375000000000000e-01	 9.812499999999998e+00	 9.997751935538476e+00
0	 4.375000000000000e-01	 9.875000000000000e+00	 9.999525947076931e+00
0	 4.375000000000000e-01	 9.937499999999998e+00	 1.000155125061536e+01
0	 4.375000000000000e-01	 1.000000000000000e+01	 1.000382784615382e+01
0	 4.999999999999999e-01	 9.375000000000000e+00	 9.992672246153846e+00
0	 5.000000000000000e-01	 9.437500000000002e+00	 9.992691399384608e+00
0	 4.999999999999999e-01	 9.500000000000000e+00	 9.992960329846168e+00
0	 4.999999999999999e-01	 9.562500000000002e+00	 9.993479037538474e+00
0	 4.999999999999999e-01	 9.625000000000000e+00	 9.994247522461524e+00
0	 4.999999999999999e-01	 9.687499999999996e+00	 9.995265784615402e+00
0	 5.000000000000000e-01	 9.750000000000002e+00	 9.996533823999991e+00
0	 5.000000000000000e-01	 9.812500000000000e+00	 9.998051640615454e+00
0	 5.000000000000000e-01	 9.875000000000000e+00	 9.999819234461553e+00
0	 4.999999999999999e-01	 9.937499999999998e+00	 1.000183660553850e+01
0	 5.000000000000000e-01	 1.000000000000000e+01	 1.000410375384614e+01
0	 5.624999999999999e-01	 9.375000000000000e+00	 9.993078492307728e+00
0	 5.625000000000000e-01	 9.437500000000002e+00	 9.993102498923079e+00
0	 5.625000000000001e-01	 9.500000000000002e+00	 9.993374768000010e+00
0	 5.625000000000000e-01	 9.562500000000000e+00	 9.993895299538469e+00
0	 5.624999999999999e-01	 9.625000000000000e+00	 9.994664093538468e+00
0	 5.624999999999999e-01	 9.687499999999998e+00	 9.995681150000010e+00
0	 5.624999999999999e-01	 9.749999999999998e+00	 9.996946468923083e+00
0	 5.625000000000000e-01	 9.812499999999998e+00	 9.998460050307708e+00
0	 5.625000000000000e-01	 9.874999999999998e+00	 1.000022189415387e+01
0	 5.625000000000000e-01	 9.937500000000000e+00	 1.000223200046151e+01
0	 5.624999999999999e-01	 1.000000000000000e+01	 1.000449036923080e+01
0	 6.250000000000000e-01	 9.375000000000000e+00	 9.993588769230778e+00
0	 6.250000000000000e-01	 9.437499999999998e+00	 9.993618296923088e+00
0	 6.249999999999999e-01	 9.500000000000000e+00	 9.993894572307703e+00
0	 6.250000000000000e-01	 9.562500000000000e+00	 9.994417595384611e+00
0	 6.250000000000001e-01	 9.625000000000000e+00	 9.995187366153848e+00
0	 6.250000000000000e-01	 9.687499999999998e+00	 9.996203884615410e+00
0	 6.250000000000000e-01	 9.749999999999998e+00	 9.997467150769202e+00
0	 6.250000000000000e-01	 9.812500000000000e+00	 9.998977164615377e+00
0	 6.250000000000001e-01	 9.875000000000000e+00	 1.000073392615386e+01
0	 6.250000000000000e-01	 9.937499999999998e+00	 1.000273743538460e+01
0	 6.250000000000000e-01	 1.000000000000000e+01	 1.000498769230769e+01
0	 6.250000000000000e-01	 0.000000000000000e+00	 3.700840987384615e+00
0	 6.250000000000000e-01	 6.250000000000000e-02	 3.381976723196923e+00
0	 6.250000000000000e-01	 1.250000000000000e-01	 3.038572595126154e+00
0	 6.250000000000000e-01	 1.875000000000000e-01	 2.670628603172308e+00
0	 6.249999999999999e-01	 2.500000000000000e-01	 2.278144747335385e+00
0	 6.250000000000000e-01	 3.125000000000000e-01	 1.861121027615384e+00
0	 6.249999999999999e-01	 3.750000000000000e-01	 1.419557444012308e+00
0	 6.250000000000001e-01	 4.374999999999999e-01	 9.534539965261535e-01
0	 6.250000000000000e-01	 5.000000000000000e-01	 4.628106851569235e-01
0	 6.250000000000000e-01	 5.624999999999999e-01	-5.237249009538414e-02
0	 6.250000000000000e-01	 6.250000000000000e-01	-5.920955292307692e-01
0	 6.875000000000000e-01	 0.000000000000000e+00	 2.252414145599999e+00
0	 6.875000000000000e-01	 6.250000000000000e-02	 2.098689575945229e+00
0	 6.874999999999999e-01	 1.250000000000000e-01	 1.934550054082461e+00
0	 6.875000000000000e-01	 1.875000000000000e-01	 1.759995580011691e+00
0	 6.875000000000001e-01	 2.500000000000001e-01	 1.575026153732923e+00
0	 6.875000000000001e-01	 3.125000000000001e-01	 1.379641775246154e+00
0	 6.875000000000000e-01	 3.749999999999999e-01	 1.173842444551385e+00
0	 6.875000000000002e-01	 4.375000000000000e-01	 9.576281616486157e-01
0	 6.875000000000001e-01	 5.000000000000000e-01	 7.309989265378464e-01
0	 6.875000000000001e-01	 5.624999999999999e-01	 4.939547392190773e-01
0	 6.875000000000000e-01	 6.249999999999999e-01	 2.464955996923084e-01
0	 7.500000000000002e-01	 0.000000000000000e+00	 9.923665136615355e-01
0	 7.500000000000001e-01	 6.250000000000000e-02	 9.808925422935372e-01
0	 7.500000000000000e-01	 1.250000000000000e-01	 9.731285303926136e-01
0	 7.500000000000002e-01	 1.875000000000000e-01	 9.690744779587681e-01
0	 7.500000000000002e-01	 2.500000000000001e-01	 9.687303849919988e-01
0	 7.500000000000002e-01	 3.125000000000000e-01	 9.720962514923068e-01
0	 7.500000000000000e-01	 3.749999999999999e-01	 9.791720774596917e-01
0	 7.500000000000001e-01	 4.375000000000000e-01	 9.899578628941530e-01
0	 7.500000000000000e-01	 4.999999999999999e-01	 1.004453607795693e+00
0	 7.500000000000002e-01	 5.625000000000001e-01	 1.022659312164308e+00
0	 7.500000000000001e-01	 6.250000000000001e-01	 1.044574976000001e+00
0	 8.125000000000002e-01	 0.000000000000000e+00	-7.930190843077223e-02
0	 8.125000000000002e-01	 6.250000000000000e-02	 2.858562224184413e-02
0	 8.125000000000003e-01	 1.250000000000000e-01	 1.543080240566135e-01
0	 8.125000000000001e-01	 1.875000000000001e-01	 2.978652970135363e-01
0	 8.125000000000002e-01	 2.500000000000001e-01	 4.592574411126131e-01
0	 8.125000000000002e-01	 3.125000000000000e-01	 6.384844563538454e-01
0	 8.125000000000001e-01	 3.750000000000000e-01	 8.355463427372314e-01
0	 8.125000000000001e-01	 4.374999999999999e-01	 1.050443100262770e+00
0	 8.125000000000002e-01	 4.999999999999999e-01	 1.283174728930460e+00
0	 8.125000000000003e-01	 5.625000000000000e-01	 1.533741228740308e+00
0	 8.125000000000002e-01	 6.249999999999999e-01	 1.802142599692309e+00
0	 8.750000000000002e-01	 0.000000000000000e+00	-9.625911206769258e-01
0	 8.750000000000001e-01	 6.249999999999999e-02	-7.582311842098490e-01
0	 8.750000000000002e-01	 1.250000000000000e-01	-5.219114649255410e-01
0	 8.750000000000002e-01	 1.875000000000000e-01	-2.536319628240027e-01
0	 8.750000000000001e-01	 2.500000000000000e-01	 4.660732209476848e-02
0	 8.750000000000001e-01	 3.125000000000000e-01	 3.788063898307672e-01
0	 8.750000000000004e-01	 3.750000000000001e-01	 7.429652403839979e-01
0	 8.750000000000002e-01	 4.375000000000000e-01	 1.139083873754460e+00
0	 8.750000000000001e-01	 4.999999999999999e-01	 1.567162289942153e+00
0	 8.750000000000001e-01	 5.624999999999999e-01	 2.027200488947080e+00
0	 8.750000000000002e-01	 6.250000000000001e-01	 2.519198470769232e+00
0	 9.375000000000002e-01	 0.000000000000000e+00	-1.657501123076926e+00
0	 9.375000000000001e-01	 6.249999999999998e-02	-1.379557877061541e+00
0	 9.375000000000002e-01	 1.250000000000000e-01	-1.055529936553848e+00
0	 9.375000000000002e-01	 1.875000000000000e-01	-6.854173015538487e-01
0	 9.375000000000002e-01	 2.499999999999999e-01	-2.692199720615394e-01
0	 9.375000000000004e-01	 3.125000000000001e-01	 1.930620519230759e-01
0	 9.375000000000003e-01	 3.749999999999999e-01	 7.014287703999980e-01
0	 9.375000000000003e-01	 4.375000000000000e-01	 1.255880183369231e+00
0	 9.375000000000001e-01	 4.999999999999999e-01	 1.856416290830771e+00
0	 9.375000000000004e-01	 5.625000000000001e-01	 2.503037092784618e+00
0	 9.375000000000004e-01	 6.250000000000000e-01	 3.195742589230771e+00
0	 1.000000000000000e+00	 0.000000000000000e+00	-2.164031915630771e+00
0	 1.000000000000000e+00	 6.249999999999999e-02	-1.835394456313235e+00
0	 1.000000000000000e+00	 1.250000000000000e-01	-1.446547390828309e+00
0	 1.000000000000000e+00	 1.875000000000000e-01	-9.974907191760032e-01
0	 1.000000000000000e+00	 2.500000000000001e-01	-4.882244413563077e-01
0	 1.000000000000000e+00	 3.124999999999999e-01	 8.125144263076756e-02
0	 1.000000000000000e+00	 3.750000000000000e-01	 7.109369327852315e-01
0	 1.000000000000000e+00	 4.375000000000001e-01	 1.400832029107079e+00
0	 1.000000000000000e+00	 5.000000000000000e-01	 2.150936731596309e+00
0	 1.000000000000001e+00	 5.625000000000001e-01	 2.961251040252925e+00
0	 1.000000000000000e+00	 6.250000000000000e-01	 3.831774955076925e+00
0	 1.062500000000000e+00	 0.000000000000000e+00	-2.482183498338464e+00
0	 1.062500000000001e+00	 6.250000000000000e-02	-2.125740921964925e+00
0	 1.062500000000000e+00	 1.250000000000000e-01	-1.694963827748927e+00
0	 1.062500000000000e+00	 1.875000000000000e-01	-1.189852215690463e+00
0	 1.062500000000000e+00	 2.500000000000001e-01	-6.104060857895384e-01
0	 1.062500000000000e+00	 3.125000000000000e-01	 4.337456195384348e-02
0	 1.062500000000001e+00	 3.750000000000000e-01	 7.714897275396924e-01
0	 1.062500000000000e+00	 4.374999999999999e-01	 1.573939410967998e+00
0	 1.062500000000000e+00	 4.999999999999999e-01	 2.450723612238767e+00
0	 1.062500000000000e+00	 5.625000000000000e-01	 3.401842331351999e+00
0	 1.062500000000000e+00	 6.250000000000000e-01	 4.427295568307691e+00
0	 1.125000000000000e+00	 0.000000000000000e+00	-2.611955871200001e+00
0	 1.125000000000000e+00	 6.249999999999999e-02	-2.250597274016616e+00
0	 1.125000000000000e+00	 1.250000000000000e-01	-1.800779247315692e+00
0	 1.125000000000000e+00	 1.875000000000000e-01	-1.262501791097232e+00
0	 1.125000000000000e+00	 2.500000000000000e-01	-6.357649053612304e-01
0	 1.125000000000000e+00	 3.125000000000000e-01	 7.943140989230812e-02
0	 1.125000000000000e+00	 3.750000000000000e-01	 8.830871546633814e-01
0	 1.125000000000001e+00	 4.375000000000001e-01	 1.775202328952001e+00
0	 1.125000000000000e+00	 5.000000000000000e-01	 2.755776932758152e+00
0	 1.125000000000000e+00	 5.624999999999999e-01	 3.824810966081845e+00
0	 1.125000000000000e+00	 6.250000000000000e-01	 4.982304428923078e+00
0	 1.187500000000000e+00	 0.000000000000000e+00	-2.553349034215384e+00
0	 1.187500000000000e+00	 6.250000000000000e-02	-2.209963512468308e+00
0	 1.187500000000000e+00	 1.250000000000000e-01	-1.763993649528614e+00
0	 1.187500000000001e+00	 1.875000000000000e-01	-1.215439445396308e+00
0	 1.187500000000000e+00	 2.500000000000000e-01	-5.643009000713839e-01
0	 1.187500000000001e+00	 3.125000000000001e-01	 1.894219864461526e-01
0	 1.187500000000001e+00	 3.750000000000000e-01	 1.045729214156310e+00
0	 1.187500000000001e+00	 4.375000000000000e-01	 2.004620783059075e+00
0	 1.187500000000001e+00	 5.000000000000000e-01	 3.066096693154463e+00
0	 1.187500000000000e+00	 5.625000000000000e-01	 4.230156944442462e+00
0	 1.187500000000000e+00	 6.250000000000000e-01	 5.496801536923080e+00
0	 1.250000000000000e+00	 0.000000000000000e+00	-2.306362987384617e+00
0	 1.250000000000000e+00	 6.250000000000000e-02	-2.003839637320003e+00
0	 1.250000000000000e+00	 1.250000000000000e-01	-1.584607034387693e+00
0	 1.250000000000000e+00	 1.875000000000000e-01	-1.048665178587694e+00
0	 1.250000000000000e+00	 2.500000000000000e-01	-3.960140699200014e-01
0	 1.250000000000000e+00	 3.125000000000000e-01	 3.733462916153840e-01
0	 1.250000000000000e+00	 3.750000000000000e-01	 1.259415906018463e+00
0	 1.250000000000000e+00	 4.374999999999999e-01	 2.262194773289226e+00
0	 1.250000000000000e+00	 5.000000000000000e-01	 3.381682893427689e+00
0	 1.250000000000000e+00	 5.624999999999999e-01	 4.617880266433845e+00
0	 1.250000000000000e+00	 6.250000000000000e-01	 5.970786892307692e+00
0	 6.250000000000000e-01	 6.250000000000000e-01	-5.920955292307692e-01
0	 6.250000000000000e-01	 6.875000000000000e-01	 4.195525840707697e+00
0	 6.250000000000000e-01	 7.500000000000002e-01	 9.007518575753855e+00
0	 6.250000000000000e-01	 8.125000000000002e-01	 1.384388267590771e+01
0	 6.250000000000000e-01	 8.750000000000002e-01	 1.870461814116925e+01
0	 6.250000000000000e-01	 9.375000000000002e-01	 2.358972497153848e+01
0	 6.250000000000000e-01	 1.000000000000000e+00	 2.849920316701541e+01
0	 6.250000000000001e-01	 1.062500000000000e+00	 3.343305272760003e+01
0	 6.250000000000001e-01	 1.125000000000001e+00	 3.839127365329234e+01
0	 6.250000000000000e-01	 1.187500000000000e+00	 4.337386594409234e+01
0	 6.250000000000000e-01	 1.250000000000000e+00	 4.838082960000001e+01
0	 6.875000000000000e-01	 6.249999999999999e-01	 2.464955996923084e-01
0	 6.875000000000000e-01	 6.875000000000000e-01	 4.794701677036929e+00
0	 6.874999999999999e-01	 7.500000000000000e-01	 9.359603959901547e+00
0	 6.875000000000001e-01	 8.125000000000003e-01	 1.394120244828617e+01
0	 6.875000000000001e-01	 8.750000000000002e-01	 1.853949714219079e+01
0	 6.875000000000000e-01	 9.375000000000003e-01	 2.315448804161540e+01
0	 6.875000000000000e-01	 1.000000000000000e+00	 2.778617514656002e+01
0	 6.875000000000001e-01	 1.062500000000000e+00	 3.243455845702464e+01
0	 6.875000000000001e-01	 1.125000000000000e+00	 3.709963797300927e+01
0	 6.875000000000001e-01	 1.187500000000001e+00	 4.178141369451389e+01
0	 6.875000000000000e-01	 1.250000000000000e+00	 4.647988562153845e+01
0	 7.500000000000001e-01	 6.250000000000001e-01	 1.044574976000001e+00
0	 7.500000000000002e-01	 6.875000000000001e-01	 5.344730640012314e+00
0	 7.500000000000003e-01	 7.500000000000003e-01	 9.653907349956929e+00
0	 7.500000000000001e-01	 8.125000000000001e-01	 1.397210510583386e+01
0	 7.500000000000002e-01	 8.750000000000003e-01	 1.829932390764309e+01
0	 7.500000000000002e-01	 9.375000000000002e-01	 2.263556375538464e+01
0	 7.500000000000000e-01	 1.000000000000000e+00	 2.698082464905848e+01
0	 7.500000000000001e-01	 1.062500000000000e+00	 3.133510658866463e+01
0	 7.500000000000001e-01	 1.125000000000000e+00	 3.569840957420310e+01
0	 7.500000000000001e-01	 1.187500000000001e+00	 4.007073360567387e+01
0	 7.500000000000001e-01	 1.250000000000000e+00	 4.445207868307691e+01
0	 8.125000000000002e-01	 6.249999999999999e-01	 1.802142599692309e+00
0	 8.125000000000003e-01	 6.875000000000001e-01	 5.845612729633848e+00
0	 8.125000000000003e-01	 7.500000000000003e-01	 9.890428745920000e+00
0	 8.125000000000001e-01	 8.125000000000000e-01	 1.393659064855078e+01
0	 8.125000000000001e-01	 8.750000000000001e-01	 1.798409843752616e+01
0	 8.125000000000003e-01	 9.375000000000003e-01	 2.203295211284617e+01
0	 8.125000000000001e-01	 1.000000000000000e+00	 2.608315167451079e+01
0	 8.125000000000003e-01	 1.062500000000000e+00	 3.013469712252002e+01
0	 8.125000000000001e-01	 1.125000000000000e+00	 3.418758845687387e+01
0	 8.125000000000001e-01	 1.187500000000000e+00	 3.824182567757233e+01
0	 8.125000000000002e-01	 1.250000000000000e+00	 4.229740878461537e+01
0	 8.750000000000002e-01	 6.250000000000001e-01	 2.519198470769232e+00
0	 8.749999999999999e-01	 6.875000000000000e-01	 6.297347945901541e+00
0	 8.750000000000002e-01	 7.500000000000002e-01	 1.006916814779078e+01
0	 8.750000000000002e-01	 8.125000000000001e-01	 1.383465907643693e+01
0	 8.749999999999999e-01	 8.749999999999999e-01	 1.759382073184001e+01
0	 8.750000000000002e-01	 9.375000000000002e-01	 2.134665311400001e+01
0	 8.750000000000003e-01	 1.000000000000000e+00	 2.509315622291693e+01
0	 8.750000000000003e-01	 1.062500000000001e+00	 2.883333005859079e+01
0	 8.750000000000001e-01	 1.125000000000000e+00	 3.256717462102155e+01
0	 8.750000000000002e-01	 1.187500000000001e+00	 3.629468991020925e+01
0	 8.750000000000002e-01	 1.250000000000000e+00	 4.001587592615383e+01
0	 9.375000000000004e-01	 6.250000000000000e-01	 3.195742589230771e+00
0	 9.375000000000003e-01	 6.875000000000000e-01	 6.699936288815389e+00
0	 9.375000000000002e-01	 7.500000000000001e-01	 1.019012555556923e+01
0	 9.375000000000002e-01	 8.125000000000001e-01	 1.366631038949231e+01
0	 9.375000000000003e-01	 8.750000000000003e-01	 1.712849079058462e+01
0	 9.375000000000002e-01	 9.375000000000002e-01	 2.057666675884617e+01
0	 9.375000000000003e-01	 1.000000000000000e+00	 2.401083829427693e+01
0	 9.375000000000004e-01	 1.062500000000000e+00	 2.743100539687693e+01
0	 9.375000000000004e-01	 1.125000000000000e+00	 3.083716806664616e+01
0	 9.375000000000002e-01	 1.187500000000000e+00	 3.422932630358464e+01
0	 9.375000000000004e-01	 1.250000000000000e+00	 3.760748010769230e+01
0	 1.000000000000000e+00	 6.250000000000000e-01	 3.831774955076925e+00
0	 1.000000000000000e+00	 6.875000000000001e-01	 7.053377758375388e+00
0	 1.000000000000000e+00	 7.500000000000001e-01	 1.025330096925539e+01
0	 1.000000000000000e+00	 8.125000000000001e-01	 1.343154458771693e+01
0	 1.000000000000000e+00	 8.750000000000003e-01	 1.658810861376000e+01
0	 1.000000000000000e+00	 9.375000000000003e-01	 1.972299304738463e+01
0	 1.000000000000000e+00	 1.000000000000000e+00	 2.283619788859078e+01
0	 1.000000000000000e+00	 1.062500000000001e+00	 2.592772313737848e+01
0	 1.000000000000001e+00	 1.125000000000001e+00	 2.899756879374770e+01
0	 1.000000000000000e+00	 1.187500000000000e+00	 3.204573485769848e+01
0	 1.000000000000000e+00	 1.250000000000000e+00	 3.507222132923075e+01
0	 1.062500000000000e+00	 6.250000000000000e-01	 4.427295568307691e+00
0	 1.062500000000000e+00	 6.875000000000001e-01	 7.357672354581544e+00
0	 1.062500000000000e+00	 7.500000000000002e-01	 1.025869438884923e+01
0	 1.062500000000000e+00	 8.125000000000001e-01	 1.313036167111078e+01
0	 1.062500000000000e+00	 8.750000000000002e-01	 1.597267420136616e+01
0	 1.062500000000001e+00	 9.375000000000003e-01	 1.878563197961539e+01
0	 1.062500000000000e+00	 1.000000000000000e+00	 2.156923500585846e+01
0	 1.062500000000000e+00	 1.062500000000000e+00	 2.432348328009539e+01
0	 1.062500000000000e+00	 1.125000000000000e+00	 2.704837680232615e+01
0	 1.062500000000000e+00	 1.187500000000000e+00	 2.974391557255078e+01
0	 1.062500000000000e+00	 1.250000000000000e+00	 3.241009959076921e+01
0	 1.125000000000000e+00	 6.250000000000000e-01	 4.982304428923078e+00
0	 1.125000000000000e+00	 6.875000000000001e-01	 7.612820077433844e+00
0	 1.125000000000000e+00	 7.500000000000001e-01	 1.020630581435077e+01
0	 1.125000000000001e+00	 8.125000000000002e-01	 1.276276163967385e+01
0	 1.125000000000000e+00	 8.750000000000001e-01	 1.528218755340308e+01
0	 1.125000000000000e+00	 9.375000000000003e-01	 1.776458355553847e+01
0	 1.125000000000001e+00	 1.000000000000001e+00	 2.020994964608001e+01
0	 1.125000000000001e+00	 1.062500000000000e+00	 2.261828582502769e+01
0	 1.125000000000000e+00	 1.125000000000000e+00	 2.498959209238154e+01
0	 1.125000000000000e+00	 1.187500000000000e+00	 2.732386844814154e+01
0	 1.125000000000000e+00	 1.250000000000000e+00	 2.962111489230767e+01
0	 1.187500000000000e+00	 6.250000000000000e-01	 5.496801536923080e+00
0	 1.187500000000001e+00	 6.875000000000001e-01	 7.818820926932310e+00
0	 1.187500000000000e+00	 7.500000000000002e-01	 1.009613524576000e+01
0	 1.187500000000000e+00	 8.125000000000000e-01	 1.232874449340616e+01
0	 1.187500000000000e+00	 8.750000000000000e-01	 1.451664866987077e+01
0	 1.187500000000000e+00	 9.375000000000000e-01	 1.665984777515384e+01
0	 1.187500000000000e+00	 1.000000000000000e+00	 1.875834180925538e+01
0	 1.187500000000000e+00	 1.062500000000000e+00	 2.081213077217538e+01
0	 1.187500000000000e+00	 1.125000000000000e+00	 2.282121466391384e+01
0	 1.187500000000000e+00	 1.187500000000001e+00	 2.478559348447077e+01
0	 1.187500000000000e+00	 1.250000000000000e+00	 2.670526723384613e+01
0	 1.250000000000000e+00	 6.250000000000000e-01	 5.970786892307692e+00
0	 1.250000000000000e+00	 6.875000000000000e-01	 7.975674903076926e+00
0	 1.250000000000000e+00	 7.500000000000002e-01	 9.928182683076924e+00
0	 1.250000000000000e+00	 8.125000000000002e-01	 1.182831023230769e+01
0	 1.250000000000000e+00	 8.750000000000002e-01	 1.367605755076923e+01
0	 1.250000000000000e+00	 9.375000000000002e-01	 1.547142463846154e+01
0	 1.250000000000000e+00	 1.000000000000000e+00	 1.721441149538462e+01
0	 1.250000000000000e+00	 1.062500000000000e+00	 1.890501812153847e+01
0	 1.250000000000000e+00	 1.125000000000001e+00	 2.054324451692309e+01
0	 1.250000000000000e+00	 1.187500000000000e+00	 2.212909068153848e+01
0	 1.250000000000000e+00	 1.250000000000000e+00	 2.366255661538462e+01
0	 6.250000000000000e-01	 1.250000000000000e+00	 4.838082960000001e+01
0	 6.250000000000000e-01	 1.312500000000000e+00	 4.443761917815384e+01
0	 6.250000000000000e-01	 1.375000000000000e+00	 4.048876278030768e+01
0	 6.250000000000000e-01	 1.437500000000000e+00	 3.653426040646153e+01
0	 6.250000000000000e-01	 1.500000000000000e+00	 3.257411205661537e+01
0	 6.250000000000000e-01	 1.562500000000000e+00	 2.860831773076921e+01
0	 6.250000000000000e-01	 1.625000000000000e+00	 2.463687742892305e+01
0	 6.250000000000001e-01	 1.687500000000000e+00	 2.065979115107690e+01
0	 6.250000000000001e-01	 1.750000000000001e+00	 1.667705889723074e+01
0	 6.250000000000000e-01	 1.812500000000000e+00	 1.268868066738458e+01
0	 6.250000000000000e-01	 1.875000000000000e+00	 8.694656461538459e+00
0	 6.875000000000000e-01	 1.250000000000000e+00	 4.647988562153845e+01
0	 6.875000000000000e-01	 1.312500000000000e+00	 4.267662941403076e+01
0	 6.874999999999999e-01	 1.375000000000000e+00	 3.886927901181538e+01
0	 6.875000000000001e-01	 1.437500000000000e+00	 3.505783441489228e+01
0	 6.875000000000001e-01	 1.500000000000000e+00	 3.124229562326152e+01
0	 6.875000000000000e-01	 1.562500000000000e+00	 2.742266263692305e+01
0	 6.875000000000000e-01	 1.625000000000000e+00	 2.359893545587690e+01
0	 6.875000000000001e-01	 1.687500000000000e+00	 1.977111408012305e+01
0	 6.875000000000001e-01	 1.750000000000001e+00	 1.593919850966150e+01
0	 6.875000000000001e-01	 1.812500000000000e+00	 1.210318874449227e+01
0	 6.875000000000000e-01	 1.875000000000000e+00	 8.263084784615378e+00
0	 7.500000000000001e-01	 1.250000000000000e+00	 4.445207868307691e+01
0	 7.500000000000002e-01	 1.312500000000000e+00	 4.080987097667690e+01
0	 7.500000000000003e-01	 1.375000000000000e+00	 3.716512085686151e+01
0	 7.500000000000001e-01	 1.437500000000000e+00	 3.351782832363076e+01
0	 7.500000000000002e-01	 1.500000000000000e+00	 2.986799337698459e+01
0	 7.500000000000002e-01	 1.562500000000001e+00	 2.621561601692305e+01
0	 7.500000000000000e-01	 1.625000000000000e+00	 2.256069624344612e+01
0	 7.500000000000001e-01	 1.687500000000001e+00	 1.890323405655382e+01
0	 7.500000000000001e-01	 1.750000000000000e+00	 1.524322945624612e+01
0	 7.500000000000001e-01	 1.812500000000001e+00	 1.158068244252305e+01
0	 7.500000000000001e-01	 1.875000000000000e+00	 7.915593015384609e+00
0	 8.125000000000002e-01	 1.250000000000000e+00	 4.229740878461537e+01
0	 8.125000000000003e-01	 1.312500000000000e+00	 3.883734386609228e+01
0	 8.125000000000003e-01	 1.375000000000000e+00	 3.537628831544614e+01
0	 8.125000000000001e-01	 1.437500000000000e+00	 3.191424213267689e+01
0	 8.125000000000001e-01	 1.500000000000000e+00	 2.845120531778459e+01
0	 8.125000000000003e-01	 1.562500000000001e+00	 2.498717787076922e+01
0	 8.125000000000001e-01	 1.625000000000000e+00	 2.152215979163075e+01
0	 8.125000000000003e-01	 1.687500000000001e+00	 1.805615108036920e+01
0	 8.125000000000001e-01	 1.750000000000000e+00	 1.458915173698459e+01
0	 8.125000000000001e-01	 1.812500000000000e+00	 1.112116176147689e+01
0	 8.125000000000002e-01	 1.875000000000000e+00	 7.652181153846152e+00
0	 8.750000000000002e-01	 1.250000000000000e+00	 4.001587592615383e+01
0	 8.749999999999999e-01	 1.312500000000000e+00	 3.675904808227691e+01
0	 8.750000000000002e-01	 1.375000000000000e+00	 3.350278138756920e+01
0	 8.750000000000002e-01	 1.437500000000000e+00	 3.024707584203075e+01
0	 8.749999999999999e-01	 1.500000000000000e+00	 2.699193144566152e+01
0	 8.750000000000002e-01	 1.562500000000000e+00	 2.373734819846152e+01
0	 8.750000000000003e-01	 1.625000000000001e+00	 2.048332610043074e+01
0	 8.750000000000003e-01	 1.687500000000000e+00	 1.722986515156920e+01
0	 8.750000000000001e-01	 1.750000000000000e+00	 1.397696535187689e+01
0	 8.750000000000002e-01	 1.812500000000001e+00	 1.072462670135382e+01
0	 8.750000000000002e-01	 1.875000000000000e+00	 7.472849200000004e+00
0	 9.375000000000004e-01	 1.250000000000000e+00	 3.760748010769230e+01
0	 9.375000000000003e-01	 1.312500000000000e+00	 3.457498362523075e+01
0	 9.375000000000002e-01	 1.375000000000000e+00	 3.154460007323074e+01
0	 9.375000000000002e-01	 1.437500000000000e+00	 2.851632945169229e+01
0	 9.375000000000003e-01	 1.500000000000000e+00	 2.549017176061537e+01
0	 9.375000000000002e-01	 1.562500000000000e+00	 2.246612699999997e+01
0	 9.375000000000003e-01	 1.625000000000000e+00	 1.944419516984613e+01
0	 9.375000000000004e-01	 1.687500000000001e+00	 1.642437627015381e+01
0	 9.375000000000004e-01	 1.750000000000001e+00	 1.340667030092305e+01
0	 9.375000000000002e-01	 1.812500000000000e+00	 1.039107726215381e+01
0	 9.375000000000004e-01	 1.875000000000000e+00	 7.377597153846149e+00
0	 1.000000000000000e+00	 1.250000000000000e+00	 3.507222132923075e+01
0	 1.000000000000000e+00	 1.312500000000000e+00	 3.228515049495383e+01
0	 1.000000000000000e+00	 1.375000000000000e+00	 2.950174437243075e+01
0	 1.000000000000000e+00	 1.437500000000000e+00	 2.672200296166152e+01
0	 1.000000000000000e+00	 1.500000000000000e+00	 2.394592626264612e+01
0	 1.000000000000000e+00	 1.562500000000000e+00	 2.117351427538459e+01
0	 1.000000000000000e+00	 1.625000000000000e+00	 1.840476699987690e+01
0	 1.000000000000000e+00	 1.687500000000001e+00	 1.563968443612305e+01
0	 1.000000000000001e+00	 1.750000000000000e+00	 1.287826658412306e+01
0	 1.000000000000000e+00	 1.812500000000000e+00	 1.012051344387690e+01
0	 1.000000000000000e+00	 1.875000000000000e+00	 7.366425015384621e+00
0	 1.062500000000000e+00	 1.250000000000000e+00	 3.241009959076921e+01
0	 1.062500000000000e+00	 1.312500000000000e+00	 2.988954869144614e+01
0	 1.062500000000000e+00	 1.375000000000000e+00	 2.737421428516921e+01
0	 1.062500000000000e+00	 1.437500000000000e+00	 2.486409637193844e+01
0	 1.062500000000000e+00	 1.500000000000000e+00	 2.235919495175382e+01
0	 1.062500000000001e+00	 1.562500000000000e+00	 1.985951002461536e+01
0	 1.062500000000000e+00	 1.625000000000000e+00	 1.736504159052305e+01
0	 1.062500000000000e+00	 1.687500000000000e+00	 1.487578964947690e+01
0	 1.062500000000000e+00	 1.750000000000000e+00	 1.239175420147690e+01
0	 1.062500000000000e+00	 1.812500000000000e+00	 9.912935246523055e+00
0	 1.062500000000000e+00	 1.875000000000000e+00	 7.439332784615372e+00
0	 1.125000000000000e+00	 1.250000000000000e+00	 2.962111489230767e+01
0	 1.125000000000000e+00	 1.312500000000000e+00	 2.738817821470767e+01
0	 1.125000000000000e+00	 1.375000000000000e+00	 2.516200981144613e+01
0	 1.125000000000001e+00	 1.437500000000000e+00	 2.294260968252306e+01
0	 1.125000000000000e+00	 1.500000000000000e+00	 2.072997782793844e+01
0	 1.125000000000000e+00	 1.562500000000000e+00	 1.852411424769229e+01
0	 1.125000000000001e+00	 1.625000000000001e+00	 1.632501894178460e+01
0	 1.125000000000001e+00	 1.687500000000001e+00	 1.413269191021536e+01
0	 1.125000000000000e+00	 1.750000000000001e+00	 1.194713315298459e+01
0	 1.125000000000000e+00	 1.812500000000001e+00	 9.768342670092279e+00
0	 1.125000000000000e+00	 1.875000000000000e+00	 7.596320461538461e+00
0	 1.187500000000000e+00	 1.250000000000000e+00	 2.670526723384613e+01
0	 1.187500000000001e+00	 1.312500000000000e+00	 2.478103906473844e+01
0	 1.187500000000000e+00	 1.375000000000000e+00	 2.286513095126151e+01
0	 1.187500000000000e+00	 1.437500000000000e+00	 2.095754289341536e+01
0	 1.187500000000000e+00	 1.500000000000000e+00	 1.905827489119997e+01
0	 1.187500000000000e+00	 1.562500000000000e+00	 1.716732694461536e+01
0	 1.187500000000000e+00	 1.625000000000000e+00	 1.528469905366152e+01
0	 1.187500000000000e+00	 1.687500000000000e+00	 1.341039121833843e+01
0	 1.187500000000000e+00	 1.750000000000001e+00	 1.154440343864614e+01
0	 1.187500000000000e+00	 1.812500000000001e+00	 9.686735714584596e+00
0	 1.187500000000000e+00	 1.875000000000000e+00	 7.837388046153842e+00
0	 1.250000000000000e+00	 1.250000000000000e+00	 2.366255661538462e+01
0	 1.250000000000000e+00	 1.312500000000000e+00	 2.206813124153846e+01
0	 1.250000000000000e+00	 1.375000000000000e+00	 2.048357770461538e+01
0	 1.250000000000000e+00	 1.437500000000000e+00	 1.890889600461538e+01
0	 1.250000000000000e+00	 1.500000000000000e+00	 1.734408614153845e+01
0	 1.250000000000000e+00	 1.562500000000000e+00	 1.578914811538460e+01
0	 1.250000000000000e+00	 1.625000000000000e+00	 1.424408192615383e+01
0	 1.250000000000000e+00	 1.687500000000000e+00	 1.270888757384614e+01
0	 1.250000000000000e+00	 1.750000000000001e+00	 1.118356505846152e+01
0	 1.250000000000000e+00	 1.812500000000000e+00	 9.668114379999984e+00
0	 1.250000000000000e+00	 1.875000000000000e+00	 8.162535538461533e+00
0	 6.250000000000000e-01	 1.875000000000000e+00	 8.694656461538459e+00
0	 6.250000000000000e-01	 1.937500000000000e+00	 8.582389371230764e+00
0	 6.250000000000000e-01	 2.000000000000000e+00	 8.472425811076917e+00
0	 6.250000000000000e-01	 2.062500000000000e+00	 8.364765781076919e+00
0	 6.250000000000000e-01	 2.125000000000000e+00	 8.259409281230768e+00
0	 6.250000000000000e-01	 2.187500000000000e+00	 8.156356311538458e+00
0	 6.250000000000000e-01	 2.250000000000000e+00	 8.055606872000002e+00
0	 6.250000000000001e-01	 2.312500000000000e+00	 7.957160962615384e+00
0	 6.250000000000001e-01	 2.375000000000001e+00	 7.861018583384621e+00
0	 6.250000000000000e-01	 2.437500000000001e+00	 7.767179734307694e+00
0	 6.250000000000000e-01	 2.500000000000000e+00	 7.675644415384618e+00
0	 6.875000000000000e-01	 1.875000000000000e+00	 8.263084784615378e+00
0	 6.875000000000000e-01	 1.937500000000000e+00	 8.234740344723075e+00
0	 6.874999999999999e-01	 2.000000000000000e+00	 8.206531241661533e+00
0	 6.875000000000001e-01	 2.062500000000000e+00	 8.178457475430768e+00
0	 6.875000000000001e-01	 2.125000000000000e+00	 8.150519046030768e+00
0	 6.875000000000000e-01	 2.187500000000001e+00	 8.122715953461540e+00
0	 6.875000000000000e-01	 2.250000000000000e+00	 8.095048197723074e+00
0	 6.875000000000001e-01	 2.312500000000001e+00	 8.067515778815384e+00
0	 6.875000000000001e-01	 2.375000000000001e+00	 8.040118696738466e+00
0	 6.875000000000001e-01	 2.437500000000000e+00	 8.012856951492305e+00
0	 6.875000000000000e-01	 2.500000000000000e+00	 7.985730543076924e+00
0	 7.500000000000001e-01	 1.875000000000000e+00	 7.915593015384609e+00
0	 7.500000000000002e-01	 1.937500000000000e+00	 7.960324801292304e+00
0	 7.500000000000003e-01	 2.000000000000000e+00	 8.003023730707689e+00
0	 7.500000000000001e-01	 2.062500000000000e+00	 8.043689803630764e+00
0	 7.500000000000002e-01	 2.125000000000000e+00	 8.082323020061533e+00
0	 7.500000000000002e-01	 2.187500000000000e+00	 8.118923379999996e+00
0	 7.500000000000000e-01	 2.250000000000000e+00	 8.153490883446153e+00
0	 7.500000000000001e-01	 2.312500000000001e+00	 8.186025530400000e+00
0	 7.500000000000001e-01	 2.375000000000001e+00	 8.216527320861534e+00
0	 7.500000000000001e-01	 2.437500000000000e+00	 8.244996254830774e+00
0	 7.500000000000001e-01	 2.500000000000000e+00	 8.271432332307699e+00
0	 8.125000000000002e-01	 1.875000000000000e+00	 7.652181153846152e+00
0	 8.125000000000003e-01	 1.937500000000000e+00	 7.759142740938458e+00
0	 8.125000000000003e-01	 2.000000000000000e+00	 7.861903278215383e+00
0	 8.125000000000001e-01	 2.062500000000000e+00	 7.960462765676918e+00
0	 8.125000000000001e-01	 2.125000000000000e+00	 8.054821203323078e+00
0	 8.125000000000003e-01	 2.187500000000001e+00	 8.144978591153841e+00
0	 8.125000000000001e-01	 2.250000000000000e+00	 8.230934929169230e+00
0	 8.125000000000003e-01	 2.312500000000000e+00	 8.312690217369230e+00
0	 8.125000000000001e-01	 2.375000000000000e+00	 8.390244455753850e+00
0	 8.125000000000001e-01	 2.437500000000001e+00	 8.463597644323078e+00
0	 8.125000000000002e-01	 2.500000000000000e+00	 8.532749783076925e+00
0	 8.750000000000002e-01	 1.875000000000000e+00	 7.472849200000004e+00
0	 8.749999999999999e-01	 1.937500000000000e+00	 7.631194163661533e+00
0	 8.750000000000002e-01	 2.000000000000000e+00	 7.783169884184609e+00
0	 8.750000000000002e-01	 2.062500000000000e+00	 7.928776361569224e+00
0	 8.749999999999999e-01	 2.125000000000000e+00	 8.068013595815383e+00
0	 8.750000000000002e-01	 2.187500000000000e+00	 8.200881586923083e+00
0	 8.750000000000003e-01	 2.250000000000000e+00	 8.327380334892306e+00
0	 8.750000000000003e-01	 2.312500000000000e+00	 8.447509839723077e+00
0	 8.750000000000001e-01	 2.375000000000000e+00	 8.561270101415380e+00
0	 8.750000000000002e-01	 2.437500000000000e+00	 8.668661119969229e+00
0	 8.750000000000002e-01	 2.500000000000000e+00	 8.769682895384619e+00
0	 9.375000000000004e-01	 1.875000000000000e+00	 7.377597153846149e+00
0	 9.375000000000003e-01	 1.937500000000000e+00	 7.576479069461536e+00
0	 9.375000000000002e-01	 2.000000000000000e+00	 7.766823548615378e+00
0	 9.375000000000002e-01	 2.062500000000000e+00	 7.948630591307687e+00
0	 9.375000000000003e-01	 2.125000000000001e+00	 8.121900197538460e+00
0	 9.375000000000002e-01	 2.187500000000000e+00	 8.286632367307696e+00
0	 9.375000000000003e-01	 2.250000000000000e+00	 8.442827100615387e+00
0	 9.375000000000004e-01	 2.312500000000001e+00	 8.590484397461536e+00
0	 9.375000000000004e-01	 2.375000000000000e+00	 8.729604257846161e+00
0	 9.375000000000002e-01	 2.437500000000001e+00	 8.860186681769235e+00
0	 9.375000000000004e-01	 2.500000000000000e+00	 8.982231669230769e+00
0	 1.000000000000000e+00	 1.875000000000000e+00	 7.366425015384621e+00
0	 1.000000000000000e+00	 1.937500000000000e+00	 7.594997458338463e+00
0	 1.000000000000000e+00	 2.000000000000000e+00	 7.812864271507691e+00
0	 1.000000000000000e+00	 2.062500000000000e+00	 8.020025454892313e+00
0	 1.000000000000000e+00	 2.125000000000000e+00	 8.216481008492309e+00
0	 1.000000000000000e+00	 2.187500000000000e+00	 8.402230932307695e+00
0	 1.000000000000000e+00	 2.250000000000000e+00	 8.577275226338461e+00
0	 1.000000000000000e+00	 2.312500000000001e+00	 8.741613890584615e+00
0	 1.000000000000001e+00	 2.375000000000001e+00	 8.895246925046157e+00
0	 1.000000000000000e+00	 2.437500000000000e+00	 9.038174329723082e+00
0	 1.000000000000000e+00	 2.500000000000000e+00	 9.170396104615385e+00
0	 1.062500000000000e+00	 1.875000000000000e+00	 7.439332784615372e+00
0	 1.062500000000000e+00	 1.937500000000000e+00	 7.686749330292300e+00
0	 1.062500000000000e+00	 2.000000000000000e+00	 7.921292052861537e+00
0	 1.062500000000000e+00	 2.062500000000000e+00	 8.142960952323079e+00
0	 1.062500000000000e+00	 2.125000000000000e+00	 8.351756028676924e+00
0	 1.062500000000001e+00	 2.187500000000000e+00	 8.547677281923077e+00
0	 1.062500000000000e+00	 2.250000000000000e+00	 8.730724712061544e+00
0	 1.062500000000000e+00	 2.312500000000000e+00	 8.900898319092313e+00
0	 1.062500000000000e+00	 2.375000000000000e+00	 9.058198103015389e+00
0	 1.062500000000000e+00	 2.437500000000000e+00	 9.202624063830774e+00
0	 1.062500000000000e+00	 2.500000000000000e+00	 9.334176201538471e+00
0	 1.125000000000000e+00	 1.875000000000000e+00	 7.596320461538461e+00
0	 1.125000000000000e+00	 1.937500000000000e+00	 7.851734685323077e+00
0	 1.125000000000000e+00	 2.000000000000000e+00	 8.092106892676920e+00
0	 1.125000000000001e+00	 2.062500000000000e+00	 8.317437083600002e+00
0	 1.125000000000000e+00	 2.125000000000000e+00	 8.527725258092307e+00
0	 1.125000000000000e+00	 2.187500000000000e+00	 8.722971416153847e+00
0	 1.125000000000001e+00	 2.250000000000001e+00	 8.903175557784618e+00
0	 1.125000000000001e+00	 2.312500000000001e+00	 9.068337682984616e+00
0	 1.125000000000000e+00	 2.375000000000001e+00	 9.218457791753845e+00
0	 1.125000000000000e+00	 2.437500000000001e+00	 9.353535884092317e+00
0	 1.125000000000000e+00	 2.500000000000000e+00	 9.473571959999999e+00
0	 1.187500000000000e+00	 1.875000000000000e+00	 7.837388046153842e+00
0	 1.187500000000001e+00	 1.937500000000000e+00	 8.089953523430767e+00
0	 1.187500000000000e+00	 2.000000000000000e+00	 8.325308790953844e+00
0	 1.187500000000000e+00	 2.062500000000000e+00	 8.543453848723082e+00
0	 1.187500000000000e+00	 2.125000000000000e+00	 8.744388696738465e+00
0	 1.187500000000000e+00	 2.187500000000000e+00	 8.928113334999997e+00
0	 1.187500000000000e+00	 2.250000000000000e+00	 9.094627763507697e+00
0	 1.187500000000000e+00	 2.312500000000000e+00	 9.243931982261547e+00
0	 1.187500000000000e+00	 2.375000000000001e+00	 9.376025991261544e+00
0	 1.187500000000000e+00	 2.437500000000000e+00	 9.490909790507692e+00
0	 1.187500000000000e+00	 2.500000000000000e+00	 9.588583380000005e+00
0	 1.250000000000000e+00	 1.875000000000000e+00	 8.162535538461533e+00
0	 1.250000000000000e+00	 1.937500000000000e+00	 8.401405844615379e+00
0	 1.250000000000000e+00	 2.000000000000000e+00	 8.620897747692304e+00
0	 1.250000000000000e+00	 2.062500000000000e+00	 8.821011247692304e+00
0	 1.250000000000000e+00	 2.125000000000000e+00	 9.001746344615386e+00
0	 1.250000000000000e+00	 2.187500000000000e+00	 9.163103038461539e+00
0	 1.250000000000000e+00	 2.250000000000000e+00	 9.305081329230770e+00
0	 1.250000000000000e+00	 2.312500000000000e+00	 9.427681216923073e+00
0	 1.250000000000000e+00	 2.375000000000001e+00	 9.530902701538466e+00
0	 1.250000000000000e+00	 2.437500000000001e+00	 9.614745783076927e+00
0	 1.250000000000000e+00	 2.500000000000000e+00	 9.679210461538464e+00
0	 6.250000000000000e-01	 2.500000000000000e+00	 7.675644415384618e+00
0	 6.250000000000000e-01	 2.562500000000000e+00	 7.757784782153852e+00
0	 6.250000000000001e-01	 2.625000000000000e+00	 7.842853913230771e+00
0	 6.249999999999999e-01	 2.687499999999999e+00	 7.930851808615382e+00
0	 6.250000000000000e-01	 2.750000000000000e+00	 8.021778468307694e+00
0	 6.250000000000000e-01	 2.812499999999999e+00	 8.115633892307695e+00
0	 6.250000000000000e-01	 2.874999999999999e+00	 8.212418080615381e+00
0	 6.249999999999999e-01	 2.937499999999998e+00	 8.312131033230765e+00
0	 6.250000000000000e-01	 2.999999999999998e+00	 8.414772750153841e+00
0	 6.250000000000000e-01	 3.062499999999998e+00	 8.520343231384615e+00
0	 6.250000000000000e-01	 3.125000000000000e+00	 8.628842476923078e+00
0	 6.875000000000000e-01	 2.500000000000000e+00	 7.985730543076924e+00
0	 6.875000000000000e-01	 2.562500000000000e+00	 8.039702548707695e+00
0	 6.875000000000000e-01	 2.624999999999999e+00	 8.096908759446162e+00
0	 6.874999999999999e-01	 2.687499999999999e+00	 8.157349175292305e+00
0	 6.874999999999999e-01	 2.749999999999999e+00	 8.221023796246156e+00
0	 6.875000000000000e-01	 2.812499999999999e+00	 8.287932622307693e+00
0	 6.875000000000000e-01	 2.874999999999999e+00	 8.358075653476927e+00
0	 6.875000000000001e-01	 2.937499999999998e+00	 8.431452889753846e+00
0	 6.874999999999999e-01	 2.999999999999999e+00	 8.508064331138465e+00
0	 6.875000000000001e-01	 3.062499999999999e+00	 8.587909977630765e+00
0	 6.875000000000000e-01	 3.125000000000000e+00	 8.670989829230772e+00
0	 7.500000000000001e-01	 2.500000000000000e+00	 8.271432332307699e+00
0	 7.500000000000000e-01	 2.562500000000000e+00	 8.300108776799998e+00
0	 7.500000000000001e-01	 2.625000000000000e+00	 8.332324867200002e+00
0	 7.500000000000001e-01	 2.687500000000000e+00	 8.368080603507691e+00
0	 7.500000000000000e-01	 2.750000000000000e+00	 8.407375985723073e+00
0	 7.500000000000001e-01	 2.812499999999999e+00	 8.450211013846157e+00
0	 7.500000000000002e-01	 2.874999999999999e+00	 8.496585687876928e+00
0	 7.500000000000001e-01	 2.937499999999999e+00	 8.546500007815382e+00
0	 7.500000000000000e-01	 2.999999999999998e+00	 8.599953973661529e+00
0	 7.500000000000000e-01	 3.062499999999998e+00	 8.656947585415381e+00
0	 7.500000000000001e-01	 3.125000000000000e+00	 8.717480843076915e+00
0	 8.125000000000002e-01	 2.500000000000000e+00	 8.532749783076925e+00
0	 8.125000000000002e-01	 2.562500000000000e+00	 8.539003466430767e+00
0	 8.125000000000002e-01	 2.625000000000000e+00	 8.549102236492306e+00
0	 8.125000000000002e-01	 2.687499999999999e+00	 8.563046093261535e+00
0	 8.124999999999999e-01	 2.749999999999999e+00	 8.580835036738460e+00
0	 8.125000000000002e-01	 2.812499999999999e+00	 8.602469066923080e+00
0	 8.125000000000001e-01	 2.874999999999999e+00	 8.627948183815381e+00
0	 8.125000000000000e-01	 2.937499999999998e+00	 8.657272387415389e+00
0	 8.125000000000001e-01	 2.999999999999998e+00	 8.690441677723081e+00
0	 8.125000000000001e-01	 3.062499999999997e+00	 8.727456054738459e+00
0	 8.125000000000002e-01	 3.125000000000000e+00	 8.768315518461538e+00
0	 8.750000000000002e-01	 2.500000000000000e+00	 8.769682895384619e+00
0	 8.750000000000003e-01	 2.562500000000000e+00	 8.756386617600006e+00
0	 8.750000000000002e-01	 2.625000000000000e+00	 8.747240867323073e+00
0	 8.750000000000002e-01	 2.687499999999999e+00	 8.742245644553851e+00
0	 8.750000000000003e-01	 2.749999999999999e+00	 8.741400949292309e+00
0	 8.749999999999999e-01	 2.812499999999998e+00	 8.744706781538461e+00
0	 8.750000000000002e-01	 2.874999999999999e+00	 8.752163141292302e+00
0	 8.750000000000001e-01	 2.937499999999999e+00	 8.763770028553843e+00
0	 8.750000000000002e-01	 2.999999999999999e+00	 8.779527443323076e+00
0	 8.750000000000001e-01	 3.062499999999998e+00	 8.799435385600001e+00
0	 8.750000000000002e-01	 3.125000000000000e+00	 8.823493855384617e+00
0	 9.375000000000004e-01	 2.500000000000000e+00	 8.982231669230769e+00
0	 9.375000000000003e-01	 2.562499999999999e+00	 8.952258230307699e+00
0	 9.375000000000004e-01	 2.625000000000000e+00	 8.926740759692308e+00
0	 9.375000000000003e-01	 2.687500000000000e+00	 8.905679257384616e+00
0	 9.375000000000000e-01	 2.749999999999999e+00	 8.889073723384616e+00
0	 9.375000000000003e-01	 2.812500000000000e+00	 8.876924157692304e+00
0	 9.375000000000004e-01	 2.874999999999998e+00	 8.869230560307695e+00
0	 9.375000000000003e-01	 2.937499999999999e+00	 8.865992931230773e+00
0	 9.375000000000003e-01	 2.999999999999999e+00	 8.867211270461535e+00
0	 9.375000000000003e-01	 3.062499999999999e+00	 8.872885577999998e+00
0	 9.375000000000004e-01	 3.125000000000000e+00	 8.883015853846150e+00
0	 1.000000000000000e+00	 2.500000000000000e+00	 9.170396104615385e+00
0	 1.000000000000000e+00	 2.562500000000000e+00	 9.126618304553855e+00
0	 1.000000000000000e+00	 2.625000000000000e+00	 9.087601913600000e+00
0	 1.000000000000000e+00	 2.687499999999999e+00	 9.053346931753852e+00
0	 1.000000000000000e+00	 2.749999999999999e+00	 9.023853359015382e+00
0	 1.000000000000000e+00	 2.812499999999999e+00	 8.999121195384618e+00
0	 1.000000000000000e+00	 2.874999999999999e+00	 8.979150440861538e+00
0	 1.000000000000000e+00	 2.937499999999998e+00	 8.963941095446156e+00
0	 1.000000000000000e+00	 2.999999999999999e+00	 8.953493159138455e+00
0	 1.000000000000000e+00	 3.062499999999998e+00	 8.947806631938455e+00
0	 1.000000000000000e+00	 3.125000000000000e+00	 8.946881513846154e+00
0	 1.062500000000000e+00	 2.500000000000000e+00	 9.334176201538471e+00
0	 1.062500000000000e+00	 2.562500000000000e+00	 9.279466840338461e+00
0	 1.062500000000000e+00	 2.625000000000000e+00	 9.229824329046153e+00
0	 1.062500000000000e+00	 2.687499999999999e+00	 9.185248667661542e+00
0	 1.062500000000001e+00	 2.749999999999999e+00	 9.145739856184612e+00
0	 1.062500000000001e+00	 2.812500000000000e+00	 9.111297894615387e+00
0	 1.062500000000000e+00	 2.874999999999998e+00	 9.081922782953844e+00
0	 1.062500000000001e+00	 2.937499999999999e+00	 9.057614521200001e+00
0	 1.062500000000000e+00	 2.999999999999998e+00	 9.038373109353847e+00
0	 1.062500000000001e+00	 3.062499999999998e+00	 9.024198547415384e+00
0	 1.062500000000000e+00	 3.125000000000000e+00	 9.015090835384612e+00
0	 1.125000000000000e+00	 2.500000000000000e+00	 9.473571959999999e+00
0	 1.125000000000000e+00	 2.562500000000000e+00	 9.410803837661541e+00
0	 1.125000000000001e+00	 2.625000000000000e+00	 9.353408006030765e+00
0	 1.125000000000000e+00	 2.687500000000000e+00	 9.301384465107695e+00
0	 1.125000000000001e+00	 2.750000000000000e+00	 9.254733214892312e+00
0	 1.125000000000000e+00	 2.812499999999999e+00	 9.213454255384619e+00
0	 1.125000000000000e+00	 2.874999999999999e+00	 9.177547586584613e+00
0	 1.125000000000000e+00	 2.937499999999999e+00	 9.147013208492314e+00
0	 1.125000000000000e+00	 2.999999999999998e+00	 9.121851121107699e+00
0	 1.125000000000000e+00	 3.062499999999998e+00	 9.102061324430755e+00
0	 1.125000000000000e+00	 3.125000000000000e+00	 9.087643818461537e+00
0	 1.187500000000000e+00	 2.500000000000000e+00	 9.588583380000005e+00
0	 1.187500000000000e+00	 2.562500000000000e+00	 9.520629296523079e+00
0	 1.187500000000000e+00	 2.625000000000000e+00	 9.458352944553843e+00
0	 1.187500000000000e+00	 2.687499999999999e+00	 9.401754324092311e+00
0	 1.187500000000001e+00	 2.749999999999999e+00	 9.350833435138458e+00
0	 1.187500000000000e+00	 2.812499999999999e+00	 9.305590277692303e+00
0	 1.187500000000000e+00	 2.874999999999998e+00	 9.266024851753842e+00
0	 1.187500000000000e+00	 2.937499999999998e+00	 9.232137157323081e+00
0	 1.187500000000000e+00	 2.999999999999998e+00	 9.203927194399997e+00
0	 1.187500000000000e+00	 3.062499999999998e+00	 9.181394962984612e+00
0	 1.187500000000000e+00	 3.125000000000000e+00	 9.164540463076918e+00
0	 1.250000000000000e+00	 2.500000000000000e+00	 9.679210461538464e+00
0	 1.250000000000000e+00	 2.562500000000000e+00	 9.608943216923086e+00
0	 1.250000000000000e+00	 2.625000000000000e+00	 9.544659144615391e+00
0	 1.250000000000000e+00	 2.687499999999999e+00	 9.486358244615388e+00
0	 1.250000000000000e+00	 2.750000000000000e+00	 9.434040516923076e+00
0	 1.250000000000000e+00	 2.812499999999999e+00	 9.387705961538465e+00
0	 1.250000000000000e+00	 2.874999999999999e+00	 9.347354578461536e+00
0	 1.250000000000000e+00	 2.937499999999998e+00	 9.312986367692304e+00
0	 1.250000000000000e+00	 2.999999999999998e+00	 9.284601329230766e+00
0	 1.250000000000000e+00	 3.062499999999998e+00	 9.262199463076934e+00
0	 1.250000000000000e+00	 3.125000000000000e+00	 9.245780769230766e+00
0	 6.250000000000000e-01	 3.125000000000000e+00	 8.628842476923078e+00
0	 6.250000000000000e-01	 3.187500000000000e+00	 8.675932293076912e+00
0	 6.250000000000001e-01	 3.250000000000000e+00	 8.720280640000000e+00
0	 6.249999999999999e-01	 3.312499999999999e+00	 8.761887517692308e+00
0	 6.250000000000000e-01	 3.374999999999999e+00	 8.800752926153844e+00
0	 6.250000000000000e-01	 3.437499999999999e+00	 8.836876865384614e+00
0	 6.250000000000000e-01	 3.499999999999999e+00	 8.870259335384617e+00
0	 6.249999999999999e-01	 3.562499999999998e+00	 8.900900336153848e+00
0	 6.250000000000000e-01	 3.624999999999999e+00	 8.928799867692309e+00
0	 6.250000000000000e-01	 3.687499999999998e+00	 8.953957929999993e+00
0	 6.250000000000000e-01	 3.750000000000000e+00	 8.976374523076924e+00
0	 6.875000000000000e-01	 3.125000000000000e+00	 8.670989829230772e+00
0	 6.875000000000000e-01	 3.187499999999999e+00	 8.716870815615382e+00
0	 6.875000000000000e-01	 3.250000000000000e+00	 8.759890657230764e+00
0	 6.874999999999999e-01	 3.312499999999998e+00	 8.800049354076926e+00
0	 6.874999999999999e-01	 3.374999999999998e+00	 8.837346906153837e+00
0	 6.875000000000000e-01	 3.437499999999998e+00	 8.871783313461536e+00
0	 6.875000000000000e-01	 3.499999999999999e+00	 8.903358576000002e+00
0	 6.875000000000001e-01	 3.562499999999999e+00	 8.932072693769223e+00
0	 6.874999999999999e-01	 3.624999999999998e+00	 8.957925666769237e+00
0	 6.875000000000001e-01	 3.687499999999998e+00	 8.980917495000009e+00
0	 6.875000000000000e-01	 3.750000000000000e+00	 9.001048178461531e+00
0	 7.500000000000001e-01	 3.125000000000000e+00	 8.717480843076915e+00
0	 7.500000000000000e-01	 3.187500000000000e+00	 8.762053901230757e+00
0	 7.500000000000001e-01	 3.250000000000000e+00	 8.803646139076928e+00
0	 7.500000000000001e-01	 3.312500000000000e+00	 8.842257556615388e+00
0	 7.500000000000000e-01	 3.374999999999999e+00	 8.877888153846154e+00
0	 7.500000000000001e-01	 3.437500000000000e+00	 8.910537930769232e+00
0	 7.500000000000002e-01	 3.499999999999999e+00	 8.940206887384614e+00
0	 7.500000000000001e-01	 3.562499999999999e+00	 8.966895023692306e+00
0	 7.500000000000000e-01	 3.624999999999998e+00	 8.990602339692300e+00
0	 7.500000000000000e-01	 3.687499999999998e+00	 9.011328835384612e+00
0	 7.500000000000001e-01	 3.750000000000000e+00	 9.029074510769238e+00
0	 8.125000000000002e-01	 3.125000000000000e+00	 8.768315518461538e+00
0	 8.125000000000002e-01	 3.187500000000000e+00	 8.811481549923084e+00
0	 8.125000000000002e-01	 3.250000000000000e+00	 8.851547085538463e+00
0	 8.125000000000002e-01	 3.312499999999999e+00	 8.888512125307695e+00
0	 8.124999999999999e-01	 3.374999999999998e+00	 8.922376669230765e+00
0	 8.125000000000002e-01	 3.437499999999999e+00	 8.953140717307692e+00
0	 8.125000000000001e-01	 3.499999999999999e+00	 8.980804269538469e+00
0	 8.125000000000000e-01	 3.562499999999999e+00	 9.005367325923080e+00
0	 8.125000000000001e-01	 3.624999999999998e+00	 9.026829886461545e+00
0	 8.125000000000001e-01	 3.687499999999998e+00	 9.045191951153845e+00
0	 8.125000000000002e-01	 3.750000000000000e+00	 9.060453520000001e+00
0	 8.750000000000002e-01	 3.125000000000000e+00	 8.823493855384617e+00
0	 8.750000000000003e-01	 3.187500000000000e+00	 8.865153761692302e+00
0	 8.750000000000002e-01	 3.250000000000000e+00	 8.903593496615382e+00
0	 8.750000000000002e-01	 3.312500000000000e+00	 8.938813060153844e+00
0	 8.750000000000003e-01	 3.374999999999999e+00	 8.970812452307690e+00
0	 8.749999999999999e-01	 3.437499999999998e+00	 8.999591673076925e+00
0	 8.750000000000002e-01	 3.499999999999999e+00	 9.025150722461536e+00
0	 8.750000000000001e-01	 3.562499999999998e+00	 9.047489600461533e+00
0	 8.750000000000002e-01	 3.624999999999999e+00	 9.066608307076930e+00
0	 8.750000000000001e-01	 3.687499999999998e+00	 9.082506842307696e+00
0	 8.750000000000002e-01	 3.750000000000000e+00	 9.095185206153840e+00
0	 9.375000000000004e-01	 3.125000000000000e+00	 8.883015853846150e+00
0	 9.375000000000003e-01	 3.187500000000000e+00	 8.923070536538454e+00
0	 9.375000000000004e-01	 3.250000000000000e+00	 8.959785372307694e+00
0	 9.375000000000003e-01	 3.312500000000000e+00	 8.993160361153837e+00
0	 9.375000000000000e-01	 3.374999999999999e+00	 9.023195503076929e+00
0	 9.375000000000003e-01	 3.437499999999999e+00	 9.049890798076914e+00
0	 9.375000000000004e-01	 3.499999999999999e+00	 9.073246246153847e+00
0	 9.375000000000003e-01	 3.562499999999999e+00	 9.093261847307694e+00
0	 9.375000000000003e-01	 3.624999999999998e+00	 9.109937601538469e+00
0	 9.375000000000003e-01	 3.687499999999999e+00	 9.123273508846154e+00
0	 9.375000000000004e-01	 3.750000000000000e+00	 9.133269569230777e+00
0	 1.000000000000000e+00	 3.125000000000000e+00	 8.946881513846154e+00
0	 1.000000000000000e+00	 3.187500000000000e+00	 8.985231874461537e+00
0	 1.000000000000000e+00	 3.250000000000000e+00	 9.020122712615377e+00
0	 1.000000000000000e+00	 3.312499999999999e+00	 9.051554028307692e+00
0	 1.000000000000000e+00	 3.374999999999999e+00	 9.079525821538455e+00
0	 1.000000000000000e+00	 3.437499999999999e+00	 9.104038092307704e+00
0	 1.000000000000000e+00	 3.499999999999998e+00	 9.125090840615384e+00
0	 1.000000000000000e+00	 3.562499999999999e+00	 9.142684066461541e+00
0	 1.000000000000000e+00	 3.624999999999998e+00	 9.156817769846143e+00
0	 1.000000000000000e+00	 3.687499999999998e+00	 9.167491950769229e+00
0	 1.000000000000000e+00	 3.750000000000000e+00	 9.174706609230771e+00
0	 1.062500000000000e+00	 3.125000000000000e+00	 9.015090835384612e+00
0	 1.062500000000000e+00	 3.187500000000000e+00	 9.051637775461529e+00
0	 1.062500000000000e+00	 3.250000000000000e+00	 9.084605517538455e+00
0	 1.062500000000000e+00	 3.312499999999999e+00	 9.113994061615383e+00
0	 1.062500000000001e+00	 3.374999999999999e+00	 9.139803407692304e+00
0	 1.062500000000001e+00	 3.437499999999999e+00	 9.162033555769236e+00
0	 1.062500000000000e+00	 3.499999999999999e+00	 9.180684505846150e+00
0	 1.062500000000001e+00	 3.562499999999999e+00	 9.195756257923080e+00
0	 1.062500000000000e+00	 3.624999999999998e+00	 9.207248811999994e+00
0	 1.062500000000001e+00	 3.687499999999999e+00	 9.215162168076921e+00
0	 1.062500000000000e+00	 3.750000000000000e+00	 9.219496326153845e+00
0	 1.125000000000000e+00	 3.125000000000000e+00	 9.087643818461537e+00
0	 1.125000000000000e+00	 3.187500000000000e+00	 9.122288239538456e+00
0	 1.125000000000001e+00	 3.250000000000000e+00	 9.153233787076923e+00
0	 1.125000000000000e+00	 3.312499999999999e+00	 9.180480461076916e+00
0	 1.125000000000001e+00	 3.375000000000000e+00	 9.204028261538459e+00
0	 1.125000000000000e+00	 3.437499999999999e+00	 9.223877188461538e+00
0	 1.125000000000000e+00	 3.499999999999999e+00	 9.240027241846155e+00
0	 1.125000000000000e+00	 3.562499999999998e+00	 9.252478421692302e+00
0	 1.125000000000000e+00	 3.624999999999998e+00	 9.261230727999996e+00
0	 1.125000000000000e+00	 3.687499999999998e+00	 9.266284160769237e+00
0	 1.125000000000000e+00	 3.750000000000000e+00	 9.267638720000008e+00
0	 1.187500000000000e+00	 3.125000000000000e+00	 9.164540463076918e+00
0	 1.187500000000000e+00	 3.187499999999999e+00	 9.197183266692301e+00
0	 1.187500000000000e+00	 3.250000000000000e+00	 9.226007521230757e+00
0	 1.187500000000000e+00	 3.312500000000000e+00	 9.251013226692308e+00
0	 1.187500000000001e+00	 3.375000000000000e+00	 9.272200383076921e+00
0	 1.187500000000000e+00	 3.437499999999998e+00	 9.289568990384613e+00
0	 1.187500000000000e+00	 3.499999999999999e+00	 9.303119048615383e+00
0	 1.187500000000000e+00	 3.562499999999998e+00	 9.312850557769231e+00
0	 1.187500000000000e+00	 3.624999999999999e+00	 9.318763517846154e+00
0	 1.187500000000000e+00	 3.687499999999998e+00	 9.320857928846154e+00
0	 1.187500000000000e+00	 3.750000000000000e+00	 9.319133790769238e+00
0	 1.250000000000000e+00	 3.125000000000000e+00	 9.245780769230766e+00
0	 1.250000000000000e+00	 3.187500000000000e+00	 9.276322856923063e+00
0	 1.250000000000000e+00	 3.250000000000000e+00	 9.302926719999999e+00
0	 1.250000000000000e+00	 3.312499999999999e+00	 9.325592358461540e+00
0	 1.250000000000000e+00	 3.374999999999999e+00	 9.344319772307689e+00
0	 1.250000000000000e+00	 3.437499999999999e+00	 9.359108961538459e+00
0	 1.250000000000000e+00	 3.499999999999999e+00	 9.369959926153847e+00
0	 1.250000000000000e+00	 3.562499999999998e+00	 9.376872666153847e+00
0	 1.250000000000000e+00	 3.624999999999999e+00	 9.379847181538462e+00
0	 1.250000000000000e+00	 3.687499999999998e+00	 9.378883472307685e+00
0	 1.250000000000000e+00	 3.750000000000000e+00	 9.373981538461541e+00
0	 6.250000000000000e-01	 3.750000000000000e+00	 8.976374523076924e+00
0	 6.250000000000000e-01	 3.812500000000000e+00	 8.997076869538470e+00
0	 6.250000000000001e-01	 3.875000000000000e+00	 9.019573422769234e+00
0	 6.249999999999999e-01	 3.937499999999999e+00	 9.043864182769221e+00
0	 6.250000000000000e-01	 4.000000000000000e+00	 9.069949149538461e+00
0	 6.250000000000000e-01	 4.062499999999999e+00	 9.097828323076925e+00
0	 6.250000000000000e-01	 4.124999999999999e+00	 9.127501703384612e+00
0	 6.249999999999999e-01	 4.187499999999998e+00	 9.158969290461529e+00
0	 6.250000000000000e-01	 4.249999999999998e+00	 9.192231084307695e+00
0	 6.250000000000000e-01	 4.312499999999998e+00	 9.227287084923068e+00
0	 6.250000000000000e-01	 4.375000000000000e+00	 9.264137292307685e+00
0	 6.875000000000000e-01	 3.750000000000000e+00	 9.001048178461531e+00
0	 6.875000000000000e-01	 3.812499999999999e+00	 9.022158800123075e+00
0	 6.875000000000000e-01	 3.874999999999999e+00	 9.044946947569237e+00
0	 6.874999999999999e-01	 3.937499999999998e+00	 9.069412620800000e+00
0	 6.874999999999999e-01	 3.999999999999999e+00	 9.095555819815381e+00
0	 6.875000000000000e-01	 4.062499999999998e+00	 9.123376544615375e+00
0	 6.875000000000000e-01	 4.124999999999999e+00	 9.152874795199995e+00
0	 6.875000000000001e-01	 4.187499999999998e+00	 9.184050571569223e+00
0	 6.874999999999999e-01	 4.249999999999998e+00	 9.216903873723071e+00
0	 6.875000000000001e-01	 4.312499999999997e+00	 9.251434701661530e+00
0	 6.875000000000000e-01	 4.375000000000000e+00	 9.287643055384619e+00
0	 7.500000000000001e-01	 3.750000000000000e+00	 9.029074510769238e+00
0	 7.500000000000000e-01	 3.812499999999999e+00	 9.050301927630773e+00
0	 7.500000000000001e-01	 3.875000000000000e+00	 9.073090189292317e+00
0	 7.500000000000001e-01	 3.937500000000000e+00	 9.097439295753849e+00
0	 7.500000000000000e-01	 3.999999999999999e+00	 9.123349247015373e+00
0	 7.500000000000001e-01	 4.062499999999999e+00	 9.150820043076921e+00
0	 7.500000000000002e-01	 4.124999999999999e+00	 9.179851683938459e+00
0	 7.500000000000001e-01	 4.187499999999997e+00	 9.210444169599993e+00
0	 7.500000000000000e-01	 4.249999999999998e+00	 9.242597500061525e+00
0	 7.500000000000000e-01	 4.312499999999998e+00	 9.276311675323079e+00
0	 7.500000000000001e-01	 4.375000000000000e+00	 9.311586695384602e+00
0	 8.125000000000002e-01	 3.750000000000000e+00	 9.060453520000001e+00
0	 8.125000000000002e-01	 3.812500000000000e+00	 9.081506252061549e+00
0	 8.125000000000002e-01	 3.875000000000000e+00	 9.104003147938458e+00
0	 8.125000000000002e-01	 3.937499999999999e+00	 9.127944207630769e+00
0	 8.124999999999999e-01	 3.999999999999998e+00	 9.153329431138461e+00
0	 8.125000000000002e-01	 4.062499999999999e+00	 9.180158818461543e+00
0	 8.125000000000001e-01	 4.124999999999999e+00	 9.208432369599990e+00
0	 8.125000000000000e-01	 4.187499999999998e+00	 9.238150084553840e+00
0	 8.125000000000001e-01	 4.249999999999998e+00	 9.269311963323082e+00
0	 8.125000000000001e-01	 4.312499999999997e+00	 9.301918005907698e+00
0	 8.125000000000002e-01	 4.375000000000000e+00	 9.335968212307677e+00
0	 8.750000000000002e-01	 3.750000000000000e+00	 9.095185206153840e+00
0	 8.750000000000003e-01	 3.812500000000000e+00	 9.115771773415389e+00
0	 8.750000000000002e-01	 3.875000000000000e+00	 9.137685823507692e+00
0	 8.750000000000002e-01	 3.937499999999999e+00	 9.160927356430761e+00
0	 8.750000000000003e-01	 4.000000000000000e+00	 9.185496372184616e+00
0	 8.749999999999999e-01	 4.062499999999998e+00	 9.211392870769226e+00
0	 8.750000000000002e-01	 4.124999999999999e+00	 9.238616852184604e+00
0	 8.750000000000001e-01	 4.187499999999998e+00	 9.267168316430759e+00
0	 8.750000000000002e-01	 4.249999999999998e+00	 9.297047263507681e+00
0	 8.750000000000001e-01	 4.312499999999998e+00	 9.328253693415380e+00
0	 8.750000000000002e-01	 4.375000000000000e+00	 9.360787606153847e+00
0	 9.375000000000004e-01	 3.750000000000000e+00	 9.133269569230777e+00
0	 9.375000000000003e-01	 3.812500000000000e+00	 9.153098491692305e+00
0	 9.375000000000004e-01	 3.875000000000000e+00	 9.174138215999999e+00
0	 9.375000000000003e-01	 3.937499999999999e+00	 9.196388742153847e+00
0	 9.375000000000000e-01	 3.999999999999998e+00	 9.219850070153836e+00
0	 9.375000000000003e-01	 4.062500000000000e+00	 9.244522199999993e+00
0	 9.375000000000004e-01	 4.124999999999998e+00	 9.270405131692305e+00
0	 9.375000000000003e-01	 4.187499999999998e+00	 9.297498865230772e+00
0	 9.375000000000003e-01	 4.249999999999998e+00	 9.325803400615378e+00
0	 9.375000000000003e-01	 4.312499999999999e+00	 9.355318737846153e+00
0	 9.375000000000004e-01	 4.375000000000001e+00	 9.386044876923076e+00
0	 1.000000000000000e+00	 3.750000000000000e+00	 9.174706609230771e+00
0	 1.000000000000000e+00	 3.812500000000000e+00	 9.193486406892303e+00
0	 1.000000000000000e+00	 3.875000000000000e+00	 9.213360325415394e+00
0	 1.000000000000000e+00	 3.937499999999999e+00	 9.234328364799998e+00
0	 1.000000000000000e+00	 4.000000000000000e+00	 9.256390525046159e+00
0	 1.000000000000000e+00	 4.062499999999998e+00	 9.279546806153839e+00
0	 1.000000000000000e+00	 4.124999999999999e+00	 9.303797208123068e+00
0	 1.000000000000000e+00	 4.187499999999998e+00	 9.329141730953838e+00
0	 1.000000000000000e+00	 4.249999999999998e+00	 9.355580374646154e+00
0	 1.000000000000000e+00	 4.312499999999998e+00	 9.383113139199995e+00
0	 1.000000000000000e+00	 4.375000000000000e+00	 9.411740024615378e+00
0	 1.062500000000000e+00	 3.750000000000000e+00	 9.219496326153845e+00
0	 1.062500000000000e+00	 3.812500000000000e+00	 9.236935519015393e+00
0	 1.062500000000000e+00	 3.875000000000000e+00	 9.255352151753847e+00
0	 1.062500000000000e+00	 3.937499999999999e+00	 9.274746224369224e+00
0	 1.062500000000001e+00	 3.999999999999999e+00	 9.295117736861535e+00
0	 1.062500000000001e+00	 4.062500000000000e+00	 9.316466689230769e+00
0	 1.062500000000000e+00	 4.124999999999998e+00	 9.338793081476922e+00
0	 1.062500000000001e+00	 4.187499999999999e+00	 9.362096913599995e+00
0	 1.062500000000000e+00	 4.249999999999998e+00	 9.386378185599998e+00
0	 1.062500000000001e+00	 4.312499999999999e+00	 9.411636897476919e+00
0	 1.062500000000000e+00	 4.375000000000000e+00	 9.437873049230779e+00
0	 1.125000000000000e+00	 3.750000000000000e+00	 9.267638720000008e+00
0	 1.125000000000000e+00	 3.812500000000000e+00	 9.283445828061554e+00
0	 1.125000000000001e+00	 3.875000000000000e+00	 9.300113695015384e+00
0	 1.125000000000000e+00	 3.937499999999999e+00	 9.317642320861532e+00
0	 1.125000000000001e+00	 4.000000000000000e+00	 9.336031705599996e+00
0	 1.125000000000000e+00	 4.062499999999998e+00	 9.355281849230767e+00
0	 1.125000000000000e+00	 4.124999999999999e+00	 9.375392751753839e+00
0	 1.125000000000000e+00	 4.187499999999998e+00	 9.396364413169222e+00
0	 1.125000000000000e+00	 4.249999999999998e+00	 9.418196833476918e+00
0	 1.125000000000000e+00	 4.312499999999997e+00	 9.440890012676919e+00
0	 1.125000000000000e+00	 4.375000000000000e+00	 9.464443950769219e+00
0	 1.187500000000000e+00	 3.750000000000000e+00	 9.319133790769238e+00
0	 1.187500000000000e+00	 3.812499999999999e+00	 9.333017334030774e+00
0	 1.187500000000000e+00	 3.874999999999999e+00	 9.347644955199996e+00
0	 1.187500000000000e+00	 3.937500000000000e+00	 9.363016654276928e+00
0	 1.187500000000001e+00	 3.999999999999999e+00	 9.379132431261539e+00
0	 1.187500000000000e+00	 4.062499999999998e+00	 9.395992286153838e+00
0	 1.187500000000000e+00	 4.124999999999999e+00	 9.413596218953847e+00
0	 1.187500000000000e+00	 4.187499999999997e+00	 9.431944229661530e+00
0	 1.187500000000000e+00	 4.249999999999998e+00	 9.451036318276911e+00
0	 1.187500000000000e+00	 4.312499999999998e+00	 9.470872484799990e+00
0	 1.187500000000000e+00	 4.375000000000000e+00	 9.491452729230764e+00
0	 1.250000000000000e+00	 3.750000000000000e+00	 9.373981538461541e+00
0	 1.250000000000000e+00	 3.812500000000000e+00	 9.385650036923087e+00
0	 1.250000000000000e+00	 3.875000000000000e+00	 9.397945932307692e+00
0	 1.250000000000000e+00	 3.937499999999999e+00	 9.410869224615380e+00
0	 1.250000000000000e+00	 4.000000000000000e+00	 9.424419913846153e+00
0	 1.250000000000000e+00	 4.062499999999999e+00	 9.438598000000002e+00
0	 1.250000000000000e+00	 4.124999999999999e+00	 9.453403483076912e+00
0	 1.250000000000000e+00	 4.187499999999998e+00	 9.468836363076916e+00
0	 1.250000000000000e+00	 4.249999999999998e+00	 9.484896640000001e+00
0	 1.250000000000000e+00	 4.312499999999998e+00	 9.501584313846156e+00
0	 1.250000000000000e+00	 4.375000000000000e+00	 9.518899384615381e+00
0	 6.250000000000000e-01	 4.375000000000000e+00	 9.264137292307685e+00
0	 6.250000000000000e-01	 4.437499999999999e+00	 9.285502775999980e+00
0	 6.250000000000001e-01	 4.500000000000001e+00	 9.306397220923067e+00
0	 6.249999999999999e-01	 4.562499999999999e+00	 9.326820627076927e+00
0	 6.250000000000000e-01	 4.625000000000000e+00	 9.346772994461537e+00
0	 6.250000000000000e-01	 4.687499999999999e+00	 9.366254323076916e+00
0	 6.250000000000000e-01	 4.749999999999999e+00	 9.385264612923081e+00
0	 6.249999999999999e-01	 4.812499999999998e+00	 9.403803863999995e+00
0	 6.250000000000000e-01	 4.874999999999998e+00	 9.421872076307690e+00
0	 6.250000000000000e-01	 4.937499999999998e+00	 9.439469249846152e+00
0	 6.250000000000000e-01	 5.000000000000000e+00	 9.456595384615387e+00
0	 6.875000000000000e-01	 4.375000000000000e+00	 9.287643055384619e+00
0	 6.875000000000000e-01	 4.437499999999999e+00	 9.307324386246147e+00
0	 6.875000000000000e-01	 4.499999999999999e+00	 9.326555019446145e+00
0	 6.874999999999999e-01	 4.562499999999999e+00	 9.345334954984612e+00
0	 6.874999999999999e-01	 4.624999999999999e+00	 9.363664192861535e+00
0	 6.875000000000000e-01	 4.687499999999998e+00	 9.381542733076920e+00
0	 6.875000000000000e-01	 4.749999999999998e+00	 9.398970575630759e+00
0	 6.875000000000001e-01	 4.812499999999997e+00	 9.415947720523070e+00
0	 6.874999999999999e-01	 4.874999999999998e+00	 9.432474167753844e+00
0	 6.875000000000001e-01	 4.937499999999997e+00	 9.448549917323078e+00
0	 6.875000000000000e-01	 5.000000000000000e+00	 9.464174969230777e+00
0	 7.500000000000001e-01	 4.375000000000000e+00	 9.311586695384602e+00
0	 7.500000000000000e-01	 4.437499999999999e+00	 9.329697058030753e+00
0	 7.500000000000001e-01	 4.499999999999999e+00	 9.347377064123069e+00
0	 7.500000000000001e-01	 4.562499999999999e+00	 9.364626713661536e+00
0	 7.500000000000000e-01	 4.624999999999999e+00	 9.381446006646147e+00
0	 7.500000000000001e-01	 4.687499999999999e+00	 9.397834943076923e+00
0	 7.500000000000002e-01	 4.749999999999998e+00	 9.413793522953846e+00
0	 7.500000000000001e-01	 4.812499999999997e+00	 9.429321746276930e+00
0	 7.500000000000000e-01	 4.874999999999997e+00	 9.444419613046154e+00
0	 7.500000000000000e-01	 4.937499999999997e+00	 9.459087123261545e+00
0	 7.500000000000001e-01	 5.000000000000001e+00	 9.473324276923096e+00
0	 8.125000000000002e-01	 4.375000000000000e+00	 9.335968212307677e+00
0	 8.125000000000002e-01	 4.437500000000000e+00	 9.352620791353853e+00
0	 8.125000000000002e-01	 4.500000000000000e+00	 9.368863354953834e+00
0	 8.125000000000002e-01	 4.562500000000000e+00	 9.384695903107691e+00
0	 8.124999999999999e-01	 4.624999999999997e+00	 9.400118435815374e+00
0	 8.125000000000002e-01	 4.687499999999999e+00	 9.415130953076918e+00
0	 8.125000000000001e-01	 4.749999999999998e+00	 9.429733454892318e+00
0	 8.125000000000000e-01	 4.812499999999998e+00	 9.443925941261529e+00
0	 8.125000000000001e-01	 4.874999999999996e+00	 9.457708412184617e+00
0	 8.125000000000001e-01	 4.937499999999996e+00	 9.471080867661538e+00
0	 8.125000000000002e-01	 5.000000000000000e+00	 9.484043307692307e+00
0	 8.750000000000002e-01	 4.375000000000000e+00	 9.360787606153847e+00
0	 8.750000000000003e-01	 4.437500000000001e+00	 9.376095586215378e+00
0	 8.750000000000002e-01	 4.500000000000000e+00	 9.391013891938451e+00
0	 8.750000000000002e-01	 4.562499999999999e+00	 9.405542523323069e+00
0	 8.750000000000003e-01	 4.625000000000000e+00	 9.419681480369222e+00
0	 8.749999999999999e-01	 4.687499999999998e+00	 9.433430763076920e+00
0	 8.750000000000002e-01	 4.749999999999999e+00	 9.446790371446149e+00
0	 8.750000000000001e-01	 4.812500000000000e+00	 9.459760305476923e+00
0	 8.750000000000002e-01	 4.874999999999998e+00	 9.472340565169219e+00
0	 8.750000000000001e-01	 4.937499999999998e+00	 9.484531150523082e+00
0	 8.750000000000002e-01	 5.000000000000000e+00	 9.496332061538471e+00
0	 9.375000000000004e-01	 4.375000000000001e+00	 9.386044876923076e+00
0	 9.375000000000003e-01	 4.437500000000000e+00	 9.400121442615371e+00
0	 9.375000000000004e-01	 4.500000000000000e+00	 9.413828675076910e+00
0	 9.375000000000003e-01	 4.562500000000000e+00	 9.427166574307680e+00
0	 9.375000000000000e-01	 4.624999999999998e+00	 9.440135140307696e+00
0	 9.375000000000003e-01	 4.687500000000001e+00	 9.452734373076918e+00
0	 9.375000000000004e-01	 4.749999999999999e+00	 9.464964272615381e+00
0	 9.375000000000003e-01	 4.812499999999999e+00	 9.476824838923079e+00
0	 9.375000000000003e-01	 4.874999999999998e+00	 9.488316072000012e+00
0	 9.375000000000003e-01	 4.937499999999998e+00	 9.499437971846147e+00
0	 9.375000000000004e-01	 5.000000000000001e+00	 9.510190538461524e+00
0	 1.000000000000000e+00	 4.375000000000000e+00	 9.411740024615378e+00
0	 1.000000000000000e+00	 4.437499999999999e+00	 9.424698360553830e+00
0	 1.000000000000000e+00	 4.499999999999999e+00	 9.437307704369232e+00
0	 1.000000000000000e+00	 4.562499999999999e+00	 9.449568056061542e+00
0	 1.000000000000000e+00	 4.624999999999999e+00	 9.461479415630771e+00
0	 1.000000000000000e+00	 4.687499999999999e+00	 9.473041783076923e+00
0	 1.000000000000000e+00	 4.749999999999998e+00	 9.484255158400000e+00
0	 1.000000000000000e+00	 4.812499999999999e+00	 9.495119541600008e+00
0	 1.000000000000000e+00	 4.874999999999998e+00	 9.505634932676930e+00
0	 1.000000000000000e+00	 4.937499999999999e+00	 9.515801331630751e+00
0	 1.000000000000000e+00	 5.000000000000000e+00	 9.525618738461546e+00
0	 1.062500000000000e+00	 4.375000000000000e+00	 9.437873049230779e+00
0	 1.062500000000000e+00	 4.437500000000000e+00	 9.449826340030768e+00
0	 1.062500000000000e+00	 4.499999999999999e+00	 9.461450979815378e+00
0	 1.062500000000000e+00	 4.562499999999998e+00	 9.472746968584609e+00
0	 1.062500000000001e+00	 4.625000000000000e+00	 9.483714306338451e+00
0	 1.062500000000001e+00	 4.687500000000000e+00	 9.494352993076919e+00
0	 1.062500000000000e+00	 4.749999999999998e+00	 9.504663028800003e+00
0	 1.062500000000001e+00	 4.812499999999999e+00	 9.514644413507682e+00
0	 1.062500000000000e+00	 4.874999999999997e+00	 9.524297147200006e+00
0	 1.062500000000001e+00	 4.937499999999998e+00	 9.533621229876928e+00
0	 1.062500000000000e+00	 5.000000000000000e+00	 9.542616661538442e+00
0	 1.125000000000000e+00	 4.375000000000000e+00	 9.464443950769219e+00
0	 1.125000000000000e+00	 4.437500000000000e+00	 9.475505381046151e+00
0	 1.125000000000001e+00	 4.500000000000000e+00	 9.486258501415378e+00
0	 1.125000000000000e+00	 4.562499999999999e+00	 9.496703311876917e+00
0	 1.125000000000001e+00	 4.624999999999999e+00	 9.506839812430758e+00
0	 1.125000000000000e+00	 4.687499999999998e+00	 9.516668003076916e+00
0	 1.125000000000000e+00	 4.749999999999999e+00	 9.526187883815387e+00
0	 1.125000000000000e+00	 4.812499999999998e+00	 9.535399454646152e+00
0	 1.125000000000000e+00	 4.874999999999998e+00	 9.544302715569220e+00
0	 1.125000000000000e+00	 4.937499999999997e+00	 9.552897666584620e+00
0	 1.125000000000000e+00	 5.000000000000000e+00	 9.561184307692301e+00
0	 1.187500000000000e+00	 4.375000000000000e+00	 9.491452729230764e+00
0	 1.187500000000000e+00	 4.437499999999999e+00	 9.501735483599987e+00
0	 1.187500000000000e+00	 4.499999999999999e+00	 9.511730269169226e+00
0	 1.187500000000000e+00	 4.562499999999999e+00	 9.521437085938455e+00
0	 1.187500000000001e+00	 4.624999999999999e+00	 9.530855933907686e+00
0	 1.187500000000000e+00	 4.687499999999998e+00	 9.539986813076919e+00
0	 1.187500000000000e+00	 4.749999999999998e+00	 9.548829723446152e+00
0	 1.187500000000000e+00	 4.812499999999998e+00	 9.557384665015377e+00
0	 1.187500000000000e+00	 4.874999999999998e+00	 9.565651637784605e+00
0	 1.187500000000000e+00	 4.937499999999997e+00	 9.573630641753848e+00
0	 1.187500000000000e+00	 5.000000000000001e+00	 9.581321676923078e+00
0	 1.250000000000000e+00	 4.375000000000000e+00	 9.518899384615381e+00
0	 1.250000000000000e+00	 4.437499999999999e+00	 9.528516647692285e+00
0	 1.250000000000000e+00	 4.500000000000001e+00	 9.537866283076923e+00
0	 1.250000000000000e+00	 4.562499999999999e+00	 9.546948290769235e+00
0	 1.250000000000000e+00	 4.625000000000000e+00	 9.555762670769230e+00
0	 1.250000000000000e+00	 4.687499999999999e+00	 9.564309423076915e+00
0	 1.250000000000000e+00	 4.749999999999999e+00	 9.572588547692309e+00
0	 1.250000000000000e+00	 4.812499999999998e+00	 9.580600044615371e+00
0	 1.250000000000000e+00	 4.874999999999998e+00	 9.588343913846151e+00
0	 1.250000000000000e+00	 4.937499999999998e+00	 9.595820155384605e+00
0	 1.250000000000000e+00	 5.000000000000000e+00	 9.603028769230765e+00
0	 6.250000000000000e-01	 5.000000000000000e+00	 9.456595384615387e+00
0	 6.250000000000000e-01	 5.062500000000000e+00	 9.469988007692308e+00
0	 6.250000000000001e-01	 5.125000000000001e+00	 9.483746492307702e+00
0	 6.249999999999999e-01	 5.187499999999999e+00	 9.497870838461532e+00
0	 6.250000000000000e-01	 5.249999999999999e+00	 9.512361046153845e+00
0	 6.250000000000000e-01	 5.312499999999999e+00	 9.527217115384614e+00
0	 6.250000000000000e-01	 5.374999999999998e+00	 9.542439046153842e+00
0	 6.249999999999999e-01	 5.437499999999998e+00	 9.558026838461537e+00
0	 6.250000000000000e-01	 5.499999999999998e+00	 9.573980492307687e+00
0	 6.250000000000000e-01	 5.562499999999998e+00	 9.590300007692306e+00
0	 6.250000000000000e-01	 5.625000000000000e+00	 9.606985384615378e+00
0	 6.875000000000000e-01	 5.000000000000000e+00	 9.464174969230777e+00
0	 6.875000000000000e-01	 5.062499999999999e+00	 9.477698113999994e+00
0	 6.875000000000000e-01	 5.125000000000000e+00	 9.491550628307692e+00
0	 6.874999999999999e-01	 5.187499999999999e+00	 9.505732512153845e+00
0	 6.874999999999999e-01	 5.249999999999998e+00	 9.520243765538460e+00
0	 6.875000000000000e-01	 5.312499999999998e+00	 9.535084388461536e+00
0	 6.875000000000000e-01	 5.374999999999998e+00	 9.550254380923064e+00
0	 6.875000000000001e-01	 5.437499999999998e+00	 9.565753742923070e+00
0	 6.874999999999999e-01	 5.499999999999998e+00	 9.581582474461531e+00
0	 6.875000000000001e-01	 5.562499999999997e+00	 9.597740575538456e+00
0	 6.875000000000000e-01	 5.625000000000000e+00	 9.614228046153826e+00
0	 7.500000000000001e-01	 5.000000000000001e+00	 9.473324276923096e+00
0	 7.500000000000000e-01	 5.062499999999999e+00	 9.486876949538470e+00
0	 7.500000000000001e-01	 5.124999999999999e+00	 9.500722499692316e+00
0	 7.500000000000001e-01	 5.187500000000000e+00	 9.514860927384616e+00
0	 7.500000000000000e-01	 5.249999999999999e+00	 9.529292232615379e+00
0	 7.500000000000001e-01	 5.312499999999999e+00	 9.544016415384615e+00
0	 7.500000000000002e-01	 5.374999999999999e+00	 9.559033475692301e+00
0	 7.500000000000001e-01	 5.437499999999997e+00	 9.574343413538459e+00
0	 7.500000000000000e-01	 5.499999999999996e+00	 9.589946228923065e+00
0	 7.500000000000000e-01	 5.562499999999998e+00	 9.605841921846162e+00
0	 7.500000000000001e-01	 5.625000000000000e+00	 9.622030492307651e+00
0	 8.125000000000002e-01	 5.000000000000000e+00	 9.484043307692307e+00
0	 8.125000000000002e-01	 5.062499999999999e+00	 9.497524514307697e+00
0	 8.125000000000002e-01	 5.124999999999998e+00	 9.511262106461547e+00
0	 8.125000000000002e-01	 5.187499999999999e+00	 9.525256084153845e+00
0	 8.124999999999999e-01	 5.249999999999997e+00	 9.539506447384611e+00
0	 8.125000000000002e-01	 5.312499999999999e+00	 9.554013196153848e+00
0	 8.125000000000001e-01	 5.374999999999998e+00	 9.568776330461526e+00
0	 8.125000000000000e-01	 5.437499999999998e+00	 9.583795850307695e+00
0	 8.125000000000001e-01	 5.499999999999998e+00	 9.599071755692304e+00
0	 8.125000000000001e-01	 5.562499999999996e+00	 9.614604046615367e+00
0	 8.125000000000002e-01	 5.625000000000000e+00	 9.630392723076906e+00
0	 8.750000000000002e-01	 5.000000000000000e+00	 9.496332061538471e+00
0	 8.750000000000003e-01	 5.062500000000001e+00	 9.509640808307692e+00
0	 8.750000000000002e-01	 5.124999999999999e+00	 9.523169448615381e+00
0	 8.750000000000002e-01	 5.187500000000000e+00	 9.536917982461528e+00
0	 8.750000000000003e-01	 5.250000000000000e+00	 9.550886409846155e+00
0	 8.749999999999999e-01	 5.312499999999997e+00	 9.565074730769226e+00
0	 8.750000000000002e-01	 5.374999999999999e+00	 9.579482945230765e+00
0	 8.750000000000001e-01	 5.437499999999999e+00	 9.594111053230773e+00
0	 8.750000000000002e-01	 5.499999999999998e+00	 9.608959054769226e+00
0	 8.750000000000001e-01	 5.562499999999999e+00	 9.624026949846158e+00
0	 8.750000000000002e-01	 5.625000000000000e+00	 9.639314738461527e+00
0	 9.375000000000004e-01	 5.000000000000001e+00	 9.510190538461524e+00
0	 9.375000000000003e-01	 5.062500000000001e+00	 9.523225831538454e+00
0	 9.375000000000004e-01	 5.124999999999999e+00	 9.536444526153845e+00
0	 9.375000000000003e-01	 5.187500000000000e+00	 9.549846622307680e+00
0	 9.375000000000000e-01	 5.249999999999998e+00	 9.563432119999984e+00
0	 9.375000000000003e-01	 5.312500000000000e+00	 9.577201019230763e+00
0	 9.375000000000004e-01	 5.375000000000000e+00	 9.591153319999988e+00
0	 9.375000000000003e-01	 5.437500000000000e+00	 9.605289022307680e+00
0	 9.375000000000003e-01	 5.499999999999998e+00	 9.619608126153832e+00
0	 9.375000000000003e-01	 5.562499999999998e+00	 9.634110631538459e+00
0	 9.375000000000004e-01	 5.625000000000000e+00	 9.648796538461539e+00
0	 1.000000000000000e+00	 5.000000000000000e+00	 9.525618738461546e+00
0	 1.000000000000000e+00	 5.062500000000000e+00	 9.538279584000005e+00
0	 1.000000000000000e+00	 5.125000000000000e+00	 9.551087339076924e+00
0	 1.000000000000000e+00	 5.187499999999999e+00	 9.564042003692311e+00
0	 1.000000000000000e+00	 5.250000000000000e+00	 9.577143577846147e+00
0	 1.000000000000000e+00	 5.312499999999999e+00	 9.590392061538456e+00
0	 1.000000000000000e+00	 5.374999999999999e+00	 9.603787454769225e+00
0	 1.000000000000000e+00	 5.437499999999998e+00	 9.617329757538451e+00
0	 1.000000000000000e+00	 5.499999999999998e+00	 9.631018969846147e+00
0	 1.000000000000000e+00	 5.562499999999998e+00	 9.644855091692307e+00
0	 1.000000000000000e+00	 5.625000000000000e+00	 9.658838123076926e+00
0	 1.062500000000000e+00	 5.000000000000000e+00	 9.542616661538442e+00
0	 1.062500000000000e+00	 5.062500000000000e+00	 9.554802065692316e+00
0	 1.062500000000000e+00	 5.124999999999999e+00	 9.567097887384627e+00
0	 1.062500000000000e+00	 5.187499999999999e+00	 9.579504126615380e+00
0	 1.062500000000001e+00	 5.250000000000000e+00	 9.592020783384601e+00
0	 1.062500000000001e+00	 5.312499999999999e+00	 9.604647857692308e+00
0	 1.062500000000000e+00	 5.374999999999998e+00	 9.617385349538457e+00
0	 1.062500000000001e+00	 5.437500000000000e+00	 9.630233258923075e+00
0	 1.062500000000000e+00	 5.499999999999998e+00	 9.643191585846152e+00
0	 1.062500000000001e+00	 5.562499999999998e+00	 9.656260330307692e+00
0	 1.062500000000000e+00	 5.625000000000000e+00	 9.669439492307710e+00
0	 1.125000000000000e+00	 5.000000000000000e+00	 9.561184307692301e+00
0	 1.125000000000000e+00	 5.062499999999999e+00	 9.572793276615387e+00
0	 1.125000000000001e+00	 5.124999999999999e+00	 9.584476171076917e+00
0	 1.125000000000000e+00	 5.187499999999999e+00	 9.596232991076935e+00
0	 1.125000000000001e+00	 5.250000000000000e+00	 9.608063736615382e+00
0	 1.125000000000000e+00	 5.312500000000000e+00	 9.619968407692296e+00
0	 1.125000000000000e+00	 5.374999999999999e+00	 9.631947004307696e+00
0	 1.125000000000000e+00	 5.437499999999999e+00	 9.643999526461538e+00
0	 1.125000000000000e+00	 5.499999999999998e+00	 9.656125974153847e+00
0	 1.125000000000000e+00	 5.562499999999998e+00	 9.668326347384598e+00
0	 1.125000000000000e+00	 5.625000000000000e+00	 9.680600646153861e+00
0	 1.187500000000000e+00	 5.000000000000001e+00	 9.581321676923078e+00
0	 1.187500000000000e+00	 5.062499999999999e+00	 9.592253216769233e+00
0	 1.187500000000000e+00	 5.125000000000000e+00	 9.603222190153840e+00
0	 1.187500000000000e+00	 5.187499999999999e+00	 9.614228597076918e+00
0	 1.187500000000001e+00	 5.250000000000001e+00	 9.625272437538452e+00
0	 1.187500000000000e+00	 5.312499999999998e+00	 9.636353711538451e+00
0	 1.187500000000000e+00	 5.374999999999998e+00	 9.647472419076919e+00
0	 1.187500000000000e+00	 5.437499999999998e+00	 9.658628560153838e+00
0	 1.187500000000000e+00	 5.499999999999998e+00	 9.669822134769216e+00
0	 1.187500000000000e+00	 5.562499999999998e+00	 9.681053142923068e+00
0	 1.187500000000000e+00	 5.625000000000000e+00	 9.692321584615385e+00
0	 1.250000000000000e+00	 5.000000000000000e+00	 9.603028769230765e+00
0	 1.250000000000000e+00	 5.062500000000000e+00	 9.613181886153843e+00
0	 1.250000000000000e+00	 5.125000000000001e+00	 9.623335944615391e+00
0	 1.250000000000000e+00	 5.187499999999999e+00	 9.633490944615364e+00
0	 1.250000000000000e+00	 5.249999999999999e+00	 9.643646886153837e+00
0	 1.250000000000000e+00	 5.312499999999999e+00	 9.653803769230768e+00
0	 1.250000000000000e+00	 5.374999999999998e+00	 9.663961593846143e+00
0	 1.250000000000000e+00	 5.437499999999998e+00	 9.674120360000000e+00
0	 1.250000000000000e+00	 5.499999999999998e+00	 9.684280067692303e+00
0	 1.250000000000000e+00	 5.562499999999998e+00	 9.694440716923078e+00
0	 1.250000000000000e+00	 5.625000000000000e+00	 9.704602307692303e+00
0	 6.250000000000000e-01	 5.625000000000000e+00	 9.606985384615378e+00
0	 6.250000000000000e-01	 5.687500000000000e+00	 9.617645663076917e+00
0	 6.250000000000001e-01	 5.750000000000000e+00	 9.628354190769228e+00
0	 6.249999999999999e-01	 5.812499999999999e+00	 9.639110967692309e+00
0	 6.250000000000000e-01	 5.874999999999999e+00	 9.649915993846150e+00
0	 6.250000000000000e-01	 5.937499999999999e+00	 9.660769269230775e+00
0	 6.250000000000000e-01	 5.999999999999998e+00	 9.671670793846159e+00
0	 6.249999999999999e-01	 6.062499999999998e+00	 9.682620567692313e+00
0	 6.250000000000000e-01	 6.124999999999998e+00	 9.693618590769230e+00
0	 6.250000000000000e-01	 6.187499999999998e+00	 9.704664863076935e+00
0	 6.250000000000000e-01	 6.250000000000000e+00	 9.715759384615389e+00
0	 6.875000000000000e-01	 5.625000000000000e+00	 9.614228046153826e+00
0	 6.875000000000000e-01	 5.687499999999998e+00	 9.624527767076918e+00
0	 6.875000000000000e-01	 5.749999999999999e+00	 9.634875628307684e+00
0	 6.874999999999999e-01	 5.812499999999997e+00	 9.645271629846158e+00
0	 6.874999999999999e-01	 5.874999999999998e+00	 9.655715771692300e+00
0	 6.875000000000000e-01	 5.937499999999998e+00	 9.666208053846148e+00
0	 6.875000000000000e-01	 5.999999999999999e+00	 9.676748476307685e+00
0	 6.875000000000001e-01	 6.062499999999998e+00	 9.687337039076919e+00
0	 6.874999999999999e-01	 6.124999999999999e+00	 9.697973742153849e+00
0	 6.875000000000001e-01	 6.187499999999999e+00	 9.708658585538469e+00
0	 6.875000000000000e-01	 6.250000000000000e+00	 9.719391569230782e+00
0	 7.500000000000001e-01	 5.625000000000000e+00	 9.622030492307651e+00
0	 7.500000000000000e-01	 5.687499999999998e+00	 9.631970667999994e+00
0	 7.500000000000001e-01	 5.750000000000000e+00	 9.641958875076927e+00
0	 7.500000000000001e-01	 5.812499999999999e+00	 9.651995113538458e+00
0	 7.500000000000000e-01	 5.874999999999999e+00	 9.662079383384615e+00
0	 7.500000000000001e-01	 5.937499999999999e+00	 9.672211684615382e+00
0	 7.500000000000002e-01	 5.999999999999999e+00	 9.682392017230770e+00
0	 7.500000000000001e-01	 6.062499999999998e+00	 9.692620381230775e+00
0	 7.500000000000000e-01	 6.124999999999996e+00	 9.702896776615393e+00
0	 7.500000000000000e-01	 6.187499999999998e+00	 9.713221203384620e+00
0	 7.500000000000001e-01	 6.250000000000000e+00	 9.723593661538489e+00
0	 8.125000000000002e-01	 5.625000000000000e+00	 9.630392723076906e+00
0	 8.125000000000002e-01	 5.687499999999999e+00	 9.639974365846141e+00
0	 8.125000000000002e-01	 5.749999999999999e+00	 9.649603931076909e+00
0	 8.125000000000002e-01	 5.812500000000001e+00	 9.659281418769234e+00
0	 8.124999999999999e-01	 5.874999999999997e+00	 9.669006828923074e+00
0	 8.125000000000002e-01	 5.937499999999999e+00	 9.678780161538466e+00
0	 8.125000000000001e-01	 5.999999999999998e+00	 9.688601416615395e+00
0	 8.125000000000000e-01	 6.062499999999998e+00	 9.698470594153854e+00
0	 8.125000000000001e-01	 6.124999999999996e+00	 9.708387694153854e+00
0	 8.125000000000001e-01	 6.187499999999998e+00	 9.718352716615394e+00
0	 8.125000000000002e-01	 6.250000000000000e+00	 9.728365661538447e+00
0	 8.750000000000002e-01	 5.625000000000000e+00	 9.639314738461527e+00
0	 8.750000000000003e-01	 5.687500000000001e+00	 9.648538860615368e+00
0	 8.750000000000002e-01	 5.749999999999999e+00	 9.657810796307695e+00
0	 8.750000000000002e-01	 5.812499999999999e+00	 9.667130545538470e+00
0	 8.750000000000003e-01	 5.874999999999999e+00	 9.676498108307694e+00
0	 8.749999999999999e-01	 5.937499999999998e+00	 9.685913484615375e+00
0	 8.750000000000002e-01	 5.999999999999999e+00	 9.695376674461547e+00
0	 8.750000000000001e-01	 6.062499999999998e+00	 9.704887677846163e+00
0	 8.750000000000002e-01	 6.124999999999999e+00	 9.714446494769227e+00
0	 8.750000000000001e-01	 6.187499999999998e+00	 9.724053125230762e+00
0	 8.750000000000002e-01	 6.250000000000001e+00	 9.733707569230777e+00
0	 9.375000000000004e-01	 5.625000000000000e+00	 9.648796538461539e+00
0	 9.375000000000003e-01	 5.687500000000000e+00	 9.657664152307685e+00
0	 9.375000000000004e-01	 5.749999999999999e+00	 9.666579470769229e+00
0	 9.375000000000003e-01	 5.812500000000000e+00	 9.675542493846152e+00
0	 9.375000000000000e-01	 5.874999999999998e+00	 9.684553221538458e+00
0	 9.375000000000003e-01	 5.937499999999999e+00	 9.693611653846162e+00
0	 9.375000000000004e-01	 5.999999999999999e+00	 9.702717790769245e+00
0	 9.375000000000003e-01	 6.062499999999999e+00	 9.711871632307695e+00
0	 9.375000000000003e-01	 6.124999999999998e+00	 9.721073178461547e+00
0	 9.375000000000003e-01	 6.187499999999998e+00	 9.730322429230775e+00
0	 9.375000000000004e-01	 6.250000000000000e+00	 9.739619384615382e+00
0	 1.000000000000000e+00	 5.625000000000000e+00	 9.658838123076926e+00
0	 1.000000000000000e+00	 5.687500000000000e+00	 9.667350240923072e+00
0	 1.000000000000000e+00	 5.749999999999999e+00	 9.675909954461538e+00
0	 1.000000000000000e+00	 5.812499999999999e+00	 9.684517263692305e+00
0	 1.000000000000000e+00	 5.874999999999999e+00	 9.693172168615391e+00
0	 1.000000000000000e+00	 5.937499999999999e+00	 9.701874669230774e+00
0	 1.000000000000000e+00	 5.999999999999999e+00	 9.710624765538464e+00
0	 1.000000000000000e+00	 6.062499999999998e+00	 9.719422457538471e+00
0	 1.000000000000000e+00	 6.124999999999998e+00	 9.728267745230792e+00
0	 1.000000000000000e+00	 6.187499999999998e+00	 9.737160628615394e+00
0	 1.000000000000000e+00	 6.250000000000000e+00	 9.746101107692304e+00
0	 1.062500000000000e+00	 5.625000000000000e+00	 9.669439492307710e+00
0	 1.062500000000000e+00	 5.687500000000000e+00	 9.677597126461539e+00
0	 1.062500000000000e+00	 5.750000000000000e+00	 9.685802247384618e+00
0	 1.062500000000000e+00	 5.812499999999999e+00	 9.694054855076919e+00
0	 1.062500000000001e+00	 5.875000000000000e+00	 9.702354949538456e+00
0	 1.062500000000001e+00	 5.937499999999999e+00	 9.710702530769233e+00
0	 1.062500000000000e+00	 5.999999999999999e+00	 9.719097598769238e+00
0	 1.062500000000001e+00	 6.062500000000000e+00	 9.727540153538470e+00
0	 1.062500000000000e+00	 6.124999999999998e+00	 9.736030195076928e+00
0	 1.062500000000001e+00	 6.187499999999999e+00	 9.744567723384627e+00
0	 1.062500000000000e+00	 6.249999999999999e+00	 9.753152738461544e+00
0	 1.125000000000000e+00	 5.625000000000000e+00	 9.680600646153861e+00
0	 1.125000000000000e+00	 5.687499999999999e+00	 9.688404808923064e+00
0	 1.125000000000001e+00	 5.749999999999999e+00	 9.696256349538459e+00
0	 1.125000000000000e+00	 5.812499999999999e+00	 9.704155268000006e+00
0	 1.125000000000001e+00	 5.875000000000000e+00	 9.712101564307694e+00
0	 1.125000000000000e+00	 5.937499999999999e+00	 9.720095238461544e+00
0	 1.125000000000000e+00	 5.999999999999999e+00	 9.728136290461549e+00
0	 1.125000000000000e+00	 6.062499999999997e+00	 9.736224720307703e+00
0	 1.125000000000000e+00	 6.124999999999997e+00	 9.744360528000003e+00
0	 1.125000000000000e+00	 6.187499999999998e+00	 9.752543713538479e+00
0	 1.125000000000000e+00	 6.250000000000000e+00	 9.760774276923071e+00
0	 1.187500000000000e+00	 5.625000000000000e+00	 9.692321584615385e+00
0	 1.187500000000000e+00	 5.687499999999999e+00	 9.699773288307696e+00
0	 1.187500000000000e+00	 5.750000000000000e+00	 9.707272260923069e+00
0	 1.187500000000000e+00	 5.812499999999999e+00	 9.714818502461540e+00
0	 1.187500000000001e+00	 5.875000000000000e+00	 9.722412012923071e+00
0	 1.187500000000000e+00	 5.937499999999998e+00	 9.730052792307685e+00
0	 1.187500000000000e+00	 5.999999999999999e+00	 9.737740840615391e+00
0	 1.187500000000000e+00	 6.062499999999999e+00	 9.745476157846156e+00
0	 1.187500000000000e+00	 6.124999999999998e+00	 9.753258743999996e+00
0	 1.187500000000000e+00	 6.187499999999998e+00	 9.761088599076940e+00
0	 1.187500000000000e+00	 6.250000000000000e+00	 9.768965723076946e+00
0	 1.250000000000000e+00	 5.625000000000000e+00	 9.704602307692303e+00
0	 1.250000000000000e+00	 5.687500000000000e+00	 9.711702564615376e+00
0	 1.250000000000000e+00	 5.750000000000000e+00	 9.718849981538458e+00
0	 1.250000000000000e+00	 5.812499999999999e+00	 9.726044558461542e+00
0	 1.250000000000000e+00	 5.874999999999999e+00	 9.733286295384620e+00
0	 1.250000000000000e+00	 5.937499999999999e+00	 9.740575192307706e+00
0	 1.250000000000000e+00	 5.999999999999998e+00	 9.747911249230786e+00
0	 1.250000000000000e+00	 6.062499999999998e+00	 9.755294466153854e+00
0	 1.250000000000000e+00	 6.124999999999998e+00	 9.762724843076931e+00
0	 1.250000000000000e+00	 6.187499999999998e+00	 9.770202380000024e+00
0	 1.250000000000000e+00	 6.250000000000000e+00	 9.777727076923089e+00
0	 6.250000000000000e-01	 6.250000000000000e+00	 9.715759384615389e+00
0	 6.250000000000000e-01	 6.312500000000000e+00	 9.723965283076922e+00
0	 6.250000000000001e-01	 6.375000000000000e+00	 9.732285993846167e+00
0	 6.249999999999999e-01	 6.437499999999999e+00	 9.740721516923070e+00
0	 6.250000000000000e-01	 6.499999999999999e+00	 9.749271852307693e+00
0	 6.250000000000000e-01	 6.562499999999998e+00	 9.757937000000004e+00
0	 6.250000000000000e-01	 6.624999999999998e+00	 9.766716959999981e+00
0	 6.249999999999999e-01	 6.687499999999998e+00	 9.775611732307695e+00
0	 6.250000000000000e-01	 6.749999999999998e+00	 9.784621316923078e+00
0	 6.250000000000000e-01	 6.812499999999998e+00	 9.793745713846160e+00
0	 6.250000000000000e-01	 6.875000000000000e+00	 9.802984923076917e+00
0	 6.875000000000000e-01	 6.250000000000000e+00	 9.719391569230782e+00
0	 6.875000000000000e-01	 6.312499999999998e+00	 9.727514545538467e+00
0	 6.875000000000000e-01	 6.375000000000000e+00	 9.735744656000000e+00
0	 6.874999999999999e-01	 6.437499999999997e+00	 9.744081900615383e+00
0	 6.874999999999999e-01	 6.499999999999998e+00	 9.752526279384618e+00
0	 6.875000000000000e-01	 6.562499999999997e+00	 9.761077792307685e+00
0	 6.875000000000000e-01	 6.624999999999998e+00	 9.769736439384610e+00
0	 6.875000000000001e-01	 6.687499999999997e+00	 9.778502220615369e+00
0	 6.874999999999999e-01	 6.749999999999999e+00	 9.787375136000010e+00
0	 6.875000000000001e-01	 6.812499999999998e+00	 9.796355185538451e+00
0	 6.875000000000000e-01	 6.874999999999999e+00	 9.805442369230768e+00
0	 7.500000000000001e-01	 6.250000000000000e+00	 9.723593661538489e+00
0	 7.500000000000000e-01	 6.312499999999998e+00	 9.731610454153845e+00
0	 7.500000000000001e-01	 6.375000000000000e+00	 9.739726702769234e+00
0	 7.500000000000001e-01	 6.437500000000000e+00	 9.747942407384626e+00
0	 7.500000000000000e-01	 6.500000000000000e+00	 9.756257568000001e+00
0	 7.500000000000001e-01	 6.562499999999999e+00	 9.764672184615385e+00
0	 7.500000000000002e-01	 6.624999999999999e+00	 9.773186257230766e+00
0	 7.500000000000001e-01	 6.687499999999998e+00	 9.781799785846145e+00
0	 7.500000000000000e-01	 6.749999999999996e+00	 9.790512770461522e+00
0	 7.500000000000000e-01	 6.812499999999998e+00	 9.799325211076919e+00
0	 7.500000000000001e-01	 6.875000000000001e+00	 9.808237107692287e+00
0	 8.125000000000002e-01	 6.250000000000000e+00	 9.728365661538447e+00
0	 8.125000000000002e-01	 6.312500000000000e+00	 9.736253008923075e+00
0	 8.125000000000002e-01	 6.374999999999998e+00	 9.744232134153851e+00
0	 8.125000000000002e-01	 6.437499999999999e+00	 9.752303037230785e+00
0	 8.124999999999999e-01	 6.499999999999998e+00	 9.760465718153842e+00
0	 8.125000000000002e-01	 6.562499999999999e+00	 9.768720176923065e+00
0	 8.125000000000001e-01	 6.624999999999999e+00	 9.777066413538464e+00
0	 8.125000000000000e-01	 6.687499999999997e+00	 9.785504427999999e+00
0	 8.125000000000001e-01	 6.749999999999997e+00	 9.794034220307688e+00
0	 8.125000000000001e-01	 6.812499999999997e+00	 9.802655790461555e+00
0	 8.125000000000002e-01	 6.875000000000000e+00	 9.811369138461560e+00
0	 8.750000000000002e-01	 6.250000000000001e+00	 9.733707569230777e+00
0	 8.750000000000003e-01	 6.312500000000001e+00	 9.741442209846159e+00
0	 8.750000000000002e-01	 6.375000000000000e+00	 9.749260950153850e+00
0	 8.750000000000002e-01	 6.437499999999999e+00	 9.757163790153850e+00
0	 8.750000000000003e-01	 6.499999999999998e+00	 9.765150729846155e+00
0	 8.749999999999999e-01	 6.562499999999996e+00	 9.773221769230773e+00
0	 8.750000000000002e-01	 6.624999999999999e+00	 9.781376908307696e+00
0	 8.750000000000001e-01	 6.687499999999998e+00	 9.789616147076927e+00
0	 8.750000000000002e-01	 6.749999999999999e+00	 9.797939485538452e+00
0	 8.750000000000001e-01	 6.812499999999997e+00	 9.806346923692322e+00
0	 8.750000000000002e-01	 6.875000000000000e+00	 9.814838461538461e+00
0	 9.375000000000004e-01	 6.250000000000000e+00	 9.739619384615382e+00
0	 9.375000000000003e-01	 6.312500000000000e+00	 9.747178056923094e+00
0	 9.375000000000004e-01	 6.374999999999999e+00	 9.754813150769220e+00
0	 9.375000000000003e-01	 6.437499999999999e+00	 9.762524666153849e+00
0	 9.375000000000000e-01	 6.499999999999998e+00	 9.770312603076919e+00
0	 9.375000000000003e-01	 6.562499999999999e+00	 9.778176961538467e+00
0	 9.375000000000004e-01	 6.625000000000000e+00	 9.786117741538465e+00
0	 9.375000000000003e-01	 6.687499999999999e+00	 9.794134943076918e+00
0	 9.375000000000003e-01	 6.749999999999999e+00	 9.802228566153836e+00
0	 9.375000000000003e-01	 6.812499999999998e+00	 9.810398610769218e+00
0	 9.375000000000004e-01	 6.875000000000000e+00	 9.818645076923064e+00
0	 1.000000000000000e+00	 6.250000000000000e+00	 9.746101107692304e+00
0	 1.000000000000000e+00	 6.312499999999999e+00	 9.753460550153854e+00
0	 1.000000000000000e+00	 6.375000000000000e+00	 9.760888736000020e+00
0	 1.000000000000000e+00	 6.437499999999999e+00	 9.768385665230769e+00
0	 1.000000000000000e+00	 6.499999999999999e+00	 9.775951337846154e+00
0	 1.000000000000000e+00	 6.562499999999999e+00	 9.783585753846159e+00
0	 1.000000000000000e+00	 6.624999999999999e+00	 9.791288913230769e+00
0	 1.000000000000000e+00	 6.687499999999997e+00	 9.799060815999997e+00
0	 1.000000000000000e+00	 6.749999999999998e+00	 9.806901462153830e+00
0	 1.000000000000000e+00	 6.812499999999998e+00	 9.814810851692325e+00
0	 1.000000000000000e+00	 6.875000000000000e+00	 9.822788984615393e+00
0	 1.062500000000000e+00	 6.249999999999999e+00	 9.753152738461544e+00
0	 1.062500000000000e+00	 6.312499999999999e+00	 9.760289689538464e+00
0	 1.062500000000000e+00	 6.374999999999997e+00	 9.767487705846174e+00
0	 1.062500000000000e+00	 6.437499999999998e+00	 9.774746787384624e+00
0	 1.062500000000001e+00	 6.500000000000000e+00	 9.782066934153853e+00
0	 1.062500000000001e+00	 6.562500000000000e+00	 9.789448146153854e+00
0	 1.062500000000000e+00	 6.624999999999998e+00	 9.796890423384614e+00
0	 1.062500000000001e+00	 6.687499999999999e+00	 9.804393765846154e+00
0	 1.062500000000000e+00	 6.749999999999999e+00	 9.811958173538482e+00
0	 1.062500000000001e+00	 6.812499999999999e+00	 9.819583646461533e+00
0	 1.062500000000000e+00	 6.875000000000000e+00	 9.827270184615344e+00
0	 1.125000000000000e+00	 6.250000000000000e+00	 9.760774276923071e+00
0	 1.125000000000000e+00	 6.312499999999999e+00	 9.767665475076944e+00
0	 1.125000000000001e+00	 6.375000000000000e+00	 9.774610060307710e+00
0	 1.125000000000000e+00	 6.437499999999999e+00	 9.781608032615390e+00
0	 1.125000000000001e+00	 6.500000000000000e+00	 9.788659392000012e+00
0	 1.125000000000000e+00	 6.562500000000000e+00	 9.795764138461550e+00
0	 1.125000000000000e+00	 6.624999999999999e+00	 9.802922271999995e+00
0	 1.125000000000000e+00	 6.687499999999997e+00	 9.810133792615378e+00
0	 1.125000000000000e+00	 6.749999999999997e+00	 9.817398700307688e+00
0	 1.125000000000000e+00	 6.812499999999999e+00	 9.824716995076905e+00
0	 1.125000000000000e+00	 6.874999999999999e+00	 9.832088676923075e+00
0	 1.187500000000000e+00	 6.250000000000000e+00	 9.768965723076946e+00
0	 1.187500000000000e+00	 6.312499999999997e+00	 9.775587906769253e+00
0	 1.187500000000000e+00	 6.375000000000000e+00	 9.782255799384629e+00
0	 1.187500000000000e+00	 6.437500000000000e+00	 9.788969400923085e+00
0	 1.187500000000001e+00	 6.499999999999999e+00	 9.795728711384623e+00
0	 1.187500000000000e+00	 6.562499999999997e+00	 9.802533730769223e+00
0	 1.187500000000000e+00	 6.624999999999999e+00	 9.809384459076920e+00
0	 1.187500000000000e+00	 6.687499999999998e+00	 9.816280896307687e+00
0	 1.187500000000000e+00	 6.749999999999998e+00	 9.823223042461528e+00
0	 1.187500000000000e+00	 6.812499999999998e+00	 9.830210897538457e+00
0	 1.187500000000000e+00	 6.875000000000000e+00	 9.837244461538454e+00
0	 1.250000000000000e+00	 6.250000000000000e+00	 9.777727076923089e+00
0	 1.250000000000000e+00	 6.312500000000000e+00	 9.784056984615390e+00
0	 1.250000000000000e+00	 6.375000000000000e+00	 9.790424923076930e+00
0	 1.250000000000000e+00	 6.437499999999999e+00	 9.796830892307682e+00
0	 1.250000000000000e+00	 6.499999999999999e+00	 9.803274892307705e+00
0	 1.250000000000000e+00	 6.562499999999998e+00	 9.809756923076927e+00
0	 1.250000000000000e+00	 6.624999999999998e+00	 9.816276984615371e+00
0	 1.250000000000000e+00	 6.687499999999998e+00	 9.822835076923077e+00
0	 1.250000000000000e+00	 6.749999999999998e+00	 9.829431199999997e+00
0	 1.250000000000000e+00	 6.812499999999998e+00	 9.836065353846159e+00
0	 1.250000000000000e+00	 6.875000000000000e+00	 9.842737538461527e+00
0	 6.250000000000000e-01	 6.875000000000000e+00	 9.802984923076917e+00
0	 6.250000000000000e-01	 6.937500000000000e+00	 9.809322335384614e+00
0	 6.250000000000001e-01	 7.000000000000000e+00	 9.815754879999979e+00
0	 6.249999999999999e-01	 7.062500000000000e+00	 9.822282556923078e+00
0	 6.250000000000000e-01	 7.125000000000000e+00	 9.828905366153842e+00
0	 6.250000000000000e-01	 7.187499999999998e+00	 9.835623307692309e+00
0	 6.250000000000000e-01	 7.249999999999998e+00	 9.842436381538461e+00
0	 6.249999999999999e-01	 7.312499999999998e+00	 9.849344587692300e+00
0	 6.250000000000000e-01	 7.374999999999998e+00	 9.856347926153834e+00
0	 6.250000000000000e-01	 7.437499999999998e+00	 9.863446396923067e+00
0	 6.250000000000000e-01	 7.500000000000000e+00	 9.870639999999991e+00
0	 6.875000000000000e-01	 6.874999999999999e+00	 9.805442369230768e+00
0	 6.875000000000000e-01	 6.937499999999997e+00	 9.811685680307690e+00
0	 6.875000000000000e-01	 7.000000000000001e+00	 9.818021348923068e+00
0	 6.874999999999999e-01	 7.062499999999997e+00	 9.824449375076913e+00
0	 6.874999999999999e-01	 7.124999999999997e+00	 9.830969758769228e+00
0	 6.875000000000000e-01	 7.187499999999997e+00	 9.837582499999995e+00
0	 6.875000000000000e-01	 7.249999999999998e+00	 9.844287598769212e+00
0	 6.875000000000001e-01	 7.312499999999997e+00	 9.851085055076915e+00
0	 6.874999999999999e-01	 7.374999999999999e+00	 9.857974868923066e+00
0	 6.875000000000001e-01	 7.437499999999997e+00	 9.864957040307686e+00
0	 6.875000000000000e-01	 7.500000000000000e+00	 9.872031569230758e+00
0	 7.500000000000001e-01	 6.875000000000001e+00	 9.808237107692287e+00
0	 7.500000000000000e-01	 6.937499999999998e+00	 9.814376495999998e+00
0	 7.500000000000001e-01	 7.000000000000000e+00	 9.820605467076920e+00
0	 7.500000000000001e-01	 7.062499999999998e+00	 9.826924020923068e+00
0	 7.500000000000000e-01	 7.124999999999999e+00	 9.833332157538440e+00
0	 7.500000000000001e-01	 7.187499999999999e+00	 9.839829876923060e+00
0	 7.500000000000002e-01	 7.249999999999999e+00	 9.846417179076921e+00
0	 7.500000000000001e-01	 7.312499999999999e+00	 9.853094063999993e+00
0	 7.500000000000000e-01	 7.374999999999996e+00	 9.859860531692290e+00
0	 7.500000000000000e-01	 7.437499999999997e+00	 9.866716582153844e+00
0	 7.500000000000001e-01	 7.500000000000000e+00	 9.873662215384595e+00
0	 8.125000000000002e-01	 6.875000000000000e+00	 9.811369138461560e+00
0	 8.125000000000002e-01	 6.937500000000000e+00	 9.817394782461562e+00
0	 8.125000000000002e-01	 6.999999999999999e+00	 9.823507234461538e+00
0	 8.125000000000002e-01	 7.062499999999999e+00	 9.829706494461547e+00
0	 8.124999999999999e-01	 7.124999999999999e+00	 9.835992562461522e+00
0	 8.125000000000002e-01	 7.187499999999999e+00	 9.842365438461547e+00
0	 8.125000000000001e-01	 7.249999999999996e+00	 9.848825122461539e+00
0	 8.125000000000000e-01	 7.312499999999999e+00	 9.855371614461523e+00
0	 8.125000000000001e-01	 7.374999999999998e+00	 9.862004914461528e+00
0	 8.125000000000001e-01	 7.437499999999997e+00	 9.868725022461529e+00
0	 8.125000000000002e-01	 7.500000000000000e+00	 9.875531938461499e+00
0	 8.750000000000002e-01	 6.875000000000000e+00	 9.814838461538461e+00
0	 8.750000000000003e-01	 6.937500000000002e+00	 9.820740539692299e+00
0	 8.750000000000002e-01	 6.999999999999999e+00	 9.826726651076935e+00
0	 8.750000000000002e-01	 7.062500000000000e+00	 9.832796795692305e+00
0	 8.750000000000003e-01	 7.124999999999999e+00	 9.838950973538452e+00
0	 8.749999999999999e-01	 7.187499999999996e+00	 9.845189184615382e+00
0	 8.750000000000002e-01	 7.250000000000000e+00	 9.851511428923073e+00
0	 8.750000000000001e-01	 7.312499999999997e+00	 9.857917706461514e+00
0	 8.750000000000002e-01	 7.375000000000000e+00	 9.864408017230760e+00
0	 8.750000000000001e-01	 7.437499999999998e+00	 9.870982361230762e+00
0	 8.750000000000002e-01	 7.500000000000000e+00	 9.877640738461530e+00
0	 9.375000000000004e-01	 6.875000000000000e+00	 9.818645076923064e+00
0	 9.375000000000003e-01	 6.937500000000000e+00	 9.824413767692301e+00
0	 9.375000000000004e-01	 6.999999999999999e+00	 9.830263716923064e+00
0	 9.375000000000003e-01	 7.062500000000001e+00	 9.836194924615372e+00
0	 9.375000000000000e-01	 7.124999999999998e+00	 9.842207390769222e+00
0	 9.375000000000003e-01	 7.187499999999999e+00	 9.848301115384615e+00
0	 9.375000000000004e-01	 7.250000000000000e+00	 9.854476098461529e+00
0	 9.375000000000003e-01	 7.312499999999999e+00	 9.860732340000004e+00
0	 9.375000000000003e-01	 7.374999999999997e+00	 9.867069839999980e+00
0	 9.375000000000003e-01	 7.437499999999999e+00	 9.873488598461519e+00
0	 9.375000000000004e-01	 7.500000000000000e+00	 9.879988615384617e+00
0	 1.000000000000000e+00	 6.875000000000000e+00	 9.822788984615393e+00
0	 1.000000000000000e+00	 6.937500000000001e+00	 9.828414466461538e+00
0	 1.000000000000000e+00	 6.999999999999999e+00	 9.834118432000006e+00
0	 1.000000000000000e+00	 7.062499999999998e+00	 9.839900881230761e+00
0	 1.000000000000000e+00	 7.125000000000000e+00	 9.845761814153837e+00
0	 1.000000000000000e+00	 7.187499999999999e+00	 9.851701230769230e+00
0	 1.000000000000000e+00	 7.249999999999999e+00	 9.857719131076905e+00
0	 1.000000000000000e+00	 7.312499999999999e+00	 9.863815515076910e+00
0	 1.000000000000000e+00	 7.374999999999998e+00	 9.869990382769229e+00
0	 1.000000000000000e+00	 7.437499999999999e+00	 9.876243734153837e+00
0	 1.000000000000000e+00	 7.499999999999999e+00	 9.882575569230749e+00
0	 1.062500000000000e+00	 6.875000000000000e+00	 9.827270184615344e+00
0	 1.062500000000000e+00	 6.937500000000000e+00	 9.832742635999965e+00
0	 1.062500000000000e+00	 6.999999999999999e+00	 9.838290796307685e+00
0	 1.062500000000000e+00	 7.062499999999999e+00	 9.843914665538456e+00
0	 1.062500000000001e+00	 7.125000000000000e+00	 9.849614243692303e+00
0	 1.062500000000001e+00	 7.187500000000000e+00	 9.855389530769234e+00
0	 1.062500000000000e+00	 7.249999999999998e+00	 9.861240526769215e+00
0	 1.062500000000001e+00	 7.312499999999999e+00	 9.867167231692294e+00
0	 1.062500000000000e+00	 7.374999999999998e+00	 9.873169645538450e+00
0	 1.062500000000001e+00	 7.437499999999998e+00	 9.879247768307664e+00
0	 1.062500000000000e+00	 7.500000000000000e+00	 9.885401599999994e+00
0	 1.125000000000000e+00	 6.874999999999999e+00	 9.832088676923075e+00
0	 1.125000000000000e+00	 6.937500000000000e+00	 9.837398276307681e+00
0	 1.125000000000001e+00	 7.000000000000000e+00	 9.842780809846136e+00
0	 1.125000000000000e+00	 7.062500000000000e+00	 9.848236277538453e+00
0	 1.125000000000001e+00	 7.125000000000001e+00	 9.853764679384597e+00
0	 1.125000000000000e+00	 7.187499999999998e+00	 9.859366015384612e+00
0	 1.125000000000000e+00	 7.249999999999998e+00	 9.865040285538461e+00
0	 1.125000000000000e+00	 7.312499999999998e+00	 9.870787489846141e+00
0	 1.125000000000000e+00	 7.374999999999998e+00	 9.876607628307674e+00
0	 1.125000000000000e+00	 7.437499999999997e+00	 9.882500700923085e+00
0	 1.125000000000000e+00	 7.500000000000000e+00	 9.888466707692281e+00
0	 1.187500000000000e+00	 6.875000000000000e+00	 9.837244461538454e+00
0	 1.187500000000000e+00	 6.937499999999997e+00	 9.842381387384616e+00
0	 1.187500000000000e+00	 7.000000000000000e+00	 9.847588472615364e+00
0	 1.187500000000000e+00	 7.062500000000000e+00	 9.852865717230777e+00
0	 1.187500000000001e+00	 7.125000000000000e+00	 9.858213121230772e+00
0	 1.187500000000000e+00	 7.187499999999998e+00	 9.863630684615369e+00
0	 1.187500000000000e+00	 7.249999999999999e+00	 9.869118407384608e+00
0	 1.187500000000000e+00	 7.312499999999998e+00	 9.874676289538442e+00
0	 1.187500000000000e+00	 7.374999999999998e+00	 9.880304331076918e+00
0	 1.187500000000000e+00	 7.437499999999998e+00	 9.886002531999981e+00
0	 1.187500000000000e+00	 7.500000000000000e+00	 9.891770892307678e+00
0	 1.250000000000000e+00	 6.875000000000000e+00	 9.842737538461527e+00
0	 1.250000000000000e+00	 6.937500000000000e+00	 9.847691969230766e+00
0	 1.250000000000000e+00	 7.000000000000000e+00	 9.852713784615359e+00
0	 1.250000000000000e+00	 7.062500000000000e+00	 9.857802984615383e+00
0	 1.250000000000000e+00	 7.125000000000000e+00	 9.862959569230759e+00
0	 1.250000000000000e+00	 7.187499999999998e+00	 9.868183538461537e+00
0	 1.250000000000000e+00	 7.249999999999998e+00	 9.873474892307694e+00
0	 1.250000000000000e+00	 7.312499999999998e+00	 9.878833630769220e+00
0	 1.250000000000000e+00	 7.374999999999998e+00	 9.884259753846132e+00
0	 1.250000000000000e+00	 7.437499999999998e+00	 9.889753261538463e+00
0	 1.250000000000000e+00	 7.500000000000000e+00	 9.895314153846146e+00
0	 6.250000000000000e-01	 7.500000000000000e+00	 9.870639999999991e+00
0	 6.250000000000000e-01	 7.562500000000000e+00	 9.875552772307685e+00
0	 6.250000000000001e-01	 7.625000000000000e+00	 9.880570904615398e+00
0	 6.249999999999999e-01	 7.687499999999999e+00	 9.885694396923066e+00
0	 6.250000000000000e-01	 7.750000000000000e+00	 9.890923249230779e+00
0	 6.250000000000000e-01	 7.812499999999999e+00	 9.896257461538459e+00
0	 6.250000000000000e-01	 7.874999999999998e+00	 9.901697033846149e+00
0	 6.249999999999999e-01	 7.937499999999997e+00	 9.907241966153851e+00
0	 6.250000000000000e-01	 7.999999999999998e+00	 9.912892258461550e+00
0	 6.250000000000000e-01	 8.062499999999996e+00	 9.918647910769236e+00
0	 6.250000000000000e-01	 8.125000000000000e+00	 9.924508923076937e+00
0	 6.875000000000000e-01	 7.500000000000000e+00	 9.872031569230758e+00
0	 6.875000000000000e-01	 7.562499999999999e+00	 9.876884395384614e+00
0	 6.875000000000000e-01	 7.624999999999998e+00	 9.881839895384616e+00
0	 6.874999999999999e-01	 7.687499999999996e+00	 9.886898069230769e+00
0	 6.874999999999999e-01	 7.749999999999998e+00	 9.892058916923077e+00
0	 6.875000000000000e-01	 7.812499999999996e+00	 9.897322438461533e+00
0	 6.875000000000000e-01	 7.875000000000000e+00	 9.902688633846154e+00
0	 6.875000000000001e-01	 7.937499999999996e+00	 9.908157503076929e+00
0	 6.874999999999999e-01	 7.999999999999999e+00	 9.913729046153854e+00
0	 6.875000000000001e-01	 8.062499999999996e+00	 9.919403263076909e+00
0	 6.875000000000000e-01	 8.125000000000002e+00	 9.925180153846190e+00
0	 7.500000000000001e-01	 7.500000000000000e+00	 9.873662215384595e+00
0	 7.500000000000000e-01	 7.562499999999998e+00	 9.878447083076926e+00
0	 7.500000000000001e-01	 7.624999999999999e+00	 9.883331938461525e+00
0	 7.500000000000001e-01	 7.687500000000000e+00	 9.888316781538453e+00
0	 7.500000000000000e-01	 7.749999999999999e+00	 9.893401612307688e+00
0	 7.500000000000001e-01	 7.812499999999998e+00	 9.898586430769232e+00
0	 7.500000000000002e-01	 7.875000000000000e+00	 9.903871236923075e+00
0	 7.500000000000001e-01	 7.937499999999998e+00	 9.909256030769246e+00
0	 7.500000000000000e-01	 7.999999999999996e+00	 9.914740812307723e+00
0	 7.500000000000000e-01	 8.062499999999998e+00	 9.920325581538455e+00
0	 7.500000000000001e-01	 8.125000000000000e+00	 9.926010338461548e+00
0	 8.125000000000002e-01	 7.500000000000000e+00	 9.875531938461499e+00
0	 8.125000000000002e-01	 7.562500000000000e+00	 9.880240835384621e+00
0	 8.125000000000002e-01	 7.624999999999999e+00	 9.885047033846138e+00
0	 8.125000000000002e-01	 7.687499999999999e+00	 9.889950533846156e+00
0	 8.124999999999999e-01	 7.749999999999997e+00	 9.894951335384608e+00
0	 8.125000000000002e-01	 7.812499999999999e+00	 9.900049438461554e+00
0	 8.125000000000001e-01	 7.874999999999997e+00	 9.905244843076911e+00
0	 8.125000000000000e-01	 7.937499999999998e+00	 9.910537549230780e+00
0	 8.125000000000001e-01	 7.999999999999997e+00	 9.915927556923089e+00
0	 8.125000000000001e-01	 8.062499999999998e+00	 9.921414866153821e+00
0	 8.125000000000002e-01	 8.124999999999998e+00	 9.926999476923113e+00
0	 8.750000000000002e-01	 7.500000000000000e+00	 9.877640738461530e+00
0	 8.750000000000003e-01	 7.562500000000001e+00	 9.882265652307673e+00
0	 8.750000000000002e-01	 7.625000000000001e+00	 9.886985181538446e+00
0	 8.750000000000002e-01	 7.687499999999999e+00	 9.891799326153832e+00
0	 8.750000000000003e-01	 7.749999999999999e+00	 9.896708086153843e+00
0	 8.749999999999999e-01	 7.812499999999996e+00	 9.901711461538461e+00
0	 8.750000000000002e-01	 7.874999999999998e+00	 9.906809452307696e+00
0	 8.750000000000001e-01	 7.937499999999998e+00	 9.912002058461550e+00
0	 8.750000000000002e-01	 7.999999999999998e+00	 9.917289280000007e+00
0	 8.750000000000001e-01	 8.062499999999998e+00	 9.922671116923107e+00
0	 8.750000000000002e-01	 8.125000000000002e+00	 9.928147569230790e+00
0	 9.375000000000004e-01	 7.500000000000000e+00	 9.879988615384617e+00
0	 9.375000000000003e-01	 7.562500000000000e+00	 9.884521533846126e+00
0	 9.375000000000004e-01	 7.625000000000000e+00	 9.889146381538445e+00
0	 9.375000000000003e-01	 7.687500000000000e+00	 9.893863158461539e+00
0	 9.375000000000000e-01	 7.749999999999997e+00	 9.898671864615368e+00
0	 9.375000000000003e-01	 7.812500000000000e+00	 9.903572499999997e+00
0	 9.375000000000004e-01	 7.874999999999999e+00	 9.908565064615384e+00
0	 9.375000000000003e-01	 7.937499999999999e+00	 9.913649558461543e+00
0	 9.375000000000003e-01	 7.999999999999998e+00	 9.918825981538458e+00
0	 9.375000000000003e-01	 8.062500000000000e+00	 9.924094333846179e+00
0	 9.375000000000004e-01	 8.125000000000000e+00	 9.929454615384627e+00
0	 1.000000000000000e+00	 7.499999999999999e+00	 9.882575569230749e+00
0	 1.000000000000000e+00	 7.562500000000000e+00	 9.887008479999988e+00
0	 1.000000000000000e+00	 7.625000000000001e+00	 9.891530633846132e+00
0	 1.000000000000000e+00	 7.687499999999998e+00	 9.896142030769241e+00
0	 1.000000000000000e+00	 7.750000000000000e+00	 9.900842670769238e+00
0	 1.000000000000000e+00	 7.812499999999998e+00	 9.905632553846161e+00
0	 1.000000000000000e+00	 7.874999999999999e+00	 9.910511679999999e+00
0	 1.000000000000000e+00	 7.937499999999998e+00	 9.915480049230757e+00
0	 1.000000000000000e+00	 7.999999999999997e+00	 9.920537661538470e+00
0	 1.000000000000000e+00	 8.062499999999998e+00	 9.925684516923067e+00
0	 1.000000000000000e+00	 8.125000000000000e+00	 9.930920615384649e+00
0	 1.062500000000000e+00	 7.500000000000000e+00	 9.885401599999994e+00
0	 1.062500000000000e+00	 7.562500000000000e+00	 9.889726490769213e+00
0	 1.062500000000000e+00	 7.624999999999999e+00	 9.894137938461533e+00
0	 1.062500000000000e+00	 7.687499999999998e+00	 9.898635943076920e+00
0	 1.062500000000001e+00	 7.750000000000000e+00	 9.903220504615387e+00
0	 1.062500000000001e+00	 7.812500000000000e+00	 9.907891623076928e+00
0	 1.062500000000000e+00	 7.874999999999998e+00	 9.912649298461547e+00
0	 1.062500000000001e+00	 7.937500000000000e+00	 9.917493530769221e+00
0	 1.062500000000000e+00	 7.999999999999998e+00	 9.922424320000021e+00
0	 1.062500000000001e+00	 8.062500000000000e+00	 9.927441666153856e+00
0	 1.062500000000000e+00	 8.125000000000000e+00	 9.932545569230779e+00
0	 1.125000000000000e+00	 7.500000000000000e+00	 9.888466707692281e+00
0	 1.125000000000000e+00	 7.562499999999999e+00	 9.892675566153841e+00
0	 1.125000000000001e+00	 7.624999999999999e+00	 9.896968295384609e+00
0	 1.125000000000000e+00	 7.687500000000000e+00	 9.901344895384609e+00
0	 1.125000000000001e+00	 7.749999999999999e+00	 9.905805366153849e+00
0	 1.125000000000000e+00	 7.812499999999999e+00	 9.910349707692323e+00
0	 1.125000000000000e+00	 7.874999999999998e+00	 9.914977920000005e+00
0	 1.125000000000000e+00	 7.937499999999998e+00	 9.919690003076925e+00
0	 1.125000000000000e+00	 7.999999999999998e+00	 9.924485956923085e+00
0	 1.125000000000000e+00	 8.062499999999996e+00	 9.929365781538461e+00
0	 1.125000000000000e+00	 8.125000000000000e+00	 9.934329476923091e+00
0	 1.187500000000000e+00	 7.500000000000000e+00	 9.891770892307678e+00
0	 1.187500000000000e+00	 7.562499999999998e+00	 9.895855706153807e+00
0	 1.187500000000000e+00	 7.625000000000000e+00	 9.900021704615378e+00
0	 1.187500000000000e+00	 7.687500000000000e+00	 9.904268887692309e+00
0	 1.187500000000001e+00	 7.750000000000000e+00	 9.908597255384624e+00
0	 1.187500000000000e+00	 7.812499999999998e+00	 9.913006807692298e+00
0	 1.187500000000000e+00	 7.874999999999998e+00	 9.917497544615385e+00
0	 1.187500000000000e+00	 7.937499999999998e+00	 9.922069466153859e+00
0	 1.187500000000000e+00	 7.999999999999999e+00	 9.926722572307694e+00
0	 1.187500000000000e+00	 8.062499999999998e+00	 9.931456863076910e+00
0	 1.187500000000000e+00	 8.125000000000000e+00	 9.936272338461546e+00
0	 1.250000000000000e+00	 7.500000000000000e+00	 9.895314153846146e+00
0	 1.250000000000000e+00	 7.562500000000000e+00	 9.899266910769231e+00
0	 1.250000000000000e+00	 7.625000000000000e+00	 9.903298166153858e+00
0	 1.250000000000000e+00	 7.687499999999999e+00	 9.907407920000004e+00
0	 1.250000000000000e+00	 7.750000000000000e+00	 9.911596172307696e+00
0	 1.250000000000000e+00	 7.812499999999999e+00	 9.915862923076917e+00
0	 1.250000000000000e+00	 7.874999999999998e+00	 9.920208172307689e+00
0	 1.250000000000000e+00	 7.937499999999997e+00	 9.924631920000010e+00
0	 1.250000000000000e+00	 7.999999999999998e+00	 9.929134166153856e+00
0	 1.250000000000000e+00	 8.062499999999996e+00	 9.933714910769236e+00
0	 1.250000000000000e+00	 8.125000000000000e+00	 9.938374153846160e+00
0	 6.250000000000000e-01	 8.125000000000000e+00	 9.924508923076937e+00
0	 6.250000000000000e-01	 8.187500000000000e+00	 9.928017318461546e+00
0	 6.250000000000001e-01	 8.250000000000002e+00	 9.931656043076913e+00
0	 6.249999999999999e-01	 8.312500000000000e+00	 9.935425096923094e+00
0	 6.250000000000000e-01	 8.374999999999998e+00	 9.939324479999996e+00
0	 6.250000000000000e-01	 8.437500000000000e+00	 9.943354192307694e+00
0	 6.250000000000000e-01	 8.500000000000000e+00	 9.947514233846160e+00
0	 6.249999999999999e-01	 8.562499999999998e+00	 9.951804604615379e+00
0	 6.250000000000000e-01	 8.625000000000000e+00	 9.956225304615380e+00
0	 6.250000000000000e-01	 8.687499999999998e+00	 9.960776333846106e+00
0	 6.250000000000000e-01	 8.750000000000000e+00	 9.965457692307684e+00
0	 6.875000000000000e-01	 8.125000000000002e+00	 9.925180153846190e+00
0	 6.875000000000000e-01	 8.187499999999998e+00	 9.928646450000020e+00
0	 6.875000000000000e-01	 8.250000000000000e+00	 9.932240550769233e+00
0	 6.874999999999999e-01	 8.312499999999996e+00	 9.935962456153852e+00
0	 6.874999999999999e-01	 8.374999999999998e+00	 9.939812166153850e+00
0	 6.875000000000000e-01	 8.437499999999996e+00	 9.943789680769232e+00
0	 6.875000000000000e-01	 8.500000000000002e+00	 9.947894999999987e+00
0	 6.875000000000001e-01	 8.562499999999998e+00	 9.952128123846144e+00
0	 6.874999999999999e-01	 8.624999999999998e+00	 9.956489052307690e+00
0	 6.875000000000001e-01	 8.687499999999996e+00	 9.960977785384600e+00
0	 6.875000000000000e-01	 8.750000000000002e+00	 9.965594323076907e+00
0	 7.500000000000001e-01	 8.125000000000000e+00	 9.926010338461548e+00
0	 7.500000000000000e-01	 8.187499999999996e+00	 9.929429624615405e+00
0	 7.500000000000001e-01	 8.250000000000000e+00	 9.932974190769242e+00
0	 7.500000000000001e-01	 8.312500000000002e+00	 9.936644036923079e+00
0	 7.500000000000000e-01	 8.375000000000000e+00	 9.940439163076938e+00
0	 7.500000000000001e-01	 8.437500000000000e+00	 9.944359569230786e+00
0	 7.500000000000002e-01	 8.499999999999996e+00	 9.948405255384619e+00
0	 7.500000000000001e-01	 8.562500000000000e+00	 9.952576221538429e+00
0	 7.500000000000000e-01	 8.624999999999998e+00	 9.956872467692310e+00
0	 7.500000000000000e-01	 8.687499999999998e+00	 9.961293993846139e+00
0	 7.500000000000001e-01	 8.749999999999998e+00	 9.965840800000004e+00
0	 8.125000000000002e-01	 8.124999999999998e+00	 9.926999476923113e+00
0	 8.125000000000002e-01	 8.187499999999998e+00	 9.930366842307699e+00
0	 8.125000000000002e-01	 8.250000000000002e+00	 9.933856963076908e+00
0	 8.125000000000002e-01	 8.312500000000000e+00	 9.937469839230776e+00
0	 8.124999999999999e-01	 8.374999999999998e+00	 9.941205470769233e+00
0	 8.125000000000002e-01	 8.437499999999998e+00	 9.945063857692304e+00
0	 8.125000000000001e-01	 8.500000000000000e+00	 9.949045000000000e+00
0	 8.125000000000000e-01	 8.562499999999998e+00	 9.953148897692305e+00
0	 8.125000000000001e-01	 8.624999999999998e+00	 9.957375550769232e+00
0	 8.125000000000001e-01	 8.687499999999996e+00	 9.961724959230768e+00
0	 8.125000000000002e-01	 8.750000000000000e+00	 9.966197123076883e+00
0	 8.750000000000002e-01	 8.125000000000002e+00	 9.928147569230790e+00
0	 8.750000000000003e-01	 8.187500000000002e+00	 9.931458103076920e+00
0	 8.750000000000002e-01	 8.250000000000000e+00	 9.934888867692319e+00
0	 8.750000000000002e-01	 8.312500000000000e+00	 9.938439863076940e+00
0	 8.750000000000003e-01	 8.375000000000000e+00	 9.942111089230767e+00
0	 8.749999999999999e-01	 8.437499999999998e+00	 9.945902546153839e+00
0	 8.750000000000002e-01	 8.500000000000000e+00	 9.949814233846162e+00
0	 8.750000000000001e-01	 8.562499999999998e+00	 9.953846152307678e+00
0	 8.750000000000002e-01	 8.624999999999998e+00	 9.957998301538456e+00
0	 8.750000000000001e-01	 8.687499999999998e+00	 9.962270681538470e+00
0	 8.750000000000002e-01	 8.750000000000000e+00	 9.966663292307683e+00
0	 9.375000000000004e-01	 8.125000000000000e+00	 9.929454615384627e+00
0	 9.375000000000003e-01	 8.187500000000000e+00	 9.932703406923084e+00
0	 9.375000000000004e-01	 8.250000000000000e+00	 9.936069904615403e+00
0	 9.375000000000003e-01	 8.312500000000000e+00	 9.939554108461522e+00
0	 9.375000000000000e-01	 8.374999999999998e+00	 9.943156018461545e+00
0	 9.375000000000003e-01	 8.437500000000002e+00	 9.946875634615372e+00
0	 9.375000000000004e-01	 8.500000000000000e+00	 9.950712956923054e+00
0	 9.375000000000003e-01	 8.562500000000000e+00	 9.954667985384624e+00
0	 9.375000000000003e-01	 8.625000000000000e+00	 9.958740720000012e+00
0	 9.375000000000003e-01	 8.687499999999998e+00	 9.962931160769218e+00
0	 9.375000000000004e-01	 8.750000000000002e+00	 9.967239307692287e+00
0	 1.000000000000000e+00	 8.125000000000000e+00	 9.930920615384649e+00
0	 1.000000000000000e+00	 8.187500000000002e+00	 9.934102753846162e+00
0	 1.000000000000000e+00	 8.250000000000000e+00	 9.937400073846167e+00
0	 1.000000000000000e+00	 8.312499999999998e+00	 9.940812575384619e+00
0	 1.000000000000000e+00	 8.375000000000000e+00	 9.944340258461555e+00
0	 1.000000000000000e+00	 8.437500000000000e+00	 9.947983123076927e+00
0	 1.000000000000000e+00	 8.500000000000000e+00	 9.951741169230768e+00
0	 1.000000000000000e+00	 8.562499999999998e+00	 9.955614396923080e+00
0	 1.000000000000000e+00	 8.624999999999998e+00	 9.959602806153816e+00
0	 1.000000000000000e+00	 8.687499999999998e+00	 9.963706396923056e+00
0	 1.000000000000000e+00	 8.750000000000000e+00	 9.967925169230757e+00
0	 1.062500000000000e+00	 8.125000000000000e+00	 9.932545569230779e+00
0	 1.062500000000000e+00	 8.187500000000000e+00	 9.935656143846158e+00
0	 1.062500000000000e+00	 8.249999999999998e+00	 9.938879375384611e+00
0	 1.062500000000000e+00	 8.312500000000000e+00	 9.942215263846162e+00
0	 1.062500000000001e+00	 8.374999999999998e+00	 9.945663809230776e+00
0	 1.062500000000001e+00	 8.437500000000000e+00	 9.949225011538477e+00
0	 1.062500000000000e+00	 8.499999999999998e+00	 9.952898870769260e+00
0	 1.062500000000001e+00	 8.562500000000000e+00	 9.956685386923077e+00
0	 1.062500000000000e+00	 8.624999999999998e+00	 9.960584560000008e+00
0	 1.062500000000001e+00	 8.687500000000000e+00	 9.964596390000009e+00
0	 1.062500000000000e+00	 8.750000000000000e+00	 9.968720876923069e+00
0	 1.125000000000000e+00	 8.125000000000000e+00	 9.934329476923091e+00
0	 1.125000000000000e+00	 8.187500000000000e+00	 9.937363576923099e+00
0	 1.125000000000001e+00	 8.250000000000000e+00	 9.940507809230773e+00
0	 1.125000000000000e+00	 8.312499999999998e+00	 9.943762173846176e+00
0	 1.125000000000001e+00	 8.375000000000000e+00	 9.947126670769233e+00
0	 1.125000000000000e+00	 8.437500000000000e+00	 9.950601300000006e+00
0	 1.125000000000000e+00	 8.499999999999998e+00	 9.954186061538481e+00
0	 1.125000000000000e+00	 8.562499999999998e+00	 9.957880955384612e+00
0	 1.125000000000000e+00	 8.624999999999998e+00	 9.961685981538466e+00
0	 1.125000000000000e+00	 8.687499999999998e+00	 9.965601139999979e+00
0	 1.125000000000000e+00	 8.750000000000000e+00	 9.969626430769210e+00
0	 1.187500000000000e+00	 8.125000000000000e+00	 9.936272338461546e+00
0	 1.187500000000000e+00	 8.187499999999998e+00	 9.939225053076919e+00
0	 1.187500000000000e+00	 8.250000000000000e+00	 9.942285375384635e+00
0	 1.187500000000000e+00	 8.312499999999998e+00	 9.945453305384621e+00
0	 1.187500000000001e+00	 8.375000000000000e+00	 9.948728843076932e+00
0	 1.187500000000000e+00	 8.437499999999998e+00	 9.952111988461544e+00
0	 1.187500000000000e+00	 8.499999999999998e+00	 9.955602741538454e+00
0	 1.187500000000000e+00	 8.562499999999998e+00	 9.959201102307691e+00
0	 1.187500000000000e+00	 8.624999999999998e+00	 9.962907070769242e+00
0	 1.187500000000000e+00	 8.687500000000000e+00	 9.966720646923090e+00
0	 1.187500000000000e+00	 8.750000000000000e+00	 9.970641830769246e+00
0	 1.250000000000000e+00	 8.125000000000000e+00	 9.938374153846160e+00
0	 1.250000000000000e+00	 8.187500000000000e+00	 9.941240572307688e+00
0	 1.250000000000000e+00	 8.250000000000002e+00	 9.944212073846140e+00
0	 1.250000000000000e+00	 8.312500000000000e+00	 9.947288658461545e+00
0	 1.250000000000000e+00	 8.374999999999998e+00	 9.950470326153843e+00
0	 1.250000000000000e+00	 8.437500000000000e+00	 9.953757076923081e+00
0	 1.250000000000000e+00	 8.500000000000000e+00	 9.957148910769241e+00
0	 1.250000000000000e+00	 8.562499999999998e+00	 9.960645827692311e+00
0	 1.250000000000000e+00	 8.625000000000000e+00	 9.964247827692311e+00
0	 1.250000000000000e+00	 8.687499999999998e+00	 9.967954910769214e+00
0	 1.250000000000000e+00	 8.750000000000000e+00	 9.971767076923081e+00
0	 6.250000000000000e-01	 8.750000000000000e+00	 9.965457692307684e+00
0	 6.250000000000000e-01	 8.812500000000000e+00	 9.967496689230764e+00
0	 6.250000000000001e-01	 8.875000000000002e+00	 9.969707710769246e+00
0	 6.249999999999999e-01	 8.937499999999998e+00	 9.972090756923075e+00
0	 6.250000000000000e-01	 9.000000000000000e+00	 9.974645827692308e+00
0	 6.250000000000000e-01	 9.062500000000000e+00	 9.977372923076906e+00
0	 6.250000000000000e-01	 9.124999999999998e+00	 9.980272043076909e+00
0	 6.249999999999999e-01	 9.187499999999998e+00	 9.983343187692306e+00
0	 6.250000000000000e-01	 9.249999999999998e+00	 9.986586356923095e+00
0	 6.250000000000000e-01	 9.312499999999998e+00	 9.990001550769234e+00
0	 6.250000000000000e-01	 9.375000000000000e+00	 9.993588769230778e+00
0	 6.875000000000000e-01	 8.750000000000002e+00	 9.965594323076907e+00
0	 6.875000000000000e-01	 8.812499999999996e+00	 9.967604298769206e+00
0	 6.875000000000000e-01	 8.874999999999998e+00	 9.969783358153828e+00
0	 6.874999999999999e-01	 8.937499999999998e+00	 9.972131501230772e+00
0	 6.874999999999999e-01	 8.999999999999998e+00	 9.974648727999993e+00
0	 6.875000000000000e-01	 9.062499999999996e+00	 9.977335038461529e+00
0	 6.875000000000000e-01	 9.124999999999998e+00	 9.980190432615379e+00
0	 6.875000000000001e-01	 9.187499999999996e+00	 9.983214910461541e+00
0	 6.874999999999999e-01	 9.249999999999998e+00	 9.986408472000006e+00
0	 6.875000000000001e-01	 9.312499999999998e+00	 9.989771117230797e+00
0	 6.875000000000000e-01	 9.375000000000000e+00	 9.993302846153847e+00
0	 7.500000000000001e-01	 8.749999999999998e+00	 9.965840800000004e+00
0	 7.500000000000000e-01	 8.812499999999998e+00	 9.967819815999979e+00
0	 7.500000000000001e-01	 8.875000000000002e+00	 9.969964974769205e+00
0	 7.500000000000001e-01	 8.937499999999998e+00	 9.972276276307689e+00
0	 7.500000000000000e-01	 8.999999999999998e+00	 9.974753720615372e+00
0	 7.500000000000001e-01	 9.062499999999998e+00	 9.977397307692309e+00
0	 7.500000000000002e-01	 9.125000000000000e+00	 9.980207037538467e+00
0	 7.500000000000001e-01	 9.187499999999998e+00	 9.983182910153840e+00
0	 7.500000000000000e-01	 9.249999999999996e+00	 9.986324925538465e+00
0	 7.500000000000000e-01	 9.312499999999996e+00	 9.989633083692322e+00
0	 7.500000000000001e-01	 9.375000000000000e+00	 9.993107384615396e+00
0	 8.125000000000002e-01	 8.750000000000000e+00	 9.966197123076883e+00
0	 8.125000000000002e-01	 8.812499999999998e+00	 9.968143240923068e+00
0	 8.125000000000002e-01	 8.875000000000000e+00	 9.970252560615377e+00
0	 8.125000000000002e-01	 8.937500000000002e+00	 9.972525082153833e+00
0	 8.124999999999999e-01	 8.999999999999996e+00	 9.974960805538473e+00
0	 8.125000000000002e-01	 9.062499999999998e+00	 9.977559730769222e+00
0	 8.125000000000001e-01	 9.124999999999998e+00	 9.980321857846150e+00
0	 8.125000000000000e-01	 9.187499999999998e+00	 9.983247186769242e+00
0	 8.125000000000001e-01	 9.249999999999998e+00	 9.986335717538470e+00
0	 8.125000000000001e-01	 9.312499999999998e+00	 9.989587450153842e+00
0	 8.125000000000002e-01	 9.375000000000002e+00	 9.993002384615405e+00
0	 8.750000000000002e-01	 8.750000000000000e+00	 9.966663292307683e+00
0	 8.750000000000003e-01	 8.812500000000004e+00	 9.968574573538461e+00
0	 8.750000000000002e-01	 8.875000000000000e+00	 9.970646115692308e+00
0	 8.750000000000002e-01	 8.937500000000000e+00	 9.972877918769235e+00
0	 8.750000000000003e-01	 9.000000000000000e+00	 9.975269982769234e+00
0	 8.749999999999999e-01	 9.062499999999998e+00	 9.977822307692298e+00
0	 8.750000000000002e-01	 9.125000000000000e+00	 9.980534893538456e+00
0	 8.750000000000001e-01	 9.187499999999998e+00	 9.983407740307701e+00
0	 8.750000000000002e-01	 9.250000000000000e+00	 9.986440847999997e+00
0	 8.750000000000001e-01	 9.312499999999998e+00	 9.989634216615411e+00
0	 8.750000000000002e-01	 9.375000000000002e+00	 9.992987846153865e+00
0	 9.375000000000004e-01	 8.750000000000002e+00	 9.967239307692287e+00
0	 9.375000000000003e-01	 8.812500000000000e+00	 9.969113813846171e+00
0	 9.375000000000004e-01	 8.874999999999998e+00	 9.971145639999982e+00
0	 9.375000000000003e-01	 8.937500000000000e+00	 9.973334786153835e+00
0	 9.375000000000000e-01	 8.999999999999998e+00	 9.975681252307668e+00
0	 9.375000000000003e-01	 9.062500000000002e+00	 9.978185038461522e+00
0	 9.375000000000004e-01	 9.124999999999998e+00	 9.980846144615370e+00
0	 9.375000000000003e-01	 9.187499999999998e+00	 9.983664570769227e+00
0	 9.375000000000003e-01	 9.249999999999998e+00	 9.986640316923063e+00
0	 9.375000000000003e-01	 9.312499999999998e+00	 9.989773383076924e+00
0	 9.375000000000004e-01	 9.375000000000002e+00	 9.993063769230757e+00
0	 1.000000000000000e+00	 8.750000000000000e+00	 9.967925169230757e+00
0	 1.000000000000000e+00	 8.812500000000000e+00	 9.969760961846159e+00
0	 1.000000000000000e+00	 8.874999999999998e+00	 9.971751133538437e+00
0	 1.000000000000000e+00	 8.937499999999998e+00	 9.973895684307688e+00
0	 1.000000000000000e+00	 9.000000000000000e+00	 9.976194614153842e+00
0	 1.000000000000000e+00	 9.062500000000000e+00	 9.978647923076929e+00
0	 1.000000000000000e+00	 9.124999999999998e+00	 9.981255611076906e+00
0	 1.000000000000000e+00	 9.187499999999998e+00	 9.984017678153862e+00
0	 1.000000000000000e+00	 9.249999999999998e+00	 9.986934124307691e+00
0	 1.000000000000000e+00	 9.312499999999998e+00	 9.990004949538497e+00
0	 1.000000000000000e+00	 9.374999999999998e+00	 9.993230153846159e+00
0	 1.062500000000000e+00	 8.750000000000000e+00	 9.968720876923069e+00
0	 1.062500000000000e+00	 8.812500000000000e+00	 9.970516017538456e+00
0	 1.062500000000000e+00	 8.875000000000000e+00	 9.972462596307683e+00
0	 1.062500000000000e+00	 8.937499999999998e+00	 9.974560613230745e+00
0	 1.062500000000001e+00	 8.999999999999998e+00	 9.976810068307715e+00
0	 1.062500000000001e+00	 9.062499999999998e+00	 9.979210961538458e+00
0	 1.062500000000000e+00	 9.124999999999998e+00	 9.981763292923084e+00
0	 1.062500000000001e+00	 9.187500000000000e+00	 9.984467062461544e+00
0	 1.062500000000000e+00	 9.249999999999998e+00	 9.987322270153854e+00
0	 1.062500000000001e+00	 9.312500000000000e+00	 9.990328916000006e+00
0	 1.062500000000000e+00	 9.375000000000000e+00	 9.993487000000007e+00
0	 1.125000000000000e+00	 8.750000000000000e+00	 9.969626430769210e+00
0	 1.125000000000000e+00	 8.812500000000000e+00	 9.971378980923090e+00
0	 1.125000000000001e+00	 8.874999999999998e+00	 9.973280028307679e+00
0	 1.125000000000000e+00	 8.937500000000000e+00	 9.975329572923087e+00
0	 1.125000000000001e+00	 9.000000000000002e+00	 9.977527614769231e+00
0	 1.125000000000000e+00	 9.062499999999998e+00	 9.979874153846158e+00
0	 1.125000000000000e+00	 9.124999999999998e+00	 9.982369190153829e+00
0	 1.125000000000000e+00	 9.187499999999996e+00	 9.985012723692311e+00
0	 1.125000000000000e+00	 9.250000000000000e+00	 9.987804754461539e+00
0	 1.125000000000000e+00	 9.312499999999996e+00	 9.990745282461535e+00
0	 1.125000000000000e+00	 9.375000000000000e+00	 9.993834307692310e+00
0	 1.187500000000000e+00	 8.750000000000000e+00	 9.970641830769246e+00
0	 1.187500000000000e+00	 8.812499999999998e+00	 9.972349851999992e+00
0	 1.187500000000000e+00	 8.875000000000000e+00	 9.974203429538473e+00
0	 1.187500000000000e+00	 8.937499999999998e+00	 9.976202563384613e+00
0	 1.187500000000001e+00	 9.000000000000000e+00	 9.978347253538455e+00
0	 1.187500000000000e+00	 9.062499999999998e+00	 9.980637500000009e+00
0	 1.187500000000000e+00	 9.124999999999998e+00	 9.983073302769231e+00
0	 1.187500000000000e+00	 9.187499999999998e+00	 9.985654661846151e+00
0	 1.187500000000000e+00	 9.249999999999998e+00	 9.988381577230758e+00
0	 1.187500000000000e+00	 9.312499999999998e+00	 9.991254048923079e+00
0	 1.187500000000000e+00	 9.375000000000000e+00	 9.994272076923085e+00
0	 1.250000000000000e+00	 8.750000000000000e+00	 9.971767076923081e+00
0	 1.250000000000000e+00	 8.812500000000000e+00	 9.973428630769241e+00
0	 1.250000000000000e+00	 8.875000000000002e+00	 9.975232800000027e+00
0	 1.250000000000000e+00	 8.937499999999998e+00	 9.977179584615383e+00
0	 1.250000000000000e+00	 9.000000000000000e+00	 9.979268984615391e+00
0	 1.250000000000000e+00	 9.062500000000000e+00	 9.981500999999987e+00
0	 1.250000000000000e+00	 9.124999999999998e+00	 9.983875630769223e+00
0	 1.250000000000000e+00	 9.187499999999998e+00	 9.986392876923063e+00
0	 1.250000000000000e+00	 9.249999999999998e+00	 9.989052738461536e+00
0	 1.250000000000000e+00	 9.312499999999998e+00	 9.991855215384620e+00
0	 1.250000000000000e+00	 9.375000000000000e+00	 9.994800307692307e+00
0	 6.250000000000000e-01	 9.375000000000000e+00	 9.993588769230778e+00
0	 6.250000000000000e-01	 9.437499999999998e+00	 9.993618296923088e+00
0	 6.249999999999999e-01	 9.500000000000000e+00	 9.993894572307703e+00
0	 6.250000000000000e-01	 9.562500000000000e+00	 9.994417595384611e+00
0	 6.250000000000001e-01	 9.625000000000000e+00	 9.995187366153848e+00
0	 6.250000000000000e-01	 9.687499999999998e+00	 9.996203884615410e+00
0	 6.250000000000000e-01	 9.749999999999998e+00	 9.997467150769202e+00
0	 6.250000000000000e-01	 9.812500000000000e+00	 9.998977164615377e+00
0	 6.250000000000001e-01	 9.875000000000000e+00	 1.000073392615386e+01
0	 6.250000000000000e-01	 9.937499999999998e+00	 1.000273743538460e+01
0	 6.250000000000000e-01	 1.000000000000000e+01	 1.000498769230769e+01
0	 6.875000000000000e-01	 9.375000000000000e+00	 9.993302846153847e+00
0	 6.875000000000001e-01	 9.437499999999998e+00	 9.993320495230750e+00
0	 6.875000000000000e-01	 9.500000000000000e+00	 9.993580371692330e+00
0	 6.875000000000001e-01	 9.562500000000000e+00	 9.994082475538479e+00
0	 6.875000000000000e-01	 9.625000000000000e+00	 9.994826806769227e+00
0	 6.875000000000000e-01	 9.687499999999996e+00	 9.995813365384599e+00
0	 6.875000000000000e-01	 9.749999999999998e+00	 9.997042151384589e+00
0	 6.875000000000001e-01	 9.812500000000000e+00	 9.998513164769243e+00
0	 6.875000000000000e-01	 9.874999999999998e+00	 1.000022640553843e+01
0	 6.875000000000000e-01	 9.937499999999996e+00	 1.000218187369228e+01
0	 6.875000000000000e-01	 1.000000000000000e+01	 1.000437956923077e+01
0	 7.500000000000001e-01	 9.375000000000000e+00	 9.993107384615396e+00
0	 7.500000000000001e-01	 9.437499999999998e+00	 9.993115438153861e+00
0	 7.500000000000001e-01	 9.499999999999998e+00	 9.993361198769231e+00
0	 7.500000000000002e-01	 9.562500000000000e+00	 9.993844666461555e+00
0	 7.500000000000001e-01	 9.624999999999998e+00	 9.994565841230772e+00
0	 7.500000000000003e-01	 9.687499999999998e+00	 9.995524723076896e+00
0	 7.500000000000002e-01	 9.750000000000000e+00	 9.996721312000007e+00
0	 7.500000000000002e-01	 9.812499999999998e+00	 9.998155607999976e+00
0	 7.499999999999999e-01	 9.874999999999996e+00	 9.999827611076922e+00
0	 7.500000000000001e-01	 9.937499999999998e+00	 1.000173732123076e+01
0	 7.500000000000002e-01	 1.000000000000000e+01	 1.000388473846151e+01
0	 8.125000000000002e-01	 9.375000000000002e+00	 9.993002384615405e+00
0	 8.125000000000000e-01	 9.437500000000000e+00	 9.993003125692312e+00
0	 8.125000000000001e-01	 9.499999999999998e+00	 9.993237053538447e+00
0	 8.125000000000003e-01	 9.562499999999998e+00	 9.993704168153846e+00
0	 8.125000000000000e-01	 9.624999999999998e+00	 9.994404469538450e+00
0	 8.125000000000002e-01	 9.687499999999998e+00	 9.995337957692319e+00
0	 8.124999999999999e-01	 9.749999999999996e+00	 9.996504632615405e+00
0	 8.125000000000001e-01	 9.812499999999996e+00	 9.997904494307662e+00
0	 8.125000000000003e-01	 9.875000000000000e+00	 9.999537542769255e+00
0	 8.125000000000002e-01	 9.937499999999998e+00	 1.000140377800004e+01
0	 8.125000000000002e-01	 1.000000000000000e+01	 1.000350319999997e+01
0	 8.750000000000002e-01	 9.375000000000002e+00	 9.992987846153865e+00
0	 8.750000000000001e-01	 9.437500000000000e+00	 9.992983557846161e+00
0	 8.750000000000002e-01	 9.499999999999998e+00	 9.993207936000008e+00
0	 8.750000000000003e-01	 9.562500000000000e+00	 9.993660980615379e+00
0	 8.750000000000004e-01	 9.625000000000002e+00	 9.994342691692303e+00
0	 8.750000000000002e-01	 9.687500000000000e+00	 9.995253069230738e+00
0	 8.750000000000002e-01	 9.750000000000000e+00	 9.996392113230721e+00
0	 8.750000000000003e-01	 9.812500000000002e+00	 9.997759823692309e+00
0	 8.750000000000002e-01	 9.874999999999998e+00	 9.999356200615367e+00
0	 8.750000000000000e-01	 9.937499999999996e+00	 1.000118124400002e+01
0	 8.750000000000002e-01	 1.000000000000000e+01	 1.000323495384611e+01
0	 9.375000000000004e-01	 9.375000000000002e+00	 9.993063769230757e+00
0	 9.375000000000002e-01	 9.437499999999998e+00	 9.993056734615385e+00
0	 9.375000000000004e-01	 9.499999999999996e+00	 9.993273846153825e+00
0	 9.375000000000002e-01	 9.562500000000000e+00	 9.993715103846140e+00
0	 9.375000000000002e-01	 9.624999999999998e+00	 9.994380507692295e+00
0	 9.375000000000002e-01	 9.687499999999998e+00	 9.995270057692283e+00
0	 9.375000000000003e-01	 9.749999999999998e+00	 9.996383753846146e+00
0	 9.375000000000002e-01	 9.812499999999998e+00	 9.997721596153818e+00
0	 9.375000000000003e-01	 9.874999999999998e+00	 9.999283584615352e+00
0	 9.375000000000004e-01	 9.937499999999998e+00	 1.000106971923073e+01
0	 9.375000000000002e-01	 1.000000000000000e+01	 1.000307999999996e+01
0	 1.000000000000000e+00	 9.374999999999998e+00	 9.993230153846159e+00
0	 1.000000000000000e+00	 9.437500000000002e+00	 9.993222656000000e+00
0	 1.000000000000000e+00	 9.499999999999998e+00	 9.993434784000005e+00
0	 1.000000000000001e+00	 9.562499999999998e+00	 9.993866537846150e+00
0	 1.000000000000000e+00	 9.624999999999998e+00	 9.994517917538476e+00
0	 1.000000000000000e+00	 9.687499999999998e+00	 9.995388923076918e+00
0	 1.000000000000000e+00	 9.750000000000000e+00	 9.996479554461533e+00
0	 1.000000000000000e+00	 9.812499999999998e+00	 9.997789811692313e+00
0	 1.000000000000000e+00	 9.875000000000000e+00	 9.999319694769239e+00
0	 1.000000000000000e+00	 9.937500000000000e+00	 1.000106920369228e+01
0	 1.000000000000000e+00	 1.000000000000000e+01	 1.000303833846154e+01
0	 1.062500000000000e+00	 9.375000000000000e+00	 9.993487000000007e+00
0	 1.062500000000001e+00	 9.437500000000002e+00	 9.993481321999994e+00
0	 1.062500000000000e+00	 9.500000000000000e+00	 9.993690749538450e+00
0	 1.062500000000001e+00	 9.562500000000000e+00	 9.994115282615391e+00
0	 1.062500000000000e+00	 9.624999999999998e+00	 9.994754921230783e+00
0	 1.062500000000000e+00	 9.687500000000000e+00	 9.995609665384613e+00
0	 1.062500000000000e+00	 9.750000000000000e+00	 9.996679515076917e+00
0	 1.062500000000001e+00	 9.812500000000000e+00	 9.997964470307705e+00
0	 1.062500000000000e+00	 9.874999999999996e+00	 9.999464531076910e+00
0	 1.062500000000000e+00	 9.937499999999998e+00	 1.000117969738461e+01
0	 1.062500000000000e+00	 1.000000000000000e+01	 1.000310996923072e+01
0	 1.125000000000000e+00	 9.375000000000000e+00	 9.993834307692310e+00
0	 1.125000000000000e+00	 9.437499999999998e+00	 9.993832732615386e+00
0	 1.125000000000000e+00	 9.500000000000000e+00	 9.994041742769220e+00
0	 1.125000000000001e+00	 9.562500000000000e+00	 9.994461338153858e+00
0	 1.125000000000000e+00	 9.625000000000000e+00	 9.995091518769231e+00
0	 1.125000000000000e+00	 9.687499999999998e+00	 9.995932284615350e+00
0	 1.125000000000000e+00	 9.749999999999998e+00	 9.996983635692297e+00
0	 1.125000000000000e+00	 9.812500000000000e+00	 9.998245572000037e+00
0	 1.125000000000000e+00	 9.874999999999998e+00	 9.999718093538418e+00
0	 1.125000000000000e+00	 9.937499999999998e+00	 1.000140120030769e+01
0	 1.125000000000000e+00	 1.000000000000000e+01	 1.000329489230767e+01
0	 1.187500000000000e+00	 9.375000000000000e+00	 9.994272076923085e+00
0	 1.187500000000000e+00	 9.437499999999998e+00	 9.994276887846173e+00
0	 1.187500000000001e+00	 9.500000000000000e+00	 9.994487763692327e+00
0	 1.187500000000001e+00	 9.562500000000000e+00	 9.994904704461526e+00
0	 1.187500000000000e+00	 9.624999999999996e+00	 9.995527710153846e+00
0	 1.187500000000000e+00	 9.687499999999998e+00	 9.996356780769233e+00
0	 1.187500000000000e+00	 9.750000000000000e+00	 9.997391916307716e+00
0	 1.187500000000000e+00	 9.812500000000000e+00	 9.998633116769241e+00
0	 1.187500000000000e+00	 9.874999999999998e+00	 1.000008038215388e+01
0	 1.187500000000000e+00	 9.937499999999996e+00	 1.000173371246150e+01
0	 1.187500000000000e+00	 1.000000000000000e+01	 1.000359310769224e+01
0	 1.250000000000000e+00	 9.375000000000000e+00	 9.994800307692307e+00
0	 1.250000000000000e+00	 9.437499999999998e+00	 9.994813787692296e+00
0	 1.250000000000000e+00	 9.500000000000000e+00	 9.995028812307698e+00
0	 1.250000000000000e+00	 9.562500000000000e+00	 9.995445381538456e+00
0	 1.250000000000000e+00	 9.625000000000000e+00	 9.996063495384623e+00
0	 1.250000000000000e+00	 9.687499999999998e+00	 9.996883153846152e+00
0	 1.250000000000000e+00	 9.749999999999998e+00	 9.997904356923051e+00
0	 1.250000000000000e+00	 9.812500000000000e+00	 9.999127104615379e+00
0	 1.250000000000000e+00	 9.875000000000000e+00	 1.000055139692310e+01
0	 1.250000000000000e+00	 9.937499999999998e+00	 1.000217723384615e+01
0	 1.250000000000000e+00	 1.000000000000000e+01	 1.000400461538461e+01
0	 1.250000000000000e+00	 0.000000000000000e+00	-2.306362987384617e+00
0	 1.250000000000000e+00	 6.250000000000000e-02	-2.003839637320003e+00
0	 1.250000000000000e+00	 1.250000000000000e-01	-1.584607034387693e+00
0	 1.250000000000000e+00	 1.875000000000000e-01	-1.048665178587694e+00
0	 1.250000000000000e+00	 2.500000000000000e-01	-3.960140699200014e-01
0	 1.250000000000000e+00	 3.125000000000000e-01	 3.733462916153840e-01
0	 1.250000000000000e+00	 3.750000000000000e-01	 1.259415906018463e+00
0	 1.250000000000000e+00	 4.374999999999999e-01	 2.262194773289226e+00
0	 1.250000000000000e+00	 5.000000000000000e-01	 3.381682893427689e+00
0	 1.250000000000000e+00	 5.624999999999999e-01	 4.617880266433845e+00
0	 1.250000000000000e+00	 6.250000000000000e-01	 5.970786892307692e+00
0	 1.312500000000000e+00	 0.000000000000000e+00	-8.182598849538447e-01
0	 1.312500000000000e+00	 6.250000000000000e-02	-4.267525079880015e-01
0	 1.312500000000000e+00	 1.250000000000000e-01	 6.439094332800366e-02
0	 1.312500000000000e+00	 1.875000000000000e-01	 6.551704689941555e-01
0	 1.312500000000000e+00	 2.500000000000001e-01	 1.345586069010466e+00
0	 1.312500000000000e+00	 3.125000000000001e-01	 2.135637743376924e+00
0	 1.312500000000000e+00	 3.749999999999999e-01	 3.025325492093540e+00
0	 1.312500000000000e+00	 4.375000000000000e-01	 4.014649315160304e+00
0	 1.312500000000000e+00	 5.000000000000000e-01	 5.103609212577232e+00
0	 1.312500000000000e+00	 5.624999999999999e-01	 6.292205184344306e+00
0	 1.312500000000000e+00	 6.249999999999999e-01	 7.580437230461540e+00
0	 1.375000000000000e+00	 0.000000000000000e+00	 5.806213294769247e-01
0	 1.375000000000000e+00	 6.250000000000000e-02	 1.051138711620925e+00
0	 1.375000000000000e+00	 1.250000000000000e-01	 1.604218989597540e+00
0	 1.375000000000000e+00	 1.875000000000000e-01	 2.239862163406773e+00
0	 1.375000000000000e+00	 2.500000000000001e-01	 2.958068233048617e+00
0	 1.375000000000000e+00	 3.125000000000000e-01	 3.758837198523075e+00
0	 1.375000000000000e+00	 3.749999999999999e-01	 4.642169059830155e+00
0	 1.375000000000000e+00	 4.375000000000000e-01	 5.608063816969843e+00
0	 1.375000000000000e+00	 4.999999999999999e-01	 6.656521469942151e+00
0	 1.375000000000000e+00	 5.625000000000001e-01	 7.787542018747076e+00
0	 1.375000000000000e+00	 6.250000000000001e-01	 9.001125463384621e+00
0	 1.437500000000000e+00	 0.000000000000000e+00	 1.890280655907692e+00
0	 1.437500000000000e+00	 6.250000000000000e-02	 2.429834021506770e+00
0	 1.437500000000000e+00	 1.250000000000000e-01	 3.034877104420922e+00
0	 1.437500000000000e+00	 1.875000000000001e-01	 3.705409904650156e+00
0	 1.437500000000000e+00	 2.500000000000001e-01	 4.441432422194463e+00
0	 1.437500000000000e+00	 3.125000000000000e-01	 5.242944657053850e+00
0	 1.437500000000000e+00	 3.750000000000000e-01	 6.109946609228313e+00
0	 1.437500000000000e+00	 4.374999999999999e-01	 7.042438278717852e+00
0	 1.437500000000000e+00	 4.999999999999999e-01	 8.040419665522464e+00
0	 1.437500000000000e+00	 5.625000000000000e-01	 9.103890769642156e+00
0	 1.437500000000000e+00	 6.249999999999999e-01	 1.023285159107692e+01
0	 1.500000000000000e+00	 0.000000000000000e+00	 3.110718094338466e+00
0	 1.500000000000000e+00	 6.249999999999999e-02	 3.709333421669541e+00
0	 1.500000000000000e+00	 1.250000000000000e-01	 4.356365287798157e+00
0	 1.500000000000000e+00	 1.875000000000000e-01	 5.051813692724309e+00
0	 1.500000000000000e+00	 2.500000000000000e-01	 5.795678636447998e+00
0	 1.500000000000000e+00	 3.125000000000000e-01	 6.587960118969233e+00
0	 1.500000000000001e+00	 3.750000000000001e-01	 7.428658140288001e+00
0	 1.500000000000000e+00	 4.375000000000000e-01	 8.317772700404308e+00
0	 1.500000000000000e+00	 4.999999999999999e-01	 9.255303799318156e+00
0	 1.500000000000000e+00	 5.624999999999999e-01	 1.024125143702954e+01
0	 1.500000000000000e+00	 6.250000000000001e-01	 1.127561561353846e+01
0	 1.562500000000000e+00	 0.000000000000000e+00	 4.241933644769237e+00
0	 1.562500000000000e+00	 6.249999999999998e-02	 4.889636912109232e+00
0	 1.562500000000000e+00	 1.250000000000000e-01	 5.568683539729234e+00
0	 1.562500000000000e+00	 1.875000000000000e-01	 6.279073527629234e+00
0	 1.562500000000000e+00	 2.499999999999999e-01	 7.020806875809233e+00
0	 1.562500000000000e+00	 3.125000000000001e-01	 7.793883584269235e+00
0	 1.562500000000000e+00	 3.749999999999999e-01	 8.598303653009237e+00
0	 1.562500000000000e+00	 4.375000000000000e-01	 9.434067082029230e+00
0	 1.562500000000000e+00	 4.999999999999999e-01	 1.030117387132923e+01
0	 1.562500000000001e+00	 5.625000000000001e-01	 1.119962402090923e+01
0	 1.562500000000000e+00	 6.250000000000000e-01	 1.212941753076923e+01
0	 1.625000000000000e+00	 0.000000000000000e+00	 5.283927307200003e+00
0	 1.625000000000000e+00	 6.249999999999999e-02	 5.970744492825847e+00
0	 1.625000000000000e+00	 1.250000000000000e-01	 6.671831860214153e+00
0	 1.625000000000000e+00	 1.875000000000000e-01	 7.387189409364926e+00
0	 1.625000000000000e+00	 2.500000000000001e-01	 8.116817140278160e+00
0	 1.625000000000000e+00	 3.124999999999999e-01	 8.860715052953850e+00
0	 1.625000000000000e+00	 3.750000000000000e-01	 9.618883147392005e+00
0	 1.625000000000000e+00	 4.375000000000001e-01	 1.039132142359262e+01
0	 1.625000000000000e+00	 5.000000000000000e-01	 1.117802988155569e+01
0	 1.625000000000001e+00	 5.625000000000001e-01	 1.197900852128123e+01
0	 1.625000000000000e+00	 6.250000000000000e-01	 1.279425734276924e+01
0	 1.687500000000000e+00	 0.000000000000000e+00	 6.236699081630773e+00
0	 1.687500000000001e+00	 6.250000000000000e-02	 6.952656163819389e+00
0	 1.687500000000001e+00	 1.250000000000000e-01	 7.665810249252927e+00
0	 1.687500000000000e+00	 1.875000000000000e-01	 8.376161337931389e+00
0	 1.687500000000000e+00	 2.500000000000001e-01	 9.083709429854778e+00
0	 1.687500000000000e+00	 3.125000000000000e-01	 9.788454525023083e+00
0	 1.687500000000000e+00	 3.750000000000000e-01	 1.049039662343631e+01
0	 1.687500000000000e+00	 4.374999999999999e-01	 1.118953572509446e+01
0	 1.687500000000000e+00	 4.999999999999999e-01	 1.188587182999754e+01
0	 1.687500000000000e+00	 5.625000000000000e-01	 1.257940493814554e+01
0	 1.687500000000000e+00	 6.250000000000000e-01	 1.327013504953846e+01
0	 1.750000000000000e+00	 0.000000000000000e+00	 7.100248968061543e+00
0	 1.750000000000000e+00	 6.249999999999999e-02	 7.835371925089854e+00
0	 1.750000000000000e+00	 1.250000000000000e-01	 8.550618706845547e+00
0	 1.750000000000000e+00	 1.875000000000000e-01	 9.245989313328622e+00
0	 1.750000000000001e+00	 2.500000000000000e-01	 9.921483744539081e+00
0	 1.750000000000001e+00	 3.125000000000000e-01	 1.057710200047693e+01
0	 1.750000000000000e+00	 3.750000000000000e-01	 1.121284408114215e+01
0	 1.750000000000000e+00	 4.375000000000001e-01	 1.182870998653478e+01
0	 1.750000000000001e+00	 5.000000000000000e-01	 1.242469971665477e+01
0	 1.750000000000001e+00	 5.624999999999999e-01	 1.300081327150215e+01
0	 1.750000000000000e+00	 6.250000000000000e-01	 1.355705065107693e+01
0	 1.812500000000000e+00	 0.000000000000000e+00	 7.874576966492311e+00
0	 1.812500000000001e+00	 6.250000000000000e-02	 8.618891776637234e+00
0	 1.812500000000000e+00	 1.250000000000000e-01	 9.326257232992003e+00
0	 1.812500000000000e+00	 1.875000000000000e-01	 9.996673335556620e+00
0	 1.812500000000000e+00	 2.500000000000000e-01	 1.063014008433109e+01
0	 1.812500000000000e+00	 3.125000000000001e-01	 1.122665747931539e+01
0	 1.812500000000001e+00	 3.750000000000000e-01	 1.178622552050954e+01
0	 1.812500000000001e+00	 4.375000000000000e-01	 1.230884420791354e+01
0	 1.812500000000001e+00	 5.000000000000000e-01	 1.279451354152739e+01
0	 1.812500000000000e+00	 5.625000000000000e-01	 1.324323352135108e+01
0	 1.812500000000001e+00	 6.250000000000000e-01	 1.365500414738462e+01
0	 1.875000000000000e+00	 0.000000000000000e+00	 8.559683076923076e+00
0	 1.875000000000000e+00	 6.250000000000000e-02	 9.303215718461537e+00
0	 1.875000000000000e+00	 1.250000000000000e-01	 9.992725827692306e+00
0	 1.875000000000000e+00	 1.875000000000000e-01	 1.062821340461539e+01
0	 1.875000000000000e+00	 2.500000000000000e-01	 1.120967844923077e+01
0	 1.875000000000000e+00	 3.125000000000000e-01	 1.173712096153846e+01
0	 1.875000000000000e+00	 3.750000000000000e-01	 1.221054094153846e+01
0	 1.875000000000000e+00	 4.374999999999999e-01	 1.262993838923077e+01
0	 1.875000000000000e+00	 5.000000000000000e-01	 1.299531330461538e+01
0	 1.875000000000000e+00	 5.624999999999999e-01	 1.330666568769231e+01
0	 1.875000000000000e+00	 6.250000000000000e-01	 1.356399553846154e+01
0	 1.250000000000000e+00	 6.250000000000000e-01	 5.970786892307692e+00
0	 1.250000000000000e+00	 6.875000000000000e-01	 7.975674903076926e+00
0	 1.250000000000000e+00	 7.500000000000002e-01	 9.928182683076924e+00
0	 1.250000000000000e+00	 8.125000000000002e-01	 1.182831023230769e+01
0	 1.250000000000000e+00	 8.750000000000002e-01	 1.367605755076923e+01
0	 1.250000000000000e+00	 9.375000000000002e-01	 1.547142463846154e+01
0	 1.250000000000000e+00	 1.000000000000000e+00	 1.721441149538462e+01
0	 1.250000000000000e+00	 1.062500000000000e+00	 1.890501812153847e+01
0	 1.250000000000000e+00	 1.125000000000001e+00	 2.054324451692309e+01
0	 1.250000000000000e+00	 1.187500000000000e+00	 2.212909068153848e+01
0	 1.250000000000000e+00	 1.250000000000000e+00	 2.366255661538462e+01
0	 1.312500000000000e+00	 6.249999999999999e-01	 7.580437230461540e+00
0	 1.312500000000000e+00	 6.875000000000000e-01	 9.144660313723085e+00
0	 1.312500000000000e+00	 7.500000000000000e-01	 1.066249072313846e+01
0	 1.312500000000000e+00	 8.125000000000003e-01	 1.213392845870770e+01
0	 1.312500000000000e+00	 8.750000000000002e-01	 1.355897352043077e+01
0	 1.312500000000000e+00	 9.375000000000003e-01	 1.493762590830770e+01
0	 1.312500000000000e+00	 1.000000000000000e+00	 1.626988562233847e+01
0	 1.312500000000000e+00	 1.062500000000000e+00	 1.755575266252308e+01
0	 1.312500000000000e+00	 1.125000000000000e+00	 1.879522702886154e+01
0	 1.312500000000000e+00	 1.187500000000001e+00	 1.998830872135385e+01
0	 1.312500000000000e+00	 1.250000000000000e+00	 2.113499774000000e+01
0	 1.375000000000000e+00	 6.250000000000001e-01	 9.001125463384621e+00
0	 1.375000000000000e+00	 6.875000000000001e-01	 1.017279712535385e+01
0	 1.375000000000000e+00	 7.500000000000003e-01	 1.130406367040001e+01
0	 1.375000000000000e+00	 8.125000000000001e-01	 1.239492509852307e+01
0	 1.375000000000000e+00	 8.750000000000003e-01	 1.344538140972308e+01
0	 1.375000000000000e+00	 9.375000000000002e-01	 1.445543260400000e+01
0	 1.375000000000000e+00	 1.000000000000000e+00	 1.542507868135385e+01
0	 1.375000000000000e+00	 1.062500000000000e+00	 1.635431964178461e+01
0	 1.375000000000000e+00	 1.125000000000000e+00	 1.724315548529231e+01
0	 1.375000000000000e+00	 1.187500000000001e+00	 1.809158621187692e+01
0	 1.375000000000000e+00	 1.250000000000000e+00	 1.889961182153847e+01
0	 1.437500000000000e+00	 6.249999999999999e-01	 1.023285159107692e+01
0	 1.437500000000000e+00	 6.875000000000001e-01	 1.106008533796923e+01
0	 1.437500000000001e+00	 7.500000000000003e-01	 1.185290152486154e+01
0	 1.437500000000000e+00	 8.125000000000000e-01	 1.261130015175386e+01
0	 1.437500000000000e+00	 8.750000000000001e-01	 1.333528121864615e+01
0	 1.437500000000000e+00	 9.375000000000003e-01	 1.402484472553846e+01
0	 1.437500000000000e+00	 1.000000000000000e+00	 1.467999067243077e+01
0	 1.437500000000000e+00	 1.062500000000000e+00	 1.530071905932308e+01
0	 1.437500000000000e+00	 1.125000000000000e+00	 1.588702988621538e+01
0	 1.437500000000000e+00	 1.187500000000000e+00	 1.643892315310769e+01
0	 1.437500000000000e+00	 1.250000000000000e+00	 1.695639885999999e+01
0	 1.500000000000000e+00	 6.250000000000001e-01	 1.127561561353846e+01
0	 1.500000000000000e+00	 6.875000000000000e-01	 1.180652495156923e+01
0	 1.500000000000000e+00	 7.500000000000002e-01	 1.230900428652308e+01
0	 1.500000000000000e+00	 8.125000000000001e-01	 1.278305361840000e+01
0	 1.500000000000000e+00	 8.749999999999999e-01	 1.322867294720000e+01
0	 1.500000000000000e+00	 9.375000000000002e-01	 1.364586227292308e+01
0	 1.500000000000000e+00	 1.000000000000000e+00	 1.403462159556923e+01
0	 1.500000000000001e+00	 1.062500000000001e+00	 1.439495091513845e+01
0	 1.500000000000000e+00	 1.125000000000000e+00	 1.472685023163076e+01
0	 1.500000000000000e+00	 1.187500000000001e+00	 1.503031954504615e+01
0	 1.500000000000000e+00	 1.250000000000000e+00	 1.530535885538461e+01
0	 1.562500000000000e+00	 6.250000000000000e-01	 1.212941753076923e+01
0	 1.562500000000000e+00	 6.875000000000000e-01	 1.241211596615385e+01
0	 1.562500000000000e+00	 7.500000000000001e-01	 1.267237195538461e+01
0	 1.562500000000000e+00	 8.125000000000001e-01	 1.291018549846154e+01
0	 1.562500000000001e+00	 8.750000000000003e-01	 1.312555659538461e+01
0	 1.562500000000000e+00	 9.375000000000002e-01	 1.331848524615385e+01
0	 1.562500000000000e+00	 1.000000000000000e+00	 1.348897145076923e+01
0	 1.562500000000000e+00	 1.062500000000000e+00	 1.363701520923077e+01
0	 1.562500000000000e+00	 1.125000000000000e+00	 1.376261652153845e+01
0	 1.562500000000000e+00	 1.187500000000000e+00	 1.386577538769230e+01
0	 1.562500000000000e+00	 1.250000000000000e+00	 1.394649180769230e+01
0	 1.625000000000000e+00	 6.250000000000000e-01	 1.279425734276924e+01
0	 1.625000000000000e+00	 6.875000000000001e-01	 1.287685838172308e+01
0	 1.625000000000000e+00	 7.500000000000001e-01	 1.294300453144615e+01
0	 1.625000000000001e+00	 8.125000000000001e-01	 1.299269579193846e+01
0	 1.625000000000000e+00	 8.750000000000003e-01	 1.302593216320000e+01
0	 1.625000000000000e+00	 9.375000000000003e-01	 1.304271364523077e+01
0	 1.625000000000000e+00	 1.000000000000000e+00	 1.304304023803077e+01
0	 1.625000000000001e+00	 1.062500000000001e+00	 1.302691194160000e+01
0	 1.625000000000001e+00	 1.125000000000001e+00	 1.299432875593846e+01
0	 1.625000000000000e+00	 1.187500000000000e+00	 1.294529068104615e+01
0	 1.625000000000000e+00	 1.250000000000000e+00	 1.287979771692307e+01
0	 1.687500000000000e+00	 6.250000000000000e-01	 1.327013504953846e+01
0	 1.687500000000000e+00	 6.875000000000001e-01	 1.320075219827693e+01
0	 1.687500000000001e+00	 7.500000000000002e-01	 1.312090201470769e+01
0	 1.687500000000000e+00	 8.125000000000001e-01	 1.303058449883077e+01
0	 1.687500000000000e+00	 8.750000000000002e-01	 1.292979965064615e+01
0	 1.687500000000001e+00	 9.375000000000003e-01	 1.281854747015384e+01
0	 1.687500000000000e+00	 1.000000000000000e+00	 1.269682795735384e+01
0	 1.687500000000000e+00	 1.062500000000000e+00	 1.256464111224615e+01
0	 1.687500000000000e+00	 1.125000000000000e+00	 1.242198693483076e+01
0	 1.687500000000000e+00	 1.187500000000000e+00	 1.226886542510769e+01
0	 1.687500000000000e+00	 1.250000000000000e+00	 1.210527658307692e+01
0	 1.750000000000000e+00	 6.250000000000000e-01	 1.355705065107693e+01
0	 1.750000000000000e+00	 6.875000000000001e-01	 1.338379741581538e+01
0	 1.750000000000000e+00	 7.500000000000001e-01	 1.320606440516923e+01
0	 1.750000000000000e+00	 8.125000000000002e-01	 1.302385161913845e+01
0	 1.750000000000000e+00	 8.750000000000001e-01	 1.283715905772307e+01
0	 1.750000000000000e+00	 9.375000000000003e-01	 1.264598672092307e+01
0	 1.750000000000001e+00	 1.000000000000001e+00	 1.245033460873846e+01
0	 1.750000000000001e+00	 1.062500000000000e+00	 1.225020272116923e+01
0	 1.750000000000001e+00	 1.125000000000000e+00	 1.204559105821538e+01
0	 1.750000000000001e+00	 1.187500000000000e+00	 1.183649961987692e+01
0	 1.750000000000000e+00	 1.250000000000000e+00	 1.162292840615384e+01
0	 1.812500000000001e+00	 6.250000000000000e-01	 1.365500414738462e+01
0	 1.812500000000000e+00	 6.875000000000001e-01	 1.342599403433846e+01
0	 1.812500000000001e+00	 7.500000000000002e-01	 1.319849170283076e+01
0	 1.812500000000000e+00	 8.125000000000000e-01	 1.297249715286154e+01
0	 1.812500000000000e+00	 8.750000000000000e-01	 1.274801038443077e+01
0	 1.812500000000000e+00	 9.375000000000000e-01	 1.252503139753846e+01
0	 1.812500000000000e+00	 1.000000000000000e+00	 1.230356019218461e+01
0	 1.812500000000000e+00	 1.062500000000000e+00	 1.208359676836923e+01
0	 1.812500000000000e+00	 1.125000000000000e+00	 1.186514112609230e+01
0	 1.812500000000001e+00	 1.187500000000001e+00	 1.164819326535384e+01
0	 1.812500000000001e+00	 1.250000000000000e+00	 1.143275318615384e+01
0	 1.875000000000000e+00	 6.250000000000000e-01	 1.356399553846154e+01
0	 1.875000000000000e+00	 6.875000000000000e-01	 1.332734205384615e+01
0	 1.875000000000000e+00	 7.500000000000002e-01	 1.309818390769231e+01
0	 1.875000000000000e+00	 8.125000000000002e-01	 1.287652110000000e+01
0	 1.875000000000000e+00	 8.750000000000002e-01	 1.266235363076923e+01
0	 1.875000000000000e+00	 9.375000000000002e-01	 1.245568150000000e+01
0	 1.875000000000000e+00	 1.000000000000000e+00	 1.225650470769230e+01
0	 1.875000000000000e+00	 1.062500000000000e+00	 1.206482325384615e+01
0	 1.875000000000000e+00	 1.125000000000001e+00	 1.188063713846154e+01
0	 1.875000000000000e+00	 1.187500000000000e+00	 1.170394636153846e+01
0	 1.875000000000000e+00	 1.250000000000000e+00	 1.153475092307692e+01
0	 1.250000000000000e+00	 1.250000000000000e+00	 2.366255661538462e+01
0	 1.250000000000000e+00	 1.312500000000000e+00	 2.206813124153846e+01
0	 1.250000000000000e+00	 1.375000000000000e+00	 2.048357770461538e+01
0	 1.250000000000000e+00	 1.437500000000000e+00	 1.890889600461538e+01
0	 1.250000000000000e+00	 1.500000000000000e+00	 1.734408614153845e+01
0	 1.250000000000000e+00	 1.562500000000000e+00	 1.578914811538460e+01
0	 1.250000000000000e+00	 1.625000000000000e+00	 1.424408192615383e+01
0	 1.250000000000000e+00	 1.687500000000000e+00	 1.270888757384614e+01
0	 1.250000000000000e+00	 1.750000000000001e+00	 1.118356505846152e+01
0	 1.250000000000000e+00	 1.812500000000000e+00	 9.668114379999984e+00
0	 1.250000000000000e+00	 1.875000000000000e+00	 8.162535538461533e+00
0	 1.312500000000000e+00	 1.250000000000000e+00	 2.113499774000000e+01
0	 1.312500000000000e+00	 1.312500000000000e+00	 1.984911558246154e+01
0	 1.312500000000000e+00	 1.375000000000000e+00	 1.857205072861537e+01
0	 1.312500000000000e+00	 1.437500000000000e+00	 1.730380317846153e+01
0	 1.312500000000000e+00	 1.500000000000000e+00	 1.604437293199998e+01
0	 1.312500000000000e+00	 1.562500000000000e+00	 1.479375998923076e+01
0	 1.312500000000000e+00	 1.625000000000000e+00	 1.355196435015384e+01
0	 1.312500000000000e+00	 1.687500000000000e+00	 1.231898601476922e+01
0	 1.312500000000000e+00	 1.750000000000001e+00	 1.109482498307691e+01
0	 1.312500000000000e+00	 1.812500000000000e+00	 9.879481255076904e+00
0	 1.312500000000000e+00	 1.875000000000000e+00	 8.672954830769225e+00
0	 1.375000000000000e+00	 1.250000000000000e+00	 1.889961182153847e+01
0	 1.375000000000000e+00	 1.312500000000000e+00	 1.788821961846152e+01
0	 1.375000000000000e+00	 1.375000000000000e+00	 1.688459018584614e+01
0	 1.375000000000000e+00	 1.437500000000000e+00	 1.588872352369230e+01
0	 1.375000000000000e+00	 1.500000000000000e+00	 1.490061963199999e+01
0	 1.375000000000000e+00	 1.562500000000001e+00	 1.392027851076922e+01
0	 1.375000000000000e+00	 1.625000000000000e+00	 1.294770015999999e+01
0	 1.375000000000000e+00	 1.687500000000001e+00	 1.198288457969230e+01
0	 1.375000000000000e+00	 1.750000000000000e+00	 1.102583176984615e+01
0	 1.375000000000000e+00	 1.812500000000001e+00	 1.007654173046153e+01
0	 1.375000000000000e+00	 1.875000000000000e+00	 9.135014461538461e+00
0	 1.437500000000000e+00	 1.250000000000000e+00	 1.695639885999999e+01
0	 1.437500000000000e+00	 1.312500000000000e+00	 1.618544334953845e+01
0	 1.437500000000001e+00	 1.375000000000000e+00	 1.542119607630769e+01
0	 1.437500000000000e+00	 1.437500000000000e+00	 1.466365704030768e+01
0	 1.437500000000000e+00	 1.500000000000000e+00	 1.391282624153845e+01
0	 1.437500000000000e+00	 1.562500000000001e+00	 1.316870367999999e+01
0	 1.437500000000000e+00	 1.625000000000000e+00	 1.243128935569230e+01
0	 1.437500000000000e+00	 1.687500000000001e+00	 1.170058326861538e+01
0	 1.437500000000000e+00	 1.750000000000000e+00	 1.097658541876922e+01
0	 1.437500000000000e+00	 1.812500000000000e+00	 1.025929580615384e+01
0	 1.437500000000000e+00	 1.875000000000000e+00	 9.548714430769234e+00
0	 1.500000000000000e+00	 1.250000000000000e+00	 1.530535885538461e+01
0	 1.500000000000000e+00	 1.312500000000000e+00	 1.474078677569229e+01
0	 1.500000000000000e+00	 1.375000000000000e+00	 1.418186840000000e+01
0	 1.500000000000000e+00	 1.437500000000000e+00	 1.362860372830769e+01
0	 1.500000000000000e+00	 1.500000000000000e+00	 1.308099276061538e+01
0	 1.500000000000000e+00	 1.562500000000000e+00	 1.253903549692307e+01
0	 1.500000000000000e+00	 1.625000000000001e+00	 1.200273193723076e+01
0	 1.500000000000001e+00	 1.687500000000000e+00	 1.147208208153845e+01
0	 1.500000000000000e+00	 1.750000000000000e+00	 1.094708592984614e+01
0	 1.500000000000000e+00	 1.812500000000001e+00	 1.042774348215384e+01
0	 1.500000000000000e+00	 1.875000000000000e+00	 9.914054738461534e+00
0	 1.562500000000000e+00	 1.250000000000000e+00	 1.394649180769230e+01
0	 1.562500000000000e+00	 1.312500000000000e+00	 1.355424989692307e+01
0	 1.562500000000000e+00	 1.375000000000000e+00	 1.316660715692307e+01
0	 1.562500000000000e+00	 1.437500000000000e+00	 1.278356358769230e+01
0	 1.562500000000001e+00	 1.500000000000000e+00	 1.240511918923077e+01
0	 1.562500000000000e+00	 1.562500000000000e+00	 1.203127396153845e+01
0	 1.562500000000000e+00	 1.625000000000000e+00	 1.166202790461537e+01
0	 1.562500000000000e+00	 1.687500000000001e+00	 1.129738101846153e+01
0	 1.562500000000000e+00	 1.750000000000001e+00	 1.093733330307692e+01
0	 1.562500000000000e+00	 1.812500000000000e+00	 1.058188475846153e+01
0	 1.562500000000000e+00	 1.875000000000000e+00	 1.023103538461538e+01
0	 1.625000000000000e+00	 1.250000000000000e+00	 1.287979771692307e+01
0	 1.625000000000000e+00	 1.312500000000000e+00	 1.262583271323076e+01
0	 1.625000000000000e+00	 1.375000000000000e+00	 1.237541234707692e+01
0	 1.625000000000001e+00	 1.437500000000000e+00	 1.212853661846153e+01
0	 1.625000000000000e+00	 1.500000000000000e+00	 1.188520552738461e+01
0	 1.625000000000000e+00	 1.562500000000000e+00	 1.164541907384615e+01
0	 1.625000000000000e+00	 1.625000000000000e+00	 1.140917725784615e+01
0	 1.625000000000001e+00	 1.687500000000001e+00	 1.117648007938461e+01
0	 1.625000000000001e+00	 1.750000000000000e+00	 1.094732753846153e+01
0	 1.625000000000000e+00	 1.812500000000000e+00	 1.072171963507691e+01
0	 1.625000000000000e+00	 1.875000000000000e+00	 1.049965636923077e+01
0	 1.687500000000000e+00	 1.250000000000000e+00	 1.210527658307692e+01
0	 1.687500000000000e+00	 1.312500000000000e+00	 1.195553522461539e+01
0	 1.687500000000001e+00	 1.375000000000000e+00	 1.180828397046154e+01
0	 1.687500000000000e+00	 1.437500000000000e+00	 1.166352282061538e+01
0	 1.687500000000000e+00	 1.500000000000000e+00	 1.152125177507692e+01
0	 1.687500000000001e+00	 1.562500000000000e+00	 1.138147083384615e+01
0	 1.687500000000000e+00	 1.625000000000000e+00	 1.124417999692308e+01
0	 1.687500000000000e+00	 1.687500000000000e+00	 1.110937926430768e+01
0	 1.687500000000000e+00	 1.750000000000000e+00	 1.097706863600000e+01
0	 1.687500000000000e+00	 1.812500000000000e+00	 1.084724811200000e+01
0	 1.687500000000000e+00	 1.875000000000000e+00	 1.071991769230768e+01
0	 1.750000000000000e+00	 1.250000000000000e+00	 1.162292840615384e+01
0	 1.750000000000000e+00	 1.312500000000000e+00	 1.154335743107692e+01
0	 1.750000000000000e+00	 1.375000000000000e+00	 1.146522202707692e+01
0	 1.750000000000000e+00	 1.437500000000000e+00	 1.138852219415384e+01
0	 1.750000000000000e+00	 1.500000000000000e+00	 1.131325793230769e+01
0	 1.750000000000000e+00	 1.562500000000000e+00	 1.123942924153845e+01
0	 1.750000000000001e+00	 1.625000000000001e+00	 1.116703612184616e+01
0	 1.750000000000001e+00	 1.687500000000001e+00	 1.109607857323076e+01
0	 1.750000000000001e+00	 1.750000000000001e+00	 1.102655659569230e+01
0	 1.750000000000001e+00	 1.812500000000001e+00	 1.095847018923076e+01
0	 1.750000000000000e+00	 1.875000000000000e+00	 1.089181935384615e+01
0	 1.812500000000001e+00	 1.250000000000000e+00	 1.143275318615384e+01
0	 1.812500000000000e+00	 1.312500000000000e+00	 1.138929933261538e+01
0	 1.812500000000001e+00	 1.375000000000000e+00	 1.134622651692308e+01
0	 1.812500000000000e+00	 1.437500000000000e+00	 1.130353473907692e+01
0	 1.812500000000000e+00	 1.500000000000000e+00	 1.126122399907692e+01
0	 1.812500000000000e+00	 1.562500000000000e+00	 1.121929429692308e+01
0	 1.812500000000000e+00	 1.625000000000000e+00	 1.117774563261538e+01
0	 1.812500000000000e+00	 1.687500000000000e+00	 1.113657800615384e+01
0	 1.812500000000000e+00	 1.750000000000001e+00	 1.109579141753846e+01
0	 1.812500000000001e+00	 1.812500000000001e+00	 1.105538586676923e+01
0	 1.812500000000001e+00	 1.875000000000000e+00	 1.101536135384615e+01
0	 1.875000000000000e+00	 1.250000000000000e+00	 1.153475092307692e+01
0	 1.875000000000000e+00	 1.312500000000000e+00	 1.149336092923076e+01
0	 1.875000000000000e+00	 1.375000000000000e+00	 1.145129744000000e+01
0	 1.875000000000000e+00	 1.437500000000000e+00	 1.140856045538461e+01
0	 1.875000000000000e+00	 1.500000000000000e+00	 1.136514997538461e+01
0	 1.875000000000000e+00	 1.562500000000000e+00	 1.132106599999999e+01
0	 1.875000000000000e+00	 1.625000000000000e+00	 1.127630852923076e+01
0	 1.875000000000000e+00	 1.687500000000000e+00	 1.123087756307692e+01
0	 1.875000000000000e+00	 1.750000000000001e+00	 1.118477310153846e+01
0	 1.875000000000000e+00	 1.812500000000000e+00	 1.113799514461538e+01
0	 1.875000000000000e+00	 1.875000000000000e+00	 1.109054369230769e+01
0	 1.250000000000000e+00	 1.875000000000000e+00	 8.162535538461533e+00
0	 1.250000000000000e+00	 1.937500000000000e+00	 8.401405844615379e+00
0	 1.250000000000000e+00	 2.000000000000000e+00	 8.620897747692304e+00
0	 1.250000000000000e+00	 2.062500000000000e+00	 8.821011247692304e+00
0	 1.250000000000000e+00	 2.125000000000000e+00	 9.001746344615386e+00
0	 1.250000000000000e+00	 2.187500000000000e+00	 9.163103038461539e+00
0	 1.250000000000000e+00	 2.250000000000000e+00	 9.305081329230770e+00
0	 1.250000000000000e+00	 2.312500000000000e+00	 9.427681216923073e+00
0	 1.250000000000000e+00	 2.375000000000001e+00	 9.530902701538466e+00
0	 1.250000000000000e+00	 2.437500000000001e+00	 9.614745783076927e+00
0	 1.250000000000000e+00	 2.500000000000000e+00	 9.679210461538464e+00
0	 1.312500000000000e+00	 1.875000000000000e+00	 8.672954830769225e+00
0	 1.312500000000000e+00	 1.937500000000000e+00	 8.857707197846150e+00
0	 1.312500000000000e+00	 2.000000000000000e+00	 9.025651065230761e+00
0	 1.312500000000000e+00	 2.062500000000000e+00	 9.176786432923075e+00
0	 1.312500000000000e+00	 2.125000000000000e+00	 9.311113300923079e+00
0	 1.312500000000000e+00	 2.187500000000001e+00	 9.428631669230766e+00
0	 1.312500000000000e+00	 2.250000000000000e+00	 9.529341537846156e+00
0	 1.312500000000000e+00	 2.312500000000001e+00	 9.613242906769232e+00
0	 1.312500000000000e+00	 2.375000000000001e+00	 9.680335776000010e+00
0	 1.312500000000000e+00	 2.437500000000000e+00	 9.730620145538467e+00
0	 1.312500000000000e+00	 2.500000000000000e+00	 9.764096015384613e+00
0	 1.375000000000000e+00	 1.875000000000000e+00	 9.135014461538461e+00
0	 1.375000000000000e+00	 1.937500000000000e+00	 9.269991840307693e+00
0	 1.375000000000000e+00	 2.000000000000000e+00	 9.390730622769233e+00
0	 1.375000000000000e+00	 2.062500000000000e+00	 9.497230808923071e+00
0	 1.375000000000000e+00	 2.125000000000000e+00	 9.589492398769227e+00
0	 1.375000000000000e+00	 2.187500000000000e+00	 9.667515392307692e+00
0	 1.375000000000000e+00	 2.250000000000000e+00	 9.731299789538456e+00
0	 1.375000000000000e+00	 2.312500000000001e+00	 9.780845590461542e+00
0	 1.375000000000000e+00	 2.375000000000001e+00	 9.816152795076931e+00
0	 1.375000000000000e+00	 2.437500000000000e+00	 9.837221403384614e+00
0	 1.375000000000000e+00	 2.500000000000000e+00	 9.844051415384618e+00
0	 1.437500000000000e+00	 1.875000000000000e+00	 9.548714430769234e+00
0	 1.437500000000000e+00	 1.937500000000000e+00	 9.638259771999994e+00
0	 1.437500000000001e+00	 2.000000000000000e+00	 9.716136420307695e+00
0	 1.437500000000000e+00	 2.062500000000000e+00	 9.782344375692308e+00
0	 1.437500000000000e+00	 2.125000000000000e+00	 9.836883638153850e+00
0	 1.437500000000000e+00	 2.187500000000001e+00	 9.879754207692303e+00
0	 1.437500000000000e+00	 2.250000000000000e+00	 9.910956084307694e+00
0	 1.437500000000000e+00	 2.312500000000000e+00	 9.930489267999999e+00
0	 1.437500000000000e+00	 2.375000000000000e+00	 9.938353758769237e+00
0	 1.437500000000000e+00	 2.437500000000001e+00	 9.934549556615380e+00
0	 1.437500000000000e+00	 2.500000000000000e+00	 9.919076661538458e+00
0	 1.500000000000000e+00	 1.875000000000000e+00	 9.914054738461534e+00
0	 1.500000000000000e+00	 1.937500000000000e+00	 9.962510992923074e+00
0	 1.500000000000000e+00	 2.000000000000000e+00	 1.000186845784615e+01
0	 1.500000000000000e+00	 2.062500000000000e+00	 1.003212713323077e+01
0	 1.500000000000000e+00	 2.125000000000000e+00	 1.005328701907692e+01
0	 1.500000000000000e+00	 2.187500000000000e+00	 1.006534811538462e+01
0	 1.500000000000000e+00	 2.250000000000000e+00	 1.006831042215385e+01
0	 1.500000000000001e+00	 2.312500000000000e+00	 1.006217393938461e+01
0	 1.500000000000000e+00	 2.375000000000000e+00	 1.004693866707692e+01
0	 1.500000000000000e+00	 2.437500000000000e+00	 1.002260460523077e+01
0	 1.500000000000000e+00	 2.500000000000000e+00	 9.989171753846156e+00
0	 1.562500000000000e+00	 1.875000000000000e+00	 1.023103538461538e+01
0	 1.562500000000000e+00	 1.937500000000000e+00	 1.024274550307691e+01
0	 1.562500000000000e+00	 2.000000000000000e+00	 1.024792673538461e+01
0	 1.562500000000000e+00	 2.062500000000000e+00	 1.024657908153845e+01
0	 1.562500000000001e+00	 2.125000000000001e+00	 1.023870254153846e+01
0	 1.562500000000000e+00	 2.187500000000000e+00	 1.022429711538462e+01
0	 1.562500000000000e+00	 2.250000000000000e+00	 1.020336280307692e+01
0	 1.562500000000000e+00	 2.312500000000001e+00	 1.017589960461539e+01
0	 1.562500000000000e+00	 2.375000000000000e+00	 1.014190752000001e+01
0	 1.562500000000000e+00	 2.437500000000001e+00	 1.010138654923077e+01
0	 1.562500000000000e+00	 2.500000000000000e+00	 1.005433669230770e+01
0	 1.625000000000000e+00	 1.875000000000000e+00	 1.049965636923077e+01
0	 1.625000000000000e+00	 1.937500000000000e+00	 1.047896330246154e+01
0	 1.625000000000000e+00	 2.000000000000000e+00	 1.045431125292307e+01
0	 1.625000000000001e+00	 2.062500000000000e+00	 1.042570022061538e+01
0	 1.625000000000000e+00	 2.125000000000000e+00	 1.039313020553846e+01
0	 1.625000000000000e+00	 2.187500000000000e+00	 1.035660120769231e+01
0	 1.625000000000000e+00	 2.250000000000000e+00	 1.031611322707692e+01
0	 1.625000000000001e+00	 2.312500000000001e+00	 1.027166626369231e+01
0	 1.625000000000001e+00	 2.375000000000001e+00	 1.022326031753847e+01
0	 1.625000000000000e+00	 2.437500000000000e+00	 1.017089538861539e+01
0	 1.625000000000000e+00	 2.500000000000000e+00	 1.011457147692308e+01
0	 1.687500000000000e+00	 1.875000000000000e+00	 1.071991769230768e+01
0	 1.687500000000000e+00	 1.937500000000000e+00	 1.067116439107692e+01
0	 1.687500000000001e+00	 2.000000000000000e+00	 1.062102201046153e+01
0	 1.687500000000000e+00	 2.062500000000000e+00	 1.056949055046154e+01
0	 1.687500000000000e+00	 2.125000000000000e+00	 1.051657001107692e+01
0	 1.687500000000001e+00	 2.187500000000000e+00	 1.046226039230769e+01
0	 1.687500000000000e+00	 2.250000000000000e+00	 1.040656169415385e+01
0	 1.687500000000000e+00	 2.312500000000000e+00	 1.034947391661538e+01
0	 1.687500000000000e+00	 2.375000000000000e+00	 1.029099705969231e+01
0	 1.687500000000000e+00	 2.437500000000000e+00	 1.023113112338462e+01
0	 1.687500000000000e+00	 2.500000000000000e+00	 1.016987610769231e+01
0	 1.750000000000000e+00	 1.875000000000000e+00	 1.089181935384615e+01
0	 1.750000000000000e+00	 1.937500000000000e+00	 1.081934876892307e+01
0	 1.750000000000000e+00	 2.000000000000000e+00	 1.074805900799999e+01
0	 1.750000000000000e+00	 2.062500000000000e+00	 1.067795007107692e+01
0	 1.750000000000000e+00	 2.125000000000000e+00	 1.060902195815385e+01
0	 1.750000000000000e+00	 2.187500000000000e+00	 1.054127466923077e+01
0	 1.750000000000001e+00	 2.250000000000001e+00	 1.047470820430769e+01
0	 1.750000000000001e+00	 2.312500000000001e+00	 1.040932256338462e+01
0	 1.750000000000001e+00	 2.375000000000001e+00	 1.034511774646154e+01
0	 1.750000000000001e+00	 2.437500000000001e+00	 1.028209375353847e+01
0	 1.750000000000000e+00	 2.500000000000000e+00	 1.022025058461540e+01
0	 1.812500000000001e+00	 1.875000000000000e+00	 1.101536135384615e+01
0	 1.812500000000000e+00	 1.937500000000000e+00	 1.092351643600000e+01
0	 1.812500000000001e+00	 2.000000000000000e+00	 1.083542224553846e+01
0	 1.812500000000000e+00	 2.062500000000000e+00	 1.075107878246154e+01
0	 1.812500000000000e+00	 2.125000000000000e+00	 1.067048604676923e+01
0	 1.812500000000000e+00	 2.187500000000000e+00	 1.059364403846154e+01
0	 1.812500000000000e+00	 2.250000000000000e+00	 1.052055275753846e+01
0	 1.812500000000000e+00	 2.312500000000000e+00	 1.045121220400000e+01
0	 1.812500000000000e+00	 2.375000000000001e+00	 1.038562237784615e+01
0	 1.812500000000001e+00	 2.437500000000000e+00	 1.032378327907693e+01
0	 1.812500000000001e+00	 2.500000000000000e+00	 1.026569490769231e+01
0	 1.875000000000000e+00	 1.875000000000000e+00	 1.109054369230769e+01
0	 1.875000000000000e+00	 1.937500000000000e+00	 1.098366739230768e+01
0	 1.875000000000000e+00	 2.000000000000000e+00	 1.088311172307692e+01
0	 1.875000000000000e+00	 2.062500000000000e+00	 1.078887668461538e+01
0	 1.875000000000000e+00	 2.125000000000000e+00	 1.070096227692308e+01
0	 1.875000000000000e+00	 2.187500000000000e+00	 1.061936850000000e+01
0	 1.875000000000000e+00	 2.250000000000000e+00	 1.054409535384615e+01
0	 1.875000000000000e+00	 2.312500000000000e+00	 1.047514283846153e+01
0	 1.875000000000000e+00	 2.375000000000001e+00	 1.041251095384616e+01
0	 1.875000000000000e+00	 2.437500000000001e+00	 1.035619970000000e+01
0	 1.875000000000000e+00	 2.500000000000000e+00	 1.030620907692308e+01
0	 1.250000000000000e+00	 2.500000000000000e+00	 9.679210461538464e+00
0	 1.250000000000000e+00	 2.562500000000000e+00	 9.608943216923086e+00
0	 1.250000000000000e+00	 2.625000000000000e+00	 9.544659144615391e+00
0	 1.250000000000000e+00	 2.687499999999999e+00	 9.486358244615388e+00
0	 1.250000000000000e+00	 2.750000000000000e+00	 9.434040516923076e+00
0	 1.250000000000000e+00	 2.812499999999999e+00	 9.387705961538465e+00
0	 1.250000000000000e+00	 2.874999999999999e+00	 9.347354578461536e+00
0	 1.250000000000000e+00	 2.937499999999998e+00	 9.312986367692304e+00
0	 1.250000000000000e+00	 2.999999999999998e+00	 9.284601329230766e+00
0	 1.250000000000000e+00	 3.062499999999998e+00	 9.262199463076934e+00
0	 1.250000000000000e+00	 3.125000000000000e+00	 9.245780769230766e+00
0	 1.312500000000000e+00	 2.500000000000000e+00	 9.764096015384613e+00
0	 1.312500000000000e+00	 2.562500000000000e+00	 9.700082936307695e+00
0	 1.312500000000000e+00	 2.624999999999999e+00	 9.641047274461545e+00
0	 1.312500000000000e+00	 2.687499999999999e+00	 9.586989029846157e+00
0	 1.312500000000000e+00	 2.749999999999999e+00	 9.537908202461541e+00
0	 1.312500000000000e+00	 2.812499999999999e+00	 9.493804792307694e+00
0	 1.312500000000000e+00	 2.874999999999999e+00	 9.454678799384617e+00
0	 1.312500000000000e+00	 2.937499999999998e+00	 9.420530223692307e+00
0	 1.312500000000000e+00	 2.999999999999999e+00	 9.391359065230777e+00
0	 1.312500000000000e+00	 3.062499999999999e+00	 9.367165323999991e+00
0	 1.312500000000000e+00	 3.125000000000000e+00	 9.347948999999998e+00
0	 1.375000000000000e+00	 2.500000000000000e+00	 9.844051415384618e+00
0	 1.375000000000000e+00	 2.562500000000000e+00	 9.786183775692312e+00
0	 1.375000000000000e+00	 2.625000000000000e+00	 9.732287798153852e+00
0	 1.375000000000000e+00	 2.687500000000000e+00	 9.682363482769228e+00
0	 1.375000000000000e+00	 2.750000000000000e+00	 9.636410829538463e+00
0	 1.375000000000000e+00	 2.812499999999999e+00	 9.594429838461533e+00
0	 1.375000000000000e+00	 2.874999999999999e+00	 9.556420509538464e+00
0	 1.375000000000000e+00	 2.937499999999999e+00	 9.522382842769229e+00
0	 1.375000000000000e+00	 2.999999999999998e+00	 9.492316838153842e+00
0	 1.375000000000000e+00	 3.062499999999998e+00	 9.466222495692303e+00
0	 1.375000000000000e+00	 3.125000000000000e+00	 9.444099815384611e+00
0	 1.437500000000000e+00	 2.500000000000000e+00	 9.919076661538458e+00
0	 1.437500000000000e+00	 2.562500000000000e+00	 9.867245735076931e+00
0	 1.437500000000000e+00	 2.625000000000000e+00	 9.818380715692308e+00
0	 1.437500000000000e+00	 2.687499999999999e+00	 9.772481603384612e+00
0	 1.437500000000000e+00	 2.749999999999999e+00	 9.729548398153842e+00
0	 1.437500000000000e+00	 2.812499999999999e+00	 9.689581100000005e+00
0	 1.437500000000000e+00	 2.874999999999999e+00	 9.652579708923074e+00
0	 1.437500000000000e+00	 2.937499999999998e+00	 9.618544224923077e+00
0	 1.437500000000000e+00	 2.999999999999998e+00	 9.587474648000004e+00
0	 1.437500000000000e+00	 3.062499999999997e+00	 9.559370978153840e+00
0	 1.437500000000000e+00	 3.125000000000000e+00	 9.534233215384608e+00
0	 1.500000000000000e+00	 2.500000000000000e+00	 9.989171753846156e+00
0	 1.500000000000001e+00	 2.562500000000000e+00	 9.943268814461540e+00
0	 1.500000000000000e+00	 2.625000000000000e+00	 9.899326027076919e+00
0	 1.500000000000000e+00	 2.687499999999999e+00	 9.857343391692307e+00
0	 1.500000000000000e+00	 2.749999999999999e+00	 9.817320908307687e+00
0	 1.500000000000000e+00	 2.812499999999998e+00	 9.779258576923072e+00
0	 1.500000000000000e+00	 2.874999999999999e+00	 9.743156397538467e+00
0	 1.500000000000000e+00	 2.937499999999999e+00	 9.709014370153845e+00
0	 1.500000000000000e+00	 2.999999999999999e+00	 9.676832494769231e+00
0	 1.500000000000000e+00	 3.062499999999998e+00	 9.646610771384605e+00
0	 1.500000000000000e+00	 3.125000000000000e+00	 9.618349200000001e+00
0	 1.562500000000000e+00	 2.500000000000000e+00	 1.005433669230770e+01
0	 1.562500000000001e+00	 2.562499999999999e+00	 1.001425301384617e+01
0	 1.562500000000000e+00	 2.625000000000000e+00	 9.975123732307690e+00
0	 1.562500000000000e+00	 2.687500000000000e+00	 9.936948847692314e+00
0	 1.562500000000000e+00	 2.749999999999999e+00	 9.899728359999999e+00
0	 1.562500000000000e+00	 2.812500000000000e+00	 9.863462269230766e+00
0	 1.562500000000000e+00	 2.874999999999998e+00	 9.828150575384615e+00
0	 1.562500000000000e+00	 2.937499999999999e+00	 9.793793278461539e+00
0	 1.562500000000000e+00	 2.999999999999999e+00	 9.760390378461540e+00
0	 1.562500000000000e+00	 3.062499999999999e+00	 9.727941875384618e+00
0	 1.562500000000000e+00	 3.125000000000000e+00	 9.696447769230758e+00
0	 1.625000000000000e+00	 2.500000000000000e+00	 1.011457147692308e+01
0	 1.625000000000000e+00	 2.562500000000000e+00	 1.008019833323077e+01
0	 1.625000000000000e+00	 2.625000000000000e+00	 1.004577383138461e+01
0	 1.625000000000000e+00	 2.687499999999999e+00	 1.001129797138461e+01
0	 1.625000000000000e+00	 2.749999999999999e+00	 9.976770753230770e+00
0	 1.625000000000000e+00	 2.812499999999999e+00	 9.942192176923072e+00
0	 1.625000000000000e+00	 2.874999999999999e+00	 9.907562242461534e+00
0	 1.625000000000000e+00	 2.937499999999998e+00	 9.872880949846158e+00
0	 1.625000000000000e+00	 2.999999999999999e+00	 9.838148299076924e+00
0	 1.625000000000000e+00	 3.062499999999998e+00	 9.803364290153841e+00
0	 1.625000000000000e+00	 3.125000000000000e+00	 9.768528923076913e+00
0	 1.687500000000000e+00	 2.500000000000000e+00	 1.016987610769231e+01
0	 1.687500000000001e+00	 2.562500000000000e+00	 1.014110477261539e+01
0	 1.687500000000000e+00	 2.625000000000000e+00	 1.011127632430769e+01
0	 1.687500000000000e+00	 2.687499999999999e+00	 1.008039076276923e+01
0	 1.687500000000000e+00	 2.749999999999999e+00	 1.004844808800000e+01
0	 1.687500000000001e+00	 2.812500000000000e+00	 1.001544830000000e+01
0	 1.687500000000000e+00	 2.874999999999998e+00	 9.981391398769231e+00
0	 1.687500000000000e+00	 2.937499999999999e+00	 9.946277384307690e+00
0	 1.687500000000000e+00	 2.999999999999998e+00	 9.910106256615384e+00
0	 1.687500000000000e+00	 3.062499999999998e+00	 9.872878015692311e+00
0	 1.687500000000000e+00	 3.125000000000000e+00	 9.834592661538462e+00
0	 1.750000000000000e+00	 2.500000000000000e+00	 1.022025058461540e+01
0	 1.750000000000000e+00	 2.562500000000000e+00	 1.019697233200000e+01
0	 1.750000000000001e+00	 2.625000000000000e+00	 1.017163121107692e+01
0	 1.750000000000000e+00	 2.687500000000000e+00	 1.014422722184615e+01
0	 1.750000000000000e+00	 2.750000000000000e+00	 1.011476036430769e+01
0	 1.750000000000000e+00	 2.812499999999999e+00	 1.008323063846153e+01
0	 1.750000000000001e+00	 2.874999999999999e+00	 1.004963804430769e+01
0	 1.750000000000000e+00	 2.937499999999999e+00	 1.001398258184615e+01
0	 1.750000000000000e+00	 2.999999999999998e+00	 9.976264251076923e+00
0	 1.750000000000000e+00	 3.062499999999998e+00	 9.936483051999994e+00
0	 1.750000000000000e+00	 3.125000000000000e+00	 9.894638984615376e+00
0	 1.812500000000001e+00	 2.500000000000000e+00	 1.026569490769231e+01
0	 1.812500000000000e+00	 2.562500000000000e+00	 1.024780101138462e+01
0	 1.812500000000001e+00	 2.625000000000000e+00	 1.022683849169230e+01
0	 1.812500000000000e+00	 2.687499999999999e+00	 1.020280734861538e+01
0	 1.812500000000000e+00	 2.749999999999999e+00	 1.017570758215384e+01
0	 1.812500000000000e+00	 2.812499999999999e+00	 1.014553919230769e+01
0	 1.812500000000001e+00	 2.874999999999998e+00	 1.011230217907692e+01
0	 1.812500000000000e+00	 2.937499999999998e+00	 1.007599654246154e+01
0	 1.812500000000001e+00	 2.999999999999998e+00	 1.003662228246153e+01
0	 1.812500000000000e+00	 3.062499999999998e+00	 9.994179399076918e+00
0	 1.812500000000001e+00	 3.125000000000000e+00	 9.948667892307691e+00
0	 1.875000000000000e+00	 2.500000000000000e+00	 1.030620907692308e+01
0	 1.875000000000000e+00	 2.562500000000000e+00	 1.029359081076924e+01
0	 1.875000000000000e+00	 2.625000000000000e+00	 1.027689816615385e+01
0	 1.875000000000000e+00	 2.687499999999999e+00	 1.025613114307692e+01
0	 1.875000000000000e+00	 2.750000000000000e+00	 1.023128974153846e+01
0	 1.875000000000000e+00	 2.812499999999999e+00	 1.020237396153846e+01
0	 1.875000000000000e+00	 2.874999999999999e+00	 1.016938380307692e+01
0	 1.875000000000000e+00	 2.937499999999998e+00	 1.013231926615384e+01
0	 1.875000000000000e+00	 2.999999999999998e+00	 1.009118035076922e+01
0	 1.875000000000000e+00	 3.062499999999998e+00	 1.004596705692308e+01
0	 1.875000000000000e+00	 3.125000000000000e+00	 9.996679384615376e+00
0	 1.250000000000000e+00	 3.125000000000000e+00	 9.245780769230766e+00
0	 1.250000000000000e+00	 3.187500000000000e+00	 9.276322856923063e+00
0	 1.250000000000000e+00	 3.250000000000000e+00	 9.302926719999999e+00
0	 1.250000000000000e+00	 3.312499999999999e+00	 9.325592358461540e+00
0	 1.250000000000000e+00	 3.374999999999999e+00	 9.344319772307689e+00
0	 1.250000000000000e+00	 3.437499999999999e+00	 9.359108961538459e+00
0	 1.250000000000000e+00	 3.499999999999999e+00	 9.369959926153847e+00
0	 1.250000000000000e+00	 3.562499999999998e+00	 9.376872666153847e+00
0	 1.250000000000000e+00	 3.624999999999999e+00	 9.379847181538462e+00
0	 1.250000000000000e+00	 3.687499999999998e+00	 9.378883472307685e+00
0	 1.250000000000000e+00	 3.750000000000000e+00	 9.373981538461541e+00
0	 1.312500000000000e+00	 3.125000000000000e+00	 9.347948999999998e+00
0	 1.312500000000000e+00	 3.187499999999999e+00	 9.371572507076916e+00
0	 1.312500000000000e+00	 3.250000000000000e+00	 9.391707514461530e+00
0	 1.312500000000000e+00	 3.312499999999998e+00	 9.408354022153839e+00
0	 1.312500000000000e+00	 3.374999999999998e+00	 9.421512030153837e+00
0	 1.312500000000000e+00	 3.437499999999998e+00	 9.431181538461532e+00
0	 1.312500000000000e+00	 3.499999999999999e+00	 9.437362547076919e+00
0	 1.312500000000000e+00	 3.562499999999999e+00	 9.440055056000002e+00
0	 1.312500000000000e+00	 3.624999999999998e+00	 9.439259065230772e+00
0	 1.312500000000000e+00	 3.687499999999998e+00	 9.434974574769239e+00
0	 1.312500000000000e+00	 3.750000000000000e+00	 9.427201584615373e+00
0	 1.375000000000000e+00	 3.125000000000000e+00	 9.444099815384611e+00
0	 1.375000000000000e+00	 3.187500000000000e+00	 9.461240852615379e+00
0	 1.375000000000000e+00	 3.250000000000000e+00	 9.475343115076917e+00
0	 1.375000000000000e+00	 3.312500000000000e+00	 9.486406602769234e+00
0	 1.375000000000000e+00	 3.374999999999999e+00	 9.494431315692305e+00
0	 1.375000000000000e+00	 3.437500000000000e+00	 9.499417253846156e+00
0	 1.375000000000000e+00	 3.499999999999999e+00	 9.501364417230775e+00
0	 1.375000000000000e+00	 3.562499999999999e+00	 9.500272805846153e+00
0	 1.375000000000000e+00	 3.624999999999998e+00	 9.496142419692305e+00
0	 1.375000000000000e+00	 3.687499999999998e+00	 9.488973258769230e+00
0	 1.375000000000000e+00	 3.750000000000000e+00	 9.478765323076924e+00
0	 1.437500000000000e+00	 3.125000000000000e+00	 9.534233215384608e+00
0	 1.437500000000000e+00	 3.187500000000000e+00	 9.545327893538456e+00
0	 1.437500000000000e+00	 3.250000000000000e+00	 9.553833521846149e+00
0	 1.437500000000000e+00	 3.312499999999999e+00	 9.559750100307690e+00
0	 1.437500000000000e+00	 3.374999999999998e+00	 9.563077628923073e+00
0	 1.437500000000000e+00	 3.437499999999999e+00	 9.563816107692304e+00
0	 1.437500000000000e+00	 3.499999999999999e+00	 9.561965536615389e+00
0	 1.437500000000000e+00	 3.562499999999999e+00	 9.557525915692311e+00
0	 1.437500000000000e+00	 3.624999999999998e+00	 9.550497244923077e+00
0	 1.437500000000000e+00	 3.687499999999998e+00	 9.540879524307698e+00
0	 1.437500000000000e+00	 3.750000000000000e+00	 9.528672753846161e+00
0	 1.500000000000000e+00	 3.125000000000000e+00	 9.618349200000001e+00
0	 1.500000000000001e+00	 3.187500000000000e+00	 9.623833629846146e+00
0	 1.500000000000000e+00	 3.250000000000000e+00	 9.627178734769224e+00
0	 1.500000000000000e+00	 3.312500000000000e+00	 9.628384514769234e+00
0	 1.500000000000000e+00	 3.374999999999999e+00	 9.627450969846150e+00
0	 1.500000000000000e+00	 3.437499999999998e+00	 9.624378099999998e+00
0	 1.500000000000000e+00	 3.499999999999999e+00	 9.619165905230769e+00
0	 1.500000000000000e+00	 3.562499999999998e+00	 9.611814385538455e+00
0	 1.500000000000000e+00	 3.624999999999999e+00	 9.602323540923084e+00
0	 1.500000000000000e+00	 3.687499999999998e+00	 9.590693371384628e+00
0	 1.500000000000000e+00	 3.750000000000000e+00	 9.576923876923075e+00
0	 1.562500000000000e+00	 3.125000000000000e+00	 9.696447769230758e+00
0	 1.562500000000001e+00	 3.187500000000000e+00	 9.696758061538461e+00
0	 1.562500000000000e+00	 3.250000000000000e+00	 9.695378753846152e+00
0	 1.562500000000000e+00	 3.312500000000000e+00	 9.692309846153840e+00
0	 1.562500000000000e+00	 3.374999999999999e+00	 9.687551338461544e+00
0	 1.562500000000000e+00	 3.437499999999999e+00	 9.681103230769232e+00
0	 1.562500000000000e+00	 3.499999999999999e+00	 9.672965523076922e+00
0	 1.562500000000000e+00	 3.562499999999999e+00	 9.663138215384624e+00
0	 1.562500000000000e+00	 3.624999999999998e+00	 9.651621307692322e+00
0	 1.562500000000000e+00	 3.687499999999999e+00	 9.638414800000007e+00
0	 1.562500000000000e+00	 3.750000000000000e+00	 9.623518692307695e+00
0	 1.625000000000000e+00	 3.125000000000000e+00	 9.768528923076913e+00
0	 1.625000000000000e+00	 3.187500000000000e+00	 9.764101188615381e+00
0	 1.625000000000000e+00	 3.250000000000000e+00	 9.758433579076913e+00
0	 1.625000000000000e+00	 3.312499999999999e+00	 9.751526094461536e+00
0	 1.625000000000000e+00	 3.374999999999999e+00	 9.743378734769225e+00
0	 1.625000000000000e+00	 3.437499999999999e+00	 9.733991500000005e+00
0	 1.625000000000000e+00	 3.499999999999998e+00	 9.723364390153844e+00
0	 1.625000000000000e+00	 3.562499999999999e+00	 9.711497405230766e+00
0	 1.625000000000000e+00	 3.624999999999998e+00	 9.698390545230762e+00
0	 1.625000000000000e+00	 3.687499999999998e+00	 9.684043810153849e+00
0	 1.625000000000000e+00	 3.750000000000000e+00	 9.668457200000001e+00
0	 1.687500000000000e+00	 3.125000000000000e+00	 9.834592661538462e+00
0	 1.687500000000001e+00	 3.187500000000000e+00	 9.825863011076915e+00
0	 1.687500000000000e+00	 3.250000000000000e+00	 9.816343210461529e+00
0	 1.687500000000000e+00	 3.312499999999999e+00	 9.806033259692303e+00
0	 1.687500000000000e+00	 3.374999999999999e+00	 9.794933158769226e+00
0	 1.687500000000001e+00	 3.437499999999999e+00	 9.783042907692312e+00
0	 1.687500000000000e+00	 3.499999999999999e+00	 9.770362506461542e+00
0	 1.687500000000000e+00	 3.562499999999999e+00	 9.756891955076926e+00
0	 1.687500000000000e+00	 3.624999999999998e+00	 9.742631253538461e+00
0	 1.687500000000000e+00	 3.687499999999999e+00	 9.727580401846158e+00
0	 1.687500000000000e+00	 3.750000000000000e+00	 9.711739399999997e+00
0	 1.750000000000000e+00	 3.125000000000000e+00	 9.894638984615376e+00
0	 1.750000000000000e+00	 3.187500000000000e+00	 9.882043528923075e+00
0	 1.750000000000001e+00	 3.250000000000000e+00	 9.869107647999993e+00
0	 1.750000000000000e+00	 3.312499999999999e+00	 9.855831341846146e+00
0	 1.750000000000000e+00	 3.375000000000000e+00	 9.842214610461539e+00
0	 1.750000000000000e+00	 3.437499999999999e+00	 9.828257453846149e+00
0	 1.750000000000001e+00	 3.499999999999999e+00	 9.813959872000007e+00
0	 1.750000000000000e+00	 3.562499999999998e+00	 9.799321864923067e+00
0	 1.750000000000000e+00	 3.624999999999998e+00	 9.784343432615380e+00
0	 1.750000000000000e+00	 3.687499999999998e+00	 9.769024575076928e+00
0	 1.750000000000000e+00	 3.750000000000000e+00	 9.753365292307704e+00
0	 1.812500000000001e+00	 3.125000000000000e+00	 9.948667892307691e+00
0	 1.812500000000000e+00	 3.187499999999999e+00	 9.932642742153833e+00
0	 1.812500000000001e+00	 3.250000000000000e+00	 9.916726891692294e+00
0	 1.812500000000000e+00	 3.312500000000000e+00	 9.900920340923070e+00
0	 1.812500000000000e+00	 3.375000000000000e+00	 9.885223089846155e+00
0	 1.812500000000000e+00	 3.437499999999998e+00	 9.869635138461538e+00
0	 1.812500000000001e+00	 3.499999999999999e+00	 9.854156486769233e+00
0	 1.812500000000000e+00	 3.562499999999998e+00	 9.838787134769234e+00
0	 1.812500000000001e+00	 3.624999999999999e+00	 9.823527082461542e+00
0	 1.812500000000000e+00	 3.687499999999998e+00	 9.808376329846158e+00
0	 1.812500000000001e+00	 3.750000000000000e+00	 9.793334876923083e+00
0	 1.875000000000000e+00	 3.125000000000000e+00	 9.996679384615376e+00
0	 1.875000000000000e+00	 3.187500000000000e+00	 9.977660650769220e+00
0	 1.875000000000000e+00	 3.250000000000000e+00	 9.959200941538453e+00
0	 1.875000000000000e+00	 3.312499999999999e+00	 9.941300256923077e+00
0	 1.875000000000000e+00	 3.374999999999999e+00	 9.923958596923070e+00
0	 1.875000000000000e+00	 3.437499999999999e+00	 9.907175961538462e+00
0	 1.875000000000000e+00	 3.499999999999999e+00	 9.890952350769236e+00
0	 1.875000000000000e+00	 3.562499999999998e+00	 9.875287764615386e+00
0	 1.875000000000000e+00	 3.624999999999999e+00	 9.860182203076924e+00
0	 1.875000000000000e+00	 3.687499999999998e+00	 9.845635666153839e+00
0	 1.875000000000000e+00	 3.750000000000000e+00	 9.831648153846162e+00
0	 1.250000000000000e+00	 3.750000000000000e+00	 9.373981538461541e+00
0	 1.250000000000000e+00	 3.812500000000000e+00	 9.385650036923087e+00
0	 1.250000000000000e+00	 3.875000000000000e+00	 9.397945932307692e+00
0	 1.250000000000000e+00	 3.937499999999999e+00	 9.410869224615380e+00
0	 1.250000000000000e+00	 4.000000000000000e+00	 9.424419913846153e+00
0	 1.250000000000000e+00	 4.062499999999999e+00	 9.438598000000002e+00
0	 1.250000000000000e+00	 4.124999999999999e+00	 9.453403483076912e+00
0	 1.250000000000000e+00	 4.187499999999998e+00	 9.468836363076916e+00
0	 1.250000000000000e+00	 4.249999999999998e+00	 9.484896640000001e+00
0	 1.250000000000000e+00	 4.312499999999998e+00	 9.501584313846156e+00
0	 1.250000000000000e+00	 4.375000000000000e+00	 9.518899384615381e+00
0	 1.312500000000000e+00	 3.750000000000000e+00	 9.427201584615373e+00
0	 1.312500000000000e+00	 3.812499999999999e+00	 9.436995372000007e+00
0	 1.312500000000000e+00	 3.874999999999999e+00	 9.447252060307695e+00
0	 1.312500000000000e+00	 3.937499999999998e+00	 9.457971649538463e+00
0	 1.312500000000000e+00	 3.999999999999999e+00	 9.469154139692305e+00
0	 1.312500000000000e+00	 4.062499999999998e+00	 9.480799530769222e+00
0	 1.312500000000000e+00	 4.124999999999999e+00	 9.492907822769233e+00
0	 1.312500000000000e+00	 4.187499999999998e+00	 9.505479015692305e+00
0	 1.312500000000000e+00	 4.249999999999998e+00	 9.518513109538461e+00
0	 1.312500000000000e+00	 4.312499999999997e+00	 9.532010104307693e+00
0	 1.312500000000000e+00	 4.375000000000000e+00	 9.545970000000006e+00
0	 1.375000000000000e+00	 3.750000000000000e+00	 9.478765323076924e+00
0	 1.375000000000000e+00	 3.812499999999999e+00	 9.486858494769232e+00
0	 1.375000000000000e+00	 3.875000000000000e+00	 9.495250071384623e+00
0	 1.375000000000000e+00	 3.937500000000000e+00	 9.503940052923078e+00
0	 1.375000000000000e+00	 3.999999999999999e+00	 9.512928439384616e+00
0	 1.375000000000000e+00	 4.062499999999999e+00	 9.522215230769223e+00
0	 1.375000000000000e+00	 4.124999999999999e+00	 9.531800427076924e+00
0	 1.375000000000000e+00	 4.187499999999997e+00	 9.541684028307689e+00
0	 1.375000000000000e+00	 4.249999999999998e+00	 9.551866034461540e+00
0	 1.375000000000000e+00	 4.312499999999998e+00	 9.562346445538457e+00
0	 1.375000000000000e+00	 4.375000000000000e+00	 9.573125261538454e+00
0	 1.437500000000000e+00	 3.750000000000000e+00	 9.528672753846161e+00
0	 1.437500000000000e+00	 3.812500000000000e+00	 9.535239405230779e+00
0	 1.437500000000000e+00	 3.875000000000000e+00	 9.541939965538463e+00
0	 1.437500000000000e+00	 3.937499999999999e+00	 9.548774434769228e+00
0	 1.437500000000000e+00	 3.999999999999998e+00	 9.555742812923075e+00
0	 1.437500000000000e+00	 4.062499999999999e+00	 9.562845100000008e+00
0	 1.437500000000000e+00	 4.124999999999999e+00	 9.570081295999993e+00
0	 1.437500000000000e+00	 4.187499999999998e+00	 9.577451400923076e+00
0	 1.437500000000000e+00	 4.249999999999998e+00	 9.584955414769230e+00
0	 1.437500000000000e+00	 4.312499999999997e+00	 9.592593337538473e+00
0	 1.437500000000000e+00	 4.375000000000000e+00	 9.600365169230761e+00
0	 1.500000000000000e+00	 3.750000000000000e+00	 9.576923876923075e+00
0	 1.500000000000001e+00	 3.812500000000000e+00	 9.582138103384624e+00
0	 1.500000000000000e+00	 3.875000000000000e+00	 9.587321742769236e+00
0	 1.500000000000000e+00	 3.937499999999999e+00	 9.592474795076921e+00
0	 1.500000000000000e+00	 4.000000000000000e+00	 9.597597260307694e+00
0	 1.500000000000000e+00	 4.062499999999998e+00	 9.602689138461539e+00
0	 1.500000000000000e+00	 4.124999999999999e+00	 9.607750429538456e+00
0	 1.500000000000000e+00	 4.187499999999998e+00	 9.612781133538464e+00
0	 1.500000000000000e+00	 4.249999999999998e+00	 9.617781250461528e+00
0	 1.500000000000000e+00	 4.312499999999998e+00	 9.622750780307697e+00
0	 1.500000000000000e+00	 4.375000000000000e+00	 9.627689723076926e+00
0	 1.562500000000000e+00	 3.750000000000000e+00	 9.623518692307695e+00
0	 1.562500000000001e+00	 3.812500000000000e+00	 9.627554589230762e+00
0	 1.562500000000000e+00	 3.875000000000000e+00	 9.631395403076930e+00
0	 1.562500000000000e+00	 3.937499999999999e+00	 9.635041133846155e+00
0	 1.562500000000000e+00	 3.999999999999998e+00	 9.638491781538459e+00
0	 1.562500000000000e+00	 4.062500000000000e+00	 9.641747346153844e+00
0	 1.562500000000000e+00	 4.124999999999998e+00	 9.644807827692311e+00
0	 1.562500000000000e+00	 4.187499999999998e+00	 9.647673226153852e+00
0	 1.562500000000000e+00	 4.249999999999998e+00	 9.650343541538462e+00
0	 1.562500000000000e+00	 4.312499999999999e+00	 9.652818773846153e+00
0	 1.562500000000000e+00	 4.375000000000001e+00	 9.655098923076928e+00
0	 1.625000000000000e+00	 3.750000000000000e+00	 9.668457200000001e+00
0	 1.625000000000000e+00	 3.812500000000000e+00	 9.671488862769230e+00
0	 1.625000000000000e+00	 3.875000000000000e+00	 9.674160946461537e+00
0	 1.625000000000000e+00	 3.937499999999999e+00	 9.676473451076930e+00
0	 1.625000000000000e+00	 4.000000000000000e+00	 9.678426376615391e+00
0	 1.625000000000000e+00	 4.062499999999998e+00	 9.680019723076921e+00
0	 1.625000000000000e+00	 4.124999999999999e+00	 9.681253490461538e+00
0	 1.625000000000000e+00	 4.187499999999998e+00	 9.682127678769227e+00
0	 1.625000000000000e+00	 4.249999999999998e+00	 9.682642288000004e+00
0	 1.625000000000000e+00	 4.312499999999998e+00	 9.682797318153856e+00
0	 1.625000000000000e+00	 4.375000000000000e+00	 9.682592769230768e+00
0	 1.687500000000000e+00	 3.750000000000000e+00	 9.711739399999997e+00
0	 1.687500000000001e+00	 3.812500000000000e+00	 9.713940924000017e+00
0	 1.687500000000000e+00	 3.875000000000000e+00	 9.715618372923071e+00
0	 1.687500000000000e+00	 3.937499999999999e+00	 9.716771746769236e+00
0	 1.687500000000000e+00	 3.999999999999999e+00	 9.717401045538468e+00
0	 1.687500000000001e+00	 4.062500000000000e+00	 9.717506269230775e+00
0	 1.687500000000000e+00	 4.124999999999998e+00	 9.717087417846152e+00
0	 1.687500000000000e+00	 4.187499999999999e+00	 9.716144491384616e+00
0	 1.687500000000000e+00	 4.249999999999998e+00	 9.714677489846157e+00
0	 1.687500000000000e+00	 4.312499999999999e+00	 9.712686413230768e+00
0	 1.687500000000000e+00	 4.375000000000000e+00	 9.710171261538466e+00
0	 1.750000000000000e+00	 3.750000000000000e+00	 9.753365292307704e+00
0	 1.750000000000000e+00	 3.812500000000000e+00	 9.754910772923093e+00
0	 1.750000000000001e+00	 3.875000000000000e+00	 9.755767682461538e+00
0	 1.750000000000000e+00	 3.937499999999999e+00	 9.755936020923075e+00
0	 1.750000000000000e+00	 4.000000000000000e+00	 9.755415788307696e+00
0	 1.750000000000000e+00	 4.062499999999998e+00	 9.754206984615381e+00
0	 1.750000000000001e+00	 4.124999999999999e+00	 9.752309609846154e+00
0	 1.750000000000000e+00	 4.187499999999998e+00	 9.749723663999998e+00
0	 1.750000000000000e+00	 4.249999999999998e+00	 9.746449147076918e+00
0	 1.750000000000000e+00	 4.312499999999997e+00	 9.742486059076919e+00
0	 1.750000000000000e+00	 4.375000000000000e+00	 9.737834399999993e+00
0	 1.812500000000001e+00	 3.750000000000000e+00	 9.793334876923083e+00
0	 1.812500000000000e+00	 3.812499999999999e+00	 9.794398409538466e+00
0	 1.812500000000001e+00	 3.874999999999999e+00	 9.794608875076934e+00
0	 1.812500000000000e+00	 3.937500000000000e+00	 9.793966273538466e+00
0	 1.812500000000000e+00	 3.999999999999999e+00	 9.792470604923082e+00
0	 1.812500000000000e+00	 4.062499999999998e+00	 9.790121869230765e+00
0	 1.812500000000001e+00	 4.124999999999999e+00	 9.786920066461542e+00
0	 1.812500000000000e+00	 4.187499999999997e+00	 9.782865196615383e+00
0	 1.812500000000001e+00	 4.249999999999998e+00	 9.777957259692302e+00
0	 1.812500000000000e+00	 4.312499999999998e+00	 9.772196255692300e+00
0	 1.812500000000001e+00	 4.375000000000000e+00	 9.765582184615386e+00
0	 1.875000000000000e+00	 3.750000000000000e+00	 9.831648153846162e+00
0	 1.875000000000000e+00	 3.812500000000000e+00	 9.832403833846165e+00
0	 1.875000000000000e+00	 3.875000000000000e+00	 9.832141950769238e+00
0	 1.875000000000000e+00	 3.937499999999999e+00	 9.830862504615384e+00
0	 1.875000000000000e+00	 4.000000000000000e+00	 9.828565495384616e+00
0	 1.875000000000000e+00	 4.062499999999999e+00	 9.825250923076929e+00
0	 1.875000000000000e+00	 4.124999999999999e+00	 9.820918787692305e+00
0	 1.875000000000000e+00	 4.187499999999998e+00	 9.815569089230763e+00
0	 1.875000000000000e+00	 4.249999999999998e+00	 9.809201827692302e+00
0	 1.875000000000000e+00	 4.312499999999998e+00	 9.801817003076925e+00
0	 1.875000000000000e+00	 4.375000000000000e+00	 9.793414615384611e+00
0	 1.250000000000000e+00	 4.375000000000000e+00	 9.518899384615381e+00
0	 1.250000000000000e+00	 4.437499999999999e+00	 9.528516647692285e+00
0	 1.250000000000000e+00	 4.500000000000001e+00	 9.537866283076923e+00
0	 1.250000000000000e+00	 4.562499999999999e+00	 9.546948290769235e+00
0	 1.250000000000000e+00	 4.625000000000000e+00	 9.555762670769230e+00
0	 1.250000000000000e+00	 4.687499999999999e+00	 9.564309423076915e+00
0	 1.250000000000000e+00	 4.749999999999999e+00	 9.572588547692309e+00
0	 1.250000000000000e+00	 4.812499999999998e+00	 9.580600044615371e+00
0	 1.250000000000000e+00	 4.874999999999998e+00	 9.588343913846151e+00
0	 1.250000000000000e+00	 4.937499999999998e+00	 9.595820155384605e+00
0	 1.250000000000000e+00	 5.000000000000000e+00	 9.603028769230765e+00
0	 1.312500000000000e+00	 4.375000000000000e+00	 9.545970000000006e+00
0	 1.312500000000000e+00	 4.437499999999999e+00	 9.554906960153847e+00
0	 1.312500000000000e+00	 4.499999999999999e+00	 9.563590062153843e+00
0	 1.312500000000000e+00	 4.562499999999999e+00	 9.572019305999994e+00
0	 1.312500000000000e+00	 4.624999999999999e+00	 9.580194691692300e+00
0	 1.312500000000000e+00	 4.687499999999998e+00	 9.588116219230759e+00
0	 1.312500000000000e+00	 4.749999999999998e+00	 9.595783888615379e+00
0	 1.312500000000000e+00	 4.812499999999997e+00	 9.603197699846135e+00
0	 1.312500000000000e+00	 4.874999999999998e+00	 9.610357652923073e+00
0	 1.312500000000000e+00	 4.937499999999997e+00	 9.617263747846145e+00
0	 1.312500000000000e+00	 5.000000000000000e+00	 9.623915984615381e+00
0	 1.375000000000000e+00	 4.375000000000000e+00	 9.573125261538454e+00
0	 1.375000000000000e+00	 4.437499999999999e+00	 9.581356115692300e+00
0	 1.375000000000000e+00	 4.499999999999999e+00	 9.589346881230771e+00
0	 1.375000000000000e+00	 4.562499999999999e+00	 9.597097558153836e+00
0	 1.375000000000000e+00	 4.624999999999999e+00	 9.604608146461535e+00
0	 1.375000000000000e+00	 4.687499999999999e+00	 9.611878646153837e+00
0	 1.375000000000000e+00	 4.749999999999998e+00	 9.618909057230757e+00
0	 1.375000000000000e+00	 4.812499999999997e+00	 9.625699379692310e+00
0	 1.375000000000000e+00	 4.874999999999997e+00	 9.632249613538455e+00
0	 1.375000000000000e+00	 4.937499999999997e+00	 9.638559758769226e+00
0	 1.375000000000000e+00	 5.000000000000001e+00	 9.644629815384619e+00
0	 1.437500000000000e+00	 4.375000000000000e+00	 9.600365169230761e+00
0	 1.437500000000000e+00	 4.437500000000000e+00	 9.607864114307695e+00
0	 1.437500000000000e+00	 4.500000000000000e+00	 9.615136740307673e+00
0	 1.437500000000000e+00	 4.562500000000000e+00	 9.622183047230772e+00
0	 1.437500000000000e+00	 4.624999999999997e+00	 9.629003035076920e+00
0	 1.437500000000000e+00	 4.687499999999999e+00	 9.635596703846154e+00
0	 1.437500000000000e+00	 4.749999999999998e+00	 9.641964053538475e+00
0	 1.437500000000000e+00	 4.812499999999998e+00	 9.648105084153840e+00
0	 1.437500000000000e+00	 4.874999999999996e+00	 9.654019795692301e+00
0	 1.437500000000000e+00	 4.937499999999996e+00	 9.659708188153832e+00
0	 1.437500000000000e+00	 5.000000000000000e+00	 9.665170261538446e+00
0	 1.500000000000000e+00	 4.375000000000000e+00	 9.627689723076926e+00
0	 1.500000000000001e+00	 4.437500000000001e+00	 9.634430955999994e+00
0	 1.500000000000000e+00	 4.500000000000000e+00	 9.640959639384612e+00
0	 1.500000000000000e+00	 4.562499999999999e+00	 9.647275773230762e+00
0	 1.500000000000000e+00	 4.625000000000000e+00	 9.653379357538460e+00
0	 1.500000000000000e+00	 4.687499999999998e+00	 9.659270392307684e+00
0	 1.500000000000000e+00	 4.749999999999999e+00	 9.664948877538450e+00
0	 1.500000000000000e+00	 4.812500000000000e+00	 9.670414813230764e+00
0	 1.500000000000000e+00	 4.874999999999998e+00	 9.675668199384614e+00
0	 1.500000000000000e+00	 4.937499999999998e+00	 9.680709035999993e+00
0	 1.500000000000000e+00	 5.000000000000000e+00	 9.685537323076915e+00
0	 1.562500000000000e+00	 4.375000000000001e+00	 9.655098923076928e+00
0	 1.562500000000001e+00	 4.437500000000000e+00	 9.661056640769219e+00
0	 1.562500000000000e+00	 4.500000000000000e+00	 9.666815578461533e+00
0	 1.562500000000000e+00	 4.562500000000000e+00	 9.672375736153832e+00
0	 1.562500000000000e+00	 4.624999999999998e+00	 9.677737113846153e+00
0	 1.562500000000000e+00	 4.687500000000001e+00	 9.682899711538461e+00
0	 1.562500000000000e+00	 4.749999999999999e+00	 9.687863529230757e+00
0	 1.562500000000000e+00	 4.812499999999999e+00	 9.692628566923069e+00
0	 1.562500000000000e+00	 4.874999999999998e+00	 9.697194824615378e+00
0	 1.562500000000000e+00	 4.937499999999998e+00	 9.701562302307684e+00
0	 1.562500000000000e+00	 5.000000000000001e+00	 9.705730999999979e+00
0	 1.625000000000000e+00	 4.375000000000000e+00	 9.682592769230768e+00
0	 1.625000000000000e+00	 4.437499999999999e+00	 9.687741168615368e+00
0	 1.625000000000000e+00	 4.499999999999999e+00	 9.692704557538464e+00
0	 1.625000000000000e+00	 4.562499999999999e+00	 9.697482936000000e+00
0	 1.625000000000000e+00	 4.624999999999999e+00	 9.702076304000000e+00
0	 1.625000000000000e+00	 4.687499999999999e+00	 9.706484661538465e+00
0	 1.625000000000000e+00	 4.749999999999998e+00	 9.710708008615377e+00
0	 1.625000000000000e+00	 4.812499999999999e+00	 9.714746345230775e+00
0	 1.625000000000000e+00	 4.874999999999998e+00	 9.718599671384599e+00
0	 1.625000000000000e+00	 4.937499999999999e+00	 9.722267987076915e+00
0	 1.625000000000000e+00	 5.000000000000000e+00	 9.725751292307693e+00
0	 1.687500000000000e+00	 4.375000000000000e+00	 9.710171261538466e+00
0	 1.687500000000001e+00	 4.437500000000000e+00	 9.714484539538462e+00
0	 1.687500000000000e+00	 4.499999999999999e+00	 9.718626576615373e+00
0	 1.687500000000000e+00	 4.562499999999998e+00	 9.722597372769226e+00
0	 1.687500000000000e+00	 4.625000000000000e+00	 9.726396927999991e+00
0	 1.687500000000001e+00	 4.687500000000000e+00	 9.730025242307690e+00
0	 1.687500000000000e+00	 4.749999999999998e+00	 9.733482315692303e+00
0	 1.687500000000000e+00	 4.812499999999999e+00	 9.736768148153844e+00
0	 1.687500000000000e+00	 4.874999999999997e+00	 9.739882739692298e+00
0	 1.687500000000000e+00	 4.937499999999998e+00	 9.742826090307684e+00
0	 1.687500000000000e+00	 5.000000000000000e+00	 9.745598199999993e+00
0	 1.750000000000000e+00	 4.375000000000000e+00	 9.737834399999993e+00
0	 1.750000000000000e+00	 4.437500000000000e+00	 9.741286753538470e+00
0	 1.750000000000001e+00	 4.500000000000000e+00	 9.744581635692303e+00
0	 1.750000000000000e+00	 4.562499999999999e+00	 9.747719046461535e+00
0	 1.750000000000000e+00	 4.624999999999999e+00	 9.750698985846151e+00
0	 1.750000000000000e+00	 4.687499999999998e+00	 9.753521453846140e+00
0	 1.750000000000001e+00	 4.749999999999999e+00	 9.756186450461534e+00
0	 1.750000000000000e+00	 4.812499999999998e+00	 9.758693975692303e+00
0	 1.750000000000000e+00	 4.874999999999998e+00	 9.761044029538454e+00
0	 1.750000000000000e+00	 4.937499999999997e+00	 9.763236611999996e+00
0	 1.750000000000000e+00	 5.000000000000000e+00	 9.765271723076921e+00
0	 1.812500000000001e+00	 4.375000000000000e+00	 9.765582184615386e+00
0	 1.812500000000000e+00	 4.437499999999999e+00	 9.768147810615382e+00
0	 1.812500000000001e+00	 4.499999999999999e+00	 9.770569734769220e+00
0	 1.812500000000000e+00	 4.562499999999999e+00	 9.772847957076916e+00
0	 1.812500000000000e+00	 4.624999999999999e+00	 9.774982477538451e+00
0	 1.812500000000000e+00	 4.687499999999998e+00	 9.776973296153839e+00
0	 1.812500000000001e+00	 4.749999999999998e+00	 9.778820412923075e+00
0	 1.812500000000000e+00	 4.812499999999998e+00	 9.780523827846155e+00
0	 1.812500000000001e+00	 4.874999999999998e+00	 9.782083540923059e+00
0	 1.812500000000000e+00	 4.937499999999997e+00	 9.783499552153833e+00
0	 1.812500000000001e+00	 5.000000000000001e+00	 9.784771861538465e+00
0	 1.875000000000000e+00	 4.375000000000000e+00	 9.793414615384611e+00
0	 1.875000000000000e+00	 4.437499999999999e+00	 9.795067710769217e+00
0	 1.875000000000000e+00	 4.500000000000001e+00	 9.796590873846153e+00
0	 1.875000000000000e+00	 4.562499999999999e+00	 9.797984104615388e+00
0	 1.875000000000000e+00	 4.625000000000000e+00	 9.799247403076919e+00
0	 1.875000000000000e+00	 4.687499999999999e+00	 9.800380769230756e+00
0	 1.875000000000000e+00	 4.749999999999999e+00	 9.801384203076923e+00
0	 1.875000000000000e+00	 4.812499999999998e+00	 9.802257704615375e+00
0	 1.875000000000000e+00	 4.874999999999998e+00	 9.803001273846149e+00
0	 1.875000000000000e+00	 4.937499999999998e+00	 9.803614910769214e+00
0	 1.875000000000000e+00	 5.000000000000000e+00	 9.804098615384609e+00
0	 1.250000000000000e+00	 5.000000000000000e+00	 9.603028769230765e+00
0	 1.250000000000000e+00	 5.062500000000000e+00	 9.613181886153843e+00
0	 1.250000000000000e+00	 5.125000000000001e+00	 9.623335944615391e+00
0	 1.250000000000000e+00	 5.187499999999999e+00	 9.633490944615364e+00
0	 1.250000000000000e+00	 5.249999999999999e+00	 9.643646886153837e+00
0	 1.250000000000000e+00	 5.312499999999999e+00	 9.653803769230768e+00
0	 1.250000000000000e+00	 5.374999999999998e+00	 9.663961593846143e+00
0	 1.250000000000000e+00	 5.437499999999998e+00	 9.674120360000000e+00
0	 1.250000000000000e+00	 5.499999999999998e+00	 9.684280067692303e+00
0	 1.250000000000000e+00	 5.562499999999998e+00	 9.694440716923078e+00
0	 1.250000000000000e+00	 5.625000000000000e+00	 9.704602307692303e+00
0	 1.312500000000000e+00	 5.000000000000000e+00	 9.623915984615381e+00
0	 1.312500000000000e+00	 5.062499999999999e+00	 9.633153974923072e+00
0	 1.312500000000000e+00	 5.125000000000000e+00	 9.642378718153836e+00
0	 1.312500000000000e+00	 5.187499999999999e+00	 9.651590214307685e+00
0	 1.312500000000000e+00	 5.249999999999998e+00	 9.660788463384607e+00
0	 1.312500000000000e+00	 5.312499999999998e+00	 9.669973465384615e+00
0	 1.312500000000000e+00	 5.374999999999998e+00	 9.679145220307685e+00
0	 1.312500000000000e+00	 5.437499999999998e+00	 9.688303728153848e+00
0	 1.312500000000000e+00	 5.499999999999998e+00	 9.697448988923064e+00
0	 1.312500000000000e+00	 5.562499999999997e+00	 9.706581002615378e+00
0	 1.312500000000000e+00	 5.625000000000000e+00	 9.715699769230774e+00
0	 1.375000000000000e+00	 5.000000000000001e+00	 9.644629815384619e+00
0	 1.375000000000000e+00	 5.062499999999999e+00	 9.652999826769230e+00
0	 1.375000000000000e+00	 5.124999999999999e+00	 9.661342402461536e+00
0	 1.375000000000000e+00	 5.187500000000000e+00	 9.669657542461538e+00
0	 1.375000000000000e+00	 5.249999999999999e+00	 9.677945246769227e+00
0	 1.375000000000000e+00	 5.312499999999999e+00	 9.686205515384616e+00
0	 1.375000000000000e+00	 5.374999999999999e+00	 9.694438348307688e+00
0	 1.375000000000000e+00	 5.437499999999997e+00	 9.702643745538463e+00
0	 1.375000000000000e+00	 5.499999999999996e+00	 9.710821707076914e+00
0	 1.375000000000000e+00	 5.562499999999998e+00	 9.718972232923090e+00
0	 1.375000000000000e+00	 5.625000000000000e+00	 9.727095323076906e+00
0	 1.437500000000000e+00	 5.000000000000000e+00	 9.665170261538446e+00
0	 1.437500000000000e+00	 5.062499999999999e+00	 9.672719441692310e+00
0	 1.437500000000000e+00	 5.124999999999998e+00	 9.680226997538458e+00
0	 1.437500000000000e+00	 5.187499999999999e+00	 9.687692929076917e+00
0	 1.437500000000000e+00	 5.249999999999997e+00	 9.695117236307681e+00
0	 1.437500000000000e+00	 5.312499999999999e+00	 9.702499919230760e+00
0	 1.437500000000000e+00	 5.374999999999998e+00	 9.709840977846143e+00
0	 1.437500000000000e+00	 5.437499999999998e+00	 9.717140412153851e+00
0	 1.437500000000000e+00	 5.499999999999998e+00	 9.724398222153836e+00
0	 1.437500000000000e+00	 5.562499999999996e+00	 9.731614407846152e+00
0	 1.437500000000000e+00	 5.625000000000000e+00	 9.738788969230773e+00
0	 1.500000000000000e+00	 5.000000000000000e+00	 9.685537323076915e+00
0	 1.500000000000001e+00	 5.062500000000001e+00	 9.692312819692303e+00
0	 1.500000000000000e+00	 5.124999999999999e+00	 9.699032503384602e+00
0	 1.500000000000000e+00	 5.187500000000000e+00	 9.705696374153842e+00
0	 1.500000000000000e+00	 5.250000000000000e+00	 9.712304431999993e+00
0	 1.500000000000000e+00	 5.312499999999997e+00	 9.718856676923071e+00
0	 1.500000000000000e+00	 5.374999999999999e+00	 9.725353108923080e+00
0	 1.500000000000000e+00	 5.437499999999999e+00	 9.731793728000003e+00
0	 1.500000000000000e+00	 5.499999999999998e+00	 9.738178534153837e+00
0	 1.500000000000000e+00	 5.562499999999999e+00	 9.744507527384611e+00
0	 1.500000000000000e+00	 5.625000000000000e+00	 9.750780707692300e+00
0	 1.562500000000000e+00	 5.000000000000001e+00	 9.705730999999979e+00
0	 1.562500000000001e+00	 5.062500000000001e+00	 9.711779960769213e+00
0	 1.562500000000000e+00	 5.124999999999999e+00	 9.717758919999989e+00
0	 1.562500000000000e+00	 5.187500000000000e+00	 9.723667877692296e+00
0	 1.562500000000000e+00	 5.249999999999998e+00	 9.729506833846138e+00
0	 1.562500000000000e+00	 5.312500000000000e+00	 9.735275788461539e+00
0	 1.562500000000000e+00	 5.375000000000000e+00	 9.740974741538455e+00
0	 1.562500000000000e+00	 5.437500000000000e+00	 9.746603693076917e+00
0	 1.562500000000000e+00	 5.499999999999998e+00	 9.752162643076911e+00
0	 1.562500000000000e+00	 5.562499999999998e+00	 9.757651591538453e+00
0	 1.562500000000000e+00	 5.625000000000000e+00	 9.763070538461541e+00
0	 1.625000000000000e+00	 5.000000000000000e+00	 9.725751292307693e+00
0	 1.625000000000000e+00	 5.062500000000000e+00	 9.731120864923067e+00
0	 1.625000000000000e+00	 5.125000000000000e+00	 9.736406247384616e+00
0	 1.625000000000000e+00	 5.187499999999999e+00	 9.741607439692297e+00
0	 1.625000000000000e+00	 5.250000000000000e+00	 9.746724441846151e+00
0	 1.625000000000000e+00	 5.312499999999999e+00	 9.751757253846140e+00
0	 1.625000000000000e+00	 5.374999999999999e+00	 9.756705875692303e+00
0	 1.625000000000000e+00	 5.437499999999998e+00	 9.761570307384599e+00
0	 1.625000000000000e+00	 5.499999999999998e+00	 9.766350548923072e+00
0	 1.625000000000000e+00	 5.562499999999998e+00	 9.771046600307692e+00
0	 1.625000000000000e+00	 5.625000000000000e+00	 9.775658461538470e+00
0	 1.687500000000000e+00	 5.000000000000000e+00	 9.745598199999993e+00
0	 1.687500000000001e+00	 5.062500000000000e+00	 9.750335532153846e+00
0	 1.687500000000000e+00	 5.124999999999999e+00	 9.754974485538460e+00
0	 1.687500000000000e+00	 5.187499999999999e+00	 9.759515060153841e+00
0	 1.687500000000000e+00	 5.250000000000000e+00	 9.763957255999994e+00
0	 1.687500000000001e+00	 5.312499999999999e+00	 9.768301073076918e+00
0	 1.687500000000000e+00	 5.374999999999998e+00	 9.772546511384613e+00
0	 1.687500000000000e+00	 5.437500000000000e+00	 9.776693570923072e+00
0	 1.687500000000000e+00	 5.499999999999998e+00	 9.780742251692311e+00
0	 1.687500000000000e+00	 5.562499999999998e+00	 9.784692553692301e+00
0	 1.687500000000000e+00	 5.625000000000000e+00	 9.788544476923073e+00
0	 1.750000000000000e+00	 5.000000000000000e+00	 9.765271723076921e+00
0	 1.750000000000000e+00	 5.062499999999999e+00	 9.769423962461531e+00
0	 1.750000000000001e+00	 5.124999999999999e+00	 9.773463634461528e+00
0	 1.750000000000000e+00	 5.187499999999999e+00	 9.777390739076921e+00
0	 1.750000000000000e+00	 5.250000000000000e+00	 9.781205276307691e+00
0	 1.750000000000000e+00	 5.312500000000000e+00	 9.784907246153836e+00
0	 1.750000000000001e+00	 5.374999999999999e+00	 9.788496648615382e+00
0	 1.750000000000000e+00	 5.437499999999999e+00	 9.791973483692312e+00
0	 1.750000000000000e+00	 5.499999999999998e+00	 9.795337751384618e+00
0	 1.750000000000000e+00	 5.562499999999998e+00	 9.798589451692301e+00
0	 1.750000000000000e+00	 5.625000000000000e+00	 9.801728584615390e+00
0	 1.812500000000001e+00	 5.000000000000001e+00	 9.784771861538465e+00
0	 1.812500000000000e+00	 5.062499999999999e+00	 9.788386155846137e+00
0	 1.812500000000001e+00	 5.125000000000000e+00	 9.791873694153843e+00
0	 1.812500000000000e+00	 5.187499999999999e+00	 9.795234476461530e+00
0	 1.812500000000000e+00	 5.250000000000001e+00	 9.798468502769223e+00
0	 1.812500000000000e+00	 5.312499999999998e+00	 9.801575773076914e+00
0	 1.812500000000001e+00	 5.374999999999998e+00	 9.804556287384601e+00
0	 1.812500000000000e+00	 5.437499999999998e+00	 9.807410045692301e+00
0	 1.812500000000001e+00	 5.499999999999998e+00	 9.810137047999982e+00
0	 1.812500000000000e+00	 5.562499999999998e+00	 9.812737294307688e+00
0	 1.812500000000001e+00	 5.625000000000000e+00	 9.815210784615381e+00
0	 1.875000000000000e+00	 5.000000000000000e+00	 9.804098615384609e+00
0	 1.875000000000000e+00	 5.062500000000000e+00	 9.807222112307699e+00
0	 1.875000000000000e+00	 5.125000000000001e+00	 9.810204664615382e+00
0	 1.875000000000000e+00	 5.187499999999999e+00	 9.813046272307671e+00
0	 1.875000000000000e+00	 5.249999999999999e+00	 9.815746935384608e+00
0	 1.875000000000000e+00	 5.312499999999999e+00	 9.818306653846147e+00
0	 1.875000000000000e+00	 5.374999999999998e+00	 9.820725427692294e+00
0	 1.875000000000000e+00	 5.437499999999998e+00	 9.823003256923073e+00
0	 1.875000000000000e+00	 5.499999999999998e+00	 9.825140141538453e+00
0	 1.875000000000000e+00	 5.562499999999998e+00	 9.827136081538464e+00
0	 1.875000000000000e+00	 5.625000000000000e+00	 9.828991076923073e+00
0	 1.250000000000000e+00	 5.625000000000000e+00	 9.704602307692303e+00
0	 1.250000000000000e+00	 5.687500000000000e+00	 9.711702564615376e+00
0	 1.250000000000000e+00	 5.750000000000000e+00	 9.718849981538458e+00
0	 1.250000000000000e+00	 5.812499999999999e+00	 9.726044558461542e+00
0	 1.250000000000000e+00	 5.874999999999999e+00	 9.733286295384620e+00
0	 1.250000000000000e+00	 5.937499999999999e+00	 9.740575192307706e+00
0	 1.250000000000000e+00	 5.999999999999998e+00	 9.747911249230786e+00
0	 1.250000000000000e+00	 6.062499999999998e+00	 9.755294466153854e+00
0	 1.250000000000000e+00	 6.124999999999998e+00	 9.762724843076931e+00
0	 1.250000000000000e+00	 6.187499999999998e+00	 9.770202380000024e+00
0	 1.250000000000000e+00	 6.250000000000000e+00	 9.777727076923089e+00
0	 1.312500000000000e+00	 5.625000000000000e+00	 9.715699769230774e+00
0	 1.312500000000000e+00	 5.687499999999998e+00	 9.722538110615371e+00
0	 1.312500000000000e+00	 5.749999999999999e+00	 9.729412750153841e+00
0	 1.312500000000000e+00	 5.812499999999997e+00	 9.736323687846163e+00
0	 1.312500000000000e+00	 5.874999999999998e+00	 9.743270923692315e+00
0	 1.312500000000000e+00	 5.937499999999998e+00	 9.750254457692307e+00
0	 1.312500000000000e+00	 5.999999999999999e+00	 9.757274289846153e+00
0	 1.312500000000000e+00	 6.062499999999998e+00	 9.764330420153849e+00
0	 1.312500000000000e+00	 6.124999999999999e+00	 9.771422848615396e+00
0	 1.312500000000000e+00	 6.187499999999999e+00	 9.778551575230786e+00
0	 1.312500000000000e+00	 6.250000000000000e+00	 9.785716599999997e+00
0	 1.375000000000000e+00	 5.625000000000000e+00	 9.727095323076906e+00
0	 1.375000000000000e+00	 5.687499999999998e+00	 9.733656348923077e+00
0	 1.375000000000000e+00	 5.750000000000000e+00	 9.740242811076921e+00
0	 1.375000000000000e+00	 5.812499999999999e+00	 9.746854709538475e+00
0	 1.375000000000000e+00	 5.874999999999999e+00	 9.753492044307702e+00
0	 1.375000000000000e+00	 5.937499999999999e+00	 9.760154815384603e+00
0	 1.375000000000000e+00	 5.999999999999999e+00	 9.766843022769240e+00
0	 1.375000000000000e+00	 6.062499999999998e+00	 9.773556666461559e+00
0	 1.375000000000000e+00	 6.124999999999996e+00	 9.780295746461567e+00
0	 1.375000000000000e+00	 6.187499999999998e+00	 9.787060262769241e+00
0	 1.375000000000000e+00	 6.250000000000000e+00	 9.793850215384644e+00
0	 1.437500000000000e+00	 5.625000000000000e+00	 9.738788969230773e+00
0	 1.437500000000000e+00	 5.687499999999999e+00	 9.745057279538464e+00
0	 1.437500000000000e+00	 5.749999999999999e+00	 9.751340164307688e+00
0	 1.437500000000000e+00	 5.812500000000001e+00	 9.757637623538464e+00
0	 1.437500000000000e+00	 5.874999999999997e+00	 9.763949657230768e+00
0	 1.437500000000000e+00	 5.937499999999999e+00	 9.770276265384618e+00
0	 1.437500000000000e+00	 5.999999999999998e+00	 9.776617448000016e+00
0	 1.437500000000000e+00	 6.062499999999998e+00	 9.782973205076946e+00
0	 1.437500000000000e+00	 6.124999999999996e+00	 9.789343536615403e+00
0	 1.437500000000000e+00	 6.187499999999998e+00	 9.795728442615392e+00
0	 1.437500000000000e+00	 6.250000000000000e+00	 9.802127923076915e+00
0	 1.500000000000000e+00	 5.625000000000000e+00	 9.750780707692300e+00
0	 1.500000000000001e+00	 5.687500000000001e+00	 9.756740902461534e+00
0	 1.500000000000000e+00	 5.749999999999999e+00	 9.762704809846163e+00
0	 1.500000000000000e+00	 5.812499999999999e+00	 9.768672429846163e+00
0	 1.500000000000000e+00	 5.874999999999999e+00	 9.774643762461537e+00
0	 1.500000000000000e+00	 5.937499999999998e+00	 9.780618807692315e+00
0	 1.500000000000000e+00	 5.999999999999999e+00	 9.786597565538470e+00
0	 1.500000000000000e+00	 6.062499999999998e+00	 9.792580036000000e+00
0	 1.500000000000000e+00	 6.124999999999999e+00	 9.798566219076918e+00
0	 1.500000000000000e+00	 6.187499999999998e+00	 9.804556114769234e+00
0	 1.500000000000000e+00	 6.250000000000001e+00	 9.810549723076937e+00
0	 1.562500000000000e+00	 5.625000000000000e+00	 9.763070538461541e+00
0	 1.562500000000001e+00	 5.687500000000000e+00	 9.768707217692310e+00
0	 1.562500000000000e+00	 5.749999999999999e+00	 9.774336747692313e+00
0	 1.562500000000000e+00	 5.812500000000000e+00	 9.779959128461538e+00
0	 1.562500000000000e+00	 5.874999999999998e+00	 9.785574360000004e+00
0	 1.562500000000000e+00	 5.937499999999999e+00	 9.791182442307706e+00
0	 1.562500000000000e+00	 5.999999999999999e+00	 9.796783375384621e+00
0	 1.562500000000000e+00	 6.062499999999999e+00	 9.802377159230758e+00
0	 1.562500000000000e+00	 6.124999999999998e+00	 9.807963793846172e+00
0	 1.562500000000000e+00	 6.187499999999998e+00	 9.813543279230792e+00
0	 1.562500000000000e+00	 6.250000000000000e+00	 9.819115615384625e+00
0	 1.625000000000000e+00	 5.625000000000000e+00	 9.775658461538470e+00
0	 1.625000000000000e+00	 5.687500000000000e+00	 9.780956225230774e+00
0	 1.625000000000000e+00	 5.749999999999999e+00	 9.786235977846157e+00
0	 1.625000000000000e+00	 5.812499999999999e+00	 9.791497719384614e+00
0	 1.625000000000000e+00	 5.874999999999999e+00	 9.796741449846159e+00
0	 1.625000000000000e+00	 5.937499999999999e+00	 9.801967169230782e+00
0	 1.625000000000000e+00	 5.999999999999999e+00	 9.807174877538465e+00
0	 1.625000000000000e+00	 6.062499999999998e+00	 9.812364574769235e+00
0	 1.625000000000000e+00	 6.124999999999998e+00	 9.817536260923081e+00
0	 1.625000000000000e+00	 6.187499999999998e+00	 9.822689935999998e+00
0	 1.625000000000000e+00	 6.250000000000000e+00	 9.827825600000001e+00
0	 1.687500000000000e+00	 5.625000000000000e+00	 9.788544476923073e+00
0	 1.687500000000001e+00	 5.687500000000000e+00	 9.793487925076917e+00
0	 1.687500000000000e+00	 5.750000000000000e+00	 9.798402500307702e+00
0	 1.687500000000000e+00	 5.812499999999999e+00	 9.803288202615388e+00
0	 1.687500000000000e+00	 5.875000000000000e+00	 9.808145032000011e+00
0	 1.687500000000001e+00	 5.937499999999999e+00	 9.812972988461546e+00
0	 1.687500000000000e+00	 5.999999999999999e+00	 9.817772071999997e+00
0	 1.687500000000000e+00	 6.062500000000000e+00	 9.822542282615403e+00
0	 1.687500000000000e+00	 6.124999999999998e+00	 9.827283620307707e+00
0	 1.687500000000000e+00	 6.187499999999999e+00	 9.831996085076943e+00
0	 1.687500000000000e+00	 6.249999999999999e+00	 9.836679676923081e+00
0	 1.750000000000000e+00	 5.625000000000000e+00	 9.801728584615390e+00
0	 1.750000000000000e+00	 5.687499999999999e+00	 9.806302317230767e+00
0	 1.750000000000001e+00	 5.749999999999999e+00	 9.810836315076932e+00
0	 1.750000000000000e+00	 5.812499999999999e+00	 9.815330578153850e+00
0	 1.750000000000000e+00	 5.875000000000000e+00	 9.819785106461545e+00
0	 1.750000000000000e+00	 5.937499999999999e+00	 9.824199899999993e+00
0	 1.750000000000001e+00	 5.999999999999999e+00	 9.828574958769245e+00
0	 1.750000000000000e+00	 6.062499999999997e+00	 9.832910282769255e+00
0	 1.750000000000000e+00	 6.124999999999997e+00	 9.837205872000014e+00
0	 1.750000000000000e+00	 6.187499999999998e+00	 9.841461726461565e+00
0	 1.750000000000000e+00	 6.250000000000000e+00	 9.845677846153867e+00
0	 1.812500000000001e+00	 5.625000000000000e+00	 9.815210784615381e+00
0	 1.812500000000000e+00	 5.687499999999999e+00	 9.819399401692323e+00
0	 1.812500000000001e+00	 5.750000000000000e+00	 9.823537422153850e+00
0	 1.812500000000000e+00	 5.812499999999999e+00	 9.827624845999997e+00
0	 1.812500000000000e+00	 5.875000000000000e+00	 9.831661673230773e+00
0	 1.812500000000000e+00	 5.937499999999998e+00	 9.835647903846155e+00
0	 1.812500000000001e+00	 5.999999999999999e+00	 9.839583537846154e+00
0	 1.812500000000000e+00	 6.062499999999999e+00	 9.843468575230778e+00
0	 1.812500000000001e+00	 6.124999999999998e+00	 9.847303016000001e+00
0	 1.812500000000000e+00	 6.187499999999998e+00	 9.851086860153845e+00
0	 1.812500000000001e+00	 6.250000000000000e+00	 9.854820107692337e+00
0	 1.875000000000000e+00	 5.625000000000000e+00	 9.828991076923073e+00
0	 1.875000000000000e+00	 5.687500000000000e+00	 9.832779178461534e+00
0	 1.875000000000000e+00	 5.750000000000000e+00	 9.836505821538452e+00
0	 1.875000000000000e+00	 5.812499999999999e+00	 9.840171006153852e+00
0	 1.875000000000000e+00	 5.874999999999999e+00	 9.843774732307702e+00
0	 1.875000000000000e+00	 5.937499999999999e+00	 9.847317000000009e+00
0	 1.875000000000000e+00	 5.999999999999998e+00	 9.850797809230787e+00
0	 1.875000000000000e+00	 6.062499999999998e+00	 9.854217160000012e+00
0	 1.875000000000000e+00	 6.124999999999998e+00	 9.857575052307702e+00
0	 1.875000000000000e+00	 6.187499999999998e+00	 9.860871486153872e+00
0	 1.875000000000000e+00	 6.250000000000000e+00	 9.864106461538478e+00
0	 1.250000000000000e+00	 6.250000000000000e+00	 9.777727076923089e+00
0	 1.250000000000000e+00	 6.312500000000000e+00	 9.784056984615390e+00
0	 1.250000000000000e+00	 6.375000000000000e+00	 9.790424923076930e+00
0	 1.250000000000000e+00	 6.437499999999999e+00	 9.796830892307682e+00
0	 1.250000000000000e+00	 6.499999999999999e+00	 9.803274892307705e+00
0	 1.250000000000000e+00	 6.562499999999998e+00	 9.809756923076927e+00
0	 1.250000000000000e+00	 6.624999999999998e+00	 9.816276984615371e+00
0	 1.250000000000000e+00	 6.687499999999998e+00	 9.822835076923077e+00
0	 1.250000000000000e+00	 6.749999999999998e+00	 9.829431199999997e+00
0	 1.250000000000000e+00	 6.812499999999998e+00	 9.836065353846159e+00
0	 1.250000000000000e+00	 6.875000000000000e+00	 9.842737538461527e+00
0	 1.312500000000000e+00	 6.250000000000000e+00	 9.785716599999997e+00
0	 1.312500000000000e+00	 6.312499999999998e+00	 9.791740640769245e+00
0	 1.312500000000000e+00	 6.375000000000000e+00	 9.797798996923083e+00
0	 1.312500000000000e+00	 6.437499999999997e+00	 9.803891668461544e+00
0	 1.312500000000000e+00	 6.499999999999998e+00	 9.810018655384630e+00
0	 1.312500000000000e+00	 6.562499999999997e+00	 9.816179957692304e+00
0	 1.312500000000000e+00	 6.624999999999998e+00	 9.822375575384619e+00
0	 1.312500000000000e+00	 6.687499999999997e+00	 9.828605508461518e+00
0	 1.312500000000000e+00	 6.749999999999999e+00	 9.834869756923071e+00
0	 1.312500000000000e+00	 6.812499999999998e+00	 9.841168320769228e+00
0	 1.312500000000000e+00	 6.874999999999999e+00	 9.847501200000002e+00
0	 1.375000000000000e+00	 6.250000000000000e+00	 9.793850215384644e+00
0	 1.375000000000000e+00	 6.312499999999998e+00	 9.799571361538476e+00
0	 1.375000000000000e+00	 6.375000000000000e+00	 9.805323107692320e+00
0	 1.375000000000000e+00	 6.437500000000000e+00	 9.811105453846169e+00
0	 1.375000000000000e+00	 6.500000000000000e+00	 9.816918400000009e+00
0	 1.375000000000000e+00	 6.562499999999999e+00	 9.822761946153847e+00
0	 1.375000000000000e+00	 6.624999999999999e+00	 9.828636092307693e+00
0	 1.375000000000000e+00	 6.687499999999998e+00	 9.834540838461537e+00
0	 1.375000000000000e+00	 6.749999999999996e+00	 9.840476184615367e+00
0	 1.375000000000000e+00	 6.812499999999998e+00	 9.846442130769224e+00
0	 1.375000000000000e+00	 6.875000000000001e+00	 9.852438676923041e+00
0	 1.437500000000000e+00	 6.250000000000000e+00	 9.802127923076915e+00
0	 1.437500000000000e+00	 6.312500000000000e+00	 9.807549146923094e+00
0	 1.437500000000000e+00	 6.374999999999998e+00	 9.812997255384623e+00
0	 1.437500000000000e+00	 6.437499999999999e+00	 9.818472248461561e+00
0	 1.437500000000000e+00	 6.499999999999998e+00	 9.823974126153850e+00
0	 1.437500000000000e+00	 6.562499999999999e+00	 9.829502888461533e+00
0	 1.437500000000000e+00	 6.624999999999999e+00	 9.835058535384613e+00
0	 1.437500000000000e+00	 6.687499999999997e+00	 9.840641066923071e+00
0	 1.437500000000000e+00	 6.749999999999997e+00	 9.846250483076911e+00
0	 1.437500000000000e+00	 6.812499999999997e+00	 9.851886783846153e+00
0	 1.437500000000000e+00	 6.875000000000000e+00	 9.857549969230766e+00
0	 1.500000000000000e+00	 6.250000000000001e+00	 9.810549723076937e+00
0	 1.500000000000001e+00	 6.312500000000001e+00	 9.815673996923096e+00
0	 1.500000000000000e+00	 6.375000000000000e+00	 9.820821440000007e+00
0	 1.500000000000000e+00	 6.437499999999999e+00	 9.825992052307686e+00
0	 1.500000000000000e+00	 6.499999999999998e+00	 9.831185833846156e+00
0	 1.500000000000000e+00	 6.562499999999996e+00	 9.836402784615387e+00
0	 1.500000000000000e+00	 6.624999999999999e+00	 9.841642904615371e+00
0	 1.500000000000000e+00	 6.687499999999998e+00	 9.846906193846140e+00
0	 1.500000000000000e+00	 6.749999999999999e+00	 9.852192652307680e+00
0	 1.500000000000000e+00	 6.812499999999997e+00	 9.857502279999986e+00
0	 1.500000000000000e+00	 6.875000000000000e+00	 9.862835076923073e+00
0	 1.562500000000000e+00	 6.250000000000000e+00	 9.819115615384625e+00
0	 1.562500000000001e+00	 6.312500000000000e+00	 9.823945911538470e+00
0	 1.562500000000000e+00	 6.374999999999999e+00	 9.828795661538452e+00
0	 1.562500000000000e+00	 6.437499999999999e+00	 9.833664865384618e+00
0	 1.562500000000000e+00	 6.499999999999998e+00	 9.838553523076911e+00
0	 1.562500000000000e+00	 6.562499999999999e+00	 9.843461634615391e+00
0	 1.562500000000000e+00	 6.625000000000000e+00	 9.848389200000000e+00
0	 1.562500000000000e+00	 6.687499999999999e+00	 9.853336219230751e+00
0	 1.562500000000000e+00	 6.749999999999999e+00	 9.858302692307682e+00
0	 1.562500000000000e+00	 6.812499999999998e+00	 9.863288619230740e+00
0	 1.562500000000000e+00	 6.875000000000000e+00	 9.868293999999985e+00
0	 1.625000000000000e+00	 6.250000000000000e+00	 9.827825600000001e+00
0	 1.625000000000000e+00	 6.312499999999999e+00	 9.832364890769242e+00
0	 1.625000000000000e+00	 6.375000000000000e+00	 9.836919920000009e+00
0	 1.625000000000000e+00	 6.437499999999999e+00	 9.841490687692318e+00
0	 1.625000000000000e+00	 6.499999999999999e+00	 9.846077193846154e+00
0	 1.625000000000000e+00	 6.562499999999999e+00	 9.850679438461530e+00
0	 1.625000000000000e+00	 6.624999999999999e+00	 9.855297421538459e+00
0	 1.625000000000000e+00	 6.687499999999997e+00	 9.859931143076912e+00
0	 1.625000000000000e+00	 6.749999999999998e+00	 9.864580603076908e+00
0	 1.625000000000000e+00	 6.812499999999998e+00	 9.869245801538465e+00
0	 1.625000000000000e+00	 6.875000000000000e+00	 9.873926738461524e+00
0	 1.687500000000000e+00	 6.249999999999999e+00	 9.836679676923081e+00
0	 1.687500000000001e+00	 6.312499999999999e+00	 9.840930934615388e+00
0	 1.687500000000000e+00	 6.374999999999997e+00	 9.845194215384637e+00
0	 1.687500000000000e+00	 6.437499999999998e+00	 9.849469519230778e+00
0	 1.687500000000000e+00	 6.500000000000000e+00	 9.853756846153848e+00
0	 1.687500000000001e+00	 6.562500000000000e+00	 9.858056196153848e+00
0	 1.687500000000000e+00	 6.624999999999998e+00	 9.862367569230766e+00
0	 1.687500000000000e+00	 6.687499999999999e+00	 9.866690965384599e+00
0	 1.687500000000000e+00	 6.749999999999999e+00	 9.871026384615380e+00
0	 1.687500000000000e+00	 6.812499999999999e+00	 9.875373826923067e+00
0	 1.687500000000000e+00	 6.875000000000000e+00	 9.879733292307655e+00
0	 1.750000000000000e+00	 6.250000000000000e+00	 9.845677846153867e+00
0	 1.750000000000000e+00	 6.312499999999999e+00	 9.849644043076927e+00
0	 1.750000000000001e+00	 6.375000000000000e+00	 9.853618547692324e+00
0	 1.750000000000000e+00	 6.437499999999999e+00	 9.857601360000011e+00
0	 1.750000000000000e+00	 6.500000000000000e+00	 9.861592480000011e+00
0	 1.750000000000000e+00	 6.562500000000000e+00	 9.865591907692311e+00
0	 1.750000000000001e+00	 6.624999999999999e+00	 9.869599643076919e+00
0	 1.750000000000000e+00	 6.687499999999997e+00	 9.873615686153835e+00
0	 1.750000000000000e+00	 6.749999999999997e+00	 9.877640036923065e+00
0	 1.750000000000000e+00	 6.812499999999999e+00	 9.881672695384596e+00
0	 1.750000000000000e+00	 6.874999999999999e+00	 9.885713661538443e+00
0	 1.812500000000001e+00	 6.250000000000000e+00	 9.854820107692337e+00
0	 1.812500000000000e+00	 6.312499999999997e+00	 9.858504216153870e+00
0	 1.812500000000001e+00	 6.375000000000000e+00	 9.862192916923091e+00
0	 1.812500000000000e+00	 6.437500000000000e+00	 9.865886210000006e+00
0	 1.812500000000000e+00	 6.499999999999999e+00	 9.869584095384619e+00
0	 1.812500000000000e+00	 6.562499999999997e+00	 9.873286573076921e+00
0	 1.812500000000001e+00	 6.624999999999999e+00	 9.876993643076917e+00
0	 1.812500000000000e+00	 6.687499999999998e+00	 9.880705305384597e+00
0	 1.812500000000001e+00	 6.749999999999998e+00	 9.884421559999987e+00
0	 1.812500000000000e+00	 6.812499999999998e+00	 9.888142406923052e+00
0	 1.812500000000001e+00	 6.875000000000000e+00	 9.891867846153822e+00
0	 1.875000000000000e+00	 6.250000000000000e+00	 9.864106461538478e+00
0	 1.875000000000000e+00	 6.312500000000000e+00	 9.867511453846173e+00
0	 1.875000000000000e+00	 6.375000000000000e+00	 9.870917323076934e+00
0	 1.875000000000000e+00	 6.437499999999999e+00	 9.874324069230767e+00
0	 1.875000000000000e+00	 6.499999999999999e+00	 9.877731692307702e+00
0	 1.875000000000000e+00	 6.562499999999998e+00	 9.881140192307690e+00
0	 1.875000000000000e+00	 6.624999999999998e+00	 9.884549569230755e+00
0	 1.875000000000000e+00	 6.687499999999998e+00	 9.887959823076908e+00
0	 1.875000000000000e+00	 6.749999999999998e+00	 9.891370953846147e+00
0	 1.875000000000000e+00	 6.812499999999998e+00	 9.894782961538464e+00
0	 1.875000000000000e+00	 6.875000000000000e+00	 9.898195846153833e+00
0	 1.250000000000000e+00	 6.875000000000000e+00	 9.842737538461527e+00
0	 1.250000000000000e+00	 6.937500000000000e+00	 9.847691969230766e+00
0	 1.250000000000000e+00	 7.000000000000000e+00	 9.852713784615359e+00
0	 1.250000000000000e+00	 7.062500000000000e+00	 9.857802984615383e+00
0	 1.250000000000000e+00	 7.125000000000000e+00	 9.862959569230759e+00
0	 1.250000000000000e+00	 7.187499999999998e+00	 9.868183538461537e+00
0	 1.250000000000000e+00	 7.249999999999998e+00	 9.873474892307694e+00
0	 1.250000000000000e+00	 7.312499999999998e+00	 9.878833630769220e+00
0	 1.250000000000000e+00	 7.374999999999998e+00	 9.884259753846132e+00
0	 1.250000000000000e+00	 7.437499999999998e+00	 9.889753261538463e+00
0	 1.250000000000000e+00	 7.500000000000000e+00	 9.895314153846146e+00
0	 1.312500000000000e+00	 6.874999999999999e+00	 9.847501200000002e+00
0	 1.312500000000000e+00	 6.937499999999997e+00	 9.852298604461524e+00
0	 1.312500000000000e+00	 7.000000000000001e+00	 9.857158383999991e+00
0	 1.312500000000000e+00	 7.062499999999997e+00	 9.862080538615366e+00
0	 1.312500000000000e+00	 7.124999999999997e+00	 9.867065068307681e+00
0	 1.312500000000000e+00	 7.187499999999997e+00	 9.872111973076912e+00
0	 1.312500000000000e+00	 7.249999999999998e+00	 9.877221252923066e+00
0	 1.312500000000000e+00	 7.312499999999997e+00	 9.882392907846144e+00
0	 1.312500000000000e+00	 7.374999999999999e+00	 9.887626937846134e+00
0	 1.312500000000000e+00	 7.437499999999997e+00	 9.892923342923055e+00
0	 1.312500000000000e+00	 7.500000000000000e+00	 9.898282123076891e+00
0	 1.375000000000000e+00	 6.875000000000001e+00	 9.852438676923041e+00
0	 1.375000000000000e+00	 6.937499999999998e+00	 9.857073648923073e+00
0	 1.375000000000000e+00	 7.000000000000000e+00	 9.861765986461524e+00
0	 1.375000000000000e+00	 7.062499999999998e+00	 9.866515689538451e+00
0	 1.375000000000000e+00	 7.124999999999999e+00	 9.871322758153832e+00
0	 1.375000000000000e+00	 7.187499999999999e+00	 9.876187192307679e+00
0	 1.375000000000000e+00	 7.249999999999999e+00	 9.881108991999987e+00
0	 1.375000000000000e+00	 7.312499999999999e+00	 9.886088157230756e+00
0	 1.375000000000000e+00	 7.374999999999996e+00	 9.891124687999977e+00
0	 1.375000000000000e+00	 7.437499999999997e+00	 9.896218584307697e+00
0	 1.375000000000000e+00	 7.500000000000000e+00	 9.901369846153838e+00
0	 1.437500000000000e+00	 6.875000000000000e+00	 9.857549969230766e+00
0	 1.437500000000000e+00	 6.937500000000000e+00	 9.862017102615390e+00
0	 1.437500000000000e+00	 6.999999999999999e+00	 9.866536591999981e+00
0	 1.437500000000000e+00	 7.062499999999999e+00	 9.871108437384608e+00
0	 1.437500000000000e+00	 7.124999999999999e+00	 9.875732638769215e+00
0	 1.437500000000000e+00	 7.187499999999999e+00	 9.880409196153838e+00
0	 1.437500000000000e+00	 7.249999999999996e+00	 9.885138109538444e+00
0	 1.437500000000000e+00	 7.312499999999999e+00	 9.889919378923061e+00
0	 1.437500000000000e+00	 7.374999999999998e+00	 9.894753004307693e+00
0	 1.437500000000000e+00	 7.437499999999997e+00	 9.899638985692308e+00
0	 1.437500000000000e+00	 7.500000000000000e+00	 9.904577323076895e+00
0	 1.500000000000000e+00	 6.875000000000000e+00	 9.862835076923073e+00
0	 1.500000000000001e+00	 6.937500000000002e+00	 9.867128965538456e+00
0	 1.500000000000000e+00	 6.999999999999999e+00	 9.871470200615363e+00
0	 1.500000000000000e+00	 7.062500000000000e+00	 9.875858782153820e+00
0	 1.500000000000000e+00	 7.124999999999999e+00	 9.880294710153837e+00
0	 1.500000000000000e+00	 7.187499999999996e+00	 9.884777984615368e+00
0	 1.500000000000000e+00	 7.250000000000000e+00	 9.889308605538472e+00
0	 1.500000000000000e+00	 7.312499999999997e+00	 9.893886572923062e+00
0	 1.500000000000000e+00	 7.375000000000000e+00	 9.898511886769224e+00
0	 1.500000000000000e+00	 7.437499999999998e+00	 9.903184547076931e+00
0	 1.500000000000000e+00	 7.500000000000000e+00	 9.907904553846157e+00
0	 1.562500000000000e+00	 6.875000000000000e+00	 9.868293999999985e+00
0	 1.562500000000001e+00	 6.937500000000000e+00	 9.872409237692294e+00
0	 1.562500000000000e+00	 6.999999999999999e+00	 9.876566812307690e+00
0	 1.562500000000000e+00	 7.062500000000001e+00	 9.880766723846131e+00
0	 1.562500000000000e+00	 7.124999999999998e+00	 9.885008972307681e+00
0	 1.562500000000000e+00	 7.187499999999999e+00	 9.889293557692284e+00
0	 1.562500000000000e+00	 7.250000000000000e+00	 9.893620479999989e+00
0	 1.562500000000000e+00	 7.312499999999999e+00	 9.897989739230750e+00
0	 1.562500000000000e+00	 7.374999999999997e+00	 9.902401335384605e+00
0	 1.562500000000000e+00	 7.437499999999999e+00	 9.906855268461532e+00
0	 1.562500000000000e+00	 7.500000000000000e+00	 9.911351538461526e+00
0	 1.625000000000000e+00	 6.875000000000000e+00	 9.873926738461524e+00
0	 1.625000000000000e+00	 6.937500000000001e+00	 9.877857919076909e+00
0	 1.625000000000000e+00	 6.999999999999999e+00	 9.881826427076909e+00
0	 1.625000000000000e+00	 7.062499999999998e+00	 9.885832262461520e+00
0	 1.625000000000000e+00	 7.125000000000000e+00	 9.889875425230750e+00
0	 1.625000000000000e+00	 7.187499999999999e+00	 9.893955915384598e+00
0	 1.625000000000000e+00	 7.249999999999999e+00	 9.898073732923073e+00
0	 1.625000000000000e+00	 7.312499999999999e+00	 9.902228877846133e+00
0	 1.625000000000000e+00	 7.374999999999998e+00	 9.906421350153833e+00
0	 1.625000000000000e+00	 7.437499999999999e+00	 9.910651149846149e+00
0	 1.625000000000000e+00	 7.499999999999999e+00	 9.914918276923064e+00
0	 1.687500000000000e+00	 6.875000000000000e+00	 9.879733292307655e+00
0	 1.687500000000001e+00	 6.937500000000000e+00	 9.883475009692273e+00
0	 1.687500000000000e+00	 6.999999999999999e+00	 9.887249044923070e+00
0	 1.687500000000000e+00	 7.062499999999999e+00	 9.891055397999978e+00
0	 1.687500000000000e+00	 7.125000000000000e+00	 9.894894068923056e+00
0	 1.687500000000001e+00	 7.187500000000000e+00	 9.898765057692291e+00
0	 1.687500000000000e+00	 7.249999999999998e+00	 9.902668364307672e+00
0	 1.687500000000000e+00	 7.312499999999999e+00	 9.906603988769231e+00
0	 1.687500000000000e+00	 7.374999999999998e+00	 9.910571931076902e+00
0	 1.687500000000000e+00	 7.437499999999998e+00	 9.914572191230747e+00
0	 1.687500000000000e+00	 7.500000000000000e+00	 9.918604769230759e+00
0	 1.750000000000000e+00	 6.874999999999999e+00	 9.885713661538443e+00
0	 1.750000000000000e+00	 6.937500000000000e+00	 9.889260509538442e+00
0	 1.750000000000001e+00	 7.000000000000000e+00	 9.892834665846149e+00
0	 1.750000000000000e+00	 7.062500000000000e+00	 9.896436130461520e+00
0	 1.750000000000000e+00	 7.125000000000001e+00	 9.900064903384596e+00
0	 1.750000000000000e+00	 7.187499999999998e+00	 9.903720984615378e+00
0	 1.750000000000001e+00	 7.249999999999998e+00	 9.907404374153835e+00
0	 1.750000000000000e+00	 7.312499999999998e+00	 9.911115071999992e+00
0	 1.750000000000000e+00	 7.374999999999998e+00	 9.914853078153818e+00
0	 1.750000000000000e+00	 7.437499999999997e+00	 9.918618392615405e+00
0	 1.750000000000000e+00	 7.500000000000000e+00	 9.922411015384611e+00
0	 1.812500000000001e+00	 6.875000000000000e+00	 9.891867846153822e+00
0	 1.812500000000000e+00	 6.937499999999997e+00	 9.895214418615382e+00
0	 1.812500000000001e+00	 7.000000000000000e+00	 9.898583289846133e+00
0	 1.812500000000000e+00	 7.062500000000000e+00	 9.901974459846151e+00
0	 1.812500000000000e+00	 7.125000000000000e+00	 9.905387928615385e+00
0	 1.812500000000000e+00	 7.187499999999998e+00	 9.908823696153821e+00
0	 1.812500000000001e+00	 7.249999999999999e+00	 9.912281762461536e+00
0	 1.812500000000000e+00	 7.312499999999998e+00	 9.915762127538443e+00
0	 1.812500000000001e+00	 7.374999999999998e+00	 9.919264791384622e+00
0	 1.812500000000000e+00	 7.437499999999998e+00	 9.922789753999973e+00
0	 1.812500000000001e+00	 7.500000000000000e+00	 9.926337015384608e+00
0	 1.875000000000000e+00	 6.875000000000000e+00	 9.898195846153833e+00
0	 1.875000000000000e+00	 6.937500000000000e+00	 9.901336736923058e+00
0	 1.875000000000000e+00	 7.000000000000000e+00	 9.904494916923046e+00
0	 1.875000000000000e+00	 7.062500000000000e+00	 9.907670386153839e+00
0	 1.875000000000000e+00	 7.125000000000000e+00	 9.910863144615373e+00
0	 1.875000000000000e+00	 7.187499999999998e+00	 9.914073192307686e+00
0	 1.875000000000000e+00	 7.249999999999998e+00	 9.917300529230772e+00
0	 1.875000000000000e+00	 7.312499999999998e+00	 9.920545155384598e+00
0	 1.875000000000000e+00	 7.374999999999998e+00	 9.923807070769209e+00
0	 1.875000000000000e+00	 7.437499999999998e+00	 9.927086275384616e+00
0	 1.875000000000000e+00	 7.500000000000000e+00	 9.930382769230759e+00
0	 1.250000000000000e+00	 7.500000000000000e+00	 9.895314153846146e+00
0	 1.250000000000000e+00	 7.562500000000000e+00	 9.899266910769231e+00
0	 1.250000000000000e+00	 7.625000000000000e+00	 9.903298166153858e+00
0	 1.250000000000000e+00	 7.687499999999999e+00	 9.907407920000004e+00
0	 1.250000000000000e+00	 7.750000000000000e+00	 9.911596172307696e+00
0	 1.250000000000000e+00	 7.812499999999999e+00	 9.915862923076917e+00
0	 1.250000000000000e+00	 7.874999999999998e+00	 9.920208172307689e+00
0	 1.250000000000000e+00	 7.937499999999997e+00	 9.924631920000010e+00
0	 1.250000000000000e+00	 7.999999999999998e+00	 9.929134166153856e+00
0	 1.250000000000000e+00	 8.062499999999996e+00	 9.933714910769236e+00
0	 1.250000000000000e+00	 8.125000000000000e+00	 9.938374153846160e+00
0	 1.312500000000000e+00	 7.500000000000000e+00	 9.898282123076891e+00
0	 1.312500000000000e+00	 7.562499999999999e+00	 9.902109177692303e+00
0	 1.312500000000000e+00	 7.624999999999998e+00	 9.906011624615385e+00
0	 1.312500000000000e+00	 7.687499999999996e+00	 9.909989463846149e+00
0	 1.312500000000000e+00	 7.749999999999998e+00	 9.914042695384614e+00
0	 1.312500000000000e+00	 7.812499999999996e+00	 9.918171319230769e+00
0	 1.312500000000000e+00	 7.875000000000000e+00	 9.922375335384608e+00
0	 1.312500000000000e+00	 7.937499999999996e+00	 9.926654743846154e+00
0	 1.312500000000000e+00	 7.999999999999999e+00	 9.931009544615391e+00
0	 1.312500000000000e+00	 8.062499999999996e+00	 9.935439737692306e+00
0	 1.312500000000000e+00	 8.125000000000002e+00	 9.939945323076943e+00
0	 1.375000000000000e+00	 7.500000000000000e+00	 9.901369846153838e+00
0	 1.375000000000000e+00	 7.562499999999998e+00	 9.905068635384595e+00
0	 1.375000000000000e+00	 7.624999999999999e+00	 9.908839710769218e+00
0	 1.375000000000000e+00	 7.687500000000000e+00	 9.912683072307695e+00
0	 1.375000000000000e+00	 7.749999999999999e+00	 9.916598719999989e+00
0	 1.375000000000000e+00	 7.812499999999998e+00	 9.920586653846154e+00
0	 1.375000000000000e+00	 7.875000000000000e+00	 9.924646873846166e+00
0	 1.375000000000000e+00	 7.937499999999998e+00	 9.928779380000002e+00
0	 1.375000000000000e+00	 7.999999999999996e+00	 9.932984172307702e+00
0	 1.375000000000000e+00	 8.062499999999998e+00	 9.937261250769215e+00
0	 1.375000000000000e+00	 8.125000000000000e+00	 9.941610615384608e+00
0	 1.437500000000000e+00	 7.500000000000000e+00	 9.904577323076895e+00
0	 1.437500000000000e+00	 7.562500000000000e+00	 9.908145283846173e+00
0	 1.437500000000000e+00	 7.624999999999999e+00	 9.911782424615366e+00
0	 1.437500000000000e+00	 7.687499999999999e+00	 9.915488745384605e+00
0	 1.437500000000000e+00	 7.749999999999997e+00	 9.919264246153833e+00
0	 1.437500000000000e+00	 7.812499999999999e+00	 9.923108926923083e+00
0	 1.437500000000000e+00	 7.874999999999997e+00	 9.927022787692284e+00
0	 1.437500000000000e+00	 7.937499999999998e+00	 9.931005828461517e+00
0	 1.437500000000000e+00	 7.999999999999997e+00	 9.935058049230760e+00
0	 1.437500000000000e+00	 8.062499999999998e+00	 9.939179449999987e+00
0	 1.437500000000000e+00	 8.124999999999998e+00	 9.943370030769236e+00
0	 1.500000000000000e+00	 7.500000000000000e+00	 9.907904553846157e+00
0	 1.500000000000001e+00	 7.562500000000001e+00	 9.911339123076928e+00
0	 1.500000000000000e+00	 7.625000000000001e+00	 9.914839766153840e+00
0	 1.500000000000000e+00	 7.687499999999999e+00	 9.918406483076922e+00
0	 1.500000000000000e+00	 7.749999999999999e+00	 9.922039273846156e+00
0	 1.500000000000000e+00	 7.812499999999996e+00	 9.925738138461536e+00
0	 1.500000000000000e+00	 7.874999999999998e+00	 9.929503076923082e+00
0	 1.500000000000000e+00	 7.937499999999998e+00	 9.933334089230776e+00
0	 1.500000000000000e+00	 7.999999999999998e+00	 9.937231175384612e+00
0	 1.500000000000000e+00	 8.062499999999998e+00	 9.941194335384621e+00
0	 1.500000000000000e+00	 8.125000000000002e+00	 9.945223569230761e+00
0	 1.562500000000000e+00	 7.500000000000000e+00	 9.911351538461526e+00
0	 1.562500000000001e+00	 7.562500000000000e+00	 9.914650153076916e+00
0	 1.562500000000000e+00	 7.625000000000000e+00	 9.918011735384596e+00
0	 1.562500000000000e+00	 7.687500000000000e+00	 9.921436285384615e+00
0	 1.562500000000000e+00	 7.749999999999997e+00	 9.924923803076906e+00
0	 1.562500000000000e+00	 7.812500000000000e+00	 9.928474288461533e+00
0	 1.562500000000000e+00	 7.874999999999999e+00	 9.932087741538465e+00
0	 1.562500000000000e+00	 7.937499999999999e+00	 9.935764162307692e+00
0	 1.562500000000000e+00	 7.999999999999998e+00	 9.939503550769221e+00
0	 1.562500000000000e+00	 8.062500000000000e+00	 9.943305906923076e+00
0	 1.562500000000000e+00	 8.125000000000000e+00	 9.947171230769223e+00
0	 1.625000000000000e+00	 7.499999999999999e+00	 9.914918276923064e+00
0	 1.625000000000000e+00	 7.562500000000000e+00	 9.918078373846138e+00
0	 1.625000000000000e+00	 7.625000000000001e+00	 9.921298332307689e+00
0	 1.625000000000000e+00	 7.687499999999998e+00	 9.924578152307685e+00
0	 1.625000000000000e+00	 7.750000000000000e+00	 9.927917833846138e+00
0	 1.625000000000000e+00	 7.812499999999998e+00	 9.931317376923076e+00
0	 1.625000000000000e+00	 7.874999999999999e+00	 9.934776781538464e+00
0	 1.625000000000000e+00	 7.937499999999998e+00	 9.938296047692289e+00
0	 1.625000000000000e+00	 7.999999999999997e+00	 9.941875175384608e+00
0	 1.625000000000000e+00	 8.062499999999998e+00	 9.945514164615382e+00
0	 1.625000000000000e+00	 8.125000000000000e+00	 9.949213015384627e+00
0	 1.687500000000000e+00	 7.500000000000000e+00	 9.918604769230759e+00
0	 1.687500000000001e+00	 7.562500000000000e+00	 9.921623785384609e+00
0	 1.687500000000000e+00	 7.624999999999999e+00	 9.924699556923075e+00
0	 1.687500000000000e+00	 7.687499999999998e+00	 9.927832083846152e+00
0	 1.687500000000000e+00	 7.750000000000000e+00	 9.931021366153839e+00
0	 1.687500000000001e+00	 7.812500000000000e+00	 9.934267403846151e+00
0	 1.687500000000000e+00	 7.874999999999998e+00	 9.937570196923090e+00
0	 1.687500000000000e+00	 7.937500000000000e+00	 9.940929745384594e+00
0	 1.687500000000000e+00	 7.999999999999998e+00	 9.944346049230790e+00
0	 1.687500000000000e+00	 8.062500000000000e+00	 9.947819108461534e+00
0	 1.687500000000000e+00	 8.125000000000000e+00	 9.951348923076907e+00
0	 1.750000000000000e+00	 7.500000000000000e+00	 9.922411015384611e+00
0	 1.750000000000000e+00	 7.562499999999999e+00	 9.925286387692305e+00
0	 1.750000000000001e+00	 7.624999999999999e+00	 9.928215409230766e+00
0	 1.750000000000000e+00	 7.687500000000000e+00	 9.931198079999982e+00
0	 1.750000000000000e+00	 7.749999999999999e+00	 9.934234399999999e+00
0	 1.750000000000000e+00	 7.812499999999999e+00	 9.937324369230764e+00
0	 1.750000000000001e+00	 7.874999999999998e+00	 9.940467987692310e+00
0	 1.750000000000000e+00	 7.937499999999998e+00	 9.943665255384637e+00
0	 1.750000000000000e+00	 7.999999999999998e+00	 9.946916172307690e+00
0	 1.750000000000000e+00	 8.062499999999996e+00	 9.950220738461530e+00
0	 1.750000000000000e+00	 8.125000000000000e+00	 9.953578953846149e+00
0	 1.812500000000001e+00	 7.500000000000000e+00	 9.926337015384608e+00
0	 1.812500000000000e+00	 7.562499999999998e+00	 9.929066180769224e+00
0	 1.812500000000001e+00	 7.625000000000000e+00	 9.931845889230763e+00
0	 1.812500000000000e+00	 7.687500000000000e+00	 9.934676140769232e+00
0	 1.812500000000000e+00	 7.750000000000000e+00	 9.937556935384613e+00
0	 1.812500000000000e+00	 7.812499999999998e+00	 9.940488273076914e+00
0	 1.812500000000001e+00	 7.874999999999998e+00	 9.943470153846153e+00
0	 1.812500000000000e+00	 7.937499999999998e+00	 9.946502577692312e+00
0	 1.812500000000001e+00	 7.999999999999999e+00	 9.949585544615376e+00
0	 1.812500000000000e+00	 8.062499999999998e+00	 9.952719054615370e+00
0	 1.812500000000001e+00	 8.125000000000000e+00	 9.955903107692322e+00
0	 1.875000000000000e+00	 7.500000000000000e+00	 9.930382769230759e+00
0	 1.875000000000000e+00	 7.562500000000000e+00	 9.932963164615387e+00
0	 1.875000000000000e+00	 7.625000000000000e+00	 9.935590996923080e+00
0	 1.875000000000000e+00	 7.687499999999999e+00	 9.938266266153843e+00
0	 1.875000000000000e+00	 7.750000000000000e+00	 9.940988972307695e+00
0	 1.875000000000000e+00	 7.812499999999999e+00	 9.943759115384600e+00
0	 1.875000000000000e+00	 7.874999999999998e+00	 9.946576695384607e+00
0	 1.875000000000000e+00	 7.937499999999997e+00	 9.949441712307694e+00
0	 1.875000000000000e+00	 7.999999999999998e+00	 9.952354166153849e+00
0	 1.875000000000000e+00	 8.062499999999996e+00	 9.955314056923077e+00
0	 1.875000000000000e+00	 8.125000000000000e+00	 9.958321384615388e+00
0	 1.250000000000000e+00	 8.125000000000000e+00	 9.938374153846160e+00
0	 1.250000000000000e+00	 8.187500000000000e+00	 9.941240572307688e+00
0	 1.250000000000000e+00	 8.250000000000002e+00	 9.944212073846140e+00
0	 1.250000000000000e+00	 8.312500000000000e+00	 9.947288658461545e+00
0	 1.250000000000000e+00	 8.374999999999998e+00	 9.950470326153843e+00
0	 1.250000000000000e+00	 8.437500000000000e+00	 9.953757076923081e+00
0	 1.250000000000000e+00	 8.500000000000000e+00	 9.957148910769241e+00
0	 1.250000000000000e+00	 8.562499999999998e+00	 9.960645827692311e+00
0	 1.250000000000000e+00	 8.625000000000000e+00	 9.964247827692311e+00
0	 1.250000000000000e+00	 8.687499999999998e+00	 9.967954910769214e+00
0	 1.250000000000000e+00	 8.750000000000000e+00	 9.971767076923081e+00
0	 1.312500000000000e+00	 8.125000000000002e+00	 9.939945323076943e+00
0	 1.312500000000000e+00	 8.187499999999998e+00	 9.942729017692317e+00
0	 1.312500000000000e+00	 8.250000000000000e+00	 9.945614218461538e+00
0	 1.312500000000000e+00	 8.312499999999996e+00	 9.948600925384611e+00
0	 1.312500000000000e+00	 8.374999999999998e+00	 9.951689138461541e+00
0	 1.312500000000000e+00	 8.437499999999996e+00	 9.954878857692307e+00
0	 1.312500000000000e+00	 8.500000000000002e+00	 9.958170083076922e+00
0	 1.312500000000000e+00	 8.562499999999998e+00	 9.961562814615373e+00
0	 1.312500000000000e+00	 8.624999999999998e+00	 9.965057052307715e+00
0	 1.312500000000000e+00	 8.687499999999996e+00	 9.968652796153847e+00
0	 1.312500000000000e+00	 8.750000000000002e+00	 9.972350046153860e+00
0	 1.375000000000000e+00	 8.125000000000000e+00	 9.941610615384608e+00
0	 1.375000000000000e+00	 8.187499999999996e+00	 9.944309389230781e+00
0	 1.375000000000000e+00	 8.250000000000000e+00	 9.947106092307717e+00
0	 1.375000000000000e+00	 8.312500000000002e+00	 9.950000724615398e+00
0	 1.375000000000000e+00	 8.375000000000000e+00	 9.952993286153845e+00
0	 1.375000000000000e+00	 8.437500000000000e+00	 9.956083776923084e+00
0	 1.375000000000000e+00	 8.499999999999996e+00	 9.959272196923088e+00
0	 1.375000000000000e+00	 8.562500000000000e+00	 9.962558546153845e+00
0	 1.375000000000000e+00	 8.624999999999998e+00	 9.965942824615386e+00
0	 1.375000000000000e+00	 8.687499999999998e+00	 9.969425032307701e+00
0	 1.375000000000000e+00	 8.749999999999998e+00	 9.973005169230797e+00
0	 1.437500000000000e+00	 8.124999999999998e+00	 9.943370030769236e+00
0	 1.437500000000000e+00	 8.187499999999998e+00	 9.945981686923085e+00
0	 1.437500000000000e+00	 8.250000000000002e+00	 9.948687695384617e+00
0	 1.437500000000000e+00	 8.312500000000000e+00	 9.951488056153849e+00
0	 1.437500000000000e+00	 8.374999999999998e+00	 9.954382769230765e+00
0	 1.437500000000000e+00	 8.437499999999998e+00	 9.957371834615376e+00
0	 1.437500000000000e+00	 8.500000000000000e+00	 9.960455252307689e+00
0	 1.437500000000000e+00	 8.562499999999998e+00	 9.963633022307690e+00
0	 1.437500000000000e+00	 8.624999999999998e+00	 9.966905144615405e+00
0	 1.437500000000000e+00	 8.687499999999996e+00	 9.970271619230777e+00
0	 1.437500000000000e+00	 8.750000000000000e+00	 9.973732446153832e+00
0	 1.500000000000000e+00	 8.125000000000002e+00	 9.945223569230761e+00
0	 1.500000000000001e+00	 8.187500000000002e+00	 9.947745910769209e+00
0	 1.500000000000000e+00	 8.250000000000000e+00	 9.950359027692308e+00
0	 1.500000000000000e+00	 8.312500000000000e+00	 9.953062920000017e+00
0	 1.500000000000000e+00	 8.375000000000000e+00	 9.955857587692313e+00
0	 1.500000000000000e+00	 8.437499999999998e+00	 9.958743030769227e+00
0	 1.500000000000000e+00	 8.500000000000000e+00	 9.961719249230793e+00
0	 1.500000000000000e+00	 8.562499999999998e+00	 9.964786243076931e+00
0	 1.500000000000000e+00	 8.624999999999998e+00	 9.967944012307694e+00
0	 1.500000000000000e+00	 8.687499999999998e+00	 9.971192556923082e+00
0	 1.500000000000000e+00	 8.750000000000000e+00	 9.974531876923111e+00
0	 1.562500000000000e+00	 8.125000000000000e+00	 9.947171230769223e+00
0	 1.562500000000001e+00	 8.187500000000000e+00	 9.949602060769230e+00
0	 1.562500000000000e+00	 8.250000000000000e+00	 9.952120089230771e+00
0	 1.562500000000000e+00	 8.312500000000000e+00	 9.954725316153835e+00
0	 1.562500000000000e+00	 8.374999999999998e+00	 9.957417741538446e+00
0	 1.562500000000000e+00	 8.437500000000002e+00	 9.960197365384602e+00
0	 1.562500000000000e+00	 8.500000000000000e+00	 9.963064187692300e+00
0	 1.562500000000000e+00	 8.562500000000000e+00	 9.966018208461541e+00
0	 1.562500000000000e+00	 8.625000000000000e+00	 9.969059427692306e+00
0	 1.562500000000000e+00	 8.687499999999998e+00	 9.972187845384610e+00
0	 1.562500000000000e+00	 8.750000000000002e+00	 9.975403461538475e+00
0	 1.625000000000000e+00	 8.125000000000000e+00	 9.949213015384627e+00
0	 1.625000000000000e+00	 8.187500000000002e+00	 9.951550136923080e+00
0	 1.625000000000000e+00	 8.250000000000000e+00	 9.953970880000016e+00
0	 1.625000000000000e+00	 8.312499999999998e+00	 9.956475244615387e+00
0	 1.625000000000000e+00	 8.375000000000000e+00	 9.959063230769228e+00
0	 1.625000000000000e+00	 8.437500000000000e+00	 9.961734838461544e+00
0	 1.625000000000000e+00	 8.500000000000000e+00	 9.964490067692314e+00
0	 1.625000000000000e+00	 8.562499999999998e+00	 9.967328918461540e+00
0	 1.625000000000000e+00	 8.624999999999998e+00	 9.970251390769237e+00
0	 1.625000000000000e+00	 8.687499999999998e+00	 9.973257484615372e+00
0	 1.625000000000000e+00	 8.750000000000000e+00	 9.976347199999978e+00
0	 1.687500000000000e+00	 8.125000000000000e+00	 9.951348923076907e+00
0	 1.687500000000001e+00	 8.187500000000000e+00	 9.953590139230752e+00
0	 1.687500000000000e+00	 8.249999999999998e+00	 9.955911399999987e+00
0	 1.687500000000000e+00	 8.312500000000000e+00	 9.958312705384618e+00
0	 1.687500000000000e+00	 8.374999999999998e+00	 9.960794055384611e+00
0	 1.687500000000001e+00	 8.437500000000000e+00	 9.963355450000011e+00
0	 1.687500000000000e+00	 8.499999999999998e+00	 9.965996889230793e+00
0	 1.687500000000000e+00	 8.562500000000000e+00	 9.968718373076928e+00
0	 1.687500000000000e+00	 8.624999999999998e+00	 9.971519901538482e+00
0	 1.687500000000000e+00	 8.687500000000000e+00	 9.974401474615391e+00
0	 1.687500000000000e+00	 8.750000000000000e+00	 9.977363092307698e+00
0	 1.750000000000000e+00	 8.125000000000000e+00	 9.953578953846149e+00
0	 1.750000000000000e+00	 8.187500000000000e+00	 9.955722067692317e+00
0	 1.750000000000001e+00	 8.250000000000000e+00	 9.957941649230762e+00
0	 1.750000000000000e+00	 8.312499999999998e+00	 9.960237698461553e+00
0	 1.750000000000000e+00	 8.375000000000000e+00	 9.962610215384622e+00
0	 1.750000000000000e+00	 8.437500000000000e+00	 9.965059200000006e+00
0	 1.750000000000001e+00	 8.499999999999998e+00	 9.967584652307711e+00
0	 1.750000000000000e+00	 8.562499999999998e+00	 9.970186572307695e+00
0	 1.750000000000000e+00	 8.624999999999998e+00	 9.972864960000010e+00
0	 1.750000000000000e+00	 8.687499999999998e+00	 9.975619815384595e+00
0	 1.750000000000000e+00	 8.750000000000000e+00	 9.978451138461530e+00
0	 1.812500000000001e+00	 8.125000000000000e+00	 9.955903107692322e+00
0	 1.812500000000000e+00	 8.187499999999998e+00	 9.957945922307694e+00
0	 1.812500000000001e+00	 8.250000000000000e+00	 9.960061627692319e+00
0	 1.812500000000000e+00	 8.312499999999998e+00	 9.962250223846160e+00
0	 1.812500000000000e+00	 8.375000000000000e+00	 9.964511710769235e+00
0	 1.812500000000000e+00	 8.437499999999998e+00	 9.966846088461544e+00
0	 1.812500000000001e+00	 8.499999999999998e+00	 9.969253356923074e+00
0	 1.812500000000000e+00	 8.562499999999998e+00	 9.971733516153851e+00
0	 1.812500000000001e+00	 8.624999999999998e+00	 9.974286566153872e+00
0	 1.812500000000000e+00	 8.687500000000000e+00	 9.976912506923091e+00
0	 1.812500000000001e+00	 8.750000000000000e+00	 9.979611338461545e+00
0	 1.875000000000000e+00	 8.125000000000000e+00	 9.958321384615388e+00
0	 1.875000000000000e+00	 8.187500000000000e+00	 9.960261703076920e+00
0	 1.875000000000000e+00	 8.250000000000002e+00	 9.962271335384600e+00
0	 1.875000000000000e+00	 8.312500000000000e+00	 9.964350281538469e+00
0	 1.875000000000000e+00	 8.374999999999998e+00	 9.966498541538469e+00
0	 1.875000000000000e+00	 8.437500000000000e+00	 9.968716115384620e+00
0	 1.875000000000000e+00	 8.500000000000000e+00	 9.971003003076929e+00
0	 1.875000000000000e+00	 8.562499999999998e+00	 9.973359204615384e+00
0	 1.875000000000000e+00	 8.625000000000000e+00	 9.975784720000004e+00
0	 1.875000000000000e+00	 8.687499999999998e+00	 9.978279549230772e+00
0	 1.875000000000000e+00	 8.750000000000000e+00	 9.980843692307701e+00
0	 1.250000000000000e+00	 8.750000000000000e+00	 9.971767076923081e+00
0	 1.250000000000000e+00	 8.812500000000000e+00	 9.973428630769241e+00
0	 1.250000000000000e+00	 8.875000000000002e+00	 9.975232800000027e+00
0	 1.250000000000000e+00	 8.937499999999998e+00	 9.977179584615383e+00
0	 1.250000000000000e+00	 9.000000000000000e+00	 9.979268984615391e+00
0	 1.250000000000000e+00	 9.062500000000000e+00	 9.981500999999987e+00
0	 1.250000000000000e+00	 9.124999999999998e+00	 9.983875630769223e+00
0	 1.250000000000000e+00	 9.187499999999998e+00	 9.986392876923063e+00
0	 1.250000000000000e+00	 9.249999999999998e+00	 9.989052738461536e+00
0	 1.250000000000000e+00	 9.312499999999998e+00	 9.991855215384620e+00
0	 1.250000000000000e+00	 9.375000000000000e+00	 9.994800307692307e+00
0	 1.312500000000000e+00	 8.750000000000002e+00	 9.972350046153860e+00
0	 1.312500000000000e+00	 8.812499999999996e+00	 9.973960290923067e+00
0	 1.312500000000000e+00	 8.874999999999998e+00	 9.975708809846141e+00
0	 1.312500000000000e+00	 8.937499999999998e+00	 9.977595602923081e+00
0	 1.312500000000000e+00	 8.999999999999998e+00	 9.979620670153849e+00
0	 1.312500000000000e+00	 9.062499999999996e+00	 9.981784011538458e+00
0	 1.312500000000000e+00	 9.124999999999998e+00	 9.984085627076922e+00
0	 1.312500000000000e+00	 9.187499999999996e+00	 9.986525516769220e+00
0	 1.312500000000000e+00	 9.249999999999998e+00	 9.989103680615399e+00
0	 1.312500000000000e+00	 9.312499999999998e+00	 9.991820118615399e+00
0	 1.312500000000000e+00	 9.375000000000000e+00	 9.994674830769227e+00
0	 1.375000000000000e+00	 8.749999999999998e+00	 9.973005169230797e+00
0	 1.375000000000000e+00	 8.812499999999998e+00	 9.974563501846145e+00
0	 1.375000000000000e+00	 8.875000000000002e+00	 9.976255767384604e+00
0	 1.375000000000000e+00	 8.937499999999998e+00	 9.978081965846163e+00
0	 1.375000000000000e+00	 8.999999999999998e+00	 9.980042097230763e+00
0	 1.375000000000000e+00	 9.062499999999998e+00	 9.982136161538463e+00
0	 1.375000000000000e+00	 9.125000000000000e+00	 9.984364158769242e+00
0	 1.375000000000000e+00	 9.187499999999998e+00	 9.986726088923069e+00
0	 1.375000000000000e+00	 9.249999999999996e+00	 9.989221951999999e+00
0	 1.375000000000000e+00	 9.312499999999996e+00	 9.991851747999995e+00
0	 1.375000000000000e+00	 9.375000000000000e+00	 9.994615476923064e+00
0	 1.437500000000000e+00	 8.750000000000000e+00	 9.973732446153832e+00
0	 1.437500000000000e+00	 8.812499999999998e+00	 9.975238263538465e+00
0	 1.437500000000000e+00	 8.875000000000000e+00	 9.976873672615380e+00
0	 1.437500000000000e+00	 8.937500000000002e+00	 9.978638673384618e+00
0	 1.437500000000000e+00	 8.999999999999996e+00	 9.980533265846162e+00
0	 1.437500000000000e+00	 9.062499999999998e+00	 9.982557449999996e+00
0	 1.437500000000000e+00	 9.124999999999998e+00	 9.984711225846146e+00
0	 1.437500000000000e+00	 9.187499999999998e+00	 9.986994593384606e+00
0	 1.437500000000000e+00	 9.249999999999998e+00	 9.989407552615393e+00
0	 1.437500000000000e+00	 9.312499999999998e+00	 9.991950103538464e+00
0	 1.437500000000000e+00	 9.375000000000002e+00	 9.994622246153863e+00
0	 1.500000000000000e+00	 8.750000000000000e+00	 9.974531876923111e+00
0	 1.500000000000001e+00	 8.812500000000004e+00	 9.975984576000016e+00
0	 1.500000000000000e+00	 8.875000000000000e+00	 9.977562525538477e+00
0	 1.500000000000000e+00	 8.937500000000000e+00	 9.979265725538466e+00
0	 1.500000000000000e+00	 9.000000000000000e+00	 9.981094176000013e+00
0	 1.500000000000000e+00	 9.062499999999998e+00	 9.983047876923074e+00
0	 1.500000000000000e+00	 9.125000000000000e+00	 9.985126828307692e+00
0	 1.500000000000000e+00	 9.187499999999998e+00	 9.987331030153854e+00
0	 1.500000000000000e+00	 9.250000000000000e+00	 9.989660482461549e+00
0	 1.500000000000000e+00	 9.312499999999998e+00	 9.992115185230777e+00
0	 1.500000000000000e+00	 9.375000000000002e+00	 9.994695138461532e+00
0	 1.562500000000000e+00	 8.750000000000002e+00	 9.975403461538475e+00
0	 1.562500000000001e+00	 8.812500000000000e+00	 9.976802439230774e+00
0	 1.562500000000000e+00	 8.874999999999998e+00	 9.978322326153837e+00
0	 1.562500000000000e+00	 8.937500000000000e+00	 9.979963122307691e+00
0	 1.562500000000000e+00	 8.999999999999998e+00	 9.981724827692307e+00
0	 1.562500000000000e+00	 9.062500000000002e+00	 9.983607442307704e+00
0	 1.562500000000000e+00	 9.124999999999998e+00	 9.985610966153837e+00
0	 1.562500000000000e+00	 9.187499999999998e+00	 9.987735399230772e+00
0	 1.562500000000000e+00	 9.249999999999998e+00	 9.989980741538432e+00
0	 1.562500000000000e+00	 9.312499999999998e+00	 9.992346993076914e+00
0	 1.562500000000000e+00	 9.375000000000002e+00	 9.994834153846135e+00
0	 1.625000000000000e+00	 8.750000000000000e+00	 9.976347199999978e+00
0	 1.625000000000000e+00	 8.812500000000000e+00	 9.977691853230780e+00
0	 1.625000000000000e+00	 8.874999999999998e+00	 9.979153074461545e+00
0	 1.625000000000000e+00	 8.937499999999998e+00	 9.980730863692314e+00
0	 1.625000000000000e+00	 9.000000000000000e+00	 9.982425220923073e+00
0	 1.625000000000000e+00	 9.062500000000000e+00	 9.984236146153837e+00
0	 1.625000000000000e+00	 9.124999999999998e+00	 9.986163639384614e+00
0	 1.625000000000000e+00	 9.187499999999998e+00	 9.988207700615378e+00
0	 1.625000000000000e+00	 9.249999999999998e+00	 9.990368329846152e+00
0	 1.625000000000000e+00	 9.312499999999998e+00	 9.992645527076938e+00
0	 1.625000000000000e+00	 9.374999999999998e+00	 9.995039292307711e+00
0	 1.687500000000000e+00	 8.750000000000000e+00	 9.977363092307698e+00
0	 1.687500000000001e+00	 8.812500000000000e+00	 9.978652818000000e+00
0	 1.687500000000000e+00	 8.875000000000000e+00	 9.980054770461546e+00
0	 1.687500000000000e+00	 8.937499999999998e+00	 9.981568949692297e+00
0	 1.687500000000000e+00	 8.999999999999998e+00	 9.983195355692319e+00
0	 1.687500000000001e+00	 9.062499999999998e+00	 9.984933988461535e+00
0	 1.687500000000000e+00	 9.124999999999998e+00	 9.986784847999976e+00
0	 1.687500000000000e+00	 9.187500000000000e+00	 9.988747934307691e+00
0	 1.687500000000000e+00	 9.249999999999998e+00	 9.990823247384618e+00
0	 1.687500000000000e+00	 9.312500000000000e+00	 9.993010787230768e+00
0	 1.687500000000000e+00	 9.375000000000000e+00	 9.995310553846149e+00
0	 1.750000000000000e+00	 8.750000000000000e+00	 9.978451138461530e+00
0	 1.750000000000000e+00	 8.812500000000000e+00	 9.979685333538487e+00
0	 1.750000000000001e+00	 8.874999999999998e+00	 9.981027414153836e+00
0	 1.750000000000000e+00	 8.937500000000000e+00	 9.982477380307696e+00
0	 1.750000000000000e+00	 9.000000000000002e+00	 9.984035231999993e+00
0	 1.750000000000000e+00	 9.062499999999998e+00	 9.985700969230770e+00
0	 1.750000000000001e+00	 9.124999999999998e+00	 9.987474591999995e+00
0	 1.750000000000000e+00	 9.187499999999996e+00	 9.989356100307678e+00
0	 1.750000000000000e+00	 9.250000000000000e+00	 9.991345494153839e+00
0	 1.750000000000000e+00	 9.312499999999996e+00	 9.993442773538424e+00
0	 1.750000000000000e+00	 9.375000000000000e+00	 9.995647938461527e+00
0	 1.812500000000001e+00	 8.750000000000000e+00	 9.979611338461545e+00
0	 1.812500000000000e+00	 8.812499999999998e+00	 9.980789399846174e+00
0	 1.812500000000001e+00	 8.875000000000000e+00	 9.982071005538479e+00
0	 1.812500000000000e+00	 8.937499999999998e+00	 9.983456155538457e+00
0	 1.812500000000000e+00	 9.000000000000000e+00	 9.984944849846158e+00
0	 1.812500000000000e+00	 9.062499999999998e+00	 9.986537088461539e+00
0	 1.812500000000001e+00	 9.124999999999998e+00	 9.988232871384628e+00
0	 1.812500000000000e+00	 9.187499999999998e+00	 9.990032198615372e+00
0	 1.812500000000001e+00	 9.249999999999998e+00	 9.991935070153829e+00
0	 1.812500000000000e+00	 9.312499999999998e+00	 9.993941486000017e+00
0	 1.812500000000001e+00	 9.375000000000000e+00	 9.996051446153844e+00
0	 1.875000000000000e+00	 8.750000000000000e+00	 9.980843692307701e+00
0	 1.875000000000000e+00	 8.812500000000000e+00	 9.981965016923084e+00
0	 1.875000000000000e+00	 8.875000000000002e+00	 9.983185544615399e+00
0	 1.875000000000000e+00	 8.937499999999998e+00	 9.984505275384604e+00
0	 1.875000000000000e+00	 9.000000000000000e+00	 9.985924209230776e+00
0	 1.875000000000000e+00	 9.062500000000000e+00	 9.987442346153840e+00
0	 1.875000000000000e+00	 9.124999999999998e+00	 9.989059686153844e+00
0	 1.875000000000000e+00	 9.187499999999998e+00	 9.990776229230756e+00
0	 1.875000000000000e+00	 9.249999999999998e+00	 9.992591975384597e+00
0	 1.875000000000000e+00	 9.312499999999998e+00	 9.994506924615354e+00
0	 1.875000000000000e+00	 9.375000000000000e+00	 9.996521076923070e+00
0	 1.250000000000000e+00	 9.375000000000000e+00	 9.994800307692307e+00
0	 1.250000000000000e+00	 9.437499999999998e+00	 9.994813787692296e+00
0	 1.250000000000000e+00	 9.500000000000000e+00	 9.995028812307698e+00
0	 1.250000000000000e+00	 9.562500000000000e+00	 9.995445381538456e+00
0	 1.250000000000000e+00	 9.625000000000000e+00	 9.996063495384623e+00
0	 1.250000000000000e+00	 9.687499999999998e+00	 9.996883153846152e+00
0	 1.250000000000000e+00	 9.749999999999998e+00	 9.997904356923051e+00
0	 1.250000000000000e+00	 9.812500000000000e+00	 9.999127104615379e+00
0	 1.250000000000000e+00	 9.875000000000000e+00	 1.000055139692310e+01
0	 1.250000000000000e+00	 9.937499999999998e+00	 1.000217723384615e+01
0	 1.250000000000000e+00	 1.000000000000000e+01	 1.000400461538461e+01
0	 1.312500000000000e+00	 9.375000000000000e+00	 9.994674830769227e+00
0	 1.312500000000000e+00	 9.437499999999998e+00	 9.994680972461516e+00
0	 1.312500000000000e+00	 9.500000000000000e+00	 9.994882231384601e+00
0	 1.312500000000000e+00	 9.562500000000000e+00	 9.995278607538483e+00
0	 1.312500000000000e+00	 9.625000000000000e+00	 9.995870100923071e+00
0	 1.312500000000000e+00	 9.687499999999996e+00	 9.996656711538478e+00
0	 1.312500000000000e+00	 9.749999999999998e+00	 9.997638439384616e+00
0	 1.312500000000000e+00	 9.812500000000000e+00	 9.998815284461561e+00
0	 1.312500000000000e+00	 9.874999999999998e+00	 1.000018724676922e+01
0	 1.312500000000000e+00	 9.937499999999996e+00	 1.000175432630771e+01
0	 1.312500000000000e+00	 1.000000000000000e+01	 1.000351652307695e+01
0	 1.375000000000000e+00	 9.375000000000000e+00	 9.994615476923064e+00
0	 1.375000000000000e+00	 9.437499999999998e+00	 9.994615637230769e+00
0	 1.375000000000000e+00	 9.499999999999998e+00	 9.994804487384616e+00
0	 1.375000000000000e+00	 9.562500000000000e+00	 9.995182027384608e+00
0	 1.375000000000000e+00	 9.624999999999998e+00	 9.995748257230773e+00
0	 1.375000000000000e+00	 9.687499999999998e+00	 9.996503176923071e+00
0	 1.375000000000000e+00	 9.750000000000000e+00	 9.997446786461541e+00
0	 1.375000000000000e+00	 9.812499999999998e+00	 9.998579085846147e+00
0	 1.375000000000000e+00	 9.874999999999996e+00	 9.999900075076926e+00
0	 1.375000000000000e+00	 9.937499999999998e+00	 1.000140975415380e+01
0	 1.375000000000000e+00	 1.000000000000000e+01	 1.000310812307691e+01
0	 1.437500000000000e+00	 9.375000000000002e+00	 9.994622246153863e+00
0	 1.437500000000000e+00	 9.437500000000000e+00	 9.994617781999986e+00
0	 1.437500000000000e+00	 9.499999999999998e+00	 9.994795580307676e+00
0	 1.437500000000000e+00	 9.562499999999998e+00	 9.995155641076918e+00
0	 1.437500000000000e+00	 9.624999999999998e+00	 9.995697964307679e+00
0	 1.437500000000000e+00	 9.687499999999998e+00	 9.996422550000025e+00
0	 1.437500000000000e+00	 9.749999999999996e+00	 9.997329398153866e+00
0	 1.437500000000000e+00	 9.812499999999996e+00	 9.998418508769214e+00
0	 1.437500000000000e+00	 9.875000000000000e+00	 9.999689881846203e+00
0	 1.437500000000000e+00	 9.937499999999998e+00	 1.000114351738467e+01
0	 1.437500000000000e+00	 1.000000000000000e+01	 1.000277941538467e+01
0	 1.500000000000000e+00	 9.375000000000002e+00	 9.994695138461532e+00
0	 1.500000000000000e+00	 9.437500000000000e+00	 9.994687406769236e+00
0	 1.500000000000000e+00	 9.499999999999998e+00	 9.994855510153847e+00
0	 1.500000000000000e+00	 9.562500000000000e+00	 9.995199448615370e+00
0	 1.500000000000001e+00	 9.625000000000002e+00	 9.995719222153854e+00
0	 1.500000000000000e+00	 9.687500000000000e+00	 9.996414830769233e+00
0	 1.500000000000000e+00	 9.750000000000000e+00	 9.997286274461494e+00
0	 1.500000000000001e+00	 9.812500000000002e+00	 9.998333553230770e+00
0	 1.500000000000000e+00	 9.874999999999998e+00	 9.999556667076934e+00
0	 1.500000000000000e+00	 9.937499999999996e+00	 1.000095561600002e+01
0	 1.500000000000000e+00	 1.000000000000000e+01	 1.000253039999993e+01
0	 1.562500000000000e+00	 9.375000000000002e+00	 9.994834153846135e+00
0	 1.562500000000000e+00	 9.437499999999998e+00	 9.994824511538461e+00
0	 1.562500000000000e+00	 9.499999999999996e+00	 9.994984276923063e+00
0	 1.562500000000000e+00	 9.562500000000000e+00	 9.995313450000005e+00
0	 1.562500000000000e+00	 9.624999999999998e+00	 9.995812030769223e+00
0	 1.562500000000000e+00	 9.687499999999998e+00	 9.996480019230813e+00
0	 1.562500000000000e+00	 9.749999999999998e+00	 9.997317415384646e+00
0	 1.562500000000000e+00	 9.812499999999998e+00	 9.998324219230792e+00
0	 1.562500000000000e+00	 9.874999999999998e+00	 9.999500430769235e+00
0	 1.562500000000000e+00	 9.937499999999998e+00	 1.000084605000001e+01
0	 1.562500000000000e+00	 1.000000000000000e+01	 1.000236107692312e+01
0	 1.625000000000000e+00	 9.374999999999998e+00	 9.995039292307711e+00
0	 1.625000000000000e+00	 9.437500000000002e+00	 9.995029096307682e+00
0	 1.625000000000000e+00	 9.499999999999998e+00	 9.995181880615380e+00
0	 1.625000000000000e+00	 9.562499999999998e+00	 9.995497645230770e+00
0	 1.625000000000000e+00	 9.624999999999998e+00	 9.995976390153841e+00
0	 1.625000000000001e+00	 9.687499999999998e+00	 9.996618115384608e+00
0	 1.625000000000000e+00	 9.750000000000000e+00	 9.997422820923067e+00
0	 1.625000000000000e+00	 9.812499999999998e+00	 9.998390506769262e+00
0	 1.625000000000000e+00	 9.875000000000000e+00	 9.999521172923092e+00
0	 1.625000000000000e+00	 9.937500000000000e+00	 1.000081481938459e+01
0	 1.625000000000000e+00	 1.000000000000000e+01	 1.000227144615392e+01
0	 1.687500000000000e+00	 9.375000000000000e+00	 9.995310553846149e+00
0	 1.687500000000001e+00	 9.437500000000002e+00	 9.995301161076913e+00
0	 1.687500000000000e+00	 9.500000000000000e+00	 9.995448321230757e+00
0	 1.687500000000000e+00	 9.562500000000000e+00	 9.995752034307682e+00
0	 1.687500000000000e+00	 9.624999999999998e+00	 9.996212300307690e+00
0	 1.687500000000000e+00	 9.687500000000000e+00	 9.996829119230757e+00
0	 1.687500000000000e+00	 9.750000000000000e+00	 9.997602491076922e+00
0	 1.687500000000001e+00	 9.812500000000000e+00	 9.998532415846178e+00
0	 1.687500000000000e+00	 9.874999999999996e+00	 9.999618893538466e+00
0	 1.687500000000000e+00	 9.937499999999998e+00	 1.000086192415386e+01
0	 1.687500000000000e+00	 1.000000000000000e+01	 1.000226150769229e+01
0	 1.750000000000000e+00	 9.375000000000000e+00	 9.995647938461527e+00
0	 1.750000000000000e+00	 9.437499999999998e+00	 9.995640705846139e+00
0	 1.750000000000001e+00	 9.500000000000000e+00	 9.995783598769201e+00
0	 1.750000000000001e+00	 9.562500000000000e+00	 9.996076617230772e+00
0	 1.750000000000001e+00	 9.625000000000000e+00	 9.996519761230791e+00
0	 1.750000000000000e+00	 9.687499999999998e+00	 9.997113030769212e+00
0	 1.750000000000001e+00	 9.749999999999998e+00	 9.997856425846148e+00
0	 1.750000000000000e+00	 9.812500000000000e+00	 9.998749946461549e+00
0	 1.750000000000001e+00	 9.874999999999998e+00	 9.999793592615362e+00
0	 1.750000000000000e+00	 9.937499999999998e+00	 1.000098736430768e+01
0	 1.750000000000000e+00	 1.000000000000000e+01	 1.000233126153849e+01
0	 1.812500000000001e+00	 9.375000000000000e+00	 9.996051446153844e+00
0	 1.812500000000000e+00	 9.437499999999998e+00	 9.996047730615377e+00
0	 1.812500000000000e+00	 9.500000000000000e+00	 9.996187713230771e+00
0	 1.812500000000000e+00	 9.562500000000000e+00	 9.996471393999997e+00
0	 1.812500000000000e+00	 9.624999999999996e+00	 9.996898772923082e+00
0	 1.812500000000000e+00	 9.687499999999998e+00	 9.997469850000019e+00
0	 1.812500000000001e+00	 9.750000000000000e+00	 9.998184625230810e+00
0	 1.812500000000000e+00	 9.812500000000000e+00	 9.999043098615450e+00
0	 1.812500000000000e+00	 9.874999999999998e+00	 1.000004527015384e+01
0	 1.812500000000000e+00	 9.937499999999996e+00	 1.000119113984611e+01
0	 1.812500000000000e+00	 1.000000000000000e+01	 1.000248070769229e+01
0	 1.875000000000000e+00	 9.375000000000000e+00	 9.996521076923070e+00
0	 1.875000000000000e+00	 9.437499999999998e+00	 9.996522235384610e+00
0	 1.875000000000000e+00	 9.500000000000000e+00	 9.996660664615369e+00
0	 1.875000000000000e+00	 9.562500000000000e+00	 9.996936364615383e+00
0	 1.875000000000000e+00	 9.625000000000000e+00	 9.997349335384603e+00
0	 1.875000000000000e+00	 9.687499999999998e+00	 9.997899576923082e+00
0	 1.875000000000000e+00	 9.749999999999998e+00	 9.998587089230760e+00
0	 1.875000000000000e+00	 9.812500000000000e+00	 9.999411872307666e+00
0	 1.875000000000000e+00	 9.875000000000000e+00	 1.000037392615385e+01
0	 1.875000000000000e+00	 9.937499999999998e+00	 1.000147325076923e+01
0	 1.875000000000000e+00	 1.000000000000000e+01	 1.000270984615385e+01
0	 1.875000000000000e+00	 0.000000000000000e+00	 8.559683076923076e+00
0	 1.875000000000000e+00	 6.250000000000000e-02	 9.303215718461537e+00
0	 1.875000000000000e+00	 1.250000000000000e-01	 9.992725827692306e+00
0	 1.875000000000000e+00	 1.875000000000000e-01	 1.062821340461539e+01
0	 1.875000000000000e+00	 2.500000000000000e-01	 1.120967844923077e+01
0	 1.875000000000000e+00	 3.125000000000000e-01	 1.173712096153846e+01
0	 1.875000000000000e+00	 3.750000000000000e-01	 1.221054094153846e+01
0	 1.875000000000000e+00	 4.374999999999999e-01	 1.262993838923077e+01
0	 1.875000000000000e+00	 5.000000000000000e-01	 1.299531330461538e+01
0	 1.875000000000000e+00	 5.624999999999999e-01	 1.330666568769231e+01
0	 1.875000000000000e+00	 6.250000000000000e-01	 1.356399553846154e+01
0	 1.937500000000000e+00	 0.000000000000000e+00	 9.159384310769230e+00
0	 1.937500000000000e+00	 6.250000000000000e-02	 9.757168573846153e+00
0	 1.937499999999999e+00	 1.250000000000000e-01	 1.030652082861539e+01
0	 1.937500000000000e+00	 1.875000000000000e-01	 1.080744107507692e+01
0	 1.937500000000000e+00	 2.500000000000001e-01	 1.125992931323077e+01
0	 1.937500000000000e+00	 3.125000000000001e-01	 1.166398554307693e+01
0	 1.937500000000000e+00	 3.749999999999999e-01	 1.201960976461538e+01
0	 1.937500000000000e+00	 4.375000000000000e-01	 1.232680197784615e+01
0	 1.937500000000000e+00	 5.000000000000000e-01	 1.258556218276923e+01
0	 1.937500000000000e+00	 5.624999999999999e-01	 1.279589037938461e+01
0	 1.937500000000000e+00	 6.249999999999999e-01	 1.295778656769231e+01
0	 2.000000000000000e+00	 0.000000000000000e+00	 9.703312689230767e+00
0	 2.000000000000000e+00	 6.250000000000000e-02	 1.016891132369231e+01
0	 2.000000000000000e+00	 1.250000000000000e-01	 1.059166847384615e+01
0	 2.000000000000000e+00	 1.875000000000000e-01	 1.097158413969231e+01
0	 2.000000000000000e+00	 2.500000000000001e-01	 1.130865832123076e+01
0	 2.000000000000000e+00	 3.125000000000000e-01	 1.160289101846154e+01
0	 2.000000000000000e+00	 3.749999999999999e-01	 1.185428223138462e+01
0	 2.000000000000000e+00	 4.375000000000000e-01	 1.206283196000000e+01
0	 2.000000000000000e+00	 4.999999999999999e-01	 1.222854020430769e+01
0	 2.000000000000001e+00	 5.625000000000001e-01	 1.235140696430770e+01
0	 2.000000000000000e+00	 6.250000000000001e-01	 1.243143224000000e+01
0	 2.062500000000000e+00	 0.000000000000000e+00	 1.019146821230769e+01
0	 2.062500000000000e+00	 6.250000000000000e-02	 1.053844396800000e+01
0	 2.062500000000001e+00	 1.250000000000000e-01	 1.084816876338461e+01
0	 2.062500000000000e+00	 1.875000000000001e-01	 1.112064259846154e+01
0	 2.062500000000000e+00	 2.500000000000001e-01	 1.135586547323077e+01
0	 2.062500000000000e+00	 3.125000000000000e-01	 1.155383738769231e+01
0	 2.062500000000000e+00	 3.750000000000000e-01	 1.171455834184615e+01
0	 2.062500000000000e+00	 4.374999999999999e-01	 1.183802833569231e+01
0	 2.062500000000000e+00	 4.999999999999999e-01	 1.192424736923077e+01
0	 2.062500000000001e+00	 5.625000000000000e-01	 1.197321544246154e+01
0	 2.062500000000000e+00	 6.249999999999999e-01	 1.198493255538461e+01
0	 2.125000000000000e+00	 0.000000000000000e+00	 1.062385088000000e+01
0	 2.125000000000000e+00	 6.249999999999999e-02	 1.086576650676923e+01
0	 2.125000000000000e+00	 1.250000000000000e-01	 1.107602169723077e+01
0	 2.125000000000000e+00	 1.875000000000000e-01	 1.125461645138461e+01
0	 2.125000000000000e+00	 2.500000000000000e-01	 1.140155076923077e+01
0	 2.125000000000000e+00	 3.125000000000000e-01	 1.151682465076923e+01
0	 2.125000000000001e+00	 3.750000000000001e-01	 1.160043809600000e+01
0	 2.125000000000000e+00	 4.375000000000000e-01	 1.165239110492307e+01
0	 2.125000000000000e+00	 4.999999999999999e-01	 1.167268367753846e+01
0	 2.125000000000000e+00	 5.624999999999999e-01	 1.166131581384615e+01
0	 2.125000000000000e+00	 6.250000000000001e-01	 1.161828751384615e+01
0	 2.187500000000000e+00	 0.000000000000000e+00	 1.100046069230769e+01
0	 2.187500000000000e+00	 6.249999999999998e-02	 1.115087894000000e+01
0	 2.187500000000000e+00	 1.250000000000000e-01	 1.127522727538462e+01
0	 2.187500000000000e+00	 1.875000000000000e-01	 1.137350569846154e+01
0	 2.187500000000000e+00	 2.499999999999999e-01	 1.144571420923077e+01
0	 2.187500000000000e+00	 3.125000000000001e-01	 1.149185280769231e+01
0	 2.187500000000000e+00	 3.749999999999999e-01	 1.151192149384615e+01
0	 2.187500000000001e+00	 4.375000000000000e-01	 1.150592026769231e+01
0	 2.187500000000000e+00	 4.999999999999999e-01	 1.147384912923077e+01
0	 2.187500000000001e+00	 5.625000000000001e-01	 1.141570807846154e+01
0	 2.187500000000000e+00	 6.250000000000000e-01	 1.133149711538461e+01
0	 2.250000000000000e+00	 0.000000000000000e+00	 1.132129764923077e+01
0	 2.250000000000000e+00	 6.249999999999999e-02	 1.139378126769231e+01
0	 2.250000000000000e+00	 1.250000000000000e-01	 1.144578549784616e+01
0	 2.250000000000001e+00	 1.875000000000000e-01	 1.147731033969231e+01
0	 2.250000000000000e+00	 2.500000000000001e-01	 1.148835579323077e+01
0	 2.250000000000000e+00	 3.124999999999999e-01	 1.147892185846154e+01
0	 2.250000000000000e+00	 3.750000000000000e-01	 1.144900853538462e+01
0	 2.250000000000001e+00	 4.375000000000001e-01	 1.139861582400000e+01
0	 2.250000000000000e+00	 5.000000000000000e-01	 1.132774372430769e+01
0	 2.250000000000000e+00	 5.625000000000001e-01	 1.123639223630769e+01
0	 2.250000000000000e+00	 6.250000000000000e-01	 1.112456136000000e+01
0	 2.312500000000000e+00	 0.000000000000000e+00	 1.158636175076923e+01
0	 2.312500000000000e+00	 6.250000000000000e-02	 1.159447348984616e+01
0	 2.312500000000001e+00	 1.250000000000000e-01	 1.158769636461539e+01
0	 2.312500000000000e+00	 1.875000000000000e-01	 1.156603037507693e+01
0	 2.312500000000001e+00	 2.500000000000001e-01	 1.152947552123076e+01
0	 2.312500000000000e+00	 3.125000000000000e-01	 1.147803180307692e+01
0	 2.312500000000001e+00	 3.750000000000000e-01	 1.141169922061539e+01
0	 2.312500000000000e+00	 4.374999999999999e-01	 1.133047777384615e+01
0	 2.312500000000000e+00	 4.999999999999999e-01	 1.123436746276923e+01
0	 2.312500000000000e+00	 5.625000000000000e-01	 1.112336828738462e+01
0	 2.312500000000000e+00	 6.250000000000000e-01	 1.099748024769231e+01
0	 2.375000000000000e+00	 0.000000000000000e+00	 1.179565299692308e+01
0	 2.375000000000000e+00	 6.249999999999999e-02	 1.175295560646154e+01
0	 2.375000000000000e+00	 1.250000000000000e-01	 1.170095987569231e+01
0	 2.375000000000000e+00	 1.875000000000000e-01	 1.163966580461538e+01
0	 2.375000000000000e+00	 2.500000000000000e-01	 1.156907339323076e+01
0	 2.375000000000000e+00	 3.125000000000000e-01	 1.148918264153846e+01
0	 2.375000000000000e+00	 3.750000000000000e-01	 1.139999354953846e+01
0	 2.375000000000001e+00	 4.375000000000001e-01	 1.130150611723077e+01
0	 2.375000000000000e+00	 5.000000000000000e-01	 1.119372034461538e+01
0	 2.375000000000000e+00	 5.624999999999999e-01	 1.107663623169230e+01
0	 2.375000000000000e+00	 6.250000000000000e-01	 1.095025377846154e+01
0	 2.437500000000000e+00	 0.000000000000000e+00	 1.194917138769231e+01
0	 2.437500000000000e+00	 6.250000000000000e-02	 1.186922761753846e+01
0	 2.437500000000000e+00	 1.250000000000000e-01	 1.178557603107692e+01
0	 2.437500000000001e+00	 1.875000000000000e-01	 1.169821662830769e+01
0	 2.437500000000001e+00	 2.500000000000000e-01	 1.160714940923077e+01
0	 2.437500000000000e+00	 3.125000000000001e-01	 1.151237437384615e+01
0	 2.437500000000000e+00	 3.750000000000000e-01	 1.141389152215385e+01
0	 2.437500000000000e+00	 4.375000000000000e-01	 1.131170085415384e+01
0	 2.437500000000000e+00	 5.000000000000000e-01	 1.120580236984616e+01
0	 2.437500000000000e+00	 5.625000000000000e-01	 1.109619606923077e+01
0	 2.437500000000000e+00	 6.250000000000000e-01	 1.098288195230769e+01
0	 2.500000000000000e+00	 0.000000000000000e+00	 1.204691692307692e+01
0	 2.500000000000000e+00	 6.250000000000000e-02	 1.194328952307692e+01
0	 2.500000000000000e+00	 1.250000000000000e-01	 1.184154483076923e+01
0	 2.500000000000000e+00	 1.875000000000000e-01	 1.174168284615384e+01
0	 2.500000000000000e+00	 2.500000000000000e-01	 1.164370356923077e+01
0	 2.500000000000000e+00	 3.125000000000000e-01	 1.154760700000000e+01
0	 2.500000000000000e+00	 3.750000000000000e-01	 1.145339313846154e+01
0	 2.500000000000000e+00	 4.374999999999999e-01	 1.136106198461538e+01
0	 2.500000000000001e+00	 5.000000000000000e-01	 1.127061353846154e+01
0	 2.500000000000000e+00	 5.624999999999999e-01	 1.118204780000000e+01
0	 2.500000000000000e+00	 6.250000000000000e-01	 1.109536476923077e+01
0	 1.875000000000000e+00	 6.250000000000000e-01	 1.356399553846154e+01
0	 1.875000000000000e+00	 6.875000000000000e-01	 1.332734205384615e+01
0	 1.875000000000000e+00	 7.500000000000002e-01	 1.309818390769231e+01
0	 1.875000000000000e+00	 8.125000000000002e-01	 1.287652110000000e+01
0	 1.875000000000000e+00	 8.750000000000002e-01	 1.266235363076923e+01
0	 1.875000000000000e+00	 9.375000000000002e-01	 1.245568150000000e+01
0	 1.875000000000000e+00	 1.000000000000000e+00	 1.225650470769230e+01
0	 1.875000000000000e+00	 1.062500000000000e+00	 1.206482325384615e+01
0	 1.875000000000000e+00	 1.125000000000001e+00	 1.188063713846154e+01
0	 1.875000000000000e+00	 1.187500000000000e+00	 1.170394636153846e+01
0	 1.875000000000000e+00	 1.250000000000000e+00	 1.153475092307692e+01
0	 1.937500000000000e+00	 6.249999999999999e-01	 1.295778656769231e+01
0	 1.937500000000000e+00	 6.875000000000000e-01	 1.279745900323077e+01
0	 1.937500000000000e+00	 7.500000000000000e-01	 1.264397734646154e+01
0	 1.937500000000000e+00	 8.125000000000003e-01	 1.249734159738462e+01
0	 1.937500000000000e+00	 8.750000000000002e-01	 1.235755175600000e+01
0	 1.937500000000000e+00	 9.375000000000003e-01	 1.222460782230769e+01
0	 1.937500000000000e+00	 1.000000000000000e+00	 1.209850979630769e+01
0	 1.937500000000000e+00	 1.062500000000000e+00	 1.197925767800000e+01
0	 1.937500000000000e+00	 1.125000000000000e+00	 1.186685146738462e+01
0	 1.937500000000000e+00	 1.187500000000001e+00	 1.176129116446154e+01
0	 1.937500000000000e+00	 1.250000000000000e+00	 1.166257676923077e+01
0	 2.000000000000000e+00	 6.250000000000001e-01	 1.243143224000000e+01
0	 2.000000000000000e+00	 6.875000000000001e-01	 1.233680346061538e+01
0	 2.000000000000000e+00	 7.500000000000003e-01	 1.224837115815385e+01
0	 2.000000000000000e+00	 8.125000000000001e-01	 1.216613533261538e+01
0	 2.000000000000000e+00	 8.750000000000003e-01	 1.209009598399999e+01
0	 2.000000000000000e+00	 9.375000000000002e-01	 1.202025311230769e+01
0	 2.000000000000000e+00	 1.000000000000000e+00	 1.195660671753846e+01
0	 2.000000000000000e+00	 1.062500000000000e+00	 1.189915679969231e+01
0	 2.000000000000000e+00	 1.125000000000000e+00	 1.184790335876923e+01
0	 2.000000000000000e+00	 1.187500000000001e+00	 1.180284639476923e+01
0	 2.000000000000000e+00	 1.250000000000000e+00	 1.176398590769231e+01
0	 2.062500000000000e+00	 6.249999999999999e-01	 1.198493255538461e+01
0	 2.062500000000000e+00	 6.875000000000001e-01	 1.194537542600000e+01
0	 2.062500000000000e+00	 7.500000000000003e-01	 1.191136534276923e+01
0	 2.062500000000000e+00	 8.125000000000000e-01	 1.188290230569230e+01
0	 2.062500000000000e+00	 8.750000000000001e-01	 1.185998631476923e+01
0	 2.062500000000001e+00	 9.375000000000003e-01	 1.184261737000000e+01
0	 2.062500000000000e+00	 1.000000000000000e+00	 1.183079547138461e+01
0	 2.062500000000000e+00	 1.062500000000000e+00	 1.182452061892308e+01
0	 2.062500000000000e+00	 1.125000000000000e+00	 1.182379281261538e+01
0	 2.062500000000000e+00	 1.187500000000000e+00	 1.182861205246154e+01
0	 2.062500000000000e+00	 1.250000000000000e+00	 1.183897833846154e+01
0	 2.125000000000000e+00	 6.250000000000001e-01	 1.161828751384615e+01
0	 2.125000000000000e+00	 6.875000000000000e-01	 1.162317489938462e+01
0	 2.125000000000000e+00	 7.500000000000002e-01	 1.163295990030769e+01
0	 2.125000000000000e+00	 8.125000000000001e-01	 1.164764251661538e+01
0	 2.125000000000000e+00	 8.749999999999999e-01	 1.166722274830769e+01
0	 2.125000000000000e+00	 9.375000000000002e-01	 1.169170059538461e+01
0	 2.125000000000000e+00	 1.000000000000000e+00	 1.172107605784615e+01
0	 2.125000000000001e+00	 1.062500000000001e+00	 1.175534913569231e+01
0	 2.125000000000000e+00	 1.125000000000000e+00	 1.179451982892308e+01
0	 2.125000000000000e+00	 1.187500000000001e+00	 1.183858813753846e+01
0	 2.125000000000000e+00	 1.250000000000000e+00	 1.188755406153846e+01
0	 2.187500000000000e+00	 6.250000000000000e-01	 1.133149711538461e+01
0	 2.187500000000000e+00	 6.875000000000000e-01	 1.137020188076923e+01
0	 2.187500000000000e+00	 7.500000000000001e-01	 1.141315483076923e+01
0	 2.187500000000000e+00	 8.125000000000001e-01	 1.146035596538461e+01
0	 2.187500000000001e+00	 8.750000000000003e-01	 1.151180528461538e+01
0	 2.187500000000000e+00	 9.375000000000002e-01	 1.156750278846154e+01
0	 2.187500000000000e+00	 1.000000000000000e+00	 1.162744847692307e+01
0	 2.187500000000000e+00	 1.062500000000000e+00	 1.169164235000000e+01
0	 2.187500000000000e+00	 1.125000000000000e+00	 1.176008440769231e+01
0	 2.187500000000000e+00	 1.187500000000000e+00	 1.183277465000001e+01
0	 2.187500000000000e+00	 1.250000000000000e+00	 1.190971307692307e+01
0	 2.250000000000000e+00	 6.250000000000000e-01	 1.112456136000000e+01
0	 2.250000000000000e+00	 6.875000000000001e-01	 1.118645637015384e+01
0	 2.250000000000000e+00	 7.500000000000001e-01	 1.125195013415385e+01
0	 2.250000000000000e+00	 8.125000000000001e-01	 1.132104265200000e+01
0	 2.250000000000000e+00	 8.750000000000003e-01	 1.139373392369231e+01
0	 2.250000000000000e+00	 9.375000000000003e-01	 1.147002394923076e+01
0	 2.250000000000000e+00	 1.000000000000000e+00	 1.154991272861538e+01
0	 2.250000000000001e+00	 1.062500000000001e+00	 1.163340026184615e+01
0	 2.250000000000000e+00	 1.125000000000001e+00	 1.172048654892307e+01
0	 2.250000000000000e+00	 1.187500000000000e+00	 1.181117158984615e+01
0	 2.250000000000000e+00	 1.250000000000000e+00	 1.190545538461538e+01
0	 2.312500000000000e+00	 6.250000000000000e-01	 1.099748024769231e+01
0	 2.312500000000000e+00	 6.875000000000001e-01	 1.107193836753846e+01
0	 2.312500000000001e+00	 7.500000000000002e-01	 1.114934581046153e+01
0	 2.312500000000000e+00	 8.125000000000001e-01	 1.122970257646154e+01
0	 2.312500000000000e+00	 8.750000000000002e-01	 1.131300866553846e+01
0	 2.312500000000001e+00	 9.375000000000003e-01	 1.139926407769231e+01
0	 2.312500000000000e+00	 1.000000000000000e+00	 1.148846881292307e+01
0	 2.312500000000000e+00	 1.062500000000000e+00	 1.158062287123077e+01
0	 2.312500000000000e+00	 1.125000000000000e+00	 1.167572625261538e+01
0	 2.312500000000000e+00	 1.187500000000000e+00	 1.177377895707692e+01
0	 2.312500000000000e+00	 1.250000000000000e+00	 1.187478098461538e+01
0	 2.375000000000000e+00	 6.250000000000000e-01	 1.095025377846154e+01
0	 2.375000000000001e+00	 6.875000000000001e-01	 1.102664787292307e+01
0	 2.375000000000000e+00	 7.500000000000001e-01	 1.110534185969230e+01
0	 2.375000000000000e+00	 8.125000000000002e-01	 1.118633573876923e+01
0	 2.375000000000000e+00	 8.750000000000001e-01	 1.126962951015385e+01
0	 2.375000000000000e+00	 9.375000000000003e-01	 1.135522317384615e+01
0	 2.375000000000001e+00	 1.000000000000001e+00	 1.144311672984616e+01
0	 2.375000000000001e+00	 1.062500000000000e+00	 1.153331017815385e+01
0	 2.375000000000000e+00	 1.125000000000000e+00	 1.162580351876923e+01
0	 2.375000000000001e+00	 1.187500000000000e+00	 1.172059675169231e+01
0	 2.375000000000000e+00	 1.250000000000000e+00	 1.181768987692307e+01
0	 2.437500000000000e+00	 6.250000000000000e-01	 1.098288195230769e+01
0	 2.437500000000000e+00	 6.875000000000001e-01	 1.105058488630769e+01
0	 2.437500000000000e+00	 7.500000000000002e-01	 1.111993828184615e+01
0	 2.437500000000000e+00	 8.125000000000000e-01	 1.119094213892308e+01
0	 2.437500000000000e+00	 8.750000000000000e-01	 1.126359645753846e+01
0	 2.437500000000000e+00	 9.375000000000000e-01	 1.133790123769231e+01
0	 2.437500000000000e+00	 1.000000000000000e+00	 1.141385647938461e+01
0	 2.437500000000000e+00	 1.062500000000000e+00	 1.149146218261538e+01
0	 2.437500000000001e+00	 1.125000000000000e+00	 1.157071834738461e+01
0	 2.437500000000000e+00	 1.187500000000001e+00	 1.165162497369230e+01
0	 2.437500000000000e+00	 1.250000000000000e+00	 1.173418206153846e+01
0	 2.500000000000000e+00	 6.250000000000000e-01	 1.109536476923077e+01
0	 2.500000000000000e+00	 6.875000000000000e-01	 1.114374940769231e+01
0	 2.500000000000000e+00	 7.500000000000002e-01	 1.119313507692308e+01
0	 2.500000000000000e+00	 8.125000000000002e-01	 1.124352177692308e+01
0	 2.500000000000000e+00	 8.750000000000002e-01	 1.129490950769230e+01
0	 2.500000000000000e+00	 9.375000000000002e-01	 1.134729826923077e+01
0	 2.500000000000000e+00	 1.000000000000000e+00	 1.140068806153846e+01
0	 2.500000000000000e+00	 1.062500000000000e+00	 1.145507888461539e+01
0	 2.500000000000000e+00	 1.125000000000001e+00	 1.151047073846154e+01
0	 2.500000000000000e+00	 1.187500000000000e+00	 1.156686362307692e+01
0	 2.500000000000000e+00	 1.250000000000000e+00	 1.162425753846154e+01
0	 1.875000000000000e+00	 1.250000000000000e+00	 1.153475092307692e+01
0	 1.875000000000000e+00	 1.312500000000000e+00	 1.149336092923076e+01
0	 1.875000000000000e+00	 1.375000000000000e+00	 1.145129744000000e+01
0	 1.875000000000000e+00	 1.437500000000000e+00	 1.140856045538461e+01
0	 1.875000000000000e+00	 1.500000000000000e+00	 1.136514997538461e+01
0	 1.875000000000000e+00	 1.562500000000000e+00	 1.132106599999999e+01
0	 1.875000000000000e+00	 1.625000000000000e+00	 1.127630852923076e+01
0	 1.875000000000000e+00	 1.687500000000000e+00	 1.123087756307692e+01
0	 1.875000000000000e+00	 1.750000000000001e+00	 1.118477310153846e+01
0	 1.875000000000000e+00	 1.812500000000000e+00	 1.113799514461538e+01
0	 1.875000000000000e+00	 1.875000000000000e+00	 1.109054369230769e+01
0	 1.937500000000000e+00	 1.250000000000000e+00	 1.166257676923077e+01
0	 1.937500000000000e+00	 1.312500000000000e+00	 1.161015906907692e+01
0	 1.937500000000000e+00	 1.375000000000000e+00	 1.155783205476923e+01
0	 1.937500000000000e+00	 1.437500000000000e+00	 1.150559572630769e+01
0	 1.937500000000000e+00	 1.500000000000000e+00	 1.145345008369230e+01
0	 1.937500000000000e+00	 1.562500000000000e+00	 1.140139512692307e+01
0	 1.937500000000000e+00	 1.625000000000000e+00	 1.134943085600000e+01
0	 1.937500000000000e+00	 1.687500000000000e+00	 1.129755727092308e+01
0	 1.937500000000000e+00	 1.750000000000001e+00	 1.124577437169230e+01
0	 1.937500000000000e+00	 1.812500000000000e+00	 1.119408215830768e+01
0	 1.937500000000000e+00	 1.875000000000000e+00	 1.114248063076923e+01
0	 2.000000000000000e+00	 1.250000000000000e+00	 1.176398590769231e+01
0	 2.000000000000000e+00	 1.312500000000000e+00	 1.170224247046154e+01
0	 2.000000000000000e+00	 1.375000000000000e+00	 1.164135390030768e+01
0	 2.000000000000000e+00	 1.437500000000000e+00	 1.158132019723077e+01
0	 2.000000000000000e+00	 1.500000000000000e+00	 1.152214136123076e+01
0	 2.000000000000000e+00	 1.562500000000001e+00	 1.146381739230769e+01
0	 2.000000000000000e+00	 1.625000000000000e+00	 1.140634829046154e+01
0	 2.000000000000000e+00	 1.687500000000001e+00	 1.134973405569230e+01
0	 2.000000000000000e+00	 1.750000000000000e+00	 1.129397468799999e+01
0	 2.000000000000000e+00	 1.812500000000001e+00	 1.123907018738461e+01
0	 2.000000000000000e+00	 1.875000000000000e+00	 1.118502055384615e+01
0	 2.062500000000000e+00	 1.250000000000000e+00	 1.183897833846154e+01
0	 2.062500000000000e+00	 1.312500000000000e+00	 1.176961113338461e+01
0	 2.062500000000000e+00	 1.375000000000000e+00	 1.170186297661539e+01
0	 2.062500000000000e+00	 1.437500000000000e+00	 1.163573386815385e+01
0	 2.062500000000000e+00	 1.500000000000000e+00	 1.157122380800000e+01
0	 2.062500000000001e+00	 1.562500000000001e+00	 1.150833279615384e+01
0	 2.062500000000000e+00	 1.625000000000000e+00	 1.144706083261539e+01
0	 2.062500000000000e+00	 1.687500000000001e+00	 1.138740791738462e+01
0	 2.062500000000000e+00	 1.750000000000000e+00	 1.132937405046154e+01
0	 2.062500000000000e+00	 1.812500000000000e+00	 1.127295923184615e+01
0	 2.062500000000000e+00	 1.875000000000000e+00	 1.121816346153846e+01
0	 2.125000000000000e+00	 1.250000000000000e+00	 1.188755406153846e+01
0	 2.125000000000000e+00	 1.312500000000000e+00	 1.181226505784615e+01
0	 2.125000000000000e+00	 1.375000000000000e+00	 1.173935928369230e+01
0	 2.125000000000000e+00	 1.437500000000000e+00	 1.166883673907692e+01
0	 2.125000000000000e+00	 1.500000000000000e+00	 1.160069742400000e+01
0	 2.125000000000000e+00	 1.562500000000000e+00	 1.153494133846153e+01
0	 2.125000000000000e+00	 1.625000000000001e+00	 1.147156848246154e+01
0	 2.125000000000001e+00	 1.687500000000000e+00	 1.141057885600000e+01
0	 2.125000000000000e+00	 1.750000000000000e+00	 1.135197245907692e+01
0	 2.125000000000000e+00	 1.812500000000001e+00	 1.129574929169230e+01
0	 2.125000000000000e+00	 1.875000000000000e+00	 1.124190935384616e+01
0	 2.187500000000000e+00	 1.250000000000000e+00	 1.190971307692307e+01
0	 2.187500000000000e+00	 1.312500000000000e+00	 1.183020424384615e+01
0	 2.187500000000000e+00	 1.375000000000000e+00	 1.175384282153846e+01
0	 2.187500000000000e+00	 1.437500000000000e+00	 1.168062881000000e+01
0	 2.187500000000001e+00	 1.500000000000000e+00	 1.161056220923077e+01
0	 2.187500000000000e+00	 1.562500000000000e+00	 1.154364301923076e+01
0	 2.187500000000000e+00	 1.625000000000000e+00	 1.147987124000000e+01
0	 2.187500000000000e+00	 1.687500000000001e+00	 1.141924687153846e+01
0	 2.187500000000000e+00	 1.750000000000001e+00	 1.136176991384615e+01
0	 2.187500000000000e+00	 1.812500000000000e+00	 1.130744036692307e+01
0	 2.187500000000000e+00	 1.875000000000000e+00	 1.125625823076923e+01
0	 2.250000000000000e+00	 1.250000000000000e+00	 1.190545538461538e+01
0	 2.250000000000000e+00	 1.312500000000000e+00	 1.182342869138461e+01
0	 2.250000000000000e+00	 1.375000000000000e+00	 1.174531359015385e+01
0	 2.250000000000000e+00	 1.437500000000000e+00	 1.167111008092308e+01
0	 2.250000000000000e+00	 1.500000000000000e+00	 1.160081816369230e+01
0	 2.250000000000000e+00	 1.562500000000000e+00	 1.153443783846154e+01
0	 2.250000000000000e+00	 1.625000000000000e+00	 1.147196910523077e+01
0	 2.250000000000001e+00	 1.687500000000001e+00	 1.141341196400000e+01
0	 2.250000000000000e+00	 1.750000000000000e+00	 1.135876641476923e+01
0	 2.250000000000000e+00	 1.812500000000000e+00	 1.130803245753846e+01
0	 2.250000000000000e+00	 1.875000000000000e+00	 1.126121009230769e+01
0	 2.312500000000000e+00	 1.250000000000000e+00	 1.187478098461538e+01
0	 2.312500000000000e+00	 1.312500000000000e+00	 1.179193840046154e+01
0	 2.312500000000001e+00	 1.375000000000000e+00	 1.171377158953846e+01
0	 2.312500000000000e+00	 1.437500000000000e+00	 1.164028055184615e+01
0	 2.312500000000000e+00	 1.500000000000000e+00	 1.157146528738462e+01
0	 2.312500000000001e+00	 1.562500000000000e+00	 1.150732579615385e+01
0	 2.312500000000000e+00	 1.625000000000000e+00	 1.144786207815384e+01
0	 2.312500000000000e+00	 1.687500000000000e+00	 1.139307413338461e+01
0	 2.312500000000000e+00	 1.750000000000000e+00	 1.134296196184615e+01
0	 2.312500000000000e+00	 1.812500000000000e+00	 1.129752556353846e+01
0	 2.312500000000000e+00	 1.875000000000000e+00	 1.125676493846154e+01
0	 2.375000000000000e+00	 1.250000000000000e+00	 1.181768987692307e+01
0	 2.375000000000001e+00	 1.312500000000000e+00	 1.173573337107692e+01
0	 2.375000000000000e+00	 1.375000000000000e+00	 1.165921681969231e+01
0	 2.375000000000000e+00	 1.437500000000000e+00	 1.158814022276923e+01
0	 2.375000000000000e+00	 1.500000000000000e+00	 1.152250358030769e+01
0	 2.375000000000000e+00	 1.562500000000000e+00	 1.146230689230769e+01
0	 2.375000000000001e+00	 1.625000000000001e+00	 1.140755015876923e+01
0	 2.375000000000001e+00	 1.687500000000001e+00	 1.135823337969231e+01
0	 2.375000000000000e+00	 1.750000000000001e+00	 1.131435655507692e+01
0	 2.375000000000001e+00	 1.812500000000001e+00	 1.127591968492308e+01
0	 2.375000000000000e+00	 1.875000000000000e+00	 1.124292276923077e+01
0	 2.437500000000000e+00	 1.250000000000000e+00	 1.173418206153846e+01
0	 2.437500000000000e+00	 1.312500000000000e+00	 1.165481360323076e+01
0	 2.437500000000000e+00	 1.375000000000000e+00	 1.158164928061538e+01
0	 2.437500000000000e+00	 1.437500000000000e+00	 1.151468909369231e+01
0	 2.437500000000000e+00	 1.500000000000000e+00	 1.145393304246154e+01
0	 2.437500000000000e+00	 1.562500000000000e+00	 1.139938112692307e+01
0	 2.437500000000000e+00	 1.625000000000000e+00	 1.135103334707692e+01
0	 2.437500000000000e+00	 1.687500000000000e+00	 1.130888970292308e+01
0	 2.437500000000001e+00	 1.750000000000001e+00	 1.127295019446154e+01
0	 2.437500000000000e+00	 1.812500000000001e+00	 1.124321482169231e+01
0	 2.437500000000000e+00	 1.875000000000000e+00	 1.121968358461539e+01
0	 2.500000000000000e+00	 1.250000000000000e+00	 1.162425753846154e+01
0	 2.500000000000000e+00	 1.312500000000000e+00	 1.154917909692307e+01
0	 2.500000000000000e+00	 1.375000000000000e+00	 1.148106897230769e+01
0	 2.500000000000000e+00	 1.437500000000000e+00	 1.141992716461539e+01
0	 2.500000000000000e+00	 1.500000000000000e+00	 1.136575367384615e+01
0	 2.500000000000000e+00	 1.562500000000000e+00	 1.131854850000000e+01
0	 2.500000000000000e+00	 1.625000000000000e+00	 1.127831164307692e+01
0	 2.500000000000000e+00	 1.687500000000000e+00	 1.124504310307693e+01
0	 2.500000000000000e+00	 1.750000000000001e+00	 1.121874288000000e+01
0	 2.500000000000000e+00	 1.812500000000000e+00	 1.119941097384615e+01
0	 2.500000000000000e+00	 1.875000000000000e+00	 1.118704738461538e+01
0	 1.875000000000000e+00	 1.875000000000000e+00	 1.109054369230769e+01
0	 1.875000000000000e+00	 1.937500000000000e+00	 1.098366739230768e+01
0	 1.875000000000000e+00	 2.000000000000000e+00	 1.088311172307692e+01
0	 1.875000000000000e+00	 2.062500000000000e+00	 1.078887668461538e+01
0	 1.875000000000000e+00	 2.125000000000000e+00	 1.070096227692308e+01
0	 1.875000000000000e+00	 2.187500000000000e+00	 1.061936850000000e+01
0	 1.875000000000000e+00	 2.250000000000000e+00	 1.054409535384615e+01
0	 1.875000000000000e+00	 2.312500000000000e+00	 1.047514283846153e+01
0	 1.875000000000000e+00	 2.375000000000001e+00	 1.041251095384616e+01
0	 1.875000000000000e+00	 2.437500000000001e+00	 1.035619970000000e+01
0	 1.875000000000000e+00	 2.500000000000000e+00	 1.030620907692308e+01
0	 1.937500000000000e+00	 1.875000000000000e+00	 1.114248063076923e+01
0	 1.937500000000000e+00	 1.937500000000000e+00	 1.104154989030769e+01
0	 1.937500000000000e+00	 2.000000000000000e+00	 1.094631688738461e+01
0	 1.937500000000000e+00	 2.062500000000000e+00	 1.085678162200000e+01
0	 1.937500000000000e+00	 2.125000000000000e+00	 1.077294409415384e+01
0	 1.937500000000000e+00	 2.187500000000001e+00	 1.069480430384615e+01
0	 1.937500000000000e+00	 2.250000000000000e+00	 1.062236225107692e+01
0	 1.937500000000000e+00	 2.312500000000001e+00	 1.055561793584615e+01
0	 1.937500000000000e+00	 2.375000000000001e+00	 1.049457135815385e+01
0	 1.937500000000000e+00	 2.437500000000000e+00	 1.043922251800000e+01
0	 1.937500000000000e+00	 2.500000000000000e+00	 1.038957141538461e+01
0	 2.000000000000000e+00	 1.875000000000000e+00	 1.118502055384615e+01
0	 2.000000000000000e+00	 1.937500000000000e+00	 1.109011536676923e+01
0	 2.000000000000000e+00	 2.000000000000000e+00	 1.100028502400001e+01
0	 2.000000000000000e+00	 2.062500000000000e+00	 1.091552952553845e+01
0	 2.000000000000000e+00	 2.125000000000000e+00	 1.083584887138461e+01
0	 2.000000000000000e+00	 2.187500000000000e+00	 1.076124306153846e+01
0	 2.000000000000000e+00	 2.250000000000000e+00	 1.069171209599999e+01
0	 2.000000000000000e+00	 2.312500000000001e+00	 1.062725597476923e+01
0	 2.000000000000000e+00	 2.375000000000001e+00	 1.056787469784615e+01
0	 2.000000000000000e+00	 2.437500000000000e+00	 1.051356826523077e+01
0	 2.000000000000000e+00	 2.500000000000000e+00	 1.046433667692308e+01
0	 2.062500000000000e+00	 1.875000000000000e+00	 1.121816346153846e+01
0	 2.062500000000000e+00	 1.937500000000000e+00	 1.112936382169230e+01
0	 2.062500000000000e+00	 2.000000000000000e+00	 1.104501613292308e+01
0	 2.062500000000000e+00	 2.062500000000000e+00	 1.096512039523077e+01
0	 2.062500000000000e+00	 2.125000000000000e+00	 1.088967660861538e+01
0	 2.062500000000001e+00	 2.187500000000001e+00	 1.081868477307692e+01
0	 2.062500000000000e+00	 2.250000000000000e+00	 1.075214488861539e+01
0	 2.062500000000000e+00	 2.312500000000000e+00	 1.069005695523077e+01
0	 2.062500000000000e+00	 2.375000000000000e+00	 1.063242097292308e+01
0	 2.062500000000000e+00	 2.437500000000001e+00	 1.057923694169232e+01
0	 2.062500000000000e+00	 2.500000000000000e+00	 1.053050486153846e+01
0	 2.125000000000000e+00	 1.875000000000000e+00	 1.124190935384616e+01
0	 2.125000000000000e+00	 1.937500000000000e+00	 1.115929525507692e+01
0	 2.125000000000000e+00	 2.000000000000000e+00	 1.108051021415384e+01
0	 2.125000000000000e+00	 2.062500000000000e+00	 1.100555423107692e+01
0	 2.125000000000000e+00	 2.125000000000000e+00	 1.093442730584615e+01
0	 2.125000000000000e+00	 2.187500000000000e+00	 1.086712943846154e+01
0	 2.125000000000000e+00	 2.250000000000000e+00	 1.080366062892307e+01
0	 2.125000000000001e+00	 2.312500000000000e+00	 1.074402087723077e+01
0	 2.125000000000000e+00	 2.375000000000000e+00	 1.068821018338461e+01
0	 2.125000000000000e+00	 2.437500000000000e+00	 1.063622854738462e+01
0	 2.125000000000000e+00	 2.500000000000000e+00	 1.058807596923076e+01
0	 2.187500000000000e+00	 1.875000000000000e+00	 1.125625823076923e+01
0	 2.187500000000000e+00	 1.937500000000000e+00	 1.117990966692308e+01
0	 2.187500000000000e+00	 2.000000000000000e+00	 1.110676726769230e+01
0	 2.187500000000000e+00	 2.062500000000000e+00	 1.103683103307692e+01
0	 2.187500000000001e+00	 2.125000000000001e+00	 1.097010096307692e+01
0	 2.187500000000000e+00	 2.187500000000000e+00	 1.090657705769230e+01
0	 2.187500000000000e+00	 2.250000000000000e+00	 1.084625931692308e+01
0	 2.187500000000000e+00	 2.312500000000001e+00	 1.078914774076923e+01
0	 2.187500000000000e+00	 2.375000000000000e+00	 1.073524232923077e+01
0	 2.187500000000000e+00	 2.437500000000001e+00	 1.068454308230769e+01
0	 2.187500000000000e+00	 2.500000000000000e+00	 1.063705000000000e+01
0	 2.250000000000000e+00	 1.875000000000000e+00	 1.126121009230769e+01
0	 2.250000000000000e+00	 1.937500000000000e+00	 1.119120705723077e+01
0	 2.250000000000000e+00	 2.000000000000000e+00	 1.112378729353846e+01
0	 2.250000000000000e+00	 2.062500000000000e+00	 1.105895080123077e+01
0	 2.250000000000000e+00	 2.125000000000000e+00	 1.099669758030770e+01
0	 2.250000000000000e+00	 2.187500000000000e+00	 1.093702763076923e+01
0	 2.250000000000000e+00	 2.250000000000000e+00	 1.087994095261539e+01
0	 2.250000000000001e+00	 2.312500000000001e+00	 1.082543754584616e+01
0	 2.250000000000000e+00	 2.375000000000001e+00	 1.077351741046154e+01
0	 2.250000000000000e+00	 2.437500000000000e+00	 1.072418054646154e+01
0	 2.250000000000000e+00	 2.500000000000000e+00	 1.067742695384615e+01
0	 2.312500000000000e+00	 1.875000000000000e+00	 1.125676493846154e+01
0	 2.312500000000000e+00	 1.937500000000000e+00	 1.119318742599999e+01
0	 2.312500000000001e+00	 2.000000000000000e+00	 1.113157029169231e+01
0	 2.312500000000000e+00	 2.062500000000000e+00	 1.107191353553846e+01
0	 2.312500000000000e+00	 2.125000000000000e+00	 1.101421715753846e+01
0	 2.312500000000001e+00	 2.187500000000000e+00	 1.095848115769231e+01
0	 2.312500000000000e+00	 2.250000000000000e+00	 1.090470553600000e+01
0	 2.312500000000000e+00	 2.312500000000000e+00	 1.085289029246154e+01
0	 2.312500000000000e+00	 2.375000000000000e+00	 1.080303542707692e+01
0	 2.312500000000000e+00	 2.437500000000000e+00	 1.075514093984616e+01
0	 2.312500000000000e+00	 2.500000000000000e+00	 1.070920683076923e+01
0	 2.375000000000000e+00	 1.875000000000000e+00	 1.124292276923077e+01
0	 2.375000000000001e+00	 1.937500000000000e+00	 1.118585077323077e+01
0	 2.375000000000000e+00	 2.000000000000000e+00	 1.113011626215385e+01
0	 2.375000000000000e+00	 2.062500000000000e+00	 1.107571923600000e+01
0	 2.375000000000000e+00	 2.125000000000000e+00	 1.102265969476923e+01
0	 2.375000000000000e+00	 2.187500000000000e+00	 1.097093763846154e+01
0	 2.375000000000001e+00	 2.250000000000001e+00	 1.092055306707692e+01
0	 2.375000000000001e+00	 2.312500000000001e+00	 1.087150598061539e+01
0	 2.375000000000000e+00	 2.375000000000001e+00	 1.082379637907692e+01
0	 2.375000000000001e+00	 2.437500000000001e+00	 1.077742426246154e+01
0	 2.375000000000000e+00	 2.500000000000000e+00	 1.073238963076923e+01
0	 2.437500000000000e+00	 1.875000000000000e+00	 1.121968358461539e+01
0	 2.437500000000000e+00	 1.937500000000000e+00	 1.116919709892307e+01
0	 2.437500000000000e+00	 2.000000000000000e+00	 1.111942520492308e+01
0	 2.437500000000000e+00	 2.062500000000000e+00	 1.107036790261538e+01
0	 2.437500000000000e+00	 2.125000000000000e+00	 1.102202519200000e+01
0	 2.437500000000000e+00	 2.187500000000000e+00	 1.097439707307693e+01
0	 2.437500000000000e+00	 2.250000000000000e+00	 1.092748354584615e+01
0	 2.437500000000000e+00	 2.312500000000000e+00	 1.088128461030770e+01
0	 2.437500000000001e+00	 2.375000000000001e+00	 1.083580026646154e+01
0	 2.437500000000000e+00	 2.437500000000000e+00	 1.079103051430769e+01
0	 2.437500000000000e+00	 2.500000000000000e+00	 1.074697535384615e+01
0	 2.500000000000000e+00	 1.875000000000000e+00	 1.118704738461538e+01
0	 2.500000000000000e+00	 1.937500000000000e+00	 1.114322640307692e+01
0	 2.500000000000000e+00	 2.000000000000000e+00	 1.109949712000001e+01
0	 2.500000000000000e+00	 2.062500000000000e+00	 1.105585953538461e+01
0	 2.500000000000000e+00	 2.125000000000000e+00	 1.101231364923077e+01
0	 2.500000000000000e+00	 2.187500000000000e+00	 1.096885946153846e+01
0	 2.500000000000000e+00	 2.250000000000000e+00	 1.092549697230769e+01
0	 2.500000000000000e+00	 2.312500000000000e+00	 1.088222618153846e+01
0	 2.500000000000000e+00	 2.375000000000001e+00	 1.083904708923078e+01
0	 2.500000000000000e+00	 2.437500000000001e+00	 1.079595969538461e+01
0	 2.500000000000000e+00	 2.500000000000000e+00	 1.075296400000000e+01
0	 1.875000000000000e+00	 2.500000000000000e+00	 1.030620907692308e+01
0	 1.875000000000000e+00	 2.562500000000000e+00	 1.029359081076924e+01
0	 1.875000000000000e+00	 2.625000000000000e+00	 1.027689816615385e+01
0	 1.875000000000000e+00	 2.687499999999999e+00	 1.025613114307692e+01
0	 1.875000000000000e+00	 2.750000000000000e+00	 1.023128974153846e+01
0	 1.875000000000000e+00	 2.812499999999999e+00	 1.020237396153846e+01
0	 1.875000000000000e+00	 2.874999999999999e+00	 1.016938380307692e+01
0	 1.875000000000000e+00	 2.937499999999998e+00	 1.013231926615384e+01
0	 1.875000000000000e+00	 2.999999999999998e+00	 1.009118035076922e+01
0	 1.875000000000000e+00	 3.062499999999998e+00	 1.004596705692308e+01
0	 1.875000000000000e+00	 3.125000000000000e+00	 9.996679384615376e+00
0	 1.937500000000000e+00	 2.500000000000000e+00	 1.038957141538461e+01
0	 1.937500000000000e+00	 2.562500000000000e+00	 1.037162274523077e+01
0	 1.937500000000000e+00	 2.624999999999999e+00	 1.035008823323078e+01
0	 1.937499999999999e+00	 2.687499999999999e+00	 1.032496787938462e+01
0	 1.937500000000000e+00	 2.749999999999999e+00	 1.029626168369231e+01
0	 1.937500000000000e+00	 2.812499999999999e+00	 1.026396964615385e+01
0	 1.937500000000000e+00	 2.874999999999999e+00	 1.022809176676923e+01
0	 1.937500000000000e+00	 2.937499999999998e+00	 1.018862804553846e+01
0	 1.937500000000000e+00	 2.999999999999999e+00	 1.014557848246154e+01
0	 1.937500000000000e+00	 3.062499999999999e+00	 1.009894307753845e+01
0	 1.937500000000000e+00	 3.125000000000000e+00	 1.004872183076923e+01
0	 2.000000000000000e+00	 2.500000000000000e+00	 1.046433667692308e+01
0	 2.000000000000000e+00	 2.562500000000000e+00	 1.044159216584615e+01
0	 2.000000000000000e+00	 2.625000000000000e+00	 1.041575034953847e+01
0	 2.000000000000000e+00	 2.687500000000000e+00	 1.038681122800000e+01
0	 2.000000000000000e+00	 2.750000000000000e+00	 1.035477480123077e+01
0	 2.000000000000000e+00	 2.812499999999999e+00	 1.031964106923077e+01
0	 2.000000000000000e+00	 2.874999999999999e+00	 1.028141003199999e+01
0	 2.000000000000000e+00	 2.937499999999999e+00	 1.024008168953846e+01
0	 2.000000000000000e+00	 2.999999999999998e+00	 1.019565604184615e+01
0	 2.000000000000000e+00	 3.062499999999998e+00	 1.014813308892307e+01
0	 2.000000000000000e+00	 3.125000000000000e+00	 1.009751283076922e+01
0	 2.062500000000000e+00	 2.500000000000000e+00	 1.053050486153846e+01
0	 2.062500000000000e+00	 2.562500000000000e+00	 1.050349907261539e+01
0	 2.062500000000000e+00	 2.625000000000000e+00	 1.047388451507692e+01
0	 2.062500000000000e+00	 2.687499999999999e+00	 1.044166118892308e+01
0	 2.062500000000000e+00	 2.749999999999999e+00	 1.040682909415384e+01
0	 2.062500000000000e+00	 2.812499999999999e+00	 1.036938823076923e+01
0	 2.062500000000000e+00	 2.874999999999999e+00	 1.032933859876923e+01
0	 2.062500000000000e+00	 2.937499999999998e+00	 1.028668019815384e+01
0	 2.062500000000000e+00	 2.999999999999998e+00	 1.024141302892307e+01
0	 2.062500000000000e+00	 3.062499999999997e+00	 1.019353709107692e+01
0	 2.062500000000000e+00	 3.125000000000000e+00	 1.014305238461538e+01
0	 2.125000000000000e+00	 2.500000000000000e+00	 1.058807596923076e+01
0	 2.125000000000001e+00	 2.562500000000000e+00	 1.055734346553846e+01
0	 2.125000000000000e+00	 2.625000000000000e+00	 1.052449072984615e+01
0	 2.125000000000000e+00	 2.687499999999999e+00	 1.048951776215385e+01
0	 2.125000000000000e+00	 2.749999999999999e+00	 1.045242456246154e+01
0	 2.125000000000000e+00	 2.812499999999998e+00	 1.041321113076923e+01
0	 2.125000000000000e+00	 2.874999999999999e+00	 1.037187746707692e+01
0	 2.125000000000000e+00	 2.937499999999999e+00	 1.032842357138462e+01
0	 2.125000000000000e+00	 2.999999999999999e+00	 1.028284944369230e+01
0	 2.125000000000000e+00	 3.062499999999998e+00	 1.023515508399999e+01
0	 2.125000000000000e+00	 3.125000000000000e+00	 1.018534049230769e+01
0	 2.187500000000000e+00	 2.500000000000000e+00	 1.063705000000000e+01
0	 2.187500000000000e+00	 2.562499999999999e+00	 1.060312534461539e+01
0	 2.187500000000000e+00	 2.625000000000000e+00	 1.056756899384615e+01
0	 2.187500000000000e+00	 2.687500000000000e+00	 1.053038094769231e+01
0	 2.187500000000000e+00	 2.749999999999999e+00	 1.049156120615384e+01
0	 2.187500000000000e+00	 2.812500000000000e+00	 1.045110976923077e+01
0	 2.187500000000001e+00	 2.874999999999998e+00	 1.040902663692308e+01
0	 2.187500000000001e+00	 2.937499999999999e+00	 1.036531180923077e+01
0	 2.187500000000000e+00	 2.999999999999999e+00	 1.031996528615384e+01
0	 2.187500000000001e+00	 3.062499999999999e+00	 1.027298706769231e+01
0	 2.187500000000000e+00	 3.125000000000000e+00	 1.022437715384615e+01
0	 2.250000000000000e+00	 2.500000000000000e+00	 1.067742695384615e+01
0	 2.250000000000000e+00	 2.562500000000000e+00	 1.064084470984616e+01
0	 2.250000000000000e+00	 2.625000000000000e+00	 1.060311930707693e+01
0	 2.250000000000000e+00	 2.687499999999999e+00	 1.056425074553846e+01
0	 2.250000000000000e+00	 2.749999999999999e+00	 1.052423902523077e+01
0	 2.250000000000000e+00	 2.812499999999999e+00	 1.048308414615384e+01
0	 2.250000000000000e+00	 2.874999999999999e+00	 1.044078610830768e+01
0	 2.250000000000000e+00	 2.937499999999998e+00	 1.039734491169230e+01
0	 2.250000000000000e+00	 2.999999999999999e+00	 1.035276055630769e+01
0	 2.250000000000000e+00	 3.062499999999998e+00	 1.030703304215384e+01
0	 2.250000000000000e+00	 3.125000000000000e+00	 1.026016236923077e+01
0	 2.312500000000000e+00	 2.500000000000000e+00	 1.070920683076923e+01
0	 2.312500000000000e+00	 2.562500000000000e+00	 1.067050156123076e+01
0	 2.312500000000000e+00	 2.625000000000000e+00	 1.063114166953845e+01
0	 2.312500000000000e+00	 2.687499999999999e+00	 1.059112715569231e+01
0	 2.312500000000000e+00	 2.749999999999999e+00	 1.055045801969231e+01
0	 2.312500000000001e+00	 2.812500000000000e+00	 1.050913426153845e+01
0	 2.312500000000000e+00	 2.874999999999998e+00	 1.046715588123077e+01
0	 2.312500000000001e+00	 2.937499999999999e+00	 1.042452287876923e+01
0	 2.312500000000001e+00	 2.999999999999998e+00	 1.038123525415385e+01
0	 2.312500000000001e+00	 3.062499999999998e+00	 1.033729300738462e+01
0	 2.312500000000000e+00	 3.125000000000000e+00	 1.029269613846153e+01
0	 2.375000000000000e+00	 2.500000000000000e+00	 1.073238963076923e+01
0	 2.375000000000001e+00	 2.562500000000000e+00	 1.069209589876924e+01
0	 2.375000000000000e+00	 2.625000000000000e+00	 1.065163608123077e+01
0	 2.375000000000000e+00	 2.687500000000000e+00	 1.061101017815384e+01
0	 2.375000000000000e+00	 2.750000000000000e+00	 1.057021818953846e+01
0	 2.375000000000000e+00	 2.812499999999999e+00	 1.052926011538461e+01
0	 2.375000000000000e+00	 2.874999999999999e+00	 1.048813595569231e+01
0	 2.375000000000000e+00	 2.937499999999999e+00	 1.044684571046154e+01
0	 2.375000000000000e+00	 2.999999999999998e+00	 1.040538937969231e+01
0	 2.375000000000000e+00	 3.062499999999998e+00	 1.036376696338461e+01
0	 2.375000000000000e+00	 3.125000000000000e+00	 1.032197846153846e+01
0	 2.437500000000000e+00	 2.500000000000000e+00	 1.074697535384615e+01
0	 2.437500000000000e+00	 2.562500000000000e+00	 1.070562772246153e+01
0	 2.437500000000000e+00	 2.625000000000000e+00	 1.066460254215385e+01
0	 2.437500000000000e+00	 2.687499999999999e+00	 1.062389981292307e+01
0	 2.437500000000001e+00	 2.749999999999999e+00	 1.058351953476923e+01
0	 2.437500000000000e+00	 2.812499999999999e+00	 1.054346170769231e+01
0	 2.437500000000000e+00	 2.874999999999998e+00	 1.050372633169230e+01
0	 2.437500000000000e+00	 2.937499999999998e+00	 1.046431340676924e+01
0	 2.437500000000000e+00	 2.999999999999998e+00	 1.042522293292307e+01
0	 2.437500000000000e+00	 3.062499999999998e+00	 1.038645491015385e+01
0	 2.437500000000000e+00	 3.125000000000000e+00	 1.034800933846153e+01
0	 2.500000000000000e+00	 2.500000000000000e+00	 1.075296400000000e+01
0	 2.500000000000000e+00	 2.562500000000000e+00	 1.071109703230770e+01
0	 2.500000000000000e+00	 2.625000000000000e+00	 1.067004105230770e+01
0	 2.500000000000000e+00	 2.687499999999999e+00	 1.062979605999999e+01
0	 2.500000000000000e+00	 2.750000000000000e+00	 1.059036205538461e+01
0	 2.500000000000000e+00	 2.812499999999999e+00	 1.055173903846154e+01
0	 2.500000000000000e+00	 2.874999999999999e+00	 1.051392700923076e+01
0	 2.500000000000000e+00	 2.937499999999998e+00	 1.047692596769231e+01
0	 2.500000000000000e+00	 2.999999999999998e+00	 1.044073591384615e+01
0	 2.500000000000000e+00	 3.062499999999998e+00	 1.040535684769232e+01
0	 2.500000000000000e+00	 3.125000000000000e+00	 1.037078876923077e+01
0	 1.875000000000000e+00	 3.125000000000000e+00	 9.996679384615376e+00
0	 1.875000000000000e+00	 3.187500000000000e+00	 9.977660650769220e+00
0	 1.875000000000000e+00	 3.250000000000000e+00	 9.959200941538453e+00
0	 1.875000000000000e+00	 3.312499999999999e+00	 9.941300256923077e+00
0	 1.875000000000000e+00	 3.374999999999999e+00	 9.923958596923070e+00
0	 1.875000000000000e+00	 3.437499999999999e+00	 9.907175961538462e+00
0	 1.875000000000000e+00	 3.499999999999999e+00	 9.890952350769236e+00
0	 1.875000000000000e+00	 3.562499999999998e+00	 9.875287764615386e+00
0	 1.875000000000000e+00	 3.624999999999999e+00	 9.860182203076924e+00
0	 1.875000000000000e+00	 3.687499999999998e+00	 9.845635666153839e+00
0	 1.875000000000000e+00	 3.750000000000000e+00	 9.831648153846162e+00
0	 1.937500000000000e+00	 3.125000000000000e+00	 1.004872183076923e+01
0	 1.937500000000000e+00	 3.187499999999999e+00	 1.003001096569230e+01
0	 1.937500000000000e+00	 3.250000000000000e+00	 1.001173301353846e+01
0	 1.937499999999999e+00	 3.312499999999998e+00	 9.993887974307690e+00
0	 1.937500000000000e+00	 3.374999999999998e+00	 9.976475847999993e+00
0	 1.937500000000000e+00	 3.437499999999998e+00	 9.959496634615384e+00
0	 1.937500000000000e+00	 3.499999999999999e+00	 9.942950334153844e+00
0	 1.937500000000000e+00	 3.562499999999999e+00	 9.926836946615387e+00
0	 1.937500000000000e+00	 3.624999999999998e+00	 9.911156472000005e+00
0	 1.937500000000000e+00	 3.687499999999998e+00	 9.895908910307709e+00
0	 1.937500000000000e+00	 3.750000000000000e+00	 9.881094261538465e+00
0	 2.000000000000000e+00	 3.125000000000000e+00	 1.009751283076922e+01
0	 2.000000000000000e+00	 3.187500000000000e+00	 1.007909882830768e+01
0	 2.000000000000000e+00	 3.250000000000000e+00	 1.006099162707692e+01
0	 2.000000000000000e+00	 3.312500000000000e+00	 1.004319122707692e+01
0	 2.000000000000000e+00	 3.374999999999999e+00	 1.002569762830769e+01
0	 2.000000000000000e+00	 3.437500000000000e+00	 1.000851083076923e+01
0	 2.000000000000000e+00	 3.499999999999999e+00	 9.991630834461535e+00
0	 2.000000000000000e+00	 3.562499999999999e+00	 9.975057639384625e+00
0	 2.000000000000000e+00	 3.624999999999998e+00	 9.958791245538466e+00
0	 2.000000000000000e+00	 3.687499999999998e+00	 9.942831652923083e+00
0	 2.000000000000000e+00	 3.750000000000000e+00	 9.927178861538472e+00
0	 2.062500000000000e+00	 3.125000000000000e+00	 1.014305238461538e+01
0	 2.062500000000000e+00	 3.187500000000000e+00	 1.012492423861538e+01
0	 2.062500000000000e+00	 3.250000000000000e+00	 1.010697678215384e+01
0	 2.062500000000000e+00	 3.312499999999999e+00	 1.008921001523077e+01
0	 2.062500000000000e+00	 3.374999999999998e+00	 1.007162393784615e+01
0	 2.062500000000000e+00	 3.437499999999999e+00	 1.005421855000000e+01
0	 2.062500000000000e+00	 3.499999999999999e+00	 1.003699385169232e+01
0	 2.062500000000000e+00	 3.562499999999999e+00	 1.001994984292308e+01
0	 2.062500000000000e+00	 3.624999999999998e+00	 1.000308652369231e+01
0	 2.062500000000000e+00	 3.687499999999998e+00	 9.986403894000018e+00
0	 2.062500000000000e+00	 3.750000000000000e+00	 9.969901953846163e+00
0	 2.125000000000000e+00	 3.125000000000000e+00	 1.018534049230769e+01
0	 2.125000000000001e+00	 3.187500000000000e+00	 1.016748719661539e+01
0	 2.125000000000000e+00	 3.250000000000000e+00	 1.014968847876922e+01
0	 2.125000000000000e+00	 3.312500000000000e+00	 1.013194433876923e+01
0	 2.125000000000000e+00	 3.374999999999999e+00	 1.011425477661538e+01
0	 2.125000000000000e+00	 3.437499999999998e+00	 1.009661979230769e+01
0	 2.125000000000000e+00	 3.499999999999999e+00	 1.007903938584615e+01
0	 2.125000000000000e+00	 3.562499999999998e+00	 1.006151355723076e+01
0	 2.125000000000000e+00	 3.624999999999999e+00	 1.004404230646153e+01
0	 2.125000000000000e+00	 3.687499999999998e+00	 1.002662563353847e+01
0	 2.125000000000000e+00	 3.750000000000000e+00	 1.000926353846154e+01
0	 2.187500000000000e+00	 3.125000000000000e+00	 1.022437715384615e+01
0	 2.187500000000000e+00	 3.187500000000000e+00	 1.020678770230769e+01
0	 2.187500000000000e+00	 3.250000000000000e+00	 1.018912671692308e+01
0	 2.187500000000000e+00	 3.312500000000000e+00	 1.017139419769230e+01
0	 2.187500000000000e+00	 3.374999999999999e+00	 1.015359014461539e+01
0	 2.187500000000000e+00	 3.437499999999999e+00	 1.013571455769230e+01
0	 2.187500000000001e+00	 3.499999999999999e+00	 1.011776743692307e+01
0	 2.187500000000001e+00	 3.562499999999999e+00	 1.009974878230770e+01
0	 2.187500000000000e+00	 3.624999999999998e+00	 1.008165859384617e+01
0	 2.187500000000001e+00	 3.687499999999999e+00	 1.006349687153847e+01
0	 2.187500000000000e+00	 3.750000000000000e+00	 1.004526361538461e+01
0	 2.250000000000000e+00	 3.125000000000000e+00	 1.026016236923077e+01
0	 2.250000000000000e+00	 3.187500000000000e+00	 1.024282575569230e+01
0	 2.250000000000000e+00	 3.250000000000000e+00	 1.022529149661538e+01
0	 2.250000000000000e+00	 3.312499999999999e+00	 1.020755959200000e+01
0	 2.250000000000000e+00	 3.374999999999999e+00	 1.018963004184615e+01
0	 2.250000000000000e+00	 3.437499999999999e+00	 1.017150284615385e+01
0	 2.250000000000000e+00	 3.499999999999998e+00	 1.015317800492307e+01
0	 2.250000000000000e+00	 3.562499999999999e+00	 1.013465551815385e+01
0	 2.250000000000000e+00	 3.624999999999998e+00	 1.011593538584616e+01
0	 2.250000000000000e+00	 3.687499999999998e+00	 1.009701760800001e+01
0	 2.250000000000000e+00	 3.750000000000000e+00	 1.007790218461540e+01
0	 2.312500000000000e+00	 3.125000000000000e+00	 1.029269613846153e+01
0	 2.312500000000000e+00	 3.187500000000000e+00	 1.027560135676922e+01
0	 2.312500000000000e+00	 3.250000000000000e+00	 1.025818281784615e+01
0	 2.312500000000000e+00	 3.312499999999999e+00	 1.024044052169230e+01
0	 2.312500000000000e+00	 3.374999999999999e+00	 1.022237446830770e+01
0	 2.312500000000001e+00	 3.437499999999999e+00	 1.020398465769231e+01
0	 2.312500000000000e+00	 3.499999999999999e+00	 1.018527108984615e+01
0	 2.312500000000001e+00	 3.562499999999999e+00	 1.016623376476923e+01
0	 2.312500000000001e+00	 3.624999999999998e+00	 1.014687268246154e+01
0	 2.312500000000001e+00	 3.687499999999999e+00	 1.012718784292309e+01
0	 2.312500000000000e+00	 3.750000000000000e+00	 1.010717924615385e+01
0	 2.375000000000000e+00	 3.125000000000000e+00	 1.032197846153846e+01
0	 2.375000000000001e+00	 3.187500000000000e+00	 1.030511450553846e+01
0	 2.375000000000000e+00	 3.250000000000000e+00	 1.028780068061538e+01
0	 2.375000000000000e+00	 3.312499999999999e+00	 1.027003698676923e+01
0	 2.375000000000000e+00	 3.375000000000000e+00	 1.025182342400000e+01
0	 2.375000000000000e+00	 3.437499999999999e+00	 1.023315999230769e+01
0	 2.375000000000000e+00	 3.499999999999999e+00	 1.021404669169231e+01
0	 2.375000000000000e+00	 3.562499999999998e+00	 1.019448352215385e+01
0	 2.375000000000000e+00	 3.624999999999998e+00	 1.017447048369230e+01
0	 2.375000000000000e+00	 3.687499999999998e+00	 1.015400757630769e+01
0	 2.375000000000000e+00	 3.750000000000000e+00	 1.013309480000000e+01
0	 2.437500000000000e+00	 3.125000000000000e+00	 1.034800933846153e+01
0	 2.437500000000000e+00	 3.187499999999999e+00	 1.033136520199999e+01
0	 2.437500000000000e+00	 3.250000000000000e+00	 1.031414508492307e+01
0	 2.437500000000000e+00	 3.312500000000000e+00	 1.029634898723076e+01
0	 2.437500000000001e+00	 3.375000000000000e+00	 1.027797690892308e+01
0	 2.437500000000000e+00	 3.437499999999998e+00	 1.025902885000000e+01
0	 2.437500000000000e+00	 3.499999999999999e+00	 1.023950481046153e+01
0	 2.437500000000000e+00	 3.562499999999998e+00	 1.021940479030769e+01
0	 2.437500000000000e+00	 3.624999999999999e+00	 1.019872878953846e+01
0	 2.437500000000000e+00	 3.687499999999998e+00	 1.017747680815384e+01
0	 2.437500000000000e+00	 3.750000000000000e+00	 1.015564884615386e+01
0	 2.500000000000000e+00	 3.125000000000000e+00	 1.037078876923077e+01
0	 2.500000000000000e+00	 3.187500000000000e+00	 1.035435344615384e+01
0	 2.500000000000000e+00	 3.250000000000000e+00	 1.033721603076922e+01
0	 2.500000000000000e+00	 3.312499999999999e+00	 1.031937652307692e+01
0	 2.500000000000000e+00	 3.374999999999999e+00	 1.030083492307692e+01
0	 2.500000000000000e+00	 3.437499999999999e+00	 1.028159123076922e+01
0	 2.500000000000000e+00	 3.499999999999999e+00	 1.026164544615385e+01
0	 2.500000000000000e+00	 3.562499999999998e+00	 1.024099756923077e+01
0	 2.500000000000000e+00	 3.624999999999999e+00	 1.021964760000000e+01
0	 2.500000000000000e+00	 3.687499999999998e+00	 1.019759553846153e+01
0	 2.500000000000000e+00	 3.750000000000000e+00	 1.017484138461538e+01
0	 1.875000000000000e+00	 3.750000000000000e+00	 9.831648153846162e+00
0	 1.875000000000000e+00	 3.812500000000000e+00	 9.832403833846165e+00
0	 1.875000000000000e+00	 3.875000000000000e+00	 9.832141950769238e+00
0	 1.875000000000000e+00	 3.937499999999999e+00	 9.830862504615384e+00
0	 1.875000000000000e+00	 4.000000000000000e+00	 9.828565495384616e+00
0	 1.875000000000000e+00	 4.062499999999999e+00	 9.825250923076929e+00
0	 1.875000000000000e+00	 4.124999999999999e+00	 9.820918787692305e+00
0	 1.875000000000000e+00	 4.187499999999998e+00	 9.815569089230763e+00
0	 1.875000000000000e+00	 4.249999999999998e+00	 9.809201827692302e+00
0	 1.875000000000000e+00	 4.312499999999998e+00	 9.801817003076925e+00
0	 1.875000000000000e+00	 4.375000000000000e+00	 9.793414615384611e+00
0	 1.937500000000000e+00	 3.750000000000000e+00	 9.881094261538465e+00
0	 1.937500000000000e+00	 3.812499999999999e+00	 9.879485503230768e+00
0	 1.937500000000000e+00	 3.874999999999999e+00	 9.876946169846166e+00
0	 1.937499999999999e+00	 3.937499999999998e+00	 9.873476261384628e+00
0	 1.937500000000000e+00	 3.999999999999999e+00	 9.869075777846156e+00
0	 1.937500000000000e+00	 4.062499999999998e+00	 9.863744719230764e+00
0	 1.937500000000000e+00	 4.124999999999999e+00	 9.857483085538469e+00
0	 1.937500000000000e+00	 4.187499999999998e+00	 9.850290876769233e+00
0	 1.937500000000000e+00	 4.249999999999998e+00	 9.842168092923078e+00
0	 1.937500000000000e+00	 4.312499999999997e+00	 9.833114733999992e+00
0	 1.937500000000000e+00	 4.375000000000000e+00	 9.823130800000003e+00
0	 2.000000000000000e+00	 3.750000000000000e+00	 9.927178861538472e+00
0	 2.000000000000000e+00	 3.812499999999999e+00	 9.923430009538469e+00
0	 2.000000000000000e+00	 3.875000000000000e+00	 9.918837570461552e+00
0	 2.000000000000000e+00	 3.937500000000000e+00	 9.913401544307696e+00
0	 2.000000000000000e+00	 3.999999999999999e+00	 9.907121931076928e+00
0	 2.000000000000000e+00	 4.062499999999999e+00	 9.899998730769228e+00
0	 2.000000000000000e+00	 4.124999999999999e+00	 9.892031943384616e+00
0	 2.000000000000000e+00	 4.187499999999997e+00	 9.883221568923073e+00
0	 2.000000000000000e+00	 4.249999999999998e+00	 9.873567607384619e+00
0	 2.000000000000000e+00	 4.312499999999998e+00	 9.863070058769226e+00
0	 2.000000000000000e+00	 4.375000000000000e+00	 9.851728923076900e+00
0	 2.062500000000000e+00	 3.750000000000000e+00	 9.969901953846163e+00
0	 2.062500000000000e+00	 3.812500000000000e+00	 9.964237352769242e+00
0	 2.062500000000000e+00	 3.875000000000000e+00	 9.957816152615386e+00
0	 2.062500000000000e+00	 3.937499999999999e+00	 9.950638353384621e+00
0	 2.062500000000000e+00	 3.999999999999998e+00	 9.942703955076929e+00
0	 2.062500000000000e+00	 4.062499999999999e+00	 9.934012957692307e+00
0	 2.062500000000000e+00	 4.124999999999999e+00	 9.924565361230771e+00
0	 2.062500000000000e+00	 4.187499999999998e+00	 9.914361165692309e+00
0	 2.062500000000000e+00	 4.249999999999998e+00	 9.903400371076923e+00
0	 2.062500000000000e+00	 4.312499999999997e+00	 9.891682977384615e+00
0	 2.062500000000000e+00	 4.375000000000000e+00	 9.879208984615369e+00
0	 2.125000000000000e+00	 3.750000000000000e+00	 1.000926353846154e+01
0	 2.125000000000001e+00	 3.812500000000000e+00	 1.000190753292309e+01
0	 2.125000000000000e+00	 3.875000000000000e+00	 9.993881916307698e+00
0	 2.125000000000000e+00	 3.937499999999999e+00	 9.985186688615389e+00
0	 2.125000000000000e+00	 4.000000000000000e+00	 9.975821849846152e+00
0	 2.125000000000000e+00	 4.062499999999998e+00	 9.965787400000005e+00
0	 2.125000000000000e+00	 4.124999999999999e+00	 9.955083339076921e+00
0	 2.125000000000000e+00	 4.187499999999998e+00	 9.943709667076922e+00
0	 2.125000000000000e+00	 4.249999999999998e+00	 9.931666383999991e+00
0	 2.125000000000000e+00	 4.312499999999998e+00	 9.918953489846158e+00
0	 2.125000000000000e+00	 4.375000000000000e+00	 9.905570984615387e+00
0	 2.187500000000000e+00	 3.750000000000000e+00	 1.004526361538461e+01
0	 2.187500000000000e+00	 3.812500000000000e+00	 1.003644054999999e+01
0	 2.187500000000000e+00	 3.875000000000000e+00	 1.002703486153846e+01
0	 2.187500000000000e+00	 3.937499999999999e+00	 1.001704655000000e+01
0	 2.187500000000000e+00	 3.999999999999998e+00	 1.000647561538461e+01
0	 2.187500000000000e+00	 4.062500000000000e+00	 9.995322057692309e+00
0	 2.187500000000001e+00	 4.124999999999998e+00	 9.983585876923085e+00
0	 2.187500000000001e+00	 4.187499999999998e+00	 9.971267073076927e+00
0	 2.187500000000000e+00	 4.249999999999998e+00	 9.958365646153837e+00
0	 2.187500000000001e+00	 4.312499999999999e+00	 9.944881596153836e+00
0	 2.187500000000000e+00	 4.375000000000001e+00	 9.930814923076918e+00
0	 2.250000000000000e+00	 3.750000000000000e+00	 1.007790218461540e+01
0	 2.250000000000000e+00	 3.812500000000000e+00	 1.006783640400001e+01
0	 2.250000000000000e+00	 3.875000000000000e+00	 1.005727498830771e+01
0	 2.250000000000000e+00	 3.937499999999999e+00	 1.004621793753846e+01
0	 2.250000000000000e+00	 4.000000000000000e+00	 1.003466525169231e+01
0	 2.250000000000000e+00	 4.062499999999998e+00	 1.002261693076923e+01
0	 2.250000000000000e+00	 4.124999999999999e+00	 1.001007297476922e+01
0	 2.250000000000000e+00	 4.187499999999998e+00	 9.997033383692299e+00
0	 2.250000000000000e+00	 4.249999999999998e+00	 9.983498157538463e+00
0	 2.250000000000000e+00	 4.312499999999998e+00	 9.969467296307691e+00
0	 2.250000000000000e+00	 4.375000000000000e+00	 9.954940799999992e+00
0	 2.312500000000000e+00	 3.750000000000000e+00	 1.010717924615385e+01
0	 2.312500000000000e+00	 3.812500000000000e+00	 1.009609509492308e+01
0	 2.312500000000000e+00	 3.875000000000000e+00	 1.008460229661538e+01
0	 2.312500000000000e+00	 3.937499999999999e+00	 1.007270085123076e+01
0	 2.312500000000000e+00	 3.999999999999999e+00	 1.006039075876923e+01
0	 2.312500000000001e+00	 4.062500000000000e+00	 1.004767201923077e+01
0	 2.312500000000000e+00	 4.124999999999998e+00	 1.003454463261539e+01
0	 2.312500000000001e+00	 4.187499999999999e+00	 1.002100859892308e+01
0	 2.312500000000001e+00	 4.249999999999998e+00	 1.000706391815384e+01
0	 2.312500000000001e+00	 4.312499999999999e+00	 9.992710590307698e+00
0	 2.312500000000000e+00	 4.375000000000000e+00	 9.977948615384623e+00
0	 2.375000000000000e+00	 3.750000000000000e+00	 1.013309480000000e+01
0	 2.375000000000001e+00	 3.812500000000000e+00	 1.012121662276924e+01
0	 2.375000000000000e+00	 3.875000000000000e+00	 1.010901678646153e+01
0	 2.375000000000000e+00	 3.937499999999999e+00	 1.009649529107692e+01
0	 2.375000000000000e+00	 4.000000000000000e+00	 1.008365213661539e+01
0	 2.375000000000000e+00	 4.062499999999998e+00	 1.007048732307693e+01
0	 2.375000000000000e+00	 4.124999999999999e+00	 1.005700085046155e+01
0	 2.375000000000000e+00	 4.187499999999998e+00	 1.004319271876922e+01
0	 2.375000000000000e+00	 4.249999999999998e+00	 1.002906292800000e+01
0	 2.375000000000000e+00	 4.312499999999997e+00	 1.001461147815385e+01
0	 2.375000000000000e+00	 4.375000000000000e+00	 9.999838369230764e+00
0	 2.437500000000000e+00	 3.750000000000000e+00	 1.015564884615386e+01
0	 2.437500000000000e+00	 3.812499999999999e+00	 1.014320098753846e+01
0	 2.437500000000000e+00	 3.874999999999999e+00	 1.013051845784616e+01
0	 2.437500000000000e+00	 3.937500000000000e+00	 1.011760125707692e+01
0	 2.437500000000001e+00	 3.999999999999999e+00	 1.010444938523077e+01
0	 2.437500000000000e+00	 4.062499999999998e+00	 1.009106284230769e+01
0	 2.437500000000000e+00	 4.124999999999999e+00	 1.007744162830770e+01
0	 2.437500000000000e+00	 4.187499999999997e+00	 1.006358574323077e+01
0	 2.437500000000000e+00	 4.249999999999998e+00	 1.004949518707692e+01
0	 2.437500000000000e+00	 4.312499999999998e+00	 1.003516995984615e+01
0	 2.437500000000000e+00	 4.375000000000000e+00	 1.002061006153846e+01
0	 2.500000000000000e+00	 3.750000000000000e+00	 1.017484138461538e+01
0	 2.500000000000000e+00	 3.812500000000000e+00	 1.016204818923077e+01
0	 2.500000000000000e+00	 3.875000000000000e+00	 1.014910731076923e+01
0	 2.500000000000000e+00	 3.937499999999999e+00	 1.013601874923077e+01
0	 2.500000000000000e+00	 4.000000000000000e+00	 1.012278250461538e+01
0	 2.500000000000000e+00	 4.062499999999999e+00	 1.010939857692308e+01
0	 2.500000000000000e+00	 4.124999999999999e+00	 1.009586696615384e+01
0	 2.500000000000000e+00	 4.187499999999998e+00	 1.008218767230770e+01
0	 2.500000000000000e+00	 4.249999999999998e+00	 1.006836069538461e+01
0	 2.500000000000000e+00	 4.312499999999998e+00	 1.005438603538463e+01
0	 2.500000000000000e+00	 4.375000000000000e+00	 1.004026369230769e+01
0	 1.875000000000000e+00	 4.375000000000000e+00	 9.793414615384611e+00
0	 1.875000000000000e+00	 4.437499999999999e+00	 9.795067710769217e+00
0	 1.875000000000000e+00	 4.500000000000001e+00	 9.796590873846153e+00
0	 1.875000000000000e+00	 4.562499999999999e+00	 9.797984104615388e+00
0	 1.875000000000000e+00	 4.625000000000000e+00	 9.799247403076919e+00
0	 1.875000000000000e+00	 4.687499999999999e+00	 9.800380769230756e+00
0	 1.875000000000000e+00	 4.749999999999999e+00	 9.801384203076923e+00
0	 1.875000000000000e+00	 4.812499999999998e+00	 9.802257704615375e+00
0	 1.875000000000000e+00	 4.874999999999998e+00	 9.803001273846149e+00
0	 1.875000000000000e+00	 4.937499999999998e+00	 9.803614910769214e+00
0	 1.875000000000000e+00	 5.000000000000000e+00	 9.804098615384609e+00
0	 1.937500000000000e+00	 4.375000000000000e+00	 9.823130800000003e+00
0	 1.937500000000000e+00	 4.437499999999999e+00	 9.823996786615378e+00
0	 1.937500000000000e+00	 4.499999999999999e+00	 9.824710752615387e+00
0	 1.937499999999999e+00	 4.562499999999999e+00	 9.825272697999988e+00
0	 1.937500000000000e+00	 4.624999999999999e+00	 9.825682622769227e+00
0	 1.937500000000000e+00	 4.687499999999998e+00	 9.825940526923070e+00
0	 1.937500000000000e+00	 4.749999999999998e+00	 9.826046410461528e+00
0	 1.937500000000000e+00	 4.812499999999997e+00	 9.826000273384608e+00
0	 1.937500000000000e+00	 4.874999999999998e+00	 9.825802115692310e+00
0	 1.937500000000000e+00	 4.937499999999997e+00	 9.825451937384614e+00
0	 1.937500000000000e+00	 5.000000000000000e+00	 9.824949738461534e+00
0	 2.000000000000000e+00	 4.375000000000000e+00	 9.851728923076900e+00
0	 2.000000000000000e+00	 4.437499999999999e+00	 9.851853720923073e+00
0	 2.000000000000000e+00	 4.499999999999999e+00	 9.851804409846149e+00
0	 2.000000000000000e+00	 4.562499999999999e+00	 9.851580989846148e+00
0	 2.000000000000000e+00	 4.624999999999999e+00	 9.851183460923066e+00
0	 2.000000000000000e+00	 4.687499999999999e+00	 9.850611823076914e+00
0	 2.000000000000000e+00	 4.749999999999998e+00	 9.849866076307682e+00
0	 2.000000000000000e+00	 4.812499999999997e+00	 9.848946220615383e+00
0	 2.000000000000000e+00	 4.874999999999997e+00	 9.847852255999985e+00
0	 2.000000000000000e+00	 4.937499999999997e+00	 9.846584182461545e+00
0	 2.000000000000000e+00	 5.000000000000001e+00	 9.845142000000003e+00
0	 2.062500000000000e+00	 4.375000000000000e+00	 9.879208984615369e+00
0	 2.062500000000000e+00	 4.437500000000000e+00	 9.878638513692310e+00
0	 2.062500000000000e+00	 4.500000000000000e+00	 9.877871845538447e+00
0	 2.062500000000000e+00	 4.562500000000000e+00	 9.876908980153853e+00
0	 2.062500000000000e+00	 4.624999999999997e+00	 9.875749917538457e+00
0	 2.062500000000000e+00	 4.687499999999999e+00	 9.874394657692301e+00
0	 2.062500000000000e+00	 4.749999999999998e+00	 9.872843200615387e+00
0	 2.062500000000000e+00	 4.812499999999998e+00	 9.871095546307682e+00
0	 2.062500000000000e+00	 4.874999999999996e+00	 9.869151694769229e+00
0	 2.062500000000000e+00	 4.937499999999996e+00	 9.867011645999989e+00
0	 2.062500000000000e+00	 5.000000000000000e+00	 9.864675399999999e+00
0	 2.125000000000000e+00	 4.375000000000000e+00	 9.905570984615387e+00
0	 2.125000000000001e+00	 4.437500000000001e+00	 9.904351164923071e+00
0	 2.125000000000000e+00	 4.500000000000000e+00	 9.902913059692306e+00
0	 2.125000000000000e+00	 4.562499999999999e+00	 9.901256668923068e+00
0	 2.125000000000000e+00	 4.625000000000000e+00	 9.899381992615373e+00
0	 2.125000000000000e+00	 4.687499999999998e+00	 9.897289030769226e+00
0	 2.125000000000000e+00	 4.749999999999999e+00	 9.894977783384604e+00
0	 2.125000000000000e+00	 4.812500000000000e+00	 9.892448250461525e+00
0	 2.125000000000000e+00	 4.874999999999998e+00	 9.889700431999993e+00
0	 2.125000000000000e+00	 4.937499999999998e+00	 9.886734327999999e+00
0	 2.125000000000000e+00	 5.000000000000000e+00	 9.883549938461538e+00
0	 2.187500000000000e+00	 4.375000000000001e+00	 9.930814923076918e+00
0	 2.187500000000000e+00	 4.437500000000000e+00	 9.928991674615375e+00
0	 2.187500000000000e+00	 4.500000000000000e+00	 9.926928052307687e+00
0	 2.187500000000000e+00	 4.562500000000000e+00	 9.924624056153839e+00
0	 2.187500000000000e+00	 4.624999999999998e+00	 9.922079686153840e+00
0	 2.187500000000000e+00	 4.687500000000001e+00	 9.919294942307690e+00
0	 2.187500000000001e+00	 4.749999999999999e+00	 9.916269824615378e+00
0	 2.187500000000001e+00	 4.812499999999999e+00	 9.913004333076916e+00
0	 2.187500000000000e+00	 4.874999999999998e+00	 9.909498467692311e+00
0	 2.187500000000001e+00	 4.937499999999998e+00	 9.905752228461534e+00
0	 2.187500000000000e+00	 5.000000000000001e+00	 9.901765615384607e+00
0	 2.250000000000000e+00	 4.375000000000000e+00	 9.954940799999992e+00
0	 2.250000000000000e+00	 4.437499999999999e+00	 9.952560042769223e+00
0	 2.250000000000000e+00	 4.499999999999999e+00	 9.949916823384612e+00
0	 2.250000000000000e+00	 4.562499999999999e+00	 9.947011141846154e+00
0	 2.250000000000000e+00	 4.624999999999999e+00	 9.943842998153844e+00
0	 2.250000000000000e+00	 4.687499999999999e+00	 9.940412392307689e+00
0	 2.250000000000000e+00	 4.749999999999998e+00	 9.936719324307688e+00
0	 2.250000000000000e+00	 4.812499999999999e+00	 9.932763794153844e+00
0	 2.250000000000000e+00	 4.874999999999998e+00	 9.928545801846143e+00
0	 2.250000000000000e+00	 4.937499999999999e+00	 9.924065347384600e+00
0	 2.250000000000000e+00	 5.000000000000000e+00	 9.919322430769235e+00
0	 2.312500000000000e+00	 4.375000000000000e+00	 9.977948615384623e+00
0	 2.312500000000000e+00	 4.437500000000000e+00	 9.975056269384613e+00
0	 2.312500000000000e+00	 4.499999999999999e+00	 9.971879372923075e+00
0	 2.312500000000000e+00	 4.562499999999998e+00	 9.968417925999990e+00
0	 2.312500000000000e+00	 4.625000000000000e+00	 9.964671928615370e+00
0	 2.312500000000001e+00	 4.687500000000000e+00	 9.960641380769230e+00
0	 2.312500000000000e+00	 4.749999999999998e+00	 9.956326282461530e+00
0	 2.312500000000001e+00	 4.812499999999999e+00	 9.951726633692303e+00
0	 2.312500000000001e+00	 4.874999999999997e+00	 9.946842434461534e+00
0	 2.312500000000001e+00	 4.937499999999998e+00	 9.941673684769230e+00
0	 2.312500000000000e+00	 5.000000000000000e+00	 9.936220384615382e+00
0	 2.375000000000000e+00	 4.375000000000000e+00	 9.999838369230764e+00
0	 2.375000000000001e+00	 4.437500000000000e+00	 9.996480354461545e+00
0	 2.375000000000000e+00	 4.500000000000000e+00	 9.992815700923073e+00
0	 2.375000000000000e+00	 4.562499999999999e+00	 9.988844408615375e+00
0	 2.375000000000000e+00	 4.624999999999999e+00	 9.984566477538463e+00
0	 2.375000000000000e+00	 4.687499999999998e+00	 9.979981907692309e+00
0	 2.375000000000000e+00	 4.749999999999999e+00	 9.975090699076915e+00
0	 2.375000000000000e+00	 4.812499999999998e+00	 9.969892851692308e+00
0	 2.375000000000000e+00	 4.874999999999998e+00	 9.964388365538461e+00
0	 2.375000000000000e+00	 4.937499999999997e+00	 9.958577240615382e+00
0	 2.375000000000000e+00	 5.000000000000000e+00	 9.952459476923073e+00
0	 2.437500000000000e+00	 4.375000000000000e+00	 1.002061006153846e+01
0	 2.437500000000000e+00	 4.437499999999999e+00	 1.001683229799999e+01
0	 2.437500000000000e+00	 4.499999999999999e+00	 1.001272580738461e+01
0	 2.437500000000000e+00	 4.562499999999999e+00	 1.000829058969229e+01
0	 2.437500000000001e+00	 4.624999999999999e+00	 1.000352664492307e+01
0	 2.437500000000000e+00	 4.687499999999998e+00	 9.998433973076917e+00
0	 2.437500000000000e+00	 4.749999999999998e+00	 9.993012574153845e+00
0	 2.437500000000000e+00	 4.812499999999998e+00	 9.987262448153846e+00
0	 2.437500000000000e+00	 4.874999999999998e+00	 9.981183595076924e+00
0	 2.437500000000000e+00	 4.937499999999997e+00	 9.974776014923069e+00
0	 2.437500000000000e+00	 5.000000000000001e+00	 9.968039707692309e+00
0	 2.500000000000000e+00	 4.375000000000000e+00	 1.004026369230769e+01
0	 2.500000000000000e+00	 4.437499999999999e+00	 1.003611210000000e+01
0	 2.500000000000000e+00	 4.500000000000001e+00	 1.003160969230769e+01
0	 2.500000000000000e+00	 4.562499999999999e+00	 1.002675646923077e+01
0	 2.500000000000000e+00	 4.625000000000000e+00	 1.002155243076922e+01
0	 2.500000000000000e+00	 4.687499999999999e+00	 1.001599757692307e+01
0	 2.500000000000000e+00	 4.749999999999999e+00	 1.001009190769231e+01
0	 2.500000000000000e+00	 4.812499999999998e+00	 1.000383542307692e+01
0	 2.500000000000000e+00	 4.874999999999998e+00	 9.997228123076912e+00
0	 2.500000000000000e+00	 4.937499999999998e+00	 9.990270007692304e+00
0	 2.500000000000000e+00	 5.000000000000000e+00	 9.982961076923074e+00
0	 1.875000000000000e+00	 5.000000000000000e+00	 9.804098615384609e+00
0	 1.875000000000000e+00	 5.062500000000000e+00	 9.807222112307699e+00
0	 1.875000000000000e+00	 5.125000000000001e+00	 9.810204664615382e+00
0	 1.875000000000000e+00	 5.187499999999999e+00	 9.813046272307671e+00
0	 1.875000000000000e+00	 5.249999999999999e+00	 9.815746935384608e+00
0	 1.875000000000000e+00	 5.312499999999999e+00	 9.818306653846147e+00
0	 1.875000000000000e+00	 5.374999999999998e+00	 9.820725427692294e+00
0	 1.875000000000000e+00	 5.437499999999998e+00	 9.823003256923073e+00
0	 1.875000000000000e+00	 5.499999999999998e+00	 9.825140141538453e+00
0	 1.875000000000000e+00	 5.562499999999998e+00	 9.827136081538464e+00
0	 1.875000000000000e+00	 5.625000000000000e+00	 9.828991076923073e+00
0	 1.937500000000000e+00	 5.000000000000000e+00	 9.824949738461534e+00
0	 1.937500000000000e+00	 5.062499999999999e+00	 9.827405960769216e+00
0	 1.937500000000000e+00	 5.125000000000000e+00	 9.829721723076926e+00
0	 1.937499999999999e+00	 5.187499999999999e+00	 9.831897025384601e+00
0	 1.937500000000000e+00	 5.249999999999998e+00	 9.833931867692298e+00
0	 1.937500000000000e+00	 5.312499999999998e+00	 9.835826250000002e+00
0	 1.937500000000000e+00	 5.374999999999998e+00	 9.837580172307684e+00
0	 1.937500000000000e+00	 5.437499999999998e+00	 9.839193634615382e+00
0	 1.937500000000000e+00	 5.499999999999998e+00	 9.840666636923071e+00
0	 1.937500000000000e+00	 5.562499999999997e+00	 9.841999179230758e+00
0	 1.937500000000000e+00	 5.625000000000000e+00	 9.843191261538447e+00
0	 2.000000000000000e+00	 5.000000000000001e+00	 9.845142000000003e+00
0	 2.000000000000000e+00	 5.062499999999999e+00	 9.846966744615379e+00
0	 2.000000000000000e+00	 5.124999999999999e+00	 9.848651513846143e+00
0	 2.000000000000000e+00	 5.187500000000000e+00	 9.850196307692311e+00
0	 2.000000000000000e+00	 5.249999999999999e+00	 9.851601126153838e+00
0	 2.000000000000000e+00	 5.312499999999999e+00	 9.852865969230777e+00
0	 2.000000000000000e+00	 5.374999999999999e+00	 9.853990836923074e+00
0	 2.000000000000000e+00	 5.437499999999997e+00	 9.854975729230762e+00
0	 2.000000000000000e+00	 5.499999999999996e+00	 9.855820646153839e+00
0	 2.000000000000000e+00	 5.562499999999998e+00	 9.856525587692325e+00
0	 2.000000000000000e+00	 5.625000000000000e+00	 9.857090553846126e+00
0	 2.062500000000000e+00	 5.000000000000000e+00	 9.864675399999999e+00
0	 2.062500000000000e+00	 5.062499999999999e+00	 9.865904463846157e+00
0	 2.062500000000000e+00	 5.124999999999998e+00	 9.866994036923074e+00
0	 2.062500000000000e+00	 5.187499999999999e+00	 9.867944119230769e+00
0	 2.062500000000000e+00	 5.249999999999997e+00	 9.868754710769224e+00
0	 2.062500000000000e+00	 5.312499999999999e+00	 9.869425811538465e+00
0	 2.062500000000000e+00	 5.374999999999998e+00	 9.869957421538450e+00
0	 2.062500000000000e+00	 5.437499999999998e+00	 9.870349540769229e+00
0	 2.062500000000000e+00	 5.499999999999998e+00	 9.870602169230764e+00
0	 2.062500000000000e+00	 5.562499999999996e+00	 9.870715306923076e+00
0	 2.062500000000000e+00	 5.625000000000000e+00	 9.870688953846154e+00
0	 2.125000000000000e+00	 5.000000000000000e+00	 9.883549938461538e+00
0	 2.125000000000001e+00	 5.062500000000001e+00	 9.884219118461530e+00
0	 2.125000000000000e+00	 5.124999999999999e+00	 9.884749292307689e+00
0	 2.125000000000000e+00	 5.187500000000000e+00	 9.885140459999988e+00
0	 2.125000000000000e+00	 5.250000000000000e+00	 9.885392621538450e+00
0	 2.125000000000000e+00	 5.312499999999997e+00	 9.885505776923072e+00
0	 2.125000000000000e+00	 5.374999999999999e+00	 9.885479926153844e+00
0	 2.125000000000000e+00	 5.437499999999999e+00	 9.885315069230771e+00
0	 2.125000000000000e+00	 5.499999999999998e+00	 9.885011206153838e+00
0	 2.125000000000000e+00	 5.562499999999999e+00	 9.884568336923072e+00
0	 2.125000000000000e+00	 5.625000000000000e+00	 9.883986461538456e+00
0	 2.187500000000000e+00	 5.000000000000001e+00	 9.901765615384607e+00
0	 2.187500000000000e+00	 5.062500000000001e+00	 9.901910708461541e+00
0	 2.187500000000000e+00	 5.124999999999999e+00	 9.901917279999990e+00
0	 2.187500000000000e+00	 5.187500000000000e+00	 9.901785329999985e+00
0	 2.187500000000000e+00	 5.249999999999998e+00	 9.901514858461526e+00
0	 2.187500000000000e+00	 5.312500000000000e+00	 9.901105865384608e+00
0	 2.187500000000001e+00	 5.375000000000000e+00	 9.900558350769224e+00
0	 2.187500000000001e+00	 5.437500000000000e+00	 9.899872314615372e+00
0	 2.187500000000000e+00	 5.499999999999998e+00	 9.899047756923057e+00
0	 2.187500000000001e+00	 5.562499999999998e+00	 9.898084677692289e+00
0	 2.187500000000000e+00	 5.625000000000000e+00	 9.896983076923066e+00
0	 2.250000000000000e+00	 5.000000000000000e+00	 9.919322430769235e+00
0	 2.250000000000000e+00	 5.062500000000000e+00	 9.918979233846144e+00
0	 2.250000000000000e+00	 5.125000000000000e+00	 9.918498000000003e+00
0	 2.250000000000000e+00	 5.187499999999999e+00	 9.917878729230754e+00
0	 2.250000000000000e+00	 5.250000000000000e+00	 9.917121421538456e+00
0	 2.250000000000000e+00	 5.312499999999999e+00	 9.916226076923081e+00
0	 2.250000000000000e+00	 5.374999999999999e+00	 9.915192695384610e+00
0	 2.250000000000000e+00	 5.437499999999998e+00	 9.914021276923068e+00
0	 2.250000000000000e+00	 5.499999999999998e+00	 9.912711821538458e+00
0	 2.250000000000000e+00	 5.562499999999998e+00	 9.911264329230768e+00
0	 2.250000000000000e+00	 5.625000000000000e+00	 9.909678800000012e+00
0	 2.312500000000000e+00	 5.000000000000000e+00	 9.936220384615382e+00
0	 2.312500000000000e+00	 5.062500000000000e+00	 9.935424694615392e+00
0	 2.312500000000000e+00	 5.124999999999999e+00	 9.934491452307700e+00
0	 2.312500000000000e+00	 5.187499999999999e+00	 9.933420657692309e+00
0	 2.312500000000000e+00	 5.250000000000000e+00	 9.932212310769218e+00
0	 2.312500000000001e+00	 5.312499999999999e+00	 9.930866411538458e+00
0	 2.312500000000000e+00	 5.374999999999998e+00	 9.929382959999996e+00
0	 2.312500000000001e+00	 5.437500000000000e+00	 9.927761956153835e+00
0	 2.312500000000001e+00	 5.499999999999998e+00	 9.926003399999992e+00
0	 2.312500000000001e+00	 5.562499999999998e+00	 9.924107291538451e+00
0	 2.312500000000000e+00	 5.625000000000000e+00	 9.922073630769235e+00
0	 2.375000000000000e+00	 5.000000000000000e+00	 9.952459476923073e+00
0	 2.375000000000001e+00	 5.062499999999999e+00	 9.951247090769238e+00
0	 2.375000000000000e+00	 5.124999999999999e+00	 9.949897636923069e+00
0	 2.375000000000000e+00	 5.187499999999999e+00	 9.948411115384614e+00
0	 2.375000000000000e+00	 5.250000000000000e+00	 9.946787526153841e+00
0	 2.375000000000000e+00	 5.312500000000000e+00	 9.945026869230759e+00
0	 2.375000000000000e+00	 5.374999999999999e+00	 9.943129144615389e+00
0	 2.375000000000000e+00	 5.437499999999999e+00	 9.941094352307696e+00
0	 2.375000000000000e+00	 5.499999999999998e+00	 9.938922492307690e+00
0	 2.375000000000000e+00	 5.562499999999998e+00	 9.936613564615373e+00
0	 2.375000000000000e+00	 5.625000000000000e+00	 9.934167569230778e+00
0	 2.437500000000000e+00	 5.000000000000001e+00	 9.968039707692309e+00
0	 2.437500000000000e+00	 5.062499999999999e+00	 9.966446422307689e+00
0	 2.437500000000000e+00	 5.125000000000000e+00	 9.964716553846156e+00
0	 2.437500000000000e+00	 5.187499999999999e+00	 9.962850102307684e+00
0	 2.437500000000001e+00	 5.250000000000001e+00	 9.960847067692297e+00
0	 2.437500000000000e+00	 5.312499999999998e+00	 9.958707449999991e+00
0	 2.437500000000000e+00	 5.374999999999998e+00	 9.956431249230754e+00
0	 2.437500000000000e+00	 5.437499999999998e+00	 9.954018465384609e+00
0	 2.437500000000000e+00	 5.499999999999998e+00	 9.951469098461514e+00
0	 2.437500000000000e+00	 5.562499999999998e+00	 9.948783148461532e+00
0	 2.437500000000000e+00	 5.625000000000000e+00	 9.945960615384619e+00
0	 2.500000000000000e+00	 5.000000000000000e+00	 9.982961076923074e+00
0	 2.500000000000000e+00	 5.062500000000000e+00	 9.981022689230780e+00
0	 2.500000000000000e+00	 5.125000000000001e+00	 9.978948203076916e+00
0	 2.500000000000000e+00	 5.187499999999999e+00	 9.976737618461520e+00
0	 2.500000000000000e+00	 5.249999999999999e+00	 9.974390935384610e+00
0	 2.500000000000000e+00	 5.312499999999999e+00	 9.971908153846151e+00
0	 2.500000000000000e+00	 5.374999999999998e+00	 9.969289273846151e+00
0	 2.500000000000000e+00	 5.437499999999998e+00	 9.966534295384612e+00
0	 2.500000000000000e+00	 5.499999999999998e+00	 9.963643218461534e+00
0	 2.500000000000000e+00	 5.562499999999998e+00	 9.960616043076927e+00
0	 2.500000000000000e+00	 5.625000000000000e+00	 9.957452769230766e+00
0	 1.875000000000000e+00	 5.625000000000000e+00	 9.828991076923073e+00
0	 1.875000000000000e+00	 5.687500000000000e+00	 9.832779178461534e+00
0	 1.875000000000000e+00	 5.750000000000000e+00	 9.836505821538452e+00
0	 1.875000000000000e+00	 5.812499999999999e+00	 9.840171006153852e+00
0	 1.875000000000000e+00	 5.874999999999999e+00	 9.843774732307702e+00
0	 1.875000000000000e+00	 5.937499999999999e+00	 9.847317000000009e+00
0	 1.875000000000000e+00	 5.999999999999998e+00	 9.850797809230787e+00
0	 1.875000000000000e+00	 6.062499999999998e+00	 9.854217160000012e+00
0	 1.875000000000000e+00	 6.124999999999998e+00	 9.857575052307702e+00
0	 1.875000000000000e+00	 6.187499999999998e+00	 9.860871486153872e+00
0	 1.875000000000000e+00	 6.250000000000000e+00	 9.864106461538478e+00
0	 1.937500000000000e+00	 5.625000000000000e+00	 9.843191261538447e+00
0	 1.937500000000000e+00	 5.687499999999998e+00	 9.846506148923073e+00
0	 1.937500000000000e+00	 5.749999999999999e+00	 9.849755494153857e+00
0	 1.937499999999999e+00	 5.812499999999997e+00	 9.852939297230780e+00
0	 1.937500000000000e+00	 5.874999999999998e+00	 9.856057558153841e+00
0	 1.937500000000000e+00	 5.937499999999998e+00	 9.859110276923083e+00
0	 1.937500000000000e+00	 5.999999999999999e+00	 9.862097453538471e+00
0	 1.937500000000000e+00	 6.062499999999998e+00	 9.865019088000011e+00
0	 1.937500000000000e+00	 6.124999999999999e+00	 9.867875180307699e+00
0	 1.937500000000000e+00	 6.187499999999999e+00	 9.870665730461551e+00
0	 1.937500000000000e+00	 6.250000000000000e+00	 9.873390738461559e+00
0	 2.000000000000000e+00	 5.625000000000000e+00	 9.857090553846126e+00
0	 2.000000000000000e+00	 5.687499999999998e+00	 9.859952559384617e+00
0	 2.000000000000000e+00	 5.750000000000000e+00	 9.862744939076933e+00
0	 2.000000000000000e+00	 5.812499999999999e+00	 9.865467692923083e+00
0	 2.000000000000000e+00	 5.874999999999999e+00	 9.868120820923087e+00
0	 2.000000000000000e+00	 5.937499999999999e+00	 9.870704323076914e+00
0	 2.000000000000000e+00	 5.999999999999999e+00	 9.873218199384624e+00
0	 2.000000000000000e+00	 6.062499999999998e+00	 9.875662449846164e+00
0	 2.000000000000000e+00	 6.124999999999996e+00	 9.878037074461560e+00
0	 2.000000000000000e+00	 6.187499999999998e+00	 9.880342073230786e+00
0	 2.000000000000000e+00	 6.250000000000000e+00	 9.882577446153885e+00
0	 2.062500000000000e+00	 5.625000000000000e+00	 9.870688953846154e+00
0	 2.062500000000000e+00	 5.687499999999999e+00	 9.873118409846150e+00
0	 2.062500000000000e+00	 5.749999999999999e+00	 9.875474156307686e+00
0	 2.062500000000000e+00	 5.812500000000001e+00	 9.877756193230773e+00
0	 2.062500000000000e+00	 5.874999999999997e+00	 9.879964520615381e+00
0	 2.062500000000000e+00	 5.937499999999999e+00	 9.882099138461539e+00
0	 2.062500000000000e+00	 5.999999999999998e+00	 9.884160046769241e+00
0	 2.062500000000000e+00	 6.062499999999998e+00	 9.886147245538472e+00
0	 2.062500000000000e+00	 6.124999999999996e+00	 9.888060734769244e+00
0	 2.062500000000000e+00	 6.187499999999998e+00	 9.889900514461555e+00
0	 2.062500000000000e+00	 6.250000000000000e+00	 9.891666584615397e+00
0	 2.125000000000000e+00	 5.625000000000000e+00	 9.883986461538456e+00
0	 2.125000000000001e+00	 5.687500000000001e+00	 9.886003700307688e+00
0	 2.125000000000000e+00	 5.749999999999999e+00	 9.887943145846165e+00
0	 2.125000000000000e+00	 5.812499999999999e+00	 9.889804798153854e+00
0	 2.125000000000000e+00	 5.874999999999999e+00	 9.891588657230777e+00
0	 2.125000000000000e+00	 5.937499999999998e+00	 9.893294723076924e+00
0	 2.125000000000000e+00	 5.999999999999999e+00	 9.894922995692319e+00
0	 2.125000000000000e+00	 6.062499999999998e+00	 9.896473475076935e+00
0	 2.125000000000000e+00	 6.124999999999999e+00	 9.897946161230783e+00
0	 2.125000000000000e+00	 6.187499999999998e+00	 9.899341054153854e+00
0	 2.125000000000000e+00	 6.250000000000001e+00	 9.900658153846166e+00
0	 2.187500000000000e+00	 5.625000000000000e+00	 9.896983076923066e+00
0	 2.187500000000000e+00	 5.687500000000000e+00	 9.898608430769242e+00
0	 2.187500000000000e+00	 5.749999999999999e+00	 9.900151907692296e+00
0	 2.187500000000000e+00	 5.812500000000000e+00	 9.901613507692305e+00
0	 2.187500000000000e+00	 5.874999999999998e+00	 9.902993230769221e+00
0	 2.187500000000000e+00	 5.937499999999999e+00	 9.904291076923084e+00
0	 2.187500000000001e+00	 5.999999999999999e+00	 9.905507046153861e+00
0	 2.187500000000001e+00	 6.062499999999999e+00	 9.906641138461536e+00
0	 2.187500000000000e+00	 6.124999999999998e+00	 9.907693353846158e+00
0	 2.187500000000001e+00	 6.187499999999998e+00	 9.908663692307714e+00
0	 2.187500000000000e+00	 6.250000000000000e+00	 9.909552153846180e+00
0	 2.250000000000000e+00	 5.625000000000000e+00	 9.909678800000012e+00
0	 2.250000000000000e+00	 5.687500000000000e+00	 9.910932601230778e+00
0	 2.250000000000000e+00	 5.749999999999999e+00	 9.912100441846162e+00
0	 2.250000000000000e+00	 5.812499999999999e+00	 9.913182321846156e+00
0	 2.250000000000000e+00	 5.874999999999999e+00	 9.914178241230776e+00
0	 2.250000000000000e+00	 5.937499999999999e+00	 9.915088200000016e+00
0	 2.250000000000000e+00	 5.999999999999999e+00	 9.915912198153856e+00
0	 2.250000000000000e+00	 6.062499999999998e+00	 9.916650235692309e+00
0	 2.250000000000000e+00	 6.124999999999998e+00	 9.917302312615405e+00
0	 2.250000000000000e+00	 6.187499999999998e+00	 9.917868428923082e+00
0	 2.250000000000000e+00	 6.250000000000000e+00	 9.918348584615394e+00
0	 2.312500000000000e+00	 5.625000000000000e+00	 9.922073630769235e+00
0	 2.312500000000000e+00	 5.687500000000000e+00	 9.922976211692296e+00
0	 2.312500000000000e+00	 5.750000000000000e+00	 9.923788748307686e+00
0	 2.312500000000000e+00	 5.812499999999999e+00	 9.924511240615391e+00
0	 2.312500000000000e+00	 5.875000000000000e+00	 9.925143688615377e+00
0	 2.312500000000001e+00	 5.937499999999999e+00	 9.925686092307700e+00
0	 2.312500000000000e+00	 5.999999999999999e+00	 9.926138451692303e+00
0	 2.312500000000001e+00	 6.062500000000000e+00	 9.926500766769243e+00
0	 2.312500000000001e+00	 6.124999999999998e+00	 9.926773037538471e+00
0	 2.312500000000001e+00	 6.187499999999999e+00	 9.926955264000011e+00
0	 2.312500000000000e+00	 6.249999999999999e+00	 9.927047446153871e+00
0	 2.375000000000000e+00	 5.625000000000000e+00	 9.934167569230778e+00
0	 2.375000000000001e+00	 5.687499999999999e+00	 9.934739262153855e+00
0	 2.375000000000000e+00	 5.749999999999999e+00	 9.935216827076914e+00
0	 2.375000000000000e+00	 5.812499999999999e+00	 9.935600264000005e+00
0	 2.375000000000000e+00	 5.875000000000000e+00	 9.935889572923085e+00
0	 2.375000000000000e+00	 5.937499999999999e+00	 9.936084753846146e+00
0	 2.375000000000000e+00	 5.999999999999999e+00	 9.936185806769240e+00
0	 2.375000000000000e+00	 6.062499999999997e+00	 9.936192731692319e+00
0	 2.375000000000000e+00	 6.124999999999997e+00	 9.936105528615380e+00
0	 2.375000000000000e+00	 6.187499999999998e+00	 9.935924197538473e+00
0	 2.375000000000000e+00	 6.250000000000000e+00	 9.935648738461555e+00
0	 2.437500000000000e+00	 5.625000000000000e+00	 9.945960615384619e+00
0	 2.437500000000000e+00	 5.687499999999999e+00	 9.946221752615388e+00
0	 2.437500000000000e+00	 5.750000000000000e+00	 9.946384678153841e+00
0	 2.437500000000000e+00	 5.812499999999999e+00	 9.946449391999998e+00
0	 2.437500000000001e+00	 5.875000000000000e+00	 9.946415894153844e+00
0	 2.437500000000000e+00	 5.937499999999998e+00	 9.946284184615379e+00
0	 2.437500000000000e+00	 5.999999999999999e+00	 9.946054263384612e+00
0	 2.437500000000000e+00	 6.062499999999999e+00	 9.945726130461550e+00
0	 2.437500000000000e+00	 6.124999999999998e+00	 9.945299785846149e+00
0	 2.437500000000000e+00	 6.187499999999998e+00	 9.944775229538472e+00
0	 2.437500000000000e+00	 6.250000000000000e+00	 9.944152461538476e+00
0	 2.500000000000000e+00	 5.625000000000000e+00	 9.957452769230766e+00
0	 2.500000000000000e+00	 5.687500000000000e+00	 9.957423683076925e+00
0	 2.500000000000000e+00	 5.750000000000000e+00	 9.957292301538446e+00
0	 2.500000000000000e+00	 5.812499999999999e+00	 9.957058624615396e+00
0	 2.500000000000000e+00	 5.874999999999999e+00	 9.956722652307691e+00
0	 2.500000000000000e+00	 5.937499999999999e+00	 9.956284384615392e+00
0	 2.500000000000000e+00	 5.999999999999998e+00	 9.955743821538473e+00
0	 2.500000000000000e+00	 6.062499999999998e+00	 9.955100963076918e+00
0	 2.500000000000000e+00	 6.124999999999998e+00	 9.954355809230778e+00
0	 2.500000000000000e+00	 6.187499999999998e+00	 9.953508360000015e+00
0	 2.500000000000000e+00	 6.250000000000000e+00	 9.952558615384623e+00
0	 1.875000000000000e+00	 6.250000000000000e+00	 9.864106461538478e+00
0	 1.875000000000000e+00	 6.312500000000000e+00	 9.867511453846173e+00
0	 1.875000000000000e+00	 6.375000000000000e+00	 9.870917323076934e+00
0	 1.875000000000000e+00	 6.437499999999999e+00	 9.874324069230767e+00
0	 1.875000000000000e+00	 6.499999999999999e+00	 9.877731692307702e+00
0	 1.875000000000000e+00	 6.562499999999998e+00	 9.881140192307690e+00
0	 1.875000000000000e+00	 6.624999999999998e+00	 9.884549569230755e+00
0	 1.875000000000000e+00	 6.687499999999998e+00	 9.887959823076908e+00
0	 1.875000000000000e+00	 6.749999999999998e+00	 9.891370953846147e+00
0	 1.875000000000000e+00	 6.812499999999998e+00	 9.894782961538464e+00
0	 1.875000000000000e+00	 6.875000000000000e+00	 9.898195846153833e+00
0	 1.937500000000000e+00	 6.250000000000000e+00	 9.873390738461559e+00
0	 1.937500000000000e+00	 6.312499999999998e+00	 9.876509649230790e+00
0	 1.937500000000000e+00	 6.375000000000000e+00	 9.879624655384626e+00
0	 1.937499999999999e+00	 6.437499999999997e+00	 9.882735756923067e+00
0	 1.937500000000000e+00	 6.499999999999998e+00	 9.885842953846165e+00
0	 1.937500000000000e+00	 6.562499999999997e+00	 9.888946246153843e+00
0	 1.937500000000000e+00	 6.624999999999998e+00	 9.892045633846145e+00
0	 1.937500000000000e+00	 6.687499999999997e+00	 9.895141116923069e+00
0	 1.937500000000000e+00	 6.749999999999999e+00	 9.898232695384618e+00
0	 1.937500000000000e+00	 6.812499999999998e+00	 9.901320369230763e+00
0	 1.937500000000000e+00	 6.874999999999999e+00	 9.904404138461528e+00
0	 2.000000000000000e+00	 6.250000000000000e+00	 9.882577446153885e+00
0	 2.000000000000000e+00	 6.312499999999998e+00	 9.885415983076943e+00
0	 2.000000000000000e+00	 6.375000000000000e+00	 9.888245833846161e+00
0	 2.000000000000000e+00	 6.437500000000000e+00	 9.891066998461557e+00
0	 2.000000000000000e+00	 6.500000000000000e+00	 9.893879476923086e+00
0	 2.000000000000000e+00	 6.562499999999999e+00	 9.896683269230776e+00
0	 2.000000000000000e+00	 6.624999999999999e+00	 9.899478375384614e+00
0	 2.000000000000000e+00	 6.687499999999998e+00	 9.902264795384614e+00
0	 2.000000000000000e+00	 6.749999999999996e+00	 9.905042529230762e+00
0	 2.000000000000000e+00	 6.812499999999998e+00	 9.907811576923079e+00
0	 2.000000000000000e+00	 6.875000000000001e+00	 9.910571938461509e+00
0	 2.062500000000000e+00	 6.250000000000000e+00	 9.891666584615397e+00
0	 2.062500000000000e+00	 6.312500000000000e+00	 9.894230455384644e+00
0	 2.062500000000000e+00	 6.374999999999998e+00	 9.896780858461534e+00
0	 2.062500000000000e+00	 6.437499999999999e+00	 9.899317793846166e+00
0	 2.062500000000000e+00	 6.499999999999998e+00	 9.901841261538465e+00
0	 2.062500000000000e+00	 6.562499999999999e+00	 9.904351261538453e+00
0	 2.062500000000000e+00	 6.624999999999999e+00	 9.906847793846161e+00
0	 2.062500000000000e+00	 6.687499999999997e+00	 9.909330858461527e+00
0	 2.062500000000000e+00	 6.749999999999997e+00	 9.911800455384594e+00
0	 2.062500000000000e+00	 6.812499999999997e+00	 9.914256584615380e+00
0	 2.062500000000000e+00	 6.875000000000000e+00	 9.916699246153835e+00
0	 2.125000000000000e+00	 6.250000000000001e+00	 9.900658153846166e+00
0	 2.125000000000001e+00	 6.312500000000001e+00	 9.902953066153863e+00
0	 2.125000000000000e+00	 6.375000000000000e+00	 9.905229729230767e+00
0	 2.125000000000000e+00	 6.437499999999999e+00	 9.907488143076922e+00
0	 2.125000000000000e+00	 6.499999999999998e+00	 9.909728307692308e+00
0	 2.125000000000000e+00	 6.562499999999996e+00	 9.911950223076925e+00
0	 2.125000000000000e+00	 6.624999999999999e+00	 9.914153889230768e+00
0	 2.125000000000000e+00	 6.687499999999998e+00	 9.916339306153844e+00
0	 2.125000000000000e+00	 6.749999999999999e+00	 9.918506473846136e+00
0	 2.125000000000000e+00	 6.812499999999997e+00	 9.920655392307680e+00
0	 2.125000000000000e+00	 6.875000000000000e+00	 9.922786061538456e+00
0	 2.187500000000000e+00	 6.250000000000000e+00	 9.909552153846180e+00
0	 2.187500000000000e+00	 6.312500000000000e+00	 9.911583815384628e+00
0	 2.187500000000000e+00	 6.374999999999999e+00	 9.913592446153839e+00
0	 2.187500000000000e+00	 6.437499999999999e+00	 9.915578046153849e+00
0	 2.187500000000000e+00	 6.499999999999998e+00	 9.917540615384615e+00
0	 2.187500000000000e+00	 6.562499999999999e+00	 9.919480153846164e+00
0	 2.187500000000001e+00	 6.625000000000000e+00	 9.921396661538473e+00
0	 2.187500000000001e+00	 6.687499999999999e+00	 9.923290138461525e+00
0	 2.187500000000000e+00	 6.749999999999999e+00	 9.925160584615366e+00
0	 2.187500000000001e+00	 6.812499999999998e+00	 9.927007999999974e+00
0	 2.187500000000000e+00	 6.875000000000000e+00	 9.928832384615362e+00
0	 2.250000000000000e+00	 6.250000000000000e+00	 9.918348584615394e+00
0	 2.250000000000000e+00	 6.312499999999999e+00	 9.920122703076931e+00
0	 2.250000000000000e+00	 6.375000000000000e+00	 9.921869009230772e+00
0	 2.250000000000000e+00	 6.437499999999999e+00	 9.923587503076934e+00
0	 2.250000000000000e+00	 6.499999999999999e+00	 9.925278184615388e+00
0	 2.250000000000000e+00	 6.562499999999999e+00	 9.926941053846148e+00
0	 2.250000000000000e+00	 6.624999999999999e+00	 9.928576110769226e+00
0	 2.250000000000000e+00	 6.687499999999997e+00	 9.930183355384598e+00
0	 2.250000000000000e+00	 6.749999999999998e+00	 9.931762787692296e+00
0	 2.250000000000000e+00	 6.812499999999998e+00	 9.933314407692325e+00
0	 2.250000000000000e+00	 6.875000000000000e+00	 9.934838215384611e+00
0	 2.312500000000000e+00	 6.249999999999999e+00	 9.927047446153871e+00
0	 2.312500000000000e+00	 6.312499999999999e+00	 9.928569729230786e+00
0	 2.312500000000000e+00	 6.374999999999997e+00	 9.930059418461564e+00
0	 2.312500000000000e+00	 6.437499999999998e+00	 9.931516513846153e+00
0	 2.312500000000000e+00	 6.500000000000000e+00	 9.932941015384635e+00
0	 2.312500000000001e+00	 6.562500000000000e+00	 9.934332923076926e+00
0	 2.312500000000000e+00	 6.624999999999998e+00	 9.935692236923076e+00
0	 2.312500000000001e+00	 6.687499999999999e+00	 9.937018956923062e+00
0	 2.312500000000001e+00	 6.749999999999999e+00	 9.938313083076931e+00
0	 2.312500000000001e+00	 6.812499999999999e+00	 9.939574615384625e+00
0	 2.312500000000000e+00	 6.875000000000000e+00	 9.940803553846115e+00
0	 2.375000000000000e+00	 6.250000000000000e+00	 9.935648738461555e+00
0	 2.375000000000001e+00	 6.312499999999999e+00	 9.936924893846172e+00
0	 2.375000000000000e+00	 6.375000000000000e+00	 9.938163673846166e+00
0	 2.375000000000000e+00	 6.437499999999999e+00	 9.939365078461538e+00
0	 2.375000000000000e+00	 6.500000000000000e+00	 9.940529107692321e+00
0	 2.375000000000000e+00	 6.562500000000000e+00	 9.941655761538467e+00
0	 2.375000000000000e+00	 6.624999999999999e+00	 9.942745039999998e+00
0	 2.375000000000000e+00	 6.687499999999997e+00	 9.943796943076924e+00
0	 2.375000000000000e+00	 6.749999999999997e+00	 9.944811470769222e+00
0	 2.375000000000000e+00	 6.812499999999999e+00	 9.945788623076927e+00
0	 2.375000000000000e+00	 6.874999999999999e+00	 9.946728399999978e+00
0	 2.437500000000000e+00	 6.250000000000000e+00	 9.944152461538476e+00
0	 2.437500000000000e+00	 6.312499999999997e+00	 9.945188196923095e+00
0	 2.437500000000000e+00	 6.375000000000000e+00	 9.946181775384623e+00
0	 2.437500000000000e+00	 6.437500000000000e+00	 9.947133196923080e+00
0	 2.437500000000001e+00	 6.499999999999999e+00	 9.948042461538469e+00
0	 2.437500000000000e+00	 6.562499999999997e+00	 9.948909569230770e+00
0	 2.437500000000000e+00	 6.624999999999999e+00	 9.949734519999998e+00
0	 2.437500000000000e+00	 6.687499999999998e+00	 9.950517313846156e+00
0	 2.437500000000000e+00	 6.749999999999998e+00	 9.951257950769229e+00
0	 2.437500000000000e+00	 6.812499999999998e+00	 9.951956430769219e+00
0	 2.437500000000000e+00	 6.875000000000000e+00	 9.952612753846134e+00
0	 2.500000000000000e+00	 6.250000000000000e+00	 9.952558615384623e+00
0	 2.500000000000000e+00	 6.312500000000000e+00	 9.953359638461547e+00
0	 2.500000000000000e+00	 6.375000000000000e+00	 9.954113723076933e+00
0	 2.500000000000000e+00	 6.437499999999999e+00	 9.954820869230760e+00
0	 2.500000000000000e+00	 6.499999999999999e+00	 9.955481076923078e+00
0	 2.500000000000000e+00	 6.562499999999998e+00	 9.956094346153851e+00
0	 2.500000000000000e+00	 6.624999999999998e+00	 9.956660676923065e+00
0	 2.500000000000000e+00	 6.687499999999998e+00	 9.957180069230755e+00
0	 2.500000000000000e+00	 6.749999999999998e+00	 9.957652523076931e+00
0	 2.500000000000000e+00	 6.812499999999998e+00	 9.958078038461551e+00
0	 2.500000000000000e+00	 6.875000000000000e+00	 9.958456615384613e+00
0	 1.875000000000000e+00	 6.875000000000000e+00	 9.898195846153833e+00
0	 1.875000000000000e+00	 6.937500000000000e+00	 9.901336736923058e+00
0	 1.875000000000000e+00	 7.000000000000000e+00	 9.904494916923046e+00
0	 1.875000000000000e+00	 7.062500000000000e+00	 9.907670386153839e+00
0	 1.875000000000000e+00	 7.125000000000000e+00	 9.910863144615373e+00
0	 1.875000000000000e+00	 7.187499999999998e+00	 9.914073192307686e+00
0	 1.875000000000000e+00	 7.249999999999998e+00	 9.917300529230772e+00
0	 1.875000000000000e+00	 7.312499999999998e+00	 9.920545155384598e+00
0	 1.875000000000000e+00	 7.374999999999998e+00	 9.923807070769209e+00
0	 1.875000000000000e+00	 7.437499999999998e+00	 9.927086275384616e+00
0	 1.875000000000000e+00	 7.500000000000000e+00	 9.930382769230759e+00
0	 1.937500000000000e+00	 6.874999999999999e+00	 9.904404138461528e+00
0	 1.937500000000000e+00	 6.937499999999997e+00	 9.907318660153834e+00
0	 1.937500000000000e+00	 7.000000000000001e+00	 9.910247514461524e+00
0	 1.937499999999999e+00	 7.062499999999997e+00	 9.913190701384591e+00
0	 1.937500000000000e+00	 7.124999999999997e+00	 9.916148220923064e+00
0	 1.937500000000000e+00	 7.187499999999997e+00	 9.919120073076908e+00
0	 1.937500000000000e+00	 7.249999999999998e+00	 9.922106257846139e+00
0	 1.937500000000000e+00	 7.312499999999997e+00	 9.925106775230763e+00
0	 1.937500000000000e+00	 7.374999999999999e+00	 9.928121625230773e+00
0	 1.937500000000000e+00	 7.437499999999997e+00	 9.931150807846148e+00
0	 1.937500000000000e+00	 7.500000000000000e+00	 9.934194323076913e+00
0	 2.000000000000000e+00	 6.875000000000001e+00	 9.910571938461509e+00
0	 2.000000000000000e+00	 6.937499999999998e+00	 9.913264937230755e+00
0	 2.000000000000000e+00	 7.000000000000000e+00	 9.915969311999980e+00
0	 2.000000000000000e+00	 7.062499999999998e+00	 9.918685062769217e+00
0	 2.000000000000000e+00	 7.124999999999999e+00	 9.921412189538433e+00
0	 2.000000000000000e+00	 7.187499999999999e+00	 9.924150692307673e+00
0	 2.000000000000000e+00	 7.249999999999999e+00	 9.926900571076915e+00
0	 2.000000000000000e+00	 7.312499999999999e+00	 9.929661825846141e+00
0	 2.000000000000000e+00	 7.374999999999996e+00	 9.932434456615363e+00
0	 2.000000000000000e+00	 7.437499999999997e+00	 9.935218463384619e+00
0	 2.000000000000000e+00	 7.500000000000000e+00	 9.938013846153822e+00
0	 2.062500000000000e+00	 6.875000000000000e+00	 9.916699246153835e+00
0	 2.062500000000000e+00	 6.937500000000000e+00	 9.919175568153836e+00
0	 2.062500000000000e+00	 6.999999999999999e+00	 9.921660309538440e+00
0	 2.062500000000000e+00	 7.062499999999999e+00	 9.924153470307694e+00
0	 2.062500000000000e+00	 7.124999999999999e+00	 9.926655050461523e+00
0	 2.062500000000000e+00	 7.187499999999999e+00	 9.929165049999995e+00
0	 2.062500000000000e+00	 7.249999999999996e+00	 9.931683468923072e+00
0	 2.062500000000000e+00	 7.312499999999999e+00	 9.934210307230753e+00
0	 2.062500000000000e+00	 7.374999999999998e+00	 9.936745564923058e+00
0	 2.062500000000000e+00	 7.437499999999997e+00	 9.939289241999990e+00
0	 2.062500000000000e+00	 7.500000000000000e+00	 9.941841338461511e+00
0	 2.125000000000000e+00	 6.875000000000000e+00	 9.922786061538456e+00
0	 2.125000000000001e+00	 6.937500000000002e+00	 9.925050552923061e+00
0	 2.125000000000000e+00	 6.999999999999999e+00	 9.927320507076905e+00
0	 2.125000000000000e+00	 7.062500000000000e+00	 9.929595923999976e+00
0	 2.125000000000000e+00	 7.124999999999999e+00	 9.931876803692298e+00
0	 2.125000000000000e+00	 7.187499999999996e+00	 9.934163146153832e+00
0	 2.125000000000000e+00	 7.250000000000000e+00	 9.936454951384604e+00
0	 2.125000000000000e+00	 7.312499999999997e+00	 9.938752219384583e+00
0	 2.125000000000000e+00	 7.375000000000000e+00	 9.941054950153823e+00
0	 2.125000000000000e+00	 7.437499999999998e+00	 9.943363143692300e+00
0	 2.125000000000000e+00	 7.500000000000000e+00	 9.945676799999990e+00
0	 2.187500000000000e+00	 6.875000000000000e+00	 9.928832384615362e+00
0	 2.187500000000000e+00	 6.937500000000000e+00	 9.930889891538465e+00
0	 2.187500000000000e+00	 6.999999999999999e+00	 9.932949904615381e+00
0	 2.187500000000000e+00	 7.062500000000001e+00	 9.935012423846125e+00
0	 2.187500000000000e+00	 7.124999999999998e+00	 9.937077449230761e+00
0	 2.187500000000000e+00	 7.187499999999999e+00	 9.939144980769214e+00
0	 2.187500000000001e+00	 7.250000000000000e+00	 9.941215018461524e+00
0	 2.187500000000001e+00	 7.312499999999999e+00	 9.943287562307681e+00
0	 2.187500000000000e+00	 7.374999999999997e+00	 9.945362612307683e+00
0	 2.187500000000001e+00	 7.437499999999999e+00	 9.947440168461515e+00
0	 2.187500000000000e+00	 7.500000000000000e+00	 9.949520230769211e+00
0	 2.250000000000000e+00	 6.875000000000000e+00	 9.934838215384611e+00
0	 2.250000000000000e+00	 6.937500000000001e+00	 9.936693584000015e+00
0	 2.250000000000000e+00	 6.999999999999999e+00	 9.938548502153841e+00
0	 2.250000000000000e+00	 7.062499999999998e+00	 9.940402969846144e+00
0	 2.250000000000000e+00	 7.125000000000000e+00	 9.942256987076910e+00
0	 2.250000000000000e+00	 7.187499999999999e+00	 9.944110553846134e+00
0	 2.250000000000000e+00	 7.249999999999999e+00	 9.945963670153825e+00
0	 2.250000000000000e+00	 7.312499999999999e+00	 9.947816335999986e+00
0	 2.250000000000000e+00	 7.374999999999998e+00	 9.949668551384617e+00
0	 2.250000000000000e+00	 7.437499999999999e+00	 9.951520316307674e+00
0	 2.250000000000000e+00	 7.499999999999999e+00	 9.953371630769206e+00
0	 2.312500000000000e+00	 6.875000000000000e+00	 9.940803553846115e+00
0	 2.312500000000000e+00	 6.937500000000000e+00	 9.942461630307657e+00
0	 2.312500000000000e+00	 6.999999999999999e+00	 9.944116299692286e+00
0	 2.312500000000000e+00	 7.062499999999999e+00	 9.945767561999991e+00
0	 2.312500000000000e+00	 7.125000000000000e+00	 9.947415417230758e+00
0	 2.312500000000001e+00	 7.187500000000000e+00	 9.949059865384598e+00
0	 2.312500000000000e+00	 7.249999999999998e+00	 9.950700906461517e+00
0	 2.312500000000001e+00	 7.312499999999999e+00	 9.952338540461525e+00
0	 2.312500000000001e+00	 7.374999999999998e+00	 9.953972767384592e+00
0	 2.312500000000001e+00	 7.437499999999998e+00	 9.955603587230755e+00
0	 2.312500000000000e+00	 7.500000000000000e+00	 9.957230999999993e+00
0	 2.375000000000000e+00	 6.874999999999999e+00	 9.946728399999978e+00
0	 2.375000000000001e+00	 6.937500000000000e+00	 9.948194030461536e+00
0	 2.375000000000000e+00	 7.000000000000000e+00	 9.949653297230766e+00
0	 2.375000000000000e+00	 7.062500000000000e+00	 9.951106200307684e+00
0	 2.375000000000000e+00	 7.125000000000001e+00	 9.952552739692297e+00
0	 2.375000000000000e+00	 7.187499999999998e+00	 9.953992915384614e+00
0	 2.375000000000000e+00	 7.249999999999998e+00	 9.955426727384616e+00
0	 2.375000000000000e+00	 7.312499999999998e+00	 9.956854175692301e+00
0	 2.375000000000000e+00	 7.374999999999998e+00	 9.958275260307673e+00
0	 2.375000000000000e+00	 7.437499999999997e+00	 9.959689981230774e+00
0	 2.375000000000000e+00	 7.500000000000000e+00	 9.961098338461522e+00
0	 2.437500000000000e+00	 6.875000000000000e+00	 9.952612753846134e+00
0	 2.437500000000000e+00	 6.937499999999997e+00	 9.953890784461549e+00
0	 2.437500000000000e+00	 7.000000000000000e+00	 9.955159494769228e+00
0	 2.437500000000000e+00	 7.062500000000000e+00	 9.956418884769224e+00
0	 2.437500000000001e+00	 7.125000000000000e+00	 9.957668954461539e+00
0	 2.437500000000000e+00	 7.187499999999998e+00	 9.958909703846142e+00
0	 2.437500000000000e+00	 7.249999999999999e+00	 9.960141132923070e+00
0	 2.437500000000000e+00	 7.312499999999998e+00	 9.961363241692299e+00
0	 2.437500000000000e+00	 7.374999999999998e+00	 9.962576030153826e+00
0	 2.437500000000000e+00	 7.437499999999998e+00	 9.963779498307671e+00
0	 2.437500000000000e+00	 7.500000000000000e+00	 9.964973646153844e+00
0	 2.500000000000000e+00	 6.875000000000000e+00	 9.958456615384613e+00
0	 2.500000000000000e+00	 6.937500000000000e+00	 9.959551892307692e+00
0	 2.500000000000000e+00	 7.000000000000000e+00	 9.960634892307677e+00
0	 2.500000000000000e+00	 7.062500000000000e+00	 9.961705615384613e+00
0	 2.500000000000000e+00	 7.125000000000000e+00	 9.962764061538454e+00
0	 2.500000000000000e+00	 7.187499999999998e+00	 9.963810230769219e+00
0	 2.500000000000000e+00	 7.249999999999998e+00	 9.964844123076919e+00
0	 2.500000000000000e+00	 7.312499999999998e+00	 9.965865738461536e+00
0	 2.500000000000000e+00	 7.374999999999998e+00	 9.966875076923063e+00
0	 2.500000000000000e+00	 7.437499999999998e+00	 9.967872138461539e+00
0	 2.500000000000000e+00	 7.500000000000000e+00	 9.968856923076915e+00
0	 1.875000000000000e+00	 7.500000000000000e+00	 9.930382769230759e+00
0	 1.875000000000000e+00	 7.562500000000000e+00	 9.932963164615387e+00
0	 1.875000000000000e+00	 7.625000000000000e+00	 9.935590996923080e+00
0	 1.875000000000000e+00	 7.687499999999999e+00	 9.938266266153843e+00
0	 1.875000000000000e+00	 7.750000000000000e+00	 9.940988972307695e+00
0	 1.875000000000000e+00	 7.812499999999999e+00	 9.943759115384600e+00
0	 1.875000000000000e+00	 7.874999999999998e+00	 9.946576695384607e+00
0	 1.875000000000000e+00	 7.937499999999997e+00	 9.949441712307694e+00
0	 1.875000000000000e+00	 7.999999999999998e+00	 9.952354166153849e+00
0	 1.875000000000000e+00	 8.062499999999996e+00	 9.955314056923077e+00
0	 1.875000000000000e+00	 8.125000000000000e+00	 9.958321384615388e+00
0	 1.937500000000000e+00	 7.500000000000000e+00	 9.934194323076913e+00
0	 1.937500000000000e+00	 7.562499999999999e+00	 9.936624031076907e+00
0	 1.937500000000000e+00	 7.624999999999998e+00	 9.939097551999996e+00
0	 1.937499999999999e+00	 7.687499999999996e+00	 9.941614885846144e+00
0	 1.937500000000000e+00	 7.749999999999998e+00	 9.944176032615367e+00
0	 1.937500000000000e+00	 7.812499999999996e+00	 9.946780992307698e+00
0	 1.937500000000000e+00	 7.875000000000000e+00	 9.949429764923067e+00
0	 1.937500000000000e+00	 7.937499999999996e+00	 9.952122350461533e+00
0	 1.937500000000000e+00	 7.999999999999999e+00	 9.954858748923071e+00
0	 1.937500000000000e+00	 8.062499999999996e+00	 9.957638960307698e+00
0	 1.937500000000000e+00	 8.125000000000002e+00	 9.960462984615400e+00
0	 2.000000000000000e+00	 7.500000000000000e+00	 9.938013846153822e+00
0	 2.000000000000000e+00	 7.562499999999998e+00	 9.940293922153817e+00
0	 2.000000000000000e+00	 7.624999999999999e+00	 9.942614187076908e+00
0	 2.000000000000000e+00	 7.687500000000000e+00	 9.944974640923064e+00
0	 2.000000000000000e+00	 7.749999999999999e+00	 9.947375283692292e+00
0	 2.000000000000000e+00	 7.812499999999998e+00	 9.949816115384623e+00
0	 2.000000000000000e+00	 7.875000000000000e+00	 9.952297136000006e+00
0	 2.000000000000000e+00	 7.937499999999998e+00	 9.954818345538458e+00
0	 2.000000000000000e+00	 7.999999999999996e+00	 9.957379744000013e+00
0	 2.000000000000000e+00	 8.062499999999998e+00	 9.959981331384590e+00
0	 2.000000000000000e+00	 8.125000000000000e+00	 9.962623107692306e+00
0	 2.062500000000000e+00	 7.500000000000000e+00	 9.941841338461511e+00
0	 2.062500000000000e+00	 7.562500000000000e+00	 9.943972837846168e+00
0	 2.062500000000000e+00	 7.624999999999999e+00	 9.946140902153836e+00
0	 2.062500000000000e+00	 7.687499999999999e+00	 9.948345531384605e+00
0	 2.062500000000000e+00	 7.749999999999997e+00	 9.950586725538459e+00
0	 2.062500000000000e+00	 7.812499999999999e+00	 9.952864484615391e+00
0	 2.062500000000000e+00	 7.874999999999997e+00	 9.955178808615376e+00
0	 2.062500000000000e+00	 7.937499999999998e+00	 9.957529697538455e+00
0	 2.062500000000000e+00	 7.999999999999997e+00	 9.959917151384609e+00
0	 2.062500000000000e+00	 8.062499999999998e+00	 9.962341170153840e+00
0	 2.062500000000000e+00	 8.124999999999998e+00	 9.964801753846176e+00
0	 2.125000000000000e+00	 7.500000000000000e+00	 9.945676799999990e+00
0	 2.125000000000001e+00	 7.562500000000001e+00	 9.947660778153818e+00
0	 2.125000000000000e+00	 7.625000000000001e+00	 9.949677697230754e+00
0	 2.125000000000000e+00	 7.687499999999999e+00	 9.951727557230779e+00
0	 2.125000000000000e+00	 7.749999999999999e+00	 9.953810358153842e+00
0	 2.125000000000000e+00	 7.812499999999996e+00	 9.955926100000001e+00
0	 2.125000000000000e+00	 7.874999999999998e+00	 9.958074782769238e+00
0	 2.125000000000000e+00	 7.937499999999998e+00	 9.960256406461532e+00
0	 2.125000000000000e+00	 7.999999999999998e+00	 9.962470971076932e+00
0	 2.125000000000000e+00	 8.062499999999998e+00	 9.964718476615390e+00
0	 2.125000000000000e+00	 8.125000000000002e+00	 9.966998923076931e+00
0	 2.187500000000000e+00	 7.500000000000000e+00	 9.949520230769211e+00
0	 2.187500000000000e+00	 7.562500000000000e+00	 9.951357743076906e+00
0	 2.187500000000000e+00	 7.625000000000000e+00	 9.953224572307651e+00
0	 2.187500000000000e+00	 7.687500000000000e+00	 9.955120718461526e+00
0	 2.187500000000000e+00	 7.749999999999997e+00	 9.957046181538448e+00
0	 2.187500000000000e+00	 7.812500000000000e+00	 9.959000961538450e+00
0	 2.187500000000001e+00	 7.874999999999999e+00	 9.960985058461535e+00
0	 2.187500000000001e+00	 7.937499999999999e+00	 9.962998472307685e+00
0	 2.187500000000000e+00	 7.999999999999998e+00	 9.965041203076929e+00
0	 2.187500000000001e+00	 8.062500000000000e+00	 9.967113250769234e+00
0	 2.187500000000000e+00	 8.125000000000000e+00	 9.969214615384633e+00
0	 2.250000000000000e+00	 7.499999999999999e+00	 9.953371630769206e+00
0	 2.250000000000000e+00	 7.562500000000000e+00	 9.955063732615359e+00
0	 2.250000000000000e+00	 7.625000000000001e+00	 9.956781527384599e+00
0	 2.250000000000000e+00	 7.687499999999998e+00	 9.958525015076916e+00
0	 2.250000000000000e+00	 7.750000000000000e+00	 9.960294195692301e+00
0	 2.250000000000000e+00	 7.812499999999998e+00	 9.962089069230764e+00
0	 2.250000000000000e+00	 7.874999999999999e+00	 9.963909635692302e+00
0	 2.250000000000000e+00	 7.937499999999998e+00	 9.965755895076910e+00
0	 2.250000000000000e+00	 7.999999999999997e+00	 9.967627847384623e+00
0	 2.250000000000000e+00	 8.062499999999998e+00	 9.969525492615386e+00
0	 2.250000000000000e+00	 8.125000000000000e+00	 9.971448830769249e+00
0	 2.312500000000000e+00	 7.500000000000000e+00	 9.957230999999993e+00
0	 2.312500000000000e+00	 7.562500000000000e+00	 9.958778746769212e+00
0	 2.312500000000000e+00	 7.624999999999999e+00	 9.960348562461535e+00
0	 2.312500000000000e+00	 7.687499999999998e+00	 9.961940447076923e+00
0	 2.312500000000000e+00	 7.750000000000000e+00	 9.963554400615386e+00
0	 2.312500000000001e+00	 7.812500000000000e+00	 9.965190423076917e+00
0	 2.312500000000000e+00	 7.874999999999998e+00	 9.966848514461534e+00
0	 2.312500000000001e+00	 7.937500000000000e+00	 9.968528674769230e+00
0	 2.312500000000001e+00	 7.999999999999998e+00	 9.970230904000013e+00
0	 2.312500000000001e+00	 8.062500000000000e+00	 9.971955202153836e+00
0	 2.312500000000000e+00	 8.125000000000000e+00	 9.973701569230764e+00
0	 2.375000000000000e+00	 7.500000000000000e+00	 9.961098338461522e+00
0	 2.375000000000001e+00	 7.562499999999999e+00	 9.962502785538451e+00
0	 2.375000000000000e+00	 7.624999999999999e+00	 9.963925677538466e+00
0	 2.375000000000000e+00	 7.687500000000000e+00	 9.965367014461528e+00
0	 2.375000000000000e+00	 7.749999999999999e+00	 9.966826796307682e+00
0	 2.375000000000000e+00	 7.812499999999999e+00	 9.968305023076930e+00
0	 2.375000000000000e+00	 7.874999999999998e+00	 9.969801694769220e+00
0	 2.375000000000000e+00	 7.937499999999998e+00	 9.971316811384613e+00
0	 2.375000000000000e+00	 7.999999999999998e+00	 9.972850372923059e+00
0	 2.375000000000000e+00	 8.062499999999996e+00	 9.974402379384602e+00
0	 2.375000000000000e+00	 8.125000000000000e+00	 9.975972830769232e+00
0	 2.437500000000000e+00	 7.500000000000000e+00	 9.964973646153844e+00
0	 2.437500000000000e+00	 7.562499999999998e+00	 9.966235848923066e+00
0	 2.437500000000000e+00	 7.625000000000000e+00	 9.967512872615368e+00
0	 2.437500000000000e+00	 7.687500000000000e+00	 9.968804717230768e+00
0	 2.437500000000001e+00	 7.750000000000000e+00	 9.970111382769225e+00
0	 2.437500000000000e+00	 7.812499999999998e+00	 9.971432869230757e+00
0	 2.437500000000000e+00	 7.874999999999998e+00	 9.972769176615385e+00
0	 2.437500000000000e+00	 7.937499999999998e+00	 9.974120304923074e+00
0	 2.437500000000000e+00	 7.999999999999999e+00	 9.975486254153848e+00
0	 2.437500000000000e+00	 8.062499999999998e+00	 9.976867024307698e+00
0	 2.437500000000000e+00	 8.125000000000000e+00	 9.978262615384619e+00
0	 2.500000000000000e+00	 7.500000000000000e+00	 9.968856923076915e+00
0	 2.500000000000000e+00	 7.562500000000000e+00	 9.969977936923069e+00
0	 2.500000000000000e+00	 7.625000000000000e+00	 9.971110147692311e+00
0	 2.500000000000000e+00	 7.687499999999999e+00	 9.972253555384604e+00
0	 2.500000000000000e+00	 7.750000000000000e+00	 9.973408160000002e+00
0	 2.500000000000000e+00	 7.812499999999999e+00	 9.974573961538447e+00
0	 2.500000000000000e+00	 7.874999999999998e+00	 9.975750959999989e+00
0	 2.500000000000000e+00	 7.937499999999997e+00	 9.976939155384608e+00
0	 2.500000000000000e+00	 7.999999999999998e+00	 9.978138547692309e+00
0	 2.500000000000000e+00	 8.062499999999996e+00	 9.979349136923066e+00
0	 2.500000000000000e+00	 8.125000000000000e+00	 9.980570923076920e+00
0	 1.875000000000000e+00	 8.125000000000000e+00	 9.958321384615388e+00
0	 1.875000000000000e+00	 8.187500000000000e+00	 9.960261703076920e+00
0	 1.875000000000000e+00	 8.250000000000002e+00	 9.962271335384600e+00
0	 1.875000000000000e+00	 8.312500000000000e+00	 9.964350281538469e+00
0	 1.875000000000000e+00	 8.374999999999998e+00	 9.966498541538469e+00
0	 1.875000000000000e+00	 8.437500000000000e+00	 9.968716115384620e+00
0	 1.875000000000000e+00	 8.500000000000000e+00	 9.971003003076929e+00
0	 1.875000000000000e+00	 8.562499999999998e+00	 9.973359204615384e+00
0	 1.875000000000000e+00	 8.625000000000000e+00	 9.975784720000004e+00
0	 1.875000000000000e+00	 8.687499999999998e+00	 9.978279549230772e+00
0	 1.875000000000000e+00	 8.750000000000000e+00	 9.980843692307701e+00
0	 1.937500000000000e+00	 8.125000000000002e+00	 9.960462984615400e+00
0	 1.937500000000000e+00	 8.187499999999998e+00	 9.962294128307704e+00
0	 1.937500000000000e+00	 8.250000000000000e+00	 9.964190937846162e+00
0	 1.937499999999999e+00	 8.312499999999996e+00	 9.966153413230769e+00
0	 1.937500000000000e+00	 8.374999999999998e+00	 9.968181554461539e+00
0	 1.937500000000000e+00	 8.437499999999996e+00	 9.970275361538469e+00
0	 1.937500000000000e+00	 8.500000000000002e+00	 9.972434834461545e+00
0	 1.937500000000000e+00	 8.562499999999998e+00	 9.974659973230764e+00
0	 1.937500000000000e+00	 8.624999999999998e+00	 9.976950777846172e+00
0	 1.937500000000000e+00	 8.687499999999996e+00	 9.979307248307705e+00
0	 1.937500000000000e+00	 8.750000000000002e+00	 9.981729384615406e+00
0	 2.000000000000000e+00	 8.125000000000000e+00	 9.962623107692306e+00
0	 2.000000000000000e+00	 8.187499999999996e+00	 9.964346153538459e+00
0	 2.000000000000000e+00	 8.250000000000000e+00	 9.966131217230776e+00
0	 2.000000000000000e+00	 8.312500000000002e+00	 9.967978298769230e+00
0	 2.000000000000000e+00	 8.375000000000000e+00	 9.969887398153846e+00
0	 2.000000000000000e+00	 8.437500000000000e+00	 9.971858515384628e+00
0	 2.000000000000000e+00	 8.499999999999996e+00	 9.973891650461544e+00
0	 2.000000000000000e+00	 8.562500000000000e+00	 9.975986803384608e+00
0	 2.000000000000000e+00	 8.624999999999998e+00	 9.978143974153841e+00
0	 2.000000000000000e+00	 8.687499999999998e+00	 9.980363162769240e+00
0	 2.000000000000000e+00	 8.749999999999998e+00	 9.982644369230796e+00
0	 2.062500000000000e+00	 8.124999999999998e+00	 9.964801753846176e+00
0	 2.062500000000000e+00	 8.187499999999998e+00	 9.966417778769234e+00
0	 2.062500000000000e+00	 8.250000000000002e+00	 9.968092173538455e+00
0	 2.062500000000000e+00	 8.312500000000000e+00	 9.969824938153851e+00
0	 2.062500000000000e+00	 8.374999999999998e+00	 9.971616072615387e+00
0	 2.062500000000000e+00	 8.437499999999998e+00	 9.973465576923065e+00
0	 2.062500000000000e+00	 8.500000000000000e+00	 9.975373451076933e+00
0	 2.062500000000000e+00	 8.562499999999998e+00	 9.977339695076930e+00
0	 2.062500000000000e+00	 8.624999999999998e+00	 9.979364308923088e+00
0	 2.062500000000000e+00	 8.687499999999996e+00	 9.981447292615393e+00
0	 2.062500000000000e+00	 8.750000000000000e+00	 9.983588646153844e+00
0	 2.125000000000000e+00	 8.125000000000002e+00	 9.966998923076931e+00
0	 2.125000000000001e+00	 8.187500000000002e+00	 9.968509004000012e+00
0	 2.125000000000000e+00	 8.250000000000000e+00	 9.970073806769239e+00
0	 2.125000000000000e+00	 8.312500000000000e+00	 9.971693331384628e+00
0	 2.125000000000000e+00	 8.375000000000000e+00	 9.973367577846162e+00
0	 2.125000000000000e+00	 8.437499999999998e+00	 9.975096546153853e+00
0	 2.125000000000000e+00	 8.500000000000000e+00	 9.976880236307700e+00
0	 2.125000000000000e+00	 8.562499999999998e+00	 9.978718648307694e+00
0	 2.125000000000000e+00	 8.624999999999998e+00	 9.980611782153838e+00
0	 2.125000000000000e+00	 8.687499999999998e+00	 9.982559637846148e+00
0	 2.125000000000000e+00	 8.750000000000000e+00	 9.984562215384633e+00
0	 2.187500000000000e+00	 8.125000000000000e+00	 9.969214615384633e+00
0	 2.187500000000000e+00	 8.187500000000000e+00	 9.970619829230774e+00
0	 2.187500000000000e+00	 8.250000000000000e+00	 9.972076116923079e+00
0	 2.187500000000000e+00	 8.312500000000000e+00	 9.973583478461537e+00
0	 2.187500000000000e+00	 8.374999999999998e+00	 9.975141913846162e+00
0	 2.187500000000000e+00	 8.437500000000002e+00	 9.976751423076907e+00
0	 2.187500000000001e+00	 8.500000000000000e+00	 9.978412006153841e+00
0	 2.187500000000001e+00	 8.562500000000000e+00	 9.980123663076935e+00
0	 2.187500000000000e+00	 8.625000000000000e+00	 9.981886393846171e+00
0	 2.187500000000001e+00	 8.687499999999998e+00	 9.983700198461513e+00
0	 2.187500000000000e+00	 8.750000000000002e+00	 9.985565076923066e+00
0	 2.250000000000000e+00	 8.125000000000000e+00	 9.971448830769249e+00
0	 2.250000000000000e+00	 8.187500000000002e+00	 9.972750254461527e+00
0	 2.250000000000000e+00	 8.250000000000000e+00	 9.974099104000011e+00
0	 2.250000000000000e+00	 8.312499999999998e+00	 9.975495379384622e+00
0	 2.250000000000000e+00	 8.375000000000000e+00	 9.976939080615381e+00
0	 2.250000000000000e+00	 8.437500000000000e+00	 9.978430207692307e+00
0	 2.250000000000000e+00	 8.500000000000000e+00	 9.979968760615396e+00
0	 2.250000000000000e+00	 8.562499999999998e+00	 9.981554739384622e+00
0	 2.250000000000000e+00	 8.624999999999998e+00	 9.983188143999996e+00
0	 2.250000000000000e+00	 8.687499999999998e+00	 9.984868974461500e+00
0	 2.250000000000000e+00	 8.750000000000000e+00	 9.986597230769213e+00
0	 2.312500000000000e+00	 8.125000000000000e+00	 9.973701569230764e+00
0	 2.312500000000000e+00	 8.187500000000000e+00	 9.974900279692298e+00
0	 2.312500000000000e+00	 8.249999999999998e+00	 9.976142768000003e+00
0	 2.312500000000000e+00	 8.312500000000000e+00	 9.977429034153866e+00
0	 2.312500000000000e+00	 8.374999999999998e+00	 9.978759078153846e+00
0	 2.312500000000001e+00	 8.437500000000000e+00	 9.980132900000006e+00
0	 2.312500000000000e+00	 8.499999999999998e+00	 9.981550499692329e+00
0	 2.312500000000001e+00	 8.562500000000000e+00	 9.983011877230762e+00
0	 2.312500000000001e+00	 8.624999999999998e+00	 9.984517032615393e+00
0	 2.312500000000001e+00	 8.687500000000000e+00	 9.986065965846169e+00
0	 2.312500000000000e+00	 8.750000000000000e+00	 9.987658676923090e+00
0	 2.375000000000000e+00	 8.125000000000000e+00	 9.975972830769232e+00
0	 2.375000000000001e+00	 8.187500000000000e+00	 9.977069904923081e+00
0	 2.375000000000000e+00	 8.250000000000000e+00	 9.978207108923080e+00
0	 2.375000000000000e+00	 8.312499999999998e+00	 9.979384442769241e+00
0	 2.375000000000000e+00	 8.375000000000000e+00	 9.980601906461541e+00
0	 2.375000000000000e+00	 8.437500000000000e+00	 9.981859499999995e+00
0	 2.375000000000000e+00	 8.499999999999998e+00	 9.983157223384616e+00
0	 2.375000000000000e+00	 8.562499999999998e+00	 9.984495076615376e+00
0	 2.375000000000000e+00	 8.624999999999998e+00	 9.985873059692308e+00
0	 2.375000000000000e+00	 8.687499999999998e+00	 9.987291172615382e+00
0	 2.375000000000000e+00	 8.750000000000000e+00	 9.988749415384595e+00
0	 2.437500000000000e+00	 8.125000000000000e+00	 9.978262615384619e+00
0	 2.437500000000000e+00	 8.187499999999998e+00	 9.979259130153849e+00
0	 2.437500000000000e+00	 8.250000000000000e+00	 9.980292126769230e+00
0	 2.437500000000000e+00	 8.312499999999998e+00	 9.981361605230775e+00
0	 2.437500000000001e+00	 8.375000000000000e+00	 9.982467565538467e+00
0	 2.437500000000000e+00	 8.437499999999998e+00	 9.983610007692304e+00
0	 2.437500000000000e+00	 8.499999999999998e+00	 9.984788931692297e+00
0	 2.437500000000000e+00	 8.562499999999998e+00	 9.986004337538473e+00
0	 2.437500000000000e+00	 8.624999999999998e+00	 9.987256225230782e+00
0	 2.437500000000000e+00	 8.687500000000000e+00	 9.988544594769245e+00
0	 2.437500000000000e+00	 8.750000000000000e+00	 9.989869446153858e+00
0	 2.500000000000000e+00	 8.125000000000000e+00	 9.980570923076920e+00
0	 2.500000000000000e+00	 8.187500000000000e+00	 9.981467955384616e+00
0	 2.500000000000000e+00	 8.250000000000002e+00	 9.982397821538438e+00
0	 2.500000000000000e+00	 8.312500000000000e+00	 9.983360521538462e+00
0	 2.500000000000000e+00	 8.374999999999998e+00	 9.984356055384611e+00
0	 2.500000000000000e+00	 8.437500000000000e+00	 9.985384423076921e+00
0	 2.500000000000000e+00	 8.500000000000000e+00	 9.986445624615385e+00
0	 2.500000000000000e+00	 8.562499999999998e+00	 9.987539659999991e+00
0	 2.500000000000000e+00	 8.625000000000000e+00	 9.988666529230764e+00
0	 2.500000000000000e+00	 8.687499999999998e+00	 9.989826232307689e+00
0	 2.500000000000000e+00	 8.750000000000000e+00	 9.991018769230774e+00
0	 1.875000000000000e+00	 8.750000000000000e+00	 9.980843692307701e+00
0	 1.875000000000000e+00	 8.812500000000000e+00	 9.981965016923084e+00
0	 1.875000000000000e+00	 8.875000000000002e+00	 9.983185544615399e+00
0	 1.875000000000000e+00	 8.937499999999998e+00	 9.984505275384604e+00
0	 1.875000000000000e+00	 9.000000000000000e+00	 9.985924209230776e+00
0	 1.875000000000000e+00	 9.062500000000000e+00	 9.987442346153840e+00
0	 1.875000000000000e+00	 9.124999999999998e+00	 9.989059686153844e+00
0	 1.875000000000000e+00	 9.187499999999998e+00	 9.990776229230756e+00
0	 1.875000000000000e+00	 9.249999999999998e+00	 9.992591975384597e+00
0	 1.875000000000000e+00	 9.312499999999998e+00	 9.994506924615354e+00
0	 1.875000000000000e+00	 9.375000000000000e+00	 9.996521076923070e+00
0	 1.937500000000000e+00	 8.750000000000002e+00	 9.981729384615406e+00
0	 1.937500000000000e+00	 8.812499999999996e+00	 9.982786959384606e+00
0	 1.937500000000000e+00	 8.874999999999998e+00	 9.983938828307689e+00
0	 1.937499999999999e+00	 8.937499999999998e+00	 9.985184991384617e+00
0	 1.937500000000000e+00	 8.999999999999998e+00	 9.986525448615398e+00
0	 1.937500000000000e+00	 9.062499999999996e+00	 9.987960199999989e+00
0	 1.937500000000000e+00	 9.124999999999998e+00	 9.989489245538461e+00
0	 1.937500000000000e+00	 9.187499999999996e+00	 9.991112585230773e+00
0	 1.937500000000000e+00	 9.249999999999998e+00	 9.992830219076922e+00
0	 1.937500000000000e+00	 9.312499999999998e+00	 9.994642147076938e+00
0	 1.937500000000000e+00	 9.375000000000000e+00	 9.996548369230748e+00
0	 2.000000000000000e+00	 8.749999999999998e+00	 9.982644369230796e+00
0	 2.000000000000000e+00	 8.812499999999998e+00	 9.983638926461532e+00
0	 2.000000000000000e+00	 8.875000000000002e+00	 9.984722868923058e+00
0	 2.000000000000000e+00	 8.937499999999998e+00	 9.985896196615382e+00
0	 2.000000000000000e+00	 8.999999999999998e+00	 9.987158909538461e+00
0	 2.000000000000000e+00	 9.062499999999998e+00	 9.988511007692299e+00
0	 2.000000000000000e+00	 9.125000000000000e+00	 9.989952491076927e+00
0	 2.000000000000000e+00	 9.187499999999998e+00	 9.991483359692316e+00
0	 2.000000000000000e+00	 9.249999999999996e+00	 9.993103613538473e+00
0	 2.000000000000000e+00	 9.312499999999996e+00	 9.994813252615382e+00
0	 2.000000000000000e+00	 9.375000000000000e+00	 9.996612276923067e+00
0	 2.062500000000000e+00	 8.750000000000000e+00	 9.983588646153844e+00
0	 2.062500000000000e+00	 8.812499999999998e+00	 9.984520918153827e+00
0	 2.062500000000000e+00	 8.875000000000000e+00	 9.985537666461539e+00
0	 2.062500000000000e+00	 8.937500000000002e+00	 9.986638891076923e+00
0	 2.062500000000000e+00	 8.999999999999996e+00	 9.987824592000013e+00
0	 2.062500000000000e+00	 9.062499999999998e+00	 9.989094769230766e+00
0	 2.062500000000000e+00	 9.124999999999998e+00	 9.990449422769245e+00
0	 2.062500000000000e+00	 9.187499999999998e+00	 9.991888552615393e+00
0	 2.062500000000000e+00	 9.249999999999998e+00	 9.993412158769246e+00
0	 2.062500000000000e+00	 9.312499999999998e+00	 9.995020241230762e+00
0	 2.062500000000000e+00	 9.375000000000002e+00	 9.996712799999999e+00
0	 2.125000000000000e+00	 8.750000000000000e+00	 9.984562215384633e+00
0	 2.125000000000001e+00	 8.812500000000004e+00	 9.985432934461544e+00
0	 2.125000000000000e+00	 8.875000000000000e+00	 9.986383220923070e+00
0	 2.125000000000000e+00	 8.937500000000000e+00	 9.987413074769238e+00
0	 2.125000000000000e+00	 9.000000000000000e+00	 9.988522495999995e+00
0	 2.125000000000000e+00	 9.062499999999998e+00	 9.989711484615379e+00
0	 2.125000000000000e+00	 9.125000000000000e+00	 9.990980040615376e+00
0	 2.125000000000000e+00	 9.187499999999998e+00	 9.992328164000018e+00
0	 2.125000000000000e+00	 9.250000000000000e+00	 9.993755854769216e+00
0	 2.125000000000000e+00	 9.312499999999998e+00	 9.995263112923080e+00
0	 2.125000000000000e+00	 9.375000000000002e+00	 9.996849938461507e+00
0	 2.187500000000000e+00	 8.750000000000002e+00	 9.985565076923066e+00
0	 2.187500000000000e+00	 8.812500000000000e+00	 9.986374975384635e+00
0	 2.187500000000000e+00	 8.874999999999998e+00	 9.987259532307680e+00
0	 2.187500000000000e+00	 8.937500000000000e+00	 9.988218747692299e+00
0	 2.187500000000000e+00	 8.999999999999998e+00	 9.989252621538460e+00
0	 2.187500000000000e+00	 9.062500000000002e+00	 9.990361153846152e+00
0	 2.187500000000001e+00	 9.124999999999998e+00	 9.991544344615361e+00
0	 2.187500000000001e+00	 9.187499999999998e+00	 9.992802193846151e+00
0	 2.187500000000000e+00	 9.249999999999998e+00	 9.994134701538439e+00
0	 2.187500000000001e+00	 9.312499999999998e+00	 9.995541867692303e+00
0	 2.187500000000000e+00	 9.375000000000002e+00	 9.997023692307689e+00
0	 2.250000000000000e+00	 8.750000000000000e+00	 9.986597230769213e+00
0	 2.250000000000000e+00	 8.812500000000000e+00	 9.987347040923062e+00
0	 2.250000000000000e+00	 8.874999999999998e+00	 9.988166600615385e+00
0	 2.250000000000000e+00	 8.937499999999998e+00	 9.989055909846163e+00
0	 2.250000000000000e+00	 9.000000000000000e+00	 9.990014968615370e+00
0	 2.250000000000000e+00	 9.062500000000000e+00	 9.991043776923078e+00
0	 2.250000000000000e+00	 9.124999999999998e+00	 9.992142334769223e+00
0	 2.250000000000000e+00	 9.187499999999998e+00	 9.993310642153851e+00
0	 2.250000000000000e+00	 9.249999999999998e+00	 9.994548699076907e+00
0	 2.250000000000000e+00	 9.312499999999998e+00	 9.995856505538473e+00
0	 2.250000000000000e+00	 9.374999999999998e+00	 9.997234061538496e+00
0	 2.312500000000000e+00	 8.750000000000000e+00	 9.987658676923090e+00
0	 2.312500000000000e+00	 8.812500000000000e+00	 9.988349131076902e+00
0	 2.312500000000000e+00	 8.875000000000000e+00	 9.989104425846140e+00
0	 2.312500000000000e+00	 8.937499999999998e+00	 9.989924561230765e+00
0	 2.312500000000000e+00	 8.999999999999998e+00	 9.990809537230762e+00
0	 2.312500000000001e+00	 9.062499999999998e+00	 9.991759353846149e+00
0	 2.312500000000000e+00	 9.124999999999998e+00	 9.992774011076923e+00
0	 2.312500000000001e+00	 9.187500000000000e+00	 9.993853508923072e+00
0	 2.312500000000001e+00	 9.249999999999998e+00	 9.994997847384600e+00
0	 2.312500000000001e+00	 9.312500000000000e+00	 9.996207026461555e+00
0	 2.312500000000000e+00	 9.375000000000000e+00	 9.997481046153839e+00
0	 2.375000000000000e+00	 8.750000000000000e+00	 9.988749415384595e+00
0	 2.375000000000001e+00	 8.812500000000000e+00	 9.989381245846166e+00
0	 2.375000000000000e+00	 8.874999999999998e+00	 9.990073007999996e+00
0	 2.375000000000000e+00	 8.937500000000000e+00	 9.990824701846162e+00
0	 2.375000000000000e+00	 9.000000000000002e+00	 9.991636327384606e+00
0	 2.375000000000000e+00	 9.062499999999998e+00	 9.992507884615392e+00
0	 2.375000000000000e+00	 9.124999999999998e+00	 9.993439373538457e+00
0	 2.375000000000000e+00	 9.187499999999996e+00	 9.994430794153848e+00
0	 2.375000000000000e+00	 9.250000000000000e+00	 9.995482146461560e+00
0	 2.375000000000000e+00	 9.312499999999996e+00	 9.996593430461516e+00
0	 2.375000000000000e+00	 9.375000000000000e+00	 9.997764646153838e+00
0	 2.437500000000000e+00	 8.750000000000000e+00	 9.989869446153858e+00
0	 2.437500000000000e+00	 8.812499999999998e+00	 9.990443385230767e+00
0	 2.437500000000000e+00	 8.875000000000000e+00	 9.991072347076933e+00
0	 2.437500000000000e+00	 8.937499999999998e+00	 9.991756331692306e+00
0	 2.437500000000001e+00	 9.000000000000000e+00	 9.992495339076921e+00
0	 2.437500000000000e+00	 9.062499999999998e+00	 9.993289369230769e+00
0	 2.437500000000000e+00	 9.124999999999998e+00	 9.994138422153855e+00
0	 2.437500000000000e+00	 9.187499999999998e+00	 9.995042497846161e+00
0	 2.437500000000000e+00	 9.249999999999998e+00	 9.996001596307689e+00
0	 2.437500000000000e+00	 9.312499999999998e+00	 9.997015717538462e+00
0	 2.437500000000000e+00	 9.375000000000000e+00	 9.998084861538459e+00
0	 2.500000000000000e+00	 8.750000000000000e+00	 9.991018769230774e+00
0	 2.500000000000000e+00	 8.812500000000000e+00	 9.991535549230754e+00
0	 2.500000000000000e+00	 8.875000000000002e+00	 9.992102443076934e+00
0	 2.500000000000000e+00	 8.937499999999998e+00	 9.992719450769222e+00
0	 2.500000000000000e+00	 9.000000000000000e+00	 9.993386572307694e+00
0	 2.500000000000000e+00	 9.062500000000000e+00	 9.994103807692316e+00
0	 2.500000000000000e+00	 9.124999999999998e+00	 9.994871156923068e+00
0	 2.500000000000000e+00	 9.187499999999998e+00	 9.995688620000003e+00
0	 2.500000000000000e+00	 9.249999999999998e+00	 9.996556196923066e+00
0	 2.500000000000000e+00	 9.312499999999998e+00	 9.997473887692294e+00
0	 2.500000000000000e+00	 9.375000000000000e+00	 9.998441692307697e+00
0	 1.875000000000000e+00	 9.375000000000000e+00	 9.996521076923070e+00
0	 1.875000000000000e+00	 9.437499999999998e+00	 9.996522235384610e+00
0	 1.875000000000000e+00	 9.500000000000000e+00	 9.996660664615369e+00
0	 1.875000000000000e+00	 9.562500000000000e+00	 9.996936364615383e+00
0	 1.875000000000000e+00	 9.625000000000000e+00	 9.997349335384603e+00
0	 1.875000000000000e+00	 9.687499999999998e+00	 9.997899576923082e+00
0	 1.875000000000000e+00	 9.749999999999998e+00	 9.998587089230760e+00
0	 1.875000000000000e+00	 9.812500000000000e+00	 9.999411872307666e+00
0	 1.875000000000000e+00	 9.875000000000000e+00	 1.000037392615385e+01
0	 1.875000000000000e+00	 9.937499999999998e+00	 1.000147325076923e+01
0	 1.875000000000000e+00	 1.000000000000000e+01	 1.000270984615385e+01
0	 1.937500000000000e+00	 9.375000000000000e+00	 9.996548369230748e+00
0	 1.937500000000000e+00	 9.437499999999998e+00	 9.996542810461509e+00
0	 1.937500000000000e+00	 9.500000000000000e+00	 9.996667291076911e+00
0	 1.937500000000000e+00	 9.562500000000000e+00	 9.996921811076929e+00
0	 1.937500000000000e+00	 9.625000000000000e+00	 9.997306370461542e+00
0	 1.937500000000000e+00	 9.687499999999996e+00	 9.997820969230760e+00
0	 1.937500000000000e+00	 9.749999999999998e+00	 9.998465607384610e+00
0	 1.937500000000000e+00	 9.812500000000000e+00	 9.999240284923101e+00
0	 1.937500000000000e+00	 9.874999999999998e+00	 1.000014500184612e+01
0	 1.937500000000000e+00	 9.937499999999996e+00	 1.000117975815384e+01
0	 1.937500000000000e+00	 1.000000000000000e+01	 1.000234455384619e+01
0	 2.000000000000000e+00	 9.375000000000000e+00	 9.996612276923067e+00
0	 2.000000000000000e+00	 9.437499999999998e+00	 9.996601207076932e+00
0	 2.000000000000000e+00	 9.499999999999998e+00	 9.996712945230765e+00
0	 2.000000000000001e+00	 9.562500000000000e+00	 9.996947491384613e+00
0	 2.000000000000000e+00	 9.624999999999998e+00	 9.997304845538457e+00
0	 2.000000000000000e+00	 9.687499999999998e+00	 9.997785007692295e+00
0	 2.000000000000000e+00	 9.750000000000000e+00	 9.998387977846129e+00
0	 2.000000000000000e+00	 9.812499999999998e+00	 9.999113755999961e+00
0	 2.000000000000000e+00	 9.874999999999996e+00	 9.999962342153840e+00
0	 2.000000000000000e+00	 9.937499999999998e+00	 1.000093373630767e+01
0	 2.000000000000000e+00	 1.000000000000000e+01	 1.000202793846154e+01
0	 2.062500000000000e+00	 9.375000000000002e+00	 9.996712799999999e+00
0	 2.062500000000000e+00	 9.437500000000000e+00	 9.996697425230748e+00
0	 2.062500000000000e+00	 9.499999999999998e+00	 9.996797627076926e+00
0	 2.062500000000000e+00	 9.562499999999998e+00	 9.997013405538469e+00
0	 2.062500000000000e+00	 9.624999999999998e+00	 9.997344760615386e+00
0	 2.062500000000000e+00	 9.687499999999998e+00	 9.997791692307686e+00
0	 2.062500000000000e+00	 9.749999999999996e+00	 9.998354200615394e+00
0	 2.062500000000000e+00	 9.812499999999996e+00	 9.999032285538430e+00
0	 2.062500000000000e+00	 9.875000000000000e+00	 9.999825947076966e+00
0	 2.062500000000000e+00	 9.937499999999998e+00	 1.000073518523079e+01
0	 2.062500000000000e+00	 1.000000000000000e+01	 1.000176000000002e+01
0	 2.125000000000000e+00	 9.375000000000002e+00	 9.996849938461507e+00
0	 2.125000000000000e+00	 9.437500000000000e+00	 9.996831464923078e+00
0	 2.125000000000000e+00	 9.499999999999998e+00	 9.996921336615381e+00
0	 2.125000000000001e+00	 9.562500000000000e+00	 9.997119553538440e+00
0	 2.125000000000000e+00	 9.625000000000002e+00	 9.997426115692317e+00
0	 2.125000000000000e+00	 9.687500000000000e+00	 9.997841023076914e+00
0	 2.125000000000000e+00	 9.750000000000000e+00	 9.998364275692273e+00
0	 2.125000000000000e+00	 9.812500000000002e+00	 9.998995873538458e+00
0	 2.125000000000000e+00	 9.874999999999998e+00	 9.999735816615381e+00
0	 2.125000000000000e+00	 9.937499999999996e+00	 1.000058410492307e+01
0	 2.125000000000000e+00	 1.000000000000000e+01	 1.000154073846147e+01
0	 2.187500000000000e+00	 9.375000000000002e+00	 9.997023692307689e+00
0	 2.187500000000000e+00	 9.437499999999998e+00	 9.997003326153850e+00
0	 2.187500000000000e+00	 9.499999999999996e+00	 9.997084073846123e+00
0	 2.187500000000000e+00	 9.562500000000000e+00	 9.997265935384599e+00
0	 2.187500000000000e+00	 9.624999999999998e+00	 9.997548910769234e+00
0	 2.187500000000000e+00	 9.687499999999998e+00	 9.997932999999998e+00
0	 2.187500000000000e+00	 9.749999999999998e+00	 9.998418203076906e+00
0	 2.187500000000000e+00	 9.812499999999998e+00	 9.999004519999987e+00
0	 2.187500000000000e+00	 9.874999999999998e+00	 9.999691950769215e+00
0	 2.187500000000000e+00	 9.937499999999998e+00	 1.000048049538459e+01
0	 2.187500000000000e+00	 1.000000000000000e+01	 1.000137015384618e+01
0	 2.250000000000000e+00	 9.374999999999998e+00	 9.997234061538496e+00
0	 2.250000000000000e+00	 9.437500000000002e+00	 9.997213008923081e+00
0	 2.250000000000000e+00	 9.499999999999998e+00	 9.997285838769232e+00
0	 2.250000000000000e+00	 9.562499999999998e+00	 9.997452551076901e+00
0	 2.250000000000000e+00	 9.624999999999998e+00	 9.997713145846152e+00
0	 2.250000000000000e+00	 9.687499999999998e+00	 9.998067623076956e+00
0	 2.250000000000000e+00	 9.750000000000000e+00	 9.998515982769216e+00
0	 2.250000000000001e+00	 9.812499999999998e+00	 9.999058224923107e+00
0	 2.250000000000000e+00	 9.875000000000000e+00	 9.999694349538434e+00
0	 2.250000000000000e+00	 9.937500000000000e+00	 1.000042435661537e+01
0	 2.250000000000000e+00	 1.000000000000000e+01	 1.000124824615384e+01
0	 2.312500000000000e+00	 9.375000000000000e+00	 9.997481046153839e+00
0	 2.312500000000001e+00	 9.437500000000002e+00	 9.997460513230759e+00
0	 2.312500000000001e+00	 9.500000000000000e+00	 9.997526631384609e+00
0	 2.312500000000000e+00	 9.562500000000000e+00	 9.997679400615386e+00
0	 2.312500000000000e+00	 9.624999999999998e+00	 9.997918820923079e+00
0	 2.312500000000000e+00	 9.687500000000000e+00	 9.998244892307682e+00
0	 2.312500000000000e+00	 9.750000000000000e+00	 9.998657614769218e+00
0	 2.312500000000001e+00	 9.812500000000000e+00	 9.999156988307686e+00
0	 2.312500000000000e+00	 9.874999999999996e+00	 9.999743012923064e+00
0	 2.312500000000000e+00	 9.937499999999998e+00	 1.000041568861538e+01
0	 2.312500000000000e+00	 1.000000000000000e+01	 1.000117501538463e+01
0	 2.375000000000000e+00	 9.375000000000000e+00	 9.997764646153838e+00
0	 2.375000000000000e+00	 9.437499999999998e+00	 9.997745839076901e+00
0	 2.375000000000000e+00	 9.500000000000000e+00	 9.997806451692288e+00
0	 2.375000000000000e+00	 9.562500000000000e+00	 9.997946484000007e+00
0	 2.375000000000000e+00	 9.625000000000000e+00	 9.998165936000005e+00
0	 2.375000000000000e+00	 9.687499999999998e+00	 9.998464807692290e+00
0	 2.375000000000000e+00	 9.749999999999998e+00	 9.998843099076900e+00
0	 2.375000000000000e+00	 9.812500000000000e+00	 9.999300810153791e+00
0	 2.375000000000000e+00	 9.874999999999998e+00	 9.999837940923015e+00
0	 2.375000000000001e+00	 9.937499999999998e+00	 1.000045449138461e+01
0	 2.375000000000000e+00	 1.000000000000000e+01	 1.000115046153845e+01
0	 2.437500000000000e+00	 9.375000000000000e+00	 9.998084861538459e+00
0	 2.437500000000000e+00	 9.437499999999998e+00	 9.998068986461544e+00
0	 2.437500000000001e+00	 9.500000000000000e+00	 9.998125299692312e+00
0	 2.437500000000000e+00	 9.562500000000000e+00	 9.998253801230774e+00
0	 2.437500000000000e+00	 9.624999999999996e+00	 9.998454491076918e+00
0	 2.437500000000000e+00	 9.687499999999998e+00	 9.998727369230764e+00
0	 2.437500000000001e+00	 9.750000000000000e+00	 9.999072435692318e+00
0	 2.437500000000000e+00	 9.812500000000000e+00	 9.999489690461544e+00
0	 2.437500000000000e+00	 9.874999999999998e+00	 9.999979133538433e+00
0	 2.437500000000000e+00	 9.937499999999996e+00	 1.000054076492306e+01
0	 2.437500000000000e+00	 1.000000000000000e+01	 1.000117458461533e+01
0	 2.500000000000000e+00	 9.375000000000000e+00	 9.998441692307697e+00
0	 2.500000000000000e+00	 9.437499999999998e+00	 9.998429955384623e+00
0	 2.500000000000000e+00	 9.500000000000000e+00	 9.998483175384626e+00
0	 2.500000000000000e+00	 9.562500000000000e+00	 9.998601352307679e+00
0	 2.500000000000000e+00	 9.625000000000000e+00	 9.998784486153838e+00
0	 2.500000000000000e+00	 9.687499999999998e+00	 9.999032576923081e+00
0	 2.500000000000000e+00	 9.749999999999998e+00	 9.999345624615376e+00
0	 2.500000000000000e+00	 9.812500000000000e+00	 9.999723629230761e+00
0	 2.500000000000000e+00	 9.875000000000000e+00	 1.000016659076924e+01
0	 2.500000000000000e+00	 9.937499999999998e+00	 1.000067450923076e+01
0	 2.500000000000000e+00	 1.000000000000000e+01	 1.000124738461536e+01
0	 2.500000000000000e+00	 0.000000000000000e+00	 1.204691692307692e+01
0	 2.500000000000000e+00	 6.250000000000000e-02	 1.194328952307692e+01
0	 2.500000000000000e+00	 1.250000000000000e-01	 1.184154483076923e+01
0	 2.500000000000000e+00	 1.875000000000000e-01	 1.174168284615384e+01
0	 2.500000000000000e+00	 2.500000000000000e-01	 1.164370356923077e+01
0	 2.500000000000000e+00	 3.125000000000000e-01	 1.154760700000000e+01
0	 2.500000000000000e+00	 3.750000000000000e-01	 1.145339313846154e+01
0	 2.500000000000000e+00	 4.374999999999999e-01	 1.136106198461538e+01
0	 2.500000000000001e+00	 5.000000000000000e-01	 1.127061353846154e+01
0	 2.500000000000000e+00	 5.624999999999999e-01	 1.118204780000000e+01
0	 2.500000000000000e+00	 6.250000000000000e-01	 1.109536476923077e+01
0	 2.562500000000000e+00	 0.000000000000000e+00	 1.172359500307692e+01
0	 2.562500000000000e+00	 6.249999999999999e-02	 1.166248077507692e+01
0	 2.562499999999999e+00	 1.250000000000000e-01	 1.160261607015384e+01
0	 2.562500000000000e+00	 1.875000000000000e-01	 1.154400088830769e+01
0	 2.562499999999999e+00	 2.500000000000000e-01	 1.148663522953846e+01
0	 2.562500000000000e+00	 3.125000000000001e-01	 1.143051909384615e+01
0	 2.562500000000000e+00	 3.749999999999999e-01	 1.137565248123077e+01
0	 2.562500000000000e+00	 4.374999999999999e-01	 1.132203539169230e+01
0	 2.562500000000001e+00	 5.000000000000000e-01	 1.126966782523077e+01
0	 2.562500000000000e+00	 5.625000000000000e-01	 1.121854978184616e+01
0	 2.562500000000000e+00	 6.250000000000000e-01	 1.116868126153846e+01
0	 2.625000000000000e+00	 0.000000000000000e+00	 1.143481422769231e+01
0	 2.625000000000000e+00	 6.250000000000000e-02	 1.141076020184615e+01
0	 2.625000000000000e+00	 1.250000000000000e-01	 1.138732251446154e+01
0	 2.625000000000000e+00	 1.875000000000000e-01	 1.136450116553846e+01
0	 2.625000000000000e+00	 2.500000000000001e-01	 1.134229615507692e+01
0	 2.624999999999999e+00	 3.125000000000000e-01	 1.132070748307692e+01
0	 2.625000000000000e+00	 3.749999999999999e-01	 1.129973514953847e+01
0	 2.625000000000000e+00	 4.375000000000000e-01	 1.127937915446154e+01
0	 2.625000000000000e+00	 4.999999999999999e-01	 1.125963949784615e+01
0	 2.625000000000000e+00	 5.625000000000000e-01	 1.124051617969231e+01
0	 2.625000000000000e+00	 6.249999999999999e-01	 1.122200920000000e+01
0	 2.687499999999999e+00	 0.000000000000000e+00	 1.118057459692308e+01
0	 2.687499999999999e+00	 6.250000000000000e-02	 1.118812780338462e+01
0	 2.687500000000000e+00	 1.250000000000000e-01	 1.119566416369231e+01
0	 2.687500000000000e+00	 1.875000000000001e-01	 1.120318367784615e+01
0	 2.687500000000000e+00	 2.500000000000001e-01	 1.121068634584615e+01
0	 2.687499999999999e+00	 3.125000000000000e-01	 1.121817216769231e+01
0	 2.687499999999999e+00	 3.749999999999999e-01	 1.122564114338461e+01
0	 2.687499999999999e+00	 4.374999999999999e-01	 1.123309327292308e+01
0	 2.687499999999999e+00	 4.999999999999999e-01	 1.124052855630769e+01
0	 2.687500000000000e+00	 5.625000000000001e-01	 1.124794699353846e+01
0	 2.687499999999999e+00	 6.249999999999999e-01	 1.125534858461538e+01
0	 2.750000000000000e+00	 0.000000000000000e+00	 1.096087611076923e+01
0	 2.749999999999999e+00	 6.250000000000000e-02	 1.099458357969231e+01
0	 2.749999999999998e+00	 1.250000000000000e-01	 1.102764101784616e+01
0	 2.749999999999999e+00	 1.875000000000000e-01	 1.106004842523077e+01
0	 2.749999999999999e+00	 2.500000000000000e-01	 1.109180580184615e+01
0	 2.750000000000000e+00	 3.125000000000000e-01	 1.112291314769231e+01
0	 2.750000000000000e+00	 3.750000000000000e-01	 1.115337046276923e+01
0	 2.750000000000000e+00	 4.375000000000000e-01	 1.118317774707692e+01
0	 2.749999999999999e+00	 4.999999999999999e-01	 1.121233500061538e+01
0	 2.750000000000000e+00	 5.625000000000000e-01	 1.124084222338461e+01
0	 2.749999999999999e+00	 6.250000000000001e-01	 1.126869941538461e+01
0	 2.812499999999999e+00	 0.000000000000000e+00	 1.077571876923077e+01
0	 2.812499999999999e+00	 6.249999999999998e-02	 1.083012753076923e+01
0	 2.812499999999999e+00	 1.250000000000000e-01	 1.088325307692307e+01
0	 2.812499999999999e+00	 1.875000000000000e-01	 1.093509540769231e+01
0	 2.812499999999999e+00	 2.499999999999999e-01	 1.098565452307692e+01
0	 2.812499999999999e+00	 3.125000000000000e-01	 1.103493042307692e+01
0	 2.812499999999999e+00	 3.750000000000000e-01	 1.108292310769231e+01
0	 2.812500000000000e+00	 4.375000000000000e-01	 1.112963257692308e+01
0	 2.812499999999999e+00	 4.999999999999999e-01	 1.117505883076923e+01
0	 2.812500000000000e+00	 5.625000000000001e-01	 1.121920186923077e+01
0	 2.812499999999999e+00	 6.250000000000000e-01	 1.126206169230769e+01
0	 2.874999999999999e+00	 0.000000000000000e+00	 1.062510257230770e+01
0	 2.874999999999999e+00	 6.249999999999999e-02	 1.069475965661539e+01
0	 2.874999999999999e+00	 1.250000000000000e-01	 1.076250034092307e+01
0	 2.874999999999998e+00	 1.875000000000001e-01	 1.082832462523077e+01
0	 2.874999999999999e+00	 2.500000000000001e-01	 1.089223250953846e+01
0	 2.874999999999999e+00	 3.125000000000001e-01	 1.095422399384615e+01
0	 2.874999999999999e+00	 3.749999999999999e-01	 1.101429907815385e+01
0	 2.874999999999999e+00	 4.375000000000000e-01	 1.107245776246154e+01
0	 2.874999999999999e+00	 4.999999999999998e-01	 1.112870004676923e+01
0	 2.874999999999999e+00	 5.624999999999999e-01	 1.118302593107692e+01
0	 2.874999999999999e+00	 6.250000000000001e-01	 1.123543541538461e+01
0	 2.937499999999999e+00	 0.000000000000000e+00	 1.050902752000000e+01
0	 2.937499999999999e+00	 6.250000000000000e-02	 1.058847995723077e+01
0	 2.937499999999999e+00	 1.250000000000000e-01	 1.066538280984616e+01
0	 2.937499999999999e+00	 1.875000000000000e-01	 1.073973607784616e+01
0	 2.937499999999999e+00	 2.500000000000000e-01	 1.081153976123077e+01
0	 2.937499999999999e+00	 3.125000000000001e-01	 1.088079386000000e+01
0	 2.937499999999999e+00	 3.750000000000000e-01	 1.094749837415385e+01
0	 2.937499999999999e+00	 4.375000000000000e-01	 1.101165330369231e+01
0	 2.937499999999999e+00	 4.999999999999999e-01	 1.107325864861538e+01
0	 2.937499999999998e+00	 5.625000000000000e-01	 1.113231440892307e+01
0	 2.937499999999999e+00	 6.249999999999999e-01	 1.118882058461539e+01
0	 2.999999999999998e+00	 0.000000000000000e+00	 1.042749361230769e+01
0	 2.999999999999999e+00	 6.249999999999999e-02	 1.051128843261539e+01
0	 2.999999999999999e+00	 1.250000000000000e-01	 1.059190048369231e+01
0	 2.999999999999998e+00	 1.875000000000001e-01	 1.066932976553846e+01
0	 2.999999999999998e+00	 2.500000000000000e-01	 1.074357627815385e+01
0	 2.999999999999998e+00	 3.124999999999999e-01	 1.081464002153846e+01
0	 2.999999999999998e+00	 3.749999999999999e-01	 1.088252099569231e+01
0	 2.999999999999998e+00	 4.375000000000000e-01	 1.094721920061538e+01
0	 2.999999999999998e+00	 4.999999999999999e-01	 1.100873463630769e+01
0	 2.999999999999999e+00	 5.625000000000000e-01	 1.106706730276923e+01
0	 2.999999999999998e+00	 6.250000000000000e-01	 1.112221720000000e+01
0	 3.062499999999998e+00	 0.000000000000000e+00	 1.038050084923077e+01
0	 3.062499999999999e+00	 6.250000000000000e-02	 1.046318508276923e+01
0	 3.062499999999998e+00	 1.250000000000000e-01	 1.054205336246154e+01
0	 3.062499999999999e+00	 1.875000000000000e-01	 1.061710568830770e+01
0	 3.062499999999997e+00	 2.499999999999999e-01	 1.068834206030769e+01
0	 3.062499999999998e+00	 3.125000000000000e-01	 1.075576247846154e+01
0	 3.062499999999998e+00	 3.750000000000000e-01	 1.081936694276923e+01
0	 3.062499999999998e+00	 4.375000000000000e-01	 1.087915545323077e+01
0	 3.062499999999997e+00	 4.999999999999999e-01	 1.093512800984615e+01
0	 3.062499999999998e+00	 5.625000000000000e-01	 1.098728461261539e+01
0	 3.062499999999998e+00	 6.250000000000000e-01	 1.103562526153846e+01
0	 3.125000000000000e+00	 0.000000000000000e+00	 1.036804923076923e+01
0	 3.125000000000000e+00	 6.250000000000000e-02	 1.044416990769231e+01
0	 3.125000000000000e+00	 1.250000000000000e-01	 1.051584144615385e+01
0	 3.125000000000000e+00	 1.875000000000000e-01	 1.058306384615384e+01
0	 3.125000000000001e+00	 2.500000000000000e-01	 1.064583710769230e+01
0	 3.125000000000000e+00	 3.125000000000000e-01	 1.070416123076923e+01
0	 3.125000000000000e+00	 3.750000000000000e-01	 1.075803621538461e+01
0	 3.125000000000000e+00	 4.374999999999999e-01	 1.080746206153846e+01
0	 3.125000000000000e+00	 5.000000000000000e-01	 1.085243876923077e+01
0	 3.125000000000000e+00	 5.624999999999999e-01	 1.089296633846153e+01
0	 3.125000000000000e+00	 6.250000000000000e-01	 1.092904476923077e+01
0	 2.500000000000000e+00	 6.250000000000000e-01	 1.109536476923077e+01
0	 2.500000000000000e+00	 6.875000000000000e-01	 1.114374940769231e+01
0	 2.500000000000000e+00	 7.500000000000002e-01	 1.119313507692308e+01
0	 2.500000000000000e+00	 8.125000000000002e-01	 1.124352177692308e+01
0	 2.500000000000000e+00	 8.750000000000002e-01	 1.129490950769230e+01
0	 2.500000000000000e+00	 9.375000000000002e-01	 1.134729826923077e+01
0	 2.500000000000000e+00	 1.000000000000000e+00	 1.140068806153846e+01
0	 2.500000000000000e+00	 1.062500000000000e+00	 1.145507888461539e+01
0	 2.500000000000000e+00	 1.125000000000001e+00	 1.151047073846154e+01
0	 2.500000000000000e+00	 1.187500000000000e+00	 1.156686362307692e+01
0	 2.500000000000000e+00	 1.250000000000000e+00	 1.162425753846154e+01
0	 2.562500000000000e+00	 6.250000000000000e-01	 1.116868126153846e+01
0	 2.562500000000000e+00	 6.875000000000001e-01	 1.119738611984615e+01
0	 2.562500000000000e+00	 7.500000000000001e-01	 1.122708917969230e+01
0	 2.562500000000000e+00	 8.125000000000002e-01	 1.125779044107692e+01
0	 2.562500000000000e+00	 8.750000000000003e-01	 1.128948990400000e+01
0	 2.562500000000000e+00	 9.375000000000003e-01	 1.132218756846154e+01
0	 2.562500000000000e+00	 1.000000000000000e+00	 1.135588343446154e+01
0	 2.562500000000000e+00	 1.062500000000000e+00	 1.139057750200000e+01
0	 2.562500000000000e+00	 1.125000000000000e+00	 1.142626977107693e+01
0	 2.562500000000000e+00	 1.187500000000000e+00	 1.146296024169231e+01
0	 2.562500000000000e+00	 1.250000000000000e+00	 1.150064891384615e+01
0	 2.625000000000000e+00	 6.249999999999999e-01	 1.122200920000000e+01
0	 2.625000000000000e+00	 6.875000000000001e-01	 1.123425848246154e+01
0	 2.625000000000000e+00	 7.500000000000002e-01	 1.124750313723077e+01
0	 2.625000000000000e+00	 8.125000000000001e-01	 1.126174316430769e+01
0	 2.625000000000000e+00	 8.750000000000003e-01	 1.127697856369231e+01
0	 2.625000000000000e+00	 9.375000000000003e-01	 1.129320933538462e+01
0	 2.625000000000000e+00	 1.000000000000000e+00	 1.131043547938462e+01
0	 2.625000000000000e+00	 1.062500000000000e+00	 1.132865699569231e+01
0	 2.625000000000000e+00	 1.125000000000000e+00	 1.134787388430770e+01
0	 2.625000000000000e+00	 1.187500000000001e+00	 1.136808614523077e+01
0	 2.625000000000000e+00	 1.250000000000000e+00	 1.138929377846154e+01
0	 2.687499999999999e+00	 6.249999999999999e-01	 1.125534858461538e+01
0	 2.687499999999999e+00	 6.875000000000000e-01	 1.125436649553846e+01
0	 2.687500000000000e+00	 7.500000000000000e-01	 1.125437694953846e+01
0	 2.687499999999999e+00	 8.125000000000002e-01	 1.125537994661538e+01
0	 2.687500000000000e+00	 8.750000000000002e-01	 1.125737548676923e+01
0	 2.687499999999999e+00	 9.375000000000002e-01	 1.126036357000000e+01
0	 2.687499999999999e+00	 1.000000000000000e+00	 1.126434419630769e+01
0	 2.687500000000000e+00	 1.062500000000000e+00	 1.126931736569231e+01
0	 2.687500000000000e+00	 1.125000000000000e+00	 1.127528307815384e+01
0	 2.687499999999999e+00	 1.187500000000000e+00	 1.128224133369230e+01
0	 2.687499999999999e+00	 1.250000000000000e+00	 1.129019213230769e+01
0	 2.749999999999999e+00	 6.250000000000001e-01	 1.126869941538461e+01
0	 2.750000000000000e+00	 6.875000000000000e-01	 1.125771015907692e+01
0	 2.750000000000000e+00	 7.500000000000000e-01	 1.124771061661538e+01
0	 2.749999999999999e+00	 8.125000000000001e-01	 1.123870078800000e+01
0	 2.749999999999999e+00	 8.750000000000003e-01	 1.123068067323077e+01
0	 2.749999999999999e+00	 9.375000000000000e-01	 1.122365027230769e+01
0	 2.749999999999999e+00	 1.000000000000000e+00	 1.121760958523077e+01
0	 2.749999999999999e+00	 1.062500000000000e+00	 1.121255861200000e+01
0	 2.749999999999999e+00	 1.125000000000000e+00	 1.120849735261538e+01
0	 2.750000000000000e+00	 1.187500000000000e+00	 1.120542580707693e+01
0	 2.749999999999999e+00	 1.250000000000000e+00	 1.120334397538461e+01
0	 2.812499999999999e+00	 6.250000000000000e-01	 1.126206169230769e+01
0	 2.812499999999998e+00	 6.875000000000000e-01	 1.124428947307692e+01
0	 2.812499999999999e+00	 7.500000000000001e-01	 1.122750413846153e+01
0	 2.812499999999999e+00	 8.125000000000002e-01	 1.121170568846154e+01
0	 2.812499999999999e+00	 8.750000000000003e-01	 1.119689412307692e+01
0	 2.812499999999999e+00	 9.375000000000002e-01	 1.118306944230769e+01
0	 2.812499999999999e+00	 1.000000000000000e+00	 1.117023164615384e+01
0	 2.812499999999999e+00	 1.062500000000000e+00	 1.115838073461538e+01
0	 2.812499999999999e+00	 1.125000000000000e+00	 1.114751670769230e+01
0	 2.812499999999998e+00	 1.187500000000001e+00	 1.113763956538461e+01
0	 2.812499999999999e+00	 1.250000000000000e+00	 1.112874930769230e+01
0	 2.874999999999999e+00	 6.250000000000001e-01	 1.123543541538461e+01
0	 2.874999999999999e+00	 6.874999999999999e-01	 1.121410443753846e+01
0	 2.875000000000000e+00	 7.500000000000003e-01	 1.119375751507692e+01
0	 2.874999999999999e+00	 8.125000000000000e-01	 1.117439464800000e+01
0	 2.874999999999998e+00	 8.750000000000001e-01	 1.115601583630770e+01
0	 2.874999999999999e+00	 9.375000000000003e-01	 1.113862108000000e+01
0	 2.874999999999999e+00	 1.000000000000000e+00	 1.112221037907693e+01
0	 2.874999999999998e+00	 1.062500000000000e+00	 1.110678373353847e+01
0	 2.874999999999999e+00	 1.125000000000000e+00	 1.109234114338461e+01
0	 2.874999999999999e+00	 1.187500000000000e+00	 1.107888260861538e+01
0	 2.874999999999999e+00	 1.250000000000000e+00	 1.106640812923077e+01
0	 2.937499999999999e+00	 6.249999999999999e-01	 1.118882058461539e+01
0	 2.937499999999999e+00	 6.875000000000000e-01	 1.116715505246154e+01
0	 2.937499999999999e+00	 7.500000000000002e-01	 1.114647074646154e+01
0	 2.937499999999999e+00	 8.125000000000000e-01	 1.112676766661539e+01
0	 2.937499999999998e+00	 8.750000000000002e-01	 1.110804581292307e+01
0	 2.937499999999999e+00	 9.375000000000004e-01	 1.109030518538462e+01
0	 2.937499999999998e+00	 1.000000000000000e+00	 1.107354578400000e+01
0	 2.937499999999999e+00	 1.062500000000001e+00	 1.105776760876923e+01
0	 2.937499999999999e+00	 1.125000000000000e+00	 1.104297065969231e+01
0	 2.937499999999999e+00	 1.187500000000000e+00	 1.102915493676923e+01
0	 2.937499999999999e+00	 1.250000000000000e+00	 1.101632044000000e+01
0	 2.999999999999998e+00	 6.250000000000000e-01	 1.112221720000000e+01
0	 2.999999999999999e+00	 6.875000000000000e-01	 1.110344131784615e+01
0	 2.999999999999998e+00	 7.500000000000000e-01	 1.108564383261538e+01
0	 2.999999999999998e+00	 8.125000000000001e-01	 1.106882474430769e+01
0	 2.999999999999998e+00	 8.750000000000003e-01	 1.105298405292308e+01
0	 2.999999999999998e+00	 9.375000000000002e-01	 1.103812175846154e+01
0	 2.999999999999999e+00	 1.000000000000001e+00	 1.102423786092307e+01
0	 2.999999999999998e+00	 1.062500000000000e+00	 1.101133236030769e+01
0	 2.999999999999998e+00	 1.125000000000000e+00	 1.099940525661538e+01
0	 2.999999999999998e+00	 1.187500000000000e+00	 1.098845654984616e+01
0	 2.999999999999998e+00	 1.250000000000000e+00	 1.097848624000000e+01
0	 3.062499999999998e+00	 6.250000000000000e-01	 1.103562526153846e+01
0	 3.062499999999999e+00	 6.875000000000002e-01	 1.102296323369231e+01
0	 3.062499999999998e+00	 7.500000000000001e-01	 1.101127677353846e+01
0	 3.062499999999998e+00	 8.125000000000001e-01	 1.100056588107692e+01
0	 3.062499999999998e+00	 8.750000000000002e-01	 1.099083055630769e+01
0	 3.062499999999998e+00	 9.375000000000002e-01	 1.098207079923077e+01
0	 3.062499999999998e+00	 1.000000000000000e+00	 1.097428660984615e+01
0	 3.062499999999998e+00	 1.062500000000000e+00	 1.096747798815384e+01
0	 3.062499999999997e+00	 1.125000000000000e+00	 1.096164493415384e+01
0	 3.062499999999998e+00	 1.187500000000000e+00	 1.095678744784615e+01
0	 3.062499999999998e+00	 1.250000000000000e+00	 1.095290552923077e+01
0	 3.125000000000000e+00	 6.250000000000000e-01	 1.092904476923077e+01
0	 3.125000000000000e+00	 6.875000000000000e-01	 1.092572080000000e+01
0	 3.125000000000000e+00	 7.500000000000002e-01	 1.092336956923076e+01
0	 3.125000000000000e+00	 8.125000000000002e-01	 1.092199107692307e+01
0	 3.125000000000000e+00	 8.750000000000002e-01	 1.092158532307692e+01
0	 3.125000000000000e+00	 9.375000000000002e-01	 1.092215230769231e+01
0	 3.125000000000000e+00	 1.000000000000000e+00	 1.092369203076923e+01
0	 3.125000000000000e+00	 1.062500000000000e+00	 1.092620449230769e+01
0	 3.125000000000000e+00	 1.125000000000001e+00	 1.092968969230769e+01
0	 3.125000000000000e+00	 1.187500000000000e+00	 1.093414763076923e+01
0	 3.125000000000000e+00	 1.250000000000000e+00	 1.093957830769231e+01
0	 2.500000000000000e+00	 1.250000000000000e+00	 1.162425753846154e+01
0	 2.500000000000000e+00	 1.312500000000000e+00	 1.154917909692307e+01
0	 2.500000000000000e+00	 1.375000000000000e+00	 1.148106897230769e+01
0	 2.500000000000000e+00	 1.437500000000000e+00	 1.141992716461539e+01
0	 2.500000000000000e+00	 1.500000000000000e+00	 1.136575367384615e+01
0	 2.500000000000000e+00	 1.562500000000000e+00	 1.131854850000000e+01
0	 2.500000000000000e+00	 1.625000000000000e+00	 1.127831164307692e+01
0	 2.500000000000000e+00	 1.687500000000000e+00	 1.124504310307693e+01
0	 2.500000000000000e+00	 1.750000000000001e+00	 1.121874288000000e+01
0	 2.500000000000000e+00	 1.812500000000000e+00	 1.119941097384615e+01
0	 2.500000000000000e+00	 1.875000000000000e+00	 1.118704738461538e+01
0	 2.562500000000000e+00	 1.250000000000000e+00	 1.150064891384615e+01
0	 2.562500000000000e+00	 1.312500000000000e+00	 1.143885822661538e+01
0	 2.562500000000000e+00	 1.375000000000000e+00	 1.138333616307692e+01
0	 2.562500000000000e+00	 1.437500000000000e+00	 1.133408272323077e+01
0	 2.562500000000000e+00	 1.500000000000000e+00	 1.129109790707692e+01
0	 2.562500000000000e+00	 1.562500000000000e+00	 1.125438171461538e+01
0	 2.562500000000000e+00	 1.625000000000000e+00	 1.122393414584616e+01
0	 2.562500000000000e+00	 1.687500000000000e+00	 1.119975520076923e+01
0	 2.562500000000000e+00	 1.750000000000000e+00	 1.118184487938461e+01
0	 2.562500000000000e+00	 1.812500000000000e+00	 1.117020318169231e+01
0	 2.562500000000000e+00	 1.875000000000000e+00	 1.116483010769231e+01
0	 2.625000000000000e+00	 1.250000000000000e+00	 1.138929377846154e+01
0	 2.625000000000000e+00	 1.312500000000000e+00	 1.133958283507693e+01
0	 2.625000000000000e+00	 1.375000000000000e+00	 1.129544082215385e+01
0	 2.625000000000000e+00	 1.437500000000000e+00	 1.125686773969231e+01
0	 2.625000000000000e+00	 1.500000000000000e+00	 1.122386358769231e+01
0	 2.625000000000000e+00	 1.562500000000000e+00	 1.119642836615385e+01
0	 2.625000000000000e+00	 1.625000000000000e+00	 1.117456207507693e+01
0	 2.625000000000000e+00	 1.687500000000000e+00	 1.115826471446154e+01
0	 2.625000000000000e+00	 1.750000000000001e+00	 1.114753628430769e+01
0	 2.625000000000000e+00	 1.812500000000001e+00	 1.114237678461539e+01
0	 2.625000000000000e+00	 1.875000000000000e+00	 1.114278621538461e+01
0	 2.687499999999999e+00	 1.250000000000000e+00	 1.129019213230769e+01
0	 2.687499999999999e+00	 1.312500000000000e+00	 1.125135292230770e+01
0	 2.687500000000000e+00	 1.375000000000000e+00	 1.121738294953846e+01
0	 2.687499999999999e+00	 1.437500000000000e+00	 1.118828221400000e+01
0	 2.687500000000000e+00	 1.500000000000000e+00	 1.116405071569231e+01
0	 2.687499999999999e+00	 1.562500000000000e+00	 1.114468845461539e+01
0	 2.687499999999999e+00	 1.625000000000000e+00	 1.113019543076923e+01
0	 2.687500000000000e+00	 1.687500000000000e+00	 1.112057164415385e+01
0	 2.687500000000000e+00	 1.750000000000000e+00	 1.111581709476923e+01
0	 2.687499999999999e+00	 1.812500000000000e+00	 1.111593178261538e+01
0	 2.687499999999999e+00	 1.875000000000000e+00	 1.112091570769232e+01
0	 2.749999999999999e+00	 1.250000000000000e+00	 1.120334397538461e+01
0	 2.750000000000000e+00	 1.312500000000000e+00	 1.117416848830770e+01
0	 2.750000000000000e+00	 1.375000000000000e+00	 1.114916254523077e+01
0	 2.749999999999999e+00	 1.437500000000000e+00	 1.112832614615385e+01
0	 2.749999999999999e+00	 1.500000000000000e+00	 1.111165929107693e+01
0	 2.749999999999999e+00	 1.562500000000000e+00	 1.109916198000001e+01
0	 2.749999999999999e+00	 1.625000000000001e+00	 1.109083421292308e+01
0	 2.749999999999999e+00	 1.687500000000000e+00	 1.108667598984615e+01
0	 2.749999999999999e+00	 1.750000000000001e+00	 1.108668731076924e+01
0	 2.750000000000000e+00	 1.812500000000000e+00	 1.109086817569231e+01
0	 2.749999999999999e+00	 1.875000000000000e+00	 1.109921858461538e+01
0	 2.812499999999999e+00	 1.250000000000000e+00	 1.112874930769230e+01
0	 2.812499999999998e+00	 1.312500000000000e+00	 1.110802953307692e+01
0	 2.812499999999999e+00	 1.375000000000000e+00	 1.109077960923077e+01
0	 2.812499999999999e+00	 1.437500000000000e+00	 1.107699953615384e+01
0	 2.812499999999999e+00	 1.500000000000000e+00	 1.106668931384616e+01
0	 2.812499999999999e+00	 1.562500000000000e+00	 1.105984894230769e+01
0	 2.812499999999999e+00	 1.625000000000000e+00	 1.105647842153846e+01
0	 2.812499999999999e+00	 1.687500000000000e+00	 1.105657775153846e+01
0	 2.812499999999999e+00	 1.750000000000000e+00	 1.106014693230770e+01
0	 2.812499999999998e+00	 1.812500000000000e+00	 1.106718596384616e+01
0	 2.812499999999999e+00	 1.875000000000000e+00	 1.107769484615385e+01
0	 2.874999999999999e+00	 1.250000000000000e+00	 1.106640812923077e+01
0	 2.874999999999999e+00	 1.312500000000000e+00	 1.105293605661539e+01
0	 2.875000000000000e+00	 1.375000000000000e+00	 1.104223414153846e+01
0	 2.874999999999999e+00	 1.437500000000000e+00	 1.103430238400000e+01
0	 2.874999999999998e+00	 1.500000000000000e+00	 1.102914078400000e+01
0	 2.874999999999999e+00	 1.562500000000000e+00	 1.102674934153846e+01
0	 2.874999999999999e+00	 1.625000000000000e+00	 1.102712805661539e+01
0	 2.874999999999998e+00	 1.687500000000000e+00	 1.103027692923078e+01
0	 2.874999999999999e+00	 1.750000000000000e+00	 1.103619595938461e+01
0	 2.874999999999999e+00	 1.812500000000000e+00	 1.104488514707693e+01
0	 2.874999999999999e+00	 1.875000000000000e+00	 1.105634449230770e+01
0	 2.937499999999999e+00	 1.250000000000000e+00	 1.101632044000000e+01
0	 2.937499999999999e+00	 1.312500000000000e+00	 1.100888805892307e+01
0	 2.937499999999999e+00	 1.375000000000000e+00	 1.100352614215385e+01
0	 2.937499999999999e+00	 1.437500000000000e+00	 1.100023468969230e+01
0	 2.937499999999998e+00	 1.500000000000001e+00	 1.099901370153846e+01
0	 2.937499999999999e+00	 1.562500000000000e+00	 1.099986317769231e+01
0	 2.937499999999998e+00	 1.625000000000000e+00	 1.100278311815385e+01
0	 2.937499999999999e+00	 1.687500000000000e+00	 1.100777352292308e+01
0	 2.937499999999999e+00	 1.750000000000000e+00	 1.101483439200000e+01
0	 2.937499999999999e+00	 1.812500000000000e+00	 1.102396572538462e+01
0	 2.937499999999999e+00	 1.875000000000000e+00	 1.103516752307693e+01
0	 2.999999999999998e+00	 1.250000000000000e+00	 1.097848624000000e+01
0	 2.999999999999999e+00	 1.312500000000000e+00	 1.097588554000000e+01
0	 2.999999999999998e+00	 1.375000000000000e+00	 1.097465561107692e+01
0	 2.999999999999998e+00	 1.437500000000000e+00	 1.097479645323077e+01
0	 2.999999999999998e+00	 1.500000000000000e+00	 1.097630806646154e+01
0	 2.999999999999998e+00	 1.562500000000000e+00	 1.097919045076923e+01
0	 2.999999999999999e+00	 1.625000000000001e+00	 1.098344360615384e+01
0	 2.999999999999998e+00	 1.687500000000000e+00	 1.098906753261538e+01
0	 2.999999999999998e+00	 1.750000000000000e+00	 1.099606223015384e+01
0	 2.999999999999998e+00	 1.812500000000001e+00	 1.100442769876923e+01
0	 2.999999999999998e+00	 1.875000000000000e+00	 1.101416393846154e+01
0	 3.062499999999998e+00	 1.250000000000000e+00	 1.095290552923077e+01
0	 3.062499999999999e+00	 1.312500000000000e+00	 1.095392849984615e+01
0	 3.062499999999998e+00	 1.375000000000000e+00	 1.095562254830769e+01
0	 3.062499999999998e+00	 1.437500000000000e+00	 1.095798767461538e+01
0	 3.062499999999998e+00	 1.500000000000000e+00	 1.096102387876923e+01
0	 3.062499999999998e+00	 1.562500000000000e+00	 1.096473116076923e+01
0	 3.062499999999998e+00	 1.625000000000000e+00	 1.096910952061538e+01
0	 3.062499999999998e+00	 1.687500000000000e+00	 1.097415895830769e+01
0	 3.062499999999997e+00	 1.750000000000000e+00	 1.097987947384615e+01
0	 3.062499999999998e+00	 1.812500000000000e+00	 1.098627106723077e+01
0	 3.062499999999998e+00	 1.875000000000000e+00	 1.099333373846154e+01
0	 3.125000000000000e+00	 1.250000000000000e+00	 1.093957830769231e+01
0	 3.125000000000000e+00	 1.312500000000000e+00	 1.094301693846153e+01
0	 3.125000000000000e+00	 1.375000000000000e+00	 1.094642695384615e+01
0	 3.125000000000000e+00	 1.437500000000000e+00	 1.094980835384616e+01
0	 3.125000000000000e+00	 1.500000000000000e+00	 1.095316113846154e+01
0	 3.125000000000000e+00	 1.562500000000000e+00	 1.095648530769231e+01
0	 3.125000000000000e+00	 1.625000000000000e+00	 1.095978086153846e+01
0	 3.125000000000000e+00	 1.687500000000000e+00	 1.096304780000000e+01
0	 3.125000000000000e+00	 1.750000000000001e+00	 1.096628612307692e+01
0	 3.125000000000000e+00	 1.812500000000000e+00	 1.096949583076923e+01
0	 3.125000000000000e+00	 1.875000000000000e+00	 1.097267692307692e+01
0	 2.500000000000000e+00	 1.875000000000000e+00	 1.118704738461538e+01
0	 2.500000000000000e+00	 1.937500000000000e+00	 1.114322640307692e+01
0	 2.500000000000000e+00	 2.000000000000000e+00	 1.109949712000001e+01
0	 2.500000000000000e+00	 2.062500000000000e+00	 1.105585953538461e+01
0	 2.500000000000000e+00	 2.125000000000000e+00	 1.101231364923077e+01
0	 2.500000000000000e+00	 2.187500000000000e+00	 1.096885946153846e+01
0	 2.500000000000000e+00	 2.250000000000000e+00	 1.092549697230769e+01
0	 2.500000000000000e+00	 2.312500000000000e+00	 1.088222618153846e+01
0	 2.500000000000000e+00	 2.375000000000001e+00	 1.083904708923078e+01
0	 2.500000000000000e+00	 2.437500000000001e+00	 1.079595969538461e+01
0	 2.500000000000000e+00	 2.500000000000000e+00	 1.075296400000000e+01
0	 2.562500000000000e+00	 1.875000000000000e+00	 1.116483010769231e+01
0	 2.562500000000000e+00	 1.937500000000000e+00	 1.112290591969231e+01
0	 2.562500000000000e+00	 2.000000000000000e+00	 1.108131614953846e+01
0	 2.562500000000000e+00	 2.062500000000000e+00	 1.104006079723077e+01
0	 2.562500000000000e+00	 2.125000000000001e+00	 1.099913986276923e+01
0	 2.562500000000000e+00	 2.187500000000000e+00	 1.095855334615385e+01
0	 2.562500000000000e+00	 2.250000000000000e+00	 1.091830124738462e+01
0	 2.562500000000000e+00	 2.312500000000000e+00	 1.087838356646154e+01
0	 2.562500000000000e+00	 2.375000000000000e+00	 1.083880030338461e+01
0	 2.562500000000000e+00	 2.437500000000000e+00	 1.079955145815384e+01
0	 2.562500000000000e+00	 2.500000000000000e+00	 1.076063703076923e+01
0	 2.625000000000000e+00	 1.875000000000000e+00	 1.114278621538461e+01
0	 2.625000000000000e+00	 1.937500000000000e+00	 1.110258789169231e+01
0	 2.625000000000000e+00	 2.000000000000000e+00	 1.106296670523077e+01
0	 2.625000000000000e+00	 2.062500000000000e+00	 1.102392265600001e+01
0	 2.625000000000000e+00	 2.125000000000000e+00	 1.098545574400000e+01
0	 2.625000000000000e+00	 2.187500000000001e+00	 1.094756596923077e+01
0	 2.625000000000000e+00	 2.250000000000000e+00	 1.091025333169231e+01
0	 2.625000000000000e+00	 2.312500000000000e+00	 1.087351783138461e+01
0	 2.625000000000000e+00	 2.375000000000000e+00	 1.083735946830769e+01
0	 2.625000000000000e+00	 2.437500000000000e+00	 1.080177824246153e+01
0	 2.625000000000000e+00	 2.500000000000000e+00	 1.076677415384615e+01
0	 2.687499999999999e+00	 1.875000000000000e+00	 1.112091570769232e+01
0	 2.687499999999999e+00	 1.937500000000000e+00	 1.108227231907692e+01
0	 2.687500000000000e+00	 2.000000000000000e+00	 1.104444878707692e+01
0	 2.687499999999999e+00	 2.062500000000000e+00	 1.100744511169231e+01
0	 2.687500000000000e+00	 2.125000000000001e+00	 1.097126129292307e+01
0	 2.687499999999999e+00	 2.187500000000000e+00	 1.093589733076923e+01
0	 2.687499999999999e+00	 2.250000000000000e+00	 1.090135322523076e+01
0	 2.687500000000000e+00	 2.312500000000000e+00	 1.086762897630769e+01
0	 2.687500000000000e+00	 2.375000000000000e+00	 1.083472458400000e+01
0	 2.687499999999999e+00	 2.437500000000000e+00	 1.080264004830769e+01
0	 2.687499999999999e+00	 2.500000000000000e+00	 1.077137536923077e+01
0	 2.749999999999999e+00	 1.875000000000000e+00	 1.109921858461538e+01
0	 2.750000000000000e+00	 1.937500000000000e+00	 1.106195920184615e+01
0	 2.750000000000000e+00	 2.000000000000000e+00	 1.102576239507692e+01
0	 2.749999999999999e+00	 2.062500000000000e+00	 1.099062816430770e+01
0	 2.749999999999999e+00	 2.125000000000000e+00	 1.095655650953846e+01
0	 2.749999999999999e+00	 2.187500000000000e+00	 1.092354743076923e+01
0	 2.749999999999999e+00	 2.250000000000000e+00	 1.089160092800000e+01
0	 2.749999999999999e+00	 2.312500000000000e+00	 1.086071700123076e+01
0	 2.749999999999999e+00	 2.375000000000000e+00	 1.083089565046153e+01
0	 2.750000000000000e+00	 2.437500000000000e+00	 1.080213687569230e+01
0	 2.749999999999999e+00	 2.500000000000000e+00	 1.077444067692308e+01
0	 2.812499999999999e+00	 1.875000000000000e+00	 1.107769484615385e+01
0	 2.812499999999998e+00	 1.937500000000000e+00	 1.104164854000000e+01
0	 2.812499999999999e+00	 2.000000000000000e+00	 1.100690752923077e+01
0	 2.812499999999999e+00	 2.062500000000000e+00	 1.097347181384615e+01
0	 2.812499999999999e+00	 2.125000000000000e+00	 1.094134139384615e+01
0	 2.812499999999999e+00	 2.187500000000000e+00	 1.091051626923077e+01
0	 2.812499999999999e+00	 2.250000000000000e+00	 1.088099644000000e+01
0	 2.812499999999999e+00	 2.312500000000001e+00	 1.085278190615385e+01
0	 2.812499999999999e+00	 2.375000000000000e+00	 1.082587266769230e+01
0	 2.812499999999998e+00	 2.437500000000000e+00	 1.080026872461538e+01
0	 2.812499999999999e+00	 2.500000000000000e+00	 1.077597007692308e+01
0	 2.874999999999999e+00	 1.875000000000000e+00	 1.105634449230770e+01
0	 2.874999999999999e+00	 1.937500000000000e+00	 1.102134033353846e+01
0	 2.875000000000000e+00	 2.000000000000000e+00	 1.098788418953846e+01
0	 2.874999999999999e+00	 2.062500000000000e+00	 1.095597606030769e+01
0	 2.874999999999998e+00	 2.125000000000000e+00	 1.092561594584615e+01
0	 2.874999999999999e+00	 2.187500000000000e+00	 1.089680384615384e+01
0	 2.874999999999999e+00	 2.250000000000000e+00	 1.086953976123076e+01
0	 2.874999999999998e+00	 2.312500000000000e+00	 1.084382369107692e+01
0	 2.874999999999999e+00	 2.375000000000001e+00	 1.081965563569230e+01
0	 2.874999999999999e+00	 2.437500000000000e+00	 1.079703559507692e+01
0	 2.874999999999999e+00	 2.500000000000000e+00	 1.077596356923077e+01
0	 2.937499999999999e+00	 1.875000000000000e+00	 1.103516752307693e+01
0	 2.937499999999999e+00	 1.937500000000000e+00	 1.100103458246153e+01
0	 2.937499999999999e+00	 2.000000000000001e+00	 1.096869237600000e+01
0	 2.937499999999999e+00	 2.062500000000000e+00	 1.093814090369231e+01
0	 2.937499999999998e+00	 2.125000000000001e+00	 1.090938016553845e+01
0	 2.937499999999999e+00	 2.187500000000000e+00	 1.088241016153846e+01
0	 2.937499999999998e+00	 2.250000000000000e+00	 1.085723089169231e+01
0	 2.937499999999999e+00	 2.312500000000001e+00	 1.083384235600000e+01
0	 2.937499999999999e+00	 2.375000000000000e+00	 1.081224455446153e+01
0	 2.937499999999999e+00	 2.437500000000000e+00	 1.079243748707692e+01
0	 2.937499999999999e+00	 2.500000000000000e+00	 1.077442115384615e+01
0	 2.999999999999998e+00	 1.875000000000000e+00	 1.101416393846154e+01
0	 2.999999999999999e+00	 1.937500000000000e+00	 1.098073128676923e+01
0	 2.999999999999998e+00	 2.000000000000000e+00	 1.094933208861539e+01
0	 2.999999999999998e+00	 2.062500000000000e+00	 1.091996634400000e+01
0	 2.999999999999998e+00	 2.125000000000000e+00	 1.089263405292307e+01
0	 2.999999999999998e+00	 2.187500000000000e+00	 1.086733521538461e+01
0	 2.999999999999999e+00	 2.250000000000000e+00	 1.084406983138461e+01
0	 2.999999999999998e+00	 2.312500000000000e+00	 1.082283790092307e+01
0	 2.999999999999998e+00	 2.375000000000000e+00	 1.080363942400000e+01
0	 2.999999999999998e+00	 2.437500000000001e+00	 1.078647440061539e+01
0	 2.999999999999998e+00	 2.500000000000000e+00	 1.077134283076923e+01
0	 3.062499999999998e+00	 1.875000000000000e+00	 1.099333373846154e+01
0	 3.062499999999999e+00	 1.937500000000000e+00	 1.096043044646154e+01
0	 3.062499999999998e+00	 2.000000000000000e+00	 1.092980332738461e+01
0	 3.062499999999998e+00	 2.062500000000000e+00	 1.090145238123077e+01
0	 3.062499999999998e+00	 2.125000000000000e+00	 1.087537760800000e+01
0	 3.062499999999998e+00	 2.187500000000000e+00	 1.085157900769230e+01
0	 3.062499999999998e+00	 2.250000000000000e+00	 1.083005658030769e+01
0	 3.062499999999998e+00	 2.312500000000000e+00	 1.081081032584615e+01
0	 3.062499999999997e+00	 2.375000000000000e+00	 1.079384024430769e+01
0	 3.062499999999998e+00	 2.437500000000000e+00	 1.077914633569230e+01
0	 3.062499999999998e+00	 2.500000000000000e+00	 1.076672859999999e+01
0	 3.125000000000000e+00	 1.875000000000000e+00	 1.097267692307692e+01
0	 3.125000000000000e+00	 1.937500000000000e+00	 1.094013206153846e+01
0	 3.125000000000000e+00	 2.000000000000000e+00	 1.091010609230770e+01
0	 3.125000000000000e+00	 2.062500000000000e+00	 1.088259901538461e+01
0	 3.125000000000000e+00	 2.125000000000000e+00	 1.085761083076924e+01
0	 3.125000000000000e+00	 2.187500000000000e+00	 1.083514153846154e+01
0	 3.125000000000000e+00	 2.250000000000000e+00	 1.081519113846153e+01
0	 3.125000000000000e+00	 2.312500000000000e+00	 1.079775963076923e+01
0	 3.125000000000000e+00	 2.375000000000001e+00	 1.078284701538463e+01
0	 3.125000000000000e+00	 2.437500000000001e+00	 1.077045329230769e+01
0	 3.125000000000000e+00	 2.500000000000000e+00	 1.076057846153846e+01
0	 2.500000000000000e+00	 2.500000000000000e+00	 1.075296400000000e+01
0	 2.500000000000000e+00	 2.562500000000000e+00	 1.071109703230770e+01
0	 2.500000000000000e+00	 2.625000000000000e+00	 1.067004105230770e+01
0	 2.500000000000000e+00	 2.687499999999999e+00	 1.062979605999999e+01
0	 2.500000000000000e+00	 2.750000000000000e+00	 1.059036205538461e+01
0	 2.500000000000000e+00	 2.812499999999999e+00	 1.055173903846154e+01
0	 2.500000000000000e+00	 2.874999999999999e+00	 1.051392700923076e+01
0	 2.500000000000000e+00	 2.937499999999998e+00	 1.047692596769231e+01
0	 2.500000000000000e+00	 2.999999999999998e+00	 1.044073591384615e+01
0	 2.500000000000000e+00	 3.062499999999998e+00	 1.040535684769232e+01
0	 2.500000000000000e+00	 3.125000000000000e+00	 1.037078876923077e+01
0	 2.562500000000000e+00	 2.500000000000000e+00	 1.076063703076923e+01
0	 2.562500000000000e+00	 2.562500000000000e+00	 1.072163697523076e+01
0	 2.562500000000000e+00	 2.624999999999999e+00	 1.068339658707692e+01
0	 2.562500000000000e+00	 2.687499999999999e+00	 1.064591586630769e+01
0	 2.562500000000000e+00	 2.750000000000000e+00	 1.060919481292308e+01
0	 2.562500000000000e+00	 2.812499999999999e+00	 1.057323342692308e+01
0	 2.562500000000000e+00	 2.875000000000000e+00	 1.053803170830769e+01
0	 2.562500000000000e+00	 2.937499999999999e+00	 1.050358965707693e+01
0	 2.562500000000000e+00	 2.999999999999999e+00	 1.046990727323077e+01
0	 2.562500000000000e+00	 3.062499999999997e+00	 1.043698455676923e+01
0	 2.562500000000000e+00	 3.125000000000000e+00	 1.040482150769230e+01
0	 2.625000000000000e+00	 2.500000000000000e+00	 1.076677415384615e+01
0	 2.624999999999999e+00	 2.562500000000000e+00	 1.073041864738462e+01
0	 2.625000000000000e+00	 2.625000000000000e+00	 1.069477148800000e+01
0	 2.625000000000000e+00	 2.687500000000000e+00	 1.065983267569230e+01
0	 2.625000000000000e+00	 2.749999999999999e+00	 1.062560221046154e+01
0	 2.625000000000000e+00	 2.812499999999999e+00	 1.059208009230769e+01
0	 2.625000000000000e+00	 2.874999999999999e+00	 1.055926632123077e+01
0	 2.625000000000000e+00	 2.937499999999999e+00	 1.052716089723077e+01
0	 2.625000000000000e+00	 2.999999999999998e+00	 1.049576382030770e+01
0	 2.625000000000000e+00	 3.062499999999999e+00	 1.046507509046154e+01
0	 2.625000000000000e+00	 3.125000000000000e+00	 1.043509470769231e+01
0	 2.687499999999999e+00	 2.500000000000000e+00	 1.077137536923077e+01
0	 2.687499999999999e+00	 2.562500000000000e+00	 1.073744204876922e+01
0	 2.687500000000000e+00	 2.625000000000000e+00	 1.070416575507692e+01
0	 2.687499999999999e+00	 2.687499999999999e+00	 1.067154648815384e+01
0	 2.687500000000000e+00	 2.749999999999999e+00	 1.063958424800000e+01
0	 2.687500000000000e+00	 2.812499999999999e+00	 1.060827903461539e+01
0	 2.687500000000000e+00	 2.874999999999999e+00	 1.057763084800000e+01
0	 2.687500000000000e+00	 2.937499999999999e+00	 1.054763968815385e+01
0	 2.687500000000000e+00	 2.999999999999999e+00	 1.051830555507693e+01
0	 2.687499999999999e+00	 3.062499999999998e+00	 1.048962844876924e+01
0	 2.687499999999999e+00	 3.125000000000000e+00	 1.046160836923077e+01
0	 2.749999999999999e+00	 2.500000000000000e+00	 1.077444067692308e+01
0	 2.750000000000000e+00	 2.562500000000000e+00	 1.074270717938461e+01
0	 2.750000000000000e+00	 2.625000000000000e+00	 1.071157938830769e+01
0	 2.749999999999999e+00	 2.687500000000000e+00	 1.068105730369230e+01
0	 2.750000000000000e+00	 2.750000000000000e+00	 1.065114092553846e+01
0	 2.749999999999999e+00	 2.812499999999999e+00	 1.062183025384616e+01
0	 2.749999999999999e+00	 2.874999999999999e+00	 1.059312528861538e+01
0	 2.749999999999999e+00	 2.937499999999998e+00	 1.056502602984616e+01
0	 2.750000000000000e+00	 2.999999999999999e+00	 1.053753247753847e+01
0	 2.749999999999999e+00	 3.062499999999998e+00	 1.051064463169231e+01
0	 2.749999999999999e+00	 3.125000000000000e+00	 1.048436249230770e+01
0	 2.812499999999999e+00	 2.500000000000000e+00	 1.077597007692308e+01
0	 2.812499999999999e+00	 2.562499999999999e+00	 1.074621403923077e+01
0	 2.812499999999999e+00	 2.625000000000000e+00	 1.071701238769230e+01
0	 2.812500000000000e+00	 2.687500000000000e+00	 1.068836512230770e+01
0	 2.812499999999999e+00	 2.749999999999999e+00	 1.066027224307692e+01
0	 2.812499999999999e+00	 2.812499999999999e+00	 1.063273375000000e+01
0	 2.812500000000000e+00	 2.874999999999999e+00	 1.060574964307693e+01
0	 2.812499999999999e+00	 2.937499999999998e+00	 1.057931992230770e+01
0	 2.812499999999999e+00	 2.999999999999998e+00	 1.055344458769230e+01
0	 2.812499999999999e+00	 3.062499999999998e+00	 1.052812363923078e+01
0	 2.812499999999999e+00	 3.125000000000000e+00	 1.050335707692308e+01
0	 2.874999999999999e+00	 2.500000000000000e+00	 1.077596356923077e+01
0	 2.874999999999999e+00	 2.562500000000000e+00	 1.074796262830768e+01
0	 2.874999999999999e+00	 2.625000000000000e+00	 1.072046475323077e+01
0	 2.874999999999999e+00	 2.687500000000000e+00	 1.069346994400000e+01
0	 2.874999999999999e+00	 2.750000000000000e+00	 1.066697820061539e+01
0	 2.874999999999999e+00	 2.812500000000000e+00	 1.064098952307693e+01
0	 2.874999999999999e+00	 2.874999999999999e+00	 1.061550391138461e+01
0	 2.874999999999999e+00	 2.937499999999999e+00	 1.059052136553847e+01
0	 2.874999999999999e+00	 2.999999999999999e+00	 1.056604188553847e+01
0	 2.874999999999999e+00	 3.062499999999998e+00	 1.054206547138463e+01
0	 2.874999999999999e+00	 3.125000000000000e+00	 1.051859212307692e+01
0	 2.937499999999999e+00	 2.500000000000000e+00	 1.077442115384615e+01
0	 2.937499999999999e+00	 2.562500000000000e+00	 1.074795294661538e+01
0	 2.937499999999999e+00	 2.625000000000000e+00	 1.072193648492308e+01
0	 2.937499999999999e+00	 2.687500000000000e+00	 1.069637176876923e+01
0	 2.937499999999998e+00	 2.749999999999999e+00	 1.067125879815384e+01
0	 2.937499999999999e+00	 2.812499999999999e+00	 1.064659757307692e+01
0	 2.937499999999999e+00	 2.874999999999999e+00	 1.062238809353846e+01
0	 2.937499999999998e+00	 2.937499999999998e+00	 1.059863035953846e+01
0	 2.937499999999999e+00	 2.999999999999998e+00	 1.057532437107692e+01
0	 2.937499999999999e+00	 3.062499999999998e+00	 1.055247012815386e+01
0	 2.937499999999999e+00	 3.125000000000000e+00	 1.053006763076924e+01
0	 2.999999999999998e+00	 2.500000000000000e+00	 1.077134283076923e+01
0	 2.999999999999999e+00	 2.562500000000001e+00	 1.074618499415384e+01
0	 2.999999999999998e+00	 2.625000000000000e+00	 1.072142758276923e+01
0	 2.999999999999999e+00	 2.687500000000000e+00	 1.069707059661538e+01
0	 2.999999999999999e+00	 2.749999999999999e+00	 1.067311403569230e+01
0	 2.999999999999999e+00	 2.812499999999999e+00	 1.064955790000000e+01
0	 2.999999999999998e+00	 2.874999999999999e+00	 1.062640218953846e+01
0	 2.999999999999998e+00	 2.937499999999998e+00	 1.060364690430769e+01
0	 2.999999999999998e+00	 2.999999999999998e+00	 1.058129204430769e+01
0	 2.999999999999998e+00	 3.062499999999998e+00	 1.055933760953847e+01
0	 2.999999999999998e+00	 3.125000000000000e+00	 1.053778360000000e+01
0	 3.062499999999998e+00	 2.500000000000000e+00	 1.076672859999999e+01
0	 3.062499999999998e+00	 2.562500000000000e+00	 1.074265877092307e+01
0	 3.062499999999998e+00	 2.625000000000000e+00	 1.071893804676923e+01
0	 3.062499999999998e+00	 2.687500000000000e+00	 1.069556642753847e+01
0	 3.062499999999998e+00	 2.749999999999999e+00	 1.067254391323077e+01
0	 3.062499999999998e+00	 2.812499999999999e+00	 1.064987050384615e+01
0	 3.062499999999998e+00	 2.874999999999999e+00	 1.062754619938462e+01
0	 3.062499999999998e+00	 2.937499999999998e+00	 1.060557099984615e+01
0	 3.062499999999998e+00	 2.999999999999998e+00	 1.058394490523077e+01
0	 3.062499999999998e+00	 3.062499999999998e+00	 1.056266791553846e+01
0	 3.062499999999998e+00	 3.125000000000000e+00	 1.054174003076923e+01
0	 3.125000000000000e+00	 2.500000000000000e+00	 1.076057846153846e+01
0	 3.125000000000000e+00	 2.562500000000000e+00	 1.073737427692308e+01
0	 3.125000000000000e+00	 2.625000000000000e+00	 1.071446787692308e+01
0	 3.125000000000000e+00	 2.687499999999999e+00	 1.069185926153846e+01
0	 3.125000000000000e+00	 2.750000000000000e+00	 1.066954843076923e+01
0	 3.125000000000000e+00	 2.812499999999999e+00	 1.064753538461539e+01
0	 3.125000000000000e+00	 2.874999999999999e+00	 1.062582012307692e+01
0	 3.125000000000000e+00	 2.937499999999998e+00	 1.060440264615385e+01
0	 3.125000000000000e+00	 2.999999999999998e+00	 1.058328295384616e+01
0	 3.125000000000000e+00	 3.062499999999998e+00	 1.056246104615386e+01
0	 3.125000000000000e+00	 3.125000000000000e+00	 1.054193692307693e+01
0	 2.500000000000000e+00	 3.125000000000000e+00	 1.037078876923077e+01
0	 2.500000000000000e+00	 3.187500000000000e+00	 1.035435344615384e+01
0	 2.500000000000000e+00	 3.250000000000000e+00	 1.033721603076922e+01
0	 2.500000000000000e+00	 3.312499999999999e+00	 1.031937652307692e+01
0	 2.500000000000000e+00	 3.374999999999999e+00	 1.030083492307692e+01
0	 2.500000000000000e+00	 3.437499999999999e+00	 1.028159123076922e+01
0	 2.500000000000000e+00	 3.499999999999999e+00	 1.026164544615385e+01
0	 2.500000000000000e+00	 3.562499999999998e+00	 1.024099756923077e+01
0	 2.500000000000000e+00	 3.624999999999999e+00	 1.021964760000000e+01
0	 2.500000000000000e+00	 3.687499999999998e+00	 1.019759553846153e+01
0	 2.500000000000000e+00	 3.750000000000000e+00	 1.017484138461538e+01
0	 2.562500000000000e+00	 3.125000000000000e+00	 1.040482150769230e+01
0	 2.562500000000000e+00	 3.187500000000000e+00	 1.038691216615385e+01
0	 2.562500000000000e+00	 3.250000000000000e+00	 1.036840173538462e+01
0	 2.562500000000000e+00	 3.312499999999999e+00	 1.034929021538461e+01
0	 2.562500000000000e+00	 3.374999999999999e+00	 1.032957760615385e+01
0	 2.562500000000000e+00	 3.437499999999999e+00	 1.030926390769231e+01
0	 2.562500000000000e+00	 3.500000000000000e+00	 1.028834912000000e+01
0	 2.562500000000000e+00	 3.562499999999999e+00	 1.026683324307693e+01
0	 2.562500000000000e+00	 3.625000000000000e+00	 1.024471627692308e+01
0	 2.562500000000000e+00	 3.687499999999997e+00	 1.022199822153845e+01
0	 2.562500000000000e+00	 3.750000000000000e+00	 1.019867907692308e+01
0	 2.625000000000000e+00	 3.125000000000000e+00	 1.043509470769231e+01
0	 2.624999999999999e+00	 3.187500000000000e+00	 1.041592656000000e+01
0	 2.625000000000000e+00	 3.250000000000000e+00	 1.039625832615385e+01
0	 2.625000000000000e+00	 3.312500000000000e+00	 1.037609000615385e+01
0	 2.625000000000000e+00	 3.374999999999999e+00	 1.035542160000000e+01
0	 2.625000000000000e+00	 3.437499999999999e+00	 1.033425310769230e+01
0	 2.625000000000000e+00	 3.499999999999997e+00	 1.031258452923077e+01
0	 2.625000000000000e+00	 3.562499999999999e+00	 1.029041586461537e+01
0	 2.625000000000000e+00	 3.624999999999998e+00	 1.026774711384615e+01
0	 2.625000000000000e+00	 3.687499999999999e+00	 1.024457827692308e+01
0	 2.625000000000000e+00	 3.750000000000000e+00	 1.022090935384614e+01
0	 2.687499999999999e+00	 3.125000000000000e+00	 1.046160836923077e+01
0	 2.687499999999999e+00	 3.187500000000000e+00	 1.044139662769231e+01
0	 2.687500000000000e+00	 3.250000000000000e+00	 1.042078580307693e+01
0	 2.687499999999999e+00	 3.312500000000000e+00	 1.039977589538461e+01
0	 2.687500000000000e+00	 3.374999999999999e+00	 1.037836690461539e+01
0	 2.687500000000000e+00	 3.437499999999999e+00	 1.035655883076923e+01
0	 2.687500000000000e+00	 3.499999999999998e+00	 1.033435167384615e+01
0	 2.687500000000000e+00	 3.562499999999998e+00	 1.031174543384615e+01
0	 2.687500000000000e+00	 3.624999999999998e+00	 1.028874011076923e+01
0	 2.687499999999999e+00	 3.687499999999998e+00	 1.026533570461539e+01
0	 2.687499999999999e+00	 3.750000000000000e+00	 1.024153221538460e+01
0	 2.749999999999999e+00	 3.125000000000000e+00	 1.048436249230770e+01
0	 2.750000000000000e+00	 3.187500000000000e+00	 1.046332236923076e+01
0	 2.750000000000000e+00	 3.250000000000000e+00	 1.044198416615385e+01
0	 2.749999999999999e+00	 3.312500000000000e+00	 1.042034788307692e+01
0	 2.750000000000000e+00	 3.374999999999999e+00	 1.039841352000000e+01
0	 2.749999999999999e+00	 3.437499999999999e+00	 1.037618107692308e+01
0	 2.749999999999999e+00	 3.499999999999998e+00	 1.035365055384615e+01
0	 2.749999999999999e+00	 3.562499999999998e+00	 1.033082195076922e+01
0	 2.750000000000000e+00	 3.624999999999999e+00	 1.030769526769231e+01
0	 2.749999999999999e+00	 3.687499999999998e+00	 1.028427050461538e+01
0	 2.749999999999999e+00	 3.750000000000000e+00	 1.026054766153845e+01
0	 2.812499999999999e+00	 3.125000000000000e+00	 1.050335707692308e+01
0	 2.812499999999999e+00	 3.187500000000000e+00	 1.048170378461539e+01
0	 2.812499999999999e+00	 3.250000000000000e+00	 1.045985341538462e+01
0	 2.812500000000000e+00	 3.312500000000000e+00	 1.043780596923077e+01
0	 2.812499999999999e+00	 3.374999999999998e+00	 1.041556144615384e+01
0	 2.812499999999999e+00	 3.437499999999999e+00	 1.039311984615385e+01
0	 2.812500000000000e+00	 3.499999999999999e+00	 1.037048116923077e+01
0	 2.812499999999999e+00	 3.562499999999999e+00	 1.034764541538461e+01
0	 2.812499999999999e+00	 3.624999999999998e+00	 1.032461258461538e+01
0	 2.812499999999999e+00	 3.687499999999999e+00	 1.030138267692308e+01
0	 2.812499999999999e+00	 3.750000000000000e+00	 1.027795569230768e+01
0	 2.874999999999999e+00	 3.125000000000000e+00	 1.051859212307692e+01
0	 2.874999999999999e+00	 3.187500000000000e+00	 1.049654087384616e+01
0	 2.874999999999999e+00	 3.249999999999999e+00	 1.047439355076924e+01
0	 2.874999999999999e+00	 3.312499999999999e+00	 1.045215015384616e+01
0	 2.874999999999999e+00	 3.375000000000000e+00	 1.042981068307692e+01
0	 2.874999999999999e+00	 3.437500000000000e+00	 1.040737513846154e+01
0	 2.874999999999999e+00	 3.499999999999999e+00	 1.038484352000000e+01
0	 2.874999999999999e+00	 3.562499999999999e+00	 1.036221582769230e+01
0	 2.874999999999999e+00	 3.624999999999999e+00	 1.033949206153846e+01
0	 2.874999999999999e+00	 3.687499999999998e+00	 1.031667222153845e+01
0	 2.874999999999999e+00	 3.750000000000000e+00	 1.029375630769229e+01
0	 2.937499999999999e+00	 3.125000000000000e+00	 1.053006763076924e+01
0	 2.937499999999999e+00	 3.187500000000000e+00	 1.050783363692309e+01
0	 2.937499999999999e+00	 3.250000000000000e+00	 1.048560457230770e+01
0	 2.937499999999999e+00	 3.312500000000000e+00	 1.046338043692309e+01
0	 2.937499999999998e+00	 3.374999999999999e+00	 1.044116123076923e+01
0	 2.937499999999999e+00	 3.437499999999999e+00	 1.041894695384616e+01
0	 2.937499999999999e+00	 3.499999999999999e+00	 1.039673760615385e+01
0	 2.937499999999998e+00	 3.562499999999999e+00	 1.037453318769229e+01
0	 2.937499999999999e+00	 3.624999999999998e+00	 1.035233369846154e+01
0	 2.937499999999999e+00	 3.687499999999999e+00	 1.033013913846154e+01
0	 2.937499999999999e+00	 3.750000000000000e+00	 1.030794950769230e+01
0	 2.999999999999998e+00	 3.125000000000000e+00	 1.053778360000000e+01
0	 2.999999999999999e+00	 3.187500000000001e+00	 1.051558207384616e+01
0	 2.999999999999998e+00	 3.250000000000000e+00	 1.049348648000000e+01
0	 2.999999999999999e+00	 3.312500000000000e+00	 1.047149681846154e+01
0	 2.999999999999999e+00	 3.374999999999999e+00	 1.044961308923077e+01
0	 2.999999999999999e+00	 3.437499999999999e+00	 1.042783529230769e+01
0	 2.999999999999998e+00	 3.499999999999998e+00	 1.040616342769231e+01
0	 2.999999999999998e+00	 3.562499999999998e+00	 1.038459749538461e+01
0	 2.999999999999998e+00	 3.624999999999998e+00	 1.036313749538461e+01
0	 2.999999999999998e+00	 3.687499999999998e+00	 1.034178342769230e+01
0	 2.999999999999998e+00	 3.750000000000000e+00	 1.032053529230769e+01
0	 3.062499999999998e+00	 3.125000000000000e+00	 1.054174003076923e+01
0	 3.062499999999998e+00	 3.187500000000000e+00	 1.051978618461538e+01
0	 3.062499999999998e+00	 3.250000000000000e+00	 1.049803927384615e+01
0	 3.062499999999998e+00	 3.312500000000000e+00	 1.047649929846154e+01
0	 3.062499999999998e+00	 3.374999999999999e+00	 1.045516625846153e+01
0	 3.062499999999998e+00	 3.437500000000000e+00	 1.043404015384615e+01
0	 3.062499999999998e+00	 3.499999999999998e+00	 1.041312098461538e+01
0	 3.062499999999998e+00	 3.562499999999998e+00	 1.039240875076922e+01
0	 3.062499999999998e+00	 3.624999999999998e+00	 1.037190345230768e+01
0	 3.062499999999998e+00	 3.687499999999997e+00	 1.035160508923076e+01
0	 3.062499999999998e+00	 3.750000000000000e+00	 1.033151366153846e+01
0	 3.125000000000000e+00	 3.125000000000000e+00	 1.054193692307693e+01
0	 3.125000000000000e+00	 3.187500000000000e+00	 1.052044596923076e+01
0	 3.125000000000000e+00	 3.250000000000000e+00	 1.049926295384615e+01
0	 3.125000000000000e+00	 3.312499999999999e+00	 1.047838787692308e+01
0	 3.125000000000000e+00	 3.374999999999999e+00	 1.045782073846154e+01
0	 3.125000000000000e+00	 3.437499999999999e+00	 1.043756153846153e+01
0	 3.125000000000000e+00	 3.499999999999999e+00	 1.041761027692307e+01
0	 3.125000000000000e+00	 3.562499999999998e+00	 1.039796695384615e+01
0	 3.125000000000000e+00	 3.624999999999999e+00	 1.037863156923077e+01
0	 3.125000000000000e+00	 3.687499999999998e+00	 1.035960412307691e+01
0	 3.125000000000000e+00	 3.750000000000000e+00	 1.034088461538461e+01
0	 2.500000000000000e+00	 3.750000000000000e+00	 1.017484138461538e+01
0	 2.500000000000000e+00	 3.812500000000000e+00	 1.016204818923077e+01
0	 2.500000000000000e+00	 3.875000000000000e+00	 1.014910731076923e+01
0	 2.500000000000000e+00	 3.937499999999999e+00	 1.013601874923077e+01
0	 2.500000000000000e+00	 4.000000000000000e+00	 1.012278250461538e+01
0	 2.500000000000000e+00	 4.062499999999999e+00	 1.010939857692308e+01
0	 2.500000000000000e+00	 4.124999999999999e+00	 1.009586696615384e+01
0	 2.500000000000000e+00	 4.187499999999998e+00	 1.008218767230770e+01
0	 2.500000000000000e+00	 4.249999999999998e+00	 1.006836069538461e+01
0	 2.500000000000000e+00	 4.312499999999998e+00	 1.005438603538463e+01
0	 2.500000000000000e+00	 4.375000000000000e+00	 1.004026369230769e+01
0	 2.562500000000000e+00	 3.750000000000000e+00	 1.019867907692308e+01
0	 2.562500000000000e+00	 3.812500000000000e+00	 1.018597475184615e+01
0	 2.562500000000000e+00	 3.875000000000000e+00	 1.017311533969230e+01
0	 2.562500000000000e+00	 3.937500000000000e+00	 1.016010084046154e+01
0	 2.562500000000000e+00	 3.999999999999999e+00	 1.014693125415385e+01
0	 2.562500000000000e+00	 4.062499999999999e+00	 1.013360658076922e+01
0	 2.562500000000000e+00	 4.125000000000000e+00	 1.012012682030770e+01
0	 2.562500000000000e+00	 4.187500000000000e+00	 1.010649197276924e+01
0	 2.562500000000000e+00	 4.250000000000000e+00	 1.009270203815384e+01
0	 2.562500000000000e+00	 4.312499999999997e+00	 1.007875701646154e+01
0	 2.562500000000000e+00	 4.375000000000000e+00	 1.006465690769231e+01
0	 2.625000000000000e+00	 3.750000000000000e+00	 1.022090935384614e+01
0	 2.624999999999999e+00	 3.812500000000000e+00	 1.020828704984616e+01
0	 2.625000000000000e+00	 3.875000000000000e+00	 1.019550225476923e+01
0	 2.625000000000000e+00	 3.937500000000000e+00	 1.018255496861538e+01
0	 2.625000000000000e+00	 3.999999999999999e+00	 1.016944519138461e+01
0	 2.625000000000000e+00	 4.062499999999999e+00	 1.015617292307692e+01
0	 2.625000000000000e+00	 4.124999999999997e+00	 1.014273816369231e+01
0	 2.625000000000000e+00	 4.187499999999998e+00	 1.012914091323076e+01
0	 2.625000000000000e+00	 4.249999999999998e+00	 1.011538117169231e+01
0	 2.625000000000000e+00	 4.312499999999998e+00	 1.010145893907693e+01
0	 2.625000000000000e+00	 4.375000000000000e+00	 1.008737421538461e+01
0	 2.687499999999999e+00	 3.750000000000000e+00	 1.024153221538460e+01
0	 2.687499999999999e+00	 3.812500000000000e+00	 1.022898508323077e+01
0	 2.687500000000000e+00	 3.875000000000000e+00	 1.021626805599999e+01
0	 2.687499999999999e+00	 3.937500000000000e+00	 1.020338113369231e+01
0	 2.687500000000000e+00	 3.999999999999999e+00	 1.019032431630769e+01
0	 2.687500000000000e+00	 4.062500000000000e+00	 1.017709760384615e+01
0	 2.687500000000000e+00	 4.124999999999998e+00	 1.016370099630770e+01
0	 2.687500000000000e+00	 4.187499999999999e+00	 1.015013449369230e+01
0	 2.687500000000000e+00	 4.249999999999998e+00	 1.013639809600000e+01
0	 2.687499999999999e+00	 4.312499999999997e+00	 1.012249180323078e+01
0	 2.687499999999999e+00	 4.375000000000000e+00	 1.010841561538462e+01
0	 2.749999999999999e+00	 3.750000000000000e+00	 1.026054766153845e+01
0	 2.750000000000000e+00	 3.812500000000000e+00	 1.024806885199999e+01
0	 2.750000000000000e+00	 3.875000000000000e+00	 1.023541274338461e+01
0	 2.749999999999999e+00	 3.937500000000000e+00	 1.022257933569230e+01
0	 2.750000000000000e+00	 3.999999999999999e+00	 1.020956862892308e+01
0	 2.749999999999999e+00	 4.062499999999999e+00	 1.019638062307692e+01
0	 2.749999999999999e+00	 4.124999999999998e+00	 1.018301531815385e+01
0	 2.749999999999999e+00	 4.187499999999999e+00	 1.016947271415385e+01
0	 2.750000000000000e+00	 4.249999999999998e+00	 1.015575281107692e+01
0	 2.749999999999999e+00	 4.312499999999998e+00	 1.014185560892308e+01
0	 2.749999999999999e+00	 4.375000000000000e+00	 1.012778110769233e+01
0	 2.812499999999999e+00	 3.750000000000000e+00	 1.027795569230768e+01
0	 2.812499999999999e+00	 3.812500000000000e+00	 1.026553835615384e+01
0	 2.812499999999999e+00	 3.875000000000000e+00	 1.025293631692306e+01
0	 2.812500000000000e+00	 3.937499999999999e+00	 1.024014957461539e+01
0	 2.812499999999999e+00	 3.999999999999998e+00	 1.022717812923077e+01
0	 2.812499999999999e+00	 4.062499999999999e+00	 1.021402198076922e+01
0	 2.812500000000000e+00	 4.125000000000000e+00	 1.020068112923077e+01
0	 2.812499999999999e+00	 4.187499999999998e+00	 1.018715557461539e+01
0	 2.812499999999999e+00	 4.249999999999998e+00	 1.017344531692307e+01
0	 2.812499999999999e+00	 4.312499999999998e+00	 1.015955035615385e+01
0	 2.812499999999999e+00	 4.375000000000000e+00	 1.014547069230770e+01
0	 2.874999999999999e+00	 3.750000000000000e+00	 1.029375630769229e+01
0	 2.874999999999999e+00	 3.812500000000000e+00	 1.028139359569230e+01
0	 2.874999999999999e+00	 3.874999999999999e+00	 1.026883877661537e+01
0	 2.874999999999999e+00	 3.937500000000000e+00	 1.025609185046154e+01
0	 2.874999999999999e+00	 4.000000000000000e+00	 1.024315281723077e+01
0	 2.874999999999999e+00	 4.062500000000000e+00	 1.023002167692308e+01
0	 2.874999999999999e+00	 4.124999999999999e+00	 1.021669842953846e+01
0	 2.874999999999999e+00	 4.187499999999998e+00	 1.020318307507692e+01
0	 2.874999999999999e+00	 4.249999999999999e+00	 1.018947561353847e+01
0	 2.874999999999999e+00	 4.312499999999997e+00	 1.017557604492308e+01
0	 2.874999999999999e+00	 4.375000000000000e+00	 1.016148436923077e+01
0	 2.937499999999999e+00	 3.750000000000000e+00	 1.030794950769230e+01
0	 2.937499999999999e+00	 3.812500000000000e+00	 1.029563457061537e+01
0	 2.937499999999999e+00	 3.875000000000000e+00	 1.028312012246153e+01
0	 2.937499999999999e+00	 3.937499999999999e+00	 1.027040616323077e+01
0	 2.937499999999998e+00	 3.999999999999999e+00	 1.025749269292307e+01
0	 2.937499999999999e+00	 4.062500000000000e+00	 1.024437971153847e+01
0	 2.937499999999999e+00	 4.124999999999999e+00	 1.023106721907693e+01
0	 2.937499999999998e+00	 4.187499999999999e+00	 1.021755521553846e+01
0	 2.937499999999999e+00	 4.249999999999998e+00	 1.020384370092307e+01
0	 2.937499999999999e+00	 4.312499999999998e+00	 1.018993267523078e+01
0	 2.937499999999999e+00	 4.375000000000000e+00	 1.017582213846156e+01
0	 2.999999999999998e+00	 3.750000000000000e+00	 1.032053529230769e+01
0	 2.999999999999999e+00	 3.812500000000000e+00	 1.030826128092307e+01
0	 2.999999999999998e+00	 3.875000000000000e+00	 1.029578035446154e+01
0	 2.999999999999999e+00	 3.937500000000000e+00	 1.028309251292307e+01
0	 2.999999999999999e+00	 3.999999999999999e+00	 1.027019775630769e+01
0	 2.999999999999999e+00	 4.062499999999998e+00	 1.025709608461539e+01
0	 2.999999999999998e+00	 4.124999999999999e+00	 1.024378749784615e+01
0	 2.999999999999998e+00	 4.187499999999998e+00	 1.023027199600000e+01
0	 2.999999999999998e+00	 4.249999999999998e+00	 1.021654957907694e+01
0	 2.999999999999998e+00	 4.312499999999998e+00	 1.020262024707693e+01
0	 2.999999999999998e+00	 4.375000000000000e+00	 1.018848400000000e+01
0	 3.062499999999998e+00	 3.750000000000000e+00	 1.033151366153846e+01
0	 3.062499999999998e+00	 3.812500000000000e+00	 1.031927372661538e+01
0	 3.062499999999998e+00	 3.875000000000000e+00	 1.030681947261538e+01
0	 3.062499999999998e+00	 3.937499999999999e+00	 1.029415089953846e+01
0	 3.062499999999998e+00	 3.999999999999999e+00	 1.028126800738461e+01
0	 3.062499999999998e+00	 4.062499999999998e+00	 1.026817079615384e+01
0	 3.062499999999998e+00	 4.124999999999998e+00	 1.025485926584616e+01
0	 3.062499999999998e+00	 4.187499999999998e+00	 1.024133341646155e+01
0	 3.062499999999998e+00	 4.249999999999998e+00	 1.022759324800000e+01
0	 3.062499999999998e+00	 4.312499999999998e+00	 1.021363876046156e+01
0	 3.062499999999998e+00	 4.375000000000000e+00	 1.019946995384615e+01
0	 3.125000000000000e+00	 3.750000000000000e+00	 1.034088461538461e+01
0	 3.125000000000000e+00	 3.812500000000000e+00	 1.032867190769230e+01
0	 3.125000000000000e+00	 3.875000000000000e+00	 1.031623747692308e+01
0	 3.125000000000000e+00	 3.937499999999999e+00	 1.030358132307692e+01
0	 3.125000000000000e+00	 4.000000000000000e+00	 1.029070344615385e+01
0	 3.125000000000000e+00	 4.062499999999999e+00	 1.027760384615385e+01
0	 3.125000000000000e+00	 4.124999999999999e+00	 1.026428252307692e+01
0	 3.125000000000000e+00	 4.187499999999998e+00	 1.025073947692308e+01
0	 3.125000000000000e+00	 4.249999999999998e+00	 1.023697470769231e+01
0	 3.125000000000000e+00	 4.312499999999998e+00	 1.022298821538463e+01
0	 3.125000000000000e+00	 4.375000000000000e+00	 1.020878000000001e+01
0	 2.500000000000000e+00	 4.375000000000000e+00	 1.004026369230769e+01
0	 2.500000000000000e+00	 4.437499999999999e+00	 1.003611210000000e+01
0	 2.500000000000000e+00	 4.500000000000001e+00	 1.003160969230769e+01
0	 2.500000000000000e+00	 4.562499999999999e+00	 1.002675646923077e+01
0	 2.500000000000000e+00	 4.625000000000000e+00	 1.002155243076922e+01
0	 2.500000000000000e+00	 4.687499999999999e+00	 1.001599757692307e+01
0	 2.500000000000000e+00	 4.749999999999999e+00	 1.001009190769231e+01
0	 2.500000000000000e+00	 4.812499999999998e+00	 1.000383542307692e+01
0	 2.500000000000000e+00	 4.874999999999998e+00	 9.997228123076912e+00
0	 2.500000000000000e+00	 4.937499999999998e+00	 9.990270007692304e+00
0	 2.500000000000000e+00	 5.000000000000000e+00	 9.982961076923074e+00
0	 2.562500000000000e+00	 4.375000000000000e+00	 1.006465690769231e+01
0	 2.562500000000000e+00	 4.437500000000000e+00	 1.005965003307693e+01
0	 2.562500000000000e+00	 4.499999999999999e+00	 1.005431827692308e+01
0	 2.562500000000000e+00	 4.562499999999999e+00	 1.004866163923077e+01
0	 2.562500000000000e+00	 4.625000000000000e+00	 1.004268012000000e+01
0	 2.562500000000000e+00	 4.687500000000001e+00	 1.003637371923077e+01
0	 2.562500000000000e+00	 4.749999999999999e+00	 1.002974243692308e+01
0	 2.562500000000000e+00	 4.812499999999999e+00	 1.002278627307692e+01
0	 2.562500000000000e+00	 4.875000000000000e+00	 1.001550522769231e+01
0	 2.562500000000000e+00	 4.937499999999997e+00	 1.000789930076922e+01
0	 2.562500000000000e+00	 4.999999999999999e+00	 9.999968492307685e+00
0	 2.625000000000000e+00	 4.375000000000000e+00	 1.008737421538461e+01
0	 2.624999999999999e+00	 4.437500000000000e+00	 1.008159773846155e+01
0	 2.625000000000000e+00	 4.500000000000001e+00	 1.007552231384615e+01
0	 2.625000000000000e+00	 4.562499999999999e+00	 1.006914794153846e+01
0	 2.625000000000000e+00	 4.624999999999998e+00	 1.006247462153845e+01
0	 2.625000000000000e+00	 4.687499999999997e+00	 1.005550235384616e+01
0	 2.625000000000000e+00	 4.749999999999998e+00	 1.004823113846154e+01
0	 2.625000000000000e+00	 4.812499999999999e+00	 1.004066097538461e+01
0	 2.625000000000000e+00	 4.874999999999998e+00	 1.003279186461539e+01
0	 2.625000000000000e+00	 4.937499999999998e+00	 1.002462380615385e+01
0	 2.625000000000000e+00	 5.000000000000000e+00	 1.001615680000000e+01
0	 2.687499999999999e+00	 4.375000000000000e+00	 1.010841561538462e+01
0	 2.687499999999999e+00	 4.437500000000000e+00	 1.010195521615385e+01
0	 2.687500000000000e+00	 4.500000000000000e+00	 1.009522180307692e+01
0	 2.687499999999999e+00	 4.562499999999999e+00	 1.008821537615384e+01
0	 2.687500000000000e+00	 4.625000000000000e+00	 1.008093593538463e+01
0	 2.687500000000000e+00	 4.687499999999999e+00	 1.007338348076923e+01
0	 2.687500000000000e+00	 4.749999999999998e+00	 1.006555801230770e+01
0	 2.687500000000000e+00	 4.812499999999998e+00	 1.005745953000000e+01
0	 2.687500000000000e+00	 4.874999999999998e+00	 1.004908803384616e+01
0	 2.687499999999999e+00	 4.937499999999997e+00	 1.004044352384616e+01
0	 2.687499999999999e+00	 4.999999999999999e+00	 1.003152600000000e+01
0	 2.749999999999999e+00	 4.375000000000000e+00	 1.012778110769233e+01
0	 2.750000000000000e+00	 4.437500000000000e+00	 1.012072246615385e+01
0	 2.750000000000000e+00	 4.500000000000000e+00	 1.011341674461538e+01
0	 2.749999999999999e+00	 4.562499999999999e+00	 1.010586394307693e+01
0	 2.750000000000000e+00	 4.624999999999999e+00	 1.009806406153847e+01
0	 2.749999999999999e+00	 4.687500000000000e+00	 1.009001710000001e+01
0	 2.749999999999999e+00	 4.749999999999998e+00	 1.008172305846154e+01
0	 2.749999999999999e+00	 4.812499999999999e+00	 1.007318193692308e+01
0	 2.750000000000000e+00	 4.874999999999998e+00	 1.006439373538461e+01
0	 2.749999999999999e+00	 4.937499999999997e+00	 1.005535845384613e+01
0	 2.749999999999999e+00	 5.000000000000000e+00	 1.004607609230769e+01
0	 2.812499999999999e+00	 4.375000000000000e+00	 1.014547069230770e+01
0	 2.812499999999999e+00	 4.437499999999999e+00	 1.013789948846153e+01
0	 2.812499999999999e+00	 4.499999999999999e+00	 1.013010713846155e+01
0	 2.812500000000000e+00	 4.562499999999999e+00	 1.012209364230769e+01
0	 2.812499999999999e+00	 4.624999999999998e+00	 1.011385900000001e+01
0	 2.812499999999999e+00	 4.687499999999999e+00	 1.010540321153847e+01
0	 2.812500000000000e+00	 4.750000000000000e+00	 1.009672627692308e+01
0	 2.812499999999999e+00	 4.812499999999998e+00	 1.008782819615384e+01
0	 2.812499999999999e+00	 4.874999999999998e+00	 1.007870896923077e+01
0	 2.812499999999999e+00	 4.937499999999999e+00	 1.006936859615385e+01
0	 2.812499999999999e+00	 5.000000000000000e+00	 1.005980707692306e+01
0	 2.874999999999999e+00	 4.375000000000000e+00	 1.016148436923077e+01
0	 2.874999999999999e+00	 4.437499999999999e+00	 1.015348628307693e+01
0	 2.874999999999999e+00	 4.499999999999998e+00	 1.014529298461539e+01
0	 2.874999999999999e+00	 4.562499999999999e+00	 1.013690447384615e+01
0	 2.874999999999999e+00	 4.625000000000001e+00	 1.012832075076924e+01
0	 2.874999999999999e+00	 4.687499999999999e+00	 1.011954181538461e+01
0	 2.874999999999999e+00	 4.749999999999998e+00	 1.011056766769231e+01
0	 2.874999999999999e+00	 4.812499999999999e+00	 1.010139830769231e+01
0	 2.874999999999999e+00	 4.874999999999998e+00	 1.009203373538462e+01
0	 2.874999999999999e+00	 4.937499999999999e+00	 1.008247395076921e+01
0	 2.874999999999999e+00	 5.000000000000001e+00	 1.007271895384615e+01
0	 2.937499999999999e+00	 4.375000000000000e+00	 1.017582213846156e+01
0	 2.937499999999999e+00	 4.437499999999999e+00	 1.016748285000000e+01
0	 2.937499999999999e+00	 4.500000000000000e+00	 1.015897428307692e+01
0	 2.937499999999999e+00	 4.562499999999999e+00	 1.015029643769231e+01
0	 2.937499999999998e+00	 4.625000000000000e+00	 1.014144931384615e+01
0	 2.937499999999999e+00	 4.687500000000000e+00	 1.013243291153846e+01
0	 2.937499999999999e+00	 4.749999999999999e+00	 1.012324723076924e+01
0	 2.937499999999998e+00	 4.812499999999999e+00	 1.011389227153847e+01
0	 2.937499999999999e+00	 4.874999999999998e+00	 1.010436803384613e+01
0	 2.937499999999999e+00	 4.937499999999999e+00	 1.009467451769231e+01
0	 2.937499999999999e+00	 4.999999999999999e+00	 1.008481172307690e+01
0	 2.999999999999998e+00	 4.375000000000000e+00	 1.018848400000000e+01
0	 2.999999999999999e+00	 4.437500000000001e+00	 1.017988918923077e+01
0	 2.999999999999998e+00	 4.499999999999999e+00	 1.017115103384615e+01
0	 2.999999999999999e+00	 4.562500000000000e+00	 1.016226953384616e+01
0	 2.999999999999999e+00	 4.624999999999999e+00	 1.015324468923076e+01
0	 2.999999999999999e+00	 4.687499999999998e+00	 1.014407650000000e+01
0	 2.999999999999998e+00	 4.749999999999999e+00	 1.013476496615384e+01
0	 2.999999999999998e+00	 4.812499999999998e+00	 1.012531008769230e+01
0	 2.999999999999998e+00	 4.874999999999999e+00	 1.011571186461537e+01
0	 2.999999999999998e+00	 4.937499999999998e+00	 1.010597029692307e+01
0	 2.999999999999998e+00	 5.000000000000000e+00	 1.009608538461539e+01
0	 3.062499999999998e+00	 4.375000000000000e+00	 1.019946995384615e+01
0	 3.062499999999998e+00	 4.437500000000000e+00	 1.019070530076923e+01
0	 3.062499999999998e+00	 4.500000000000000e+00	 1.018182323692308e+01
0	 3.062499999999998e+00	 4.562500000000000e+00	 1.017282376230770e+01
0	 3.062499999999998e+00	 4.624999999999999e+00	 1.016370687692307e+01
0	 3.062499999999998e+00	 4.687499999999999e+00	 1.015447258076923e+01
0	 3.062499999999998e+00	 4.749999999999999e+00	 1.014512087384615e+01
0	 3.062499999999998e+00	 4.812499999999998e+00	 1.013565175615385e+01
0	 3.062499999999998e+00	 4.874999999999999e+00	 1.012606522769231e+01
0	 3.062499999999998e+00	 4.937499999999998e+00	 1.011636128846153e+01
0	 3.062499999999998e+00	 5.000000000000000e+00	 1.010653993846154e+01
0	 3.125000000000000e+00	 4.375000000000000e+00	 1.020878000000001e+01
0	 3.125000000000000e+00	 4.437499999999999e+00	 1.019993118461538e+01
0	 3.125000000000000e+00	 4.500000000000001e+00	 1.019099089230770e+01
0	 3.125000000000000e+00	 4.562499999999999e+00	 1.018195912307693e+01
0	 3.125000000000000e+00	 4.625000000000000e+00	 1.017283587692308e+01
0	 3.125000000000000e+00	 4.687499999999999e+00	 1.016362115384615e+01
0	 3.125000000000000e+00	 4.749999999999999e+00	 1.015431495384615e+01
0	 3.125000000000000e+00	 4.812499999999998e+00	 1.014491727692308e+01
0	 3.125000000000000e+00	 4.874999999999998e+00	 1.013542812307692e+01
0	 3.125000000000000e+00	 4.937499999999998e+00	 1.012584749230768e+01
0	 3.125000000000000e+00	 5.000000000000000e+00	 1.011617538461538e+01
0	 2.500000000000000e+00	 5.000000000000000e+00	 9.982961076923074e+00
0	 2.500000000000000e+00	 5.062500000000000e+00	 9.981022689230780e+00
0	 2.500000000000000e+00	 5.125000000000001e+00	 9.978948203076916e+00
0	 2.500000000000000e+00	 5.187499999999999e+00	 9.976737618461520e+00
0	 2.500000000000000e+00	 5.249999999999999e+00	 9.974390935384610e+00
0	 2.500000000000000e+00	 5.312499999999999e+00	 9.971908153846151e+00
0	 2.500000000000000e+00	 5.374999999999998e+00	 9.969289273846151e+00
0	 2.500000000000000e+00	 5.437499999999998e+00	 9.966534295384612e+00
0	 2.500000000000000e+00	 5.499999999999998e+00	 9.963643218461534e+00
0	 2.500000000000000e+00	 5.562499999999998e+00	 9.960616043076927e+00
0	 2.500000000000000e+00	 5.625000000000000e+00	 9.957452769230766e+00
0	 2.562500000000000e+00	 4.999999999999999e+00	 9.999968492307685e+00
0	 2.562500000000000e+00	 5.062500000000000e+00	 9.997624328000002e+00
0	 2.562500000000000e+00	 5.125000000000000e+00	 9.995141770461528e+00
0	 2.562500000000000e+00	 5.187499999999999e+00	 9.992520819692313e+00
0	 2.562500000000000e+00	 5.249999999999998e+00	 9.989761475692305e+00
0	 2.562500000000000e+00	 5.312500000000000e+00	 9.986863738461537e+00
0	 2.562500000000000e+00	 5.374999999999999e+00	 9.983827607999995e+00
0	 2.562500000000000e+00	 5.437499999999999e+00	 9.980653084307701e+00
0	 2.562500000000000e+00	 5.499999999999999e+00	 9.977340167384620e+00
0	 2.562500000000000e+00	 5.562499999999996e+00	 9.973888857230776e+00
0	 2.562500000000000e+00	 5.625000000000000e+00	 9.970299153846142e+00
0	 2.625000000000000e+00	 5.000000000000000e+00	 1.001615680000000e+01
0	 2.624999999999999e+00	 5.062499999999999e+00	 1.001343457907691e+01
0	 2.625000000000000e+00	 5.125000000000001e+00	 1.001057167015383e+01
0	 2.625000000000000e+00	 5.187499999999998e+00	 1.000756807323077e+01
0	 2.625000000000000e+00	 5.249999999999999e+00	 1.000442378830769e+01
0	 2.625000000000000e+00	 5.312499999999999e+00	 1.000113881538461e+01
0	 2.625000000000000e+00	 5.374999999999999e+00	 9.997713154461540e+00
0	 2.625000000000000e+00	 5.437499999999999e+00	 9.994146805538474e+00
0	 2.625000000000000e+00	 5.499999999999998e+00	 9.990439768615380e+00
0	 2.625000000000000e+00	 5.562499999999999e+00	 9.986592043692301e+00
0	 2.625000000000000e+00	 5.625000000000000e+00	 9.982603630769235e+00
0	 2.687499999999999e+00	 4.999999999999999e+00	 1.003152600000000e+01
0	 2.687499999999999e+00	 5.062500000000001e+00	 1.002845344246153e+01
0	 2.687500000000000e+00	 5.125000000000000e+00	 1.002523790215384e+01
0	 2.687499999999999e+00	 5.187499999999999e+00	 1.002187937907692e+01
0	 2.687500000000000e+00	 5.250000000000000e+00	 1.001837787323076e+01
0	 2.687500000000000e+00	 5.312499999999999e+00	 1.001473338461538e+01
0	 2.687500000000000e+00	 5.374999999999998e+00	 1.001094591323077e+01
0	 2.687500000000000e+00	 5.437499999999999e+00	 1.000701545907691e+01
0	 2.687500000000000e+00	 5.499999999999998e+00	 1.000294202215385e+01
0	 2.687499999999999e+00	 5.562499999999997e+00	 9.998725602461541e+00
0	 2.687499999999999e+00	 5.625000000000000e+00	 9.994366199999982e+00
0	 2.749999999999999e+00	 5.000000000000000e+00	 1.004607609230769e+01
0	 2.750000000000000e+00	 5.062500000000000e+00	 1.004268091815383e+01
0	 2.750000000000000e+00	 5.125000000000000e+00	 1.003914046646153e+01
0	 2.749999999999999e+00	 5.187500000000000e+00	 1.003545473723076e+01
0	 2.750000000000000e+00	 5.249999999999999e+00	 1.003162373046153e+01
0	 2.749999999999999e+00	 5.312499999999999e+00	 1.002764744615385e+01
0	 2.749999999999999e+00	 5.374999999999998e+00	 1.002352588430770e+01
0	 2.749999999999999e+00	 5.437499999999999e+00	 1.001925904492308e+01
0	 2.750000000000000e+00	 5.499999999999999e+00	 1.001484692800000e+01
0	 2.749999999999999e+00	 5.562499999999998e+00	 1.001028953353846e+01
0	 2.749999999999999e+00	 5.625000000000000e+00	 1.000558686153844e+01
0	 2.812499999999999e+00	 5.000000000000000e+00	 1.005980707692306e+01
0	 2.812499999999999e+00	 5.062500000000000e+00	 1.005611700615385e+01
0	 2.812499999999999e+00	 5.124999999999999e+00	 1.005227936307693e+01
0	 2.812500000000000e+00	 5.187500000000000e+00	 1.004829414769230e+01
0	 2.812499999999999e+00	 5.249999999999998e+00	 1.004416135999999e+01
0	 2.812499999999999e+00	 5.312499999999999e+00	 1.003988100000000e+01
0	 2.812500000000000e+00	 5.375000000000000e+00	 1.003545306769231e+01
0	 2.812499999999999e+00	 5.437499999999998e+00	 1.003087756307692e+01
0	 2.812499999999999e+00	 5.499999999999998e+00	 1.002615448615385e+01
0	 2.812499999999999e+00	 5.562499999999999e+00	 1.002128383692307e+01
0	 2.812499999999999e+00	 5.625000000000000e+00	 1.001626561538461e+01
0	 2.874999999999999e+00	 5.000000000000001e+00	 1.007271895384615e+01
0	 2.874999999999999e+00	 5.062499999999999e+00	 1.006876170646153e+01
0	 2.874999999999999e+00	 5.125000000000000e+00	 1.006465459199998e+01
0	 2.874999999999999e+00	 5.187500000000000e+00	 1.006039761046153e+01
0	 2.874999999999999e+00	 5.250000000000001e+00	 1.005599076184614e+01
0	 2.874999999999999e+00	 5.312500000000001e+00	 1.005143404615384e+01
0	 2.874999999999999e+00	 5.374999999999999e+00	 1.004672746338461e+01
0	 2.874999999999999e+00	 5.437499999999999e+00	 1.004187101353847e+01
0	 2.874999999999999e+00	 5.499999999999998e+00	 1.003686469661538e+01
0	 2.874999999999999e+00	 5.562499999999998e+00	 1.003170851261540e+01
0	 2.874999999999999e+00	 5.625000000000000e+00	 1.002640246153846e+01
0	 2.937499999999999e+00	 4.999999999999999e+00	 1.008481172307690e+01
0	 2.937499999999999e+00	 5.062500000000000e+00	 1.008061501907691e+01
0	 2.937499999999999e+00	 5.125000000000000e+00	 1.007626615323076e+01
0	 2.937499999999999e+00	 5.187500000000000e+00	 1.007176512553845e+01
0	 2.937499999999998e+00	 5.250000000000000e+00	 1.006711193600000e+01
0	 2.937499999999999e+00	 5.312500000000000e+00	 1.006230658461538e+01
0	 2.937499999999999e+00	 5.374999999999999e+00	 1.005734907138462e+01
0	 2.937499999999998e+00	 5.437499999999998e+00	 1.005223939630768e+01
0	 2.937499999999999e+00	 5.499999999999998e+00	 1.004697755938461e+01
0	 2.937499999999999e+00	 5.562499999999999e+00	 1.004156356061538e+01
0	 2.937499999999999e+00	 5.625000000000000e+00	 1.003599740000000e+01
0	 2.999999999999998e+00	 5.000000000000000e+00	 1.009608538461539e+01
0	 2.999999999999999e+00	 5.062500000000002e+00	 1.009167694400001e+01
0	 2.999999999999998e+00	 5.124999999999999e+00	 1.008711404676923e+01
0	 2.999999999999999e+00	 5.187500000000000e+00	 1.008239669292308e+01
0	 2.999999999999999e+00	 5.249999999999998e+00	 1.007752488246154e+01
0	 2.999999999999999e+00	 5.312499999999999e+00	 1.007249861538462e+01
0	 2.999999999999998e+00	 5.374999999999998e+00	 1.006731789169230e+01
0	 2.999999999999998e+00	 5.437499999999998e+00	 1.006198271138461e+01
0	 2.999999999999998e+00	 5.499999999999999e+00	 1.005649307446155e+01
0	 2.999999999999998e+00	 5.562499999999998e+00	 1.005084898092307e+01
0	 2.999999999999998e+00	 5.625000000000000e+00	 1.004505043076923e+01
0	 3.062499999999998e+00	 5.000000000000000e+00	 1.010653993846154e+01
0	 3.062499999999998e+00	 5.062500000000000e+00	 1.010194748123076e+01
0	 3.062499999999998e+00	 5.125000000000001e+00	 1.009719827261538e+01
0	 3.062499999999998e+00	 5.187499999999999e+00	 1.009229231261538e+01
0	 3.062499999999998e+00	 5.249999999999999e+00	 1.008722960123075e+01
0	 3.062499999999998e+00	 5.312499999999998e+00	 1.008201013846153e+01
0	 3.062499999999998e+00	 5.374999999999997e+00	 1.007663392430768e+01
0	 3.062499999999998e+00	 5.437499999999998e+00	 1.007110095876923e+01
0	 3.062499999999998e+00	 5.499999999999999e+00	 1.006541124184616e+01
0	 3.062499999999998e+00	 5.562499999999998e+00	 1.005956477353845e+01
0	 3.062499999999998e+00	 5.625000000000000e+00	 1.005356155384613e+01
0	 3.125000000000000e+00	 5.000000000000000e+00	 1.011617538461538e+01
0	 3.125000000000000e+00	 5.062500000000000e+00	 1.011142663076923e+01
0	 3.125000000000000e+00	 5.125000000000001e+00	 1.010651883076923e+01
0	 3.125000000000000e+00	 5.187499999999999e+00	 1.010145198461537e+01
0	 3.125000000000000e+00	 5.249999999999999e+00	 1.009622609230769e+01
0	 3.125000000000000e+00	 5.312499999999999e+00	 1.009084115384615e+01
0	 3.125000000000000e+00	 5.374999999999998e+00	 1.008529716923077e+01
0	 3.125000000000000e+00	 5.437499999999998e+00	 1.007959413846154e+01
0	 3.125000000000000e+00	 5.499999999999998e+00	 1.007373206153846e+01
0	 3.125000000000000e+00	 5.562499999999998e+00	 1.006771093846153e+01
0	 3.125000000000000e+00	 5.625000000000000e+00	 1.006153076923077e+01
0	 2.500000000000000e+00	 5.625000000000000e+00	 9.957452769230766e+00
0	 2.500000000000000e+00	 5.687500000000000e+00	 9.957423683076925e+00
0	 2.500000000000000e+00	 5.750000000000000e+00	 9.957292301538446e+00
0	 2.500000000000000e+00	 5.812499999999999e+00	 9.957058624615396e+00
0	 2.500000000000000e+00	 5.874999999999999e+00	 9.956722652307691e+00
0	 2.500000000000000e+00	 5.937499999999999e+00	 9.956284384615392e+00
0	 2.500000000000000e+00	 5.999999999999998e+00	 9.955743821538473e+00
0	 2.500000000000000e+00	 6.062499999999998e+00	 9.955100963076918e+00
0	 2.500000000000000e+00	 6.124999999999998e+00	 9.954355809230778e+00
0	 2.500000000000000e+00	 6.187499999999998e+00	 9.953508360000015e+00
0	 2.500000000000000e+00	 6.250000000000000e+00	 9.952558615384623e+00
0	 2.562500000000000e+00	 5.625000000000000e+00	 9.970299153846142e+00
0	 2.562500000000000e+00	 5.687499999999999e+00	 9.969885750153846e+00
0	 2.562500000000000e+00	 5.749999999999999e+00	 9.969371751384617e+00
0	 2.562500000000000e+00	 5.812499999999998e+00	 9.968757157538464e+00
0	 2.562500000000000e+00	 5.875000000000000e+00	 9.968041968615388e+00
0	 2.562500000000000e+00	 5.937500000000001e+00	 9.967226184615386e+00
0	 2.562500000000000e+00	 5.999999999999999e+00	 9.966309805538456e+00
0	 2.562500000000000e+00	 6.062500000000000e+00	 9.965292831384605e+00
0	 2.562500000000000e+00	 6.125000000000000e+00	 9.964175262153839e+00
0	 2.562500000000000e+00	 6.187499999999996e+00	 9.962957097846145e+00
0	 2.562500000000000e+00	 6.250000000000000e+00	 9.961638338461539e+00
0	 2.625000000000000e+00	 5.625000000000000e+00	 9.982603630769235e+00
0	 2.624999999999999e+00	 5.687499999999999e+00	 9.981829278769229e+00
0	 2.625000000000000e+00	 5.750000000000002e+00	 9.980956032000002e+00
0	 2.625000000000000e+00	 5.812499999999999e+00	 9.979983890461536e+00
0	 2.625000000000000e+00	 5.874999999999998e+00	 9.978912854153851e+00
0	 2.625000000000000e+00	 5.937499999999999e+00	 9.977742923076931e+00
0	 2.625000000000000e+00	 5.999999999999998e+00	 9.976474097230764e+00
0	 2.625000000000000e+00	 6.062499999999999e+00	 9.975106376615383e+00
0	 2.625000000000000e+00	 6.124999999999998e+00	 9.973639761230764e+00
0	 2.625000000000000e+00	 6.187499999999998e+00	 9.972074251076915e+00
0	 2.625000000000000e+00	 6.250000000000000e+00	 9.970409846153853e+00
0	 2.687499999999999e+00	 5.625000000000000e+00	 9.994366199999982e+00
0	 2.687499999999999e+00	 5.687500000000000e+00	 9.993254268923081e+00
0	 2.687500000000000e+00	 5.749999999999999e+00	 9.992045143384610e+00
0	 2.687499999999999e+00	 5.812499999999999e+00	 9.990738823384616e+00
0	 2.687500000000000e+00	 5.875000000000000e+00	 9.989335308923081e+00
0	 2.687500000000000e+00	 5.937500000000000e+00	 9.987834600000003e+00
0	 2.687500000000000e+00	 5.999999999999998e+00	 9.986236696615393e+00
0	 2.687500000000000e+00	 6.062499999999998e+00	 9.984541598769237e+00
0	 2.687500000000000e+00	 6.124999999999997e+00	 9.982749306461546e+00
0	 2.687499999999999e+00	 6.187499999999997e+00	 9.980859819692331e+00
0	 2.687499999999999e+00	 6.250000000000000e+00	 9.978873138461523e+00
0	 2.749999999999999e+00	 5.625000000000000e+00	 1.000558686153844e+01
0	 2.750000000000000e+00	 5.687500000000000e+00	 1.000416072061538e+01
0	 2.750000000000000e+00	 5.750000000000000e+00	 1.000263908553847e+01
0	 2.749999999999999e+00	 5.812500000000000e+00	 1.000102195630769e+01
0	 2.750000000000000e+00	 5.874999999999999e+00	 9.999309332923071e+00
0	 2.749999999999999e+00	 5.937499999999999e+00	 9.997501215384618e+00
0	 2.749999999999999e+00	 5.999999999999997e+00	 9.995597603692309e+00
0	 2.749999999999999e+00	 6.062499999999998e+00	 9.993598497846149e+00
0	 2.750000000000000e+00	 6.124999999999999e+00	 9.991503897846158e+00
0	 2.749999999999999e+00	 6.187499999999998e+00	 9.989313803692315e+00
0	 2.749999999999999e+00	 6.250000000000000e+00	 9.987028215384631e+00
0	 2.812499999999999e+00	 5.625000000000000e+00	 1.001626561538461e+01
0	 2.812499999999999e+00	 5.687500000000000e+00	 1.001454863384616e+01
0	 2.812499999999999e+00	 5.750000000000000e+00	 1.001273785846154e+01
0	 2.812500000000000e+00	 5.812500000000000e+00	 1.001083328923078e+01
0	 2.812499999999999e+00	 5.874999999999998e+00	 1.000883492615385e+01
0	 2.812499999999999e+00	 5.937499999999998e+00	 1.000674276923078e+01
0	 2.812500000000000e+00	 6.000000000000000e+00	 1.000455681846154e+01
0	 2.812499999999999e+00	 6.062499999999998e+00	 1.000227707384616e+01
0	 2.812499999999999e+00	 6.124999999999998e+00	 9.999903535384616e+00
0	 2.812499999999999e+00	 6.187499999999999e+00	 9.997436203076921e+00
0	 2.812499999999999e+00	 6.250000000000000e+00	 9.994875076923094e+00
0	 2.874999999999999e+00	 5.625000000000000e+00	 1.002640246153846e+01
0	 2.874999999999999e+00	 5.687499999999999e+00	 1.002441800861539e+01
0	 2.874999999999999e+00	 5.750000000000000e+00	 1.002234146215384e+01
0	 2.874999999999999e+00	 5.812499999999999e+00	 1.002017282215384e+01
0	 2.874999999999999e+00	 5.875000000000001e+00	 1.001791208861540e+01
0	 2.874999999999999e+00	 5.937499999999999e+00	 1.001555926153846e+01
0	 2.874999999999999e+00	 5.999999999999998e+00	 1.001311434092308e+01
0	 2.874999999999999e+00	 6.062499999999999e+00	 1.001057732676923e+01
0	 2.874999999999999e+00	 6.124999999999998e+00	 1.000794821907693e+01
0	 2.874999999999999e+00	 6.187499999999998e+00	 1.000522701784614e+01
0	 2.874999999999999e+00	 6.250000000000000e+00	 1.000241372307691e+01
0	 2.937499999999999e+00	 5.625000000000000e+00	 1.003599740000000e+01
0	 2.937499999999999e+00	 5.687500000000000e+00	 1.003376884492307e+01
0	 2.937499999999999e+00	 5.750000000000000e+00	 1.003144989661538e+01
0	 2.937499999999999e+00	 5.812499999999999e+00	 1.002904055507692e+01
0	 2.937499999999998e+00	 5.874999999999999e+00	 1.002654082030769e+01
0	 2.937499999999999e+00	 5.937500000000001e+00	 1.002395069230770e+01
0	 2.937499999999999e+00	 5.999999999999999e+00	 1.002127017107694e+01
0	 2.937499999999998e+00	 6.062499999999999e+00	 1.001849925661540e+01
0	 2.937499999999999e+00	 6.124999999999999e+00	 1.001563794892308e+01
0	 2.937499999999999e+00	 6.187499999999999e+00	 1.001268624799999e+01
0	 2.937499999999999e+00	 6.250000000000000e+00	 1.000964415384616e+01
0	 2.999999999999998e+00	 5.625000000000000e+00	 1.004505043076923e+01
0	 2.999999999999999e+00	 5.687500000000000e+00	 1.004260114276923e+01
0	 2.999999999999998e+00	 5.750000000000000e+00	 1.004006316184615e+01
0	 2.999999999999999e+00	 5.812499999999999e+00	 1.003743648799999e+01
0	 2.999999999999999e+00	 5.875000000000000e+00	 1.003472112123077e+01
0	 2.999999999999999e+00	 5.937500000000000e+00	 1.003191706153845e+01
0	 2.999999999999998e+00	 5.999999999999998e+00	 1.002902430892308e+01
0	 2.999999999999998e+00	 6.062499999999998e+00	 1.002604286338461e+01
0	 2.999999999999998e+00	 6.124999999999999e+00	 1.002297272492307e+01
0	 2.999999999999998e+00	 6.187499999999998e+00	 1.001981389353847e+01
0	 2.999999999999998e+00	 6.250000000000000e+00	 1.001656636923077e+01
0	 3.062499999999998e+00	 5.625000000000000e+00	 1.005356155384613e+01
0	 3.062499999999998e+00	 5.687500000000000e+00	 1.005091490215383e+01
0	 3.062499999999998e+00	 5.750000000000000e+00	 1.004818125784615e+01
0	 3.062499999999998e+00	 5.812499999999999e+00	 1.004536062092307e+01
0	 3.062499999999998e+00	 5.875000000000000e+00	 1.004245299138461e+01
0	 3.062499999999998e+00	 5.937499999999999e+00	 1.003945836923076e+01
0	 3.062499999999998e+00	 5.999999999999998e+00	 1.003637675446153e+01
0	 3.062499999999998e+00	 6.062499999999998e+00	 1.003320814707693e+01
0	 3.062499999999998e+00	 6.124999999999998e+00	 1.002995254707692e+01
0	 3.062499999999998e+00	 6.187499999999997e+00	 1.002660995446155e+01
0	 3.062499999999998e+00	 6.250000000000000e+00	 1.002318036923077e+01
0	 3.125000000000000e+00	 5.625000000000000e+00	 1.006153076923077e+01
0	 3.125000000000000e+00	 5.687500000000000e+00	 1.005871012307692e+01
0	 3.125000000000000e+00	 5.750000000000000e+00	 1.005580418461538e+01
0	 3.125000000000000e+00	 5.812499999999999e+00	 1.005281295384617e+01
0	 3.125000000000000e+00	 5.874999999999999e+00	 1.004973643076923e+01
0	 3.125000000000000e+00	 5.937499999999999e+00	 1.004657461538462e+01
0	 3.125000000000000e+00	 5.999999999999998e+00	 1.004332750769232e+01
0	 3.125000000000000e+00	 6.062499999999998e+00	 1.003999510769231e+01
0	 3.125000000000000e+00	 6.124999999999998e+00	 1.003657741538461e+01
0	 3.125000000000000e+00	 6.187499999999998e+00	 1.003307443076924e+01
0	 3.125000000000000e+00	 6.250000000000000e+00	 1.002948615384615e+01
0	 2.500000000000000e+00	 6.250000000000000e+00	 9.952558615384623e+00
0	 2.500000000000000e+00	 6.312500000000000e+00	 9.953359638461547e+00
0	 2.500000000000000e+00	 6.375000000000000e+00	 9.954113723076933e+00
0	 2.500000000000000e+00	 6.437499999999999e+00	 9.954820869230760e+00
0	 2.500000000000000e+00	 6.499999999999999e+00	 9.955481076923078e+00
0	 2.500000000000000e+00	 6.562499999999998e+00	 9.956094346153851e+00
0	 2.500000000000000e+00	 6.624999999999998e+00	 9.956660676923065e+00
0	 2.500000000000000e+00	 6.687499999999998e+00	 9.957180069230755e+00
0	 2.500000000000000e+00	 6.749999999999998e+00	 9.957652523076931e+00
0	 2.500000000000000e+00	 6.812499999999998e+00	 9.958078038461551e+00
0	 2.500000000000000e+00	 6.875000000000000e+00	 9.958456615384613e+00
0	 2.562500000000000e+00	 6.250000000000000e+00	 9.961638338461539e+00
0	 2.562500000000000e+00	 6.312500000000000e+00	 9.962155034615378e+00
0	 2.562500000000000e+00	 6.374999999999999e+00	 9.962623024615379e+00
0	 2.562500000000000e+00	 6.437500000000000e+00	 9.963042308461542e+00
0	 2.562500000000000e+00	 6.499999999999997e+00	 9.963412886153845e+00
0	 2.562500000000000e+00	 6.562500000000000e+00	 9.963734757692311e+00
0	 2.562500000000000e+00	 6.624999999999999e+00	 9.964007923076927e+00
0	 2.562500000000000e+00	 6.687499999999999e+00	 9.964232382307701e+00
0	 2.562500000000000e+00	 6.749999999999999e+00	 9.964408135384630e+00
0	 2.562500000000000e+00	 6.812499999999996e+00	 9.964535182307680e+00
0	 2.562500000000000e+00	 6.875000000000001e+00	 9.964613523076917e+00
0	 2.625000000000000e+00	 6.250000000000000e+00	 9.970409846153853e+00
0	 2.624999999999999e+00	 6.312499999999999e+00	 9.970656258461544e+00
0	 2.625000000000000e+00	 6.375000000000000e+00	 9.970852196923083e+00
0	 2.625000000000000e+00	 6.437499999999998e+00	 9.970997661538455e+00
0	 2.625000000000000e+00	 6.499999999999996e+00	 9.971092652307693e+00
0	 2.625000000000000e+00	 6.562499999999998e+00	 9.971137169230772e+00
0	 2.625000000000000e+00	 6.624999999999996e+00	 9.971131212307697e+00
0	 2.625000000000000e+00	 6.687499999999999e+00	 9.971074781538457e+00
0	 2.625000000000000e+00	 6.749999999999997e+00	 9.970967876923080e+00
0	 2.625000000000000e+00	 6.812500000000000e+00	 9.970810498461528e+00
0	 2.625000000000000e+00	 6.875000000000000e+00	 9.970602646153832e+00
0	 2.687499999999999e+00	 6.250000000000000e+00	 9.978873138461523e+00
0	 2.687499999999999e+00	 6.312499999999999e+00	 9.978863310000007e+00
0	 2.687500000000000e+00	 6.375000000000000e+00	 9.978801239999992e+00
0	 2.687499999999999e+00	 6.437500000000000e+00	 9.978686928461528e+00
0	 2.687500000000000e+00	 6.499999999999998e+00	 9.978520375384626e+00
0	 2.687500000000000e+00	 6.562499999999999e+00	 9.978301580769239e+00
0	 2.687500000000000e+00	 6.624999999999999e+00	 9.978030544615375e+00
0	 2.687500000000000e+00	 6.687499999999998e+00	 9.977707266923076e+00
0	 2.687500000000000e+00	 6.749999999999998e+00	 9.977331747692300e+00
0	 2.687499999999999e+00	 6.812499999999997e+00	 9.976903986923075e+00
0	 2.687499999999999e+00	 6.874999999999999e+00	 9.976423984615399e+00
0	 2.749999999999999e+00	 6.250000000000000e+00	 9.987028215384631e+00
0	 2.750000000000000e+00	 6.312499999999999e+00	 9.986776189230763e+00
0	 2.750000000000000e+00	 6.375000000000000e+00	 9.986470153846160e+00
0	 2.749999999999999e+00	 6.437499999999999e+00	 9.986110109230774e+00
0	 2.750000000000000e+00	 6.499999999999997e+00	 9.985696055384619e+00
0	 2.749999999999999e+00	 6.562499999999999e+00	 9.985227992307701e+00
0	 2.749999999999999e+00	 6.624999999999998e+00	 9.984705920000003e+00
0	 2.749999999999999e+00	 6.687499999999998e+00	 9.984129838461550e+00
0	 2.750000000000000e+00	 6.749999999999998e+00	 9.983499747692317e+00
0	 2.749999999999999e+00	 6.812499999999998e+00	 9.982815647692322e+00
0	 2.749999999999999e+00	 6.875000000000001e+00	 9.982077538461542e+00
0	 2.812499999999999e+00	 6.250000000000000e+00	 9.994875076923094e+00
0	 2.812499999999999e+00	 6.312500000000000e+00	 9.994394896153837e+00
0	 2.812499999999999e+00	 6.375000000000000e+00	 9.993858938461525e+00
0	 2.812500000000000e+00	 6.437499999999999e+00	 9.993267203846157e+00
0	 2.812499999999999e+00	 6.499999999999997e+00	 9.992619692307690e+00
0	 2.812499999999999e+00	 6.562499999999999e+00	 9.991916403846165e+00
0	 2.812500000000000e+00	 6.625000000000000e+00	 9.991157338461543e+00
0	 2.812499999999999e+00	 6.687499999999999e+00	 9.990342496153856e+00
0	 2.812499999999999e+00	 6.749999999999999e+00	 9.989471876923069e+00
0	 2.812499999999999e+00	 6.812499999999998e+00	 9.988545480769234e+00
0	 2.812499999999999e+00	 6.875000000000000e+00	 9.987563307692293e+00
0	 2.874999999999999e+00	 6.250000000000000e+00	 1.000241372307691e+01
0	 2.874999999999999e+00	 6.312499999999999e+00	 1.000171943076923e+01
0	 2.874999999999999e+00	 6.374999999999997e+00	 1.000096759384615e+01
0	 2.874999999999999e+00	 6.437499999999999e+00	 1.000015821230769e+01
0	 2.874999999999999e+00	 6.500000000000000e+00	 9.999291286153845e+00
0	 2.874999999999999e+00	 6.562500000000001e+00	 9.998366815384625e+00
0	 2.874999999999999e+00	 6.624999999999998e+00	 9.997384799999995e+00
0	 2.874999999999999e+00	 6.687499999999999e+00	 9.996345240000013e+00
0	 2.874999999999999e+00	 6.749999999999999e+00	 9.995248135384593e+00
0	 2.874999999999999e+00	 6.812499999999998e+00	 9.994093486153851e+00
0	 2.874999999999999e+00	 6.875000000000000e+00	 9.992881292307690e+00
0	 2.937499999999999e+00	 6.250000000000000e+00	 1.000964415384616e+01
0	 2.937499999999999e+00	 6.312499999999999e+00	 1.000874979307693e+01
0	 2.937499999999999e+00	 6.375000000000001e+00	 1.000779612000000e+01
0	 2.937499999999999e+00	 6.437499999999999e+00	 1.000678313461539e+01
0	 2.937499999999998e+00	 6.500000000000000e+00	 1.000571083692309e+01
0	 2.937499999999999e+00	 6.562499999999999e+00	 1.000457922692308e+01
0	 2.937499999999999e+00	 6.624999999999999e+00	 1.000338830461539e+01
0	 2.937499999999998e+00	 6.687499999999999e+00	 1.000213807000001e+01
0	 2.937499999999999e+00	 6.749999999999998e+00	 1.000082852307693e+01
0	 2.937499999999999e+00	 6.812499999999999e+00	 9.999459663846153e+00
0	 2.937499999999999e+00	 6.875000000000000e+00	 9.998031492307705e+00
0	 2.999999999999998e+00	 6.250000000000000e+00	 1.001656636923077e+01
0	 2.999999999999999e+00	 6.312500000000001e+00	 1.001548598307692e+01
0	 2.999999999999998e+00	 6.374999999999999e+00	 1.001434451692309e+01
0	 2.999999999999999e+00	 6.437500000000000e+00	 1.001314197076923e+01
0	 2.999999999999999e+00	 6.499999999999999e+00	 1.001187834461539e+01
0	 2.999999999999999e+00	 6.562499999999999e+00	 1.001055363846155e+01
0	 2.999999999999998e+00	 6.624999999999998e+00	 1.000916785230770e+01
0	 2.999999999999998e+00	 6.687499999999998e+00	 1.000772098615386e+01
0	 2.999999999999998e+00	 6.749999999999998e+00	 1.000621304000002e+01
0	 2.999999999999998e+00	 6.812499999999998e+00	 1.000464401384615e+01
0	 2.999999999999998e+00	 6.875000000000000e+00	 1.000301390769231e+01
0	 3.062499999999998e+00	 6.250000000000000e+00	 1.002318036923077e+01
0	 3.062499999999998e+00	 6.312500000000000e+00	 1.002192800076923e+01
0	 3.062499999999998e+00	 6.375000000000000e+00	 1.002061278461539e+01
0	 3.062499999999998e+00	 6.437499999999999e+00	 1.001923472076922e+01
0	 3.062499999999998e+00	 6.499999999999998e+00	 1.001779380923077e+01
0	 3.062499999999998e+00	 6.562499999999998e+00	 1.001629005000000e+01
0	 3.062499999999998e+00	 6.624999999999998e+00	 1.001472344307693e+01
0	 3.062499999999998e+00	 6.687499999999998e+00	 1.001309398846155e+01
0	 3.062499999999998e+00	 6.749999999999999e+00	 1.001140168615385e+01
0	 3.062499999999998e+00	 6.812499999999997e+00	 1.000964653615386e+01
0	 3.062499999999998e+00	 6.875000000000000e+00	 1.000782853846155e+01
0	 3.125000000000000e+00	 6.250000000000000e+00	 1.002948615384615e+01
0	 3.125000000000000e+00	 6.312500000000000e+00	 1.002807584615384e+01
0	 3.125000000000000e+00	 6.375000000000000e+00	 1.002660092307693e+01
0	 3.125000000000000e+00	 6.437499999999999e+00	 1.002506138461538e+01
0	 3.125000000000000e+00	 6.499999999999999e+00	 1.002345723076924e+01
0	 3.125000000000000e+00	 6.562499999999998e+00	 1.002178846153847e+01
0	 3.125000000000000e+00	 6.624999999999998e+00	 1.002005507692307e+01
0	 3.125000000000000e+00	 6.687499999999998e+00	 1.001825707692307e+01
0	 3.125000000000000e+00	 6.749999999999998e+00	 1.001639446153847e+01
0	 3.125000000000000e+00	 6.812499999999998e+00	 1.001446723076924e+01
0	 3.125000000000000e+00	 6.875000000000000e+00	 1.001247538461539e+01
0	 2.500000000000000e+00	 6.875000000000000e+00	 9.958456615384613e+00
0	 2.500000000000000e+00	 6.937500000000000e+00	 9.959551892307692e+00
0	 2.500000000000000e+00	 7.000000000000000e+00	 9.960634892307677e+00
0	 2.500000000000000e+00	 7.062500000000000e+00	 9.961705615384613e+00
0	 2.500000000000000e+00	 7.125000000000000e+00	 9.962764061538454e+00
0	 2.500000000000000e+00	 7.187499999999998e+00	 9.963810230769219e+00
0	 2.500000000000000e+00	 7.249999999999998e+00	 9.964844123076919e+00
0	 2.500000000000000e+00	 7.312499999999998e+00	 9.965865738461536e+00
0	 2.500000000000000e+00	 7.374999999999998e+00	 9.966875076923063e+00
0	 2.500000000000000e+00	 7.437499999999998e+00	 9.967872138461539e+00
0	 2.500000000000000e+00	 7.500000000000000e+00	 9.968856923076915e+00
0	 2.562500000000000e+00	 6.875000000000001e+00	 9.964613523076917e+00
0	 2.562500000000000e+00	 6.937499999999999e+00	 9.965501746153819e+00
0	 2.562500000000000e+00	 6.999999999999999e+00	 9.966375532307691e+00
0	 2.562500000000000e+00	 7.062500000000000e+00	 9.967234881538452e+00
0	 2.562500000000000e+00	 7.124999999999998e+00	 9.968079793846155e+00
0	 2.562500000000000e+00	 7.187499999999999e+00	 9.968910269230772e+00
0	 2.562500000000000e+00	 7.250000000000000e+00	 9.969726307692307e+00
0	 2.562500000000000e+00	 7.312499999999999e+00	 9.970527909230768e+00
0	 2.562500000000000e+00	 7.374999999999999e+00	 9.971315073846142e+00
0	 2.562500000000000e+00	 7.437499999999996e+00	 9.972087801538445e+00
0	 2.562500000000000e+00	 7.500000000000000e+00	 9.972846092307694e+00
0	 2.625000000000000e+00	 6.875000000000000e+00	 9.970602646153832e+00
0	 2.624999999999999e+00	 6.937499999999999e+00	 9.971291289230770e+00
0	 2.625000000000000e+00	 7.000000000000001e+00	 9.971963335384618e+00
0	 2.625000000000000e+00	 7.062499999999999e+00	 9.972618784615381e+00
0	 2.625000000000000e+00	 7.124999999999998e+00	 9.973257636923062e+00
0	 2.625000000000000e+00	 7.187499999999999e+00	 9.973879892307686e+00
0	 2.625000000000000e+00	 7.249999999999996e+00	 9.974485550769220e+00
0	 2.625000000000000e+00	 7.312499999999998e+00	 9.975074612307690e+00
0	 2.625000000000000e+00	 7.374999999999997e+00	 9.975647076923053e+00
0	 2.625000000000000e+00	 7.437500000000000e+00	 9.976202944615402e+00
0	 2.625000000000000e+00	 7.499999999999999e+00	 9.976742215384604e+00
0	 2.687499999999999e+00	 6.874999999999999e+00	 9.976423984615399e+00
0	 2.687499999999999e+00	 6.937499999999999e+00	 9.976920521538467e+00
0	 2.687500000000000e+00	 7.000000000000000e+00	 9.977398301538470e+00
0	 2.687499999999999e+00	 7.062500000000000e+00	 9.977857324615364e+00
0	 2.687500000000000e+00	 7.124999999999999e+00	 9.978297590769236e+00
0	 2.687500000000000e+00	 7.187499999999999e+00	 9.978719099999996e+00
0	 2.687500000000000e+00	 7.250000000000000e+00	 9.979121852307689e+00
0	 2.687500000000000e+00	 7.312499999999999e+00	 9.979505847692302e+00
0	 2.687500000000000e+00	 7.374999999999997e+00	 9.979871086153828e+00
0	 2.687499999999999e+00	 7.437499999999998e+00	 9.980217567692286e+00
0	 2.687499999999999e+00	 7.500000000000000e+00	 9.980545292307704e+00
0	 2.749999999999999e+00	 6.875000000000001e+00	 9.982077538461542e+00
0	 2.750000000000000e+00	 6.937499999999999e+00	 9.982389443076908e+00
0	 2.750000000000000e+00	 7.000000000000001e+00	 9.982680430769239e+00
0	 2.749999999999999e+00	 7.062500000000000e+00	 9.982950501538467e+00
0	 2.750000000000000e+00	 7.124999999999999e+00	 9.983199655384615e+00
0	 2.749999999999999e+00	 7.187499999999999e+00	 9.983427892307674e+00
0	 2.749999999999999e+00	 7.249999999999997e+00	 9.983635212307696e+00
0	 2.749999999999999e+00	 7.312499999999998e+00	 9.983821615384601e+00
0	 2.750000000000000e+00	 7.374999999999999e+00	 9.983987101538466e+00
0	 2.749999999999999e+00	 7.437499999999998e+00	 9.984131670769219e+00
0	 2.749999999999999e+00	 7.500000000000000e+00	 9.984255323076910e+00
0	 2.812499999999999e+00	 6.875000000000000e+00	 9.987563307692293e+00
0	 2.812499999999999e+00	 6.937500000000000e+00	 9.987698053846149e+00
0	 2.812499999999999e+00	 7.000000000000000e+00	 9.987809723076939e+00
0	 2.812500000000000e+00	 7.062500000000000e+00	 9.987898315384600e+00
0	 2.812499999999999e+00	 7.124999999999997e+00	 9.987963830769237e+00
0	 2.812499999999999e+00	 7.187499999999999e+00	 9.988006269230770e+00
0	 2.812500000000000e+00	 7.249999999999999e+00	 9.988025630769222e+00
0	 2.812499999999999e+00	 7.312499999999998e+00	 9.988021915384607e+00
0	 2.812499999999999e+00	 7.374999999999997e+00	 9.987995123076914e+00
0	 2.812499999999999e+00	 7.437499999999998e+00	 9.987945253846139e+00
0	 2.812499999999999e+00	 7.500000000000000e+00	 9.987872307692321e+00
0	 2.874999999999999e+00	 6.875000000000000e+00	 9.992881292307690e+00
0	 2.874999999999999e+00	 6.937500000000000e+00	 9.992846353846168e+00
0	 2.874999999999999e+00	 6.999999999999998e+00	 9.992786178461539e+00
0	 2.874999999999999e+00	 7.062500000000000e+00	 9.992700766153847e+00
0	 2.874999999999999e+00	 7.125000000000000e+00	 9.992590116923079e+00
0	 2.874999999999999e+00	 7.187500000000000e+00	 9.992454230769226e+00
0	 2.874999999999999e+00	 7.249999999999998e+00	 9.992293107692308e+00
0	 2.874999999999999e+00	 7.312499999999999e+00	 9.992106747692324e+00
0	 2.874999999999999e+00	 7.374999999999999e+00	 9.991895150769219e+00
0	 2.874999999999999e+00	 7.437499999999998e+00	 9.991658316923060e+00
0	 2.874999999999999e+00	 7.499999999999999e+00	 9.991396246153840e+00
0	 2.937499999999999e+00	 6.875000000000000e+00	 9.998031492307705e+00
0	 2.937499999999999e+00	 6.937499999999999e+00	 9.997834343076928e+00
0	 2.937499999999999e+00	 7.000000000000001e+00	 9.997609796923072e+00
0	 2.937499999999999e+00	 7.062499999999999e+00	 9.997357853846147e+00
0	 2.937499999999998e+00	 7.124999999999999e+00	 9.997078513846144e+00
0	 2.937499999999999e+00	 7.187500000000000e+00	 9.996771776923060e+00
0	 2.937499999999999e+00	 7.249999999999999e+00	 9.996437643076934e+00
0	 2.937499999999998e+00	 7.312500000000000e+00	 9.996076112307701e+00
0	 2.937499999999999e+00	 7.374999999999998e+00	 9.995687184615377e+00
0	 2.937499999999999e+00	 7.437499999999999e+00	 9.995270859999980e+00
0	 2.937499999999999e+00	 7.499999999999998e+00	 9.994827138461542e+00
0	 2.999999999999998e+00	 6.875000000000000e+00	 1.000301390769231e+01
0	 2.999999999999999e+00	 6.937500000000001e+00	 1.000266202153847e+01
0	 2.999999999999998e+00	 6.999999999999998e+00	 1.000228057846154e+01
0	 2.999999999999999e+00	 7.062500000000000e+00	 1.000186957846154e+01
0	 2.999999999999999e+00	 7.125000000000000e+00	 1.000142902153847e+01
0	 2.999999999999999e+00	 7.187500000000000e+00	 1.000095890769231e+01
0	 2.999999999999998e+00	 7.250000000000000e+00	 1.000045923692308e+01
0	 2.999999999999998e+00	 7.312499999999999e+00	 9.999930009230756e+00
0	 2.999999999999998e+00	 7.374999999999998e+00	 9.999371224615368e+00
0	 2.999999999999998e+00	 7.437499999999998e+00	 9.998782883076922e+00
0	 2.999999999999998e+00	 7.500000000000000e+00	 9.998164984615389e+00
0	 3.062499999999998e+00	 6.875000000000000e+00	 1.000782853846155e+01
0	 3.062499999999998e+00	 6.937500000000001e+00	 1.000732938923076e+01
0	 3.062499999999998e+00	 7.000000000000001e+00	 1.000679852307693e+01
0	 3.062499999999998e+00	 7.062500000000000e+00	 1.000623594000000e+01
0	 3.062499999999998e+00	 7.124999999999999e+00	 1.000564164000000e+01
0	 3.062499999999998e+00	 7.187499999999998e+00	 1.000501562307692e+01
0	 3.062499999999998e+00	 7.249999999999999e+00	 1.000435788923077e+01
0	 3.062499999999998e+00	 7.312499999999998e+00	 1.000366843846153e+01
0	 3.062499999999998e+00	 7.374999999999998e+00	 1.000294727076923e+01
0	 3.062499999999998e+00	 7.437499999999998e+00	 1.000219438615384e+01
0	 3.062499999999998e+00	 7.500000000000000e+00	 1.000140978461538e+01
0	 3.125000000000000e+00	 6.875000000000000e+00	 1.001247538461539e+01
0	 3.125000000000000e+00	 6.937500000000000e+00	 1.001183644615385e+01
0	 3.125000000000000e+00	 7.000000000000000e+00	 1.001116363076923e+01
0	 3.125000000000000e+00	 7.062500000000000e+00	 1.001045693846155e+01
0	 3.125000000000000e+00	 7.125000000000000e+00	 1.000971636923077e+01
0	 3.125000000000000e+00	 7.187499999999998e+00	 1.000894192307692e+01
0	 3.125000000000000e+00	 7.249999999999998e+00	 1.000813360000001e+01
0	 3.125000000000000e+00	 7.312499999999998e+00	 1.000729139999999e+01
0	 3.125000000000000e+00	 7.374999999999998e+00	 1.000641532307692e+01
0	 3.125000000000000e+00	 7.437499999999998e+00	 1.000550536923077e+01
0	 3.125000000000000e+00	 7.500000000000000e+00	 1.000456153846153e+01
0	 2.500000000000000e+00	 7.500000000000000e+00	 9.968856923076915e+00
0	 2.500000000000000e+00	 7.562500000000000e+00	 9.969977936923069e+00
0	 2.500000000000000e+00	 7.625000000000000e+00	 9.971110147692311e+00
0	 2.500000000000000e+00	 7.687499999999999e+00	 9.972253555384604e+00
0	 2.500000000000000e+00	 7.750000000000000e+00	 9.973408160000002e+00
0	 2.500000000000000e+00	 7.812499999999999e+00	 9.974573961538447e+00
0	 2.500000000000000e+00	 7.874999999999998e+00	 9.975750959999989e+00
0	 2.500000000000000e+00	 7.937499999999997e+00	 9.976939155384608e+00
0	 2.500000000000000e+00	 7.999999999999998e+00	 9.978138547692309e+00
0	 2.500000000000000e+00	 8.062499999999996e+00	 9.979349136923066e+00
0	 2.500000000000000e+00	 8.125000000000000e+00	 9.980570923076920e+00
0	 2.562500000000000e+00	 7.500000000000000e+00	 9.972846092307694e+00
0	 2.562500000000000e+00	 7.562499999999999e+00	 9.973806733999984e+00
0	 2.562500000000000e+00	 7.624999999999998e+00	 9.974776012923073e+00
0	 2.562500000000000e+00	 7.687499999999998e+00	 9.975753929076916e+00
0	 2.562500000000000e+00	 7.750000000000000e+00	 9.976740482461528e+00
0	 2.562500000000000e+00	 7.812500000000000e+00	 9.977735673076920e+00
0	 2.562500000000000e+00	 7.874999999999999e+00	 9.978739500923069e+00
0	 2.562500000000000e+00	 7.937499999999998e+00	 9.979751965999984e+00
0	 2.562500000000000e+00	 8.000000000000000e+00	 9.980773068307697e+00
0	 2.562500000000000e+00	 8.062499999999995e+00	 9.981802807846158e+00
0	 2.562500000000000e+00	 8.125000000000000e+00	 9.982841184615369e+00
0	 2.625000000000000e+00	 7.499999999999999e+00	 9.976742215384604e+00
0	 2.624999999999999e+00	 7.562500000000001e+00	 9.977547783384608e+00
0	 2.625000000000000e+00	 7.625000000000001e+00	 9.978359428923074e+00
0	 2.625000000000000e+00	 7.687500000000001e+00	 9.979177151999968e+00
0	 2.625000000000000e+00	 7.749999999999998e+00	 9.980000952615381e+00
0	 2.625000000000000e+00	 7.812499999999998e+00	 9.980830830769220e+00
0	 2.625000000000000e+00	 7.874999999999996e+00	 9.981666786461517e+00
0	 2.625000000000000e+00	 7.937499999999998e+00	 9.982508819692304e+00
0	 2.625000000000000e+00	 7.999999999999999e+00	 9.983356930461532e+00
0	 2.625000000000000e+00	 8.062499999999998e+00	 9.984211118769206e+00
0	 2.625000000000000e+00	 8.125000000000000e+00	 9.985071384615368e+00
0	 2.687499999999999e+00	 7.500000000000000e+00	 9.980545292307704e+00
0	 2.687499999999999e+00	 7.562500000000001e+00	 9.981201085076908e+00
0	 2.687500000000000e+00	 7.625000000000001e+00	 9.981860395692305e+00
0	 2.687499999999999e+00	 7.687500000000000e+00	 9.982523224153828e+00
0	 2.687500000000000e+00	 7.749999999999999e+00	 9.983189570461526e+00
0	 2.687500000000000e+00	 7.812499999999999e+00	 9.983859434615384e+00
0	 2.687500000000000e+00	 7.874999999999998e+00	 9.984532816615374e+00
0	 2.687500000000000e+00	 7.937499999999998e+00	 9.985209716461537e+00
0	 2.687500000000000e+00	 7.999999999999998e+00	 9.985890134153868e+00
0	 2.687499999999999e+00	 8.062499999999996e+00	 9.986574069692304e+00
0	 2.687499999999999e+00	 8.125000000000000e+00	 9.987261523076910e+00
0	 2.749999999999999e+00	 7.500000000000000e+00	 9.984255323076910e+00
0	 2.750000000000000e+00	 7.562500000000000e+00	 9.984766639076923e+00
0	 2.750000000000000e+00	 7.625000000000000e+00	 9.985278913230770e+00
0	 2.749999999999999e+00	 7.687500000000000e+00	 9.985792145538456e+00
0	 2.750000000000000e+00	 7.749999999999998e+00	 9.986306335999990e+00
0	 2.749999999999999e+00	 7.812500000000000e+00	 9.986821484615374e+00
0	 2.749999999999999e+00	 7.874999999999998e+00	 9.987337591384618e+00
0	 2.749999999999999e+00	 7.937499999999999e+00	 9.987854656307675e+00
0	 2.750000000000000e+00	 7.999999999999997e+00	 9.988372679384600e+00
0	 2.749999999999999e+00	 8.062500000000000e+00	 9.988891660615392e+00
0	 2.749999999999999e+00	 8.125000000000000e+00	 9.989411599999990e+00
0	 2.812499999999999e+00	 7.500000000000000e+00	 9.987872307692321e+00
0	 2.812499999999999e+00	 7.562499999999999e+00	 9.988244445384593e+00
0	 2.812499999999999e+00	 7.624999999999999e+00	 9.988614981538442e+00
0	 2.812500000000000e+00	 7.687500000000000e+00	 9.988983916153833e+00
0	 2.812499999999999e+00	 7.749999999999996e+00	 9.989351249230763e+00
0	 2.812499999999999e+00	 7.812499999999999e+00	 9.989716980769224e+00
0	 2.812500000000000e+00	 7.875000000000000e+00	 9.990081110769221e+00
0	 2.812499999999999e+00	 7.937499999999999e+00	 9.990443639230747e+00
0	 2.812499999999999e+00	 7.999999999999998e+00	 9.990804566153827e+00
0	 2.812499999999999e+00	 8.062500000000000e+00	 9.991163891538461e+00
0	 2.812499999999999e+00	 8.125000000000000e+00	 9.991521615384599e+00
0	 2.874999999999999e+00	 7.499999999999999e+00	 9.991396246153840e+00
0	 2.874999999999999e+00	 7.562500000000000e+00	 9.991634503999975e+00
0	 2.874999999999999e+00	 7.624999999999998e+00	 9.991868600615371e+00
0	 2.874999999999999e+00	 7.687499999999998e+00	 9.992098536000002e+00
0	 2.874999999999999e+00	 7.750000000000001e+00	 9.992324310153830e+00
0	 2.874999999999999e+00	 7.812500000000000e+00	 9.992545923076902e+00
0	 2.874999999999999e+00	 7.874999999999998e+00	 9.992763374769220e+00
0	 2.874999999999999e+00	 7.937499999999999e+00	 9.992976665230742e+00
0	 2.874999999999999e+00	 8.000000000000000e+00	 9.993185794461535e+00
0	 2.874999999999999e+00	 8.062499999999998e+00	 9.993390762461509e+00
0	 2.874999999999999e+00	 8.125000000000000e+00	 9.993591569230752e+00
0	 2.937499999999999e+00	 7.499999999999998e+00	 9.994827138461542e+00
0	 2.937499999999999e+00	 7.562500000000000e+00	 9.994936814923078e+00
0	 2.937499999999999e+00	 7.624999999999999e+00	 9.995039770461549e+00
0	 2.937499999999999e+00	 7.687500000000000e+00	 9.995136005076905e+00
0	 2.937499999999998e+00	 7.749999999999998e+00	 9.995225518769224e+00
0	 2.937499999999999e+00	 7.812500000000000e+00	 9.995308311538457e+00
0	 2.937499999999999e+00	 7.874999999999999e+00	 9.995384383384614e+00
0	 2.937499999999998e+00	 7.937500000000000e+00	 9.995453734307667e+00
0	 2.937499999999999e+00	 7.999999999999998e+00	 9.995516364307687e+00
0	 2.937499999999999e+00	 8.062500000000000e+00	 9.995572273384610e+00
0	 2.937499999999999e+00	 8.125000000000000e+00	 9.995621461538452e+00
0	 2.999999999999998e+00	 7.500000000000000e+00	 9.998164984615389e+00
0	 2.999999999999999e+00	 7.562500000000001e+00	 9.998151378153826e+00
0	 2.999999999999998e+00	 7.625000000000000e+00	 9.998128491076914e+00
0	 2.999999999999999e+00	 7.687500000000001e+00	 9.998096323384623e+00
0	 2.999999999999999e+00	 7.749999999999999e+00	 9.998054875076923e+00
0	 2.999999999999999e+00	 7.812499999999998e+00	 9.998004146153852e+00
0	 2.999999999999998e+00	 7.875000000000000e+00	 9.997944136615374e+00
0	 2.999999999999998e+00	 7.937499999999998e+00	 9.997874846461528e+00
0	 2.999999999999998e+00	 7.999999999999998e+00	 9.997796275692300e+00
0	 2.999999999999998e+00	 8.062500000000000e+00	 9.997708424307689e+00
0	 2.999999999999998e+00	 8.125000000000000e+00	 9.997611292307681e+00
0	 3.062499999999998e+00	 7.500000000000000e+00	 1.000140978461538e+01
0	 3.062499999999998e+00	 7.562500000000001e+00	 1.000127819369229e+01
0	 3.062499999999998e+00	 7.624999999999999e+00	 1.000113476246152e+01
0	 3.062499999999998e+00	 7.687499999999999e+00	 1.000097949092308e+01
0	 3.062499999999998e+00	 7.750000000000000e+00	 1.000081237907691e+01
0	 3.062499999999998e+00	 7.812499999999999e+00	 1.000063342692307e+01
0	 3.062499999999998e+00	 7.874999999999998e+00	 1.000044263446152e+01
0	 3.062499999999998e+00	 7.937499999999998e+00	 1.000024000169230e+01
0	 3.062499999999998e+00	 7.999999999999998e+00	 1.000002552861537e+01
0	 3.062499999999998e+00	 8.062499999999998e+00	 9.999799215230777e+00
0	 3.062499999999998e+00	 8.125000000000000e+00	 9.999561061538451e+00
0	 3.125000000000000e+00	 7.500000000000000e+00	 1.000456153846153e+01
0	 3.125000000000000e+00	 7.562500000000000e+00	 1.000431726153845e+01
0	 3.125000000000000e+00	 7.625000000000000e+00	 1.000405858461539e+01
0	 3.125000000000000e+00	 7.687499999999999e+00	 1.000378550769230e+01
0	 3.125000000000000e+00	 7.750000000000000e+00	 1.000349803076923e+01
0	 3.125000000000000e+00	 7.812499999999999e+00	 1.000319615384615e+01
0	 3.125000000000000e+00	 7.874999999999998e+00	 1.000287987692307e+01
0	 3.125000000000000e+00	 7.937499999999997e+00	 1.000254920000000e+01
0	 3.125000000000000e+00	 7.999999999999998e+00	 1.000220412307693e+01
0	 3.125000000000000e+00	 8.062499999999996e+00	 1.000184464615384e+01
0	 3.125000000000000e+00	 8.125000000000000e+00	 1.000147076923077e+01
0	 2.500000000000000e+00	 8.125000000000000e+00	 9.980570923076920e+00
0	 2.500000000000000e+00	 8.187500000000000e+00	 9.981467955384616e+00
0	 2.500000000000000e+00	 8.250000000000002e+00	 9.982397821538438e+00
0	 2.500000000000000e+00	 8.312500000000000e+00	 9.983360521538462e+00
0	 2.500000000000000e+00	 8.374999999999998e+00	 9.984356055384611e+00
0	 2.500000000000000e+00	 8.437500000000000e+00	 9.985384423076921e+00
0	 2.500000000000000e+00	 8.500000000000000e+00	 9.986445624615385e+00
0	 2.500000000000000e+00	 8.562499999999998e+00	 9.987539659999991e+00
0	 2.500000000000000e+00	 8.625000000000000e+00	 9.988666529230764e+00
0	 2.500000000000000e+00	 8.687499999999998e+00	 9.989826232307689e+00
0	 2.500000000000000e+00	 8.750000000000000e+00	 9.991018769230774e+00
0	 2.562500000000000e+00	 8.125000000000000e+00	 9.982841184615369e+00
0	 2.562500000000000e+00	 8.187500000000002e+00	 9.983628529076920e+00
0	 2.562500000000000e+00	 8.250000000000000e+00	 9.984445248615396e+00
0	 2.562500000000000e+00	 8.312499999999998e+00	 9.985291343230760e+00
0	 2.562500000000000e+00	 8.374999999999998e+00	 9.986166812923077e+00
0	 2.562500000000000e+00	 8.437500000000000e+00	 9.987071657692296e+00
0	 2.562500000000000e+00	 8.500000000000002e+00	 9.988005877538459e+00
0	 2.562500000000000e+00	 8.562500000000000e+00	 9.988969472461534e+00
0	 2.562500000000000e+00	 8.625000000000002e+00	 9.989962442461538e+00
0	 2.562500000000000e+00	 8.687499999999996e+00	 9.990984787538453e+00
0	 2.562500000000000e+00	 8.750000000000002e+00	 9.992036507692315e+00
0	 2.625000000000000e+00	 8.125000000000000e+00	 9.985071384615368e+00
0	 2.624999999999999e+00	 8.187499999999998e+00	 9.985751862769215e+00
0	 2.625000000000000e+00	 8.250000000000000e+00	 9.986458257230765e+00
0	 2.625000000000000e+00	 8.312500000000000e+00	 9.987190567999985e+00
0	 2.625000000000000e+00	 8.374999999999998e+00	 9.987948795076912e+00
0	 2.625000000000000e+00	 8.437499999999998e+00	 9.988732938461537e+00
0	 2.625000000000000e+00	 8.499999999999996e+00	 9.989542998153848e+00
0	 2.625000000000000e+00	 8.562500000000002e+00	 9.990378974153849e+00
0	 2.625000000000000e+00	 8.624999999999998e+00	 9.991240866461551e+00
0	 2.625000000000000e+00	 8.687499999999998e+00	 9.992128675076938e+00
0	 2.625000000000000e+00	 8.750000000000000e+00	 9.993042399999986e+00
0	 2.687499999999999e+00	 8.125000000000000e+00	 9.987261523076910e+00
0	 2.687499999999999e+00	 8.187500000000000e+00	 9.987837956461519e+00
0	 2.687500000000000e+00	 8.250000000000002e+00	 9.988436847384619e+00
0	 2.687499999999999e+00	 8.312499999999998e+00	 9.989058195846152e+00
0	 2.687500000000000e+00	 8.374999999999998e+00	 9.989702001846142e+00
0	 2.687500000000000e+00	 8.437500000000000e+00	 9.990368265384600e+00
0	 2.687500000000000e+00	 8.499999999999998e+00	 9.991056986461537e+00
0	 2.687500000000000e+00	 8.562500000000000e+00	 9.991768165076913e+00
0	 2.687500000000000e+00	 8.625000000000000e+00	 9.992501801230752e+00
0	 2.687499999999999e+00	 8.687499999999996e+00	 9.993257894923087e+00
0	 2.687499999999999e+00	 8.750000000000000e+00	 9.994036446153839e+00
0	 2.749999999999999e+00	 8.125000000000000e+00	 9.989411599999990e+00
0	 2.750000000000000e+00	 8.187499999999998e+00	 9.989886810153815e+00
0	 2.750000000000000e+00	 8.250000000000002e+00	 9.990381019076912e+00
0	 2.749999999999999e+00	 8.312500000000000e+00	 9.990894226769214e+00
0	 2.750000000000000e+00	 8.374999999999998e+00	 9.991426433230757e+00
0	 2.749999999999999e+00	 8.437500000000000e+00	 9.991977638461522e+00
0	 2.749999999999999e+00	 8.499999999999998e+00	 9.992547842461525e+00
0	 2.749999999999999e+00	 8.562499999999998e+00	 9.993137045230780e+00
0	 2.750000000000000e+00	 8.624999999999998e+00	 9.993745246769230e+00
0	 2.749999999999999e+00	 8.687499999999996e+00	 9.994372447076914e+00
0	 2.749999999999999e+00	 8.749999999999998e+00	 9.995018646153852e+00
0	 2.812499999999999e+00	 8.125000000000000e+00	 9.991521615384599e+00
0	 2.812499999999999e+00	 8.187499999999998e+00	 9.991898423846141e+00
0	 2.812499999999999e+00	 8.249999999999998e+00	 9.992290772307689e+00
0	 2.812500000000000e+00	 8.312500000000000e+00	 9.992698660769236e+00
0	 2.812499999999999e+00	 8.374999999999998e+00	 9.993122089230765e+00
0	 2.812499999999999e+00	 8.437499999999998e+00	 9.993561057692292e+00
0	 2.812500000000000e+00	 8.500000000000002e+00	 9.994015566153839e+00
0	 2.812499999999999e+00	 8.562499999999998e+00	 9.994485614615382e+00
0	 2.812499999999999e+00	 8.624999999999998e+00	 9.994971203076936e+00
0	 2.812499999999999e+00	 8.687500000000000e+00	 9.995472331538442e+00
0	 2.812499999999999e+00	 8.750000000000000e+00	 9.995989000000012e+00
0	 2.874999999999999e+00	 8.125000000000000e+00	 9.993591569230752e+00
0	 2.874999999999999e+00	 8.187500000000000e+00	 9.993872797538451e+00
0	 2.874999999999999e+00	 8.249999999999998e+00	 9.994166107076909e+00
0	 2.874999999999999e+00	 8.312500000000000e+00	 9.994471497846146e+00
0	 2.874999999999999e+00	 8.375000000000002e+00	 9.994788969846148e+00
0	 2.874999999999999e+00	 8.437500000000002e+00	 9.995118523076915e+00
0	 2.874999999999999e+00	 8.499999999999998e+00	 9.995460157538442e+00
0	 2.874999999999999e+00	 8.562500000000000e+00	 9.995813873230777e+00
0	 2.874999999999999e+00	 8.624999999999998e+00	 9.996179670153833e+00
0	 2.874999999999999e+00	 8.687499999999998e+00	 9.996557548307678e+00
0	 2.874999999999999e+00	 8.750000000000000e+00	 9.996947507692306e+00
0	 2.937499999999999e+00	 8.125000000000000e+00	 9.995621461538452e+00
0	 2.937499999999999e+00	 8.187500000000000e+00	 9.995809931230754e+00
0	 2.937499999999999e+00	 8.250000000000000e+00	 9.996007023384600e+00
0	 2.937499999999999e+00	 8.312500000000000e+00	 9.996212737999990e+00
0	 2.937499999999998e+00	 8.374999999999998e+00	 9.996427075076918e+00
0	 2.937499999999999e+00	 8.437500000000000e+00	 9.996650034615371e+00
0	 2.937499999999999e+00	 8.500000000000000e+00	 9.996881616615354e+00
0	 2.937499999999998e+00	 8.562499999999998e+00	 9.997121821076924e+00
0	 2.937499999999999e+00	 8.624999999999998e+00	 9.997370647999990e+00
0	 2.937499999999999e+00	 8.687500000000000e+00	 9.997628097384615e+00
0	 2.937499999999999e+00	 8.750000000000000e+00	 9.997894169230761e+00
0	 2.999999999999998e+00	 8.125000000000000e+00	 9.997611292307681e+00
0	 2.999999999999999e+00	 8.187500000000002e+00	 9.997709824923060e+00
0	 2.999999999999998e+00	 8.250000000000000e+00	 9.997813521230773e+00
0	 2.999999999999999e+00	 8.312500000000000e+00	 9.997922381230776e+00
0	 2.999999999999999e+00	 8.375000000000002e+00	 9.998036404923075e+00
0	 2.999999999999999e+00	 8.437500000000000e+00	 9.998155592307686e+00
0	 2.999999999999998e+00	 8.500000000000000e+00	 9.998279943384619e+00
0	 2.999999999999998e+00	 8.562499999999996e+00	 9.998409458153851e+00
0	 2.999999999999998e+00	 8.624999999999998e+00	 9.998544136615370e+00
0	 2.999999999999998e+00	 8.687499999999998e+00	 9.998683978769222e+00
0	 2.999999999999998e+00	 8.750000000000002e+00	 9.998828984615379e+00
0	 3.062499999999998e+00	 8.125000000000000e+00	 9.999561061538451e+00
0	 3.062499999999998e+00	 8.187500000000000e+00	 9.999572478615391e+00
0	 3.062499999999998e+00	 8.250000000000002e+00	 9.999585600615388e+00
0	 3.062499999999998e+00	 8.312499999999998e+00	 9.999600427538462e+00
0	 3.062499999999998e+00	 8.374999999999998e+00	 9.999616959384618e+00
0	 3.062499999999998e+00	 8.437499999999998e+00	 9.999635196153843e+00
0	 3.062499999999998e+00	 8.499999999999998e+00	 9.999655137846148e+00
0	 3.062499999999998e+00	 8.562499999999998e+00	 9.999676784461526e+00
0	 3.062499999999998e+00	 8.624999999999998e+00	 9.999700135999992e+00
0	 3.062499999999998e+00	 8.687499999999998e+00	 9.999725192461543e+00
0	 3.062499999999998e+00	 8.750000000000000e+00	 9.999751953846157e+00
0	 3.125000000000000e+00	 8.125000000000000e+00	 1.000147076923077e+01
0	 3.125000000000000e+00	 8.187500000000000e+00	 1.000139789230769e+01
0	 3.125000000000000e+00	 8.250000000000002e+00	 1.000132326153844e+01
0	 3.125000000000000e+00	 8.312500000000000e+00	 1.000124687692307e+01
0	 3.125000000000000e+00	 8.374999999999998e+00	 1.000116873846153e+01
0	 3.125000000000000e+00	 8.437500000000000e+00	 1.000108884615384e+01
0	 3.125000000000000e+00	 8.500000000000000e+00	 1.000100719999999e+01
0	 3.125000000000000e+00	 8.562499999999998e+00	 1.000092380000000e+01
0	 3.125000000000000e+00	 8.625000000000000e+00	 1.000083864615383e+01
0	 3.125000000000000e+00	 8.687499999999998e+00	 1.000075173846152e+01
0	 3.125000000000000e+00	 8.750000000000000e+00	 1.000066307692306e+01
0	 2.500000000000000e+00	 8.750000000000000e+00	 9.991018769230774e+00
0	 2.500000000000000e+00	 8.812500000000000e+00	 9.991535549230754e+00
0	 2.500000000000000e+00	 8.875000000000002e+00	 9.992102443076934e+00
0	 2.500000000000000e+00	 8.937499999999998e+00	 9.992719450769222e+00
0	 2.500000000000000e+00	 9.000000000000000e+00	 9.993386572307694e+00
0	 2.500000000000000e+00	 9.062500000000000e+00	 9.994103807692316e+00
0	 2.500000000000000e+00	 9.124999999999998e+00	 9.994871156923068e+00
0	 2.500000000000000e+00	 9.187499999999998e+00	 9.995688620000003e+00
0	 2.500000000000000e+00	 9.249999999999998e+00	 9.996556196923066e+00
0	 2.500000000000000e+00	 9.312499999999998e+00	 9.997473887692294e+00
0	 2.500000000000000e+00	 9.375000000000000e+00	 9.998441692307697e+00
0	 2.562500000000000e+00	 8.750000000000002e+00	 9.992036507692315e+00
0	 2.562500000000000e+00	 8.812499999999998e+00	 9.992487232615391e+00
0	 2.562500000000000e+00	 8.875000000000000e+00	 9.992983413538449e+00
0	 2.562500000000000e+00	 8.937500000000000e+00	 9.993525050461548e+00
0	 2.562500000000000e+00	 9.000000000000000e+00	 9.994112143384605e+00
0	 2.562500000000000e+00	 9.062500000000000e+00	 9.994744692307698e+00
0	 2.562500000000000e+00	 9.125000000000000e+00	 9.995422697230776e+00
0	 2.562500000000000e+00	 9.187499999999998e+00	 9.996146158153868e+00
0	 2.562500000000000e+00	 9.250000000000000e+00	 9.996915075076943e+00
0	 2.562500000000000e+00	 9.312499999999996e+00	 9.997729448000001e+00
0	 2.562500000000000e+00	 9.375000000000000e+00	 9.998589276923079e+00
0	 2.625000000000000e+00	 8.750000000000000e+00	 9.993042399999986e+00
0	 2.624999999999999e+00	 8.812500000000000e+00	 9.993429008307691e+00
0	 2.625000000000000e+00	 8.875000000000004e+00	 9.993856414769240e+00
0	 2.625000000000000e+00	 8.937500000000000e+00	 9.994324619384615e+00
0	 2.625000000000000e+00	 8.999999999999998e+00	 9.994833622153852e+00
0	 2.625000000000000e+00	 9.062500000000000e+00	 9.995383423076934e+00
0	 2.625000000000000e+00	 9.124999999999998e+00	 9.995974022153847e+00
0	 2.625000000000000e+00	 9.187500000000002e+00	 9.996605419384618e+00
0	 2.625000000000000e+00	 9.249999999999996e+00	 9.997277614769235e+00
0	 2.625000000000000e+00	 9.312499999999998e+00	 9.997990608307678e+00
0	 2.625000000000000e+00	 9.375000000000000e+00	 9.998744399999996e+00
0	 2.687499999999999e+00	 8.750000000000000e+00	 9.994036446153839e+00
0	 2.687499999999999e+00	 8.812500000000000e+00	 9.994360876307685e+00
0	 2.687500000000000e+00	 8.875000000000002e+00	 9.994721446769237e+00
0	 2.687499999999999e+00	 8.937500000000000e+00	 9.995118157538464e+00
0	 2.687500000000000e+00	 9.000000000000000e+00	 9.995551008615386e+00
0	 2.687500000000000e+00	 9.062499999999998e+00	 9.996020000000005e+00
0	 2.687500000000000e+00	 9.124999999999998e+00	 9.996525131692321e+00
0	 2.687500000000000e+00	 9.187500000000002e+00	 9.997066403692312e+00
0	 2.687500000000000e+00	 9.249999999999998e+00	 9.997643815999986e+00
0	 2.687499999999999e+00	 9.312499999999998e+00	 9.998257368615395e+00
0	 2.687499999999999e+00	 9.375000000000002e+00	 9.998907061538457e+00
0	 2.749999999999999e+00	 8.749999999999998e+00	 9.995018646153852e+00
0	 2.750000000000000e+00	 8.812500000000000e+00	 9.995282836615385e+00
0	 2.750000000000000e+00	 8.875000000000002e+00	 9.995578509538475e+00
0	 2.749999999999999e+00	 8.937500000000000e+00	 9.995905664923068e+00
0	 2.750000000000000e+00	 8.999999999999998e+00	 9.996264302769234e+00
0	 2.749999999999999e+00	 9.062500000000000e+00	 9.996654423076940e+00
0	 2.749999999999999e+00	 9.124999999999998e+00	 9.997076025846155e+00
0	 2.749999999999999e+00	 9.187500000000000e+00	 9.997529111076918e+00
0	 2.750000000000000e+00	 9.249999999999998e+00	 9.998013678769244e+00
0	 2.749999999999999e+00	 9.312500000000000e+00	 9.998529728923096e+00
0	 2.749999999999999e+00	 9.375000000000002e+00	 9.999077261538478e+00
0	 2.812499999999999e+00	 8.750000000000000e+00	 9.995989000000012e+00
0	 2.812499999999999e+00	 8.812500000000000e+00	 9.996194889230804e+00
0	 2.812499999999999e+00	 8.875000000000000e+00	 9.996427603076917e+00
0	 2.812500000000000e+00	 8.937500000000000e+00	 9.996687141538473e+00
0	 2.812499999999999e+00	 8.999999999999998e+00	 9.996973504615383e+00
0	 2.812499999999999e+00	 9.062500000000000e+00	 9.997286692307700e+00
0	 2.812500000000000e+00	 9.125000000000002e+00	 9.997626704615371e+00
0	 2.812499999999999e+00	 9.187499999999998e+00	 9.997993541538456e+00
0	 2.812499999999999e+00	 9.249999999999998e+00	 9.998387203076936e+00
0	 2.812499999999999e+00	 9.312500000000000e+00	 9.998807689230782e+00
0	 2.812499999999999e+00	 9.375000000000002e+00	 9.999254999999984e+00
0	 2.874999999999999e+00	 8.750000000000000e+00	 9.996947507692306e+00
0	 2.874999999999999e+00	 8.812500000000000e+00	 9.997097034153834e+00
0	 2.874999999999999e+00	 8.874999999999996e+00	 9.997268727384601e+00
0	 2.874999999999999e+00	 8.937499999999998e+00	 9.997462587384605e+00
0	 2.874999999999999e+00	 9.000000000000004e+00	 9.997678614153841e+00
0	 2.874999999999999e+00	 9.062500000000002e+00	 9.997916807692299e+00
0	 2.874999999999999e+00	 9.124999999999998e+00	 9.998177167999987e+00
0	 2.874999999999999e+00	 9.187500000000000e+00	 9.998459695076924e+00
0	 2.874999999999999e+00	 9.249999999999998e+00	 9.998764388923099e+00
0	 2.874999999999999e+00	 9.312499999999998e+00	 9.999091249538477e+00
0	 2.874999999999999e+00	 9.375000000000000e+00	 9.999440276923082e+00
0	 2.937499999999999e+00	 8.750000000000000e+00	 9.997894169230761e+00
0	 2.937499999999999e+00	 8.812499999999998e+00	 9.997989271384625e+00
0	 2.937499999999999e+00	 8.875000000000002e+00	 9.998101882461551e+00
0	 2.937499999999999e+00	 8.937500000000002e+00	 9.998232002461547e+00
0	 2.937499999999998e+00	 8.999999999999998e+00	 9.998379631384619e+00
0	 2.937499999999999e+00	 9.062500000000000e+00	 9.998544769230779e+00
0	 2.937499999999999e+00	 9.125000000000000e+00	 9.998727416000005e+00
0	 2.937499999999998e+00	 9.187500000000000e+00	 9.998927571692315e+00
0	 2.937499999999999e+00	 9.249999999999998e+00	 9.999145236307681e+00
0	 2.937499999999999e+00	 9.312500000000000e+00	 9.999380409846179e+00
0	 2.937499999999999e+00	 9.375000000000000e+00	 9.999633092307713e+00
0	 2.999999999999998e+00	 8.750000000000002e+00	 9.998828984615379e+00
0	 2.999999999999999e+00	 8.812500000000002e+00	 9.998871600923088e+00
0	 2.999999999999998e+00	 8.875000000000000e+00	 9.998927068307699e+00
0	 2.999999999999999e+00	 8.937500000000002e+00	 9.998995386769247e+00
0	 2.999999999999999e+00	 8.999999999999998e+00	 9.999076556307688e+00
0	 2.999999999999999e+00	 9.062499999999998e+00	 9.999170576923090e+00
0	 2.999999999999998e+00	 9.125000000000000e+00	 9.999277448615377e+00
0	 2.999999999999998e+00	 9.187499999999998e+00	 9.999397171384611e+00
0	 2.999999999999998e+00	 9.250000000000000e+00	 9.999529745230797e+00
0	 2.999999999999998e+00	 9.312499999999998e+00	 9.999675170153864e+00
0	 2.999999999999998e+00	 9.375000000000000e+00	 9.999833446153851e+00
0	 3.062499999999998e+00	 8.750000000000000e+00	 9.999751953846157e+00
0	 3.062499999999998e+00	 8.812500000000000e+00	 9.999744022769214e+00
0	 3.062499999999998e+00	 8.875000000000002e+00	 9.999744284923064e+00
0	 3.062499999999998e+00	 8.937500000000000e+00	 9.999752740307693e+00
0	 3.062499999999998e+00	 9.000000000000000e+00	 9.999769388923077e+00
0	 3.062499999999998e+00	 9.062500000000000e+00	 9.999794230769236e+00
0	 3.062499999999998e+00	 9.125000000000000e+00	 9.999827265846157e+00
0	 3.062499999999998e+00	 9.187499999999998e+00	 9.999868494153850e+00
0	 3.062499999999998e+00	 9.249999999999998e+00	 9.999917915692336e+00
0	 3.062499999999998e+00	 9.312499999999996e+00	 9.999975530461555e+00
0	 3.062499999999998e+00	 9.375000000000000e+00	 1.000004133846158e+01
0	 3.125000000000000e+00	 8.750000000000000e+00	 1.000066307692306e+01
0	 3.125000000000000e+00	 8.812500000000000e+00	 1.000060653692306e+01
0	 3.125000000000000e+00	 8.875000000000002e+00	 1.000055353230771e+01
0	 3.125000000000000e+00	 8.937499999999998e+00	 1.000050406307692e+01
0	 3.125000000000000e+00	 9.000000000000000e+00	 1.000045812923077e+01
0	 3.125000000000000e+00	 9.062500000000000e+00	 1.000041573076925e+01
0	 3.125000000000000e+00	 9.124999999999998e+00	 1.000037686769231e+01
0	 3.125000000000000e+00	 9.187499999999998e+00	 1.000034154000000e+01
0	 3.125000000000000e+00	 9.249999999999998e+00	 1.000030974769231e+01
0	 3.125000000000000e+00	 9.312499999999998e+00	 1.000028149076923e+01
0	 3.125000000000000e+00	 9.375000000000000e+00	 1.000025676923079e+01
0	 2.500000000000000e+00	 9.375000000000000e+00	 9.998441692307697e+00
0	 2.500000000000000e+00	 9.437499999999998e+00	 9.998429955384623e+00
0	 2.500000000000000e+00	 9.500000000000000e+00	 9.998483175384626e+00
0	 2.500000000000000e+00	 9.562500000000000e+00	 9.998601352307679e+00
0	 2.500000000000000e+00	 9.625000000000000e+00	 9.998784486153838e+00
0	 2.500000000000000e+00	 9.687499999999998e+00	 9.999032576923081e+00
0	 2.500000000000000e+00	 9.749999999999998e+00	 9.999345624615376e+00
0	 2.500000000000000e+00	 9.812500000000000e+00	 9.999723629230761e+00
0	 2.500000000000000e+00	 9.875000000000000e+00	 1.000016659076924e+01
0	 2.500000000000000e+00	 9.937499999999998e+00	 1.000067450923076e+01
0	 2.500000000000000e+00	 1.000000000000000e+01	 1.000124738461536e+01
0	 2.562500000000000e+00	 9.375000000000000e+00	 9.998589276923079e+00
0	 2.562500000000000e+00	 9.437500000000002e+00	 9.998574818769242e+00
0	 2.562500000000000e+00	 9.500000000000000e+00	 9.998618444307695e+00
0	 2.562499999999999e+00	 9.562500000000000e+00	 9.998720153538454e+00
0	 2.562500000000000e+00	 9.625000000000000e+00	 9.998879946461562e+00
0	 2.562500000000000e+00	 9.687500000000000e+00	 9.999097823076907e+00
0	 2.562500000000000e+00	 9.749999999999998e+00	 9.999373783384593e+00
0	 2.562500000000000e+00	 9.812499999999998e+00	 9.999707827384576e+00
0	 2.562499999999999e+00	 9.874999999999998e+00	 1.000009995507691e+01
0	 2.562500000000000e+00	 9.937499999999996e+00	 1.000055016646152e+01
0	 2.562500000000000e+00	 1.000000000000000e+01	 1.000105846153844e+01
0	 2.625000000000000e+00	 9.375000000000000e+00	 9.998744399999996e+00
0	 2.624999999999999e+00	 9.437499999999998e+00	 9.998727629846138e+00
0	 2.624999999999999e+00	 9.500000000000000e+00	 9.998762070153845e+00
0	 2.625000000000000e+00	 9.562500000000000e+00	 9.998847720923091e+00
0	 2.625000000000000e+00	 9.625000000000002e+00	 9.998984582153835e+00
0	 2.625000000000000e+00	 9.687500000000002e+00	 9.999172653846157e+00
0	 2.625000000000000e+00	 9.750000000000000e+00	 9.999411936000003e+00
0	 2.625000000000000e+00	 9.812500000000002e+00	 9.999702428615388e+00
0	 2.625000000000000e+00	 9.874999999999996e+00	 1.000004413169229e+01
0	 2.625000000000000e+00	 9.937500000000000e+00	 1.000043704523077e+01
0	 2.625000000000000e+00	 1.000000000000000e+01	 1.000088116923075e+01
0	 2.687499999999999e+00	 9.375000000000002e+00	 9.998907061538457e+00
0	 2.687499999999999e+00	 9.437500000000000e+00	 9.998888388615390e+00
0	 2.687499999999999e+00	 9.499999999999996e+00	 9.998914052923082e+00
0	 2.687500000000000e+00	 9.562500000000000e+00	 9.998984054461554e+00
0	 2.687499999999999e+00	 9.624999999999998e+00	 9.999098393230753e+00
0	 2.687500000000000e+00	 9.687500000000000e+00	 9.999257069230783e+00
0	 2.687499999999999e+00	 9.749999999999996e+00	 9.999460082461523e+00
0	 2.687500000000000e+00	 9.812499999999996e+00	 9.999707432923067e+00
0	 2.687500000000000e+00	 9.875000000000000e+00	 9.999999120615318e+00
0	 2.687499999999999e+00	 9.937499999999998e+00	 1.000033514553844e+01
0	 2.687499999999999e+00	 1.000000000000000e+01	 1.000071550769233e+01
0	 2.749999999999999e+00	 9.375000000000002e+00	 9.999077261538478e+00
0	 2.750000000000000e+00	 9.437500000000000e+00	 9.999057095076926e+00
0	 2.750000000000000e+00	 9.500000000000004e+00	 9.999074392615388e+00
0	 2.749999999999999e+00	 9.562500000000000e+00	 9.999129154153856e+00
0	 2.750000000000000e+00	 9.624999999999998e+00	 9.999221379692282e+00
0	 2.750000000000000e+00	 9.687499999999998e+00	 9.999351069230759e+00
0	 2.750000000000000e+00	 9.750000000000000e+00	 9.999518222769245e+00
0	 2.750000000000000e+00	 9.812499999999996e+00	 9.999722840307651e+00
0	 2.750000000000000e+00	 9.874999999999998e+00	 9.999964921846114e+00
0	 2.749999999999999e+00	 9.937499999999996e+00	 1.000024446738466e+01
0	 2.750000000000000e+00	 1.000000000000000e+01	 1.000056147692301e+01
0	 2.812499999999999e+00	 9.375000000000002e+00	 9.999254999999984e+00
0	 2.812500000000000e+00	 9.437499999999998e+00	 9.999233749230774e+00
0	 2.812499999999999e+00	 9.499999999999998e+00	 9.999243089230754e+00
0	 2.812499999999999e+00	 9.562500000000000e+00	 9.999283020000009e+00
0	 2.812499999999999e+00	 9.624999999999998e+00	 9.999353541538440e+00
0	 2.812499999999999e+00	 9.687500000000000e+00	 9.999454653846152e+00
0	 2.812499999999999e+00	 9.750000000000000e+00	 9.999586356923063e+00
0	 2.812499999999999e+00	 9.812499999999998e+00	 9.999748650769231e+00
0	 2.812499999999999e+00	 9.874999999999998e+00	 9.999941535384602e+00
0	 2.812499999999999e+00	 9.937499999999998e+00	 1.000016501076923e+01
0	 2.812499999999999e+00	 1.000000000000000e+01	 1.000041907692307e+01
0	 2.874999999999999e+00	 9.375000000000000e+00	 9.999440276923082e+00
0	 2.874999999999999e+00	 9.437499999999998e+00	 9.999418351076949e+00
0	 2.874999999999999e+00	 9.500000000000000e+00	 9.999420142769239e+00
0	 2.874999999999999e+00	 9.562500000000000e+00	 9.999445651999984e+00
0	 2.874999999999999e+00	 9.625000000000000e+00	 9.999494878769235e+00
0	 2.874999999999999e+00	 9.687499999999998e+00	 9.999567823076942e+00
0	 2.874999999999999e+00	 9.749999999999998e+00	 9.999664484923063e+00
0	 2.874999999999998e+00	 9.812499999999996e+00	 9.999784864307648e+00
0	 2.874999999999999e+00	 9.874999999999998e+00	 9.999928961230724e+00
0	 2.874999999999999e+00	 9.937499999999998e+00	 1.000009677569230e+01
0	 2.874999999999999e+00	 9.999999999999998e+00	 1.000028830769228e+01
0	 2.937499999999999e+00	 9.375000000000000e+00	 9.999633092307713e+00
0	 2.937499999999998e+00	 9.437499999999998e+00	 9.999610900615396e+00
0	 2.937499999999999e+00	 9.499999999999998e+00	 9.999605553230777e+00
0	 2.937499999999999e+00	 9.562500000000002e+00	 9.999617050153857e+00
0	 2.937499999999999e+00	 9.624999999999998e+00	 9.999645391384604e+00
0	 2.937499999999998e+00	 9.687500000000000e+00	 9.999690576923040e+00
0	 2.937499999999999e+00	 9.750000000000000e+00	 9.999752606769221e+00
0	 2.937499999999999e+00	 9.812500000000000e+00	 9.999831480923030e+00
0	 2.937499999999998e+00	 9.874999999999998e+00	 9.999927199384553e+00
0	 2.937499999999998e+00	 9.937499999999998e+00	 1.000003976215383e+01
0	 2.937499999999999e+00	 1.000000000000000e+01	 1.000016916923079e+01
0	 2.999999999999998e+00	 9.375000000000000e+00	 9.999833446153851e+00
0	 2.999999999999998e+00	 9.437500000000002e+00	 9.999811397846166e+00
0	 2.999999999999998e+00	 9.500000000000000e+00	 9.999799320615377e+00
0	 2.999999999999998e+00	 9.562500000000002e+00	 9.999797214461543e+00
0	 2.999999999999998e+00	 9.624999999999998e+00	 9.999805079384604e+00
0	 2.999999999999998e+00	 9.687499999999998e+00	 9.999822915384600e+00
0	 2.999999999999998e+00	 9.750000000000000e+00	 9.999850722461517e+00
0	 2.999999999999998e+00	 9.812499999999998e+00	 9.999888500615370e+00
0	 2.999999999999998e+00	 9.874999999999998e+00	 9.999936249846105e+00
0	 2.999999999999998e+00	 9.937499999999998e+00	 9.999993970153792e+00
0	 2.999999999999998e+00	 1.000000000000000e+01	 1.000006166153843e+01
0	 3.062499999999998e+00	 9.375000000000000e+00	 1.000004133846158e+01
0	 3.062499999999998e+00	 9.437500000000000e+00	 1.000001984276924e+01
0	 3.062499999999997e+00	 9.499999999999998e+00	 1.000000144492311e+01
0	 3.062499999999999e+00	 9.562500000000000e+00	 9.999986144923092e+00
0	 3.062499999999998e+00	 9.624999999999998e+00	 9.999973942769238e+00
0	 3.062499999999998e+00	 9.687499999999996e+00	 9.999964838461539e+00
0	 3.062499999999998e+00	 9.749999999999998e+00	 9.999958831999995e+00
0	 3.062499999999998e+00	 9.812499999999998e+00	 9.999955923384624e+00
0	 3.062499999999998e+00	 9.874999999999996e+00	 9.999956112615376e+00
0	 3.062499999999998e+00	 9.937499999999998e+00	 9.999959399692255e+00
0	 3.062499999999998e+00	 1.000000000000000e+01	 9.999965784615345e+00
0	 3.125000000000000e+00	 9.375000000000000e+00	 1.000025676923079e+01
0	 3.125000000000000e+00	 9.437499999999998e+00	 1.000023623538463e+01
0	 3.125000000000000e+00	 9.500000000000000e+00	 1.000021192615386e+01
0	 3.125000000000000e+00	 9.562500000000000e+00	 1.000018384153847e+01
0	 3.125000000000000e+00	 9.625000000000000e+00	 1.000015198153845e+01
0	 3.125000000000000e+00	 9.687499999999998e+00	 1.000011634615385e+01
0	 3.125000000000000e+00	 9.749999999999998e+00	 1.000007693538461e+01
0	 3.125000000000000e+00	 9.812500000000000e+00	 1.000003374923078e+01
0	 3.125000000000000e+00	 9.875000000000000e+00	 9.999986787692306e+00
0	 3.125000000000000e+00	 9.937499999999998e+00	 9.999936050769252e+00
0	 3.125000000000000e+00	 1.000000000000000e+01	 9.999881538461517e+00
0	 3.125000000000000e+00	 0.000000000000000e+00	 1.036804923076923e+01
0	 3.125000000000000e+00	 6.250000000000000e-02	 1.044416990769231e+01
0	 3.125000000000000e+00	 1.250000000000000e-01	 1.051584144615385e+01
0	 3.125000000000000e+00	 1.875000000000000e-01	 1.058306384615384e+01
0	 3.125000000000001e+00	 2.500000000000000e-01	 1.064583710769230e+01
0	 3.125000000000000e+00	 3.125000000000000e-01	 1.070416123076923e+01
0	 3.125000000000000e+00	 3.750000000000000e-01	 1.075803621538461e+01
0	 3.125000000000000e+00	 4.374999999999999e-01	 1.080746206153846e+01
0	 3.125000000000000e+00	 5.000000000000000e-01	 1.085243876923077e+01
0	 3.125000000000000e+00	 5.624999999999999e-01	 1.089296633846153e+01
0	 3.125000000000000e+00	 6.250000000000000e-01	 1.092904476923077e+01
0	 3.187500000000000e+00	 0.000000000000000e+00	 1.045362170153846e+01
0	 3.187499999999999e+00	 6.249999999999999e-02	 1.051070516215384e+01
0	 3.187500000000000e+00	 1.250000000000000e-01	 1.056361161661538e+01
0	 3.187500000000000e+00	 1.875000000000000e-01	 1.061234106492308e+01
0	 3.187500000000000e+00	 2.500000000000000e-01	 1.065689350707692e+01
0	 3.187500000000000e+00	 3.125000000000001e-01	 1.069726894307692e+01
0	 3.187500000000000e+00	 3.749999999999999e-01	 1.073346737292307e+01
0	 3.187500000000000e+00	 4.374999999999999e-01	 1.076548879661538e+01
0	 3.187500000000000e+00	 5.000000000000000e-01	 1.079333321415385e+01
0	 3.187500000000000e+00	 5.625000000000000e-01	 1.081700062553846e+01
0	 3.187500000000000e+00	 6.250000000000000e-01	 1.083649103076923e+01
0	 3.250000000000000e+00	 0.000000000000000e+00	 1.052523720615385e+01
0	 3.250000000000000e+00	 6.250000000000000e-02	 1.056580821476923e+01
0	 3.250000000000000e+00	 1.250000000000000e-01	 1.060247434953846e+01
0	 3.250000000000000e+00	 1.875000000000000e-01	 1.063523561046153e+01
0	 3.250000000000000e+00	 2.500000000000001e-01	 1.066409199753846e+01
0	 3.250000000000000e+00	 3.125000000000000e-01	 1.068904351076923e+01
0	 3.250000000000000e+00	 3.749999999999999e-01	 1.071009015015385e+01
0	 3.250000000000000e+00	 4.375000000000000e-01	 1.072723191569231e+01
0	 3.250000000000000e+00	 4.999999999999999e-01	 1.074046880738462e+01
0	 3.250000000000000e+00	 5.625000000000000e-01	 1.074980082523077e+01
0	 3.250000000000000e+00	 6.249999999999999e-01	 1.075522796923077e+01
0	 3.312499999999999e+00	 0.000000000000000e+00	 1.058289574461538e+01
0	 3.312500000000000e+00	 6.250000000000000e-02	 1.060947906553846e+01
0	 3.312499999999999e+00	 1.250000000000000e-01	 1.063242964492308e+01
0	 3.312500000000000e+00	 1.875000000000001e-01	 1.065174748276923e+01
0	 3.312500000000000e+00	 2.500000000000001e-01	 1.066743257907693e+01
0	 3.312499999999999e+00	 3.125000000000000e-01	 1.067948493384615e+01
0	 3.312499999999999e+00	 3.749999999999999e-01	 1.068790454707692e+01
0	 3.312499999999999e+00	 4.374999999999999e-01	 1.069269141876923e+01
0	 3.312499999999998e+00	 4.999999999999999e-01	 1.069384554892308e+01
0	 3.312500000000000e+00	 5.625000000000001e-01	 1.069136693753846e+01
0	 3.312500000000000e+00	 6.249999999999999e-01	 1.068525558461538e+01
0	 3.374999999999999e+00	 0.000000000000000e+00	 1.062659731692308e+01
0	 3.374999999999999e+00	 6.250000000000000e-02	 1.064171771446154e+01
0	 3.374999999999999e+00	 1.250000000000000e-01	 1.065347750276923e+01
0	 3.374999999999999e+00	 1.875000000000000e-01	 1.066187668184615e+01
0	 3.374999999999999e+00	 2.500000000000000e-01	 1.066691525169230e+01
0	 3.375000000000000e+00	 3.125000000000000e-01	 1.066859321230769e+01
0	 3.374999999999999e+00	 3.750000000000000e-01	 1.066691056369230e+01
0	 3.375000000000000e+00	 4.375000000000000e-01	 1.066186730584615e+01
0	 3.374999999999999e+00	 4.999999999999999e-01	 1.065346343876923e+01
0	 3.375000000000000e+00	 5.625000000000000e-01	 1.064169896246154e+01
0	 3.374999999999999e+00	 6.250000000000001e-01	 1.062657387692307e+01
0	 3.437499999999999e+00	 0.000000000000000e+00	 1.065634192307692e+01
0	 3.437499999999998e+00	 6.249999999999998e-02	 1.066252416153846e+01
0	 3.437500000000000e+00	 1.250000000000000e-01	 1.066561792307692e+01
0	 3.437499999999998e+00	 1.875000000000000e-01	 1.066562320769231e+01
0	 3.437499999999998e+00	 2.499999999999999e-01	 1.066254001538461e+01
0	 3.437499999999999e+00	 3.125000000000000e-01	 1.065636834615385e+01
0	 3.437499999999999e+00	 3.750000000000000e-01	 1.064710820000000e+01
0	 3.437499999999999e+00	 4.375000000000000e-01	 1.063475957692308e+01
0	 3.437499999999998e+00	 4.999999999999999e-01	 1.061932247692307e+01
0	 3.437500000000000e+00	 5.625000000000001e-01	 1.060079690000000e+01
0	 3.437499999999999e+00	 6.250000000000000e-01	 1.057918284615385e+01
0	 3.499999999999999e+00	 0.000000000000000e+00	 1.067212956307693e+01
0	 3.499999999999999e+00	 6.249999999999999e-02	 1.067189840676923e+01
0	 3.499999999999999e+00	 1.250000000000000e-01	 1.066885090584615e+01
0	 3.499999999999999e+00	 1.875000000000001e-01	 1.066298706030769e+01
0	 3.499999999999999e+00	 2.500000000000001e-01	 1.065430687015385e+01
0	 3.500000000000000e+00	 3.125000000000001e-01	 1.064281033538461e+01
0	 3.499999999999998e+00	 3.749999999999999e-01	 1.062849745600000e+01
0	 3.500000000000000e+00	 4.375000000000000e-01	 1.061136823200000e+01
0	 3.499999999999998e+00	 4.999999999999998e-01	 1.059142266338462e+01
0	 3.499999999999999e+00	 5.624999999999999e-01	 1.056866075015385e+01
0	 3.499999999999999e+00	 6.250000000000001e-01	 1.054308249230769e+01
0	 3.562499999999999e+00	 0.000000000000000e+00	 1.067396023692308e+01
0	 3.562499999999999e+00	 6.250000000000000e-02	 1.066984045015385e+01
0	 3.562499999999998e+00	 1.250000000000000e-01	 1.066317645107693e+01
0	 3.562499999999999e+00	 1.875000000000000e-01	 1.065396823969231e+01
0	 3.562499999999998e+00	 2.500000000000000e-01	 1.064221581600000e+01
0	 3.562499999999999e+00	 3.125000000000001e-01	 1.062791918000000e+01
0	 3.562499999999999e+00	 3.750000000000000e-01	 1.061107833169231e+01
0	 3.562499999999999e+00	 4.375000000000000e-01	 1.059169327107692e+01
0	 3.562499999999998e+00	 4.999999999999999e-01	 1.056976399815384e+01
0	 3.562500000000000e+00	 5.625000000000000e-01	 1.054529051292307e+01
0	 3.562499999999998e+00	 6.249999999999999e-01	 1.051827281538461e+01
0	 3.624999999999998e+00	 0.000000000000000e+00	 1.066183394461539e+01
0	 3.624999999999998e+00	 6.249999999999999e-02	 1.065635029169231e+01
0	 3.624999999999999e+00	 1.250000000000000e-01	 1.064859455876923e+01
0	 3.625000000000000e+00	 1.875000000000001e-01	 1.063856674584615e+01
0	 3.624999999999997e+00	 2.500000000000000e-01	 1.062626685292308e+01
0	 3.624999999999997e+00	 3.124999999999999e-01	 1.061169488000000e+01
0	 3.624999999999998e+00	 3.749999999999999e-01	 1.059485082707693e+01
0	 3.624999999999998e+00	 4.375000000000000e-01	 1.057573469415385e+01
0	 3.624999999999998e+00	 4.999999999999999e-01	 1.055434648123077e+01
0	 3.624999999999998e+00	 5.625000000000000e-01	 1.053068618830769e+01
0	 3.624999999999999e+00	 6.250000000000000e-01	 1.050475381538461e+01
0	 3.687499999999998e+00	 0.000000000000000e+00	 1.063575068615385e+01
0	 3.687499999999998e+00	 6.250000000000000e-02	 1.063142793138461e+01
0	 3.687499999999998e+00	 1.250000000000000e-01	 1.062510522892307e+01
0	 3.687499999999998e+00	 1.875000000000000e-01	 1.061678257876923e+01
0	 3.687499999999997e+00	 2.499999999999999e-01	 1.060645998092308e+01
0	 3.687499999999998e+00	 3.125000000000000e-01	 1.059413743538461e+01
0	 3.687499999999998e+00	 3.750000000000000e-01	 1.057981494215385e+01
0	 3.687499999999998e+00	 4.375000000000000e-01	 1.056349250123076e+01
0	 3.687499999999997e+00	 4.999999999999999e-01	 1.054517011261539e+01
0	 3.687499999999998e+00	 5.625000000000000e-01	 1.052484777630769e+01
0	 3.687499999999998e+00	 6.250000000000000e-01	 1.050252549230769e+01
0	 3.750000000000000e+00	 0.000000000000000e+00	 1.059571046153846e+01
0	 3.750000000000000e+00	 6.250000000000000e-02	 1.059507336923077e+01
0	 3.750000000000000e+00	 1.250000000000000e-01	 1.059270846153846e+01
0	 3.750000000000000e+00	 1.875000000000000e-01	 1.058861573846153e+01
0	 3.750000000000000e+00	 2.500000000000000e-01	 1.058279520000000e+01
0	 3.750000000000000e+00	 3.125000000000000e-01	 1.057524684615384e+01
0	 3.750000000000000e+00	 3.750000000000000e-01	 1.056597067692307e+01
0	 3.750000000000000e+00	 4.374999999999999e-01	 1.055496669230769e+01
0	 3.750000000000000e+00	 5.000000000000000e-01	 1.054223489230769e+01
0	 3.750000000000000e+00	 5.624999999999999e-01	 1.052777527692308e+01
0	 3.750000000000000e+00	 6.250000000000000e-01	 1.051158784615384e+01
0	 3.125000000000000e+00	 6.250000000000000e-01	 1.092904476923077e+01
0	 3.125000000000000e+00	 6.875000000000000e-01	 1.092572080000000e+01
0	 3.125000000000000e+00	 7.500000000000002e-01	 1.092336956923076e+01
0	 3.125000000000000e+00	 8.125000000000002e-01	 1.092199107692307e+01
0	 3.125000000000000e+00	 8.750000000000002e-01	 1.092158532307692e+01
0	 3.125000000000000e+00	 9.375000000000002e-01	 1.092215230769231e+01
0	 3.125000000000000e+00	 1.000000000000000e+00	 1.092369203076923e+01
0	 3.125000000000000e+00	 1.062500000000000e+00	 1.092620449230769e+01
0	 3.125000000000000e+00	 1.125000000000001e+00	 1.092968969230769e+01
0	 3.125000000000000e+00	 1.187500000000000e+00	 1.093414763076923e+01
0	 3.125000000000000e+00	 1.250000000000000e+00	 1.093957830769231e+01
0	 3.187500000000000e+00	 6.250000000000000e-01	 1.083649103076923e+01
0	 3.187500000000000e+00	 6.875000000000001e-01	 1.084102171800000e+01
0	 3.187500000000000e+00	 7.500000000000001e-01	 1.084632670984615e+01
0	 3.187500000000000e+00	 8.125000000000002e-01	 1.085240600630769e+01
0	 3.187500000000001e+00	 8.750000000000003e-01	 1.085925960738462e+01
0	 3.187500000000000e+00	 9.375000000000003e-01	 1.086688751307692e+01
0	 3.187500000000000e+00	 1.000000000000000e+00	 1.087528972338462e+01
0	 3.187500000000000e+00	 1.062500000000000e+00	 1.088446623830770e+01
0	 3.187500000000000e+00	 1.125000000000000e+00	 1.089441705784616e+01
0	 3.187499999999999e+00	 1.187500000000000e+00	 1.090514218200000e+01
0	 3.187500000000000e+00	 1.250000000000000e+00	 1.091664161076923e+01
0	 3.250000000000000e+00	 6.249999999999999e-01	 1.075522796923077e+01
0	 3.250000000000000e+00	 6.875000000000001e-01	 1.076643600123077e+01
0	 3.250000000000000e+00	 7.500000000000002e-01	 1.077821990400000e+01
0	 3.250000000000000e+00	 8.125000000000001e-01	 1.079057967753846e+01
0	 3.250000000000000e+00	 8.750000000000003e-01	 1.080351532184615e+01
0	 3.250000000000000e+00	 9.375000000000003e-01	 1.081702683692308e+01
0	 3.250000000000000e+00	 1.000000000000000e+00	 1.083111422276923e+01
0	 3.250000000000000e+00	 1.062500000000000e+00	 1.084577747938462e+01
0	 3.249999999999999e+00	 1.125000000000000e+00	 1.086101660676923e+01
0	 3.250000000000000e+00	 1.187500000000001e+00	 1.087683160492308e+01
0	 3.250000000000000e+00	 1.250000000000000e+00	 1.089322247384615e+01
0	 3.312500000000000e+00	 6.249999999999999e-01	 1.068525558461538e+01
0	 3.312499999999999e+00	 6.875000000000000e-01	 1.070196364969230e+01
0	 3.312500000000000e+00	 7.500000000000000e-01	 1.071904915169230e+01
0	 3.312499999999999e+00	 8.125000000000002e-01	 1.073651209061538e+01
0	 3.312500000000000e+00	 8.750000000000002e-01	 1.075435246646154e+01
0	 3.312499999999999e+00	 9.375000000000002e-01	 1.077257027923077e+01
0	 3.312499999999999e+00	 1.000000000000000e+00	 1.079116552892308e+01
0	 3.312499999999999e+00	 1.062500000000000e+00	 1.081013821553846e+01
0	 3.312499999999999e+00	 1.125000000000000e+00	 1.082948833907692e+01
0	 3.312500000000000e+00	 1.187500000000000e+00	 1.084921589953846e+01
0	 3.312500000000000e+00	 1.250000000000000e+00	 1.086932089692307e+01
0	 3.374999999999999e+00	 6.250000000000001e-01	 1.062657387692307e+01
0	 3.374999999999999e+00	 6.875000000000000e-01	 1.064760466338461e+01
0	 3.374999999999999e+00	 7.500000000000000e-01	 1.066881445292308e+01
0	 3.374999999999999e+00	 8.125000000000001e-01	 1.069020324553846e+01
0	 3.374999999999999e+00	 8.750000000000003e-01	 1.071177104123077e+01
0	 3.374999999999998e+00	 9.375000000000000e-01	 1.073351783999999e+01
0	 3.374999999999999e+00	 1.000000000000000e+00	 1.075544364184615e+01
0	 3.374999999999999e+00	 1.062500000000000e+00	 1.077754844676923e+01
0	 3.375000000000000e+00	 1.125000000000000e+00	 1.079983225476923e+01
0	 3.374999999999999e+00	 1.187500000000000e+00	 1.082229506584616e+01
0	 3.374999999999999e+00	 1.250000000000000e+00	 1.084493688000000e+01
0	 3.437499999999999e+00	 6.250000000000000e-01	 1.057918284615385e+01
0	 3.437499999999998e+00	 6.875000000000000e-01	 1.060335904230769e+01
0	 3.437499999999999e+00	 7.500000000000001e-01	 1.062751580769230e+01
0	 3.437500000000000e+00	 8.125000000000002e-01	 1.065165314230769e+01
0	 3.437499999999999e+00	 8.750000000000003e-01	 1.067577104615384e+01
0	 3.437499999999999e+00	 9.375000000000002e-01	 1.069986951923077e+01
0	 3.437499999999998e+00	 1.000000000000000e+00	 1.072394856153846e+01
0	 3.437499999999999e+00	 1.062500000000000e+00	 1.074800817307693e+01
0	 3.437499999999999e+00	 1.125000000000000e+00	 1.077204835384615e+01
0	 3.437499999999999e+00	 1.187500000000001e+00	 1.079606910384615e+01
0	 3.437499999999999e+00	 1.250000000000000e+00	 1.082007042307693e+01
0	 3.499999999999999e+00	 6.250000000000001e-01	 1.054308249230769e+01
0	 3.499999999999998e+00	 6.874999999999999e-01	 1.056922678646154e+01
0	 3.499999999999999e+00	 7.500000000000003e-01	 1.059515321599999e+01
0	 3.499999999999998e+00	 8.125000000000000e-01	 1.062086178092307e+01
0	 3.499999999999997e+00	 8.750000000000001e-01	 1.064635248123077e+01
0	 3.499999999999998e+00	 9.375000000000003e-01	 1.067162531692307e+01
0	 3.499999999999998e+00	 1.000000000000000e+00	 1.069668028800000e+01
0	 3.499999999999998e+00	 1.062500000000000e+00	 1.072151739446154e+01
0	 3.499999999999998e+00	 1.125000000000000e+00	 1.074613663630769e+01
0	 3.499999999999998e+00	 1.187500000000000e+00	 1.077053801353846e+01
0	 3.499999999999999e+00	 1.250000000000000e+00	 1.079472152615384e+01
0	 3.562499999999998e+00	 6.249999999999999e-01	 1.051827281538461e+01
0	 3.562499999999999e+00	 6.875000000000000e-01	 1.054520789584615e+01
0	 3.562500000000000e+00	 7.500000000000002e-01	 1.057172667784615e+01
0	 3.562499999999998e+00	 8.125000000000000e-01	 1.059782916138461e+01
0	 3.562499999999999e+00	 8.750000000000002e-01	 1.062351534646153e+01
0	 3.562499999999999e+00	 9.375000000000004e-01	 1.064878523307693e+01
0	 3.562499999999999e+00	 1.000000000000000e+00	 1.067363882123077e+01
0	 3.562499999999999e+00	 1.062500000000001e+00	 1.069807611092308e+01
0	 3.562499999999998e+00	 1.125000000000000e+00	 1.072209710215385e+01
0	 3.562499999999999e+00	 1.187500000000000e+00	 1.074570179492308e+01
0	 3.562499999999998e+00	 1.250000000000000e+00	 1.076889018923077e+01
0	 3.624999999999999e+00	 6.250000000000000e-01	 1.050475381538461e+01
0	 3.624999999999998e+00	 6.875000000000000e-01	 1.053130237046153e+01
0	 3.624999999999997e+00	 7.500000000000000e-01	 1.055723619323077e+01
0	 3.624999999999997e+00	 8.125000000000001e-01	 1.058255528369231e+01
0	 3.624999999999999e+00	 8.750000000000003e-01	 1.060725964184615e+01
0	 3.624999999999998e+00	 9.375000000000002e-01	 1.063134926769231e+01
0	 3.625000000000000e+00	 1.000000000000001e+00	 1.065482416123076e+01
0	 3.624999999999998e+00	 1.062500000000000e+00	 1.067768432246153e+01
0	 3.624999999999998e+00	 1.125000000000000e+00	 1.069992975138462e+01
0	 3.624999999999998e+00	 1.187500000000000e+00	 1.072156044800000e+01
0	 3.624999999999999e+00	 1.250000000000000e+00	 1.074257641230770e+01
0	 3.687499999999998e+00	 6.250000000000000e-01	 1.050252549230769e+01
0	 3.687499999999999e+00	 6.875000000000002e-01	 1.052751021030769e+01
0	 3.687499999999998e+00	 7.500000000000001e-01	 1.055168176215384e+01
0	 3.687499999999998e+00	 8.125000000000001e-01	 1.057504014784615e+01
0	 3.687499999999998e+00	 8.750000000000002e-01	 1.059758536738461e+01
0	 3.687499999999998e+00	 9.375000000000002e-01	 1.061931742076923e+01
0	 3.687499999999998e+00	 1.000000000000000e+00	 1.064023630799999e+01
0	 3.687499999999998e+00	 1.062500000000000e+00	 1.066034202907692e+01
0	 3.687499999999998e+00	 1.125000000000000e+00	 1.067963458399999e+01
0	 3.687499999999998e+00	 1.187500000000000e+00	 1.069811397276923e+01
0	 3.687499999999998e+00	 1.250000000000000e+00	 1.071578019538462e+01
0	 3.750000000000000e+00	 6.250000000000000e-01	 1.051158784615384e+01
0	 3.750000000000000e+00	 6.875000000000000e-01	 1.053383141538461e+01
0	 3.750000000000000e+00	 7.500000000000002e-01	 1.055506338461538e+01
0	 3.750000000000000e+00	 8.125000000000002e-01	 1.057528375384615e+01
0	 3.750000000000000e+00	 8.750000000000002e-01	 1.059449252307692e+01
0	 3.750000000000000e+00	 9.375000000000002e-01	 1.061268969230769e+01
0	 3.750000000000000e+00	 1.000000000000000e+00	 1.062987526153846e+01
0	 3.750000000000000e+00	 1.062500000000000e+00	 1.064604923076923e+01
0	 3.750000000000000e+00	 1.125000000000001e+00	 1.066121160000000e+01
0	 3.750000000000000e+00	 1.187500000000000e+00	 1.067536236923076e+01
0	 3.750000000000000e+00	 1.250000000000000e+00	 1.068850153846154e+01
0	 3.125000000000000e+00	 1.250000000000000e+00	 1.093957830769231e+01
0	 3.125000000000000e+00	 1.312500000000000e+00	 1.094301693846153e+01
0	 3.125000000000000e+00	 1.375000000000000e+00	 1.094642695384615e+01
0	 3.125000000000000e+00	 1.437500000000000e+00	 1.094980835384616e+01
0	 3.125000000000000e+00	 1.500000000000000e+00	 1.095316113846154e+01
0	 3.125000000000000e+00	 1.562500000000000e+00	 1.095648530769231e+01
0	 3.125000000000000e+00	 1.625000000000000e+00	 1.095978086153846e+01
0	 3.125000000000000e+00	 1.687500000000000e+00	 1.096304780000000e+01
0	 3.125000000000000e+00	 1.750000000000001e+00	 1.096628612307692e+01
0	 3.125000000000000e+00	 1.812500000000000e+00	 1.096949583076923e+01
0	 3.125000000000000e+00	 1.875000000000000e+00	 1.097267692307692e+01
0	 3.187500000000000e+00	 1.250000000000000e+00	 1.091664161076923e+01
0	 3.187500000000000e+00	 1.312500000000000e+00	 1.091808042969231e+01
0	 3.187500000000000e+00	 1.375000000000000e+00	 1.091963777169230e+01
0	 3.187500000000000e+00	 1.437500000000000e+00	 1.092131363676923e+01
0	 3.187500000000001e+00	 1.500000000000000e+00	 1.092310802492307e+01
0	 3.187500000000000e+00	 1.562500000000000e+00	 1.092502093615384e+01
0	 3.187500000000000e+00	 1.625000000000000e+00	 1.092705237046154e+01
0	 3.187500000000000e+00	 1.687500000000000e+00	 1.092920232784614e+01
0	 3.187500000000000e+00	 1.750000000000000e+00	 1.093147080830769e+01
0	 3.187499999999999e+00	 1.812500000000000e+00	 1.093385781184616e+01
0	 3.187500000000000e+00	 1.875000000000000e+00	 1.093636333846154e+01
0	 3.250000000000000e+00	 1.250000000000000e+00	 1.089322247384615e+01
0	 3.250000000000000e+00	 1.312500000000000e+00	 1.089292190030770e+01
0	 3.250000000000000e+00	 1.375000000000000e+00	 1.089288698830770e+01
0	 3.250000000000000e+00	 1.437500000000000e+00	 1.089311773784616e+01
0	 3.250000000000000e+00	 1.500000000000000e+00	 1.089361414892307e+01
0	 3.250000000000000e+00	 1.562500000000000e+00	 1.089437622153846e+01
0	 3.250000000000000e+00	 1.625000000000000e+00	 1.089540395569231e+01
0	 3.250000000000000e+00	 1.687500000000000e+00	 1.089669735138462e+01
0	 3.249999999999999e+00	 1.750000000000001e+00	 1.089825640861538e+01
0	 3.250000000000000e+00	 1.812500000000001e+00	 1.090008112738462e+01
0	 3.250000000000000e+00	 1.875000000000000e+00	 1.090217150769231e+01
0	 3.312500000000000e+00	 1.250000000000000e+00	 1.086932089692307e+01
0	 3.312499999999999e+00	 1.312500000000000e+00	 1.086754135030770e+01
0	 3.312500000000000e+00	 1.375000000000000e+00	 1.086617460369230e+01
0	 3.312499999999999e+00	 1.437500000000000e+00	 1.086522065707693e+01
0	 3.312500000000000e+00	 1.500000000000000e+00	 1.086467951046154e+01
0	 3.312499999999999e+00	 1.562500000000000e+00	 1.086455116384616e+01
0	 3.312499999999999e+00	 1.625000000000000e+00	 1.086483561723077e+01
0	 3.312499999999999e+00	 1.687500000000000e+00	 1.086553287061538e+01
0	 3.312499999999999e+00	 1.750000000000000e+00	 1.086664292399999e+01
0	 3.312500000000000e+00	 1.812500000000000e+00	 1.086816577738461e+01
0	 3.312500000000000e+00	 1.875000000000000e+00	 1.087010143076923e+01
0	 3.374999999999999e+00	 1.250000000000000e+00	 1.084493688000000e+01
0	 3.374999999999999e+00	 1.312500000000000e+00	 1.084193877969231e+01
0	 3.374999999999999e+00	 1.375000000000000e+00	 1.083950061784616e+01
0	 3.374999999999999e+00	 1.437500000000000e+00	 1.083762239446154e+01
0	 3.374999999999999e+00	 1.500000000000000e+00	 1.083630410953846e+01
0	 3.374999999999998e+00	 1.562500000000000e+00	 1.083554576307692e+01
0	 3.374999999999999e+00	 1.625000000000001e+00	 1.083534735507692e+01
0	 3.374999999999999e+00	 1.687500000000000e+00	 1.083570888553846e+01
0	 3.375000000000000e+00	 1.750000000000001e+00	 1.083663035446154e+01
0	 3.374999999999999e+00	 1.812500000000000e+00	 1.083811176184615e+01
0	 3.374999999999999e+00	 1.875000000000000e+00	 1.084015310769230e+01
0	 3.437499999999999e+00	 1.250000000000000e+00	 1.082007042307693e+01
0	 3.437499999999998e+00	 1.312500000000000e+00	 1.081611418846154e+01
0	 3.437499999999999e+00	 1.375000000000000e+00	 1.081286503076923e+01
0	 3.437500000000000e+00	 1.437500000000000e+00	 1.081032295000000e+01
0	 3.437499999999999e+00	 1.500000000000000e+00	 1.080848794615385e+01
0	 3.437499999999999e+00	 1.562500000000000e+00	 1.080736001923077e+01
0	 3.437499999999998e+00	 1.625000000000000e+00	 1.080693916923077e+01
0	 3.437499999999999e+00	 1.687500000000000e+00	 1.080722539615385e+01
0	 3.437499999999999e+00	 1.750000000000000e+00	 1.080821870000000e+01
0	 3.437499999999999e+00	 1.812500000000000e+00	 1.080991908076923e+01
0	 3.437499999999999e+00	 1.875000000000000e+00	 1.081232653846154e+01
0	 3.499999999999999e+00	 1.250000000000000e+00	 1.079472152615384e+01
0	 3.499999999999998e+00	 1.312500000000000e+00	 1.079006757661539e+01
0	 3.499999999999999e+00	 1.375000000000000e+00	 1.078626784246154e+01
0	 3.499999999999998e+00	 1.437500000000000e+00	 1.078332232369230e+01
0	 3.499999999999997e+00	 1.500000000000000e+00	 1.078123102030769e+01
0	 3.499999999999998e+00	 1.562500000000000e+00	 1.077999393230769e+01
0	 3.499999999999998e+00	 1.625000000000000e+00	 1.077961105969231e+01
0	 3.499999999999998e+00	 1.687500000000000e+00	 1.078008240246154e+01
0	 3.499999999999998e+00	 1.750000000000000e+00	 1.078140796061538e+01
0	 3.499999999999998e+00	 1.812500000000000e+00	 1.078358773415384e+01
0	 3.499999999999999e+00	 1.875000000000000e+00	 1.078662172307692e+01
0	 3.562499999999998e+00	 1.250000000000000e+00	 1.076889018923077e+01
0	 3.562499999999999e+00	 1.312500000000000e+00	 1.076379894415385e+01
0	 3.562500000000000e+00	 1.375000000000000e+00	 1.075970905292308e+01
0	 3.562499999999998e+00	 1.437500000000000e+00	 1.075662051553846e+01
0	 3.562499999999999e+00	 1.500000000000001e+00	 1.075453333199999e+01
0	 3.562499999999999e+00	 1.562500000000000e+00	 1.075344750230770e+01
0	 3.562499999999999e+00	 1.625000000000000e+00	 1.075336302646154e+01
0	 3.562499999999999e+00	 1.687500000000000e+00	 1.075427990446154e+01
0	 3.562499999999998e+00	 1.750000000000000e+00	 1.075619813630770e+01
0	 3.562499999999999e+00	 1.812500000000000e+00	 1.075911772200000e+01
0	 3.562499999999998e+00	 1.875000000000000e+00	 1.076303866153846e+01
0	 3.624999999999999e+00	 1.250000000000000e+00	 1.074257641230770e+01
0	 3.624999999999998e+00	 1.312500000000000e+00	 1.073730829107692e+01
0	 3.624999999999997e+00	 1.375000000000000e+00	 1.073318866215384e+01
0	 3.624999999999997e+00	 1.437500000000000e+00	 1.073021752553846e+01
0	 3.624999999999999e+00	 1.500000000000000e+00	 1.072839488123077e+01
0	 3.624999999999998e+00	 1.562500000000000e+00	 1.072772072923076e+01
0	 3.625000000000000e+00	 1.625000000000001e+00	 1.072819506953846e+01
0	 3.624999999999998e+00	 1.687500000000000e+00	 1.072981790215384e+01
0	 3.624999999999998e+00	 1.750000000000000e+00	 1.073258922707692e+01
0	 3.624999999999998e+00	 1.812500000000001e+00	 1.073650904430769e+01
0	 3.624999999999999e+00	 1.875000000000000e+00	 1.074157735384615e+01
0	 3.687499999999998e+00	 1.250000000000000e+00	 1.071578019538462e+01
0	 3.687499999999999e+00	 1.312500000000000e+00	 1.071059561738461e+01
0	 3.687499999999998e+00	 1.375000000000000e+00	 1.070670667015385e+01
0	 3.687499999999998e+00	 1.437500000000000e+00	 1.070411335369231e+01
0	 3.687499999999998e+00	 1.500000000000000e+00	 1.070281566800000e+01
0	 3.687499999999998e+00	 1.562500000000000e+00	 1.070281361307692e+01
0	 3.687499999999998e+00	 1.625000000000000e+00	 1.070410718892308e+01
0	 3.687499999999998e+00	 1.687500000000000e+00	 1.070669639553846e+01
0	 3.687499999999998e+00	 1.750000000000000e+00	 1.071058123292308e+01
0	 3.687499999999998e+00	 1.812500000000000e+00	 1.071576170107692e+01
0	 3.687499999999998e+00	 1.875000000000000e+00	 1.072223780000000e+01
0	 3.750000000000000e+00	 1.250000000000000e+00	 1.068850153846154e+01
0	 3.750000000000000e+00	 1.312500000000000e+00	 1.068366092307692e+01
0	 3.750000000000000e+00	 1.375000000000000e+00	 1.068026307692307e+01
0	 3.750000000000000e+00	 1.437500000000000e+00	 1.067830800000000e+01
0	 3.750000000000000e+00	 1.500000000000000e+00	 1.067779569230769e+01
0	 3.750000000000000e+00	 1.562500000000000e+00	 1.067872615384615e+01
0	 3.750000000000000e+00	 1.625000000000000e+00	 1.068109938461538e+01
0	 3.750000000000000e+00	 1.687500000000000e+00	 1.068491538461539e+01
0	 3.750000000000000e+00	 1.750000000000001e+00	 1.069017415384615e+01
0	 3.750000000000000e+00	 1.812500000000000e+00	 1.069687569230769e+01
0	 3.750000000000000e+00	 1.875000000000000e+00	 1.070502000000000e+01
0	 3.125000000000000e+00	 1.875000000000000e+00	 1.097267692307692e+01
0	 3.125000000000000e+00	 1.937500000000000e+00	 1.094013206153846e+01
0	 3.125000000000000e+00	 2.000000000000000e+00	 1.091010609230770e+01
0	 3.125000000000000e+00	 2.062500000000000e+00	 1.088259901538461e+01
0	 3.125000000000000e+00	 2.125000000000000e+00	 1.085761083076924e+01
0	 3.125000000000000e+00	 2.187500000000000e+00	 1.083514153846154e+01
0	 3.125000000000000e+00	 2.250000000000000e+00	 1.081519113846153e+01
0	 3.125000000000000e+00	 2.312500000000000e+00	 1.079775963076923e+01
0	 3.125000000000000e+00	 2.375000000000001e+00	 1.078284701538463e+01
0	 3.125000000000000e+00	 2.437500000000001e+00	 1.077045329230769e+01
0	 3.125000000000000e+00	 2.500000000000000e+00	 1.076057846153846e+01
0	 3.187500000000000e+00	 1.875000000000000e+00	 1.093636333846154e+01
0	 3.187500000000000e+00	 1.937500000000000e+00	 1.090781821230769e+01
0	 3.187500000000000e+00	 2.000000000000000e+00	 1.088159166153846e+01
0	 3.187500000000000e+00	 2.062500000000000e+00	 1.085768368615384e+01
0	 3.187500000000001e+00	 2.125000000000001e+00	 1.083609428615384e+01
0	 3.187500000000000e+00	 2.187500000000000e+00	 1.081682346153846e+01
0	 3.187500000000000e+00	 2.250000000000000e+00	 1.079987121230769e+01
0	 3.187500000000000e+00	 2.312500000000000e+00	 1.078523753846153e+01
0	 3.187500000000000e+00	 2.375000000000000e+00	 1.077292244000000e+01
0	 3.187499999999999e+00	 2.437500000000000e+00	 1.076292591692307e+01
0	 3.187500000000000e+00	 2.500000000000000e+00	 1.075524796923077e+01
0	 3.250000000000000e+00	 1.875000000000000e+00	 1.090217150769231e+01
0	 3.250000000000000e+00	 1.937500000000000e+00	 1.087731624307693e+01
0	 3.250000000000000e+00	 2.000000000000000e+00	 1.085457923692308e+01
0	 3.250000000000000e+00	 2.062500000000000e+00	 1.083396048923077e+01
0	 3.250000000000000e+00	 2.125000000000000e+00	 1.081546000000000e+01
0	 3.250000000000000e+00	 2.187500000000001e+00	 1.079907776923076e+01
0	 3.250000000000000e+00	 2.250000000000000e+00	 1.078481379692307e+01
0	 3.250000000000000e+00	 2.312500000000000e+00	 1.077266808307692e+01
0	 3.249999999999999e+00	 2.375000000000000e+00	 1.076264062769231e+01
0	 3.250000000000000e+00	 2.437500000000000e+00	 1.075473143076923e+01
0	 3.250000000000000e+00	 2.500000000000000e+00	 1.074894049230770e+01
0	 3.312500000000000e+00	 1.875000000000000e+00	 1.087010143076923e+01
0	 3.312499999999999e+00	 1.937500000000000e+00	 1.084862615384615e+01
0	 3.312500000000000e+00	 2.000000000000000e+00	 1.082906881846153e+01
0	 3.312499999999999e+00	 2.062500000000000e+00	 1.081142942461538e+01
0	 3.312500000000000e+00	 2.125000000000001e+00	 1.079570797230769e+01
0	 3.312499999999999e+00	 2.187500000000000e+00	 1.078190446153846e+01
0	 3.312499999999999e+00	 2.250000000000000e+00	 1.077001889230769e+01
0	 3.312499999999999e+00	 2.312500000000000e+00	 1.076005126461538e+01
0	 3.312499999999999e+00	 2.375000000000000e+00	 1.075200157846153e+01
0	 3.312500000000000e+00	 2.437500000000000e+00	 1.074586983384615e+01
0	 3.312500000000000e+00	 2.500000000000000e+00	 1.074165603076924e+01
0	 3.374999999999999e+00	 1.875000000000000e+00	 1.084015310769230e+01
0	 3.374999999999999e+00	 1.937500000000000e+00	 1.082174794461538e+01
0	 3.374999999999999e+00	 2.000000000000000e+00	 1.080506040615385e+01
0	 3.374999999999999e+00	 2.062500000000000e+00	 1.079009049230770e+01
0	 3.374999999999999e+00	 2.125000000000000e+00	 1.077683820307693e+01
0	 3.374999999999998e+00	 2.187500000000000e+00	 1.076530353846154e+01
0	 3.374999999999999e+00	 2.250000000000000e+00	 1.075548649846154e+01
0	 3.374999999999999e+00	 2.312500000000000e+00	 1.074738708307692e+01
0	 3.375000000000000e+00	 2.375000000000000e+00	 1.074100529230769e+01
0	 3.374999999999999e+00	 2.437500000000000e+00	 1.073634112615384e+01
0	 3.374999999999999e+00	 2.500000000000000e+00	 1.073339458461539e+01
0	 3.437499999999999e+00	 1.875000000000000e+00	 1.081232653846154e+01
0	 3.437499999999998e+00	 1.937500000000000e+00	 1.079668161538462e+01
0	 3.437499999999999e+00	 2.000000000000000e+00	 1.078255400000000e+01
0	 3.437500000000000e+00	 2.062500000000000e+00	 1.076994369230769e+01
0	 3.437499999999999e+00	 2.125000000000000e+00	 1.075885069230769e+01
0	 3.437499999999999e+00	 2.187500000000000e+00	 1.074927500000000e+01
0	 3.437499999999998e+00	 2.250000000000000e+00	 1.074121661538462e+01
0	 3.437499999999999e+00	 2.312500000000001e+00	 1.073467553846154e+01
0	 3.437499999999999e+00	 2.375000000000000e+00	 1.072965176923076e+01
0	 3.437499999999999e+00	 2.437500000000000e+00	 1.072614530769231e+01
0	 3.437499999999999e+00	 2.500000000000000e+00	 1.072415615384616e+01
0	 3.499999999999999e+00	 1.875000000000000e+00	 1.078662172307692e+01
0	 3.499999999999998e+00	 1.937500000000000e+00	 1.077342716615385e+01
0	 3.499999999999999e+00	 2.000000000000000e+00	 1.076154960000000e+01
0	 3.499999999999998e+00	 2.062500000000000e+00	 1.075098902461538e+01
0	 3.499999999999997e+00	 2.125000000000000e+00	 1.074174544000000e+01
0	 3.499999999999998e+00	 2.187500000000000e+00	 1.073381884615385e+01
0	 3.499999999999998e+00	 2.250000000000000e+00	 1.072720924307692e+01
0	 3.499999999999998e+00	 2.312500000000000e+00	 1.072191663076923e+01
0	 3.499999999999998e+00	 2.375000000000001e+00	 1.071794100923076e+01
0	 3.499999999999998e+00	 2.437500000000000e+00	 1.071528237846154e+01
0	 3.499999999999999e+00	 2.500000000000000e+00	 1.071394073846154e+01
0	 3.562499999999998e+00	 1.875000000000000e+00	 1.076303866153846e+01
0	 3.562499999999999e+00	 1.937500000000000e+00	 1.075198459692308e+01
0	 3.562500000000000e+00	 2.000000000000001e+00	 1.074204720615385e+01
0	 3.562499999999998e+00	 2.062500000000000e+00	 1.073322648923077e+01
0	 3.562499999999999e+00	 2.125000000000001e+00	 1.072552244615384e+01
0	 3.562499999999999e+00	 2.187500000000000e+00	 1.071893507692308e+01
0	 3.562499999999999e+00	 2.250000000000000e+00	 1.071346438153846e+01
0	 3.562499999999999e+00	 2.312500000000001e+00	 1.070911036000000e+01
0	 3.562499999999998e+00	 2.375000000000000e+00	 1.070587301230769e+01
0	 3.562499999999999e+00	 2.437500000000000e+00	 1.070375233846154e+01
0	 3.562499999999998e+00	 2.500000000000000e+00	 1.070274833846154e+01
0	 3.624999999999999e+00	 1.875000000000000e+00	 1.074157735384615e+01
0	 3.624999999999998e+00	 1.937500000000000e+00	 1.073235390769231e+01
0	 3.624999999999997e+00	 2.000000000000000e+00	 1.072404681846154e+01
0	 3.624999999999997e+00	 2.062500000000000e+00	 1.071665608615385e+01
0	 3.624999999999999e+00	 2.125000000000000e+00	 1.071018171076923e+01
0	 3.624999999999998e+00	 2.187500000000000e+00	 1.070462369230769e+01
0	 3.625000000000000e+00	 2.250000000000000e+00	 1.069998203076923e+01
0	 3.624999999999998e+00	 2.312500000000000e+00	 1.069625672615385e+01
0	 3.624999999999998e+00	 2.375000000000000e+00	 1.069344777846154e+01
0	 3.624999999999998e+00	 2.437500000000001e+00	 1.069155518769230e+01
0	 3.624999999999999e+00	 2.500000000000000e+00	 1.069057895384615e+01
0	 3.687499999999998e+00	 1.875000000000000e+00	 1.072223780000000e+01
0	 3.687499999999999e+00	 1.937500000000000e+00	 1.071453509846154e+01
0	 3.687499999999998e+00	 2.000000000000000e+00	 1.070754843692307e+01
0	 3.687499999999998e+00	 2.062500000000000e+00	 1.070127781538461e+01
0	 3.687499999999998e+00	 2.125000000000000e+00	 1.069572323384615e+01
0	 3.687499999999998e+00	 2.187500000000000e+00	 1.069088469230769e+01
0	 3.687499999999998e+00	 2.250000000000000e+00	 1.068676219076922e+01
0	 3.687499999999998e+00	 2.312500000000000e+00	 1.068335572923077e+01
0	 3.687499999999998e+00	 2.375000000000000e+00	 1.068066530769231e+01
0	 3.687499999999998e+00	 2.437500000000000e+00	 1.067869092615384e+01
0	 3.687499999999998e+00	 2.500000000000000e+00	 1.067743258461539e+01
0	 3.750000000000000e+00	 1.875000000000000e+00	 1.070502000000000e+01
0	 3.750000000000000e+00	 1.937500000000000e+00	 1.069852816923077e+01
0	 3.750000000000000e+00	 2.000000000000000e+00	 1.069255206153846e+01
0	 3.750000000000000e+00	 2.062500000000000e+00	 1.068709167692307e+01
0	 3.750000000000000e+00	 2.125000000000000e+00	 1.068214701538462e+01
0	 3.750000000000000e+00	 2.187500000000000e+00	 1.067771807692308e+01
0	 3.750000000000000e+00	 2.250000000000000e+00	 1.067380486153846e+01
0	 3.750000000000000e+00	 2.312500000000000e+00	 1.067040736923077e+01
0	 3.750000000000000e+00	 2.375000000000001e+00	 1.066752560000001e+01
0	 3.750000000000000e+00	 2.437500000000001e+00	 1.066515955384615e+01
0	 3.750000000000000e+00	 2.500000000000000e+00	 1.066330923076923e+01
0	 3.125000000000000e+00	 2.500000000000000e+00	 1.076057846153846e+01
0	 3.125000000000000e+00	 2.562500000000000e+00	 1.073737427692308e+01
0	 3.125000000000000e+00	 2.625000000000000e+00	 1.071446787692308e+01
0	 3.125000000000000e+00	 2.687499999999999e+00	 1.069185926153846e+01
0	 3.125000000000000e+00	 2.750000000000000e+00	 1.066954843076923e+01
0	 3.125000000000000e+00	 2.812499999999999e+00	 1.064753538461539e+01
0	 3.125000000000000e+00	 2.874999999999999e+00	 1.062582012307692e+01
0	 3.125000000000000e+00	 2.937499999999998e+00	 1.060440264615385e+01
0	 3.125000000000000e+00	 2.999999999999998e+00	 1.058328295384616e+01
0	 3.125000000000000e+00	 3.062499999999998e+00	 1.056246104615386e+01
0	 3.125000000000000e+00	 3.125000000000000e+00	 1.054193692307693e+01
0	 3.187500000000000e+00	 2.500000000000000e+00	 1.075524796923077e+01
0	 3.187500000000000e+00	 2.562500000000000e+00	 1.073253982307692e+01
0	 3.187500000000000e+00	 2.624999999999999e+00	 1.071018369230769e+01
0	 3.187500000000000e+00	 2.687499999999999e+00	 1.068817957692307e+01
0	 3.187500000000000e+00	 2.750000000000000e+00	 1.066652747692308e+01
0	 3.187500000000000e+00	 2.812499999999999e+00	 1.064522739230770e+01
0	 3.187500000000001e+00	 2.875000000000000e+00	 1.062427932307693e+01
0	 3.187500000000000e+00	 2.937499999999999e+00	 1.060368326923077e+01
0	 3.187500000000001e+00	 2.999999999999999e+00	 1.058343923076923e+01
0	 3.187499999999999e+00	 3.062499999999997e+00	 1.056354720769231e+01
0	 3.187500000000000e+00	 3.125000000000000e+00	 1.054400720000000e+01
0	 3.250000000000000e+00	 2.500000000000000e+00	 1.074894049230770e+01
0	 3.250000000000000e+00	 2.562500000000000e+00	 1.072676026153846e+01
0	 3.250000000000000e+00	 2.625000000000000e+00	 1.070498627692308e+01
0	 3.250000000000000e+00	 2.687500000000000e+00	 1.068361853846154e+01
0	 3.249999999999999e+00	 2.749999999999999e+00	 1.066265704615385e+01
0	 3.250000000000000e+00	 2.812499999999999e+00	 1.064210180000000e+01
0	 3.249999999999999e+00	 2.874999999999999e+00	 1.062195280000000e+01
0	 3.250000000000000e+00	 2.937499999999999e+00	 1.060221004615386e+01
0	 3.250000000000000e+00	 2.999999999999998e+00	 1.058287353846154e+01
0	 3.250000000000000e+00	 3.062499999999999e+00	 1.056394327692308e+01
0	 3.250000000000000e+00	 3.125000000000000e+00	 1.054541926153847e+01
0	 3.312500000000000e+00	 2.500000000000000e+00	 1.074165603076924e+01
0	 3.312499999999999e+00	 2.562500000000000e+00	 1.072003559230769e+01
0	 3.312500000000000e+00	 2.625000000000000e+00	 1.069887563076924e+01
0	 3.312500000000000e+00	 2.687499999999999e+00	 1.067817614615384e+01
0	 3.312499999999999e+00	 2.749999999999999e+00	 1.065793713846153e+01
0	 3.312500000000000e+00	 2.812499999999999e+00	 1.063815860769231e+01
0	 3.312499999999999e+00	 2.874999999999999e+00	 1.061884055384616e+01
0	 3.312499999999999e+00	 2.937499999999999e+00	 1.059998297692308e+01
0	 3.312500000000000e+00	 2.999999999999999e+00	 1.058158587692309e+01
0	 3.312499999999999e+00	 3.062499999999998e+00	 1.056364925384616e+01
0	 3.312500000000000e+00	 3.125000000000000e+00	 1.054617310769231e+01
0	 3.374999999999999e+00	 2.500000000000000e+00	 1.073339458461539e+01
0	 3.374999999999999e+00	 2.562500000000000e+00	 1.071236581538462e+01
0	 3.375000000000000e+00	 2.625000000000000e+00	 1.069185175384616e+01
0	 3.374999999999999e+00	 2.687500000000000e+00	 1.067185240000000e+01
0	 3.374999999999999e+00	 2.750000000000000e+00	 1.065236775384616e+01
0	 3.374999999999999e+00	 2.812499999999999e+00	 1.063339781538462e+01
0	 3.374999999999999e+00	 2.874999999999999e+00	 1.061494258461538e+01
0	 3.374999999999999e+00	 2.937499999999998e+00	 1.059700206153846e+01
0	 3.374999999999999e+00	 2.999999999999999e+00	 1.057957624615385e+01
0	 3.375000000000000e+00	 3.062499999999998e+00	 1.056266513846154e+01
0	 3.374999999999999e+00	 3.125000000000000e+00	 1.054626873846154e+01
0	 3.437499999999999e+00	 2.500000000000000e+00	 1.072415615384616e+01
0	 3.437499999999999e+00	 2.562499999999999e+00	 1.070375093076922e+01
0	 3.437499999999999e+00	 2.625000000000000e+00	 1.068391464615384e+01
0	 3.437499999999999e+00	 2.687500000000000e+00	 1.066464730000000e+01
0	 3.437499999999998e+00	 2.749999999999999e+00	 1.064594889230769e+01
0	 3.437499999999999e+00	 2.812499999999999e+00	 1.062781942307693e+01
0	 3.437500000000000e+00	 2.874999999999999e+00	 1.061025889230769e+01
0	 3.437499999999999e+00	 2.937499999999998e+00	 1.059326730000001e+01
0	 3.437499999999999e+00	 2.999999999999998e+00	 1.057684464615384e+01
0	 3.437500000000000e+00	 3.062499999999998e+00	 1.056099093076924e+01
0	 3.437499999999999e+00	 3.125000000000000e+00	 1.054570615384616e+01
0	 3.499999999999999e+00	 2.500000000000000e+00	 1.071394073846154e+01
0	 3.499999999999999e+00	 2.562500000000000e+00	 1.069419093846154e+01
0	 3.499999999999997e+00	 2.625000000000000e+00	 1.067506430769232e+01
0	 3.499999999999999e+00	 2.687500000000000e+00	 1.065656084615384e+01
0	 3.499999999999999e+00	 2.750000000000000e+00	 1.063868055384616e+01
0	 3.500000000000000e+00	 2.812500000000000e+00	 1.062142343076924e+01
0	 3.499999999999999e+00	 2.874999999999999e+00	 1.060478947692308e+01
0	 3.499999999999999e+00	 2.937499999999999e+00	 1.058877869230770e+01
0	 3.499999999999999e+00	 2.999999999999999e+00	 1.057339107692308e+01
0	 3.499999999999998e+00	 3.062499999999998e+00	 1.055862663076923e+01
0	 3.499999999999999e+00	 3.125000000000000e+00	 1.054448535384615e+01
0	 3.562499999999998e+00	 2.500000000000000e+00	 1.070274833846154e+01
0	 3.562499999999999e+00	 2.562500000000000e+00	 1.068368583846154e+01
0	 3.562499999999999e+00	 2.625000000000000e+00	 1.066530073846154e+01
0	 3.562499999999998e+00	 2.687500000000000e+00	 1.064759303846154e+01
0	 3.562499999999999e+00	 2.749999999999999e+00	 1.063056273846154e+01
0	 3.562499999999999e+00	 2.812499999999999e+00	 1.061420983846154e+01
0	 3.562499999999999e+00	 2.874999999999999e+00	 1.059853433846155e+01
0	 3.562499999999999e+00	 2.937499999999998e+00	 1.058353623846154e+01
0	 3.562499999999998e+00	 2.999999999999998e+00	 1.056921553846155e+01
0	 3.562499999999999e+00	 3.062499999999998e+00	 1.055557223846155e+01
0	 3.562499999999998e+00	 3.125000000000000e+00	 1.054260633846154e+01
0	 3.624999999999999e+00	 2.500000000000000e+00	 1.069057895384615e+01
0	 3.624999999999999e+00	 2.562500000000001e+00	 1.067223563076923e+01
0	 3.624999999999998e+00	 2.625000000000000e+00	 1.065462393846154e+01
0	 3.624999999999999e+00	 2.687500000000000e+00	 1.063774387692307e+01
0	 3.624999999999998e+00	 2.749999999999999e+00	 1.062159544615384e+01
0	 3.624999999999998e+00	 2.812499999999999e+00	 1.060617864615385e+01
0	 3.624999999999998e+00	 2.874999999999999e+00	 1.059149347692308e+01
0	 3.624999999999998e+00	 2.937499999999998e+00	 1.057753993846154e+01
0	 3.624999999999998e+00	 2.999999999999998e+00	 1.056431803076923e+01
0	 3.624999999999998e+00	 3.062499999999998e+00	 1.055182775384616e+01
0	 3.624999999999999e+00	 3.125000000000000e+00	 1.054006910769231e+01
0	 3.687499999999998e+00	 2.500000000000000e+00	 1.067743258461539e+01
0	 3.687499999999998e+00	 2.562500000000000e+00	 1.065984031538462e+01
0	 3.687499999999998e+00	 2.625000000000000e+00	 1.064303390769231e+01
0	 3.687499999999998e+00	 2.687500000000000e+00	 1.062701336153847e+01
0	 3.687499999999998e+00	 2.749999999999999e+00	 1.061177867692308e+01
0	 3.687499999999998e+00	 2.812499999999999e+00	 1.059732985384616e+01
0	 3.687499999999998e+00	 2.874999999999999e+00	 1.058366689230770e+01
0	 3.687499999999998e+00	 2.937499999999998e+00	 1.057078979230769e+01
0	 3.687499999999998e+00	 2.999999999999998e+00	 1.055869855384616e+01
0	 3.687499999999997e+00	 3.062499999999998e+00	 1.054739317692307e+01
0	 3.687499999999998e+00	 3.125000000000000e+00	 1.053687366153847e+01
0	 3.750000000000000e+00	 2.500000000000000e+00	 1.066330923076923e+01
0	 3.750000000000000e+00	 2.562500000000000e+00	 1.064649989230770e+01
0	 3.750000000000001e+00	 2.625000000000000e+00	 1.063053064615385e+01
0	 3.750000000000000e+00	 2.687499999999999e+00	 1.061540149230769e+01
0	 3.750000000000000e+00	 2.750000000000000e+00	 1.060111243076923e+01
0	 3.750000000000000e+00	 2.812499999999999e+00	 1.058766346153847e+01
0	 3.750000000000000e+00	 2.874999999999999e+00	 1.057505458461538e+01
0	 3.750000000000000e+00	 2.937499999999998e+00	 1.056328580000000e+01
0	 3.750000000000000e+00	 2.999999999999998e+00	 1.055235710769231e+01
0	 3.750000000000000e+00	 3.062499999999998e+00	 1.054226850769232e+01
0	 3.750000000000000e+00	 3.125000000000000e+00	 1.053302000000000e+01
0	 3.125000000000000e+00	 3.125000000000000e+00	 1.054193692307693e+01
0	 3.125000000000000e+00	 3.187500000000000e+00	 1.052044596923076e+01
0	 3.125000000000000e+00	 3.250000000000000e+00	 1.049926295384615e+01
0	 3.125000000000000e+00	 3.312499999999999e+00	 1.047838787692308e+01
0	 3.125000000000000e+00	 3.374999999999999e+00	 1.045782073846154e+01
0	 3.125000000000000e+00	 3.437499999999999e+00	 1.043756153846153e+01
0	 3.125000000000000e+00	 3.499999999999999e+00	 1.041761027692307e+01
0	 3.125000000000000e+00	 3.562499999999998e+00	 1.039796695384615e+01
0	 3.125000000000000e+00	 3.624999999999999e+00	 1.037863156923077e+01
0	 3.125000000000000e+00	 3.687499999999998e+00	 1.035960412307691e+01
0	 3.125000000000000e+00	 3.750000000000000e+00	 1.034088461538461e+01
0	 3.187500000000000e+00	 3.125000000000000e+00	 1.054400720000000e+01
0	 3.187500000000000e+00	 3.187500000000000e+00	 1.052371340769231e+01
0	 3.187500000000000e+00	 3.250000000000000e+00	 1.050371676307692e+01
0	 3.187500000000000e+00	 3.312499999999999e+00	 1.048401726615385e+01
0	 3.187500000000000e+00	 3.374999999999999e+00	 1.046461491692308e+01
0	 3.187500000000000e+00	 3.437499999999999e+00	 1.044550971538462e+01
0	 3.187500000000001e+00	 3.500000000000000e+00	 1.042670166153846e+01
0	 3.187500000000000e+00	 3.562499999999999e+00	 1.040819075538462e+01
0	 3.187500000000001e+00	 3.625000000000000e+00	 1.038997699692308e+01
0	 3.187499999999999e+00	 3.687499999999997e+00	 1.037206038615384e+01
0	 3.187500000000000e+00	 3.750000000000000e+00	 1.035444092307693e+01
0	 3.250000000000000e+00	 3.125000000000000e+00	 1.054541926153847e+01
0	 3.250000000000000e+00	 3.187500000000000e+00	 1.052623100615385e+01
0	 3.250000000000000e+00	 3.250000000000000e+00	 1.050732910769231e+01
0	 3.250000000000000e+00	 3.312500000000000e+00	 1.048871356615385e+01
0	 3.249999999999999e+00	 3.374999999999999e+00	 1.047038438153847e+01
0	 3.250000000000000e+00	 3.437499999999999e+00	 1.045234155384615e+01
0	 3.249999999999999e+00	 3.499999999999997e+00	 1.043458508307692e+01
0	 3.250000000000000e+00	 3.562499999999999e+00	 1.041711496923076e+01
0	 3.250000000000000e+00	 3.624999999999998e+00	 1.039993121230768e+01
0	 3.250000000000000e+00	 3.687499999999999e+00	 1.038303381230769e+01
0	 3.250000000000000e+00	 3.750000000000000e+00	 1.036642276923076e+01
0	 3.312500000000000e+00	 3.125000000000000e+00	 1.054617310769231e+01
0	 3.312499999999999e+00	 3.187500000000000e+00	 1.052799876461538e+01
0	 3.312500000000000e+00	 3.250000000000000e+00	 1.051009998769232e+01
0	 3.312500000000000e+00	 3.312500000000000e+00	 1.049247677692307e+01
0	 3.312499999999999e+00	 3.374999999999999e+00	 1.047512913230769e+01
0	 3.312500000000000e+00	 3.437499999999999e+00	 1.045805705384615e+01
0	 3.312499999999999e+00	 3.499999999999998e+00	 1.044126054153846e+01
0	 3.312499999999999e+00	 3.562499999999998e+00	 1.042473959538461e+01
0	 3.312500000000000e+00	 3.624999999999998e+00	 1.040849421538461e+01
0	 3.312499999999999e+00	 3.687499999999998e+00	 1.039252440153846e+01
0	 3.312500000000000e+00	 3.750000000000000e+00	 1.037683015384614e+01
0	 3.374999999999999e+00	 3.125000000000000e+00	 1.054626873846154e+01
0	 3.374999999999999e+00	 3.187500000000000e+00	 1.052901668307693e+01
0	 3.375000000000000e+00	 3.250000000000000e+00	 1.051202940307693e+01
0	 3.374999999999999e+00	 3.312500000000000e+00	 1.049530689846154e+01
0	 3.374999999999999e+00	 3.374999999999999e+00	 1.047884916923077e+01
0	 3.374999999999999e+00	 3.437499999999999e+00	 1.046265621538462e+01
0	 3.374999999999999e+00	 3.499999999999998e+00	 1.044672803692308e+01
0	 3.374999999999999e+00	 3.562499999999998e+00	 1.043106463384616e+01
0	 3.374999999999999e+00	 3.624999999999999e+00	 1.041566600615385e+01
0	 3.375000000000000e+00	 3.687499999999998e+00	 1.040053215384614e+01
0	 3.374999999999999e+00	 3.750000000000000e+00	 1.038566307692307e+01
0	 3.437499999999999e+00	 3.125000000000000e+00	 1.054570615384616e+01
0	 3.437499999999999e+00	 3.187500000000000e+00	 1.052928476153847e+01
0	 3.437499999999999e+00	 3.250000000000000e+00	 1.051311735384616e+01
0	 3.437499999999999e+00	 3.312500000000000e+00	 1.049720393076923e+01
0	 3.437499999999998e+00	 3.374999999999998e+00	 1.048154449230770e+01
0	 3.437499999999999e+00	 3.437499999999999e+00	 1.046613903846154e+01
0	 3.437500000000000e+00	 3.499999999999999e+00	 1.045098756923077e+01
0	 3.437499999999999e+00	 3.562499999999999e+00	 1.043609008461538e+01
0	 3.437499999999999e+00	 3.624999999999998e+00	 1.042144658461538e+01
0	 3.437500000000000e+00	 3.687499999999999e+00	 1.040705706923077e+01
0	 3.437499999999999e+00	 3.750000000000000e+00	 1.039292153846153e+01
0	 3.499999999999999e+00	 3.125000000000000e+00	 1.054448535384615e+01
0	 3.499999999999999e+00	 3.187500000000000e+00	 1.052880300000000e+01
0	 3.499999999999997e+00	 3.249999999999999e+00	 1.051336384000001e+01
0	 3.499999999999999e+00	 3.312499999999999e+00	 1.049816787384616e+01
0	 3.499999999999999e+00	 3.375000000000000e+00	 1.048321510153847e+01
0	 3.500000000000000e+00	 3.437500000000000e+00	 1.046850552307693e+01
0	 3.499999999999999e+00	 3.499999999999999e+00	 1.045403913846153e+01
0	 3.499999999999999e+00	 3.562499999999999e+00	 1.043981594769230e+01
0	 3.499999999999999e+00	 3.624999999999999e+00	 1.042583595076923e+01
0	 3.499999999999998e+00	 3.687499999999998e+00	 1.041209914769231e+01
0	 3.499999999999999e+00	 3.750000000000000e+00	 1.039860553846153e+01
0	 3.562499999999998e+00	 3.125000000000000e+00	 1.054260633846154e+01
0	 3.562499999999999e+00	 3.187500000000000e+00	 1.052757139846154e+01
0	 3.562499999999999e+00	 3.250000000000000e+00	 1.051276886153846e+01
0	 3.562499999999998e+00	 3.312500000000000e+00	 1.049819872769231e+01
0	 3.562499999999999e+00	 3.374999999999999e+00	 1.048386099692308e+01
0	 3.562499999999999e+00	 3.437499999999999e+00	 1.046975566923077e+01
0	 3.562499999999999e+00	 3.499999999999999e+00	 1.045588274461538e+01
0	 3.562499999999999e+00	 3.562499999999999e+00	 1.044224222307692e+01
0	 3.562499999999998e+00	 3.624999999999998e+00	 1.042883410461538e+01
0	 3.562499999999999e+00	 3.687499999999999e+00	 1.041565838923077e+01
0	 3.562499999999998e+00	 3.750000000000000e+00	 1.040271507692308e+01
0	 3.624999999999999e+00	 3.125000000000000e+00	 1.054006910769231e+01
0	 3.624999999999999e+00	 3.187500000000001e+00	 1.052558995692307e+01
0	 3.624999999999998e+00	 3.250000000000000e+00	 1.051133241846154e+01
0	 3.624999999999999e+00	 3.312500000000000e+00	 1.049729649230768e+01
0	 3.624999999999998e+00	 3.374999999999999e+00	 1.048348217846154e+01
0	 3.624999999999998e+00	 3.437499999999999e+00	 1.046988947692307e+01
0	 3.624999999999998e+00	 3.499999999999998e+00	 1.045651838769230e+01
0	 3.624999999999998e+00	 3.562499999999998e+00	 1.044336891076923e+01
0	 3.624999999999998e+00	 3.624999999999998e+00	 1.043044104615385e+01
0	 3.624999999999998e+00	 3.687499999999998e+00	 1.041773479384615e+01
0	 3.624999999999999e+00	 3.750000000000000e+00	 1.040525015384616e+01
0	 3.687499999999998e+00	 3.125000000000000e+00	 1.053687366153847e+01
0	 3.687499999999998e+00	 3.187500000000000e+00	 1.052285867538462e+01
0	 3.687499999999998e+00	 3.250000000000000e+00	 1.050905451076923e+01
0	 3.687499999999998e+00	 3.312500000000000e+00	 1.049546116769230e+01
0	 3.687499999999998e+00	 3.374999999999999e+00	 1.048207864615385e+01
0	 3.687499999999998e+00	 3.437500000000000e+00	 1.046890694615385e+01
0	 3.687499999999998e+00	 3.499999999999998e+00	 1.045594606769231e+01
0	 3.687499999999998e+00	 3.562499999999998e+00	 1.044319601076922e+01
0	 3.687499999999998e+00	 3.624999999999998e+00	 1.043065677538462e+01
0	 3.687499999999997e+00	 3.687499999999997e+00	 1.041832836153846e+01
0	 3.687499999999998e+00	 3.750000000000000e+00	 1.040621076923077e+01
0	 3.750000000000000e+00	 3.125000000000000e+00	 1.053302000000000e+01
0	 3.750000000000000e+00	 3.187500000000000e+00	 1.051937755384614e+01
0	 3.750000000000001e+00	 3.250000000000000e+00	 1.050593513846153e+01
0	 3.750000000000000e+00	 3.312499999999999e+00	 1.049269275384615e+01
0	 3.750000000000000e+00	 3.374999999999999e+00	 1.047965040000000e+01
0	 3.750000000000000e+00	 3.437499999999999e+00	 1.046680807692307e+01
0	 3.750000000000000e+00	 3.499999999999999e+00	 1.045416578461538e+01
0	 3.750000000000000e+00	 3.562499999999998e+00	 1.044172352307692e+01
0	 3.750000000000000e+00	 3.624999999999999e+00	 1.042948129230769e+01
0	 3.750000000000000e+00	 3.687499999999998e+00	 1.041743909230768e+01
0	 3.750000000000000e+00	 3.750000000000000e+00	 1.040559692307692e+01
0	 3.125000000000000e+00	 3.750000000000000e+00	 1.034088461538461e+01
0	 3.125000000000000e+00	 3.812500000000000e+00	 1.032867190769230e+01
0	 3.125000000000000e+00	 3.875000000000000e+00	 1.031623747692308e+01
0	 3.125000000000000e+00	 3.937499999999999e+00	 1.030358132307692e+01
0	 3.125000000000000e+00	 4.000000000000000e+00	 1.029070344615385e+01
0	 3.125000000000000e+00	 4.062499999999999e+00	 1.027760384615385e+01
0	 3.125000000000000e+00	 4.124999999999999e+00	 1.026428252307692e+01
0	 3.125000000000000e+00	 4.187499999999998e+00	 1.025073947692308e+01
0	 3.125000000000000e+00	 4.249999999999998e+00	 1.023697470769231e+01
0	 3.125000000000000e+00	 4.312499999999998e+00	 1.022298821538463e+01
0	 3.125000000000000e+00	 4.375000000000000e+00	 1.020878000000001e+01
0	 3.187500000000000e+00	 3.750000000000000e+00	 1.035444092307693e+01
0	 3.187500000000000e+00	 3.812500000000000e+00	 1.034191535692307e+01
0	 3.187500000000000e+00	 3.875000000000000e+00	 1.032920375384615e+01
0	 3.187500000000000e+00	 3.937500000000000e+00	 1.031630611384615e+01
0	 3.187500000000000e+00	 3.999999999999999e+00	 1.030322243692307e+01
0	 3.187500000000000e+00	 4.062499999999999e+00	 1.028995272307692e+01
0	 3.187500000000001e+00	 4.125000000000000e+00	 1.027649697230769e+01
0	 3.187500000000000e+00	 4.187500000000000e+00	 1.026285518461539e+01
0	 3.187500000000001e+00	 4.250000000000000e+00	 1.024902736000000e+01
0	 3.187499999999999e+00	 4.312499999999997e+00	 1.023501349846155e+01
0	 3.187500000000000e+00	 4.375000000000000e+00	 1.022081360000001e+01
0	 3.250000000000000e+00	 3.750000000000000e+00	 1.036642276923076e+01
0	 3.250000000000000e+00	 3.812500000000000e+00	 1.035364706461539e+01
0	 3.250000000000000e+00	 3.875000000000000e+00	 1.034072100923076e+01
0	 3.250000000000000e+00	 3.937500000000000e+00	 1.032764460307692e+01
0	 3.249999999999999e+00	 3.999999999999999e+00	 1.031441784615384e+01
0	 3.250000000000000e+00	 4.062499999999999e+00	 1.030104073846153e+01
0	 3.249999999999999e+00	 4.124999999999997e+00	 1.028751328000000e+01
0	 3.250000000000000e+00	 4.187499999999998e+00	 1.027383547076923e+01
0	 3.250000000000000e+00	 4.249999999999998e+00	 1.026000731076924e+01
0	 3.250000000000000e+00	 4.312499999999998e+00	 1.024602880000002e+01
0	 3.250000000000000e+00	 4.375000000000000e+00	 1.023189993846154e+01
0	 3.312500000000000e+00	 3.750000000000000e+00	 1.037683015384614e+01
0	 3.312499999999999e+00	 3.812500000000000e+00	 1.036386703076922e+01
0	 3.312500000000000e+00	 3.875000000000000e+00	 1.035078924307692e+01
0	 3.312500000000000e+00	 3.937500000000000e+00	 1.033759679076922e+01
0	 3.312499999999999e+00	 3.999999999999999e+00	 1.032428967384615e+01
0	 3.312500000000000e+00	 4.062500000000000e+00	 1.031086789230769e+01
0	 3.312499999999999e+00	 4.124999999999998e+00	 1.029733144615384e+01
0	 3.312499999999999e+00	 4.187499999999999e+00	 1.028368033538462e+01
0	 3.312500000000000e+00	 4.249999999999998e+00	 1.026991455999999e+01
0	 3.312499999999999e+00	 4.312499999999997e+00	 1.025603412000002e+01
0	 3.312500000000000e+00	 4.375000000000000e+00	 1.024203901538462e+01
0	 3.374999999999999e+00	 3.750000000000000e+00	 1.038566307692307e+01
0	 3.374999999999999e+00	 3.812500000000000e+00	 1.037257525538461e+01
0	 3.375000000000000e+00	 3.875000000000000e+00	 1.035940845538461e+01
0	 3.374999999999999e+00	 3.937500000000000e+00	 1.034616267692307e+01
0	 3.374999999999999e+00	 3.999999999999999e+00	 1.033283792000001e+01
0	 3.374999999999999e+00	 4.062499999999999e+00	 1.031943418461538e+01
0	 3.374999999999999e+00	 4.124999999999998e+00	 1.030595147076924e+01
0	 3.374999999999999e+00	 4.187499999999999e+00	 1.029238977846153e+01
0	 3.374999999999999e+00	 4.249999999999998e+00	 1.027874910769231e+01
0	 3.375000000000000e+00	 4.312499999999998e+00	 1.026502945846154e+01
0	 3.374999999999999e+00	 4.375000000000000e+00	 1.025123083076923e+01
0	 3.437499999999999e+00	 3.750000000000000e+00	 1.039292153846153e+01
0	 3.437499999999999e+00	 3.812500000000000e+00	 1.037977173846154e+01
0	 3.437499999999999e+00	 3.875000000000000e+00	 1.036657864615384e+01
0	 3.437499999999999e+00	 3.937499999999999e+00	 1.035334226153846e+01
0	 3.437499999999998e+00	 3.999999999999998e+00	 1.034006258461538e+01
0	 3.437499999999999e+00	 4.062499999999999e+00	 1.032673961538461e+01
0	 3.437500000000000e+00	 4.125000000000000e+00	 1.031337335384615e+01
0	 3.437499999999999e+00	 4.187499999999998e+00	 1.029996380000000e+01
0	 3.437499999999999e+00	 4.249999999999998e+00	 1.028651095384615e+01
0	 3.437500000000000e+00	 4.312499999999998e+00	 1.027301481538462e+01
0	 3.437499999999999e+00	 4.375000000000000e+00	 1.025947538461538e+01
0	 3.499999999999999e+00	 3.750000000000000e+00	 1.039860553846153e+01
0	 3.499999999999999e+00	 3.812500000000000e+00	 1.038545648000000e+01
0	 3.499999999999997e+00	 3.874999999999999e+00	 1.037229981538460e+01
0	 3.499999999999999e+00	 3.937500000000000e+00	 1.035913554461538e+01
0	 3.499999999999999e+00	 4.000000000000000e+00	 1.034596366769230e+01
0	 3.500000000000000e+00	 4.062500000000000e+00	 1.033278418461539e+01
0	 3.499999999999999e+00	 4.124999999999999e+00	 1.031959709538462e+01
0	 3.499999999999999e+00	 4.187499999999998e+00	 1.030640240000000e+01
0	 3.499999999999999e+00	 4.249999999999999e+00	 1.029320009846153e+01
0	 3.499999999999998e+00	 4.312499999999997e+00	 1.027999019076923e+01
0	 3.499999999999999e+00	 4.375000000000000e+00	 1.026677267692307e+01
0	 3.562499999999998e+00	 3.750000000000000e+00	 1.040271507692308e+01
0	 3.562499999999999e+00	 3.812500000000000e+00	 1.038962947999999e+01
0	 3.562499999999999e+00	 3.875000000000000e+00	 1.037657196307692e+01
0	 3.562499999999998e+00	 3.937499999999999e+00	 1.036354252615384e+01
0	 3.562499999999999e+00	 3.999999999999999e+00	 1.035054116923077e+01
0	 3.562499999999999e+00	 4.062500000000000e+00	 1.033756789230770e+01
0	 3.562499999999999e+00	 4.124999999999999e+00	 1.032462269538462e+01
0	 3.562499999999999e+00	 4.187499999999999e+00	 1.031170557846155e+01
0	 3.562499999999998e+00	 4.249999999999998e+00	 1.029881654153846e+01
0	 3.562499999999999e+00	 4.312499999999998e+00	 1.028595558461540e+01
0	 3.562499999999998e+00	 4.375000000000000e+00	 1.027312270769229e+01
0	 3.624999999999999e+00	 3.750000000000000e+00	 1.040525015384616e+01
0	 3.624999999999999e+00	 3.812500000000000e+00	 1.039229073846155e+01
0	 3.624999999999998e+00	 3.875000000000000e+00	 1.037939508923076e+01
0	 3.624999999999999e+00	 3.937500000000000e+00	 1.036656320615384e+01
0	 3.624999999999998e+00	 3.999999999999999e+00	 1.035379508923077e+01
0	 3.624999999999998e+00	 4.062499999999998e+00	 1.034109073846153e+01
0	 3.624999999999998e+00	 4.124999999999999e+00	 1.032845015384615e+01
0	 3.624999999999998e+00	 4.187499999999998e+00	 1.031587333538461e+01
0	 3.624999999999998e+00	 4.249999999999998e+00	 1.030336028307692e+01
0	 3.624999999999998e+00	 4.312499999999998e+00	 1.029091099692308e+01
0	 3.624999999999999e+00	 4.375000000000000e+00	 1.027852547692308e+01
0	 3.687499999999998e+00	 3.750000000000000e+00	 1.040621076923077e+01
0	 3.687499999999998e+00	 3.812500000000000e+00	 1.039344025538461e+01
0	 3.687499999999998e+00	 3.875000000000000e+00	 1.038076919384615e+01
0	 3.687499999999998e+00	 3.937499999999999e+00	 1.036819758461538e+01
0	 3.687499999999998e+00	 3.999999999999999e+00	 1.035572542769230e+01
0	 3.687499999999998e+00	 4.062499999999998e+00	 1.034335272307693e+01
0	 3.687499999999998e+00	 4.124999999999998e+00	 1.033107947076923e+01
0	 3.687499999999998e+00	 4.187499999999998e+00	 1.031890567076924e+01
0	 3.687499999999998e+00	 4.249999999999998e+00	 1.030683132307693e+01
0	 3.687499999999997e+00	 4.312499999999998e+00	 1.029485642769231e+01
0	 3.687499999999998e+00	 4.375000000000000e+00	 1.028298098461538e+01
0	 3.750000000000000e+00	 3.750000000000000e+00	 1.040559692307692e+01
0	 3.750000000000000e+00	 3.812500000000000e+00	 1.039307803076923e+01
0	 3.750000000000001e+00	 3.875000000000000e+00	 1.038069427692308e+01
0	 3.750000000000000e+00	 3.937499999999999e+00	 1.036844566153845e+01
0	 3.750000000000000e+00	 4.000000000000000e+00	 1.035633218461538e+01
0	 3.750000000000000e+00	 4.062499999999999e+00	 1.034435384615385e+01
0	 3.750000000000000e+00	 4.124999999999999e+00	 1.033251064615384e+01
0	 3.750000000000000e+00	 4.187499999999998e+00	 1.032080258461538e+01
0	 3.750000000000000e+00	 4.249999999999998e+00	 1.030922966153846e+01
0	 3.750000000000000e+00	 4.312499999999998e+00	 1.029779187692309e+01
0	 3.750000000000000e+00	 4.375000000000000e+00	 1.028648923076923e+01
0	 3.125000000000000e+00	 4.375000000000000e+00	 1.020878000000001e+01
0	 3.125000000000000e+00	 4.437499999999999e+00	 1.019993118461538e+01
0	 3.125000000000000e+00	 4.500000000000001e+00	 1.019099089230770e+01
0	 3.125000000000000e+00	 4.562499999999999e+00	 1.018195912307693e+01
0	 3.125000000000000e+00	 4.625000000000000e+00	 1.017283587692308e+01
0	 3.125000000000000e+00	 4.687499999999999e+00	 1.016362115384615e+01
0	 3.125000000000000e+00	 4.749999999999999e+00	 1.015431495384615e+01
0	 3.125000000000000e+00	 4.812499999999998e+00	 1.014491727692308e+01
0	 3.125000000000000e+00	 4.874999999999998e+00	 1.013542812307692e+01
0	 3.125000000000000e+00	 4.937499999999998e+00	 1.012584749230768e+01
0	 3.125000000000000e+00	 5.000000000000000e+00	 1.011617538461538e+01
0	 3.187500000000000e+00	 4.375000000000000e+00	 1.022081360000001e+01
0	 3.187500000000000e+00	 4.437500000000000e+00	 1.021195690461539e+01
0	 3.187500000000000e+00	 4.499999999999999e+00	 1.020301110461539e+01
0	 3.187500000000000e+00	 4.562499999999999e+00	 1.019397620000000e+01
0	 3.187500000000000e+00	 4.625000000000000e+00	 1.018485219076923e+01
0	 3.187500000000000e+00	 4.687500000000001e+00	 1.017563907692307e+01
0	 3.187500000000001e+00	 4.749999999999999e+00	 1.016633685846153e+01
0	 3.187500000000000e+00	 4.812499999999999e+00	 1.015694553538461e+01
0	 3.187500000000001e+00	 4.875000000000000e+00	 1.014746510769231e+01
0	 3.187499999999999e+00	 4.937499999999997e+00	 1.013789557538462e+01
0	 3.187500000000000e+00	 4.999999999999999e+00	 1.012823693846152e+01
0	 3.250000000000000e+00	 4.375000000000000e+00	 1.023189993846154e+01
0	 3.250000000000000e+00	 4.437500000000000e+00	 1.022304313846155e+01
0	 3.250000000000000e+00	 4.500000000000001e+00	 1.021409960615385e+01
0	 3.250000000000000e+00	 4.562499999999999e+00	 1.020506934153846e+01
0	 3.249999999999999e+00	 4.624999999999998e+00	 1.019595234461539e+01
0	 3.250000000000000e+00	 4.687499999999997e+00	 1.018674861538462e+01
0	 3.249999999999999e+00	 4.749999999999998e+00	 1.017745815384615e+01
0	 3.250000000000000e+00	 4.812499999999999e+00	 1.016808095999999e+01
0	 3.250000000000000e+00	 4.874999999999998e+00	 1.015861703384616e+01
0	 3.250000000000000e+00	 4.937499999999998e+00	 1.014906637538461e+01
0	 3.250000000000000e+00	 5.000000000000000e+00	 1.013942898461539e+01
0	 3.312500000000000e+00	 4.375000000000000e+00	 1.024203901538462e+01
0	 3.312499999999999e+00	 4.437500000000000e+00	 1.023318988615386e+01
0	 3.312500000000000e+00	 4.500000000000000e+00	 1.022425639692308e+01
0	 3.312500000000000e+00	 4.562499999999999e+00	 1.021523854769230e+01
0	 3.312499999999999e+00	 4.625000000000000e+00	 1.020613633846155e+01
0	 3.312500000000000e+00	 4.687499999999999e+00	 1.019694976923077e+01
0	 3.312499999999999e+00	 4.749999999999998e+00	 1.018767884000000e+01
0	 3.312499999999999e+00	 4.812499999999998e+00	 1.017832355076923e+01
0	 3.312500000000000e+00	 4.874999999999998e+00	 1.016888390153847e+01
0	 3.312499999999999e+00	 4.937499999999997e+00	 1.015935989230769e+01
0	 3.312500000000000e+00	 4.999999999999999e+00	 1.014975152307692e+01
0	 3.374999999999999e+00	 4.375000000000000e+00	 1.025123083076923e+01
0	 3.374999999999999e+00	 4.437500000000000e+00	 1.024239714769230e+01
0	 3.375000000000000e+00	 4.500000000000000e+00	 1.023348147692307e+01
0	 3.374999999999999e+00	 4.562499999999999e+00	 1.022448381846154e+01
0	 3.374999999999999e+00	 4.624999999999999e+00	 1.021540417230770e+01
0	 3.374999999999999e+00	 4.687500000000000e+00	 1.020624253846154e+01
0	 3.374999999999999e+00	 4.749999999999998e+00	 1.019699891692308e+01
0	 3.374999999999999e+00	 4.812499999999999e+00	 1.018767330769230e+01
0	 3.374999999999999e+00	 4.874999999999998e+00	 1.017826571076922e+01
0	 3.375000000000000e+00	 4.937499999999997e+00	 1.016877612615384e+01
0	 3.374999999999999e+00	 5.000000000000000e+00	 1.015920455384617e+01
0	 3.437499999999999e+00	 4.375000000000000e+00	 1.025947538461538e+01
0	 3.437499999999999e+00	 4.437499999999999e+00	 1.025066492307692e+01
0	 3.437499999999999e+00	 4.499999999999999e+00	 1.024177484615386e+01
0	 3.437499999999999e+00	 4.562499999999999e+00	 1.023280515384615e+01
0	 3.437499999999998e+00	 4.624999999999998e+00	 1.022375584615385e+01
0	 3.437499999999999e+00	 4.687499999999999e+00	 1.021462692307692e+01
0	 3.437500000000000e+00	 4.750000000000000e+00	 1.020541838461538e+01
0	 3.437499999999999e+00	 4.812499999999998e+00	 1.019613023076923e+01
0	 3.437499999999999e+00	 4.874999999999998e+00	 1.018676246153846e+01
0	 3.437500000000000e+00	 4.937499999999999e+00	 1.017731507692307e+01
0	 3.437499999999999e+00	 5.000000000000000e+00	 1.016778807692308e+01
0	 3.499999999999999e+00	 4.375000000000000e+00	 1.026677267692307e+01
0	 3.499999999999999e+00	 4.437499999999999e+00	 1.025799321230770e+01
0	 3.499999999999997e+00	 4.499999999999998e+00	 1.024913650461539e+01
0	 3.499999999999999e+00	 4.562499999999999e+00	 1.024020255384615e+01
0	 3.499999999999999e+00	 4.625000000000001e+00	 1.023119136000000e+01
0	 3.500000000000000e+00	 4.687499999999999e+00	 1.022210292307692e+01
0	 3.499999999999999e+00	 4.749999999999998e+00	 1.021293724307691e+01
0	 3.499999999999999e+00	 4.812499999999999e+00	 1.020369432000001e+01
0	 3.499999999999999e+00	 4.874999999999998e+00	 1.019437415384615e+01
0	 3.499999999999998e+00	 4.937499999999999e+00	 1.018497674461537e+01
0	 3.499999999999999e+00	 5.000000000000001e+00	 1.017550209230770e+01
0	 3.562499999999998e+00	 4.375000000000000e+00	 1.027312270769229e+01
0	 3.562499999999999e+00	 4.437499999999999e+00	 1.026438201538462e+01
0	 3.562499999999999e+00	 4.500000000000000e+00	 1.025556645230769e+01
0	 3.562499999999998e+00	 4.562499999999999e+00	 1.024667601846154e+01
0	 3.562499999999999e+00	 4.625000000000000e+00	 1.023771071384615e+01
0	 3.562499999999999e+00	 4.687500000000000e+00	 1.022867053846154e+01
0	 3.562499999999999e+00	 4.749999999999999e+00	 1.021955549230769e+01
0	 3.562499999999999e+00	 4.812499999999999e+00	 1.021036557538461e+01
0	 3.562499999999998e+00	 4.874999999999998e+00	 1.020110078769229e+01
0	 3.562499999999999e+00	 4.937499999999999e+00	 1.019176112923077e+01
0	 3.562499999999998e+00	 4.999999999999999e+00	 1.018234659999999e+01
0	 3.624999999999999e+00	 4.375000000000000e+00	 1.027852547692308e+01
0	 3.624999999999999e+00	 4.437500000000001e+00	 1.026983133230769e+01
0	 3.624999999999998e+00	 4.499999999999999e+00	 1.026106468923077e+01
0	 3.624999999999999e+00	 4.562500000000000e+00	 1.025222554769230e+01
0	 3.624999999999998e+00	 4.624999999999999e+00	 1.024331390769230e+01
0	 3.624999999999998e+00	 4.687499999999998e+00	 1.023432976923076e+01
0	 3.624999999999998e+00	 4.749999999999999e+00	 1.022527313230769e+01
0	 3.624999999999998e+00	 4.812499999999998e+00	 1.021614399692308e+01
0	 3.624999999999998e+00	 4.874999999999999e+00	 1.020694236307691e+01
0	 3.624999999999998e+00	 4.937499999999998e+00	 1.019766823076922e+01
0	 3.624999999999999e+00	 5.000000000000000e+00	 1.018832159999999e+01
0	 3.687499999999998e+00	 4.375000000000000e+00	 1.028298098461538e+01
0	 3.687499999999998e+00	 4.437500000000000e+00	 1.027434116307692e+01
0	 3.687499999999998e+00	 4.500000000000000e+00	 1.026563121538461e+01
0	 3.687499999999998e+00	 4.562500000000000e+00	 1.025685114153847e+01
0	 3.687499999999998e+00	 4.624999999999999e+00	 1.024800094153846e+01
0	 3.687499999999998e+00	 4.687499999999999e+00	 1.023908061538461e+01
0	 3.687499999999998e+00	 4.749999999999999e+00	 1.023009016307692e+01
0	 3.687499999999998e+00	 4.812499999999998e+00	 1.022102958461538e+01
0	 3.687499999999998e+00	 4.874999999999999e+00	 1.021189888000001e+01
0	 3.687499999999997e+00	 4.937499999999998e+00	 1.020269804923077e+01
0	 3.687499999999998e+00	 5.000000000000000e+00	 1.019342709230770e+01
0	 3.750000000000000e+00	 4.375000000000000e+00	 1.028648923076923e+01
0	 3.750000000000000e+00	 4.437499999999999e+00	 1.027791150769228e+01
0	 3.750000000000001e+00	 4.500000000000001e+00	 1.026926603076923e+01
0	 3.750000000000000e+00	 4.562499999999999e+00	 1.026055280000000e+01
0	 3.750000000000000e+00	 4.625000000000000e+00	 1.025177181538461e+01
0	 3.750000000000000e+00	 4.687499999999999e+00	 1.024292307692307e+01
0	 3.750000000000000e+00	 4.749999999999999e+00	 1.023400658461538e+01
0	 3.750000000000000e+00	 4.812499999999998e+00	 1.022502233846154e+01
0	 3.750000000000000e+00	 4.874999999999998e+00	 1.021597033846154e+01
0	 3.750000000000000e+00	 4.937499999999998e+00	 1.020685058461538e+01
0	 3.750000000000000e+00	 5.000000000000000e+00	 1.019766307692307e+01
0	 3.125000000000000e+00	 5.000000000000000e+00	 1.011617538461538e+01
0	 3.125000000000000e+00	 5.062500000000000e+00	 1.011142663076923e+01
0	 3.125000000000000e+00	 5.125000000000001e+00	 1.010651883076923e+01
0	 3.125000000000000e+00	 5.187499999999999e+00	 1.010145198461537e+01
0	 3.125000000000000e+00	 5.249999999999999e+00	 1.009622609230769e+01
0	 3.125000000000000e+00	 5.312499999999999e+00	 1.009084115384615e+01
0	 3.125000000000000e+00	 5.374999999999998e+00	 1.008529716923077e+01
0	 3.125000000000000e+00	 5.437499999999998e+00	 1.007959413846154e+01
0	 3.125000000000000e+00	 5.499999999999998e+00	 1.007373206153846e+01
0	 3.125000000000000e+00	 5.562499999999998e+00	 1.006771093846153e+01
0	 3.125000000000000e+00	 5.625000000000000e+00	 1.006153076923077e+01
0	 3.187500000000000e+00	 4.999999999999999e+00	 1.012823693846152e+01
0	 3.187500000000000e+00	 5.062500000000000e+00	 1.012317432615383e+01
0	 3.187500000000000e+00	 5.125000000000000e+00	 1.011796358769230e+01
0	 3.187500000000000e+00	 5.187499999999999e+00	 1.011260472307692e+01
0	 3.187500000000000e+00	 5.249999999999998e+00	 1.010709773230769e+01
0	 3.187500000000000e+00	 5.312500000000000e+00	 1.010144261538461e+01
0	 3.187500000000001e+00	 5.374999999999999e+00	 1.009563937230769e+01
0	 3.187500000000000e+00	 5.437499999999999e+00	 1.008968800307692e+01
0	 3.187500000000001e+00	 5.499999999999999e+00	 1.008358850769231e+01
0	 3.187499999999999e+00	 5.562499999999996e+00	 1.007734088615386e+01
0	 3.187500000000000e+00	 5.625000000000000e+00	 1.007094513846153e+01
0	 3.250000000000000e+00	 5.000000000000000e+00	 1.013942898461539e+01
0	 3.250000000000000e+00	 5.062499999999999e+00	 1.013408501538461e+01
0	 3.250000000000000e+00	 5.125000000000001e+00	 1.012860383999998e+01
0	 3.250000000000000e+00	 5.187499999999998e+00	 1.012298545846153e+01
0	 3.249999999999999e+00	 5.249999999999999e+00	 1.011722987076922e+01
0	 3.250000000000000e+00	 5.312499999999999e+00	 1.011133707692306e+01
0	 3.249999999999999e+00	 5.374999999999999e+00	 1.010530707692308e+01
0	 3.250000000000000e+00	 5.437499999999999e+00	 1.009913987076924e+01
0	 3.250000000000000e+00	 5.499999999999998e+00	 1.009283545846153e+01
0	 3.250000000000000e+00	 5.562499999999999e+00	 1.008639383999999e+01
0	 3.250000000000000e+00	 5.625000000000000e+00	 1.007981501538461e+01
0	 3.312500000000000e+00	 4.999999999999999e+00	 1.014975152307692e+01
0	 3.312499999999999e+00	 5.062500000000001e+00	 1.014415869846153e+01
0	 3.312500000000000e+00	 5.125000000000000e+00	 1.013843958769230e+01
0	 3.312500000000000e+00	 5.187499999999999e+00	 1.013259419076922e+01
0	 3.312499999999999e+00	 5.250000000000000e+00	 1.012662250769230e+01
0	 3.312500000000000e+00	 5.312499999999999e+00	 1.012052453846152e+01
0	 3.312499999999999e+00	 5.374999999999998e+00	 1.011430028307691e+01
0	 3.312499999999999e+00	 5.437499999999999e+00	 1.010794974153846e+01
0	 3.312500000000000e+00	 5.499999999999998e+00	 1.010147291384614e+01
0	 3.312499999999999e+00	 5.562499999999997e+00	 1.009486979999999e+01
0	 3.312500000000000e+00	 5.625000000000000e+00	 1.008814039999999e+01
0	 3.374999999999999e+00	 5.000000000000000e+00	 1.015920455384617e+01
0	 3.374999999999999e+00	 5.062500000000000e+00	 1.015339537538460e+01
0	 3.375000000000000e+00	 5.125000000000000e+00	 1.014747083076922e+01
0	 3.374999999999999e+00	 5.187500000000000e+00	 1.014143092000000e+01
0	 3.374999999999999e+00	 5.249999999999999e+00	 1.013527564307691e+01
0	 3.374999999999999e+00	 5.312499999999999e+00	 1.012900499999999e+01
0	 3.374999999999999e+00	 5.374999999999998e+00	 1.012261899076923e+01
0	 3.374999999999999e+00	 5.437499999999999e+00	 1.011611761538461e+01
0	 3.374999999999999e+00	 5.499999999999999e+00	 1.010950087384616e+01
0	 3.375000000000000e+00	 5.562499999999998e+00	 1.010276876615386e+01
0	 3.374999999999999e+00	 5.625000000000000e+00	 1.009592129230768e+01
0	 3.437499999999999e+00	 5.000000000000000e+00	 1.016778807692308e+01
0	 3.437499999999999e+00	 5.062500000000000e+00	 1.016179504615384e+01
0	 3.437499999999999e+00	 5.124999999999999e+00	 1.015569756923077e+01
0	 3.437499999999999e+00	 5.187500000000000e+00	 1.014949564615384e+01
0	 3.437499999999998e+00	 5.249999999999998e+00	 1.014318927692307e+01
0	 3.437499999999999e+00	 5.312499999999999e+00	 1.013677846153845e+01
0	 3.437500000000000e+00	 5.375000000000000e+00	 1.013026319999999e+01
0	 3.437499999999999e+00	 5.437499999999998e+00	 1.012364349230769e+01
0	 3.437499999999999e+00	 5.499999999999998e+00	 1.011691933846154e+01
0	 3.437500000000000e+00	 5.562499999999999e+00	 1.011009073846153e+01
0	 3.437499999999999e+00	 5.625000000000000e+00	 1.010315769230769e+01
0	 3.499999999999999e+00	 5.000000000000001e+00	 1.017550209230770e+01
0	 3.499999999999999e+00	 5.062499999999999e+00	 1.016935771076922e+01
0	 3.499999999999997e+00	 5.125000000000000e+00	 1.016311980307691e+01
0	 3.499999999999999e+00	 5.187500000000000e+00	 1.015678836923076e+01
0	 3.499999999999999e+00	 5.250000000000001e+00	 1.015036340923075e+01
0	 3.500000000000000e+00	 5.312500000000001e+00	 1.014384492307693e+01
0	 3.499999999999999e+00	 5.374999999999999e+00	 1.013723291076923e+01
0	 3.499999999999999e+00	 5.437499999999999e+00	 1.013052737230770e+01
0	 3.499999999999999e+00	 5.499999999999998e+00	 1.012372830769230e+01
0	 3.499999999999998e+00	 5.562499999999998e+00	 1.011683571692307e+01
0	 3.499999999999999e+00	 5.625000000000000e+00	 1.010984959999999e+01
0	 3.562499999999998e+00	 4.999999999999999e+00	 1.018234659999999e+01
0	 3.562499999999999e+00	 5.062500000000000e+00	 1.017608336923076e+01
0	 3.562499999999999e+00	 5.125000000000000e+00	 1.016973753230768e+01
0	 3.562499999999998e+00	 5.187500000000000e+00	 1.016330908923075e+01
0	 3.562499999999999e+00	 5.250000000000000e+00	 1.015679804000000e+01
0	 3.562499999999999e+00	 5.312500000000000e+00	 1.015020438461539e+01
0	 3.562499999999999e+00	 5.374999999999999e+00	 1.014352812307692e+01
0	 3.562499999999999e+00	 5.437499999999998e+00	 1.013676925538460e+01
0	 3.562499999999998e+00	 5.499999999999998e+00	 1.012992778153845e+01
0	 3.562499999999999e+00	 5.562499999999999e+00	 1.012300370153845e+01
0	 3.562499999999998e+00	 5.625000000000000e+00	 1.011599701538462e+01
0	 3.624999999999999e+00	 5.000000000000000e+00	 1.018832159999999e+01
0	 3.624999999999999e+00	 5.062500000000002e+00	 1.018197202153847e+01
0	 3.624999999999998e+00	 5.124999999999999e+00	 1.017555075692308e+01
0	 3.624999999999999e+00	 5.187500000000000e+00	 1.016905780615385e+01
0	 3.624999999999998e+00	 5.249999999999998e+00	 1.016249316923076e+01
0	 3.624999999999998e+00	 5.312499999999999e+00	 1.015585684615385e+01
0	 3.624999999999998e+00	 5.374999999999998e+00	 1.014914883692307e+01
0	 3.624999999999998e+00	 5.437499999999998e+00	 1.014236914153845e+01
0	 3.624999999999998e+00	 5.499999999999999e+00	 1.013551776000001e+01
0	 3.624999999999998e+00	 5.562499999999998e+00	 1.012859469230769e+01
0	 3.624999999999999e+00	 5.625000000000000e+00	 1.012159993846156e+01
0	 3.687499999999998e+00	 5.000000000000000e+00	 1.019342709230770e+01
0	 3.687499999999998e+00	 5.062500000000000e+00	 1.018702366769230e+01
0	 3.687499999999998e+00	 5.125000000000001e+00	 1.018055947692307e+01
0	 3.687499999999998e+00	 5.187499999999999e+00	 1.017403452000000e+01
0	 3.687499999999998e+00	 5.249999999999999e+00	 1.016744879692308e+01
0	 3.687499999999998e+00	 5.312499999999998e+00	 1.016080230769231e+01
0	 3.687499999999998e+00	 5.374999999999997e+00	 1.015409505230769e+01
0	 3.687499999999998e+00	 5.437499999999998e+00	 1.014732703076923e+01
0	 3.687499999999998e+00	 5.499999999999999e+00	 1.014049824307693e+01
0	 3.687499999999997e+00	 5.562499999999998e+00	 1.013360868923077e+01
0	 3.687499999999998e+00	 5.625000000000000e+00	 1.012665836923076e+01
0	 3.750000000000000e+00	 5.000000000000000e+00	 1.019766307692307e+01
0	 3.750000000000000e+00	 5.062500000000000e+00	 1.019123830769231e+01
0	 3.750000000000001e+00	 5.125000000000001e+00	 1.018476369230769e+01
0	 3.750000000000000e+00	 5.187499999999999e+00	 1.017823923076921e+01
0	 3.750000000000000e+00	 5.249999999999999e+00	 1.017166492307692e+01
0	 3.750000000000000e+00	 5.312499999999999e+00	 1.016504076923077e+01
0	 3.750000000000000e+00	 5.374999999999998e+00	 1.015836676923077e+01
0	 3.750000000000000e+00	 5.437499999999998e+00	 1.015164292307692e+01
0	 3.750000000000000e+00	 5.499999999999998e+00	 1.014486923076924e+01
0	 3.750000000000000e+00	 5.562499999999998e+00	 1.013804569230769e+01
0	 3.750000000000000e+00	 5.625000000000000e+00	 1.013117230769231e+01
0	 3.125000000000000e+00	 5.625000000000000e+00	 1.006153076923077e+01
0	 3.125000000000000e+00	 5.687500000000000e+00	 1.005871012307692e+01
0	 3.125000000000000e+00	 5.750000000000000e+00	 1.005580418461538e+01
0	 3.125000000000000e+00	 5.812499999999999e+00	 1.005281295384617e+01
0	 3.125000000000000e+00	 5.874999999999999e+00	 1.004973643076923e+01
0	 3.125000000000000e+00	 5.937499999999999e+00	 1.004657461538462e+01
0	 3.125000000000000e+00	 5.999999999999998e+00	 1.004332750769232e+01
0	 3.125000000000000e+00	 6.062499999999998e+00	 1.003999510769231e+01
0	 3.125000000000000e+00	 6.124999999999998e+00	 1.003657741538461e+01
0	 3.125000000000000e+00	 6.187499999999998e+00	 1.003307443076924e+01
0	 3.125000000000000e+00	 6.250000000000000e+00	 1.002948615384615e+01
0	 3.187500000000000e+00	 5.625000000000000e+00	 1.007094513846153e+01
0	 3.187500000000000e+00	 5.687499999999999e+00	 1.006790801538462e+01
0	 3.187500000000000e+00	 5.749999999999999e+00	 1.006478656000001e+01
0	 3.187500000000000e+00	 5.812499999999998e+00	 1.006158077230769e+01
0	 3.187500000000000e+00	 5.875000000000000e+00	 1.005829065230770e+01
0	 3.187500000000000e+00	 5.937500000000001e+00	 1.005491620000000e+01
0	 3.187500000000001e+00	 5.999999999999999e+00	 1.005145741538461e+01
0	 3.187500000000000e+00	 6.062500000000000e+00	 1.004791429846153e+01
0	 3.187500000000001e+00	 6.125000000000000e+00	 1.004428684923075e+01
0	 3.187499999999999e+00	 6.187499999999996e+00	 1.004057506769229e+01
0	 3.187500000000000e+00	 6.250000000000000e+00	 1.003677895384616e+01
0	 3.250000000000000e+00	 5.625000000000000e+00	 1.007981501538461e+01
0	 3.250000000000000e+00	 5.687499999999999e+00	 1.007657808615385e+01
0	 3.250000000000000e+00	 5.750000000000002e+00	 1.007325778461538e+01
0	 3.250000000000000e+00	 5.812499999999999e+00	 1.006985411076923e+01
0	 3.249999999999999e+00	 5.874999999999998e+00	 1.006636706461538e+01
0	 3.250000000000000e+00	 5.937499999999999e+00	 1.006279664615384e+01
0	 3.249999999999999e+00	 5.999999999999998e+00	 1.005914285538461e+01
0	 3.250000000000000e+00	 6.062499999999999e+00	 1.005540569230767e+01
0	 3.250000000000000e+00	 6.124999999999998e+00	 1.005158515692306e+01
0	 3.250000000000000e+00	 6.187499999999998e+00	 1.004768124923076e+01
0	 3.250000000000000e+00	 6.250000000000000e+00	 1.004369396923078e+01
0	 3.312500000000000e+00	 5.625000000000000e+00	 1.008814039999999e+01
0	 3.312499999999999e+00	 5.687500000000000e+00	 1.008472033538461e+01
0	 3.312500000000000e+00	 5.749999999999999e+00	 1.008121785846152e+01
0	 3.312500000000000e+00	 5.812499999999999e+00	 1.007763296923077e+01
0	 3.312499999999999e+00	 5.875000000000000e+00	 1.007396566769230e+01
0	 3.312500000000000e+00	 5.937500000000000e+00	 1.007021595384616e+01
0	 3.312499999999999e+00	 5.999999999999998e+00	 1.006638382769232e+01
0	 3.312499999999999e+00	 6.062499999999998e+00	 1.006246928923078e+01
0	 3.312500000000000e+00	 6.124999999999997e+00	 1.005847233846153e+01
0	 3.312499999999999e+00	 6.187499999999997e+00	 1.005439297538464e+01
0	 3.312500000000000e+00	 6.250000000000000e+00	 1.005023119999998e+01
0	 3.374999999999999e+00	 5.625000000000000e+00	 1.009592129230768e+01
0	 3.374999999999999e+00	 5.687500000000000e+00	 1.009233476307692e+01
0	 3.375000000000000e+00	 5.750000000000000e+00	 1.008866678153847e+01
0	 3.374999999999999e+00	 5.812500000000000e+00	 1.008491734769231e+01
0	 3.374999999999999e+00	 5.874999999999999e+00	 1.008108646153846e+01
0	 3.374999999999999e+00	 5.937499999999999e+00	 1.007717412307693e+01
0	 3.374999999999999e+00	 5.999999999999997e+00	 1.007318033230769e+01
0	 3.374999999999999e+00	 6.062499999999998e+00	 1.006910508923077e+01
0	 3.374999999999999e+00	 6.124999999999999e+00	 1.006494839384616e+01
0	 3.375000000000000e+00	 6.187499999999998e+00	 1.006071024615385e+01
0	 3.374999999999999e+00	 6.250000000000000e+00	 1.005639064615384e+01
0	 3.437499999999999e+00	 5.625000000000000e+00	 1.010315769230769e+01
0	 3.437499999999999e+00	 5.687500000000000e+00	 1.009942136923076e+01
0	 3.437499999999999e+00	 5.750000000000000e+00	 1.009560455384616e+01
0	 3.437499999999999e+00	 5.812500000000000e+00	 1.009170724615385e+01
0	 3.437499999999998e+00	 5.874999999999998e+00	 1.008772944615385e+01
0	 3.437499999999999e+00	 5.937499999999998e+00	 1.008367115384616e+01
0	 3.437500000000000e+00	 6.000000000000000e+00	 1.007953236923076e+01
0	 3.437499999999999e+00	 6.062499999999998e+00	 1.007531309230769e+01
0	 3.437499999999999e+00	 6.124999999999998e+00	 1.007101332307693e+01
0	 3.437500000000000e+00	 6.187499999999999e+00	 1.006663306153845e+01
0	 3.437499999999999e+00	 6.250000000000000e+00	 1.006217230769231e+01
0	 3.499999999999999e+00	 5.625000000000000e+00	 1.010984959999999e+01
0	 3.499999999999999e+00	 5.687499999999999e+00	 1.010598015384617e+01
0	 3.499999999999997e+00	 5.750000000000000e+00	 1.010203117538460e+01
0	 3.499999999999999e+00	 5.812499999999999e+00	 1.009800266461537e+01
0	 3.499999999999999e+00	 5.875000000000001e+00	 1.009389462153847e+01
0	 3.500000000000000e+00	 5.937499999999999e+00	 1.008970704615385e+01
0	 3.499999999999999e+00	 5.999999999999998e+00	 1.008543993846154e+01
0	 3.499999999999999e+00	 6.062499999999999e+00	 1.008109329846154e+01
0	 3.499999999999999e+00	 6.124999999999998e+00	 1.007666712615384e+01
0	 3.499999999999998e+00	 6.187499999999998e+00	 1.007216142153845e+01
0	 3.499999999999999e+00	 6.250000000000000e+00	 1.006757618461537e+01
0	 3.562499999999998e+00	 5.625000000000000e+00	 1.011599701538462e+01
0	 3.562499999999999e+00	 5.687500000000000e+00	 1.011201111692308e+01
0	 3.562499999999999e+00	 5.750000000000000e+00	 1.010794664615384e+01
0	 3.562499999999998e+00	 5.812499999999999e+00	 1.010380360307692e+01
0	 3.562499999999999e+00	 5.874999999999999e+00	 1.009958198769230e+01
0	 3.562499999999999e+00	 5.937500000000001e+00	 1.009528180000001e+01
0	 3.562499999999999e+00	 5.999999999999999e+00	 1.009090304000000e+01
0	 3.562499999999999e+00	 6.062499999999999e+00	 1.008644570769231e+01
0	 3.562499999999998e+00	 6.124999999999999e+00	 1.008190980307692e+01
0	 3.562499999999999e+00	 6.187499999999999e+00	 1.007729532615386e+01
0	 3.562499999999998e+00	 6.250000000000000e+00	 1.007260227692307e+01
0	 3.624999999999999e+00	 5.625000000000000e+00	 1.012159993846156e+01
0	 3.624999999999999e+00	 5.687500000000000e+00	 1.011751425846154e+01
0	 3.624999999999998e+00	 5.750000000000000e+00	 1.011335096615385e+01
0	 3.624999999999999e+00	 5.812499999999999e+00	 1.010911006153846e+01
0	 3.624999999999998e+00	 5.875000000000000e+00	 1.010479154461538e+01
0	 3.624999999999998e+00	 5.937500000000000e+00	 1.010039541538460e+01
0	 3.624999999999998e+00	 5.999999999999998e+00	 1.009592167384616e+01
0	 3.624999999999998e+00	 6.062499999999998e+00	 1.009137032000000e+01
0	 3.624999999999998e+00	 6.124999999999999e+00	 1.008674135384614e+01
0	 3.624999999999998e+00	 6.187499999999998e+00	 1.008203477538460e+01
0	 3.624999999999999e+00	 6.250000000000000e+00	 1.007725058461538e+01
0	 3.687499999999998e+00	 5.625000000000000e+00	 1.012665836923076e+01
0	 3.687499999999998e+00	 5.687500000000000e+00	 1.012248957846153e+01
0	 3.687499999999998e+00	 5.750000000000000e+00	 1.011824413538461e+01
0	 3.687499999999998e+00	 5.812499999999999e+00	 1.011392203999999e+01
0	 3.687499999999998e+00	 5.875000000000000e+00	 1.010952329230768e+01
0	 3.687499999999998e+00	 5.937499999999999e+00	 1.010504789230769e+01
0	 3.687499999999998e+00	 5.999999999999998e+00	 1.010049584000000e+01
0	 3.687499999999998e+00	 6.062499999999998e+00	 1.009586713538462e+01
0	 3.687499999999998e+00	 6.124999999999998e+00	 1.009116177846153e+01
0	 3.687499999999997e+00	 6.187499999999997e+00	 1.008637976923077e+01
0	 3.687499999999998e+00	 6.250000000000000e+00	 1.008152110769231e+01
0	 3.750000000000000e+00	 5.625000000000000e+00	 1.013117230769231e+01
0	 3.750000000000000e+00	 5.687500000000000e+00	 1.012693707692307e+01
0	 3.750000000000001e+00	 5.750000000000000e+00	 1.012262615384615e+01
0	 3.750000000000000e+00	 5.812499999999999e+00	 1.011823953846154e+01
0	 3.750000000000000e+00	 5.874999999999999e+00	 1.011377723076923e+01
0	 3.750000000000000e+00	 5.937499999999999e+00	 1.010923923076923e+01
0	 3.750000000000000e+00	 5.999999999999998e+00	 1.010462553846154e+01
0	 3.750000000000000e+00	 6.062499999999998e+00	 1.009993615384616e+01
0	 3.750000000000000e+00	 6.124999999999998e+00	 1.009517107692308e+01
0	 3.750000000000000e+00	 6.187499999999998e+00	 1.009033030769231e+01
0	 3.750000000000000e+00	 6.250000000000000e+00	 1.008541384615384e+01
0	 3.125000000000000e+00	 6.250000000000000e+00	 1.002948615384615e+01
0	 3.125000000000000e+00	 6.312500000000000e+00	 1.002807584615384e+01
0	 3.125000000000000e+00	 6.375000000000000e+00	 1.002660092307693e+01
0	 3.125000000000000e+00	 6.437499999999999e+00	 1.002506138461538e+01
0	 3.125000000000000e+00	 6.499999999999999e+00	 1.002345723076924e+01
0	 3.125000000000000e+00	 6.562499999999998e+00	 1.002178846153847e+01
0	 3.125000000000000e+00	 6.624999999999998e+00	 1.002005507692307e+01
0	 3.125000000000000e+00	 6.687499999999998e+00	 1.001825707692307e+01
0	 3.125000000000000e+00	 6.749999999999998e+00	 1.001639446153847e+01
0	 3.125000000000000e+00	 6.812499999999998e+00	 1.001446723076924e+01
0	 3.125000000000000e+00	 6.875000000000000e+00	 1.001247538461539e+01
0	 3.187500000000000e+00	 6.250000000000000e+00	 1.003677895384616e+01
0	 3.187500000000000e+00	 6.312500000000000e+00	 1.003515662769229e+01
0	 3.187500000000000e+00	 6.374999999999999e+00	 1.003347089538460e+01
0	 3.187500000000000e+00	 6.437500000000000e+00	 1.003172175692308e+01
0	 3.187500000000000e+00	 6.499999999999997e+00	 1.002990921230768e+01
0	 3.187500000000000e+00	 6.562500000000000e+00	 1.002803326153846e+01
0	 3.187500000000001e+00	 6.624999999999999e+00	 1.002609390461539e+01
0	 3.187500000000000e+00	 6.687499999999999e+00	 1.002409114153847e+01
0	 3.187500000000001e+00	 6.749999999999999e+00	 1.002202497230770e+01
0	 3.187499999999999e+00	 6.812499999999996e+00	 1.001989539692307e+01
0	 3.187500000000000e+00	 6.875000000000001e+00	 1.001770241538462e+01
0	 3.250000000000000e+00	 6.250000000000000e+00	 1.004369396923078e+01
0	 3.250000000000000e+00	 6.312499999999999e+00	 1.004187351692307e+01
0	 3.250000000000000e+00	 6.375000000000000e+00	 1.003999086769231e+01
0	 3.250000000000000e+00	 6.437499999999998e+00	 1.003804602153845e+01
0	 3.249999999999999e+00	 6.499999999999996e+00	 1.003603897846154e+01
0	 3.250000000000000e+00	 6.562499999999998e+00	 1.003396973846154e+01
0	 3.249999999999999e+00	 6.624999999999996e+00	 1.003183830153846e+01
0	 3.250000000000000e+00	 6.687499999999999e+00	 1.002964466769232e+01
0	 3.250000000000000e+00	 6.749999999999997e+00	 1.002738883692309e+01
0	 3.250000000000000e+00	 6.812500000000000e+00	 1.002507080923078e+01
0	 3.250000000000000e+00	 6.875000000000000e+00	 1.002269058461540e+01
0	 3.312500000000000e+00	 6.250000000000000e+00	 1.005023119999998e+01
0	 3.312499999999999e+00	 6.312499999999999e+00	 1.004822651384615e+01
0	 3.312500000000000e+00	 6.375000000000000e+00	 1.004616084000000e+01
0	 3.312500000000000e+00	 6.437500000000000e+00	 1.004403417846152e+01
0	 3.312499999999999e+00	 6.499999999999998e+00	 1.004184652923078e+01
0	 3.312500000000000e+00	 6.562499999999999e+00	 1.003959789230769e+01
0	 3.312499999999999e+00	 6.624999999999999e+00	 1.003728826769231e+01
0	 3.312499999999999e+00	 6.687499999999998e+00	 1.003491765538462e+01
0	 3.312500000000000e+00	 6.749999999999998e+00	 1.003248605538462e+01
0	 3.312499999999999e+00	 6.812499999999997e+00	 1.002999346769232e+01
0	 3.312500000000000e+00	 6.874999999999999e+00	 1.002743989230770e+01
0	 3.374999999999999e+00	 6.250000000000000e+00	 1.005639064615384e+01
0	 3.374999999999999e+00	 6.312499999999999e+00	 1.005421561846153e+01
0	 3.375000000000000e+00	 6.375000000000000e+00	 1.005198081230769e+01
0	 3.374999999999999e+00	 6.437499999999999e+00	 1.004968622769231e+01
0	 3.374999999999999e+00	 6.499999999999997e+00	 1.004733186461539e+01
0	 3.374999999999999e+00	 6.562499999999999e+00	 1.004491772307691e+01
0	 3.374999999999999e+00	 6.624999999999998e+00	 1.004244380307692e+01
0	 3.374999999999999e+00	 6.687499999999998e+00	 1.003991010461539e+01
0	 3.374999999999999e+00	 6.749999999999998e+00	 1.003731662769230e+01
0	 3.375000000000000e+00	 6.812499999999998e+00	 1.003466337230771e+01
0	 3.374999999999999e+00	 6.875000000000001e+00	 1.003195033846153e+01
0	 3.437499999999999e+00	 6.250000000000000e+00	 1.006217230769231e+01
0	 3.437499999999999e+00	 6.312500000000000e+00	 1.005984083076923e+01
0	 3.437499999999999e+00	 6.375000000000000e+00	 1.005745078461537e+01
0	 3.437499999999999e+00	 6.437499999999999e+00	 1.005500216923078e+01
0	 3.437499999999998e+00	 6.499999999999997e+00	 1.005249498461538e+01
0	 3.437499999999999e+00	 6.562499999999999e+00	 1.004992923076924e+01
0	 3.437500000000000e+00	 6.625000000000000e+00	 1.004730490769232e+01
0	 3.437499999999999e+00	 6.687499999999999e+00	 1.004462201538463e+01
0	 3.437499999999999e+00	 6.749999999999999e+00	 1.004188055384616e+01
0	 3.437500000000000e+00	 6.812499999999998e+00	 1.003908052307694e+01
0	 3.437499999999999e+00	 6.875000000000000e+00	 1.003622192307693e+01
0	 3.499999999999999e+00	 6.250000000000000e+00	 1.006757618461537e+01
0	 3.499999999999999e+00	 6.312499999999999e+00	 1.006510215076923e+01
0	 3.499999999999997e+00	 6.374999999999997e+00	 1.006257075692305e+01
0	 3.499999999999999e+00	 6.437499999999999e+00	 1.005998200307693e+01
0	 3.499999999999999e+00	 6.500000000000000e+00	 1.005733588923078e+01
0	 3.500000000000000e+00	 6.562500000000001e+00	 1.005463241538462e+01
0	 3.499999999999999e+00	 6.624999999999998e+00	 1.005187158153847e+01
0	 3.499999999999999e+00	 6.687499999999999e+00	 1.004905338769231e+01
0	 3.499999999999999e+00	 6.749999999999999e+00	 1.004617783384614e+01
0	 3.499999999999998e+00	 6.812499999999998e+00	 1.004324492000000e+01
0	 3.499999999999999e+00	 6.875000000000000e+00	 1.004025464615384e+01
0	 3.562499999999998e+00	 6.250000000000000e+00	 1.007260227692307e+01
0	 3.562499999999999e+00	 6.312499999999999e+00	 1.006999957846153e+01
0	 3.562499999999999e+00	 6.375000000000001e+00	 1.006734072923078e+01
0	 3.562499999999998e+00	 6.437499999999999e+00	 1.006462572923076e+01
0	 3.562499999999999e+00	 6.500000000000000e+00	 1.006185457846155e+01
0	 3.562499999999999e+00	 6.562499999999999e+00	 1.005902727692308e+01
0	 3.562499999999999e+00	 6.624999999999999e+00	 1.005614382461540e+01
0	 3.562499999999999e+00	 6.687499999999999e+00	 1.005320422153847e+01
0	 3.562499999999998e+00	 6.749999999999998e+00	 1.005020846769231e+01
0	 3.562499999999999e+00	 6.812499999999999e+00	 1.004715656307694e+01
0	 3.562499999999998e+00	 6.875000000000000e+00	 1.004404850769231e+01
0	 3.624999999999999e+00	 6.250000000000000e+00	 1.007725058461538e+01
0	 3.624999999999999e+00	 6.312500000000001e+00	 1.007453311384614e+01
0	 3.624999999999998e+00	 6.374999999999999e+00	 1.007176070153847e+01
0	 3.624999999999999e+00	 6.437500000000000e+00	 1.006893334769231e+01
0	 3.624999999999998e+00	 6.499999999999999e+00	 1.006605105230769e+01
0	 3.624999999999998e+00	 6.562499999999999e+00	 1.006311381538461e+01
0	 3.624999999999998e+00	 6.624999999999998e+00	 1.006012163692308e+01
0	 3.624999999999998e+00	 6.687499999999998e+00	 1.005707451692309e+01
0	 3.624999999999998e+00	 6.749999999999998e+00	 1.005397245538462e+01
0	 3.624999999999998e+00	 6.812499999999998e+00	 1.005081545230770e+01
0	 3.624999999999999e+00	 6.875000000000000e+00	 1.004760350769232e+01
0	 3.687499999999998e+00	 6.250000000000000e+00	 1.008152110769231e+01
0	 3.687499999999998e+00	 6.312500000000000e+00	 1.007870275692308e+01
0	 3.687499999999998e+00	 6.375000000000000e+00	 1.007583067384615e+01
0	 3.687499999999998e+00	 6.437499999999999e+00	 1.007290485846152e+01
0	 3.687499999999998e+00	 6.499999999999998e+00	 1.006992531076923e+01
0	 3.687499999999998e+00	 6.562499999999998e+00	 1.006689203076923e+01
0	 3.687499999999998e+00	 6.624999999999998e+00	 1.006380501846153e+01
0	 3.687499999999998e+00	 6.687499999999998e+00	 1.006066427384616e+01
0	 3.687499999999998e+00	 6.749999999999999e+00	 1.005746979692306e+01
0	 3.687499999999997e+00	 6.812499999999997e+00	 1.005422158769232e+01
0	 3.687499999999998e+00	 6.875000000000000e+00	 1.005091964615386e+01
0	 3.750000000000000e+00	 6.250000000000000e+00	 1.008541384615384e+01
0	 3.750000000000000e+00	 6.312500000000000e+00	 1.008250850769231e+01
0	 3.750000000000001e+00	 6.375000000000000e+00	 1.007955064615384e+01
0	 3.750000000000000e+00	 6.437499999999999e+00	 1.007654026153844e+01
0	 3.750000000000000e+00	 6.499999999999999e+00	 1.007347735384615e+01
0	 3.750000000000000e+00	 6.562499999999998e+00	 1.007036192307693e+01
0	 3.750000000000000e+00	 6.624999999999998e+00	 1.006719396923077e+01
0	 3.750000000000000e+00	 6.687499999999998e+00	 1.006397349230769e+01
0	 3.750000000000000e+00	 6.749999999999998e+00	 1.006070049230770e+01
0	 3.750000000000000e+00	 6.812499999999998e+00	 1.005737496923077e+01
0	 3.750000000000000e+00	 6.875000000000000e+00	 1.005399692307692e+01
0	 3.125000000000000e+00	 6.875000000000000e+00	 1.001247538461539e+01
0	 3.125000000000000e+00	 6.937500000000000e+00	 1.001183644615385e+01
0	 3.125000000000000e+00	 7.000000000000000e+00	 1.001116363076923e+01
0	 3.125000000000000e+00	 7.062500000000000e+00	 1.001045693846155e+01
0	 3.125000000000000e+00	 7.125000000000000e+00	 1.000971636923077e+01
0	 3.125000000000000e+00	 7.187499999999998e+00	 1.000894192307692e+01
0	 3.125000000000000e+00	 7.249999999999998e+00	 1.000813360000001e+01
0	 3.125000000000000e+00	 7.312499999999998e+00	 1.000729139999999e+01
0	 3.125000000000000e+00	 7.374999999999998e+00	 1.000641532307692e+01
0	 3.125000000000000e+00	 7.437499999999998e+00	 1.000550536923077e+01
0	 3.125000000000000e+00	 7.500000000000000e+00	 1.000456153846153e+01
0	 3.187500000000000e+00	 6.875000000000001e+00	 1.001770241538462e+01
0	 3.187500000000000e+00	 6.937499999999999e+00	 1.001689297538461e+01
0	 3.187500000000000e+00	 6.999999999999999e+00	 1.001604876307693e+01
0	 3.187500000000000e+00	 7.062500000000000e+00	 1.001516977846154e+01
0	 3.187500000000000e+00	 7.124999999999998e+00	 1.001425602153846e+01
0	 3.187500000000000e+00	 7.187499999999999e+00	 1.001330749230769e+01
0	 3.187500000000001e+00	 7.250000000000000e+00	 1.001232419076923e+01
0	 3.187500000000000e+00	 7.312499999999999e+00	 1.001130611692306e+01
0	 3.187500000000001e+00	 7.374999999999999e+00	 1.001025327076922e+01
0	 3.187499999999999e+00	 7.437499999999996e+00	 1.000916565230769e+01
0	 3.187500000000000e+00	 7.500000000000000e+00	 1.000804326153846e+01
0	 3.250000000000000e+00	 6.875000000000000e+00	 1.002269058461540e+01
0	 3.250000000000000e+00	 6.937499999999999e+00	 1.002172001230770e+01
0	 3.250000000000000e+00	 7.000000000000001e+00	 1.002071377230769e+01
0	 3.250000000000000e+00	 7.062499999999999e+00	 1.001967186461538e+01
0	 3.249999999999999e+00	 7.124999999999998e+00	 1.001859428923075e+01
0	 3.250000000000000e+00	 7.187499999999999e+00	 1.001748104615383e+01
0	 3.249999999999999e+00	 7.249999999999996e+00	 1.001633213538461e+01
0	 3.250000000000000e+00	 7.312499999999998e+00	 1.001514755692308e+01
0	 3.250000000000000e+00	 7.374999999999997e+00	 1.001392731076921e+01
0	 3.250000000000000e+00	 7.437500000000000e+00	 1.001267139692306e+01
0	 3.250000000000000e+00	 7.499999999999999e+00	 1.001137981538458e+01
0	 3.312500000000000e+00	 6.874999999999999e+00	 1.002743989230770e+01
0	 3.312499999999999e+00	 6.937499999999999e+00	 1.002631755692309e+01
0	 3.312500000000000e+00	 7.000000000000000e+00	 1.002515865846155e+01
0	 3.312500000000000e+00	 7.062500000000000e+00	 1.002396319692306e+01
0	 3.312499999999999e+00	 7.124999999999999e+00	 1.002273117230770e+01
0	 3.312500000000000e+00	 7.187499999999999e+00	 1.002146258461539e+01
0	 3.312499999999999e+00	 7.250000000000000e+00	 1.002015743384615e+01
0	 3.312499999999999e+00	 7.312499999999999e+00	 1.001881571999999e+01
0	 3.312500000000000e+00	 7.374999999999997e+00	 1.001743744307692e+01
0	 3.312499999999999e+00	 7.437499999999998e+00	 1.001602260307691e+01
0	 3.312500000000000e+00	 7.500000000000000e+00	 1.001457119999999e+01
0	 3.374999999999999e+00	 6.875000000000001e+00	 1.003195033846153e+01
0	 3.374999999999999e+00	 6.937499999999999e+00	 1.003068560923076e+01
0	 3.375000000000000e+00	 7.000000000000001e+00	 1.002938342153846e+01
0	 3.374999999999999e+00	 7.062500000000000e+00	 1.002804377538462e+01
0	 3.374999999999999e+00	 7.124999999999999e+00	 1.002666667076924e+01
0	 3.374999999999999e+00	 7.187499999999999e+00	 1.002525210769229e+01
0	 3.374999999999999e+00	 7.249999999999997e+00	 1.002380008615383e+01
0	 3.374999999999999e+00	 7.312499999999998e+00	 1.002231060615383e+01
0	 3.374999999999999e+00	 7.374999999999999e+00	 1.002078366769231e+01
0	 3.375000000000000e+00	 7.437499999999998e+00	 1.001921927076921e+01
0	 3.374999999999999e+00	 7.500000000000000e+00	 1.001761741538460e+01
0	 3.437499999999999e+00	 6.875000000000000e+00	 1.003622192307693e+01
0	 3.437499999999999e+00	 6.937500000000000e+00	 1.003482416923076e+01
0	 3.437499999999999e+00	 7.000000000000000e+00	 1.003338806153847e+01
0	 3.437499999999999e+00	 7.062500000000000e+00	 1.003191359999999e+01
0	 3.437499999999998e+00	 7.124999999999997e+00	 1.003040078461540e+01
0	 3.437499999999999e+00	 7.187499999999999e+00	 1.002884961538461e+01
0	 3.437500000000000e+00	 7.249999999999999e+00	 1.002726009230769e+01
0	 3.437499999999999e+00	 7.312499999999998e+00	 1.002563221538460e+01
0	 3.437499999999999e+00	 7.374999999999997e+00	 1.002396598461539e+01
0	 3.437500000000000e+00	 7.437499999999998e+00	 1.002226139999998e+01
0	 3.437499999999999e+00	 7.500000000000000e+00	 1.002051846153845e+01
0	 3.499999999999999e+00	 6.875000000000000e+00	 1.004025464615384e+01
0	 3.499999999999999e+00	 6.937500000000000e+00	 1.003873323692310e+01
0	 3.499999999999997e+00	 6.999999999999998e+00	 1.003717257846153e+01
0	 3.499999999999999e+00	 7.062500000000000e+00	 1.003557267076923e+01
0	 3.499999999999999e+00	 7.125000000000000e+00	 1.003393351384615e+01
0	 3.500000000000000e+00	 7.187500000000000e+00	 1.003225510769231e+01
0	 3.499999999999999e+00	 7.249999999999998e+00	 1.003053745230768e+01
0	 3.499999999999999e+00	 7.312499999999999e+00	 1.002878054769230e+01
0	 3.499999999999999e+00	 7.374999999999999e+00	 1.002698439384613e+01
0	 3.499999999999998e+00	 7.437499999999998e+00	 1.002514899076922e+01
0	 3.499999999999999e+00	 7.499999999999999e+00	 1.002327433846153e+01
0	 3.562499999999998e+00	 6.875000000000000e+00	 1.004404850769231e+01
0	 3.562499999999999e+00	 6.937499999999999e+00	 1.004241281230769e+01
0	 3.562499999999999e+00	 7.000000000000001e+00	 1.004073697230770e+01
0	 3.562499999999998e+00	 7.062499999999999e+00	 1.003902098769230e+01
0	 3.562499999999999e+00	 7.124999999999999e+00	 1.003726485846153e+01
0	 3.562499999999999e+00	 7.187500000000000e+00	 1.003546858461537e+01
0	 3.562499999999999e+00	 7.249999999999999e+00	 1.003363216615385e+01
0	 3.562499999999999e+00	 7.312500000000000e+00	 1.003175560307692e+01
0	 3.562499999999998e+00	 7.374999999999998e+00	 1.002983889538461e+01
0	 3.562499999999999e+00	 7.437499999999999e+00	 1.002788204307690e+01
0	 3.562499999999998e+00	 7.499999999999998e+00	 1.002588504615385e+01
0	 3.624999999999999e+00	 6.875000000000000e+00	 1.004760350769232e+01
0	 3.624999999999999e+00	 6.937500000000001e+00	 1.004586289538462e+01
0	 3.624999999999998e+00	 6.999999999999998e+00	 1.004408124307693e+01
0	 3.624999999999999e+00	 7.062500000000000e+00	 1.004225855076922e+01
0	 3.624999999999998e+00	 7.125000000000000e+00	 1.004039481846154e+01
0	 3.624999999999998e+00	 7.187500000000000e+00	 1.003849004615385e+01
0	 3.624999999999998e+00	 7.250000000000000e+00	 1.003654423384614e+01
0	 3.624999999999998e+00	 7.312499999999999e+00	 1.003455738153845e+01
0	 3.624999999999998e+00	 7.374999999999998e+00	 1.003252948923074e+01
0	 3.624999999999998e+00	 7.437499999999998e+00	 1.003046055692308e+01
0	 3.624999999999999e+00	 7.500000000000000e+00	 1.002835058461538e+01
0	 3.687499999999998e+00	 6.875000000000000e+00	 1.005091964615386e+01
0	 3.687499999999998e+00	 6.937500000000001e+00	 1.004908348615386e+01
0	 3.687499999999998e+00	 7.000000000000001e+00	 1.004720539076923e+01
0	 3.687499999999998e+00	 7.062500000000000e+00	 1.004528536000000e+01
0	 3.687499999999998e+00	 7.124999999999999e+00	 1.004332339384616e+01
0	 3.687499999999998e+00	 7.187499999999998e+00	 1.004131949230768e+01
0	 3.687499999999998e+00	 7.249999999999999e+00	 1.003927365538461e+01
0	 3.687499999999998e+00	 7.312499999999998e+00	 1.003718588307693e+01
0	 3.687499999999998e+00	 7.374999999999998e+00	 1.003505617538461e+01
0	 3.687499999999997e+00	 7.437499999999998e+00	 1.003288453230770e+01
0	 3.687499999999998e+00	 7.500000000000000e+00	 1.003067095384614e+01
0	 3.750000000000000e+00	 6.875000000000000e+00	 1.005399692307692e+01
0	 3.750000000000000e+00	 6.937500000000000e+00	 1.005207458461538e+01
0	 3.750000000000001e+00	 7.000000000000000e+00	 1.005010941538460e+01
0	 3.750000000000000e+00	 7.062500000000000e+00	 1.004810141538462e+01
0	 3.750000000000000e+00	 7.125000000000000e+00	 1.004605058461538e+01
0	 3.750000000000000e+00	 7.187499999999998e+00	 1.004395692307692e+01
0	 3.750000000000000e+00	 7.249999999999998e+00	 1.004182043076925e+01
0	 3.750000000000000e+00	 7.312499999999998e+00	 1.003964110769230e+01
0	 3.750000000000000e+00	 7.374999999999998e+00	 1.003741895384616e+01
0	 3.750000000000000e+00	 7.437499999999998e+00	 1.003515396923077e+01
0	 3.750000000000000e+00	 7.500000000000000e+00	 1.003284615384615e+01
0	 3.125000000000000e+00	 7.500000000000000e+00	 1.000456153846153e+01
0	 3.125000000000000e+00	 7.562500000000000e+00	 1.000431726153845e+01
0	 3.125000000000000e+00	 7.625000000000000e+00	 1.000405858461539e+01
0	 3.125000000000000e+00	 7.687499999999999e+00	 1.000378550769230e+01
0	 3.125000000000000e+00	 7.750000000000000e+00	 1.000349803076923e+01
0	 3.125000000000000e+00	 7.812499999999999e+00	 1.000319615384615e+01
0	 3.125000000000000e+00	 7.874999999999998e+00	 1.000287987692307e+01
0	 3.125000000000000e+00	 7.937499999999997e+00	 1.000254920000000e+01
0	 3.125000000000000e+00	 7.999999999999998e+00	 1.000220412307693e+01
0	 3.125000000000000e+00	 8.062499999999996e+00	 1.000184464615384e+01
0	 3.125000000000000e+00	 8.125000000000000e+00	 1.000147076923077e+01
0	 3.187500000000000e+00	 7.500000000000000e+00	 1.000804326153846e+01
0	 3.187500000000000e+00	 7.562499999999999e+00	 1.000766539230768e+01
0	 3.187500000000000e+00	 7.624999999999998e+00	 1.000727142461540e+01
0	 3.187500000000000e+00	 7.687499999999998e+00	 1.000686135846153e+01
0	 3.187500000000000e+00	 7.750000000000000e+00	 1.000643519384615e+01
0	 3.187500000000000e+00	 7.812500000000000e+00	 1.000599293076923e+01
0	 3.187500000000001e+00	 7.874999999999999e+00	 1.000553456923077e+01
0	 3.187500000000000e+00	 7.937499999999998e+00	 1.000506010923078e+01
0	 3.187500000000001e+00	 8.000000000000000e+00	 1.000456955076922e+01
0	 3.187499999999999e+00	 8.062499999999995e+00	 1.000406289384616e+01
0	 3.187500000000000e+00	 8.125000000000000e+00	 1.000354013846153e+01
0	 3.250000000000000e+00	 7.499999999999999e+00	 1.001137981538458e+01
0	 3.250000000000000e+00	 7.562500000000001e+00	 1.001087462153845e+01
0	 3.250000000000000e+00	 7.625000000000001e+00	 1.001035163076922e+01
0	 3.250000000000000e+00	 7.687500000000001e+00	 1.000981084307690e+01
0	 3.249999999999999e+00	 7.749999999999998e+00	 1.000925225846154e+01
0	 3.250000000000000e+00	 7.812499999999998e+00	 1.000867587692307e+01
0	 3.249999999999999e+00	 7.874999999999996e+00	 1.000808169846154e+01
0	 3.250000000000000e+00	 7.937499999999998e+00	 1.000746972307693e+01
0	 3.250000000000000e+00	 7.999999999999999e+00	 1.000683995076925e+01
0	 3.250000000000000e+00	 8.062499999999998e+00	 1.000619238153845e+01
0	 3.250000000000000e+00	 8.125000000000000e+00	 1.000552701538462e+01
0	 3.312500000000000e+00	 7.500000000000000e+00	 1.001457119999999e+01
0	 3.312499999999999e+00	 7.562500000000001e+00	 1.001394494923075e+01
0	 3.312500000000000e+00	 7.625000000000001e+00	 1.001329920307692e+01
0	 3.312500000000000e+00	 7.687500000000000e+00	 1.001263396153846e+01
0	 3.312499999999999e+00	 7.749999999999999e+00	 1.001194922461536e+01
0	 3.312500000000000e+00	 7.812499999999999e+00	 1.001124499230769e+01
0	 3.312499999999999e+00	 7.874999999999998e+00	 1.001052126461539e+01
0	 3.312499999999999e+00	 7.937499999999998e+00	 1.000977804153847e+01
0	 3.312500000000000e+00	 7.999999999999998e+00	 1.000901532307694e+01
0	 3.312499999999999e+00	 8.062499999999996e+00	 1.000823310923079e+01
0	 3.312500000000000e+00	 8.125000000000000e+00	 1.000743140000000e+01
0	 3.374999999999999e+00	 7.500000000000000e+00	 1.001761741538460e+01
0	 3.374999999999999e+00	 7.562500000000000e+00	 1.001687637538461e+01
0	 3.375000000000000e+00	 7.625000000000000e+00	 1.001611414153846e+01
0	 3.374999999999999e+00	 7.687500000000000e+00	 1.001533071384614e+01
0	 3.374999999999999e+00	 7.749999999999998e+00	 1.001452609230768e+01
0	 3.374999999999999e+00	 7.812500000000000e+00	 1.001370027692307e+01
0	 3.374999999999999e+00	 7.874999999999998e+00	 1.001285326769231e+01
0	 3.374999999999999e+00	 7.937499999999999e+00	 1.001198506461537e+01
0	 3.374999999999999e+00	 7.999999999999997e+00	 1.001109566769232e+01
0	 3.375000000000000e+00	 8.062500000000000e+00	 1.001018507692310e+01
0	 3.374999999999999e+00	 8.125000000000000e+00	 1.000925329230772e+01
0	 3.437499999999999e+00	 7.500000000000000e+00	 1.002051846153845e+01
0	 3.437499999999999e+00	 7.562499999999999e+00	 1.001966889999996e+01
0	 3.437499999999999e+00	 7.624999999999999e+00	 1.001879644615381e+01
0	 3.437499999999999e+00	 7.687500000000000e+00	 1.001790110000000e+01
0	 3.437499999999998e+00	 7.749999999999996e+00	 1.001698286153845e+01
0	 3.437499999999999e+00	 7.812499999999999e+00	 1.001604173076923e+01
0	 3.437500000000000e+00	 7.875000000000000e+00	 1.001507770769232e+01
0	 3.437499999999999e+00	 7.937499999999999e+00	 1.001409079230768e+01
0	 3.437499999999999e+00	 7.999999999999998e+00	 1.001308098461539e+01
0	 3.437500000000000e+00	 8.062500000000000e+00	 1.001204828461541e+01
0	 3.437499999999999e+00	 8.125000000000000e+00	 1.001099269230771e+01
0	 3.499999999999999e+00	 7.499999999999999e+00	 1.002327433846153e+01
0	 3.499999999999999e+00	 7.562500000000000e+00	 1.002232252307688e+01
0	 3.499999999999997e+00	 7.624999999999998e+00	 1.002134611692305e+01
0	 3.499999999999999e+00	 7.687499999999998e+00	 1.002034511999999e+01
0	 3.499999999999999e+00	 7.750000000000001e+00	 1.001931953230767e+01
0	 3.500000000000000e+00	 7.812500000000000e+00	 1.001826935384615e+01
0	 3.499999999999999e+00	 7.874999999999998e+00	 1.001719458461539e+01
0	 3.499999999999999e+00	 7.937499999999999e+00	 1.001609522461537e+01
0	 3.499999999999999e+00	 8.000000000000000e+00	 1.001497127384617e+01
0	 3.499999999999998e+00	 8.062499999999998e+00	 1.001382273230769e+01
0	 3.499999999999999e+00	 8.125000000000000e+00	 1.001264960000000e+01
0	 3.562499999999998e+00	 7.499999999999998e+00	 1.002588504615385e+01
0	 3.562499999999999e+00	 7.562500000000000e+00	 1.002483724461539e+01
0	 3.562499999999999e+00	 7.624999999999999e+00	 1.002376315384616e+01
0	 3.562499999999998e+00	 7.687500000000000e+00	 1.002266277384613e+01
0	 3.562499999999999e+00	 7.749999999999998e+00	 1.002153610461538e+01
0	 3.562499999999999e+00	 7.812500000000000e+00	 1.002038314615386e+01
0	 3.562499999999999e+00	 7.874999999999999e+00	 1.001920389846154e+01
0	 3.562499999999999e+00	 7.937500000000000e+00	 1.001799836153846e+01
0	 3.562499999999998e+00	 7.999999999999998e+00	 1.001676653538463e+01
0	 3.562499999999999e+00	 8.062500000000000e+00	 1.001550842000001e+01
0	 3.562499999999998e+00	 8.125000000000000e+00	 1.001422401538461e+01
0	 3.624999999999999e+00	 7.500000000000000e+00	 1.002835058461538e+01
0	 3.624999999999999e+00	 7.562500000000001e+00	 1.002721306461537e+01
0	 3.624999999999998e+00	 7.625000000000000e+00	 1.002604755692308e+01
0	 3.624999999999999e+00	 7.687500000000001e+00	 1.002485406153846e+01
0	 3.624999999999998e+00	 7.749999999999999e+00	 1.002363257846155e+01
0	 3.624999999999998e+00	 7.812499999999998e+00	 1.002238310769232e+01
0	 3.624999999999998e+00	 7.875000000000000e+00	 1.002110564923076e+01
0	 3.624999999999998e+00	 7.937499999999998e+00	 1.001980020307692e+01
0	 3.624999999999998e+00	 7.999999999999998e+00	 1.001846676923078e+01
0	 3.624999999999998e+00	 8.062500000000000e+00	 1.001710534769231e+01
0	 3.624999999999999e+00	 8.125000000000000e+00	 1.001571593846155e+01
0	 3.687499999999998e+00	 7.500000000000000e+00	 1.003067095384614e+01
0	 3.687499999999998e+00	 7.562500000000001e+00	 1.002944998307691e+01
0	 3.687499999999998e+00	 7.624999999999999e+00	 1.002819932615384e+01
0	 3.687499999999998e+00	 7.687499999999999e+00	 1.002691898307693e+01
0	 3.687499999999998e+00	 7.750000000000000e+00	 1.002560895384615e+01
0	 3.687499999999998e+00	 7.812499999999999e+00	 1.002426923846154e+01
0	 3.687499999999998e+00	 7.874999999999998e+00	 1.002289983692306e+01
0	 3.687499999999998e+00	 7.937499999999998e+00	 1.002150074923076e+01
0	 3.687499999999998e+00	 7.999999999999998e+00	 1.002007197538461e+01
0	 3.687499999999997e+00	 8.062499999999998e+00	 1.001861351538463e+01
0	 3.687499999999998e+00	 8.125000000000000e+00	 1.001712536923078e+01
0	 3.750000000000000e+00	 7.500000000000000e+00	 1.003284615384615e+01
0	 3.750000000000000e+00	 7.562500000000000e+00	 1.003154799999999e+01
0	 3.750000000000001e+00	 7.625000000000000e+00	 1.003021846153848e+01
0	 3.750000000000000e+00	 7.687499999999999e+00	 1.002885753846153e+01
0	 3.750000000000000e+00	 7.750000000000000e+00	 1.002746523076922e+01
0	 3.750000000000000e+00	 7.812499999999999e+00	 1.002604153846155e+01
0	 3.750000000000000e+00	 7.874999999999998e+00	 1.002458646153846e+01
0	 3.750000000000000e+00	 7.937499999999997e+00	 1.002310000000000e+01
0	 3.750000000000000e+00	 7.999999999999998e+00	 1.002158215384615e+01
0	 3.750000000000000e+00	 8.062499999999996e+00	 1.002003292307694e+01
0	 3.750000000000000e+00	 8.125000000000000e+00	 1.001845230769231e+01
0	 3.125000000000000e+00	 8.125000000000000e+00	 1.000147076923077e+01
0	 3.125000000000000e+00	 8.187500000000000e+00	 1.000139789230769e+01
0	 3.125000000000000e+00	 8.250000000000002e+00	 1.000132326153844e+01
0	 3.125000000000000e+00	 8.312500000000000e+00	 1.000124687692307e+01
0	 3.125000000000000e+00	 8.374999999999998e+00	 1.000116873846153e+01
0	 3.125000000000000e+00	 8.437500000000000e+00	 1.000108884615384e+01
0	 3.125000000000000e+00	 8.500000000000000e+00	 1.000100719999999e+01
0	 3.125000000000000e+00	 8.562499999999998e+00	 1.000092380000000e+01
0	 3.125000000000000e+00	 8.625000000000000e+00	 1.000083864615383e+01
0	 3.125000000000000e+00	 8.687499999999998e+00	 1.000075173846152e+01
0	 3.125000000000000e+00	 8.750000000000000e+00	 1.000066307692306e+01
0	 3.187500000000000e+00	 8.125000000000000e+00	 1.000354013846153e+01
0	 3.187500000000000e+00	 8.187500000000002e+00	 1.000336841230769e+01
0	 3.187500000000000e+00	 8.250000000000000e+00	 1.000319229230770e+01
0	 3.187500000000000e+00	 8.312499999999998e+00	 1.000301177846153e+01
0	 3.187500000000000e+00	 8.374999999999998e+00	 1.000282687076923e+01
0	 3.187500000000000e+00	 8.437500000000000e+00	 1.000263756923075e+01
0	 3.187500000000001e+00	 8.500000000000002e+00	 1.000244387384615e+01
0	 3.187500000000000e+00	 8.562500000000000e+00	 1.000224578461538e+01
0	 3.187500000000001e+00	 8.625000000000002e+00	 1.000204330153846e+01
0	 3.187499999999999e+00	 8.687499999999996e+00	 1.000183642461538e+01
0	 3.187500000000000e+00	 8.750000000000002e+00	 1.000162515384613e+01
0	 3.250000000000000e+00	 8.125000000000000e+00	 1.000552701538462e+01
0	 3.250000000000000e+00	 8.187499999999998e+00	 1.000526070461540e+01
0	 3.250000000000000e+00	 8.250000000000000e+00	 1.000498736000002e+01
0	 3.250000000000000e+00	 8.312500000000000e+00	 1.000470698153846e+01
0	 3.249999999999999e+00	 8.374999999999998e+00	 1.000441956923076e+01
0	 3.250000000000000e+00	 8.437499999999998e+00	 1.000412512307691e+01
0	 3.249999999999999e+00	 8.499999999999996e+00	 1.000382364307692e+01
0	 3.250000000000000e+00	 8.562500000000002e+00	 1.000351512923076e+01
0	 3.250000000000000e+00	 8.624999999999998e+00	 1.000319958153845e+01
0	 3.250000000000000e+00	 8.687499999999998e+00	 1.000287699999999e+01
0	 3.250000000000000e+00	 8.750000000000000e+00	 1.000254738461534e+01
0	 3.312500000000000e+00	 8.125000000000000e+00	 1.000743140000000e+01
0	 3.312499999999999e+00	 8.187500000000000e+00	 1.000707476923079e+01
0	 3.312500000000000e+00	 8.250000000000002e+00	 1.000670846461540e+01
0	 3.312500000000000e+00	 8.312499999999998e+00	 1.000633248615386e+01
0	 3.312499999999999e+00	 8.374999999999998e+00	 1.000594683384615e+01
0	 3.312500000000000e+00	 8.437500000000000e+00	 1.000555150769229e+01
0	 3.312499999999999e+00	 8.499999999999998e+00	 1.000514650769229e+01
0	 3.312499999999999e+00	 8.562500000000000e+00	 1.000473183384612e+01
0	 3.312500000000000e+00	 8.625000000000000e+00	 1.000430748615383e+01
0	 3.312499999999999e+00	 8.687499999999996e+00	 1.000387346461537e+01
0	 3.312500000000000e+00	 8.750000000000000e+00	 1.000342976923077e+01
0	 3.374999999999999e+00	 8.125000000000000e+00	 1.000925329230772e+01
0	 3.374999999999999e+00	 8.187499999999998e+00	 1.000881060615384e+01
0	 3.375000000000000e+00	 8.250000000000002e+00	 1.000835560615385e+01
0	 3.374999999999999e+00	 8.312500000000000e+00	 1.000788829230769e+01
0	 3.374999999999999e+00	 8.374999999999998e+00	 1.000740866461538e+01
0	 3.374999999999999e+00	 8.437500000000000e+00	 1.000691672307690e+01
0	 3.374999999999999e+00	 8.499999999999998e+00	 1.000641246769229e+01
0	 3.374999999999999e+00	 8.562499999999998e+00	 1.000589589846154e+01
0	 3.374999999999999e+00	 8.624999999999998e+00	 1.000536701538459e+01
0	 3.375000000000000e+00	 8.687499999999996e+00	 1.000482581846151e+01
0	 3.374999999999999e+00	 8.749999999999998e+00	 1.000427230769227e+01
0	 3.437499999999999e+00	 8.125000000000000e+00	 1.001099269230771e+01
0	 3.437499999999999e+00	 8.187499999999998e+00	 1.001046821538461e+01
0	 3.437499999999999e+00	 8.249999999999998e+00	 1.000992878461540e+01
0	 3.437499999999999e+00	 8.312500000000000e+00	 1.000937440000000e+01
0	 3.437499999999998e+00	 8.374999999999998e+00	 1.000880506153847e+01
0	 3.437499999999999e+00	 8.437499999999998e+00	 1.000822076923077e+01
0	 3.437500000000000e+00	 8.500000000000002e+00	 1.000762152307691e+01
0	 3.437499999999999e+00	 8.562499999999998e+00	 1.000700732307691e+01
0	 3.437499999999999e+00	 8.624999999999998e+00	 1.000637816923078e+01
0	 3.437500000000000e+00	 8.687500000000000e+00	 1.000573406153843e+01
0	 3.437499999999999e+00	 8.750000000000000e+00	 1.000507499999999e+01
0	 3.499999999999999e+00	 8.125000000000000e+00	 1.001264960000000e+01
0	 3.499999999999999e+00	 8.187500000000000e+00	 1.001204759692308e+01
0	 3.499999999999997e+00	 8.249999999999998e+00	 1.001142800000000e+01
0	 3.499999999999999e+00	 8.312500000000000e+00	 1.001079080923077e+01
0	 3.499999999999999e+00	 8.375000000000002e+00	 1.001013602461539e+01
0	 3.500000000000000e+00	 8.437500000000002e+00	 1.000946364615384e+01
0	 3.499999999999999e+00	 8.499999999999998e+00	 1.000877367384613e+01
0	 3.499999999999999e+00	 8.562500000000000e+00	 1.000806610769231e+01
0	 3.499999999999999e+00	 8.624999999999998e+00	 1.000734094769228e+01
0	 3.499999999999998e+00	 8.687499999999998e+00	 1.000659819384612e+01
0	 3.499999999999999e+00	 8.750000000000000e+00	 1.000583784615383e+01
0	 3.562499999999998e+00	 8.125000000000000e+00	 1.001422401538461e+01
0	 3.562499999999999e+00	 8.187500000000000e+00	 1.001354875076923e+01
0	 3.562499999999999e+00	 8.250000000000000e+00	 1.001285325230769e+01
0	 3.562499999999998e+00	 8.312500000000000e+00	 1.001213752000000e+01
0	 3.562499999999999e+00	 8.374999999999998e+00	 1.001140155384617e+01
0	 3.562499999999999e+00	 8.437500000000000e+00	 1.001064535384615e+01
0	 3.562499999999999e+00	 8.500000000000000e+00	 1.000986891999999e+01
0	 3.562499999999999e+00	 8.562499999999998e+00	 1.000907225230767e+01
0	 3.562499999999998e+00	 8.624999999999998e+00	 1.000825535076922e+01
0	 3.562499999999999e+00	 8.687500000000000e+00	 1.000741821538460e+01
0	 3.562499999999998e+00	 8.750000000000000e+00	 1.000656084615382e+01
0	 3.624999999999999e+00	 8.125000000000000e+00	 1.001571593846155e+01
0	 3.624999999999999e+00	 8.187500000000002e+00	 1.001497167692309e+01
0	 3.624999999999998e+00	 8.250000000000000e+00	 1.001420454153848e+01
0	 3.624999999999999e+00	 8.312500000000000e+00	 1.001341453230771e+01
0	 3.624999999999998e+00	 8.375000000000002e+00	 1.001260164923078e+01
0	 3.624999999999998e+00	 8.437500000000000e+00	 1.001176589230769e+01
0	 3.624999999999998e+00	 8.500000000000000e+00	 1.001090726153845e+01
0	 3.624999999999998e+00	 8.562499999999996e+00	 1.001002575692308e+01
0	 3.624999999999998e+00	 8.624999999999998e+00	 1.000912137846152e+01
0	 3.624999999999998e+00	 8.687499999999998e+00	 1.000819412615385e+01
0	 3.624999999999999e+00	 8.750000000000002e+00	 1.000724399999999e+01
0	 3.687499999999998e+00	 8.125000000000000e+00	 1.001712536923078e+01
0	 3.687499999999998e+00	 8.187500000000000e+00	 1.001631637538464e+01
0	 3.687499999999998e+00	 8.250000000000002e+00	 1.001548186769232e+01
0	 3.687499999999998e+00	 8.312499999999998e+00	 1.001462184615384e+01
0	 3.687499999999998e+00	 8.374999999999998e+00	 1.001373631076923e+01
0	 3.687499999999998e+00	 8.437499999999998e+00	 1.001282526153846e+01
0	 3.687499999999998e+00	 8.499999999999998e+00	 1.001188869846154e+01
0	 3.687499999999998e+00	 8.562499999999998e+00	 1.001092662153845e+01
0	 3.687499999999998e+00	 8.624999999999998e+00	 1.000993903076920e+01
0	 3.687499999999997e+00	 8.687499999999998e+00	 1.000892592615383e+01
0	 3.687499999999998e+00	 8.750000000000000e+00	 1.000788730769232e+01
0	 3.750000000000000e+00	 8.125000000000000e+00	 1.001845230769231e+01
0	 3.750000000000000e+00	 8.187500000000000e+00	 1.001758284615385e+01
0	 3.750000000000001e+00	 8.250000000000002e+00	 1.001668523076922e+01
0	 3.750000000000000e+00	 8.312500000000000e+00	 1.001575946153845e+01
0	 3.750000000000000e+00	 8.374999999999998e+00	 1.001480553846152e+01
0	 3.750000000000000e+00	 8.437500000000000e+00	 1.001382346153845e+01
0	 3.750000000000000e+00	 8.500000000000000e+00	 1.001281323076922e+01
0	 3.750000000000000e+00	 8.562499999999998e+00	 1.001177484615383e+01
0	 3.750000000000000e+00	 8.625000000000000e+00	 1.001070830769230e+01
0	 3.750000000000000e+00	 8.687499999999998e+00	 1.000961361538458e+01
0	 3.750000000000000e+00	 8.750000000000000e+00	 1.000849076923076e+01
0	 3.125000000000000e+00	 8.750000000000000e+00	 1.000066307692306e+01
0	 3.125000000000000e+00	 8.812500000000000e+00	 1.000060653692306e+01
0	 3.125000000000000e+00	 8.875000000000002e+00	 1.000055353230771e+01
0	 3.125000000000000e+00	 8.937499999999998e+00	 1.000050406307692e+01
0	 3.125000000000000e+00	 9.000000000000000e+00	 1.000045812923077e+01
0	 3.125000000000000e+00	 9.062500000000000e+00	 1.000041573076925e+01
0	 3.125000000000000e+00	 9.124999999999998e+00	 1.000037686769231e+01
0	 3.125000000000000e+00	 9.187499999999998e+00	 1.000034154000000e+01
0	 3.125000000000000e+00	 9.249999999999998e+00	 1.000030974769231e+01
0	 3.125000000000000e+00	 9.312499999999998e+00	 1.000028149076923e+01
0	 3.125000000000000e+00	 9.375000000000000e+00	 1.000025676923079e+01
0	 3.187500000000000e+00	 8.750000000000002e+00	 1.000162515384613e+01
0	 3.187500000000000e+00	 8.812499999999998e+00	 1.000151216630768e+01
0	 3.187500000000000e+00	 8.875000000000000e+00	 1.000139886215384e+01
0	 3.187500000000000e+00	 8.937500000000000e+00	 1.000128524138462e+01
0	 3.187500000000000e+00	 9.000000000000000e+00	 1.000117130399999e+01
0	 3.187500000000000e+00	 9.062500000000000e+00	 1.000105705000000e+01
0	 3.187500000000001e+00	 9.125000000000000e+00	 1.000094247938462e+01
0	 3.187500000000000e+00	 9.187499999999998e+00	 1.000082759215385e+01
0	 3.187500000000001e+00	 9.250000000000000e+00	 1.000071238830770e+01
0	 3.187499999999999e+00	 9.312499999999996e+00	 1.000059686784616e+01
0	 3.187500000000000e+00	 9.375000000000000e+00	 1.000048103076926e+01
0	 3.250000000000000e+00	 8.750000000000000e+00	 1.000254738461534e+01
0	 3.250000000000000e+00	 8.812500000000000e+00	 1.000238016799998e+01
0	 3.250000000000000e+00	 8.875000000000004e+00	 1.000220878276921e+01
0	 3.250000000000000e+00	 8.937500000000000e+00	 1.000203322892307e+01
0	 3.249999999999999e+00	 8.999999999999998e+00	 1.000185350646153e+01
0	 3.250000000000000e+00	 9.062500000000000e+00	 1.000166961538462e+01
0	 3.249999999999999e+00	 9.124999999999998e+00	 1.000148155569232e+01
0	 3.250000000000000e+00	 9.187500000000002e+00	 1.000128932738463e+01
0	 3.250000000000000e+00	 9.249999999999996e+00	 1.000109293046156e+01
0	 3.250000000000000e+00	 9.312499999999998e+00	 1.000089236492309e+01
0	 3.250000000000000e+00	 9.375000000000000e+00	 1.000068763076925e+01
0	 3.312500000000000e+00	 8.750000000000000e+00	 1.000342976923077e+01
0	 3.312499999999999e+00	 8.812500000000000e+00	 1.000321054199999e+01
0	 3.312500000000000e+00	 8.875000000000002e+00	 1.000298329415383e+01
0	 3.312500000000000e+00	 8.937500000000000e+00	 1.000274802569229e+01
0	 3.312499999999999e+00	 9.000000000000000e+00	 1.000250473661538e+01
0	 3.312500000000000e+00	 9.062499999999998e+00	 1.000225342692308e+01
0	 3.312499999999999e+00	 9.124999999999998e+00	 1.000199409661539e+01
0	 3.312499999999999e+00	 9.187500000000002e+00	 1.000172674569234e+01
0	 3.312500000000000e+00	 9.249999999999998e+00	 1.000145137415386e+01
0	 3.312499999999999e+00	 9.312499999999998e+00	 1.000116798200002e+01
0	 3.312500000000000e+00	 9.375000000000002e+00	 1.000087656923075e+01
0	 3.374999999999999e+00	 8.749999999999998e+00	 1.000427230769227e+01
0	 3.374999999999999e+00	 8.812500000000000e+00	 1.000400328830768e+01
0	 3.375000000000000e+00	 8.875000000000002e+00	 1.000372239630769e+01
0	 3.374999999999999e+00	 8.937500000000000e+00	 1.000342963169228e+01
0	 3.374999999999999e+00	 8.999999999999998e+00	 1.000312499446153e+01
0	 3.374999999999999e+00	 9.062500000000000e+00	 1.000280848461540e+01
0	 3.374999999999999e+00	 9.124999999999998e+00	 1.000248010215384e+01
0	 3.374999999999999e+00	 9.187500000000000e+00	 1.000213984707691e+01
0	 3.374999999999999e+00	 9.249999999999998e+00	 1.000178771938462e+01
0	 3.375000000000000e+00	 9.312500000000000e+00	 1.000142371907695e+01
0	 3.374999999999999e+00	 9.375000000000002e+00	 1.000104784615386e+01
0	 3.437499999999999e+00	 8.750000000000000e+00	 1.000507499999999e+01
0	 3.437499999999999e+00	 8.812500000000000e+00	 1.000475840692308e+01
0	 3.437499999999999e+00	 8.875000000000000e+00	 1.000442608923075e+01
0	 3.437499999999999e+00	 8.937500000000000e+00	 1.000407804692307e+01
0	 3.437499999999998e+00	 8.999999999999998e+00	 1.000371428000000e+01
0	 3.437499999999999e+00	 9.062500000000000e+00	 1.000333478846155e+01
0	 3.437500000000000e+00	 9.125000000000002e+00	 1.000293957230769e+01
0	 3.437499999999999e+00	 9.187499999999998e+00	 1.000252863153844e+01
0	 3.437499999999999e+00	 9.249999999999998e+00	 1.000210196615387e+01
0	 3.437500000000000e+00	 9.312500000000000e+00	 1.000165957615386e+01
0	 3.437499999999999e+00	 9.375000000000002e+00	 1.000120146153848e+01
0	 3.499999999999999e+00	 8.750000000000000e+00	 1.000583784615383e+01
0	 3.499999999999999e+00	 8.812500000000000e+00	 1.000547589784611e+01
0	 3.499999999999997e+00	 8.874999999999996e+00	 1.000509437292305e+01
0	 3.499999999999999e+00	 8.937499999999998e+00	 1.000469327138459e+01
0	 3.499999999999999e+00	 9.000000000000004e+00	 1.000427259323076e+01
0	 3.500000000000000e+00	 9.062500000000002e+00	 1.000383233846153e+01
0	 3.499999999999999e+00	 9.124999999999998e+00	 1.000337250707693e+01
0	 3.499999999999999e+00	 9.187500000000000e+00	 1.000289309907693e+01
0	 3.499999999999999e+00	 9.249999999999998e+00	 1.000239411446156e+01
0	 3.499999999999998e+00	 9.312499999999998e+00	 1.000187555323078e+01
0	 3.499999999999999e+00	 9.375000000000000e+00	 1.000133741538462e+01
0	 3.562499999999998e+00	 8.750000000000000e+00	 1.000656084615382e+01
0	 3.562499999999999e+00	 8.812499999999998e+00	 1.000615576107692e+01
0	 3.562499999999999e+00	 8.875000000000002e+00	 1.000572724738461e+01
0	 3.562499999999998e+00	 8.937500000000002e+00	 1.000527530507692e+01
0	 3.562499999999999e+00	 8.999999999999998e+00	 1.000479993415381e+01
0	 3.562499999999999e+00	 9.062500000000000e+00	 1.000430113461539e+01
0	 3.562499999999999e+00	 9.125000000000000e+00	 1.000377890646152e+01
0	 3.562499999999999e+00	 9.187500000000000e+00	 1.000323324969232e+01
0	 3.562499999999998e+00	 9.249999999999998e+00	 1.000266416430768e+01
0	 3.562499999999999e+00	 9.312500000000000e+00	 1.000207165030772e+01
0	 3.562499999999998e+00	 9.375000000000000e+00	 1.000145570769234e+01
0	 3.624999999999999e+00	 8.750000000000002e+00	 1.000724399999999e+01
0	 3.624999999999999e+00	 8.812500000000002e+00	 1.000679799661536e+01
0	 3.624999999999998e+00	 8.875000000000000e+00	 1.000632471261536e+01
0	 3.624999999999999e+00	 8.937500000000002e+00	 1.000582414799999e+01
0	 3.624999999999998e+00	 8.999999999999998e+00	 1.000529630276922e+01
0	 3.624999999999998e+00	 9.062499999999998e+00	 1.000474117692309e+01
0	 3.624999999999998e+00	 9.125000000000000e+00	 1.000415877046153e+01
0	 3.624999999999998e+00	 9.187499999999998e+00	 1.000354908338462e+01
0	 3.624999999999998e+00	 9.250000000000000e+00	 1.000291211569233e+01
0	 3.624999999999998e+00	 9.312499999999998e+00	 1.000224786738464e+01
0	 3.624999999999999e+00	 9.375000000000000e+00	 1.000155633846156e+01
0	 3.687499999999998e+00	 8.750000000000000e+00	 1.000788730769232e+01
0	 3.687499999999998e+00	 8.812500000000000e+00	 1.000740260446152e+01
0	 3.687499999999998e+00	 8.875000000000002e+00	 1.000688676861536e+01
0	 3.687499999999998e+00	 8.937500000000000e+00	 1.000633980015383e+01
0	 3.687499999999998e+00	 9.000000000000000e+00	 1.000576169907691e+01
0	 3.687499999999998e+00	 9.062500000000000e+00	 1.000515246538463e+01
0	 3.687499999999998e+00	 9.125000000000000e+00	 1.000451209907692e+01
0	 3.687499999999998e+00	 9.187499999999998e+00	 1.000384060015385e+01
0	 3.687499999999998e+00	 9.249999999999998e+00	 1.000313796861540e+01
0	 3.687499999999997e+00	 9.312499999999996e+00	 1.000240420446156e+01
0	 3.687499999999998e+00	 9.375000000000000e+00	 1.000163930769233e+01
0	 3.750000000000000e+00	 8.750000000000000e+00	 1.000849076923076e+01
0	 3.750000000000000e+00	 8.812500000000000e+00	 1.000796958461537e+01
0	 3.750000000000001e+00	 8.875000000000002e+00	 1.000741341538461e+01
0	 3.750000000000000e+00	 8.937499999999998e+00	 1.000682226153846e+01
0	 3.750000000000000e+00	 9.000000000000000e+00	 1.000619612307692e+01
0	 3.750000000000000e+00	 9.062500000000000e+00	 1.000553500000001e+01
0	 3.750000000000000e+00	 9.124999999999998e+00	 1.000483889230770e+01
0	 3.750000000000000e+00	 9.187499999999998e+00	 1.000410779999999e+01
0	 3.750000000000000e+00	 9.249999999999998e+00	 1.000334172307694e+01
0	 3.750000000000000e+00	 9.312499999999998e+00	 1.000254066153847e+01
0	 3.750000000000000e+00	 9.375000000000000e+00	 1.000170461538463e+01
0	 3.125000000000000e+00	 9.375000000000000e+00	 1.000025676923079e+01
0	 3.125000000000000e+00	 9.437499999999998e+00	 1.000023623538463e+01
0	 3.125000000000000e+00	 9.500000000000000e+00	 1.000021192615386e+01
0	 3.125000000000000e+00	 9.562500000000000e+00	 1.000018384153847e+01
0	 3.125000000000000e+00	 9.625000000000000e+00	 1.000015198153845e+01
0	 3.125000000000000e+00	 9.687499999999998e+00	 1.000011634615385e+01
0	 3.125000000000000e+00	 9.749999999999998e+00	 1.000007693538461e+01
0	 3.125000000000000e+00	 9.812500000000000e+00	 1.000003374923078e+01
0	 3.125000000000000e+00	 9.875000000000000e+00	 9.999986787692306e+00
0	 3.125000000000000e+00	 9.937499999999998e+00	 9.999936050769252e+00
0	 3.125000000000000e+00	 1.000000000000000e+01	 9.999881538461517e+00
0	 3.187500000000000e+00	 9.375000000000000e+00	 1.000048103076926e+01
0	 3.187500000000001e+00	 9.437500000000002e+00	 1.000046002876925e+01
0	 3.187499999999999e+00	 9.500000000000000e+00	 1.000042967507694e+01
0	 3.187500000000000e+00	 9.562500000000000e+00	 1.000038996969229e+01
0	 3.187500000000001e+00	 9.625000000000000e+00	 1.000034091261541e+01
0	 3.187500000000000e+00	 9.687500000000000e+00	 1.000028250384616e+01
0	 3.187500000000000e+00	 9.749999999999998e+00	 1.000021474338459e+01
0	 3.187500000000000e+00	 9.812499999999998e+00	 1.000013763123073e+01
0	 3.187500000000000e+00	 9.874999999999998e+00	 1.000005116738459e+01
0	 3.187499999999999e+00	 9.937499999999996e+00	 9.999955351846125e+00
0	 3.187500000000000e+00	 1.000000000000000e+01	 9.999850184615356e+00
0	 3.250000000000000e+00	 9.375000000000000e+00	 1.000068763076925e+01
0	 3.249999999999999e+00	 9.437499999999998e+00	 1.000066611753846e+01
0	 3.250000000000000e+00	 9.500000000000000e+00	 1.000062967630771e+01
0	 3.249999999999999e+00	 9.562500000000000e+00	 1.000057830707695e+01
0	 3.250000000000000e+00	 9.625000000000002e+00	 1.000051200984617e+01
0	 3.250000000000000e+00	 9.687500000000002e+00	 1.000043078461538e+01
0	 3.250000000000000e+00	 9.750000000000000e+00	 1.000033463138459e+01
0	 3.250000000000000e+00	 9.812500000000002e+00	 1.000022355015386e+01
0	 3.250000000000000e+00	 9.874999999999996e+00	 1.000009754092306e+01
0	 3.250000000000000e+00	 9.937500000000000e+00	 9.999956603692286e+00
0	 3.250000000000000e+00	 1.000000000000000e+01	 9.999800738461497e+00
0	 3.312500000000000e+00	 9.375000000000002e+00	 1.000087656923075e+01
0	 3.312499999999999e+00	 9.437500000000000e+00	 1.000085450169231e+01
0	 3.312499999999999e+00	 9.499999999999996e+00	 1.000081192984615e+01
0	 3.312500000000000e+00	 9.562500000000000e+00	 1.000074885369233e+01
0	 3.312499999999998e+00	 9.624999999999998e+00	 1.000066527323078e+01
0	 3.312500000000000e+00	 9.687500000000000e+00	 1.000056118846156e+01
0	 3.312499999999999e+00	 9.749999999999996e+00	 1.000043659938462e+01
0	 3.312499999999999e+00	 9.812499999999996e+00	 1.000029150599997e+01
0	 3.312499999999999e+00	 9.875000000000000e+00	 1.000012590830767e+01
0	 3.312499999999999e+00	 9.937499999999998e+00	 9.999939806307687e+00
0	 3.312499999999999e+00	 1.000000000000000e+01	 9.999733200000049e+00
0	 3.374999999999999e+00	 9.375000000000002e+00	 1.000104784615386e+01
0	 3.375000000000000e+00	 9.437500000000000e+00	 1.000102518123077e+01
0	 3.375000000000000e+00	 9.500000000000004e+00	 1.000097643569232e+01
0	 3.374999999999999e+00	 9.562500000000000e+00	 1.000090160953849e+01
0	 3.374999999999999e+00	 9.624999999999998e+00	 1.000080070276923e+01
0	 3.374999999999999e+00	 9.687499999999998e+00	 1.000067371538463e+01
0	 3.374999999999999e+00	 9.750000000000000e+00	 1.000052064738464e+01
0	 3.375000000000000e+00	 9.812499999999996e+00	 1.000034149876921e+01
0	 3.374999999999999e+00	 9.874999999999998e+00	 1.000013626953842e+01
0	 3.374999999999999e+00	 9.937499999999996e+00	 9.999904959692335e+00
0	 3.374999999999999e+00	 1.000000000000000e+01	 9.999647569230753e+00
0	 3.437499999999999e+00	 9.375000000000002e+00	 1.000120146153848e+01
0	 3.437499999999999e+00	 9.437499999999998e+00	 1.000117815615386e+01
0	 3.437499999999999e+00	 9.499999999999998e+00	 1.000112319384616e+01
0	 3.437499999999999e+00	 9.562500000000000e+00	 1.000103657461540e+01
0	 3.437499999999998e+00	 9.624999999999998e+00	 1.000091829846153e+01
0	 3.437499999999999e+00	 9.687500000000000e+00	 1.000076836538466e+01
0	 3.437500000000000e+00	 9.750000000000000e+00	 1.000058677538464e+01
0	 3.437499999999999e+00	 9.812499999999998e+00	 1.000037352846155e+01
0	 3.437499999999999e+00	 9.874999999999998e+00	 1.000012862461540e+01
0	 3.437499999999999e+00	 9.937499999999998e+00	 9.999852063846157e+00
0	 3.437499999999999e+00	 1.000000000000000e+01	 9.999543846153831e+00
0	 3.499999999999999e+00	 9.375000000000000e+00	 1.000133741538462e+01
0	 3.499999999999998e+00	 9.437499999999998e+00	 1.000131342646155e+01
0	 3.499999999999999e+00	 9.500000000000000e+00	 1.000125220430771e+01
0	 3.499999999999999e+00	 9.562500000000000e+00	 1.000115374892308e+01
0	 3.499999999999999e+00	 9.625000000000000e+00	 1.000101806030770e+01
0	 3.499999999999999e+00	 9.687499999999998e+00	 1.000084513846153e+01
0	 3.499999999999999e+00	 9.749999999999998e+00	 1.000063498338461e+01
0	 3.499999999999998e+00	 9.812499999999996e+00	 1.000038759507692e+01
0	 3.499999999999998e+00	 9.874999999999998e+00	 1.000010297353843e+01
0	 3.499999999999998e+00	 9.937499999999998e+00	 9.999781118769235e+00
0	 3.499999999999999e+00	 9.999999999999998e+00	 9.999422030769235e+00
0	 3.562499999999998e+00	 9.375000000000000e+00	 1.000145570769234e+01
0	 3.562499999999998e+00	 9.437499999999998e+00	 1.000143099215387e+01
0	 3.562499999999999e+00	 9.499999999999998e+00	 1.000136346707693e+01
0	 3.562499999999998e+00	 9.562500000000002e+00	 1.000125313246155e+01
0	 3.562499999999999e+00	 9.624999999999998e+00	 1.000109998830769e+01
0	 3.562499999999999e+00	 9.687500000000000e+00	 1.000090403461537e+01
0	 3.562499999999999e+00	 9.750000000000000e+00	 1.000066527138462e+01
0	 3.562499999999999e+00	 9.812500000000000e+00	 1.000038369861539e+01
0	 3.562499999999998e+00	 9.874999999999998e+00	 1.000005931630767e+01
0	 3.562499999999999e+00	 9.937499999999998e+00	 9.999692124461534e+00
0	 3.562499999999999e+00	 1.000000000000000e+01	 9.999282123076966e+00
0	 3.624999999999999e+00	 9.375000000000000e+00	 1.000155633846156e+01
0	 3.624999999999999e+00	 9.437500000000002e+00	 1.000153085323079e+01
0	 3.624999999999998e+00	 9.500000000000000e+00	 1.000145698215386e+01
0	 3.624999999999998e+00	 9.562500000000002e+00	 1.000133472523079e+01
0	 3.624999999999998e+00	 9.624999999999998e+00	 1.000116408246153e+01
0	 3.624999999999998e+00	 9.687499999999998e+00	 1.000094505384615e+01
0	 3.624999999999998e+00	 9.750000000000000e+00	 1.000067763938462e+01
0	 3.624999999999998e+00	 9.812499999999998e+00	 1.000036183907694e+01
0	 3.624999999999998e+00	 9.874999999999998e+00	 9.999997652923030e+00
0	 3.624999999999998e+00	 9.937499999999998e+00	 9.999585080923072e+00
0	 3.624999999999998e+00	 1.000000000000000e+01	 9.999124123076903e+00
0	 3.687499999999998e+00	 9.375000000000000e+00	 1.000163930769233e+01
0	 3.687499999999998e+00	 9.437500000000000e+00	 1.000161300969232e+01
0	 3.687499999999998e+00	 9.499999999999998e+00	 1.000153274953848e+01
0	 3.687499999999999e+00	 9.562500000000000e+00	 1.000139852723078e+01
0	 3.687499999999998e+00	 9.624999999999998e+00	 1.000121034276926e+01
0	 3.687499999999998e+00	 9.687499999999996e+00	 1.000096819615385e+01
0	 3.687499999999998e+00	 9.749999999999998e+00	 1.000067208738463e+01
0	 3.687499999999998e+00	 9.812499999999998e+00	 1.000032201646154e+01
0	 3.687499999999998e+00	 9.874999999999996e+00	 9.999917983384641e+00
0	 3.687499999999998e+00	 9.937499999999998e+00	 9.999459988153824e+00
0	 3.687499999999998e+00	 1.000000000000000e+01	 9.998948030769206e+00
0	 3.750000000000000e+00	 9.375000000000000e+00	 1.000170461538463e+01
0	 3.750000000000000e+00	 9.437499999999998e+00	 1.000167746153848e+01
0	 3.750000000000000e+00	 9.500000000000000e+00	 1.000159076923077e+01
0	 3.750000000000000e+00	 9.562500000000000e+00	 1.000144453846155e+01
0	 3.750000000000000e+00	 9.625000000000000e+00	 1.000123876923076e+01
0	 3.750000000000000e+00	 9.687499999999998e+00	 1.000097346153848e+01
0	 3.750000000000000e+00	 9.749999999999998e+00	 1.000064861538463e+01
0	 3.750000000000000e+00	 9.812500000000000e+00	 1.000026423076923e+01
0	 3.750000000000000e+00	 9.875000000000000e+00	 9.999820307692287e+00
0	 3.750000000000000e+00	 9.937499999999998e+00	 9.999316846153899e+00
0	 3.750000000000000e+00	 1.000000000000000e+01	 9.998753846153846e+00
0	 3.750000000000000e+00	 0.000000000000000e+00	 1.059571046153846e+01
0	 3.750000000000000e+00	 6.250000000000000e-02	 1.059507336923077e+01
0	 3.750000000000000e+00	 1.250000000000000e-01	 1.059270846153846e+01
0	 3.750000000000000e+00	 1.875000000000000e-01	 1.058861573846153e+01
0	 3.750000000000000e+00	 2.500000000000000e-01	 1.058279520000000e+01
0	 3.750000000000000e+00	 3.125000000000000e-01	 1.057524684615384e+01
0	 3.750000000000000e+00	 3.750000000000000e-01	 1.056597067692307e+01
0	 3.750000000000000e+00	 4.374999999999999e-01	 1.055496669230769e+01
0	 3.750000000000000e+00	 5.000000000000000e-01	 1.054223489230769e+01
0	 3.750000000000000e+00	 5.624999999999999e-01	 1.052777527692308e+01
0	 3.750000000000000e+00	 6.250000000000000e-01	 1.051158784615384e+01
0	 3.812500000000000e+00	 0.000000000000000e+00	 1.054472012615384e+01
0	 3.812499999999999e+00	 6.249999999999999e-02	 1.054908636492307e+01
0	 3.812499999999999e+00	 1.250000000000000e-01	 1.055183434830768e+01
0	 3.812499999999999e+00	 1.875000000000000e-01	 1.055296407630770e+01
0	 3.812500000000000e+00	 2.500000000000000e-01	 1.055247554892308e+01
0	 3.812500000000000e+00	 3.125000000000001e-01	 1.055036876615385e+01
0	 3.812500000000000e+00	 3.749999999999999e-01	 1.054664372800000e+01
0	 3.812500000000000e+00	 4.374999999999999e-01	 1.054130043446153e+01
0	 3.812500000000000e+00	 5.000000000000000e-01	 1.053433888553846e+01
0	 3.812500000000000e+00	 5.625000000000000e-01	 1.052575908123077e+01
0	 3.812500000000000e+00	 6.250000000000000e-01	 1.051556102153846e+01
0	 3.874999999999999e+00	 0.000000000000000e+00	 1.049942038153846e+01
0	 3.875000000000000e+00	 6.250000000000000e-02	 1.050792808123077e+01
0	 3.875000000000000e+00	 1.250000000000000e-01	 1.051492708553846e+01
0	 3.875000000000000e+00	 1.875000000000000e-01	 1.052041739446154e+01
0	 3.875000000000000e+00	 2.500000000000001e-01	 1.052439900800000e+01
0	 3.875000000000000e+00	 3.125000000000000e-01	 1.052687192615385e+01
0	 3.875000000000000e+00	 3.749999999999999e-01	 1.052783614892308e+01
0	 3.875000000000000e+00	 4.375000000000000e-01	 1.052729167630769e+01
0	 3.875000000000000e+00	 4.999999999999999e-01	 1.052523850830769e+01
0	 3.874999999999999e+00	 5.625000000000000e-01	 1.052167664492307e+01
0	 3.874999999999999e+00	 6.249999999999999e-01	 1.051660608615384e+01
0	 3.937500000000000e+00	 0.000000000000000e+00	 1.045981122769231e+01
0	 3.937499999999999e+00	 6.250000000000000e-02	 1.047159851815385e+01
0	 3.937500000000000e+00	 1.250000000000000e-01	 1.048198667323076e+01
0	 3.937500000000000e+00	 1.875000000000001e-01	 1.049097569292307e+01
0	 3.937500000000000e+00	 2.500000000000001e-01	 1.049856557723077e+01
0	 3.937500000000000e+00	 3.125000000000000e-01	 1.050475632615384e+01
0	 3.937499999999999e+00	 3.749999999999999e-01	 1.050954793969230e+01
0	 3.937500000000000e+00	 4.374999999999999e-01	 1.051294041784615e+01
0	 3.937499999999998e+00	 4.999999999999999e-01	 1.051493376061538e+01
0	 3.937500000000000e+00	 5.625000000000001e-01	 1.051552796800000e+01
0	 3.937499999999999e+00	 6.249999999999999e-01	 1.051472303999999e+01
0	 4.000000000000000e+00	 0.000000000000000e+00	 1.042589266461538e+01
0	 3.999999999999999e+00	 6.250000000000000e-02	 1.044009767569231e+01
0	 3.999999999999999e+00	 1.250000000000000e-01	 1.045301311138462e+01
0	 3.999999999999998e+00	 1.875000000000000e-01	 1.046463897169230e+01
0	 3.999999999999999e+00	 2.500000000000000e-01	 1.047497525661538e+01
0	 3.999999999999999e+00	 3.125000000000000e-01	 1.048402196615384e+01
0	 3.999999999999999e+00	 3.750000000000000e-01	 1.049177910030769e+01
0	 4.000000000000000e+00	 4.375000000000000e-01	 1.049824665907692e+01
0	 3.999999999999999e+00	 4.999999999999999e-01	 1.050342464246153e+01
0	 4.000000000000000e+00	 5.625000000000000e-01	 1.050731305046154e+01
0	 3.999999999999999e+00	 6.250000000000001e-01	 1.050991188307692e+01
0	 4.062499999999999e+00	 0.000000000000000e+00	 1.039766469230769e+01
0	 4.062499999999998e+00	 6.249999999999998e-02	 1.041342555384615e+01
0	 4.062500000000000e+00	 1.250000000000000e-01	 1.042800640000000e+01
0	 4.062499999999999e+00	 1.875000000000000e-01	 1.044140723076923e+01
0	 4.062499999999998e+00	 2.499999999999999e-01	 1.045362804615384e+01
0	 4.062499999999999e+00	 3.125000000000000e-01	 1.046466884615385e+01
0	 4.062499999999999e+00	 3.750000000000000e-01	 1.047452963076923e+01
0	 4.062499999999999e+00	 4.375000000000000e-01	 1.048321040000000e+01
0	 4.062499999999998e+00	 4.999999999999999e-01	 1.049071115384615e+01
0	 4.062500000000000e+00	 5.625000000000001e-01	 1.049703189230769e+01
0	 4.062499999999999e+00	 6.250000000000000e-01	 1.050217261538461e+01
0	 4.124999999999999e+00	 0.000000000000000e+00	 1.037512731076923e+01
0	 4.124999999999999e+00	 6.249999999999999e-02	 1.039158215261538e+01
0	 4.124999999999999e+00	 1.250000000000000e-01	 1.040696653907692e+01
0	 4.124999999999999e+00	 1.875000000000001e-01	 1.042128047015385e+01
0	 4.124999999999999e+00	 2.500000000000001e-01	 1.043452394584615e+01
0	 4.124999999999999e+00	 3.125000000000001e-01	 1.044669696615384e+01
0	 4.124999999999998e+00	 3.749999999999999e-01	 1.045779953107692e+01
0	 4.124999999999999e+00	 4.375000000000000e-01	 1.046783164061538e+01
0	 4.124999999999998e+00	 4.999999999999998e-01	 1.047679329476923e+01
0	 4.124999999999998e+00	 5.624999999999999e-01	 1.048468449353846e+01
0	 4.124999999999998e+00	 6.250000000000001e-01	 1.049150523692308e+01
0	 4.187499999999999e+00	 0.000000000000000e+00	 1.035828052000000e+01
0	 4.187499999999998e+00	 6.250000000000000e-02	 1.037456747200000e+01
0	 4.187499999999998e+00	 1.250000000000000e-01	 1.038989352861539e+01
0	 4.187499999999999e+00	 1.875000000000000e-01	 1.040425868984615e+01
0	 4.187499999999998e+00	 2.500000000000000e-01	 1.041766295569230e+01
0	 4.187499999999999e+00	 3.125000000000001e-01	 1.043010632615385e+01
0	 4.187499999999999e+00	 3.750000000000000e-01	 1.044158880123076e+01
0	 4.187499999999998e+00	 4.375000000000000e-01	 1.045211038092308e+01
0	 4.187499999999998e+00	 4.999999999999999e-01	 1.046167106523077e+01
0	 4.187499999999998e+00	 5.625000000000000e-01	 1.047027085415384e+01
0	 4.187499999999998e+00	 6.249999999999999e-01	 1.047790974769231e+01
0	 4.249999999999998e+00	 0.000000000000000e+00	 1.034712432000000e+01
0	 4.249999999999998e+00	 6.249999999999999e-02	 1.036238151200000e+01
0	 4.249999999999998e+00	 1.250000000000000e-01	 1.037678736861539e+01
0	 4.249999999999999e+00	 1.875000000000001e-01	 1.039034188984615e+01
0	 4.249999999999997e+00	 2.500000000000000e-01	 1.040304507569231e+01
0	 4.249999999999997e+00	 3.124999999999999e-01	 1.041489692615384e+01
0	 4.249999999999999e+00	 3.749999999999999e-01	 1.042589744123076e+01
0	 4.249999999999998e+00	 4.375000000000000e-01	 1.043604662092307e+01
0	 4.249999999999998e+00	 4.999999999999999e-01	 1.044534446523077e+01
0	 4.249999999999998e+00	 5.625000000000000e-01	 1.045379097415384e+01
0	 4.249999999999998e+00	 6.250000000000000e-01	 1.046138614769231e+01
0	 4.312499999999998e+00	 0.000000000000000e+00	 1.034165871076923e+01
0	 4.312499999999999e+00	 6.250000000000000e-02	 1.035502427261538e+01
0	 4.312499999999998e+00	 1.250000000000000e-01	 1.036764805907692e+01
0	 4.312499999999999e+00	 1.875000000000000e-01	 1.037953007015385e+01
0	 4.312499999999997e+00	 2.499999999999999e-01	 1.039067030584615e+01
0	 4.312499999999998e+00	 3.125000000000000e-01	 1.040106876615384e+01
0	 4.312499999999997e+00	 3.750000000000000e-01	 1.041072545107692e+01
0	 4.312499999999998e+00	 4.375000000000000e-01	 1.041964036061539e+01
0	 4.312499999999997e+00	 4.999999999999999e-01	 1.042781349476923e+01
0	 4.312499999999998e+00	 5.625000000000000e-01	 1.043524485353846e+01
0	 4.312499999999998e+00	 6.250000000000000e-01	 1.044193443692307e+01
0	 4.375000000000000e+00	 0.000000000000000e+00	 1.034188369230769e+01
0	 4.375000000000001e+00	 6.250000000000000e-02	 1.035249575384615e+01
0	 4.375000000000000e+00	 1.250000000000000e-01	 1.036247560000000e+01
0	 4.375000000000000e+00	 1.875000000000000e-01	 1.037182323076923e+01
0	 4.375000000000000e+00	 2.500000000000000e-01	 1.038053864615385e+01
0	 4.375000000000000e+00	 3.125000000000000e-01	 1.038862184615385e+01
0	 4.375000000000000e+00	 3.750000000000000e-01	 1.039607283076923e+01
0	 4.375000000000000e+00	 4.374999999999999e-01	 1.040289160000000e+01
0	 4.375000000000000e+00	 5.000000000000000e-01	 1.040907815384615e+01
0	 4.375000000000000e+00	 5.624999999999999e-01	 1.041463249230769e+01
0	 4.375000000000000e+00	 6.250000000000000e-01	 1.041955461538461e+01
0	 3.750000000000000e+00	 6.250000000000000e-01	 1.051158784615384e+01
0	 3.750000000000000e+00	 6.875000000000000e-01	 1.053383141538461e+01
0	 3.750000000000000e+00	 7.500000000000002e-01	 1.055506338461538e+01
0	 3.750000000000000e+00	 8.125000000000002e-01	 1.057528375384615e+01
0	 3.750000000000000e+00	 8.750000000000002e-01	 1.059449252307692e+01
0	 3.750000000000000e+00	 9.375000000000002e-01	 1.061268969230769e+01
0	 3.750000000000000e+00	 1.000000000000000e+00	 1.062987526153846e+01
0	 3.750000000000000e+00	 1.062500000000000e+00	 1.064604923076923e+01
0	 3.750000000000000e+00	 1.125000000000001e+00	 1.066121160000000e+01
0	 3.750000000000000e+00	 1.187500000000000e+00	 1.067536236923076e+01
0	 3.750000000000000e+00	 1.250000000000000e+00	 1.068850153846154e+01
0	 3.812500000000000e+00	 6.250000000000000e-01	 1.051556102153846e+01
0	 3.812500000000000e+00	 6.875000000000001e-01	 1.053381832476923e+01
0	 3.812500000000000e+00	 7.500000000000001e-01	 1.055115062184615e+01
0	 3.812500000000000e+00	 8.125000000000002e-01	 1.056755791276923e+01
0	 3.812500000000000e+00	 8.750000000000003e-01	 1.058304019753846e+01
0	 3.812500000000000e+00	 9.375000000000003e-01	 1.059759747615384e+01
0	 3.812500000000000e+00	 1.000000000000000e+00	 1.061122974861538e+01
0	 3.812500000000000e+00	 1.062500000000000e+00	 1.062393701492308e+01
0	 3.812500000000000e+00	 1.125000000000000e+00	 1.063571927507692e+01
0	 3.812499999999999e+00	 1.187500000000000e+00	 1.064657652907693e+01
0	 3.812500000000000e+00	 1.250000000000000e+00	 1.065650877692307e+01
0	 3.874999999999999e+00	 6.249999999999999e-01	 1.051660608615384e+01
0	 3.875000000000000e+00	 6.875000000000001e-01	 1.053139560369230e+01
0	 3.875000000000000e+00	 7.500000000000002e-01	 1.054534670892308e+01
0	 3.875000000000000e+00	 8.125000000000001e-01	 1.055845940184615e+01
0	 3.875000000000000e+00	 8.750000000000003e-01	 1.057073368246153e+01
0	 3.875000000000000e+00	 9.375000000000003e-01	 1.058216955076924e+01
0	 3.875000000000000e+00	 1.000000000000000e+00	 1.059276700676923e+01
0	 3.875000000000000e+00	 1.062500000000000e+00	 1.060252605046153e+01
0	 3.875000000000000e+00	 1.125000000000000e+00	 1.061144668184615e+01
0	 3.875000000000000e+00	 1.187500000000001e+00	 1.061952890092308e+01
0	 3.874999999999999e+00	 1.250000000000000e+00	 1.062677270769230e+01
0	 3.937499999999999e+00	 6.249999999999999e-01	 1.051472303999999e+01
0	 3.937500000000000e+00	 6.875000000000000e-01	 1.052656325215384e+01
0	 3.937500000000000e+00	 7.500000000000000e-01	 1.053765164584615e+01
0	 3.937499999999999e+00	 8.125000000000002e-01	 1.054798822107692e+01
0	 3.937499999999999e+00	 8.750000000000002e-01	 1.055757297784615e+01
0	 3.937499999999999e+00	 9.375000000000002e-01	 1.056640591615385e+01
0	 3.937499999999999e+00	 1.000000000000000e+00	 1.057448703600000e+01
0	 3.937500000000000e+00	 1.062500000000000e+00	 1.058181633738461e+01
0	 3.937500000000000e+00	 1.125000000000000e+00	 1.058839382030769e+01
0	 3.937500000000000e+00	 1.187500000000000e+00	 1.059421948476923e+01
0	 3.937499999999999e+00	 1.250000000000000e+00	 1.059929333076923e+01
0	 3.999999999999999e+00	 6.250000000000001e-01	 1.050991188307692e+01
0	 3.999999999999999e+00	 6.875000000000000e-01	 1.051932127015384e+01
0	 3.999999999999998e+00	 7.500000000000000e-01	 1.052806543261538e+01
0	 3.999999999999999e+00	 8.125000000000001e-01	 1.053614437046154e+01
0	 4.000000000000000e+00	 8.750000000000003e-01	 1.054355808369231e+01
0	 3.999999999999999e+00	 9.375000000000000e-01	 1.055030657230769e+01
0	 4.000000000000000e+00	 1.000000000000000e+00	 1.055638983630769e+01
0	 3.999999999999999e+00	 1.062500000000000e+00	 1.056180787569231e+01
0	 4.000000000000000e+00	 1.125000000000000e+00	 1.056656069046154e+01
0	 4.000000000000000e+00	 1.187500000000000e+00	 1.057064828061539e+01
0	 3.999999999999999e+00	 1.250000000000000e+00	 1.057407064615384e+01
0	 4.062499999999999e+00	 6.250000000000000e-01	 1.050217261538461e+01
0	 4.062499999999998e+00	 6.875000000000000e-01	 1.050966965769230e+01
0	 4.062499999999999e+00	 7.500000000000001e-01	 1.051658806923077e+01
0	 4.062499999999999e+00	 8.125000000000002e-01	 1.052292784999999e+01
0	 4.062499999999999e+00	 8.750000000000003e-01	 1.052868899999999e+01
0	 4.062500000000000e+00	 9.375000000000002e-01	 1.053387151923077e+01
0	 4.062499999999999e+00	 1.000000000000000e+00	 1.053847540769230e+01
0	 4.062499999999999e+00	 1.062500000000000e+00	 1.054250066538461e+01
0	 4.062499999999999e+00	 1.125000000000000e+00	 1.054594729230769e+01
0	 4.062499999999999e+00	 1.187500000000001e+00	 1.054881528846153e+01
0	 4.062499999999999e+00	 1.250000000000000e+00	 1.055110465384615e+01
0	 4.124999999999998e+00	 6.250000000000001e-01	 1.049150523692308e+01
0	 4.124999999999997e+00	 6.874999999999999e-01	 1.049760841476923e+01
0	 4.124999999999999e+00	 7.500000000000003e-01	 1.050321955569231e+01
0	 4.124999999999998e+00	 8.125000000000000e-01	 1.050833865969231e+01
0	 4.124999999999998e+00	 8.750000000000001e-01	 1.051296572676924e+01
0	 4.124999999999999e+00	 9.375000000000003e-01	 1.051710075692308e+01
0	 4.124999999999999e+00	 1.000000000000000e+00	 1.052074375015384e+01
0	 4.124999999999998e+00	 1.062500000000000e+00	 1.052389470646154e+01
0	 4.124999999999999e+00	 1.125000000000000e+00	 1.052655362584615e+01
0	 4.124999999999997e+00	 1.187500000000000e+00	 1.052872050830769e+01
0	 4.124999999999998e+00	 1.250000000000000e+00	 1.053039535384616e+01
0	 4.187499999999998e+00	 6.249999999999999e-01	 1.047790974769231e+01
0	 4.187499999999998e+00	 6.875000000000000e-01	 1.048313754138461e+01
0	 4.187499999999999e+00	 7.500000000000002e-01	 1.048795989200000e+01
0	 4.187499999999998e+00	 8.125000000000000e-01	 1.049237679953846e+01
0	 4.187500000000000e+00	 8.750000000000002e-01	 1.049638826400000e+01
0	 4.187499999999999e+00	 9.375000000000004e-01	 1.049999428538461e+01
0	 4.187499999999997e+00	 1.000000000000000e+00	 1.050319486369230e+01
0	 4.187499999999999e+00	 1.062500000000001e+00	 1.050598999892308e+01
0	 4.187499999999998e+00	 1.125000000000000e+00	 1.050837969107692e+01
0	 4.187499999999998e+00	 1.187500000000000e+00	 1.051036394015384e+01
0	 4.187499999999998e+00	 1.250000000000000e+00	 1.051194274615385e+01
0	 4.249999999999998e+00	 6.250000000000000e-01	 1.046138614769231e+01
0	 4.249999999999998e+00	 6.875000000000000e-01	 1.046625703753846e+01
0	 4.249999999999998e+00	 7.500000000000000e-01	 1.047080907815385e+01
0	 4.249999999999998e+00	 8.125000000000001e-01	 1.047504226953846e+01
0	 4.249999999999998e+00	 8.750000000000003e-01	 1.047895661169230e+01
0	 4.249999999999998e+00	 9.375000000000002e-01	 1.048255210461538e+01
0	 4.249999999999999e+00	 1.000000000000001e+00	 1.048582874830769e+01
0	 4.249999999999998e+00	 1.062500000000000e+00	 1.048878654276923e+01
0	 4.249999999999998e+00	 1.125000000000000e+00	 1.049142548800000e+01
0	 4.249999999999998e+00	 1.187500000000000e+00	 1.049374558400000e+01
0	 4.249999999999998e+00	 1.250000000000000e+00	 1.049574683076923e+01
0	 4.312499999999998e+00	 6.250000000000000e-01	 1.044193443692307e+01
0	 4.312499999999999e+00	 6.875000000000002e-01	 1.044696690323076e+01
0	 4.312499999999998e+00	 7.500000000000001e-01	 1.045176711415385e+01
0	 4.312499999999997e+00	 8.125000000000001e-01	 1.045633506969231e+01
0	 4.312499999999999e+00	 8.750000000000002e-01	 1.046067076984615e+01
0	 4.312499999999998e+00	 9.375000000000002e-01	 1.046477421461539e+01
0	 4.312499999999998e+00	 1.000000000000000e+00	 1.046864540400000e+01
0	 4.312499999999998e+00	 1.062500000000000e+00	 1.047228433800000e+01
0	 4.312499999999998e+00	 1.125000000000000e+00	 1.047569101661538e+01
0	 4.312499999999998e+00	 1.187500000000000e+00	 1.047886543984615e+01
0	 4.312499999999998e+00	 1.250000000000000e+00	 1.048180760769230e+01
0	 4.375000000000000e+00	 6.250000000000000e-01	 1.041955461538461e+01
0	 4.375000000000000e+00	 6.875000000000000e-01	 1.042526713846154e+01
0	 4.375000000000000e+00	 7.500000000000002e-01	 1.043083400000000e+01
0	 4.375000000000001e+00	 8.125000000000002e-01	 1.043625520000000e+01
0	 4.375000000000000e+00	 8.750000000000002e-01	 1.044153073846154e+01
0	 4.375000000000001e+00	 9.375000000000002e-01	 1.044666061538461e+01
0	 4.375000000000000e+00	 1.000000000000000e+00	 1.045164483076923e+01
0	 4.375000000000000e+00	 1.062500000000000e+00	 1.045648338461538e+01
0	 4.375000000000001e+00	 1.125000000000001e+00	 1.046117627692307e+01
0	 4.375000000000000e+00	 1.187500000000000e+00	 1.046572350769231e+01
0	 4.375000000000000e+00	 1.250000000000000e+00	 1.047012507692308e+01
0	 3.750000000000000e+00	 1.250000000000000e+00	 1.068850153846154e+01
0	 3.750000000000000e+00	 1.312500000000000e+00	 1.068366092307692e+01
0	 3.750000000000000e+00	 1.375000000000000e+00	 1.068026307692307e+01
0	 3.750000000000000e+00	 1.437500000000000e+00	 1.067830800000000e+01
0	 3.750000000000000e+00	 1.500000000000000e+00	 1.067779569230769e+01
0	 3.750000000000000e+00	 1.562500000000000e+00	 1.067872615384615e+01
0	 3.750000000000000e+00	 1.625000000000000e+00	 1.068109938461538e+01
0	 3.750000000000000e+00	 1.687500000000000e+00	 1.068491538461539e+01
0	 3.750000000000000e+00	 1.750000000000001e+00	 1.069017415384615e+01
0	 3.750000000000000e+00	 1.812500000000000e+00	 1.069687569230769e+01
0	 3.750000000000000e+00	 1.875000000000000e+00	 1.070502000000000e+01
0	 3.812500000000000e+00	 1.250000000000000e+00	 1.065650877692307e+01
0	 3.812500000000000e+00	 1.312500000000000e+00	 1.065369111461539e+01
0	 3.812500000000000e+00	 1.375000000000000e+00	 1.065216313846154e+01
0	 3.812500000000000e+00	 1.437500000000000e+00	 1.065192484846154e+01
0	 3.812500000000000e+00	 1.500000000000000e+00	 1.065297624461538e+01
0	 3.812500000000000e+00	 1.562500000000000e+00	 1.065531732692307e+01
0	 3.812500000000000e+00	 1.625000000000000e+00	 1.065894809538461e+01
0	 3.812500000000000e+00	 1.687500000000000e+00	 1.066386854999999e+01
0	 3.812500000000000e+00	 1.750000000000000e+00	 1.067007869076923e+01
0	 3.812499999999999e+00	 1.812500000000000e+00	 1.067757851769231e+01
0	 3.812500000000000e+00	 1.875000000000000e+00	 1.068636803076923e+01
0	 3.874999999999999e+00	 1.250000000000000e+00	 1.062677270769230e+01
0	 3.875000000000000e+00	 1.312500000000000e+00	 1.062579165846154e+01
0	 3.875000000000000e+00	 1.375000000000000e+00	 1.062594721230770e+01
0	 3.875000000000000e+00	 1.437500000000000e+00	 1.062723936923077e+01
0	 3.875000000000000e+00	 1.500000000000000e+00	 1.062966812923077e+01
0	 3.875000000000000e+00	 1.562500000000000e+00	 1.063323349230769e+01
0	 3.875000000000000e+00	 1.625000000000000e+00	 1.063793545846154e+01
0	 3.875000000000000e+00	 1.687500000000000e+00	 1.064377402769231e+01
0	 3.875000000000000e+00	 1.750000000000001e+00	 1.065074919999999e+01
0	 3.875000000000000e+00	 1.812500000000001e+00	 1.065886097538461e+01
0	 3.874999999999999e+00	 1.875000000000000e+00	 1.066810935384615e+01
0	 3.937499999999999e+00	 1.250000000000000e+00	 1.059929333076923e+01
0	 3.937500000000000e+00	 1.312500000000000e+00	 1.059996255461539e+01
0	 3.937500000000000e+00	 1.375000000000000e+00	 1.060161529846154e+01
0	 3.937499999999999e+00	 1.437500000000000e+00	 1.060425156230769e+01
0	 3.937499999999999e+00	 1.500000000000000e+00	 1.060787134615384e+01
0	 3.937499999999999e+00	 1.562500000000000e+00	 1.061247465000000e+01
0	 3.937499999999999e+00	 1.625000000000000e+00	 1.061806147384615e+01
0	 3.937500000000000e+00	 1.687500000000000e+00	 1.062463181769230e+01
0	 3.937500000000000e+00	 1.750000000000000e+00	 1.063218568153846e+01
0	 3.937500000000000e+00	 1.812500000000000e+00	 1.064072306538461e+01
0	 3.937499999999999e+00	 1.875000000000000e+00	 1.065024396923077e+01
0	 3.999999999999999e+00	 1.250000000000000e+00	 1.057407064615384e+01
0	 3.999999999999999e+00	 1.312500000000000e+00	 1.057620380307692e+01
0	 3.999999999999998e+00	 1.375000000000000e+00	 1.057916739692308e+01
0	 3.999999999999999e+00	 1.437500000000000e+00	 1.058296142769231e+01
0	 4.000000000000000e+00	 1.500000000000000e+00	 1.058758589538462e+01
0	 3.999999999999999e+00	 1.562500000000000e+00	 1.059304080000000e+01
0	 4.000000000000000e+00	 1.625000000000001e+00	 1.059932614153846e+01
0	 3.999999999999999e+00	 1.687500000000000e+00	 1.060644191999999e+01
0	 4.000000000000000e+00	 1.750000000000001e+00	 1.061438813538461e+01
0	 4.000000000000000e+00	 1.812500000000000e+00	 1.062316478769230e+01
0	 3.999999999999999e+00	 1.875000000000000e+00	 1.063277187692307e+01
0	 4.062499999999999e+00	 1.250000000000000e+00	 1.055110465384615e+01
0	 4.062499999999998e+00	 1.312500000000000e+00	 1.055451540384616e+01
0	 4.062499999999999e+00	 1.375000000000000e+00	 1.055860350769231e+01
0	 4.062499999999999e+00	 1.437500000000000e+00	 1.056336896538462e+01
0	 4.062499999999999e+00	 1.500000000000000e+00	 1.056881177692308e+01
0	 4.062500000000000e+00	 1.562500000000000e+00	 1.057493194230769e+01
0	 4.062499999999999e+00	 1.625000000000000e+00	 1.058172946153845e+01
0	 4.062499999999999e+00	 1.687500000000000e+00	 1.058920433461538e+01
0	 4.062499999999999e+00	 1.750000000000000e+00	 1.059735656153846e+01
0	 4.062499999999999e+00	 1.812500000000000e+00	 1.060618614230769e+01
0	 4.062499999999999e+00	 1.875000000000000e+00	 1.061569307692307e+01
0	 4.124999999999998e+00	 1.250000000000000e+00	 1.053039535384616e+01
0	 4.124999999999997e+00	 1.312500000000000e+00	 1.053489735692308e+01
0	 4.124999999999999e+00	 1.375000000000000e+00	 1.053992363076923e+01
0	 4.124999999999998e+00	 1.437500000000000e+00	 1.054547417538462e+01
0	 4.124999999999998e+00	 1.500000000000000e+00	 1.055154899076923e+01
0	 4.124999999999999e+00	 1.562500000000000e+00	 1.055814807692307e+01
0	 4.124999999999999e+00	 1.625000000000000e+00	 1.056527143384615e+01
0	 4.124999999999998e+00	 1.687500000000000e+00	 1.057291906153846e+01
0	 4.124999999999999e+00	 1.750000000000000e+00	 1.058109096000000e+01
0	 4.124999999999997e+00	 1.812500000000000e+00	 1.058978712923077e+01
0	 4.124999999999998e+00	 1.875000000000000e+00	 1.059900756923076e+01
0	 4.187499999999998e+00	 1.250000000000000e+00	 1.051194274615385e+01
0	 4.187499999999998e+00	 1.312500000000000e+00	 1.051734966230769e+01
0	 4.187499999999999e+00	 1.375000000000000e+00	 1.052312776615385e+01
0	 4.187499999999998e+00	 1.437500000000000e+00	 1.052927705769230e+01
0	 4.187500000000000e+00	 1.500000000000001e+00	 1.053579753692307e+01
0	 4.187499999999999e+00	 1.562500000000000e+00	 1.054268920384615e+01
0	 4.187499999999997e+00	 1.625000000000000e+00	 1.054995205846154e+01
0	 4.187499999999999e+00	 1.687500000000000e+00	 1.055758610076924e+01
0	 4.187499999999998e+00	 1.750000000000000e+00	 1.056559133076923e+01
0	 4.187499999999998e+00	 1.812500000000000e+00	 1.057396774846154e+01
0	 4.187499999999998e+00	 1.875000000000000e+00	 1.058271535384616e+01
0	 4.249999999999998e+00	 1.250000000000000e+00	 1.049574683076923e+01
0	 4.249999999999998e+00	 1.312500000000000e+00	 1.050187232000000e+01
0	 4.249999999999998e+00	 1.375000000000000e+00	 1.050821591384615e+01
0	 4.249999999999998e+00	 1.437500000000000e+00	 1.051477761230769e+01
0	 4.249999999999998e+00	 1.500000000000000e+00	 1.052155741538461e+01
0	 4.249999999999998e+00	 1.562500000000000e+00	 1.052855532307692e+01
0	 4.249999999999999e+00	 1.625000000000001e+00	 1.053577133538461e+01
0	 4.249999999999998e+00	 1.687500000000000e+00	 1.054320545230769e+01
0	 4.249999999999998e+00	 1.750000000000000e+00	 1.055085767384615e+01
0	 4.249999999999998e+00	 1.812500000000001e+00	 1.055872800000000e+01
0	 4.249999999999998e+00	 1.875000000000000e+00	 1.056681643076923e+01
0	 4.312499999999998e+00	 1.250000000000000e+00	 1.048180760769230e+01
0	 4.312499999999999e+00	 1.312500000000000e+00	 1.048846533000000e+01
0	 4.312499999999998e+00	 1.375000000000000e+00	 1.049518807384615e+01
0	 4.312499999999997e+00	 1.437500000000000e+00	 1.050197583923076e+01
0	 4.312499999999999e+00	 1.500000000000000e+00	 1.050882862615384e+01
0	 4.312499999999998e+00	 1.562500000000000e+00	 1.051574643461539e+01
0	 4.312499999999998e+00	 1.625000000000000e+00	 1.052272926461538e+01
0	 4.312499999999998e+00	 1.687500000000000e+00	 1.052977711615385e+01
0	 4.312499999999998e+00	 1.750000000000000e+00	 1.053688998923077e+01
0	 4.312499999999998e+00	 1.812500000000000e+00	 1.054406788384615e+01
0	 4.312499999999998e+00	 1.875000000000000e+00	 1.055131080000000e+01
0	 4.375000000000000e+00	 1.250000000000000e+00	 1.047012507692308e+01
0	 4.375000000000000e+00	 1.312500000000000e+00	 1.047712869230769e+01
0	 4.375000000000000e+00	 1.375000000000000e+00	 1.048404424615384e+01
0	 4.375000000000001e+00	 1.437500000000000e+00	 1.049087173846154e+01
0	 4.375000000000000e+00	 1.500000000000000e+00	 1.049761116923077e+01
0	 4.375000000000001e+00	 1.562500000000000e+00	 1.050426253846154e+01
0	 4.375000000000000e+00	 1.625000000000000e+00	 1.051082584615384e+01
0	 4.375000000000000e+00	 1.687500000000000e+00	 1.051730109230769e+01
0	 4.375000000000001e+00	 1.750000000000001e+00	 1.052368827692307e+01
0	 4.375000000000000e+00	 1.812500000000000e+00	 1.052998739999999e+01
0	 4.375000000000000e+00	 1.875000000000000e+00	 1.053619846153846e+01
0	 3.750000000000000e+00	 1.875000000000000e+00	 1.070502000000000e+01
0	 3.750000000000000e+00	 1.937500000000000e+00	 1.069852816923077e+01
0	 3.750000000000000e+00	 2.000000000000000e+00	 1.069255206153846e+01
0	 3.750000000000000e+00	 2.062500000000000e+00	 1.068709167692307e+01
0	 3.750000000000000e+00	 2.125000000000000e+00	 1.068214701538462e+01
0	 3.750000000000000e+00	 2.187500000000000e+00	 1.067771807692308e+01
0	 3.750000000000000e+00	 2.250000000000000e+00	 1.067380486153846e+01
0	 3.750000000000000e+00	 2.312500000000000e+00	 1.067040736923077e+01
0	 3.750000000000000e+00	 2.375000000000001e+00	 1.066752560000001e+01
0	 3.750000000000000e+00	 2.437500000000001e+00	 1.066515955384615e+01
0	 3.750000000000000e+00	 2.500000000000000e+00	 1.066330923076923e+01
0	 3.812500000000000e+00	 1.875000000000000e+00	 1.068636803076923e+01
0	 3.812500000000000e+00	 1.937500000000000e+00	 1.067985549230769e+01
0	 3.812500000000000e+00	 2.000000000000000e+00	 1.067387655692307e+01
0	 3.812500000000000e+00	 2.062500000000000e+00	 1.066843122461538e+01
0	 3.812500000000000e+00	 2.125000000000001e+00	 1.066351949538462e+01
0	 3.812500000000000e+00	 2.187500000000000e+00	 1.065914136923077e+01
0	 3.812500000000000e+00	 2.250000000000000e+00	 1.065529684615384e+01
0	 3.812500000000000e+00	 2.312500000000000e+00	 1.065198592615384e+01
0	 3.812500000000000e+00	 2.375000000000000e+00	 1.064920860923077e+01
0	 3.812499999999999e+00	 2.437500000000000e+00	 1.064696489538461e+01
0	 3.812500000000000e+00	 2.500000000000000e+00	 1.064525478461539e+01
0	 3.874999999999999e+00	 1.875000000000000e+00	 1.066810935384615e+01
0	 3.875000000000000e+00	 1.937500000000000e+00	 1.066162493538461e+01
0	 3.875000000000000e+00	 2.000000000000000e+00	 1.065569200000000e+01
0	 3.875000000000000e+00	 2.062500000000000e+00	 1.065031054769231e+01
0	 3.875000000000000e+00	 2.125000000000000e+00	 1.064548057846153e+01
0	 3.875000000000000e+00	 2.187500000000001e+00	 1.064120209230769e+01
0	 3.875000000000000e+00	 2.250000000000000e+00	 1.063747508923077e+01
0	 3.875000000000000e+00	 2.312500000000000e+00	 1.063429956923076e+01
0	 3.875000000000000e+00	 2.375000000000000e+00	 1.063167553230770e+01
0	 3.875000000000000e+00	 2.437500000000000e+00	 1.062960297846153e+01
0	 3.874999999999999e+00	 2.500000000000000e+00	 1.062808190769230e+01
0	 3.937499999999999e+00	 1.875000000000000e+00	 1.065024396923077e+01
0	 3.937500000000000e+00	 1.937500000000000e+00	 1.064383649846154e+01
0	 3.937500000000000e+00	 2.000000000000000e+00	 1.063799839076922e+01
0	 3.937499999999999e+00	 2.062500000000000e+00	 1.063272964615384e+01
0	 3.937499999999999e+00	 2.125000000000001e+00	 1.062803026461538e+01
0	 3.937499999999999e+00	 2.187500000000000e+00	 1.062390024615384e+01
0	 3.937499999999999e+00	 2.250000000000000e+00	 1.062033959076923e+01
0	 3.937500000000000e+00	 2.312500000000000e+00	 1.061734829846154e+01
0	 3.937500000000000e+00	 2.375000000000000e+00	 1.061492636923077e+01
0	 3.937500000000000e+00	 2.437500000000000e+00	 1.061307380307692e+01
0	 3.937499999999999e+00	 2.500000000000000e+00	 1.061179060000001e+01
0	 3.999999999999999e+00	 1.875000000000000e+00	 1.063277187692307e+01
0	 3.999999999999999e+00	 1.937500000000000e+00	 1.062649018153845e+01
0	 3.999999999999998e+00	 2.000000000000000e+00	 1.062079572923077e+01
0	 3.999999999999999e+00	 2.062500000000000e+00	 1.061568852000000e+01
0	 4.000000000000000e+00	 2.125000000000000e+00	 1.061116855384616e+01
0	 3.999999999999999e+00	 2.187500000000000e+00	 1.060723583076923e+01
0	 4.000000000000000e+00	 2.250000000000000e+00	 1.060389035076924e+01
0	 3.999999999999999e+00	 2.312500000000000e+00	 1.060113211384615e+01
0	 4.000000000000000e+00	 2.375000000000000e+00	 1.059896112000000e+01
0	 4.000000000000000e+00	 2.437500000000000e+00	 1.059737736923077e+01
0	 3.999999999999999e+00	 2.500000000000000e+00	 1.059638086153846e+01
0	 4.062499999999999e+00	 1.875000000000000e+00	 1.061569307692307e+01
0	 4.062499999999998e+00	 1.937500000000000e+00	 1.060958598461538e+01
0	 4.062499999999999e+00	 2.000000000000000e+00	 1.060408401538461e+01
0	 4.062499999999999e+00	 2.062500000000000e+00	 1.059918716923077e+01
0	 4.062499999999999e+00	 2.125000000000000e+00	 1.059489544615384e+01
0	 4.062500000000000e+00	 2.187500000000000e+00	 1.059120884615384e+01
0	 4.062499999999999e+00	 2.250000000000000e+00	 1.058812736923077e+01
0	 4.062499999999999e+00	 2.312500000000001e+00	 1.058565101538461e+01
0	 4.062499999999999e+00	 2.375000000000000e+00	 1.058377978461538e+01
0	 4.062499999999999e+00	 2.437500000000000e+00	 1.058251367692306e+01
0	 4.062499999999999e+00	 2.500000000000000e+00	 1.058185269230769e+01
0	 4.124999999999998e+00	 1.875000000000000e+00	 1.059900756923076e+01
0	 4.124999999999997e+00	 1.937500000000000e+00	 1.059312390769230e+01
0	 4.124999999999999e+00	 2.000000000000000e+00	 1.058786324923077e+01
0	 4.124999999999998e+00	 2.062500000000000e+00	 1.058322559384616e+01
0	 4.124999999999998e+00	 2.125000000000000e+00	 1.057921094153846e+01
0	 4.124999999999999e+00	 2.187500000000000e+00	 1.057581929230769e+01
0	 4.124999999999999e+00	 2.250000000000000e+00	 1.057305064615385e+01
0	 4.124999999999998e+00	 2.312500000000000e+00	 1.057090500307692e+01
0	 4.124999999999999e+00	 2.375000000000001e+00	 1.056938236307692e+01
0	 4.124999999999997e+00	 2.437500000000000e+00	 1.056848272615385e+01
0	 4.124999999999998e+00	 2.500000000000000e+00	 1.056820609230770e+01
0	 4.187499999999998e+00	 1.875000000000000e+00	 1.058271535384616e+01
0	 4.187499999999998e+00	 1.937500000000000e+00	 1.057710395076923e+01
0	 4.187499999999999e+00	 2.000000000000001e+00	 1.057213343076923e+01
0	 4.187499999999998e+00	 2.062500000000000e+00	 1.056780379384615e+01
0	 4.187500000000000e+00	 2.125000000000001e+00	 1.056411503999999e+01
0	 4.187499999999999e+00	 2.187500000000000e+00	 1.056106716923076e+01
0	 4.187499999999997e+00	 2.250000000000000e+00	 1.055866018153846e+01
0	 4.187499999999999e+00	 2.312500000000001e+00	 1.055689407692308e+01
0	 4.187499999999998e+00	 2.375000000000000e+00	 1.055576885538461e+01
0	 4.187499999999998e+00	 2.437500000000000e+00	 1.055528451692307e+01
0	 4.187499999999998e+00	 2.500000000000000e+00	 1.055544106153847e+01
0	 4.249999999999998e+00	 1.875000000000000e+00	 1.056681643076923e+01
0	 4.249999999999998e+00	 1.937500000000000e+00	 1.056152611384615e+01
0	 4.249999999999998e+00	 2.000000000000000e+00	 1.055689456000000e+01
0	 4.249999999999998e+00	 2.062500000000000e+00	 1.055292176923077e+01
0	 4.249999999999998e+00	 2.125000000000000e+00	 1.054960774153846e+01
0	 4.249999999999998e+00	 2.187500000000000e+00	 1.054695247692307e+01
0	 4.249999999999999e+00	 2.250000000000000e+00	 1.054495597538461e+01
0	 4.249999999999998e+00	 2.312500000000000e+00	 1.054361823692307e+01
0	 4.249999999999998e+00	 2.375000000000000e+00	 1.054293926153846e+01
0	 4.249999999999998e+00	 2.437500000000001e+00	 1.054291904923077e+01
0	 4.249999999999998e+00	 2.500000000000000e+00	 1.054355760000000e+01
0	 4.312499999999998e+00	 1.875000000000000e+00	 1.055131080000000e+01
0	 4.312499999999999e+00	 1.937500000000000e+00	 1.054639039692307e+01
0	 4.312499999999998e+00	 2.000000000000000e+00	 1.054214663692308e+01
0	 4.312499999999997e+00	 2.062500000000000e+00	 1.053857952000000e+01
0	 4.312499999999999e+00	 2.125000000000000e+00	 1.053568904615384e+01
0	 4.312499999999998e+00	 2.187500000000000e+00	 1.053347521538461e+01
0	 4.312499999999998e+00	 2.250000000000000e+00	 1.053193802769230e+01
0	 4.312499999999998e+00	 2.312500000000000e+00	 1.053107748307692e+01
0	 4.312499999999998e+00	 2.375000000000000e+00	 1.053089358153846e+01
0	 4.312499999999998e+00	 2.437500000000000e+00	 1.053138632307692e+01
0	 4.312499999999998e+00	 2.500000000000000e+00	 1.053255570769230e+01
0	 4.375000000000000e+00	 1.875000000000000e+00	 1.053619846153846e+01
0	 4.375000000000000e+00	 1.937500000000000e+00	 1.053169680000000e+01
0	 4.375000000000000e+00	 2.000000000000000e+00	 1.052788966153846e+01
0	 4.375000000000001e+00	 2.062500000000000e+00	 1.052477704615384e+01
0	 4.375000000000000e+00	 2.125000000000000e+00	 1.052235895384615e+01
0	 4.375000000000001e+00	 2.187500000000000e+00	 1.052063538461538e+01
0	 4.375000000000000e+00	 2.250000000000000e+00	 1.051960633846153e+01
0	 4.375000000000000e+00	 2.312500000000000e+00	 1.051927181538461e+01
0	 4.375000000000001e+00	 2.375000000000001e+00	 1.051963181538462e+01
0	 4.375000000000000e+00	 2.437500000000001e+00	 1.052068633846154e+01
0	 4.375000000000000e+00	 2.500000000000000e+00	 1.052243538461538e+01
0	 3.750000000000000e+00	 2.500000000000000e+00	 1.066330923076923e+01
0	 3.750000000000000e+00	 2.562500000000000e+00	 1.064649989230770e+01
0	 3.750000000000001e+00	 2.625000000000000e+00	 1.063053064615385e+01
0	 3.750000000000000e+00	 2.687499999999999e+00	 1.061540149230769e+01
0	 3.750000000000000e+00	 2.750000000000000e+00	 1.060111243076923e+01
0	 3.750000000000000e+00	 2.812499999999999e+00	 1.058766346153847e+01
0	 3.750000000000000e+00	 2.874999999999999e+00	 1.057505458461538e+01
0	 3.750000000000000e+00	 2.937499999999998e+00	 1.056328580000000e+01
0	 3.750000000000000e+00	 2.999999999999998e+00	 1.055235710769231e+01
0	 3.750000000000000e+00	 3.062499999999998e+00	 1.054226850769232e+01
0	 3.750000000000000e+00	 3.125000000000000e+00	 1.053302000000000e+01
0	 3.812500000000000e+00	 2.500000000000000e+00	 1.064525478461539e+01
0	 3.812500000000000e+00	 2.562500000000000e+00	 1.063009604923078e+01
0	 3.812500000000000e+00	 2.624999999999999e+00	 1.061573205538461e+01
0	 3.812500000000000e+00	 2.687499999999999e+00	 1.060216280307692e+01
0	 3.812500000000000e+00	 2.750000000000000e+00	 1.058938829230770e+01
0	 3.812500000000000e+00	 2.812499999999999e+00	 1.057740852307693e+01
0	 3.812500000000000e+00	 2.875000000000000e+00	 1.056622349538462e+01
0	 3.812500000000000e+00	 2.937499999999999e+00	 1.055583320923077e+01
0	 3.812500000000001e+00	 2.999999999999999e+00	 1.054623766461538e+01
0	 3.812499999999999e+00	 3.062499999999997e+00	 1.053743686153847e+01
0	 3.812500000000000e+00	 3.125000000000000e+00	 1.052943079999999e+01
0	 3.874999999999999e+00	 2.500000000000000e+00	 1.062808190769230e+01
0	 3.875000000000000e+00	 2.562500000000000e+00	 1.061443319384616e+01
0	 3.875000000000000e+00	 2.625000000000000e+00	 1.060153387076923e+01
0	 3.875000000000000e+00	 2.687500000000000e+00	 1.058938393846154e+01
0	 3.874999999999998e+00	 2.749999999999999e+00	 1.057798339692308e+01
0	 3.875000000000000e+00	 2.812499999999999e+00	 1.056733224615385e+01
0	 3.874999999999998e+00	 2.874999999999999e+00	 1.055743048615385e+01
0	 3.875000000000000e+00	 2.937499999999999e+00	 1.054827811692308e+01
0	 3.874999999999999e+00	 2.999999999999998e+00	 1.053987513846154e+01
0	 3.875000000000000e+00	 3.062499999999999e+00	 1.053222155076922e+01
0	 3.874999999999999e+00	 3.125000000000000e+00	 1.052531735384616e+01
0	 3.937499999999999e+00	 2.500000000000000e+00	 1.061179060000001e+01
0	 3.937500000000000e+00	 2.562500000000000e+00	 1.059951132615384e+01
0	 3.937500000000000e+00	 2.625000000000000e+00	 1.058793609230770e+01
0	 3.937500000000000e+00	 2.687499999999999e+00	 1.057706489846153e+01
0	 3.937500000000000e+00	 2.749999999999999e+00	 1.056689774461539e+01
0	 3.937499999999999e+00	 2.812499999999999e+00	 1.055743463076924e+01
0	 3.937500000000000e+00	 2.874999999999999e+00	 1.054867555692308e+01
0	 3.937499999999999e+00	 2.937499999999999e+00	 1.054062052307693e+01
0	 3.937500000000000e+00	 2.999999999999999e+00	 1.053326952923077e+01
0	 3.937499999999998e+00	 3.062499999999998e+00	 1.052662257538462e+01
0	 3.937499999999999e+00	 3.125000000000000e+00	 1.052067966153846e+01
0	 3.999999999999999e+00	 2.500000000000000e+00	 1.059638086153846e+01
0	 3.999999999999999e+00	 2.562500000000000e+00	 1.058533044615385e+01
0	 4.000000000000000e+00	 2.625000000000000e+00	 1.057493872000000e+01
0	 3.999999999999999e+00	 2.687500000000000e+00	 1.056520568307692e+01
0	 3.999999999999999e+00	 2.750000000000000e+00	 1.055613133538462e+01
0	 3.999999999999999e+00	 2.812499999999999e+00	 1.054771567692308e+01
0	 3.999999999999999e+00	 2.874999999999999e+00	 1.053995870769231e+01
0	 3.999999999999999e+00	 2.937499999999998e+00	 1.053286042769231e+01
0	 3.999999999999999e+00	 2.999999999999999e+00	 1.052642083692309e+01
0	 3.999999999999999e+00	 3.062499999999998e+00	 1.052063993538462e+01
0	 3.999999999999999e+00	 3.125000000000000e+00	 1.051551772307693e+01
0	 4.062499999999999e+00	 2.500000000000000e+00	 1.058185269230769e+01
0	 4.062499999999999e+00	 2.562499999999999e+00	 1.057189055384615e+01
0	 4.062499999999999e+00	 2.625000000000000e+00	 1.056254175384615e+01
0	 4.062500000000000e+00	 2.687500000000000e+00	 1.055380629230770e+01
0	 4.062499999999997e+00	 2.749999999999999e+00	 1.054568416923077e+01
0	 4.062499999999999e+00	 2.812499999999999e+00	 1.053817538461539e+01
0	 4.062500000000000e+00	 2.874999999999999e+00	 1.053127993846154e+01
0	 4.062499999999999e+00	 2.937499999999998e+00	 1.052499783076923e+01
0	 4.062499999999999e+00	 2.999999999999998e+00	 1.051932906153846e+01
0	 4.062499999999999e+00	 3.062499999999998e+00	 1.051427363076924e+01
0	 4.062499999999999e+00	 3.125000000000000e+00	 1.050983153846154e+01
0	 4.124999999999998e+00	 2.500000000000000e+00	 1.056820609230770e+01
0	 4.124999999999998e+00	 2.562500000000000e+00	 1.055919164923077e+01
0	 4.124999999999998e+00	 2.625000000000000e+00	 1.055074519384615e+01
0	 4.124999999999997e+00	 2.687500000000000e+00	 1.054286672615384e+01
0	 4.125000000000000e+00	 2.750000000000000e+00	 1.053555624615385e+01
0	 4.124999999999999e+00	 2.812500000000000e+00	 1.052881375384615e+01
0	 4.124999999999999e+00	 2.874999999999999e+00	 1.052263924923077e+01
0	 4.124999999999999e+00	 2.937499999999999e+00	 1.051703273230770e+01
0	 4.124999999999998e+00	 2.999999999999999e+00	 1.051199420307692e+01
0	 4.124999999999998e+00	 3.062499999999998e+00	 1.050752366153846e+01
0	 4.124999999999998e+00	 3.125000000000000e+00	 1.050362110769230e+01
0	 4.187499999999998e+00	 2.500000000000000e+00	 1.055544106153847e+01
0	 4.187499999999998e+00	 2.562500000000000e+00	 1.054723373230769e+01
0	 4.187499999999999e+00	 2.625000000000000e+00	 1.053954904000000e+01
0	 4.187499999999999e+00	 2.687500000000000e+00	 1.053238698461538e+01
0	 4.187499999999998e+00	 2.749999999999999e+00	 1.052574756615384e+01
0	 4.187500000000000e+00	 2.812499999999999e+00	 1.051963078461538e+01
0	 4.187499999999999e+00	 2.874999999999999e+00	 1.051403664000000e+01
0	 4.187499999999999e+00	 2.937499999999998e+00	 1.050896513230769e+01
0	 4.187499999999998e+00	 2.999999999999998e+00	 1.050441626153846e+01
0	 4.187499999999999e+00	 3.062499999999998e+00	 1.050039002769232e+01
0	 4.187499999999998e+00	 3.125000000000000e+00	 1.049688643076923e+01
0	 4.249999999999998e+00	 2.500000000000000e+00	 1.054355760000000e+01
0	 4.250000000000000e+00	 2.562500000000001e+00	 1.053601680307692e+01
0	 4.249999999999998e+00	 2.625000000000000e+00	 1.052895329230769e+01
0	 4.249999999999998e+00	 2.687500000000000e+00	 1.052236706769230e+01
0	 4.249999999999998e+00	 2.749999999999999e+00	 1.051625812923076e+01
0	 4.249999999999998e+00	 2.812499999999999e+00	 1.051062647692308e+01
0	 4.249999999999998e+00	 2.874999999999999e+00	 1.050547211076923e+01
0	 4.249999999999998e+00	 2.937499999999998e+00	 1.050079503076923e+01
0	 4.249999999999998e+00	 2.999999999999998e+00	 1.049659523692308e+01
0	 4.249999999999998e+00	 3.062499999999998e+00	 1.049287272923077e+01
0	 4.249999999999998e+00	 3.125000000000000e+00	 1.048962750769230e+01
0	 4.312499999999998e+00	 2.500000000000000e+00	 1.053255570769230e+01
0	 4.312499999999999e+00	 2.562500000000000e+00	 1.052554086153846e+01
0	 4.312499999999998e+00	 2.625000000000000e+00	 1.051895795076923e+01
0	 4.312499999999998e+00	 2.687500000000000e+00	 1.051280697538461e+01
0	 4.312499999999998e+00	 2.749999999999999e+00	 1.050708793538461e+01
0	 4.312499999999998e+00	 2.812499999999999e+00	 1.050180083076923e+01
0	 4.312499999999997e+00	 2.874999999999999e+00	 1.049694566153846e+01
0	 4.312499999999997e+00	 2.937499999999998e+00	 1.049252242769230e+01
0	 4.312499999999998e+00	 2.999999999999998e+00	 1.048853112923077e+01
0	 4.312499999999998e+00	 3.062499999999998e+00	 1.048497176615384e+01
0	 4.312499999999998e+00	 3.125000000000000e+00	 1.048184433846154e+01
0	 4.375000000000000e+00	 2.500000000000000e+00	 1.052243538461538e+01
0	 4.375000000000000e+00	 2.562500000000000e+00	 1.051580590769232e+01
0	 4.375000000000001e+00	 2.625000000000000e+00	 1.050956301538461e+01
0	 4.375000000000000e+00	 2.687499999999999e+00	 1.050370670769230e+01
0	 4.375000000000000e+00	 2.750000000000000e+00	 1.049823698461538e+01
0	 4.375000000000000e+00	 2.812499999999999e+00	 1.049315384615385e+01
0	 4.375000000000000e+00	 2.874999999999999e+00	 1.048845729230768e+01
0	 4.375000000000000e+00	 2.937499999999998e+00	 1.048414732307692e+01
0	 4.375000000000000e+00	 2.999999999999998e+00	 1.048022393846153e+01
0	 4.375000000000000e+00	 3.062499999999998e+00	 1.047668713846154e+01
0	 4.375000000000000e+00	 3.125000000000000e+00	 1.047353692307692e+01
0	 3.750000000000000e+00	 3.125000000000000e+00	 1.053302000000000e+01
0	 3.750000000000000e+00	 3.187500000000000e+00	 1.051937755384614e+01
0	 3.750000000000001e+00	 3.250000000000000e+00	 1.050593513846153e+01
0	 3.750000000000000e+00	 3.312499999999999e+00	 1.049269275384615e+01
0	 3.750000000000000e+00	 3.374999999999999e+00	 1.047965040000000e+01
0	 3.750000000000000e+00	 3.437499999999999e+00	 1.046680807692307e+01
0	 3.750000000000000e+00	 3.499999999999999e+00	 1.045416578461538e+01
0	 3.750000000000000e+00	 3.562499999999998e+00	 1.044172352307692e+01
0	 3.750000000000000e+00	 3.624999999999999e+00	 1.042948129230769e+01
0	 3.750000000000000e+00	 3.687499999999998e+00	 1.041743909230768e+01
0	 3.750000000000000e+00	 3.750000000000000e+00	 1.040559692307692e+01
0	 3.812500000000000e+00	 3.125000000000000e+00	 1.052943079999999e+01
0	 3.812500000000000e+00	 3.187500000000000e+00	 1.051610971076923e+01
0	 3.812500000000000e+00	 3.250000000000000e+00	 1.050300618153846e+01
0	 3.812500000000000e+00	 3.312499999999999e+00	 1.049012021230769e+01
0	 3.812500000000000e+00	 3.374999999999999e+00	 1.047745180307692e+01
0	 3.812500000000000e+00	 3.437499999999999e+00	 1.046500095384615e+01
0	 3.812500000000000e+00	 3.500000000000000e+00	 1.045276766461538e+01
0	 3.812500000000000e+00	 3.562499999999999e+00	 1.044075193538462e+01
0	 3.812500000000001e+00	 3.625000000000000e+00	 1.042895376615384e+01
0	 3.812499999999999e+00	 3.687499999999997e+00	 1.041737315692307e+01
0	 3.812500000000000e+00	 3.750000000000000e+00	 1.040601010769232e+01
0	 3.874999999999999e+00	 3.125000000000000e+00	 1.052531735384616e+01
0	 3.875000000000000e+00	 3.187500000000000e+00	 1.051232656000000e+01
0	 3.875000000000000e+00	 3.250000000000000e+00	 1.049957085538461e+01
0	 3.875000000000000e+00	 3.312500000000000e+00	 1.048705024000000e+01
0	 3.874999999999998e+00	 3.374999999999999e+00	 1.047476471384615e+01
0	 3.875000000000000e+00	 3.437499999999999e+00	 1.046271427692308e+01
0	 3.874999999999998e+00	 3.499999999999997e+00	 1.045089892923077e+01
0	 3.875000000000000e+00	 3.562499999999999e+00	 1.043931867076923e+01
0	 3.874999999999999e+00	 3.624999999999998e+00	 1.042797350153846e+01
0	 3.875000000000000e+00	 3.687499999999999e+00	 1.041686342153846e+01
0	 3.874999999999999e+00	 3.750000000000000e+00	 1.040598843076923e+01
0	 3.937499999999999e+00	 3.125000000000000e+00	 1.052067966153846e+01
0	 3.937500000000000e+00	 3.187500000000000e+00	 1.050802810153847e+01
0	 3.937500000000000e+00	 3.250000000000000e+00	 1.049562916000000e+01
0	 3.937500000000000e+00	 3.312500000000000e+00	 1.048348283692308e+01
0	 3.937500000000000e+00	 3.374999999999999e+00	 1.047158913230770e+01
0	 3.937499999999999e+00	 3.437499999999999e+00	 1.045994804615384e+01
0	 3.937500000000000e+00	 3.499999999999998e+00	 1.044855957846154e+01
0	 3.937499999999999e+00	 3.562499999999998e+00	 1.043742372923077e+01
0	 3.937500000000000e+00	 3.624999999999998e+00	 1.042654049846154e+01
0	 3.937499999999998e+00	 3.687499999999998e+00	 1.041590988615385e+01
0	 3.937499999999999e+00	 3.750000000000000e+00	 1.040553189230770e+01
0	 3.999999999999999e+00	 3.125000000000000e+00	 1.051551772307693e+01
0	 3.999999999999999e+00	 3.187500000000000e+00	 1.050321433538462e+01
0	 4.000000000000000e+00	 3.250000000000000e+00	 1.049118109538462e+01
0	 3.999999999999999e+00	 3.312500000000000e+00	 1.047941800307692e+01
0	 3.999999999999999e+00	 3.374999999999999e+00	 1.046792505846153e+01
0	 3.999999999999999e+00	 3.437499999999999e+00	 1.045670226153847e+01
0	 3.999999999999999e+00	 3.499999999999998e+00	 1.044574961230769e+01
0	 3.999999999999999e+00	 3.562499999999998e+00	 1.043506711076924e+01
0	 3.999999999999999e+00	 3.624999999999999e+00	 1.042465475692308e+01
0	 3.999999999999999e+00	 3.687499999999998e+00	 1.041451255076923e+01
0	 3.999999999999999e+00	 3.750000000000000e+00	 1.040464049230770e+01
0	 4.062499999999999e+00	 3.125000000000000e+00	 1.050983153846154e+01
0	 4.062499999999999e+00	 3.187500000000000e+00	 1.049788526153846e+01
0	 4.062499999999999e+00	 3.250000000000000e+00	 1.048622666153847e+01
0	 4.062500000000000e+00	 3.312500000000000e+00	 1.047485573846154e+01
0	 4.062499999999997e+00	 3.374999999999998e+00	 1.046377249230770e+01
0	 4.062499999999999e+00	 3.437499999999999e+00	 1.045297692307692e+01
0	 4.062500000000000e+00	 3.499999999999999e+00	 1.044246903076923e+01
0	 4.062499999999999e+00	 3.562499999999999e+00	 1.043224881538462e+01
0	 4.062499999999999e+00	 3.624999999999998e+00	 1.042231627692308e+01
0	 4.062499999999999e+00	 3.687499999999999e+00	 1.041267141538463e+01
0	 4.062499999999999e+00	 3.750000000000000e+00	 1.040331423076923e+01
0	 4.124999999999998e+00	 3.125000000000000e+00	 1.050362110769230e+01
0	 4.124999999999998e+00	 3.187500000000000e+00	 1.049204088000000e+01
0	 4.124999999999998e+00	 3.249999999999999e+00	 1.048076585846155e+01
0	 4.124999999999997e+00	 3.312499999999999e+00	 1.046979604307692e+01
0	 4.125000000000000e+00	 3.375000000000000e+00	 1.045913143384616e+01
0	 4.124999999999999e+00	 3.437500000000000e+00	 1.044877203076924e+01
0	 4.124999999999999e+00	 3.499999999999999e+00	 1.043871783384616e+01
0	 4.124999999999999e+00	 3.562499999999999e+00	 1.042896884307692e+01
0	 4.124999999999998e+00	 3.624999999999999e+00	 1.041952505846154e+01
0	 4.124999999999998e+00	 3.687499999999998e+00	 1.041038648000001e+01
0	 4.124999999999998e+00	 3.750000000000000e+00	 1.040155310769231e+01
0	 4.187499999999998e+00	 3.125000000000000e+00	 1.049688643076923e+01
0	 4.187499999999998e+00	 3.187500000000000e+00	 1.048568119076923e+01
0	 4.187499999999999e+00	 3.250000000000000e+00	 1.047479868615385e+01
0	 4.187499999999999e+00	 3.312500000000000e+00	 1.046423891692308e+01
0	 4.187499999999998e+00	 3.374999999999999e+00	 1.045400188307692e+01
0	 4.187500000000000e+00	 3.437499999999999e+00	 1.044408758461538e+01
0	 4.187499999999999e+00	 3.499999999999999e+00	 1.043449602153847e+01
0	 4.187499999999999e+00	 3.562499999999999e+00	 1.042522719384615e+01
0	 4.187499999999998e+00	 3.624999999999998e+00	 1.041628110153848e+01
0	 4.187499999999999e+00	 3.687499999999999e+00	 1.040765774461539e+01
0	 4.187499999999998e+00	 3.750000000000000e+00	 1.039935712307693e+01
0	 4.249999999999998e+00	 3.125000000000000e+00	 1.048962750769230e+01
0	 4.250000000000000e+00	 3.187500000000001e+00	 1.047880619384616e+01
0	 4.249999999999998e+00	 3.250000000000000e+00	 1.046832514461539e+01
0	 4.249999999999998e+00	 3.312500000000000e+00	 1.045818436000000e+01
0	 4.249999999999998e+00	 3.374999999999999e+00	 1.044838384000000e+01
0	 4.249999999999998e+00	 3.437499999999999e+00	 1.043892358461538e+01
0	 4.249999999999998e+00	 3.499999999999998e+00	 1.042980359384615e+01
0	 4.249999999999998e+00	 3.562499999999998e+00	 1.042102386769231e+01
0	 4.249999999999998e+00	 3.624999999999998e+00	 1.041258440615385e+01
0	 4.249999999999998e+00	 3.687499999999998e+00	 1.040448520923077e+01
0	 4.249999999999998e+00	 3.750000000000000e+00	 1.039672627692309e+01
0	 4.312499999999998e+00	 3.125000000000000e+00	 1.048184433846154e+01
0	 4.312499999999999e+00	 3.187500000000000e+00	 1.047141588923077e+01
0	 4.312499999999998e+00	 3.250000000000000e+00	 1.046134523384615e+01
0	 4.312499999999998e+00	 3.312500000000000e+00	 1.045163237230769e+01
0	 4.312499999999998e+00	 3.374999999999999e+00	 1.044227730461538e+01
0	 4.312499999999998e+00	 3.437500000000000e+00	 1.043328003076923e+01
0	 4.312499999999997e+00	 3.499999999999998e+00	 1.042464055076923e+01
0	 4.312499999999997e+00	 3.562499999999998e+00	 1.041635886461539e+01
0	 4.312499999999998e+00	 3.624999999999998e+00	 1.040843497230769e+01
0	 4.312499999999998e+00	 3.687499999999997e+00	 1.040086887384615e+01
0	 4.312499999999998e+00	 3.750000000000000e+00	 1.039366056923077e+01
0	 4.375000000000000e+00	 3.125000000000000e+00	 1.047353692307692e+01
0	 4.375000000000000e+00	 3.187500000000000e+00	 1.046351027692305e+01
0	 4.375000000000001e+00	 3.250000000000000e+00	 1.045385895384614e+01
0	 4.375000000000000e+00	 3.312499999999999e+00	 1.044458295384615e+01
0	 4.375000000000000e+00	 3.374999999999999e+00	 1.043568227692307e+01
0	 4.375000000000000e+00	 3.437499999999999e+00	 1.042715692307692e+01
0	 4.375000000000000e+00	 3.499999999999999e+00	 1.041900689230770e+01
0	 4.375000000000000e+00	 3.562499999999998e+00	 1.041123218461539e+01
0	 4.375000000000000e+00	 3.624999999999999e+00	 1.040383280000000e+01
0	 4.375000000000000e+00	 3.687499999999998e+00	 1.039680873846153e+01
0	 4.375000000000000e+00	 3.750000000000000e+00	 1.039016000000001e+01
0	 3.750000000000000e+00	 3.750000000000000e+00	 1.040559692307692e+01
0	 3.750000000000000e+00	 3.812500000000000e+00	 1.039307803076923e+01
0	 3.750000000000001e+00	 3.875000000000000e+00	 1.038069427692308e+01
0	 3.750000000000000e+00	 3.937499999999999e+00	 1.036844566153845e+01
0	 3.750000000000000e+00	 4.000000000000000e+00	 1.035633218461538e+01
0	 3.750000000000000e+00	 4.062499999999999e+00	 1.034435384615385e+01
0	 3.750000000000000e+00	 4.124999999999999e+00	 1.033251064615384e+01
0	 3.750000000000000e+00	 4.187499999999998e+00	 1.032080258461538e+01
0	 3.750000000000000e+00	 4.249999999999998e+00	 1.030922966153846e+01
0	 3.750000000000000e+00	 4.312499999999998e+00	 1.029779187692309e+01
0	 3.750000000000000e+00	 4.375000000000000e+00	 1.028648923076923e+01
0	 3.812500000000000e+00	 3.750000000000000e+00	 1.040601010769232e+01
0	 3.812500000000000e+00	 3.812500000000000e+00	 1.039399933076923e+01
0	 3.812500000000000e+00	 3.875000000000000e+00	 1.038212239076923e+01
0	 3.812500000000000e+00	 3.937500000000000e+00	 1.037037928769231e+01
0	 3.812500000000000e+00	 3.999999999999999e+00	 1.035877002153845e+01
0	 3.812500000000000e+00	 4.062499999999999e+00	 1.034729459230769e+01
0	 3.812500000000000e+00	 4.125000000000000e+00	 1.033595300000001e+01
0	 3.812500000000000e+00	 4.187500000000000e+00	 1.032474524461539e+01
0	 3.812500000000001e+00	 4.250000000000000e+00	 1.031367132615383e+01
0	 3.812499999999999e+00	 4.312499999999997e+00	 1.030273124461538e+01
0	 3.812500000000000e+00	 4.375000000000000e+00	 1.029192500000000e+01
0	 3.874999999999999e+00	 3.750000000000000e+00	 1.040598843076923e+01
0	 3.875000000000000e+00	 3.812500000000000e+00	 1.039445462461538e+01
0	 3.875000000000000e+00	 3.875000000000000e+00	 1.038305335384615e+01
0	 3.875000000000000e+00	 3.937500000000000e+00	 1.037178461846153e+01
0	 3.874999999999998e+00	 3.999999999999999e+00	 1.036064841846154e+01
0	 3.875000000000000e+00	 4.062499999999999e+00	 1.034964475384615e+01
0	 3.874999999999998e+00	 4.124999999999997e+00	 1.033877362461540e+01
0	 3.875000000000000e+00	 4.187499999999998e+00	 1.032803503076923e+01
0	 3.874999999999999e+00	 4.249999999999998e+00	 1.031742897230769e+01
0	 3.875000000000000e+00	 4.312499999999998e+00	 1.030695544923078e+01
0	 3.874999999999999e+00	 4.375000000000000e+00	 1.029661446153844e+01
0	 3.937499999999999e+00	 3.750000000000000e+00	 1.040553189230770e+01
0	 3.937500000000000e+00	 3.812500000000000e+00	 1.039444391230769e+01
0	 3.937500000000000e+00	 3.875000000000000e+00	 1.038348716615384e+01
0	 3.937500000000000e+00	 3.937500000000000e+00	 1.037266165384616e+01
0	 3.937500000000000e+00	 3.999999999999999e+00	 1.036196737538461e+01
0	 3.937499999999999e+00	 4.062500000000000e+00	 1.035140433076922e+01
0	 3.937500000000000e+00	 4.124999999999998e+00	 1.034097252000000e+01
0	 3.937499999999999e+00	 4.187499999999999e+00	 1.033067194307693e+01
0	 3.937500000000000e+00	 4.249999999999998e+00	 1.032050259999999e+01
0	 3.937499999999998e+00	 4.312499999999997e+00	 1.031046449076923e+01
0	 3.937499999999999e+00	 4.375000000000000e+00	 1.030055761538462e+01
0	 3.999999999999999e+00	 3.750000000000000e+00	 1.040464049230770e+01
0	 3.999999999999999e+00	 3.812500000000000e+00	 1.039396719384615e+01
0	 4.000000000000000e+00	 3.875000000000000e+00	 1.038342382769230e+01
0	 3.999999999999999e+00	 3.937500000000000e+00	 1.037301039384615e+01
0	 3.999999999999999e+00	 3.999999999999999e+00	 1.036272689230770e+01
0	 3.999999999999999e+00	 4.062499999999999e+00	 1.035257332307692e+01
0	 3.999999999999999e+00	 4.124999999999998e+00	 1.034254968615384e+01
0	 3.999999999999999e+00	 4.187499999999999e+00	 1.033265598153846e+01
0	 3.999999999999999e+00	 4.249999999999998e+00	 1.032289220923077e+01
0	 3.999999999999999e+00	 4.312499999999998e+00	 1.031325836923076e+01
0	 3.999999999999999e+00	 4.375000000000000e+00	 1.030375446153846e+01
0	 4.062499999999999e+00	 3.750000000000000e+00	 1.040331423076923e+01
0	 4.062499999999999e+00	 3.812500000000000e+00	 1.039302446923078e+01
0	 4.062499999999999e+00	 3.875000000000000e+00	 1.038286333846154e+01
0	 4.062500000000000e+00	 3.937499999999999e+00	 1.037283083846154e+01
0	 4.062499999999997e+00	 3.999999999999998e+00	 1.036292696923076e+01
0	 4.062499999999999e+00	 4.062499999999999e+00	 1.035315173076923e+01
0	 4.062500000000000e+00	 4.125000000000000e+00	 1.034350512307692e+01
0	 4.062499999999999e+00	 4.187499999999998e+00	 1.033398714615384e+01
0	 4.062499999999999e+00	 4.249999999999998e+00	 1.032459779999999e+01
0	 4.062499999999999e+00	 4.312499999999998e+00	 1.031533708461538e+01
0	 4.062499999999999e+00	 4.375000000000000e+00	 1.030620500000000e+01
0	 4.124999999999998e+00	 3.750000000000000e+00	 1.040155310769231e+01
0	 4.124999999999998e+00	 3.812500000000000e+00	 1.039161573846155e+01
0	 4.124999999999998e+00	 3.874999999999999e+00	 1.038180569846154e+01
0	 4.124999999999997e+00	 3.937500000000000e+00	 1.037212298769230e+01
0	 4.125000000000000e+00	 4.000000000000000e+00	 1.036256760615384e+01
0	 4.124999999999999e+00	 4.062500000000000e+00	 1.035313955384617e+01
0	 4.124999999999999e+00	 4.124999999999999e+00	 1.034383883076923e+01
0	 4.124999999999999e+00	 4.187499999999998e+00	 1.033466543692307e+01
0	 4.124999999999998e+00	 4.249999999999999e+00	 1.032561937230768e+01
0	 4.124999999999998e+00	 4.312499999999997e+00	 1.031670063692308e+01
0	 4.124999999999998e+00	 4.375000000000000e+00	 1.030790923076923e+01
0	 4.187499999999998e+00	 3.750000000000000e+00	 1.039935712307693e+01
0	 4.187499999999998e+00	 3.812500000000000e+00	 1.038974100153845e+01
0	 4.187499999999999e+00	 3.875000000000000e+00	 1.038025090769231e+01
0	 4.187499999999999e+00	 3.937499999999999e+00	 1.037088684153846e+01
0	 4.187499999999998e+00	 3.999999999999999e+00	 1.036164880307692e+01
0	 4.187500000000000e+00	 4.062500000000000e+00	 1.035253679230769e+01
0	 4.187499999999999e+00	 4.124999999999999e+00	 1.034355080923077e+01
0	 4.187499999999999e+00	 4.187499999999999e+00	 1.033469085384615e+01
0	 4.187499999999998e+00	 4.249999999999998e+00	 1.032595692615384e+01
0	 4.187499999999999e+00	 4.312499999999998e+00	 1.031734902615386e+01
0	 4.187499999999998e+00	 4.375000000000000e+00	 1.030886715384616e+01
0	 4.249999999999998e+00	 3.750000000000000e+00	 1.039672627692309e+01
0	 4.250000000000000e+00	 3.812500000000000e+00	 1.038740025846155e+01
0	 4.249999999999998e+00	 3.875000000000000e+00	 1.037819896615385e+01
0	 4.249999999999998e+00	 3.937500000000000e+00	 1.036912240000000e+01
0	 4.249999999999998e+00	 3.999999999999999e+00	 1.036017056000000e+01
0	 4.249999999999998e+00	 4.062499999999998e+00	 1.035134344615384e+01
0	 4.249999999999998e+00	 4.124999999999999e+00	 1.034264105846153e+01
0	 4.249999999999998e+00	 4.187499999999998e+00	 1.033406339692308e+01
0	 4.249999999999998e+00	 4.249999999999998e+00	 1.032561046153847e+01
0	 4.249999999999998e+00	 4.312499999999998e+00	 1.031728225230769e+01
0	 4.249999999999998e+00	 4.375000000000000e+00	 1.030907876923077e+01
0	 4.312499999999998e+00	 3.750000000000000e+00	 1.039366056923077e+01
0	 4.312499999999999e+00	 3.812500000000000e+00	 1.038459350923077e+01
0	 4.312499999999998e+00	 3.875000000000000e+00	 1.037564987384616e+01
0	 4.312499999999998e+00	 3.937499999999999e+00	 1.036682966307692e+01
0	 4.312499999999998e+00	 3.999999999999999e+00	 1.035813287692308e+01
0	 4.312499999999998e+00	 4.062499999999998e+00	 1.034955951538461e+01
0	 4.312499999999997e+00	 4.124999999999998e+00	 1.034110957846154e+01
0	 4.312499999999997e+00	 4.187499999999998e+00	 1.033278306615385e+01
0	 4.312499999999998e+00	 4.249999999999998e+00	 1.032457997846154e+01
0	 4.312499999999998e+00	 4.312499999999998e+00	 1.031650031538461e+01
0	 4.312499999999998e+00	 4.375000000000000e+00	 1.030854407692307e+01
0	 4.375000000000000e+00	 3.750000000000000e+00	 1.039016000000001e+01
0	 4.375000000000000e+00	 3.812500000000000e+00	 1.038132075384616e+01
0	 4.375000000000001e+00	 3.875000000000000e+00	 1.037260363076924e+01
0	 4.375000000000000e+00	 3.937499999999999e+00	 1.036400863076922e+01
0	 4.375000000000000e+00	 4.000000000000000e+00	 1.035553575384616e+01
0	 4.375000000000000e+00	 4.062499999999999e+00	 1.034718500000000e+01
0	 4.375000000000000e+00	 4.124999999999999e+00	 1.033895636923076e+01
0	 4.375000000000000e+00	 4.187499999999998e+00	 1.033084986153846e+01
0	 4.375000000000000e+00	 4.249999999999998e+00	 1.032286547692307e+01
0	 4.375000000000000e+00	 4.312499999999998e+00	 1.031500321538462e+01
0	 4.375000000000000e+00	 4.375000000000000e+00	 1.030726307692307e+01
0	 3.750000000000000e+00	 4.375000000000000e+00	 1.028648923076923e+01
0	 3.750000000000000e+00	 4.437499999999999e+00	 1.027791150769228e+01
0	 3.750000000000001e+00	 4.500000000000001e+00	 1.026926603076923e+01
0	 3.750000000000000e+00	 4.562499999999999e+00	 1.026055280000000e+01
0	 3.750000000000000e+00	 4.625000000000000e+00	 1.025177181538461e+01
0	 3.750000000000000e+00	 4.687499999999999e+00	 1.024292307692307e+01
0	 3.750000000000000e+00	 4.749999999999999e+00	 1.023400658461538e+01
0	 3.750000000000000e+00	 4.812499999999998e+00	 1.022502233846154e+01
0	 3.750000000000000e+00	 4.874999999999998e+00	 1.021597033846154e+01
0	 3.750000000000000e+00	 4.937499999999998e+00	 1.020685058461538e+01
0	 3.750000000000000e+00	 5.000000000000000e+00	 1.019766307692307e+01
0	 3.812500000000000e+00	 4.375000000000000e+00	 1.029192500000000e+01
0	 3.812500000000000e+00	 4.437500000000000e+00	 1.028331780615384e+01
0	 3.812500000000000e+00	 4.499999999999999e+00	 1.027465650153847e+01
0	 3.812500000000000e+00	 4.562499999999999e+00	 1.026594108615384e+01
0	 3.812500000000000e+00	 4.625000000000000e+00	 1.025717156000000e+01
0	 3.812500000000000e+00	 4.687500000000001e+00	 1.024834792307692e+01
0	 3.812500000000000e+00	 4.749999999999999e+00	 1.023947017538461e+01
0	 3.812500000000000e+00	 4.812499999999999e+00	 1.023053831692307e+01
0	 3.812500000000001e+00	 4.875000000000000e+00	 1.022155234769232e+01
0	 3.812499999999999e+00	 4.937499999999997e+00	 1.021251226769230e+01
0	 3.812500000000000e+00	 4.999999999999999e+00	 1.020341807692306e+01
0	 3.874999999999999e+00	 4.375000000000000e+00	 1.029661446153844e+01
0	 3.875000000000000e+00	 4.437500000000000e+00	 1.028799696615384e+01
0	 3.875000000000000e+00	 4.500000000000001e+00	 1.027933900307692e+01
0	 3.875000000000000e+00	 4.562499999999999e+00	 1.027064057230768e+01
0	 3.874999999999998e+00	 4.624999999999998e+00	 1.026190167384615e+01
0	 3.875000000000000e+00	 4.687499999999997e+00	 1.025312230769231e+01
0	 3.874999999999998e+00	 4.749999999999998e+00	 1.024430247384615e+01
0	 3.875000000000000e+00	 4.812499999999999e+00	 1.023544217230768e+01
0	 3.874999999999999e+00	 4.874999999999998e+00	 1.022654140307693e+01
0	 3.875000000000000e+00	 4.937499999999998e+00	 1.021760016615385e+01
0	 3.874999999999999e+00	 5.000000000000000e+00	 1.020861846153846e+01
0	 3.937499999999999e+00	 4.375000000000000e+00	 1.030055761538462e+01
0	 3.937500000000000e+00	 4.437500000000000e+00	 1.029194898769231e+01
0	 3.937500000000000e+00	 4.500000000000000e+00	 1.028331353538461e+01
0	 3.937500000000000e+00	 4.562499999999999e+00	 1.027465125846153e+01
0	 3.937500000000000e+00	 4.625000000000000e+00	 1.026596215692308e+01
0	 3.937499999999999e+00	 4.687499999999999e+00	 1.025724623076922e+01
0	 3.937500000000000e+00	 4.749999999999998e+00	 1.024850348000000e+01
0	 3.937499999999999e+00	 4.812499999999998e+00	 1.023973390461538e+01
0	 3.937500000000000e+00	 4.874999999999998e+00	 1.023093750461539e+01
0	 3.937499999999998e+00	 4.937499999999997e+00	 1.022211427999999e+01
0	 3.937499999999999e+00	 4.999999999999999e+00	 1.021326423076922e+01
0	 3.999999999999999e+00	 4.375000000000000e+00	 1.030375446153846e+01
0	 3.999999999999999e+00	 4.437500000000000e+00	 1.029517387076923e+01
0	 4.000000000000000e+00	 4.500000000000000e+00	 1.028658009846153e+01
0	 3.999999999999999e+00	 4.562499999999999e+00	 1.027797314461538e+01
0	 3.999999999999999e+00	 4.624999999999999e+00	 1.026935300923077e+01
0	 3.999999999999999e+00	 4.687500000000000e+00	 1.026071969230770e+01
0	 3.999999999999999e+00	 4.749999999999998e+00	 1.025207319384615e+01
0	 3.999999999999999e+00	 4.812499999999999e+00	 1.024341351384615e+01
0	 3.999999999999999e+00	 4.874999999999998e+00	 1.023474065230769e+01
0	 3.999999999999999e+00	 4.937499999999997e+00	 1.022605460923076e+01
0	 3.999999999999999e+00	 5.000000000000000e+00	 1.021735538461538e+01
0	 4.062499999999999e+00	 4.375000000000000e+00	 1.030620500000000e+01
0	 4.062499999999999e+00	 4.437499999999999e+00	 1.029767161538461e+01
0	 4.062499999999999e+00	 4.499999999999999e+00	 1.028913869230769e+01
0	 4.062500000000000e+00	 4.562499999999999e+00	 1.028060623076923e+01
0	 4.062499999999997e+00	 4.624999999999998e+00	 1.027207423076923e+01
0	 4.062499999999999e+00	 4.687499999999999e+00	 1.026354269230770e+01
0	 4.062500000000000e+00	 4.750000000000000e+00	 1.025501161538462e+01
0	 4.062499999999999e+00	 4.812499999999998e+00	 1.024648099999999e+01
0	 4.062499999999999e+00	 4.874999999999998e+00	 1.023795084615384e+01
0	 4.062499999999999e+00	 4.937499999999999e+00	 1.022942115384615e+01
0	 4.062499999999999e+00	 5.000000000000000e+00	 1.022089192307691e+01
0	 4.124999999999998e+00	 4.375000000000000e+00	 1.030790923076923e+01
0	 4.124999999999998e+00	 4.437499999999999e+00	 1.029944222153846e+01
0	 4.124999999999998e+00	 4.499999999999998e+00	 1.029098931692307e+01
0	 4.124999999999997e+00	 4.562499999999999e+00	 1.028255051692307e+01
0	 4.125000000000000e+00	 4.625000000000001e+00	 1.027412582153847e+01
0	 4.124999999999999e+00	 4.687499999999999e+00	 1.026571523076923e+01
0	 4.124999999999999e+00	 4.749999999999998e+00	 1.025731874461538e+01
0	 4.124999999999999e+00	 4.812499999999999e+00	 1.024893636307693e+01
0	 4.124999999999998e+00	 4.874999999999998e+00	 1.024056808615384e+01
0	 4.124999999999998e+00	 4.937499999999999e+00	 1.023221391384615e+01
0	 4.124999999999998e+00	 5.000000000000001e+00	 1.022387384615385e+01
0	 4.187499999999998e+00	 4.375000000000000e+00	 1.030886715384616e+01
0	 4.187499999999998e+00	 4.437499999999999e+00	 1.030048568923077e+01
0	 4.187499999999999e+00	 4.500000000000000e+00	 1.029213197230768e+01
0	 4.187499999999999e+00	 4.562499999999999e+00	 1.028380600307692e+01
0	 4.187499999999998e+00	 4.625000000000000e+00	 1.027550778153846e+01
0	 4.187500000000000e+00	 4.687500000000000e+00	 1.026723730769230e+01
0	 4.187499999999999e+00	 4.749999999999999e+00	 1.025899458153846e+01
0	 4.187499999999999e+00	 4.812499999999999e+00	 1.025077960307693e+01
0	 4.187499999999998e+00	 4.874999999999998e+00	 1.024259237230768e+01
0	 4.187499999999999e+00	 4.937499999999999e+00	 1.023443288923077e+01
0	 4.187499999999998e+00	 4.999999999999999e+00	 1.022630115384616e+01
0	 4.249999999999998e+00	 4.375000000000000e+00	 1.030907876923077e+01
0	 4.250000000000000e+00	 4.437500000000001e+00	 1.030080201846154e+01
0	 4.249999999999998e+00	 4.499999999999999e+00	 1.029256665846153e+01
0	 4.249999999999998e+00	 4.562500000000000e+00	 1.028437268923076e+01
0	 4.249999999999998e+00	 4.624999999999999e+00	 1.027622011076923e+01
0	 4.249999999999998e+00	 4.687499999999998e+00	 1.026810892307692e+01
0	 4.249999999999998e+00	 4.749999999999999e+00	 1.026003912615384e+01
0	 4.249999999999998e+00	 4.812499999999998e+00	 1.025201072000000e+01
0	 4.249999999999998e+00	 4.874999999999999e+00	 1.024402370461538e+01
0	 4.249999999999998e+00	 4.937499999999998e+00	 1.023607807999999e+01
0	 4.249999999999998e+00	 5.000000000000000e+00	 1.022817384615383e+01
0	 4.312499999999998e+00	 4.375000000000000e+00	 1.030854407692307e+01
0	 4.312499999999999e+00	 4.437500000000000e+00	 1.030039120923076e+01
0	 4.312499999999998e+00	 4.500000000000000e+00	 1.029229337538461e+01
0	 4.312499999999998e+00	 4.562500000000000e+00	 1.028425057538462e+01
0	 4.312499999999998e+00	 4.624999999999999e+00	 1.027626280923076e+01
0	 4.312499999999998e+00	 4.687499999999999e+00	 1.026833007692308e+01
0	 4.312499999999997e+00	 4.749999999999999e+00	 1.026045237846153e+01
0	 4.312499999999997e+00	 4.812499999999998e+00	 1.025262971384615e+01
0	 4.312499999999998e+00	 4.874999999999999e+00	 1.024486208307692e+01
0	 4.312499999999998e+00	 4.937499999999998e+00	 1.023714948615385e+01
0	 4.312499999999998e+00	 5.000000000000000e+00	 1.022949192307693e+01
0	 4.375000000000000e+00	 4.375000000000000e+00	 1.030726307692307e+01
0	 4.375000000000000e+00	 4.437499999999999e+00	 1.029925326153844e+01
0	 4.375000000000001e+00	 4.500000000000001e+00	 1.029131212307693e+01
0	 4.375000000000000e+00	 4.562499999999999e+00	 1.028343966153846e+01
0	 4.375000000000000e+00	 4.625000000000000e+00	 1.027563587692307e+01
0	 4.375000000000000e+00	 4.687499999999999e+00	 1.026790076923076e+01
0	 4.375000000000000e+00	 4.749999999999999e+00	 1.026023433846154e+01
0	 4.375000000000000e+00	 4.812499999999998e+00	 1.025263658461538e+01
0	 4.375000000000000e+00	 4.874999999999998e+00	 1.024510750769231e+01
0	 4.375000000000000e+00	 4.937499999999998e+00	 1.023764710769230e+01
0	 4.375000000000000e+00	 5.000000000000000e+00	 1.023025538461538e+01
0	 3.750000000000000e+00	 5.000000000000000e+00	 1.019766307692307e+01
0	 3.750000000000000e+00	 5.062500000000000e+00	 1.019123830769231e+01
0	 3.750000000000001e+00	 5.125000000000001e+00	 1.018476369230769e+01
0	 3.750000000000000e+00	 5.187499999999999e+00	 1.017823923076921e+01
0	 3.750000000000000e+00	 5.249999999999999e+00	 1.017166492307692e+01
0	 3.750000000000000e+00	 5.312499999999999e+00	 1.016504076923077e+01
0	 3.750000000000000e+00	 5.374999999999998e+00	 1.015836676923077e+01
0	 3.750000000000000e+00	 5.437499999999998e+00	 1.015164292307692e+01
0	 3.750000000000000e+00	 5.499999999999998e+00	 1.014486923076924e+01
0	 3.750000000000000e+00	 5.562499999999998e+00	 1.013804569230769e+01
0	 3.750000000000000e+00	 5.625000000000000e+00	 1.013117230769231e+01
0	 3.812500000000000e+00	 4.999999999999999e+00	 1.020341807692306e+01
0	 3.812500000000000e+00	 5.062500000000000e+00	 1.019698964461538e+01
0	 3.812500000000000e+00	 5.125000000000000e+00	 1.019051443076923e+01
0	 3.812500000000000e+00	 5.187499999999999e+00	 1.018399243538462e+01
0	 3.812500000000000e+00	 5.249999999999998e+00	 1.017742365846154e+01
0	 3.812500000000000e+00	 5.312500000000000e+00	 1.017080810000000e+01
0	 3.812500000000000e+00	 5.374999999999999e+00	 1.016414576000001e+01
0	 3.812500000000000e+00	 5.437499999999999e+00	 1.015743663846155e+01
0	 3.812500000000001e+00	 5.499999999999999e+00	 1.015068073538462e+01
0	 3.812499999999999e+00	 5.562499999999996e+00	 1.014387805076924e+01
0	 3.812500000000000e+00	 5.625000000000000e+00	 1.013702858461538e+01
0	 3.874999999999999e+00	 5.000000000000000e+00	 1.020861846153846e+01
0	 3.875000000000000e+00	 5.062499999999999e+00	 1.020219302153846e+01
0	 3.875000000000000e+00	 5.125000000000001e+00	 1.019572386461537e+01
0	 3.875000000000000e+00	 5.187499999999998e+00	 1.018921099076923e+01
0	 3.874999999999998e+00	 5.249999999999999e+00	 1.018265440000000e+01
0	 3.875000000000000e+00	 5.312499999999999e+00	 1.017605409230769e+01
0	 3.874999999999998e+00	 5.374999999999999e+00	 1.016941006769231e+01
0	 3.875000000000000e+00	 5.437499999999999e+00	 1.016272232615385e+01
0	 3.874999999999999e+00	 5.499999999999998e+00	 1.015599086769231e+01
0	 3.875000000000000e+00	 5.562499999999999e+00	 1.014921569230768e+01
0	 3.874999999999999e+00	 5.625000000000000e+00	 1.014239680000001e+01
0	 3.937499999999999e+00	 4.999999999999999e+00	 1.021326423076922e+01
0	 3.937500000000000e+00	 5.062500000000001e+00	 1.020684843846153e+01
0	 3.937500000000000e+00	 5.125000000000000e+00	 1.020039199384616e+01
0	 3.937500000000000e+00	 5.187499999999999e+00	 1.019389489692308e+01
0	 3.937500000000000e+00	 5.250000000000000e+00	 1.018735714769231e+01
0	 3.937499999999999e+00	 5.312499999999999e+00	 1.018077874615384e+01
0	 3.937500000000000e+00	 5.374999999999998e+00	 1.017415969230769e+01
0	 3.937499999999999e+00	 5.437499999999999e+00	 1.016749998615385e+01
0	 3.937500000000000e+00	 5.499999999999998e+00	 1.016079962769232e+01
0	 3.937499999999998e+00	 5.562499999999997e+00	 1.015405861692307e+01
0	 3.937499999999999e+00	 5.625000000000000e+00	 1.014727695384614e+01
0	 3.999999999999999e+00	 5.000000000000000e+00	 1.021735538461538e+01
0	 3.999999999999999e+00	 5.062500000000000e+00	 1.021095589538460e+01
0	 4.000000000000000e+00	 5.125000000000000e+00	 1.020451881846152e+01
0	 3.999999999999999e+00	 5.187500000000000e+00	 1.019804415384615e+01
0	 3.999999999999999e+00	 5.249999999999999e+00	 1.019153190153845e+01
0	 3.999999999999999e+00	 5.312499999999999e+00	 1.018498206153847e+01
0	 3.999999999999999e+00	 5.374999999999998e+00	 1.017839463384616e+01
0	 3.999999999999999e+00	 5.437499999999999e+00	 1.017176961846155e+01
0	 3.999999999999999e+00	 5.499999999999999e+00	 1.016510701538461e+01
0	 3.999999999999999e+00	 5.562499999999998e+00	 1.015840682461540e+01
0	 3.999999999999999e+00	 5.625000000000000e+00	 1.015166904615384e+01
0	 4.062499999999999e+00	 5.000000000000000e+00	 1.022089192307691e+01
0	 4.062499999999999e+00	 5.062500000000000e+00	 1.021451539230770e+01
0	 4.062499999999999e+00	 5.124999999999999e+00	 1.020810433846154e+01
0	 4.062500000000000e+00	 5.187500000000000e+00	 1.020165876153845e+01
0	 4.062499999999997e+00	 5.249999999999998e+00	 1.019517866153845e+01
0	 4.062499999999999e+00	 5.312499999999999e+00	 1.018866403846153e+01
0	 4.062500000000000e+00	 5.375000000000000e+00	 1.018211489230769e+01
0	 4.062499999999999e+00	 5.437499999999998e+00	 1.017553122307692e+01
0	 4.062499999999999e+00	 5.499999999999998e+00	 1.016891303076922e+01
0	 4.062499999999999e+00	 5.562499999999999e+00	 1.016226031538462e+01
0	 4.062499999999999e+00	 5.625000000000000e+00	 1.015557307692307e+01
0	 4.124999999999998e+00	 5.000000000000001e+00	 1.022387384615385e+01
0	 4.124999999999998e+00	 5.062499999999999e+00	 1.021752692923076e+01
0	 4.124999999999998e+00	 5.125000000000000e+00	 1.021114855384614e+01
0	 4.124999999999997e+00	 5.187500000000000e+00	 1.020473871999999e+01
0	 4.125000000000000e+00	 5.250000000000001e+00	 1.019829742769230e+01
0	 4.124999999999999e+00	 5.312500000000001e+00	 1.019182467692307e+01
0	 4.124999999999999e+00	 5.374999999999999e+00	 1.018532046769232e+01
0	 4.124999999999999e+00	 5.437499999999999e+00	 1.017878480000001e+01
0	 4.124999999999998e+00	 5.499999999999998e+00	 1.017221767384614e+01
0	 4.124999999999998e+00	 5.562499999999998e+00	 1.016561908923077e+01
0	 4.124999999999998e+00	 5.625000000000000e+00	 1.015898904615385e+01
0	 4.187499999999998e+00	 4.999999999999999e+00	 1.022630115384616e+01
0	 4.187499999999998e+00	 5.062500000000000e+00	 1.021999050615384e+01
0	 4.187499999999999e+00	 5.125000000000000e+00	 1.021365146461538e+01
0	 4.187499999999999e+00	 5.187500000000000e+00	 1.020728402923075e+01
0	 4.187499999999998e+00	 5.250000000000000e+00	 1.020088820000000e+01
0	 4.187500000000000e+00	 5.312500000000000e+00	 1.019446397692308e+01
0	 4.187499999999999e+00	 5.374999999999999e+00	 1.018801136000000e+01
0	 4.187499999999999e+00	 5.437499999999998e+00	 1.018153034923076e+01
0	 4.187499999999998e+00	 5.499999999999998e+00	 1.017502094461540e+01
0	 4.187499999999999e+00	 5.562499999999999e+00	 1.016848314615383e+01
0	 4.187499999999998e+00	 5.625000000000000e+00	 1.016191695384615e+01
0	 4.249999999999998e+00	 5.000000000000000e+00	 1.022817384615383e+01
0	 4.250000000000000e+00	 5.062500000000002e+00	 1.022190612307694e+01
0	 4.249999999999998e+00	 5.124999999999999e+00	 1.021561307076923e+01
0	 4.249999999999998e+00	 5.187500000000000e+00	 1.020929468923078e+01
0	 4.249999999999998e+00	 5.249999999999998e+00	 1.020295097846153e+01
0	 4.249999999999998e+00	 5.312499999999999e+00	 1.019658193846154e+01
0	 4.249999999999998e+00	 5.374999999999998e+00	 1.019018756923077e+01
0	 4.249999999999998e+00	 5.437499999999998e+00	 1.018376787076922e+01
0	 4.249999999999998e+00	 5.499999999999999e+00	 1.017732284307693e+01
0	 4.249999999999998e+00	 5.562499999999998e+00	 1.017085248615385e+01
0	 4.249999999999998e+00	 5.625000000000000e+00	 1.016435680000002e+01
0	 4.312499999999998e+00	 5.000000000000000e+00	 1.022949192307693e+01
0	 4.312499999999999e+00	 5.062500000000000e+00	 1.022327378000001e+01
0	 4.312499999999998e+00	 5.125000000000001e+00	 1.021703337230769e+01
0	 4.312499999999998e+00	 5.187499999999999e+00	 1.021077070000000e+01
0	 4.312499999999998e+00	 5.249999999999999e+00	 1.020448576307692e+01
0	 4.312499999999998e+00	 5.312499999999998e+00	 1.019817856153846e+01
0	 4.312499999999997e+00	 5.374999999999997e+00	 1.019184909538460e+01
0	 4.312499999999997e+00	 5.437499999999998e+00	 1.018549736461539e+01
0	 4.312499999999998e+00	 5.499999999999999e+00	 1.017912336923077e+01
0	 4.312499999999998e+00	 5.562499999999998e+00	 1.017272710923077e+01
0	 4.312499999999998e+00	 5.625000000000000e+00	 1.016630858461538e+01
0	 4.375000000000000e+00	 5.000000000000000e+00	 1.023025538461538e+01
0	 4.375000000000000e+00	 5.062500000000000e+00	 1.022409347692309e+01
0	 4.375000000000001e+00	 5.125000000000001e+00	 1.021791236923077e+01
0	 4.375000000000000e+00	 5.187499999999999e+00	 1.021171206153845e+01
0	 4.375000000000000e+00	 5.249999999999999e+00	 1.020549255384615e+01
0	 4.375000000000000e+00	 5.312499999999999e+00	 1.019925384615384e+01
0	 4.375000000000000e+00	 5.374999999999998e+00	 1.019299593846154e+01
0	 4.375000000000000e+00	 5.437499999999998e+00	 1.018671883076922e+01
0	 4.375000000000000e+00	 5.499999999999998e+00	 1.018042252307693e+01
0	 4.375000000000000e+00	 5.562499999999998e+00	 1.017410701538462e+01
0	 4.375000000000000e+00	 5.625000000000000e+00	 1.016777230769231e+01
0	 3.750000000000000e+00	 5.625000000000000e+00	 1.013117230769231e+01
0	 3.750000000000000e+00	 5.687500000000000e+00	 1.012693707692307e+01
0	 3.750000000000001e+00	 5.750000000000000e+00	 1.012262615384615e+01
0	 3.750000000000000e+00	 5.812499999999999e+00	 1.011823953846154e+01
0	 3.750000000000000e+00	 5.874999999999999e+00	 1.011377723076923e+01
0	 3.750000000000000e+00	 5.937499999999999e+00	 1.010923923076923e+01
0	 3.750000000000000e+00	 5.999999999999998e+00	 1.010462553846154e+01
0	 3.750000000000000e+00	 6.062499999999998e+00	 1.009993615384616e+01
0	 3.750000000000000e+00	 6.124999999999998e+00	 1.009517107692308e+01
0	 3.750000000000000e+00	 6.187499999999998e+00	 1.009033030769231e+01
0	 3.750000000000000e+00	 6.250000000000000e+00	 1.008541384615384e+01
0	 3.812500000000000e+00	 5.625000000000000e+00	 1.013702858461538e+01
0	 3.812500000000000e+00	 5.687499999999999e+00	 1.013266789076923e+01
0	 3.812500000000000e+00	 5.749999999999999e+00	 1.012823634153846e+01
0	 3.812500000000000e+00	 5.812499999999998e+00	 1.012373393692309e+01
0	 3.812500000000000e+00	 5.875000000000000e+00	 1.011916067692308e+01
0	 3.812500000000000e+00	 5.937500000000001e+00	 1.011451656153845e+01
0	 3.812500000000000e+00	 5.999999999999999e+00	 1.010980159076923e+01
0	 3.812500000000000e+00	 6.062500000000000e+00	 1.010501576461538e+01
0	 3.812500000000001e+00	 6.125000000000000e+00	 1.010015908307691e+01
0	 3.812499999999999e+00	 6.187499999999996e+00	 1.009523154615383e+01
0	 3.812500000000000e+00	 6.250000000000000e+00	 1.009023315384614e+01
0	 3.874999999999999e+00	 5.625000000000000e+00	 1.014239680000001e+01
0	 3.875000000000000e+00	 5.687499999999999e+00	 1.013792509538461e+01
0	 3.875000000000000e+00	 5.750000000000002e+00	 1.013338737230769e+01
0	 3.875000000000000e+00	 5.812499999999999e+00	 1.012878363076924e+01
0	 3.874999999999998e+00	 5.874999999999998e+00	 1.012411387076924e+01
0	 3.875000000000000e+00	 5.937499999999999e+00	 1.011937809230769e+01
0	 3.874999999999998e+00	 5.999999999999998e+00	 1.011457629538461e+01
0	 3.875000000000000e+00	 6.062499999999999e+00	 1.010970847999999e+01
0	 3.874999999999999e+00	 6.124999999999998e+00	 1.010477464615384e+01
0	 3.875000000000000e+00	 6.187499999999998e+00	 1.009977479384615e+01
0	 3.874999999999999e+00	 6.250000000000000e+00	 1.009470892307692e+01
0	 3.937499999999999e+00	 5.625000000000000e+00	 1.014727695384614e+01
0	 3.937500000000000e+00	 5.687500000000000e+00	 1.014270869076924e+01
0	 3.937500000000000e+00	 5.749999999999999e+00	 1.013807924615385e+01
0	 3.937500000000000e+00	 5.812499999999999e+00	 1.013338861999999e+01
0	 3.937500000000000e+00	 5.875000000000000e+00	 1.012863681230769e+01
0	 3.937499999999999e+00	 5.937500000000000e+00	 1.012382382307692e+01
0	 3.937500000000000e+00	 5.999999999999998e+00	 1.011894965230769e+01
0	 3.937499999999999e+00	 6.062499999999998e+00	 1.011401430000001e+01
0	 3.937500000000000e+00	 6.124999999999997e+00	 1.010901776615385e+01
0	 3.937499999999998e+00	 6.187499999999997e+00	 1.010396005076924e+01
0	 3.937499999999999e+00	 6.250000000000000e+00	 1.009884115384613e+01
0	 3.999999999999999e+00	 5.625000000000000e+00	 1.015166904615384e+01
0	 3.999999999999999e+00	 5.687500000000000e+00	 1.014701867692309e+01
0	 4.000000000000000e+00	 5.750000000000000e+00	 1.014231196307694e+01
0	 3.999999999999999e+00	 5.812500000000000e+00	 1.013754890461538e+01
0	 3.999999999999999e+00	 5.874999999999999e+00	 1.013272950153846e+01
0	 3.999999999999999e+00	 5.937499999999999e+00	 1.012785375384616e+01
0	 3.999999999999999e+00	 5.999999999999997e+00	 1.012292166153847e+01
0	 3.999999999999999e+00	 6.062499999999998e+00	 1.011793322461539e+01
0	 3.999999999999999e+00	 6.124999999999999e+00	 1.011288844307693e+01
0	 3.999999999999999e+00	 6.187499999999998e+00	 1.010778731692308e+01
0	 3.999999999999999e+00	 6.250000000000000e+00	 1.010262984615385e+01
0	 4.062499999999999e+00	 5.625000000000000e+00	 1.015557307692307e+01
0	 4.062499999999999e+00	 5.687500000000000e+00	 1.015085505384616e+01
0	 4.062499999999999e+00	 5.750000000000000e+00	 1.014608552307693e+01
0	 4.062500000000000e+00	 5.812500000000000e+00	 1.014126448461539e+01
0	 4.062499999999997e+00	 5.874999999999998e+00	 1.013639193846154e+01
0	 4.062499999999999e+00	 5.937499999999998e+00	 1.013146788461540e+01
0	 4.062500000000000e+00	 6.000000000000000e+00	 1.012649232307692e+01
0	 4.062499999999999e+00	 6.062499999999998e+00	 1.012146525384616e+01
0	 4.062499999999999e+00	 6.124999999999998e+00	 1.011638667692307e+01
0	 4.062499999999999e+00	 6.187499999999999e+00	 1.011125659230768e+01
0	 4.062499999999999e+00	 6.250000000000000e+00	 1.010607500000000e+01
0	 4.124999999999998e+00	 5.625000000000000e+00	 1.015898904615385e+01
0	 4.124999999999998e+00	 5.687499999999999e+00	 1.015421782153846e+01
0	 4.124999999999998e+00	 5.750000000000000e+00	 1.014939992615385e+01
0	 4.124999999999997e+00	 5.812499999999999e+00	 1.014453535999999e+01
0	 4.125000000000000e+00	 5.875000000000001e+00	 1.013962412307693e+01
0	 4.124999999999999e+00	 5.937499999999999e+00	 1.013466621538461e+01
0	 4.124999999999999e+00	 5.999999999999998e+00	 1.012966163692308e+01
0	 4.124999999999999e+00	 6.062499999999999e+00	 1.012461038769231e+01
0	 4.124999999999998e+00	 6.124999999999998e+00	 1.011951246769230e+01
0	 4.124999999999998e+00	 6.187499999999998e+00	 1.011436787692307e+01
0	 4.124999999999998e+00	 6.250000000000000e+00	 1.010917661538461e+01
0	 4.187499999999998e+00	 5.625000000000000e+00	 1.016191695384615e+01
0	 4.187499999999998e+00	 5.687500000000000e+00	 1.015710698000001e+01
0	 4.187499999999999e+00	 5.750000000000000e+00	 1.015225517230768e+01
0	 4.187499999999999e+00	 5.812499999999999e+00	 1.014736153076923e+01
0	 4.187499999999998e+00	 5.874999999999999e+00	 1.014242605538462e+01
0	 4.187500000000000e+00	 5.937500000000001e+00	 1.013744874615385e+01
0	 4.187499999999999e+00	 5.999999999999999e+00	 1.013242960307693e+01
0	 4.187499999999999e+00	 6.062499999999999e+00	 1.012736862615385e+01
0	 4.187499999999998e+00	 6.124999999999999e+00	 1.012226581538463e+01
0	 4.187499999999999e+00	 6.187499999999999e+00	 1.011712117076922e+01
0	 4.187499999999998e+00	 6.250000000000000e+00	 1.011193469230768e+01
0	 4.249999999999998e+00	 5.625000000000000e+00	 1.016435680000002e+01
0	 4.250000000000000e+00	 5.687500000000000e+00	 1.015952252923077e+01
0	 4.249999999999998e+00	 5.750000000000000e+00	 1.015465126153846e+01
0	 4.249999999999998e+00	 5.812499999999999e+00	 1.014974299692307e+01
0	 4.249999999999998e+00	 5.875000000000000e+00	 1.014479773538461e+01
0	 4.249999999999998e+00	 5.937500000000000e+00	 1.013981547692306e+01
0	 4.249999999999998e+00	 5.999999999999998e+00	 1.013479622153846e+01
0	 4.249999999999998e+00	 6.062499999999998e+00	 1.012973996923078e+01
0	 4.249999999999998e+00	 6.124999999999999e+00	 1.012464671999999e+01
0	 4.249999999999998e+00	 6.187499999999998e+00	 1.011951647384616e+01
0	 4.249999999999998e+00	 6.250000000000000e+00	 1.011434923076923e+01
0	 4.312499999999998e+00	 5.625000000000000e+00	 1.016630858461538e+01
0	 4.312499999999999e+00	 5.687500000000000e+00	 1.016146446923077e+01
0	 4.312499999999998e+00	 5.750000000000000e+00	 1.015658819384615e+01
0	 4.312499999999998e+00	 5.812499999999999e+00	 1.015167975846154e+01
0	 4.312499999999998e+00	 5.875000000000000e+00	 1.014673916307692e+01
0	 4.312499999999998e+00	 5.937499999999999e+00	 1.014176640769230e+01
0	 4.312499999999997e+00	 5.999999999999998e+00	 1.013676149230769e+01
0	 4.312499999999997e+00	 6.062499999999998e+00	 1.013172441692308e+01
0	 4.312499999999998e+00	 6.124999999999998e+00	 1.012665518153845e+01
0	 4.312499999999998e+00	 6.187499999999997e+00	 1.012155378615384e+01
0	 4.312499999999998e+00	 6.250000000000000e+00	 1.011642023076921e+01
0	 4.375000000000000e+00	 5.625000000000000e+00	 1.016777230769231e+01
0	 4.375000000000000e+00	 5.687500000000000e+00	 1.016293279999999e+01
0	 4.375000000000001e+00	 5.750000000000000e+00	 1.015806596923076e+01
0	 4.375000000000000e+00	 5.812499999999999e+00	 1.015317181538462e+01
0	 4.375000000000000e+00	 5.874999999999999e+00	 1.014825033846154e+01
0	 4.375000000000000e+00	 5.937499999999999e+00	 1.014330153846154e+01
0	 4.375000000000000e+00	 5.999999999999998e+00	 1.013832541538461e+01
0	 4.375000000000000e+00	 6.062499999999998e+00	 1.013332196923078e+01
0	 4.375000000000000e+00	 6.124999999999998e+00	 1.012829120000001e+01
0	 4.375000000000000e+00	 6.187499999999998e+00	 1.012323310769230e+01
0	 4.375000000000000e+00	 6.250000000000000e+00	 1.011814769230769e+01
0	 3.750000000000000e+00	 6.250000000000000e+00	 1.008541384615384e+01
0	 3.750000000000000e+00	 6.312500000000000e+00	 1.008250850769231e+01
0	 3.750000000000001e+00	 6.375000000000000e+00	 1.007955064615384e+01
0	 3.750000000000000e+00	 6.437499999999999e+00	 1.007654026153844e+01
0	 3.750000000000000e+00	 6.499999999999999e+00	 1.007347735384615e+01
0	 3.750000000000000e+00	 6.562499999999998e+00	 1.007036192307693e+01
0	 3.750000000000000e+00	 6.624999999999998e+00	 1.006719396923077e+01
0	 3.750000000000000e+00	 6.687499999999998e+00	 1.006397349230769e+01
0	 3.750000000000000e+00	 6.749999999999998e+00	 1.006070049230770e+01
0	 3.750000000000000e+00	 6.812499999999998e+00	 1.005737496923077e+01
0	 3.750000000000000e+00	 6.875000000000000e+00	 1.005399692307692e+01
0	 3.812500000000000e+00	 6.250000000000000e+00	 1.009023315384614e+01
0	 3.812500000000000e+00	 6.312500000000000e+00	 1.008721487076921e+01
0	 3.812500000000000e+00	 6.374999999999999e+00	 1.008414515384615e+01
0	 3.812500000000000e+00	 6.437500000000000e+00	 1.008102400307692e+01
0	 3.812500000000000e+00	 6.499999999999997e+00	 1.007785141846154e+01
0	 3.812500000000000e+00	 6.562500000000000e+00	 1.007462739999999e+01
0	 3.812500000000000e+00	 6.624999999999999e+00	 1.007135194769231e+01
0	 3.812500000000000e+00	 6.687499999999999e+00	 1.006802506153847e+01
0	 3.812500000000001e+00	 6.749999999999999e+00	 1.006464674153846e+01
0	 3.812499999999999e+00	 6.812499999999996e+00	 1.006121698769231e+01
0	 3.812500000000000e+00	 6.875000000000001e+00	 1.005773580000000e+01
0	 3.874999999999999e+00	 6.250000000000000e+00	 1.009470892307692e+01
0	 3.875000000000000e+00	 6.312499999999999e+00	 1.009158751692308e+01
0	 3.875000000000000e+00	 6.375000000000000e+00	 1.008841576615385e+01
0	 3.875000000000000e+00	 6.437499999999998e+00	 1.008519367076922e+01
0	 3.874999999999998e+00	 6.499999999999996e+00	 1.008192123076923e+01
0	 3.875000000000000e+00	 6.562499999999998e+00	 1.007859844615384e+01
0	 3.874999999999998e+00	 6.624999999999996e+00	 1.007522531692308e+01
0	 3.875000000000000e+00	 6.687499999999999e+00	 1.007180184307692e+01
0	 3.874999999999999e+00	 6.749999999999997e+00	 1.006832802461539e+01
0	 3.875000000000000e+00	 6.812500000000000e+00	 1.006480386153847e+01
0	 3.874999999999999e+00	 6.875000000000000e+00	 1.006122935384617e+01
0	 3.937499999999999e+00	 6.250000000000000e+00	 1.009884115384613e+01
0	 3.937500000000000e+00	 6.312499999999999e+00	 1.009562644615386e+01
0	 3.937500000000000e+00	 6.375000000000000e+00	 1.009236248307691e+01
0	 3.937500000000000e+00	 6.437500000000000e+00	 1.008904926461537e+01
0	 3.937500000000000e+00	 6.499999999999998e+00	 1.008568679076923e+01
0	 3.937499999999999e+00	 6.562499999999999e+00	 1.008227506153846e+01
0	 3.937500000000000e+00	 6.624999999999999e+00	 1.007881407692307e+01
0	 3.937499999999999e+00	 6.687499999999998e+00	 1.007530383692308e+01
0	 3.937500000000000e+00	 6.749999999999998e+00	 1.007174434153846e+01
0	 3.937499999999998e+00	 6.812499999999997e+00	 1.006813559076921e+01
0	 3.937499999999999e+00	 6.874999999999999e+00	 1.006447758461539e+01
0	 3.999999999999999e+00	 6.250000000000000e+00	 1.010262984615385e+01
0	 3.999999999999999e+00	 6.312499999999999e+00	 1.009933165846155e+01
0	 4.000000000000000e+00	 6.375000000000000e+00	 1.009598530461539e+01
0	 3.999999999999999e+00	 6.437499999999999e+00	 1.009259078461538e+01
0	 3.999999999999999e+00	 6.499999999999997e+00	 1.008914809846153e+01
0	 3.999999999999999e+00	 6.562499999999999e+00	 1.008565724615384e+01
0	 3.999999999999999e+00	 6.624999999999998e+00	 1.008211822769229e+01
0	 3.999999999999999e+00	 6.687499999999998e+00	 1.007853104307692e+01
0	 3.999999999999999e+00	 6.749999999999998e+00	 1.007489569230770e+01
0	 3.999999999999999e+00	 6.812499999999998e+00	 1.007121217538462e+01
0	 3.999999999999999e+00	 6.875000000000001e+00	 1.006748049230767e+01
0	 4.062499999999999e+00	 6.250000000000000e+00	 1.010607500000000e+01
0	 4.062499999999999e+00	 6.312500000000000e+00	 1.010270315384615e+01
0	 4.062499999999999e+00	 6.375000000000000e+00	 1.009928423076922e+01
0	 4.062500000000000e+00	 6.437499999999999e+00	 1.009581823076923e+01
0	 4.062499999999997e+00	 6.499999999999997e+00	 1.009230515384614e+01
0	 4.062499999999999e+00	 6.562499999999999e+00	 1.008874500000000e+01
0	 4.062500000000000e+00	 6.625000000000000e+00	 1.008513776923076e+01
0	 4.062499999999999e+00	 6.687499999999999e+00	 1.008148346153846e+01
0	 4.062499999999999e+00	 6.749999999999999e+00	 1.007778207692307e+01
0	 4.062499999999999e+00	 6.812499999999998e+00	 1.007403361538461e+01
0	 4.062499999999999e+00	 6.875000000000000e+00	 1.007023807692308e+01
0	 4.124999999999998e+00	 6.250000000000000e+00	 1.010917661538461e+01
0	 4.124999999999998e+00	 6.312499999999999e+00	 1.010574093230770e+01
0	 4.124999999999998e+00	 6.374999999999997e+00	 1.010225926153845e+01
0	 4.124999999999997e+00	 6.437499999999999e+00	 1.009873160307691e+01
0	 4.125000000000000e+00	 6.500000000000000e+00	 1.009515795692307e+01
0	 4.124999999999999e+00	 6.562500000000001e+00	 1.009153832307691e+01
0	 4.124999999999999e+00	 6.624999999999998e+00	 1.008787270153846e+01
0	 4.124999999999999e+00	 6.687499999999999e+00	 1.008416109230769e+01
0	 4.124999999999998e+00	 6.749999999999999e+00	 1.008040349538459e+01
0	 4.124999999999998e+00	 6.812499999999998e+00	 1.007659991076923e+01
0	 4.124999999999998e+00	 6.875000000000000e+00	 1.007275033846152e+01
0	 4.187499999999998e+00	 6.250000000000000e+00	 1.011193469230768e+01
0	 4.187499999999998e+00	 6.312499999999999e+00	 1.010844499384615e+01
0	 4.187499999999999e+00	 6.375000000000001e+00	 1.010491039692307e+01
0	 4.187499999999999e+00	 6.437499999999999e+00	 1.010133090153846e+01
0	 4.187499999999998e+00	 6.500000000000000e+00	 1.009770650769231e+01
0	 4.187500000000000e+00	 6.562499999999999e+00	 1.009403721538461e+01
0	 4.187499999999999e+00	 6.624999999999999e+00	 1.009032302461539e+01
0	 4.187499999999999e+00	 6.687499999999999e+00	 1.008656393538462e+01
0	 4.187499999999998e+00	 6.749999999999998e+00	 1.008275994769231e+01
0	 4.187499999999999e+00	 6.812499999999999e+00	 1.007891106153847e+01
0	 4.187499999999998e+00	 6.875000000000000e+00	 1.007501727692308e+01
0	 4.249999999999998e+00	 6.250000000000000e+00	 1.011434923076923e+01
0	 4.250000000000000e+00	 6.312500000000001e+00	 1.011081533846152e+01
0	 4.249999999999998e+00	 6.374999999999999e+00	 1.010723763692308e+01
0	 4.249999999999998e+00	 6.437500000000000e+00	 1.010361612615384e+01
0	 4.249999999999998e+00	 6.499999999999999e+00	 1.009995080615385e+01
0	 4.249999999999998e+00	 6.562499999999999e+00	 1.009624167692307e+01
0	 4.249999999999998e+00	 6.624999999999998e+00	 1.009248873846153e+01
0	 4.249999999999998e+00	 6.687499999999998e+00	 1.008869199076923e+01
0	 4.249999999999998e+00	 6.749999999999998e+00	 1.008485143384614e+01
0	 4.249999999999998e+00	 6.812499999999998e+00	 1.008096706769230e+01
0	 4.249999999999998e+00	 6.875000000000000e+00	 1.007703889230770e+01
0	 4.312499999999998e+00	 6.250000000000000e+00	 1.011642023076921e+01
0	 4.312499999999999e+00	 6.312500000000000e+00	 1.011285196615386e+01
0	 4.312499999999998e+00	 6.375000000000000e+00	 1.010924098153846e+01
0	 4.312499999999998e+00	 6.437499999999999e+00	 1.010558727692306e+01
0	 4.312499999999998e+00	 6.499999999999998e+00	 1.010189085230768e+01
0	 4.312499999999998e+00	 6.562499999999998e+00	 1.009815170769231e+01
0	 4.312499999999997e+00	 6.624999999999998e+00	 1.009436984307692e+01
0	 4.312499999999997e+00	 6.687499999999998e+00	 1.009054525846153e+01
0	 4.312499999999998e+00	 6.749999999999999e+00	 1.008667795384614e+01
0	 4.312499999999998e+00	 6.812499999999997e+00	 1.008276792923078e+01
0	 4.312499999999998e+00	 6.875000000000000e+00	 1.007881518461537e+01
0	 4.375000000000000e+00	 6.250000000000000e+00	 1.011814769230769e+01
0	 4.375000000000000e+00	 6.312500000000000e+00	 1.011455487692308e+01
0	 4.375000000000001e+00	 6.375000000000000e+00	 1.011092043076923e+01
0	 4.375000000000000e+00	 6.437499999999999e+00	 1.010724435384614e+01
0	 4.375000000000000e+00	 6.499999999999999e+00	 1.010352664615384e+01
0	 4.375000000000000e+00	 6.562499999999998e+00	 1.009976730769231e+01
0	 4.375000000000000e+00	 6.624999999999998e+00	 1.009596633846152e+01
0	 4.375000000000000e+00	 6.687499999999998e+00	 1.009212373846153e+01
0	 4.375000000000000e+00	 6.749999999999998e+00	 1.008823950769231e+01
0	 4.375000000000000e+00	 6.812499999999998e+00	 1.008431364615384e+01
0	 4.375000000000000e+00	 6.875000000000000e+00	 1.008034615384615e+01
0	 3.750000000000000e+00	 6.875000000000000e+00	 1.005399692307692e+01
0	 3.750000000000000e+00	 6.937500000000000e+00	 1.005207458461538e+01
0	 3.750000000000001e+00	 7.000000000000000e+00	 1.005010941538460e+01
0	 3.750000000000000e+00	 7.062500000000000e+00	 1.004810141538462e+01
0	 3.750000000000000e+00	 7.125000000000000e+00	 1.004605058461538e+01
0	 3.750000000000000e+00	 7.187499999999998e+00	 1.004395692307692e+01
0	 3.750000000000000e+00	 7.249999999999998e+00	 1.004182043076925e+01
0	 3.750000000000000e+00	 7.312499999999998e+00	 1.003964110769230e+01
0	 3.750000000000000e+00	 7.374999999999998e+00	 1.003741895384616e+01
0	 3.750000000000000e+00	 7.437499999999998e+00	 1.003515396923077e+01
0	 3.750000000000000e+00	 7.500000000000000e+00	 1.003284615384615e+01
0	 3.812500000000000e+00	 6.875000000000001e+00	 1.005773580000000e+01
0	 3.812500000000000e+00	 6.937499999999999e+00	 1.005569791999998e+01
0	 3.812500000000000e+00	 6.999999999999999e+00	 1.005361766153848e+01
0	 3.812500000000000e+00	 7.062500000000000e+00	 1.005149502461538e+01
0	 3.812500000000000e+00	 7.124999999999998e+00	 1.004933000923077e+01
0	 3.812500000000000e+00	 7.187499999999999e+00	 1.004712261538461e+01
0	 3.812500000000000e+00	 7.250000000000000e+00	 1.004487284307693e+01
0	 3.812500000000000e+00	 7.312499999999999e+00	 1.004258069230768e+01
0	 3.812500000000001e+00	 7.374999999999999e+00	 1.004024616307692e+01
0	 3.812499999999999e+00	 7.437499999999996e+00	 1.003786925538459e+01
0	 3.812500000000000e+00	 7.500000000000000e+00	 1.003544996923078e+01
0	 3.874999999999999e+00	 6.875000000000000e+00	 1.006122935384617e+01
0	 3.875000000000000e+00	 6.937499999999999e+00	 1.005908439692307e+01
0	 3.875000000000000e+00	 7.000000000000001e+00	 1.005689751384614e+01
0	 3.875000000000000e+00	 7.062499999999999e+00	 1.005466870461539e+01
0	 3.874999999999998e+00	 7.124999999999998e+00	 1.005239796923076e+01
0	 3.875000000000000e+00	 7.187499999999999e+00	 1.005008530769231e+01
0	 3.874999999999998e+00	 7.249999999999996e+00	 1.004773072000001e+01
0	 3.875000000000000e+00	 7.312499999999998e+00	 1.004533420615385e+01
0	 3.874999999999999e+00	 7.374999999999997e+00	 1.004289576615384e+01
0	 3.875000000000000e+00	 7.437500000000000e+00	 1.004041540000001e+01
0	 3.874999999999999e+00	 7.499999999999999e+00	 1.003789310769228e+01
0	 3.937499999999999e+00	 6.874999999999999e+00	 1.006447758461539e+01
0	 3.937500000000000e+00	 6.937499999999999e+00	 1.006223401538463e+01
0	 3.937500000000000e+00	 7.000000000000000e+00	 1.005994897230769e+01
0	 3.937500000000000e+00	 7.062500000000000e+00	 1.005762245538460e+01
0	 3.937500000000000e+00	 7.124999999999999e+00	 1.005525446461539e+01
0	 3.937499999999999e+00	 7.187499999999999e+00	 1.005284500000000e+01
0	 3.937500000000000e+00	 7.250000000000000e+00	 1.005039406153846e+01
0	 3.937499999999999e+00	 7.312499999999999e+00	 1.004790164923077e+01
0	 3.937500000000000e+00	 7.374999999999997e+00	 1.004536776307692e+01
0	 3.937499999999998e+00	 7.437499999999998e+00	 1.004279240307691e+01
0	 3.937499999999999e+00	 7.500000000000000e+00	 1.004017556923077e+01
0	 3.999999999999999e+00	 6.875000000000001e+00	 1.006748049230767e+01
0	 3.999999999999999e+00	 6.937499999999999e+00	 1.006514677538461e+01
0	 4.000000000000000e+00	 7.000000000000001e+00	 1.006277203692308e+01
0	 3.999999999999999e+00	 7.062500000000000e+00	 1.006035627692309e+01
0	 3.999999999999999e+00	 7.124999999999999e+00	 1.005789949538462e+01
0	 3.999999999999999e+00	 7.187499999999999e+00	 1.005540169230767e+01
0	 3.999999999999999e+00	 7.249999999999997e+00	 1.005286286769232e+01
0	 3.999999999999999e+00	 7.312499999999998e+00	 1.005028302153844e+01
0	 3.999999999999999e+00	 7.374999999999999e+00	 1.004766215384616e+01
0	 3.999999999999999e+00	 7.437499999999998e+00	 1.004500026461537e+01
0	 3.999999999999999e+00	 7.500000000000000e+00	 1.004229735384616e+01
0	 4.062499999999999e+00	 6.875000000000000e+00	 1.007023807692308e+01
0	 4.062499999999999e+00	 6.937500000000000e+00	 1.006782267692306e+01
0	 4.062499999999999e+00	 7.000000000000000e+00	 1.006536670769232e+01
0	 4.062500000000000e+00	 7.062500000000000e+00	 1.006287016923076e+01
0	 4.062499999999997e+00	 7.124999999999997e+00	 1.006033306153847e+01
0	 4.062499999999999e+00	 7.187499999999999e+00	 1.005775538461539e+01
0	 4.062500000000000e+00	 7.249999999999999e+00	 1.005513713846153e+01
0	 4.062499999999999e+00	 7.312499999999998e+00	 1.005247832307692e+01
0	 4.062499999999999e+00	 7.374999999999997e+00	 1.004977893846156e+01
0	 4.062499999999999e+00	 7.437499999999998e+00	 1.004703898461538e+01
0	 4.062499999999999e+00	 7.500000000000000e+00	 1.004425846153849e+01
0	 4.124999999999998e+00	 6.875000000000000e+00	 1.007275033846152e+01
0	 4.124999999999998e+00	 6.937500000000000e+00	 1.007026172000000e+01
0	 4.124999999999998e+00	 6.999999999999998e+00	 1.006773298461536e+01
0	 4.124999999999997e+00	 7.062500000000000e+00	 1.006516413230770e+01
0	 4.125000000000000e+00	 7.125000000000000e+00	 1.006255516307692e+01
0	 4.124999999999999e+00	 7.187500000000000e+00	 1.005990607692307e+01
0	 4.124999999999999e+00	 7.249999999999998e+00	 1.005721687384617e+01
0	 4.124999999999999e+00	 7.312499999999999e+00	 1.005448755384617e+01
0	 4.124999999999998e+00	 7.374999999999999e+00	 1.005171811692308e+01
0	 4.124999999999998e+00	 7.437499999999998e+00	 1.004890856307691e+01
0	 4.124999999999998e+00	 7.499999999999999e+00	 1.004605889230768e+01
0	 4.187499999999998e+00	 6.875000000000000e+00	 1.007501727692308e+01
0	 4.187499999999998e+00	 6.937499999999999e+00	 1.007246390461539e+01
0	 4.187499999999999e+00	 7.000000000000001e+00	 1.006987086769228e+01
0	 4.187499999999999e+00	 7.062499999999999e+00	 1.006723816615384e+01
0	 4.187499999999998e+00	 7.124999999999999e+00	 1.006456579999999e+01
0	 4.187500000000000e+00	 7.187500000000000e+00	 1.006185376923075e+01
0	 4.187499999999999e+00	 7.249999999999999e+00	 1.005910207384617e+01
0	 4.187499999999999e+00	 7.312500000000000e+00	 1.005631071384616e+01
0	 4.187499999999998e+00	 7.374999999999998e+00	 1.005347968923077e+01
0	 4.187499999999999e+00	 7.437499999999999e+00	 1.005060900000000e+01
0	 4.187499999999998e+00	 7.499999999999998e+00	 1.004769864615387e+01
0	 4.249999999999998e+00	 6.875000000000000e+00	 1.007703889230770e+01
0	 4.250000000000000e+00	 6.937500000000001e+00	 1.007442923076923e+01
0	 4.249999999999998e+00	 6.999999999999998e+00	 1.007178035692310e+01
0	 4.249999999999998e+00	 7.062500000000000e+00	 1.006909227076923e+01
0	 4.249999999999998e+00	 7.125000000000000e+00	 1.006636497230770e+01
0	 4.249999999999998e+00	 7.187500000000000e+00	 1.006359846153847e+01
0	 4.249999999999998e+00	 7.250000000000000e+00	 1.006079273846154e+01
0	 4.249999999999998e+00	 7.312499999999999e+00	 1.005794780307692e+01
0	 4.249999999999998e+00	 7.374999999999998e+00	 1.005506365538462e+01
0	 4.249999999999998e+00	 7.437499999999998e+00	 1.005214029538462e+01
0	 4.249999999999998e+00	 7.500000000000000e+00	 1.004917772307695e+01
0	 4.312499999999998e+00	 6.875000000000000e+00	 1.007881518461537e+01
0	 4.312499999999999e+00	 6.937500000000001e+00	 1.007615769846152e+01
0	 4.312499999999998e+00	 7.000000000000001e+00	 1.007346145230769e+01
0	 4.312499999999998e+00	 7.062500000000000e+00	 1.007072644615383e+01
0	 4.312499999999998e+00	 7.124999999999999e+00	 1.006795268000000e+01
0	 4.312499999999998e+00	 7.187499999999998e+00	 1.006514015384615e+01
0	 4.312499999999997e+00	 7.249999999999999e+00	 1.006228886769230e+01
0	 4.312499999999997e+00	 7.312499999999998e+00	 1.005939882153846e+01
0	 4.312499999999998e+00	 7.374999999999998e+00	 1.005647001538461e+01
0	 4.312499999999998e+00	 7.437499999999998e+00	 1.005350244923079e+01
0	 4.312499999999998e+00	 7.500000000000000e+00	 1.005049612307695e+01
0	 4.375000000000000e+00	 6.875000000000000e+00	 1.008034615384615e+01
0	 4.375000000000000e+00	 6.937500000000000e+00	 1.007764930769230e+01
0	 4.375000000000001e+00	 7.000000000000000e+00	 1.007491415384613e+01
0	 4.375000000000000e+00	 7.062500000000000e+00	 1.007214069230771e+01
0	 4.375000000000000e+00	 7.125000000000000e+00	 1.006932892307692e+01
0	 4.375000000000000e+00	 7.187499999999998e+00	 1.006647884615384e+01
0	 4.375000000000000e+00	 7.249999999999998e+00	 1.006359046153849e+01
0	 4.375000000000000e+00	 7.312499999999998e+00	 1.006066376923077e+01
0	 4.375000000000000e+00	 7.374999999999998e+00	 1.005769876923078e+01
0	 4.375000000000000e+00	 7.437499999999998e+00	 1.005469546153846e+01
0	 4.375000000000000e+00	 7.500000000000000e+00	 1.005165384615385e+01
0	 3.750000000000000e+00	 7.500000000000000e+00	 1.003284615384615e+01
0	 3.750000000000000e+00	 7.562500000000000e+00	 1.003154799999999e+01
0	 3.750000000000001e+00	 7.625000000000000e+00	 1.003021846153848e+01
0	 3.750000000000000e+00	 7.687499999999999e+00	 1.002885753846153e+01
0	 3.750000000000000e+00	 7.750000000000000e+00	 1.002746523076922e+01
0	 3.750000000000000e+00	 7.812499999999999e+00	 1.002604153846155e+01
0	 3.750000000000000e+00	 7.874999999999998e+00	 1.002458646153846e+01
0	 3.750000000000000e+00	 7.937499999999997e+00	 1.002310000000000e+01
0	 3.750000000000000e+00	 7.999999999999998e+00	 1.002158215384615e+01
0	 3.750000000000000e+00	 8.062499999999996e+00	 1.002003292307694e+01
0	 3.750000000000000e+00	 8.125000000000000e+00	 1.001845230769231e+01
0	 3.812500000000000e+00	 7.500000000000000e+00	 1.003544996923078e+01
0	 3.812500000000000e+00	 7.562499999999999e+00	 1.003405575692307e+01
0	 3.812500000000000e+00	 7.624999999999998e+00	 1.003262930153847e+01
0	 3.812500000000000e+00	 7.687499999999998e+00	 1.003117060307693e+01
0	 3.812500000000000e+00	 7.750000000000000e+00	 1.002967966153846e+01
0	 3.812500000000000e+00	 7.812500000000000e+00	 1.002815647692306e+01
0	 3.812500000000000e+00	 7.874999999999999e+00	 1.002660104923077e+01
0	 3.812500000000000e+00	 7.937499999999998e+00	 1.002501337846152e+01
0	 3.812500000000001e+00	 8.000000000000000e+00	 1.002339346461538e+01
0	 3.812499999999999e+00	 8.062499999999995e+00	 1.002174130769230e+01
0	 3.812500000000000e+00	 8.125000000000000e+00	 1.002005690769231e+01
0	 3.874999999999999e+00	 7.499999999999999e+00	 1.003789310769228e+01
0	 3.875000000000000e+00	 7.562500000000001e+00	 1.003640893230770e+01
0	 3.875000000000000e+00	 7.625000000000001e+00	 1.003489165538460e+01
0	 3.875000000000000e+00	 7.687500000000001e+00	 1.003334127692307e+01
0	 3.874999999999998e+00	 7.749999999999998e+00	 1.003175779692307e+01
0	 3.875000000000000e+00	 7.812499999999998e+00	 1.003014121538462e+01
0	 3.874999999999998e+00	 7.874999999999996e+00	 1.002849153230768e+01
0	 3.875000000000000e+00	 7.937499999999998e+00	 1.002680874769231e+01
0	 3.874999999999999e+00	 7.999999999999999e+00	 1.002509286153844e+01
0	 3.875000000000000e+00	 8.062499999999998e+00	 1.002334387384612e+01
0	 3.874999999999999e+00	 8.125000000000000e+00	 1.002156178461540e+01
0	 3.937499999999999e+00	 7.500000000000000e+00	 1.004017556923077e+01
0	 3.937500000000000e+00	 7.562500000000001e+00	 1.003860752615384e+01
0	 3.937500000000000e+00	 7.625000000000001e+00	 1.003700552307692e+01
0	 3.937500000000000e+00	 7.687500000000000e+00	 1.003536956000000e+01
0	 3.937500000000000e+00	 7.749999999999999e+00	 1.003369963692307e+01
0	 3.937499999999999e+00	 7.812499999999999e+00	 1.003199575384616e+01
0	 3.937500000000000e+00	 7.874999999999998e+00	 1.003025791076923e+01
0	 3.937499999999999e+00	 7.937499999999998e+00	 1.002848610769231e+01
0	 3.937500000000000e+00	 7.999999999999998e+00	 1.002668034461539e+01
0	 3.937499999999998e+00	 8.062499999999996e+00	 1.002484062153845e+01
0	 3.937499999999999e+00	 8.125000000000000e+00	 1.002296693846152e+01
0	 3.999999999999999e+00	 7.500000000000000e+00	 1.004229735384616e+01
0	 3.999999999999999e+00	 7.562500000000000e+00	 1.004065153846154e+01
0	 4.000000000000000e+00	 7.625000000000000e+00	 1.003897090461538e+01
0	 3.999999999999999e+00	 7.687500000000000e+00	 1.003725545230769e+01
0	 3.999999999999999e+00	 7.749999999999998e+00	 1.003550518153845e+01
0	 3.999999999999999e+00	 7.812500000000000e+00	 1.003372009230770e+01
0	 3.999999999999999e+00	 7.874999999999998e+00	 1.003190018461538e+01
0	 3.999999999999999e+00	 7.937499999999999e+00	 1.003004545846152e+01
0	 3.999999999999999e+00	 7.999999999999997e+00	 1.002815591384614e+01
0	 3.999999999999999e+00	 8.062500000000000e+00	 1.002623155076924e+01
0	 3.999999999999999e+00	 8.125000000000000e+00	 1.002427236923078e+01
0	 4.062499999999999e+00	 7.500000000000000e+00	 1.004425846153849e+01
0	 4.062499999999999e+00	 7.562499999999999e+00	 1.004254096923075e+01
0	 4.062499999999999e+00	 7.624999999999999e+00	 1.004078780000000e+01
0	 4.062500000000000e+00	 7.687500000000000e+00	 1.003899895384616e+01
0	 4.062499999999997e+00	 7.749999999999996e+00	 1.003717443076923e+01
0	 4.062499999999999e+00	 7.812499999999999e+00	 1.003531423076923e+01
0	 4.062500000000000e+00	 7.875000000000000e+00	 1.003341835384615e+01
0	 4.062499999999999e+00	 7.937499999999999e+00	 1.003148679999999e+01
0	 4.062499999999999e+00	 7.999999999999998e+00	 1.002951956923076e+01
0	 4.062499999999999e+00	 8.062500000000000e+00	 1.002751666153846e+01
0	 4.062499999999999e+00	 8.125000000000000e+00	 1.002547807692307e+01
0	 4.124999999999998e+00	 7.499999999999999e+00	 1.004605889230768e+01
0	 4.124999999999998e+00	 7.562500000000000e+00	 1.004427581846151e+01
0	 4.124999999999998e+00	 7.624999999999998e+00	 1.004245620923077e+01
0	 4.124999999999997e+00	 7.687499999999998e+00	 1.004060006461539e+01
0	 4.125000000000000e+00	 7.750000000000001e+00	 1.003870738461537e+01
0	 4.124999999999999e+00	 7.812500000000000e+00	 1.003677816923077e+01
0	 4.124999999999999e+00	 7.874999999999998e+00	 1.003481241846155e+01
0	 4.124999999999999e+00	 7.937499999999999e+00	 1.003281013230767e+01
0	 4.124999999999998e+00	 8.000000000000000e+00	 1.003077131076922e+01
0	 4.124999999999998e+00	 8.062499999999998e+00	 1.002869595384615e+01
0	 4.124999999999998e+00	 8.125000000000000e+00	 1.002658406153846e+01
0	 4.187499999999998e+00	 7.499999999999998e+00	 1.004769864615387e+01
0	 4.187499999999998e+00	 7.562500000000000e+00	 1.004585608615387e+01
0	 4.187499999999999e+00	 7.624999999999999e+00	 1.004397613230770e+01
0	 4.187499999999999e+00	 7.687500000000000e+00	 1.004205878461537e+01
0	 4.187499999999998e+00	 7.749999999999998e+00	 1.004010404307693e+01
0	 4.187500000000000e+00	 7.812500000000000e+00	 1.003811190769231e+01
0	 4.187499999999999e+00	 7.874999999999999e+00	 1.003608237846154e+01
0	 4.187499999999999e+00	 7.937500000000000e+00	 1.003401545538460e+01
0	 4.187499999999998e+00	 7.999999999999998e+00	 1.003191113846153e+01
0	 4.187499999999999e+00	 8.062500000000000e+00	 1.002976942769229e+01
0	 4.187499999999998e+00	 8.125000000000000e+00	 1.002759032307688e+01
0	 4.249999999999998e+00	 7.500000000000000e+00	 1.004917772307695e+01
0	 4.250000000000000e+00	 7.562500000000001e+00	 1.004728177230770e+01
0	 4.249999999999998e+00	 7.625000000000000e+00	 1.004534756923077e+01
0	 4.249999999999998e+00	 7.687500000000001e+00	 1.004337511384617e+01
0	 4.249999999999998e+00	 7.749999999999999e+00	 1.004136440615385e+01
0	 4.249999999999998e+00	 7.812499999999998e+00	 1.003931544615386e+01
0	 4.249999999999998e+00	 7.875000000000000e+00	 1.003722823384614e+01
0	 4.249999999999998e+00	 7.937499999999998e+00	 1.003510276923076e+01
0	 4.249999999999998e+00	 7.999999999999998e+00	 1.003293905230769e+01
0	 4.249999999999998e+00	 8.062500000000000e+00	 1.003073708307692e+01
0	 4.249999999999998e+00	 8.125000000000000e+00	 1.002849686153845e+01
0	 4.312499999999998e+00	 7.500000000000000e+00	 1.005049612307695e+01
0	 4.312499999999999e+00	 7.562500000000001e+00	 1.004855287692309e+01
0	 4.312499999999998e+00	 7.624999999999999e+00	 1.004657052000000e+01
0	 4.312499999999998e+00	 7.687499999999999e+00	 1.004454905230769e+01
0	 4.312499999999998e+00	 7.750000000000000e+00	 1.004248847384615e+01
0	 4.312499999999998e+00	 7.812499999999999e+00	 1.004038878461537e+01
0	 4.312499999999997e+00	 7.874999999999998e+00	 1.003824998461537e+01
0	 4.312499999999997e+00	 7.937499999999998e+00	 1.003607207384615e+01
0	 4.312499999999998e+00	 7.999999999999998e+00	 1.003385505230769e+01
0	 4.312499999999998e+00	 8.062499999999998e+00	 1.003159891999998e+01
0	 4.312499999999998e+00	 8.125000000000000e+00	 1.002930367692308e+01
0	 4.375000000000000e+00	 7.500000000000000e+00	 1.005165384615385e+01
0	 4.375000000000000e+00	 7.562500000000000e+00	 1.004966940000001e+01
0	 4.375000000000001e+00	 7.625000000000000e+00	 1.004764498461541e+01
0	 4.375000000000000e+00	 7.687499999999999e+00	 1.004558060000000e+01
0	 4.375000000000000e+00	 7.750000000000000e+00	 1.004347624615385e+01
0	 4.375000000000000e+00	 7.812499999999999e+00	 1.004133192307694e+01
0	 4.375000000000000e+00	 7.874999999999998e+00	 1.003914763076923e+01
0	 4.375000000000000e+00	 7.937499999999997e+00	 1.003692336923076e+01
0	 4.375000000000000e+00	 7.999999999999998e+00	 1.003465913846154e+01
0	 4.375000000000000e+00	 8.062499999999996e+00	 1.003235493846154e+01
0	 4.375000000000000e+00	 8.125000000000000e+00	 1.003001076923076e+01
0	 3.750000000000000e+00	 8.125000000000000e+00	 1.001845230769231e+01
0	 3.750000000000000e+00	 8.187500000000000e+00	 1.001758284615385e+01
0	 3.750000000000001e+00	 8.250000000000002e+00	 1.001668523076922e+01
0	 3.750000000000000e+00	 8.312500000000000e+00	 1.001575946153845e+01
0	 3.750000000000000e+00	 8.374999999999998e+00	 1.001480553846152e+01
0	 3.750000000000000e+00	 8.437500000000000e+00	 1.001382346153845e+01
0	 3.750000000000000e+00	 8.500000000000000e+00	 1.001281323076922e+01
0	 3.750000000000000e+00	 8.562499999999998e+00	 1.001177484615383e+01
0	 3.750000000000000e+00	 8.625000000000000e+00	 1.001070830769230e+01
0	 3.750000000000000e+00	 8.687499999999998e+00	 1.000961361538458e+01
0	 3.750000000000000e+00	 8.750000000000000e+00	 1.000849076923076e+01
0	 3.812500000000000e+00	 8.125000000000000e+00	 1.002005690769231e+01
0	 3.812500000000000e+00	 8.187500000000002e+00	 1.001911461846153e+01
0	 3.812500000000000e+00	 8.250000000000000e+00	 1.001814244000000e+01
0	 3.812500000000000e+00	 8.312499999999998e+00	 1.001714037230768e+01
0	 3.812500000000000e+00	 8.374999999999998e+00	 1.001610841538461e+01
0	 3.812500000000000e+00	 8.437500000000000e+00	 1.001504656923077e+01
0	 3.812500000000000e+00	 8.500000000000002e+00	 1.001395483384615e+01
0	 3.812500000000000e+00	 8.562500000000000e+00	 1.001283320923075e+01
0	 3.812500000000001e+00	 8.625000000000002e+00	 1.001168169538461e+01
0	 3.812499999999999e+00	 8.687499999999996e+00	 1.001050029230767e+01
0	 3.812500000000000e+00	 8.750000000000002e+00	 1.000928899999998e+01
0	 3.874999999999999e+00	 8.125000000000000e+00	 1.002156178461540e+01
0	 3.875000000000000e+00	 8.187499999999998e+00	 1.002055093230769e+01
0	 3.875000000000000e+00	 8.250000000000000e+00	 1.001950845538461e+01
0	 3.875000000000000e+00	 8.312500000000000e+00	 1.001843435384614e+01
0	 3.874999999999998e+00	 8.374999999999998e+00	 1.001732862769230e+01
0	 3.875000000000000e+00	 8.437499999999998e+00	 1.001619127692307e+01
0	 3.874999999999998e+00	 8.499999999999996e+00	 1.001502230153846e+01
0	 3.875000000000000e+00	 8.562500000000002e+00	 1.001382170153846e+01
0	 3.874999999999999e+00	 8.624999999999998e+00	 1.001258947692308e+01
0	 3.875000000000000e+00	 8.687499999999998e+00	 1.001132562769231e+01
0	 3.874999999999999e+00	 8.750000000000000e+00	 1.001003015384611e+01
0	 3.937499999999999e+00	 8.125000000000000e+00	 1.002296693846152e+01
0	 3.937500000000000e+00	 8.187500000000000e+00	 1.002189178769232e+01
0	 3.937500000000000e+00	 8.250000000000002e+00	 1.002078327692308e+01
0	 3.937500000000000e+00	 8.312499999999998e+00	 1.001964140615385e+01
0	 3.937500000000000e+00	 8.374999999999998e+00	 1.001846617538460e+01
0	 3.937499999999999e+00	 8.437500000000000e+00	 1.001725758461538e+01
0	 3.937500000000000e+00	 8.499999999999998e+00	 1.001601563384614e+01
0	 3.937499999999999e+00	 8.562500000000000e+00	 1.001474032307691e+01
0	 3.937500000000000e+00	 8.625000000000000e+00	 1.001343165230768e+01
0	 3.937499999999998e+00	 8.687499999999996e+00	 1.001208962153844e+01
0	 3.937499999999999e+00	 8.750000000000000e+00	 1.001071423076923e+01
0	 3.999999999999999e+00	 8.125000000000000e+00	 1.002427236923078e+01
0	 3.999999999999999e+00	 8.187499999999998e+00	 1.002313718461538e+01
0	 4.000000000000000e+00	 8.250000000000002e+00	 1.002196690461538e+01
0	 3.999999999999999e+00	 8.312500000000000e+00	 1.002076152923075e+01
0	 3.999999999999999e+00	 8.374999999999998e+00	 1.001952105846154e+01
0	 3.999999999999999e+00	 8.437500000000000e+00	 1.001824549230768e+01
0	 3.999999999999999e+00	 8.499999999999998e+00	 1.001693483076921e+01
0	 3.999999999999999e+00	 8.562499999999998e+00	 1.001558907384617e+01
0	 3.999999999999999e+00	 8.624999999999998e+00	 1.001420822153845e+01
0	 3.999999999999999e+00	 8.687499999999996e+00	 1.001279227384613e+01
0	 3.999999999999999e+00	 8.749999999999998e+00	 1.001134123076919e+01
0	 4.062499999999999e+00	 8.125000000000000e+00	 1.002547807692307e+01
0	 4.062499999999999e+00	 8.187499999999998e+00	 1.002428712307690e+01
0	 4.062499999999999e+00	 8.249999999999998e+00	 1.002305933846153e+01
0	 4.062500000000000e+00	 8.312500000000000e+00	 1.002179472307692e+01
0	 4.062499999999997e+00	 8.374999999999998e+00	 1.002049327692306e+01
0	 4.062499999999999e+00	 8.437499999999998e+00	 1.001915499999999e+01
0	 4.062500000000000e+00	 8.500000000000002e+00	 1.001777989230768e+01
0	 4.062499999999999e+00	 8.562499999999998e+00	 1.001636795384614e+01
0	 4.062499999999999e+00	 8.624999999999998e+00	 1.001491918461540e+01
0	 4.062499999999999e+00	 8.687500000000000e+00	 1.001343358461535e+01
0	 4.062499999999999e+00	 8.750000000000000e+00	 1.001191115384615e+01
0	 4.124999999999998e+00	 8.125000000000000e+00	 1.002658406153846e+01
0	 4.124999999999998e+00	 8.187500000000000e+00	 1.002534160307690e+01
0	 4.124999999999998e+00	 8.249999999999998e+00	 1.002406057846153e+01
0	 4.124999999999997e+00	 8.312500000000000e+00	 1.002274098769230e+01
0	 4.125000000000000e+00	 8.375000000000002e+00	 1.002138283076922e+01
0	 4.124999999999999e+00	 8.437500000000002e+00	 1.001998610769230e+01
0	 4.124999999999999e+00	 8.499999999999998e+00	 1.001855081846153e+01
0	 4.124999999999999e+00	 8.562500000000000e+00	 1.001707696307691e+01
0	 4.124999999999998e+00	 8.624999999999998e+00	 1.001556454153846e+01
0	 4.124999999999998e+00	 8.687499999999998e+00	 1.001401355384616e+01
0	 4.124999999999998e+00	 8.750000000000000e+00	 1.001242399999998e+01
0	 4.187499999999998e+00	 8.125000000000000e+00	 1.002759032307688e+01
0	 4.187499999999998e+00	 8.187500000000000e+00	 1.002630062461537e+01
0	 4.187499999999999e+00	 8.250000000000000e+00	 1.002497062461537e+01
0	 4.187499999999999e+00	 8.312500000000000e+00	 1.002360032307690e+01
0	 4.187499999999998e+00	 8.374999999999998e+00	 1.002218971999999e+01
0	 4.187500000000000e+00	 8.437500000000000e+00	 1.002073881538460e+01
0	 4.187499999999999e+00	 8.500000000000000e+00	 1.001924760923076e+01
0	 4.187499999999999e+00	 8.562499999999998e+00	 1.001771610153845e+01
0	 4.187499999999998e+00	 8.624999999999998e+00	 1.001614429230770e+01
0	 4.187499999999999e+00	 8.687500000000000e+00	 1.001453218153845e+01
0	 4.187499999999998e+00	 8.750000000000000e+00	 1.001287976923079e+01
0	 4.249999999999998e+00	 8.125000000000000e+00	 1.002849686153845e+01
0	 4.250000000000000e+00	 8.187500000000002e+00	 1.002716418769228e+01
0	 4.249999999999998e+00	 8.250000000000000e+00	 1.002578947692307e+01
0	 4.249999999999998e+00	 8.312500000000000e+00	 1.002437272923079e+01
0	 4.249999999999998e+00	 8.375000000000002e+00	 1.002291394461538e+01
0	 4.249999999999998e+00	 8.437500000000000e+00	 1.002141312307692e+01
0	 4.249999999999998e+00	 8.500000000000000e+00	 1.001987026461539e+01
0	 4.249999999999998e+00	 8.562499999999996e+00	 1.001828536923078e+01
0	 4.249999999999998e+00	 8.624999999999998e+00	 1.001665843692307e+01
0	 4.249999999999998e+00	 8.687499999999998e+00	 1.001498946769231e+01
0	 4.249999999999998e+00	 8.750000000000002e+00	 1.001327846153847e+01
0	 4.312499999999998e+00	 8.125000000000000e+00	 1.002930367692308e+01
0	 4.312499999999999e+00	 8.187500000000000e+00	 1.002793229230769e+01
0	 4.312499999999998e+00	 8.250000000000002e+00	 1.002651713538459e+01
0	 4.312499999999998e+00	 8.312499999999998e+00	 1.002505820615384e+01
0	 4.312499999999998e+00	 8.374999999999998e+00	 1.002355550461537e+01
0	 4.312499999999998e+00	 8.437499999999998e+00	 1.002200903076922e+01
0	 4.312499999999997e+00	 8.499999999999998e+00	 1.002041878461537e+01
0	 4.312499999999997e+00	 8.562499999999998e+00	 1.001878476615384e+01
0	 4.312499999999998e+00	 8.624999999999998e+00	 1.001710697538461e+01
0	 4.312499999999998e+00	 8.687499999999998e+00	 1.001538541230770e+01
0	 4.312499999999998e+00	 8.750000000000000e+00	 1.001362007692308e+01
0	 4.375000000000000e+00	 8.125000000000000e+00	 1.003001076923076e+01
0	 4.375000000000000e+00	 8.187500000000000e+00	 1.002860493846154e+01
0	 4.375000000000001e+00	 8.250000000000002e+00	 1.002715359999997e+01
0	 4.375000000000000e+00	 8.312500000000000e+00	 1.002565675384614e+01
0	 4.375000000000000e+00	 8.374999999999998e+00	 1.002411439999999e+01
0	 4.375000000000000e+00	 8.437500000000000e+00	 1.002252653846153e+01
0	 4.375000000000000e+00	 8.500000000000000e+00	 1.002089316923076e+01
0	 4.375000000000000e+00	 8.562499999999998e+00	 1.001921429230769e+01
0	 4.375000000000000e+00	 8.625000000000000e+00	 1.001748990769230e+01
0	 4.375000000000000e+00	 8.687499999999998e+00	 1.001572001538459e+01
0	 4.375000000000000e+00	 8.750000000000000e+00	 1.001390461538461e+01
0	 3.750000000000000e+00	 8.750000000000000e+00	 1.000849076923076e+01
0	 3.750000000000000e+00	 8.812500000000000e+00	 1.000796958461537e+01
0	 3.750000000000001e+00	 8.875000000000002e+00	 1.000741341538461e+01
0	 3.750000000000000e+00	 8.937499999999998e+00	 1.000682226153846e+01
0	 3.750000000000000e+00	 9.000000000000000e+00	 1.000619612307692e+01
0	 3.750000000000000e+00	 9.062500000000000e+00	 1.000553500000001e+01
0	 3.750000000000000e+00	 9.124999999999998e+00	 1.000483889230770e+01
0	 3.750000000000000e+00	 9.187499999999998e+00	 1.000410779999999e+01
0	 3.750000000000000e+00	 9.249999999999998e+00	 1.000334172307694e+01
0	 3.750000000000000e+00	 9.312499999999998e+00	 1.000254066153847e+01
0	 3.750000000000000e+00	 9.375000000000000e+00	 1.000170461538463e+01
0	 3.812500000000000e+00	 8.750000000000002e+00	 1.000928899999998e+01
0	 3.812500000000000e+00	 8.812499999999998e+00	 1.000872605692309e+01
0	 3.812500000000000e+00	 8.875000000000000e+00	 1.000812536923074e+01
0	 3.812500000000000e+00	 8.937500000000000e+00	 1.000748693692308e+01
0	 3.812500000000000e+00	 9.000000000000000e+00	 1.000681075999999e+01
0	 3.812500000000000e+00	 9.062500000000000e+00	 1.000609683846153e+01
0	 3.812500000000000e+00	 9.125000000000000e+00	 1.000534517230771e+01
0	 3.812500000000000e+00	 9.187499999999998e+00	 1.000455576153847e+01
0	 3.812500000000001e+00	 9.250000000000000e+00	 1.000372860615385e+01
0	 3.812499999999999e+00	 9.312499999999996e+00	 1.000286370615383e+01
0	 3.812500000000000e+00	 9.375000000000000e+00	 1.000196106153848e+01
0	 3.874999999999999e+00	 8.750000000000000e+00	 1.001003015384611e+01
0	 3.875000000000000e+00	 8.812500000000000e+00	 1.000942764923076e+01
0	 3.875000000000000e+00	 8.875000000000004e+00	 1.000878464000000e+01
0	 3.875000000000000e+00	 8.937500000000000e+00	 1.000810112615384e+01
0	 3.874999999999998e+00	 8.999999999999998e+00	 1.000737710769231e+01
0	 3.875000000000000e+00	 9.062500000000000e+00	 1.000661258461539e+01
0	 3.874999999999998e+00	 9.124999999999998e+00	 1.000580755692307e+01
0	 3.875000000000000e+00	 9.187500000000002e+00	 1.000496202461539e+01
0	 3.874999999999999e+00	 9.249999999999996e+00	 1.000407598769230e+01
0	 3.875000000000000e+00	 9.312499999999998e+00	 1.000314944615386e+01
0	 3.874999999999999e+00	 9.375000000000000e+00	 1.000218240000001e+01
0	 3.937499999999999e+00	 8.750000000000000e+00	 1.001071423076923e+01
0	 3.937500000000000e+00	 8.812500000000000e+00	 1.001007436153846e+01
0	 3.937500000000000e+00	 8.875000000000002e+00	 1.000939122769231e+01
0	 3.937500000000000e+00	 8.937500000000000e+00	 1.000866482923076e+01
0	 3.937500000000000e+00	 9.000000000000000e+00	 1.000789516615385e+01
0	 3.937499999999999e+00	 9.062499999999998e+00	 1.000708223846155e+01
0	 3.937500000000000e+00	 9.124999999999998e+00	 1.000622604615385e+01
0	 3.937499999999999e+00	 9.187500000000002e+00	 1.000532658923076e+01
0	 3.937500000000000e+00	 9.249999999999998e+00	 1.000438386769230e+01
0	 3.937499999999998e+00	 9.312499999999998e+00	 1.000339788153846e+01
0	 3.937499999999999e+00	 9.375000000000002e+00	 1.000236863076924e+01
0	 3.999999999999999e+00	 8.749999999999998e+00	 1.001134123076919e+01
0	 3.999999999999999e+00	 8.812500000000000e+00	 1.001066619384616e+01
0	 4.000000000000000e+00	 8.875000000000002e+00	 1.000994513230768e+01
0	 3.999999999999999e+00	 8.937500000000000e+00	 1.000917804615384e+01
0	 3.999999999999999e+00	 8.999999999999998e+00	 1.000836493538461e+01
0	 3.999999999999999e+00	 9.062500000000000e+00	 1.000750580000001e+01
0	 3.999999999999999e+00	 9.124999999999998e+00	 1.000660064000001e+01
0	 3.999999999999999e+00	 9.187500000000000e+00	 1.000564945538461e+01
0	 3.999999999999999e+00	 9.249999999999998e+00	 1.000465224615384e+01
0	 3.999999999999999e+00	 9.312500000000000e+00	 1.000360901230770e+01
0	 3.999999999999999e+00	 9.375000000000002e+00	 1.000251975384617e+01
0	 4.062499999999999e+00	 8.750000000000000e+00	 1.001191115384615e+01
0	 4.062499999999999e+00	 8.812500000000000e+00	 1.001120314615387e+01
0	 4.062499999999999e+00	 8.875000000000000e+00	 1.001044635384615e+01
0	 4.062500000000000e+00	 8.937500000000000e+00	 1.000964077692309e+01
0	 4.062499999999997e+00	 8.999999999999998e+00	 1.000878641538463e+01
0	 4.062499999999999e+00	 9.062500000000000e+00	 1.000788326923078e+01
0	 4.062500000000000e+00	 9.125000000000002e+00	 1.000693133846153e+01
0	 4.062499999999999e+00	 9.187499999999998e+00	 1.000593062307693e+01
0	 4.062499999999999e+00	 9.249999999999998e+00	 1.000488112307693e+01
0	 4.062499999999999e+00	 9.312500000000000e+00	 1.000378283846153e+01
0	 4.062499999999999e+00	 9.375000000000002e+00	 1.000263576923076e+01
0	 4.124999999999998e+00	 8.750000000000000e+00	 1.001242399999998e+01
0	 4.124999999999998e+00	 8.812500000000000e+00	 1.001168521846153e+01
0	 4.124999999999998e+00	 8.874999999999996e+00	 1.001089489230769e+01
0	 4.124999999999997e+00	 8.937499999999998e+00	 1.001005302153845e+01
0	 4.125000000000000e+00	 9.000000000000004e+00	 1.000915960615384e+01
0	 4.124999999999999e+00	 9.062500000000002e+00	 1.000821464615384e+01
0	 4.124999999999999e+00	 9.124999999999998e+00	 1.000721814153844e+01
0	 4.124999999999999e+00	 9.187500000000000e+00	 1.000617009230769e+01
0	 4.124999999999998e+00	 9.249999999999998e+00	 1.000507049846155e+01
0	 4.124999999999998e+00	 9.312499999999998e+00	 1.000391936000001e+01
0	 4.124999999999998e+00	 9.375000000000000e+00	 1.000271667692308e+01
0	 4.187499999999998e+00	 8.750000000000000e+00	 1.001287976923079e+01
0	 4.187499999999998e+00	 8.812499999999998e+00	 1.001211241076924e+01
0	 4.187499999999999e+00	 8.875000000000002e+00	 1.001129074769232e+01
0	 4.187499999999999e+00	 8.937500000000002e+00	 1.001041478000000e+01
0	 4.187499999999998e+00	 8.999999999999998e+00	 1.000948450769230e+01
0	 4.187500000000000e+00	 9.062500000000000e+00	 1.000849993076923e+01
0	 4.187499999999999e+00	 9.125000000000000e+00	 1.000746104923076e+01
0	 4.187499999999999e+00	 9.187500000000000e+00	 1.000636786307691e+01
0	 4.187499999999998e+00	 9.249999999999998e+00	 1.000522037230768e+01
0	 4.187499999999999e+00	 9.312500000000000e+00	 1.000401857692309e+01
0	 4.187499999999998e+00	 9.375000000000000e+00	 1.000276247692309e+01
0	 4.249999999999998e+00	 8.750000000000002e+00	 1.001327846153847e+01
0	 4.250000000000000e+00	 8.812500000000002e+00	 1.001248472307693e+01
0	 4.249999999999998e+00	 8.875000000000000e+00	 1.001163391999999e+01
0	 4.249999999999998e+00	 8.937500000000002e+00	 1.001072605230770e+01
0	 4.249999999999998e+00	 8.999999999999998e+00	 1.000976112000000e+01
0	 4.249999999999998e+00	 9.062499999999998e+00	 1.000873912307693e+01
0	 4.249999999999998e+00	 9.125000000000000e+00	 1.000766006153845e+01
0	 4.249999999999998e+00	 9.187499999999998e+00	 1.000652393538462e+01
0	 4.249999999999998e+00	 9.250000000000000e+00	 1.000533074461539e+01
0	 4.249999999999998e+00	 9.312499999999998e+00	 1.000408048923078e+01
0	 4.249999999999998e+00	 9.375000000000000e+00	 1.000277316923077e+01
0	 4.312499999999998e+00	 8.750000000000000e+00	 1.001362007692308e+01
0	 4.312499999999999e+00	 8.812500000000000e+00	 1.001280215538462e+01
0	 4.312499999999998e+00	 8.875000000000002e+00	 1.001192440923076e+01
0	 4.312499999999998e+00	 8.937500000000000e+00	 1.001098683846154e+01
0	 4.312499999999998e+00	 9.000000000000000e+00	 1.000998944307692e+01
0	 4.312499999999998e+00	 9.062500000000000e+00	 1.000893222307693e+01
0	 4.312499999999997e+00	 9.125000000000000e+00	 1.000781517846153e+01
0	 4.312499999999997e+00	 9.187499999999998e+00	 1.000663830923078e+01
0	 4.312499999999998e+00	 9.249999999999998e+00	 1.000540161538462e+01
0	 4.312499999999998e+00	 9.312499999999996e+00	 1.000410509692309e+01
0	 4.312499999999998e+00	 9.375000000000000e+00	 1.000274875384616e+01
0	 4.375000000000000e+00	 8.750000000000000e+00	 1.001390461538461e+01
0	 4.375000000000000e+00	 8.812500000000000e+00	 1.001306470769232e+01
0	 4.375000000000001e+00	 8.875000000000002e+00	 1.001216221538463e+01
0	 4.375000000000000e+00	 8.937499999999998e+00	 1.001119713846153e+01
0	 4.375000000000000e+00	 9.000000000000000e+00	 1.001016947692309e+01
0	 4.375000000000000e+00	 9.062500000000000e+00	 1.000907923076924e+01
0	 4.375000000000000e+00	 9.124999999999998e+00	 1.000792640000001e+01
0	 4.375000000000000e+00	 9.187499999999998e+00	 1.000671098461539e+01
0	 4.375000000000000e+00	 9.249999999999998e+00	 1.000543298461540e+01
0	 4.375000000000000e+00	 9.312499999999998e+00	 1.000409240000002e+01
0	 4.375000000000000e+00	 9.375000000000000e+00	 1.000268923076924e+01
0	 3.750000000000000e+00	 9.375000000000000e+00	 1.000170461538463e+01
0	 3.750000000000000e+00	 9.437499999999998e+00	 1.000167746153848e+01
0	 3.750000000000000e+00	 9.500000000000000e+00	 1.000159076923077e+01
0	 3.750000000000000e+00	 9.562500000000000e+00	 1.000144453846155e+01
0	 3.750000000000000e+00	 9.625000000000000e+00	 1.000123876923076e+01
0	 3.750000000000000e+00	 9.687499999999998e+00	 1.000097346153848e+01
0	 3.750000000000000e+00	 9.749999999999998e+00	 1.000064861538463e+01
0	 3.750000000000000e+00	 9.812500000000000e+00	 1.000026423076923e+01
0	 3.750000000000000e+00	 9.875000000000000e+00	 9.999820307692287e+00
0	 3.750000000000000e+00	 9.937499999999998e+00	 9.999316846153899e+00
0	 3.750000000000000e+00	 1.000000000000000e+01	 9.998753846153846e+00
0	 3.812500000000000e+00	 9.375000000000000e+00	 1.000196106153848e+01
0	 3.812500000000000e+00	 9.437500000000002e+00	 1.000193648615387e+01
0	 3.812499999999999e+00	 9.500000000000000e+00	 1.000184846769232e+01
0	 3.812500000000000e+00	 9.562500000000000e+00	 1.000169700615385e+01
0	 3.812500000000000e+00	 9.625000000000000e+00	 1.000148210153851e+01
0	 3.812500000000000e+00	 9.687500000000000e+00	 1.000120375384616e+01
0	 3.812500000000000e+00	 9.749999999999998e+00	 1.000086196307693e+01
0	 3.812500000000000e+00	 9.812499999999998e+00	 1.000045672923075e+01
0	 3.812500000000000e+00	 9.874999999999998e+00	 9.999988052307708e+00
0	 3.812499999999999e+00	 9.937499999999996e+00	 9.999455932307720e+00
0	 3.812500000000000e+00	 1.000000000000000e+01	 9.998860369230766e+00
0	 3.874999999999999e+00	 9.375000000000000e+00	 1.000218240000001e+01
0	 3.874999999999999e+00	 9.437499999999998e+00	 1.000215986461540e+01
0	 3.875000000000000e+00	 9.500000000000000e+00	 1.000206998153849e+01
0	 3.875000000000000e+00	 9.562500000000000e+00	 1.000191275076926e+01
0	 3.875000000000000e+00	 9.625000000000002e+00	 1.000168817230768e+01
0	 3.875000000000000e+00	 9.687500000000002e+00	 1.000139624615385e+01
0	 3.875000000000000e+00	 9.750000000000000e+00	 1.000103697230769e+01
0	 3.875000000000000e+00	 9.812500000000002e+00	 1.000061035076927e+01
0	 3.875000000000000e+00	 9.874999999999996e+00	 1.000011638153846e+01
0	 3.875000000000000e+00	 9.937500000000000e+00	 9.999555064615386e+00
0	 3.874999999999999e+00	 1.000000000000000e+01	 9.998926399999988e+00
0	 3.937499999999999e+00	 9.375000000000002e+00	 1.000236863076924e+01
0	 3.937499999999999e+00	 9.437500000000000e+00	 1.000234759692308e+01
0	 3.937499999999999e+00	 9.499999999999996e+00	 1.000225531076924e+01
0	 3.937499999999999e+00	 9.562500000000000e+00	 1.000209177230774e+01
0	 3.937499999999999e+00	 9.624999999999998e+00	 1.000185698153848e+01
0	 3.937499999999999e+00	 9.687500000000000e+00	 1.000155093846159e+01
0	 3.937499999999999e+00	 9.749999999999996e+00	 1.000117364307692e+01
0	 3.937499999999999e+00	 9.812499999999996e+00	 1.000072509538461e+01
0	 3.937500000000000e+00	 9.875000000000000e+00	 1.000020529538459e+01
0	 3.937499999999999e+00	 9.937499999999998e+00	 9.999614243076902e+00
0	 3.937500000000000e+00	 1.000000000000000e+01	 9.998951938461534e+00
0	 3.999999999999999e+00	 9.375000000000002e+00	 1.000251975384617e+01
0	 4.000000000000000e+00	 9.437500000000000e+00	 1.000249968307693e+01
0	 4.000000000000000e+00	 9.500000000000004e+00	 1.000240445538462e+01
0	 3.999999999999999e+00	 9.562500000000000e+00	 1.000223407076923e+01
0	 3.999999999999998e+00	 9.624999999999998e+00	 1.000198852923076e+01
0	 4.000000000000000e+00	 9.687499999999998e+00	 1.000166783076922e+01
0	 3.999999999999999e+00	 9.750000000000000e+00	 1.000127197538463e+01
0	 3.999999999999999e+00	 9.812499999999996e+00	 1.000080096307695e+01
0	 3.999999999999999e+00	 9.874999999999998e+00	 1.000025479384613e+01
0	 3.999999999999999e+00	 9.937499999999996e+00	 9.999633467692373e+00
0	 4.000000000000000e+00	 1.000000000000000e+01	 9.998936984615398e+00
0	 4.062499999999999e+00	 9.375000000000002e+00	 1.000263576923076e+01
0	 4.062499999999999e+00	 9.437499999999998e+00	 1.000261612307693e+01
0	 4.062499999999999e+00	 9.499999999999998e+00	 1.000251741538461e+01
0	 4.062499999999999e+00	 9.562500000000000e+00	 1.000233964615386e+01
0	 4.062499999999998e+00	 9.624999999999998e+00	 1.000208281538463e+01
0	 4.062499999999999e+00	 9.687500000000000e+00	 1.000174692307693e+01
0	 4.062499999999999e+00	 9.750000000000000e+00	 1.000133196923079e+01
0	 4.062499999999998e+00	 9.812499999999998e+00	 1.000083795384616e+01
0	 4.062500000000000e+00	 9.874999999999998e+00	 1.000026487692313e+01
0	 4.062499999999998e+00	 9.937499999999998e+00	 9.999612738461545e+00
0	 4.062499999999999e+00	 1.000000000000000e+01	 9.998881538461523e+00
0	 4.124999999999998e+00	 9.375000000000000e+00	 1.000271667692308e+01
0	 4.124999999999999e+00	 9.437499999999998e+00	 1.000269691692309e+01
0	 4.124999999999999e+00	 9.500000000000000e+00	 1.000259419076925e+01
0	 4.124999999999999e+00	 9.562500000000000e+00	 1.000240849846153e+01
0	 4.124999999999999e+00	 9.625000000000000e+00	 1.000213984000001e+01
0	 4.124999999999998e+00	 9.687499999999998e+00	 1.000178821538463e+01
0	 4.124999999999999e+00	 9.749999999999998e+00	 1.000135362461535e+01
0	 4.124999999999998e+00	 9.812499999999996e+00	 1.000083606769231e+01
0	 4.124999999999998e+00	 9.874999999999998e+00	 1.000023554461537e+01
0	 4.124999999999999e+00	 9.937499999999998e+00	 9.999552055384653e+00
0	 4.124999999999999e+00	 9.999999999999998e+00	 9.998785600000044e+00
0	 4.187499999999998e+00	 9.375000000000000e+00	 1.000276247692309e+01
0	 4.187499999999998e+00	 9.437499999999998e+00	 1.000274206461539e+01
0	 4.187499999999997e+00	 9.499999999999998e+00	 1.000263478153848e+01
0	 4.187499999999999e+00	 9.562500000000002e+00	 1.000244062769232e+01
0	 4.187499999999999e+00	 9.624999999999998e+00	 1.000215960307694e+01
0	 4.187499999999999e+00	 9.687500000000000e+00	 1.000179170769229e+01
0	 4.187499999999999e+00	 9.750000000000000e+00	 1.000133694153844e+01
0	 4.187499999999999e+00	 9.812500000000000e+00	 1.000079530461540e+01
0	 4.187499999999998e+00	 9.874999999999998e+00	 1.000016679692309e+01
0	 4.187499999999999e+00	 9.937499999999998e+00	 9.999451418461533e+00
0	 4.187499999999999e+00	 1.000000000000000e+01	 9.998649169230735e+00
0	 4.249999999999998e+00	 9.375000000000000e+00	 1.000277316923077e+01
0	 4.249999999999998e+00	 9.437500000000002e+00	 1.000275156615384e+01
0	 4.249999999999997e+00	 9.500000000000000e+00	 1.000263918769230e+01
0	 4.249999999999998e+00	 9.562500000000002e+00	 1.000243603384618e+01
0	 4.249999999999997e+00	 9.624999999999998e+00	 1.000214210461537e+01
0	 4.249999999999998e+00	 9.687499999999998e+00	 1.000175740000001e+01
0	 4.249999999999998e+00	 9.750000000000000e+00	 1.000128192000004e+01
0	 4.249999999999998e+00	 9.812499999999998e+00	 1.000071566461538e+01
0	 4.249999999999998e+00	 9.874999999999998e+00	 1.000005863384611e+01
0	 4.249999999999998e+00	 9.937499999999998e+00	 9.999310827692279e+00
0	 4.249999999999998e+00	 1.000000000000000e+01	 9.998472246153840e+00
0	 4.312499999999998e+00	 9.375000000000000e+00	 1.000274875384616e+01
0	 4.312499999999997e+00	 9.437500000000000e+00	 1.000272542153848e+01
0	 4.312499999999998e+00	 9.499999999999998e+00	 1.000260740923080e+01
0	 4.312499999999998e+00	 9.562500000000000e+00	 1.000239471692310e+01
0	 4.312499999999998e+00	 9.624999999999998e+00	 1.000208734461542e+01
0	 4.312499999999997e+00	 9.687499999999996e+00	 1.000168529230770e+01
0	 4.312499999999997e+00	 9.749999999999998e+00	 1.000118856000000e+01
0	 4.312499999999998e+00	 9.812499999999998e+00	 1.000059714769230e+01
0	 4.312499999999998e+00	 9.874999999999996e+00	 9.999911055384679e+00
0	 4.312499999999998e+00	 9.937499999999998e+00	 9.999130283076903e+00
0	 4.312499999999998e+00	 1.000000000000000e+01	 9.998254830769239e+00
0	 4.375000000000000e+00	 9.375000000000000e+00	 1.000268923076924e+01
0	 4.375000000000000e+00	 9.437499999999998e+00	 1.000266363076924e+01
0	 4.375000000000000e+00	 9.500000000000000e+00	 1.000253944615384e+01
0	 4.374999999999999e+00	 9.562500000000000e+00	 1.000231667692308e+01
0	 4.375000000000000e+00	 9.625000000000000e+00	 1.000199532307693e+01
0	 4.375000000000000e+00	 9.687499999999998e+00	 1.000157538461538e+01
0	 4.375000000000000e+00	 9.749999999999998e+00	 1.000105686153846e+01
0	 4.375000000000000e+00	 9.812500000000000e+00	 1.000043975384616e+01
0	 4.375000000000001e+00	 9.875000000000000e+00	 9.999724061538458e+00
0	 4.375000000000000e+00	 9.937499999999998e+00	 9.998909784615437e+00
0	 4.375000000000000e+00	 1.000000000000000e+01	 9.997996923076935e+00
0	 4.375000000000000e+00	 0.000000000000000e+00	 1.034188369230769e+01
0	 4.375000000000001e+00	 6.250000000000000e-02	 1.035249575384615e+01
0	 4.375000000000000e+00	 1.250000000000000e-01	 1.036247560000000e+01
0	 4.375000000000000e+00	 1.875000000000000e-01	 1.037182323076923e+01
0	 4.375000000000000e+00	 2.500000000000000e-01	 1.038053864615385e+01
0	 4.375000000000000e+00	 3.125000000000000e-01	 1.038862184615385e+01
0	 4.375000000000000e+00	 3.750000000000000e-01	 1.039607283076923e+01
0	 4.375000000000000e+00	 4.374999999999999e-01	 1.040289160000000e+01
0	 4.375000000000000e+00	 5.000000000000000e-01	 1.040907815384615e+01
0	 4.375000000000000e+00	 5.624999999999999e-01	 1.041463249230769e+01
0	 4.375000000000000e+00	 6.250000000000000e-01	 1.041955461538461e+01
0	 4.437500000000000e+00	 0.000000000000000e+00	 1.034391778153846e+01
0	 4.437500000000000e+00	 6.249999999999999e-02	 1.035252862323077e+01
0	 4.437499999999999e+00	 1.250000000000000e-01	 1.036049692953845e+01
0	 4.437499999999999e+00	 1.875000000000000e-01	 1.036782270046154e+01
0	 4.437500000000000e+00	 2.500000000000000e-01	 1.037450593600000e+01
0	 4.437500000000000e+00	 3.125000000000001e-01	 1.038054663615384e+01
0	 4.437499999999999e+00	 3.749999999999999e-01	 1.038594480092308e+01
0	 4.437499999999999e+00	 4.374999999999999e-01	 1.039070043030769e+01
0	 4.437500000000000e+00	 5.000000000000000e-01	 1.039481352430769e+01
0	 4.437500000000000e+00	 5.625000000000000e-01	 1.039828408292307e+01
0	 4.437499999999999e+00	 6.250000000000000e-01	 1.040111210615385e+01
0	 4.500000000000000e+00	 0.000000000000000e+00	 1.034424503384615e+01
0	 4.500000000000001e+00	 6.250000000000000e-02	 1.035116324369231e+01
0	 4.500000000000001e+00	 1.250000000000000e-01	 1.035742859815385e+01
0	 4.500000000000000e+00	 1.875000000000000e-01	 1.036304109723077e+01
0	 4.499999999999999e+00	 2.500000000000001e-01	 1.036800074092307e+01
0	 4.499999999999999e+00	 3.125000000000000e-01	 1.037230752923077e+01
0	 4.499999999999999e+00	 3.749999999999999e-01	 1.037596146215385e+01
0	 4.500000000000001e+00	 4.375000000000000e-01	 1.037896253969230e+01
0	 4.500000000000000e+00	 4.999999999999999e-01	 1.038131076184615e+01
0	 4.499999999999999e+00	 5.625000000000000e-01	 1.038300612861539e+01
0	 4.500000000000000e+00	 6.249999999999999e-01	 1.038404864000000e+01
0	 4.562499999999999e+00	 0.000000000000000e+00	 1.034286544923076e+01
0	 4.562499999999999e+00	 6.250000000000000e-02	 1.034839961523077e+01
0	 4.562499999999998e+00	 1.250000000000000e-01	 1.035327060584615e+01
0	 4.562499999999999e+00	 1.875000000000001e-01	 1.035747842107692e+01
0	 4.562500000000000e+00	 2.500000000000001e-01	 1.036102306092307e+01
0	 4.562499999999999e+00	 3.125000000000000e-01	 1.036390452538462e+01
0	 4.562499999999999e+00	 3.749999999999999e-01	 1.036612281446154e+01
0	 4.562499999999999e+00	 4.374999999999999e-01	 1.036767792815385e+01
0	 4.562499999999998e+00	 4.999999999999999e-01	 1.036856986646154e+01
0	 4.562500000000000e+00	 5.625000000000001e-01	 1.036879862938461e+01
0	 4.562499999999998e+00	 6.249999999999999e-01	 1.036836421692307e+01
0	 4.625000000000000e+00	 0.000000000000000e+00	 1.033977902769231e+01
0	 4.625000000000000e+00	 6.250000000000000e-02	 1.034423773784616e+01
0	 4.624999999999999e+00	 1.250000000000000e-01	 1.034802295261538e+01
0	 4.624999999999999e+00	 1.875000000000000e-01	 1.035113467200000e+01
0	 4.624999999999999e+00	 2.500000000000000e-01	 1.035357289599999e+01
0	 4.624999999999999e+00	 3.125000000000000e-01	 1.035533762461538e+01
0	 4.624999999999999e+00	 3.750000000000000e-01	 1.035642885784615e+01
0	 4.624999999999999e+00	 4.375000000000000e-01	 1.035684659569230e+01
0	 4.624999999999999e+00	 4.999999999999999e-01	 1.035659083815384e+01
0	 4.624999999999999e+00	 5.625000000000000e-01	 1.035566158523077e+01
0	 4.625000000000000e+00	 6.250000000000001e-01	 1.035405883692308e+01
0	 4.687499999999999e+00	 0.000000000000000e+00	 1.033498576923077e+01
0	 4.687499999999997e+00	 6.249999999999998e-02	 1.033867761153845e+01
0	 4.687499999999999e+00	 1.250000000000000e-01	 1.034168563846154e+01
0	 4.687499999999999e+00	 1.875000000000000e-01	 1.034400985000000e+01
0	 4.687499999999998e+00	 2.499999999999999e-01	 1.034565024615384e+01
0	 4.687499999999999e+00	 3.125000000000000e-01	 1.034660682692308e+01
0	 4.687499999999998e+00	 3.750000000000000e-01	 1.034687959230769e+01
0	 4.687499999999999e+00	 4.375000000000000e-01	 1.034646854230769e+01
0	 4.687499999999999e+00	 4.999999999999999e-01	 1.034537367692307e+01
0	 4.687500000000000e+00	 5.625000000000001e-01	 1.034359499615384e+01
0	 4.687499999999998e+00	 6.250000000000000e-01	 1.034113250000000e+01
0	 4.749999999999998e+00	 0.000000000000000e+00	 1.032848567384615e+01
0	 4.749999999999999e+00	 6.249999999999999e-02	 1.033171923630769e+01
0	 4.749999999999999e+00	 1.250000000000000e-01	 1.033425866338461e+01
0	 4.749999999999998e+00	 1.875000000000001e-01	 1.033610395507692e+01
0	 4.749999999999999e+00	 2.500000000000001e-01	 1.033725511138461e+01
0	 4.749999999999999e+00	 3.125000000000001e-01	 1.033771213230769e+01
0	 4.749999999999999e+00	 3.749999999999999e-01	 1.033747501784615e+01
0	 4.749999999999999e+00	 4.375000000000000e-01	 1.033654376800000e+01
0	 4.749999999999997e+00	 4.999999999999998e-01	 1.033491838276923e+01
0	 4.749999999999999e+00	 5.624999999999999e-01	 1.033259886215385e+01
0	 4.749999999999999e+00	 6.250000000000001e-01	 1.032958520615385e+01
0	 4.812499999999999e+00	 0.000000000000000e+00	 1.032027874153846e+01
0	 4.812499999999998e+00	 6.250000000000000e-02	 1.032336261215385e+01
0	 4.812499999999999e+00	 1.250000000000000e-01	 1.032574202738462e+01
0	 4.812499999999999e+00	 1.875000000000000e-01	 1.032741698723077e+01
0	 4.812499999999997e+00	 2.500000000000000e-01	 1.032838749169231e+01
0	 4.812499999999998e+00	 3.125000000000001e-01	 1.032865354076923e+01
0	 4.812500000000000e+00	 3.750000000000000e-01	 1.032821513446154e+01
0	 4.812499999999998e+00	 4.375000000000000e-01	 1.032707227276923e+01
0	 4.812499999999998e+00	 4.999999999999999e-01	 1.032522495569230e+01
0	 4.812499999999999e+00	 5.625000000000000e-01	 1.032267318323077e+01
0	 4.812499999999998e+00	 6.249999999999999e-01	 1.031941695538461e+01
0	 4.874999999999998e+00	 0.000000000000000e+00	 1.031036497230769e+01
0	 4.874999999999998e+00	 6.249999999999999e-02	 1.031360773907692e+01
0	 4.874999999999999e+00	 1.250000000000000e-01	 1.031613573046154e+01
0	 4.874999999999999e+00	 1.875000000000001e-01	 1.031794894646154e+01
0	 4.874999999999997e+00	 2.500000000000000e-01	 1.031904738707692e+01
0	 4.874999999999997e+00	 3.124999999999999e-01	 1.031943105230769e+01
0	 4.874999999999999e+00	 3.749999999999999e-01	 1.031909994215384e+01
0	 4.874999999999998e+00	 4.375000000000000e-01	 1.031805405661538e+01
0	 4.874999999999999e+00	 4.999999999999999e-01	 1.031629339569230e+01
0	 4.874999999999998e+00	 5.625000000000000e-01	 1.031381795938462e+01
0	 4.874999999999999e+00	 6.250000000000000e-01	 1.031062774769231e+01
0	 4.937499999999998e+00	 0.000000000000000e+00	 1.029874436615384e+01
0	 4.937499999999998e+00	 6.250000000000000e-02	 1.030245461707692e+01
0	 4.937499999999998e+00	 1.250000000000000e-01	 1.030543977261538e+01
0	 4.937499999999999e+00	 1.875000000000000e-01	 1.030769983276923e+01
0	 4.937499999999996e+00	 2.499999999999999e-01	 1.030923479753846e+01
0	 4.937499999999997e+00	 3.125000000000000e-01	 1.031004466692308e+01
0	 4.937499999999998e+00	 3.750000000000000e-01	 1.031012944092307e+01
0	 4.937499999999998e+00	 4.375000000000000e-01	 1.030948911953846e+01
0	 4.937499999999997e+00	 4.999999999999999e-01	 1.030812370276923e+01
0	 4.937499999999998e+00	 5.625000000000000e-01	 1.030603319061538e+01
0	 4.937499999999998e+00	 6.250000000000000e-01	 1.030321758307693e+01
0	 5.000000000000000e+00	 0.000000000000000e+00	 1.028541692307692e+01
0	 5.000000000000001e+00	 6.250000000000000e-02	 1.028990324615384e+01
0	 5.000000000000000e+00	 1.250000000000000e-01	 1.029365415384615e+01
0	 4.999999999999999e+00	 1.875000000000000e-01	 1.029666964615384e+01
0	 5.000000000000000e+00	 2.500000000000000e-01	 1.029894972307692e+01
0	 5.000000000000000e+00	 3.125000000000000e-01	 1.030049438461538e+01
0	 5.000000000000000e+00	 3.750000000000000e-01	 1.030130363076923e+01
0	 5.000000000000000e+00	 4.374999999999999e-01	 1.030137746153846e+01
0	 5.000000000000000e+00	 5.000000000000000e-01	 1.030071587692307e+01
0	 5.000000000000000e+00	 5.624999999999999e-01	 1.029931887692308e+01
0	 5.000000000000000e+00	 6.250000000000000e-01	 1.029718646153846e+01
0	 4.375000000000000e+00	 6.250000000000000e-01	 1.041955461538461e+01
0	 4.375000000000000e+00	 6.875000000000000e-01	 1.042526713846154e+01
0	 4.375000000000000e+00	 7.500000000000002e-01	 1.043083400000000e+01
0	 4.375000000000001e+00	 8.125000000000002e-01	 1.043625520000000e+01
0	 4.375000000000000e+00	 8.750000000000002e-01	 1.044153073846154e+01
0	 4.375000000000001e+00	 9.375000000000002e-01	 1.044666061538461e+01
0	 4.375000000000000e+00	 1.000000000000000e+00	 1.045164483076923e+01
0	 4.375000000000000e+00	 1.062500000000000e+00	 1.045648338461538e+01
0	 4.375000000000001e+00	 1.125000000000001e+00	 1.046117627692307e+01
0	 4.375000000000000e+00	 1.187500000000000e+00	 1.046572350769231e+01
0	 4.375000000000000e+00	 1.250000000000000e+00	 1.047012507692308e+01
0	 4.437499999999999e+00	 6.250000000000000e-01	 1.040111210615385e+01
0	 4.437500000000000e+00	 6.875000000000001e-01	 1.040753735276923e+01
0	 4.437500000000000e+00	 7.500000000000001e-01	 1.041379501476923e+01
0	 4.437500000000000e+00	 8.125000000000002e-01	 1.041988509215385e+01
0	 4.437500000000001e+00	 8.750000000000003e-01	 1.042580758492308e+01
0	 4.437499999999998e+00	 9.375000000000003e-01	 1.043156249307692e+01
0	 4.437500000000000e+00	 1.000000000000000e+00	 1.043714981661539e+01
0	 4.437500000000000e+00	 1.062500000000000e+00	 1.044256955553846e+01
0	 4.437499999999999e+00	 1.125000000000000e+00	 1.044782170984615e+01
0	 4.437499999999998e+00	 1.187500000000000e+00	 1.045290627953846e+01
0	 4.437499999999999e+00	 1.250000000000000e+00	 1.045782326461539e+01
0	 4.500000000000000e+00	 6.249999999999999e-01	 1.038404864000000e+01
0	 4.499999999999999e+00	 6.875000000000001e-01	 1.039106185723077e+01
0	 4.500000000000000e+00	 7.500000000000002e-01	 1.039788556676923e+01
0	 4.499999999999999e+00	 8.125000000000001e-01	 1.040451976861539e+01
0	 4.500000000000000e+00	 8.750000000000003e-01	 1.041096446276923e+01
0	 4.500000000000001e+00	 9.375000000000003e-01	 1.041721964923077e+01
0	 4.500000000000001e+00	 1.000000000000000e+00	 1.042328532800000e+01
0	 4.499999999999999e+00	 1.062500000000000e+00	 1.042916149907693e+01
0	 4.500000000000000e+00	 1.125000000000000e+00	 1.043484816246154e+01
0	 4.499999999999999e+00	 1.187500000000001e+00	 1.044034531815384e+01
0	 4.500000000000000e+00	 1.250000000000000e+00	 1.044565296615384e+01
0	 4.562499999999998e+00	 6.249999999999999e-01	 1.036836421692307e+01
0	 4.562499999999999e+00	 6.875000000000000e-01	 1.037584065184615e+01
0	 4.562499999999999e+00	 7.500000000000000e-01	 1.038310565600000e+01
0	 4.562500000000000e+00	 8.125000000000002e-01	 1.039015922938461e+01
0	 4.562500000000000e+00	 8.750000000000002e-01	 1.039700137199999e+01
0	 4.562499999999998e+00	 9.375000000000002e-01	 1.040363208384615e+01
0	 4.562499999999999e+00	 1.000000000000000e+00	 1.041005136492308e+01
0	 4.562500000000000e+00	 1.062500000000000e+00	 1.041625921523077e+01
0	 4.562499999999998e+00	 1.125000000000000e+00	 1.042225563476923e+01
0	 4.562499999999999e+00	 1.187500000000000e+00	 1.042804062353845e+01
0	 4.562499999999998e+00	 1.250000000000000e+00	 1.043361418153846e+01
0	 4.625000000000000e+00	 6.250000000000001e-01	 1.035405883692308e+01
0	 4.625000000000000e+00	 6.875000000000000e-01	 1.036187373661538e+01
0	 4.624999999999998e+00	 7.500000000000000e-01	 1.036945528246154e+01
0	 4.624999999999998e+00	 8.125000000000001e-01	 1.037680347446154e+01
0	 4.625000000000000e+00	 8.750000000000003e-01	 1.038391831261538e+01
0	 4.624999999999998e+00	 9.375000000000000e-01	 1.039079979692307e+01
0	 4.625000000000000e+00	 1.000000000000000e+00	 1.039744792738462e+01
0	 4.625000000000000e+00	 1.062500000000000e+00	 1.040386270400000e+01
0	 4.625000000000000e+00	 1.125000000000000e+00	 1.041004412676923e+01
0	 4.625000000000001e+00	 1.187500000000000e+00	 1.041599219569231e+01
0	 4.625000000000000e+00	 1.250000000000000e+00	 1.042170691076923e+01
0	 4.687499999999998e+00	 6.250000000000000e-01	 1.034113250000000e+01
0	 4.687499999999997e+00	 6.875000000000000e-01	 1.034916111153846e+01
0	 4.687499999999999e+00	 7.500000000000001e-01	 1.035693444615384e+01
0	 4.687499999999998e+00	 8.125000000000002e-01	 1.036445250384615e+01
0	 4.687499999999998e+00	 8.750000000000003e-01	 1.037171528461538e+01
0	 4.687499999999998e+00	 9.375000000000002e-01	 1.037872278846154e+01
0	 4.687499999999999e+00	 1.000000000000000e+00	 1.038547501538462e+01
0	 4.687500000000000e+00	 1.062500000000000e+00	 1.039197196538461e+01
0	 4.687499999999998e+00	 1.125000000000000e+00	 1.039821363846154e+01
0	 4.687499999999999e+00	 1.187500000000001e+00	 1.040420003461538e+01
0	 4.687499999999998e+00	 1.250000000000000e+00	 1.040993115384616e+01
0	 4.749999999999999e+00	 6.250000000000001e-01	 1.032958520615385e+01
0	 4.749999999999998e+00	 6.874999999999999e-01	 1.033770277661539e+01
0	 4.749999999999999e+00	 7.500000000000003e-01	 1.034554314707692e+01
0	 4.749999999999997e+00	 8.125000000000000e-01	 1.035310631753846e+01
0	 4.749999999999997e+00	 8.750000000000001e-01	 1.036039228800000e+01
0	 4.749999999999999e+00	 9.375000000000003e-01	 1.036740105846154e+01
0	 4.749999999999999e+00	 1.000000000000000e+00	 1.037413262892307e+01
0	 4.749999999999998e+00	 1.062500000000000e+00	 1.038058699938462e+01
0	 4.749999999999999e+00	 1.125000000000000e+00	 1.038676416984615e+01
0	 4.749999999999998e+00	 1.187500000000000e+00	 1.039266414030769e+01
0	 4.749999999999999e+00	 1.250000000000000e+00	 1.039828691076923e+01
0	 4.812499999999998e+00	 6.249999999999999e-01	 1.031941695538461e+01
0	 4.812499999999998e+00	 6.875000000000000e-01	 1.032749873184615e+01
0	 4.812499999999999e+00	 7.500000000000002e-01	 1.033528138523077e+01
0	 4.812499999999998e+00	 8.125000000000000e-01	 1.034276491553846e+01
0	 4.812499999999999e+00	 8.750000000000002e-01	 1.034994932276923e+01
0	 4.812500000000000e+00	 9.375000000000004e-01	 1.035683460692308e+01
0	 4.812499999999998e+00	 1.000000000000000e+00	 1.036342076800000e+01
0	 4.812499999999999e+00	 1.062500000000001e+00	 1.036970780600000e+01
0	 4.812499999999998e+00	 1.125000000000000e+00	 1.037569572092308e+01
0	 4.812499999999999e+00	 1.187500000000000e+00	 1.038138451276923e+01
0	 4.812499999999998e+00	 1.250000000000000e+00	 1.038677418153846e+01
0	 4.874999999999999e+00	 6.250000000000000e-01	 1.031062774769231e+01
0	 4.874999999999998e+00	 6.875000000000000e-01	 1.031854897723077e+01
0	 4.874999999999998e+00	 7.500000000000000e-01	 1.032614916061539e+01
0	 4.874999999999998e+00	 8.125000000000001e-01	 1.033342829784615e+01
0	 4.874999999999998e+00	 8.750000000000003e-01	 1.034038638892307e+01
0	 4.874999999999998e+00	 9.375000000000002e-01	 1.034702343384616e+01
0	 4.874999999999999e+00	 1.000000000000001e+00	 1.035333943261538e+01
0	 4.874999999999998e+00	 1.062500000000000e+00	 1.035933438523077e+01
0	 4.874999999999997e+00	 1.125000000000000e+00	 1.036500829169231e+01
0	 4.874999999999998e+00	 1.187500000000000e+00	 1.037036115200000e+01
0	 4.874999999999999e+00	 1.250000000000000e+00	 1.037539296615384e+01
0	 4.937499999999998e+00	 6.250000000000000e-01	 1.030321758307693e+01
0	 4.937499999999998e+00	 6.875000000000002e-01	 1.031085351276923e+01
0	 4.937499999999997e+00	 7.500000000000001e-01	 1.031814647323077e+01
0	 4.937499999999997e+00	 8.125000000000001e-01	 1.032509646446154e+01
0	 4.937499999999998e+00	 8.750000000000002e-01	 1.033170348646154e+01
0	 4.937499999999997e+00	 9.375000000000002e-01	 1.033796753923077e+01
0	 4.937499999999999e+00	 1.000000000000000e+00	 1.034388862276923e+01
0	 4.937499999999997e+00	 1.062500000000000e+00	 1.034946673707693e+01
0	 4.937499999999997e+00	 1.125000000000000e+00	 1.035470188215385e+01
0	 4.937499999999997e+00	 1.187500000000000e+00	 1.035959405800000e+01
0	 4.937499999999998e+00	 1.250000000000000e+00	 1.036414326461538e+01
0	 5.000000000000000e+00	 6.250000000000000e-01	 1.029718646153846e+01
0	 5.000000000000000e+00	 6.875000000000000e-01	 1.030441233846154e+01
0	 5.000000000000001e+00	 7.500000000000002e-01	 1.031127332307693e+01
0	 5.000000000000002e+00	 8.125000000000002e-01	 1.031776941538461e+01
0	 5.000000000000000e+00	 8.750000000000002e-01	 1.032390061538461e+01
0	 5.000000000000001e+00	 9.375000000000002e-01	 1.032966692307692e+01
0	 5.000000000000001e+00	 1.000000000000000e+00	 1.033506833846154e+01
0	 5.000000000000000e+00	 1.062500000000000e+00	 1.034010486153846e+01
0	 5.000000000000001e+00	 1.125000000000001e+00	 1.034477649230769e+01
0	 5.000000000000000e+00	 1.187500000000000e+00	 1.034908323076923e+01
0	 5.000000000000000e+00	 1.250000000000000e+00	 1.035302507692307e+01
0	 4.375000000000000e+00	 1.250000000000000e+00	 1.047012507692308e+01
0	 4.375000000000000e+00	 1.312500000000000e+00	 1.047712869230769e+01
0	 4.375000000000000e+00	 1.375000000000000e+00	 1.048404424615384e+01
0	 4.375000000000001e+00	 1.437500000000000e+00	 1.049087173846154e+01
0	 4.375000000000000e+00	 1.500000000000000e+00	 1.049761116923077e+01
0	 4.375000000000001e+00	 1.562500000000000e+00	 1.050426253846154e+01
0	 4.375000000000000e+00	 1.625000000000000e+00	 1.051082584615384e+01
0	 4.375000000000000e+00	 1.687500000000000e+00	 1.051730109230769e+01
0	 4.375000000000001e+00	 1.750000000000001e+00	 1.052368827692307e+01
0	 4.375000000000000e+00	 1.812500000000000e+00	 1.052998739999999e+01
0	 4.375000000000000e+00	 1.875000000000000e+00	 1.053619846153846e+01
0	 4.437499999999999e+00	 1.250000000000000e+00	 1.045782326461539e+01
0	 4.437500000000000e+00	 1.312500000000000e+00	 1.046401874430769e+01
0	 4.437500000000000e+00	 1.375000000000000e+00	 1.047015076246154e+01
0	 4.437500000000000e+00	 1.437500000000000e+00	 1.047621931907692e+01
0	 4.437500000000001e+00	 1.500000000000000e+00	 1.048222441415384e+01
0	 4.437499999999998e+00	 1.562500000000000e+00	 1.048816604769231e+01
0	 4.437500000000000e+00	 1.625000000000000e+00	 1.049404421969230e+01
0	 4.437500000000000e+00	 1.687500000000000e+00	 1.049985893015383e+01
0	 4.437499999999999e+00	 1.750000000000000e+00	 1.050561017907692e+01
0	 4.437499999999998e+00	 1.812500000000000e+00	 1.051129796646154e+01
0	 4.437499999999999e+00	 1.875000000000000e+00	 1.051692229230769e+01
0	 4.500000000000000e+00	 1.250000000000000e+00	 1.044565296615384e+01
0	 4.499999999999999e+00	 1.312500000000000e+00	 1.045113112492308e+01
0	 4.500000000000000e+00	 1.375000000000000e+00	 1.045657042215385e+01
0	 4.499999999999999e+00	 1.437500000000000e+00	 1.046197085784616e+01
0	 4.500000000000000e+00	 1.500000000000000e+00	 1.046733243200000e+01
0	 4.500000000000001e+00	 1.562500000000000e+00	 1.047265514461538e+01
0	 4.500000000000001e+00	 1.625000000000000e+00	 1.047793899569231e+01
0	 4.499999999999999e+00	 1.687500000000000e+00	 1.048318398523077e+01
0	 4.500000000000000e+00	 1.750000000000001e+00	 1.048839011323077e+01
0	 4.499999999999999e+00	 1.812500000000001e+00	 1.049355737969230e+01
0	 4.500000000000000e+00	 1.875000000000000e+00	 1.049868578461538e+01
0	 4.562499999999998e+00	 1.250000000000000e+00	 1.043361418153846e+01
0	 4.562499999999999e+00	 1.312500000000000e+00	 1.043846583415385e+01
0	 4.562499999999999e+00	 1.375000000000000e+00	 1.044330322523077e+01
0	 4.562500000000000e+00	 1.437500000000000e+00	 1.044812635476923e+01
0	 4.562500000000000e+00	 1.500000000000000e+00	 1.045293522276923e+01
0	 4.562499999999998e+00	 1.562500000000000e+00	 1.045772982923077e+01
0	 4.562499999999999e+00	 1.625000000000000e+00	 1.046251017415384e+01
0	 4.562500000000000e+00	 1.687500000000000e+00	 1.046727625753846e+01
0	 4.562499999999998e+00	 1.750000000000000e+00	 1.047202807938461e+01
0	 4.562499999999999e+00	 1.812500000000000e+00	 1.047676563969230e+01
0	 4.562499999999998e+00	 1.875000000000000e+00	 1.048148893846154e+01
0	 4.625000000000000e+00	 1.250000000000000e+00	 1.042170691076923e+01
0	 4.625000000000000e+00	 1.312500000000000e+00	 1.042602287200000e+01
0	 4.624999999999998e+00	 1.375000000000000e+00	 1.043034917169231e+01
0	 4.624999999999998e+00	 1.437500000000000e+00	 1.043468580984615e+01
0	 4.625000000000000e+00	 1.500000000000000e+00	 1.043903278646154e+01
0	 4.624999999999998e+00	 1.562500000000000e+00	 1.044339010153846e+01
0	 4.625000000000000e+00	 1.625000000000001e+00	 1.044775775507692e+01
0	 4.625000000000000e+00	 1.687500000000000e+00	 1.045213574707692e+01
0	 4.625000000000000e+00	 1.750000000000001e+00	 1.045652407753846e+01
0	 4.625000000000001e+00	 1.812500000000000e+00	 1.046092274646153e+01
0	 4.625000000000000e+00	 1.875000000000000e+00	 1.046533175384615e+01
0	 4.687499999999998e+00	 1.250000000000000e+00	 1.040993115384616e+01
0	 4.687499999999997e+00	 1.312500000000000e+00	 1.041380223846154e+01
0	 4.687499999999999e+00	 1.375000000000000e+00	 1.041770826153846e+01
0	 4.687499999999998e+00	 1.437500000000000e+00	 1.042164922307692e+01
0	 4.687499999999998e+00	 1.500000000000000e+00	 1.042562512307692e+01
0	 4.687499999999998e+00	 1.562500000000000e+00	 1.042963596153846e+01
0	 4.687499999999999e+00	 1.625000000000000e+00	 1.043368173846154e+01
0	 4.687500000000000e+00	 1.687500000000000e+00	 1.043776245384615e+01
0	 4.687499999999998e+00	 1.750000000000000e+00	 1.044187810769230e+01
0	 4.687499999999999e+00	 1.812500000000000e+00	 1.044602870000000e+01
0	 4.687499999999998e+00	 1.875000000000000e+00	 1.045021423076923e+01
0	 4.749999999999999e+00	 1.250000000000000e+00	 1.039828691076923e+01
0	 4.749999999999998e+00	 1.312500000000000e+00	 1.040180393353846e+01
0	 4.749999999999999e+00	 1.375000000000000e+00	 1.040538049476923e+01
0	 4.749999999999997e+00	 1.437500000000000e+00	 1.040901659446154e+01
0	 4.749999999999997e+00	 1.500000000000000e+00	 1.041271223261538e+01
0	 4.749999999999999e+00	 1.562500000000000e+00	 1.041646740923076e+01
0	 4.749999999999999e+00	 1.625000000000000e+00	 1.042028212430769e+01
0	 4.749999999999998e+00	 1.687500000000000e+00	 1.042415637784616e+01
0	 4.749999999999999e+00	 1.750000000000000e+00	 1.042809016984615e+01
0	 4.749999999999998e+00	 1.812500000000000e+00	 1.043208350030769e+01
0	 4.749999999999999e+00	 1.875000000000000e+00	 1.043613636923077e+01
0	 4.812499999999998e+00	 1.250000000000000e+00	 1.038677418153846e+01
0	 4.812499999999998e+00	 1.312500000000000e+00	 1.039002795723077e+01
0	 4.812499999999999e+00	 1.375000000000000e+00	 1.039336587138461e+01
0	 4.812499999999998e+00	 1.437500000000000e+00	 1.039678792400000e+01
0	 4.812499999999999e+00	 1.500000000000001e+00	 1.040029411507692e+01
0	 4.812500000000000e+00	 1.562500000000000e+00	 1.040388444461539e+01
0	 4.812499999999998e+00	 1.625000000000000e+00	 1.040755891261538e+01
0	 4.812499999999999e+00	 1.687500000000000e+00	 1.041131751907693e+01
0	 4.812499999999998e+00	 1.750000000000000e+00	 1.041516026400000e+01
0	 4.812499999999999e+00	 1.812500000000000e+00	 1.041908714738462e+01
0	 4.812499999999998e+00	 1.875000000000000e+00	 1.042309816923077e+01
0	 4.874999999999999e+00	 1.250000000000000e+00	 1.037539296615384e+01
0	 4.874999999999998e+00	 1.312500000000000e+00	 1.037847430953846e+01
0	 4.874999999999998e+00	 1.375000000000000e+00	 1.038166439138461e+01
0	 4.874999999999998e+00	 1.437500000000000e+00	 1.038496321169231e+01
0	 4.874999999999998e+00	 1.500000000000000e+00	 1.038837077046153e+01
0	 4.874999999999998e+00	 1.562500000000000e+00	 1.039188706769231e+01
0	 4.874999999999999e+00	 1.625000000000001e+00	 1.039551210338461e+01
0	 4.874999999999998e+00	 1.687500000000000e+00	 1.039924587753846e+01
0	 4.874999999999997e+00	 1.750000000000000e+00	 1.040308839015384e+01
0	 4.874999999999998e+00	 1.812500000000001e+00	 1.040703964123077e+01
0	 4.874999999999999e+00	 1.875000000000000e+00	 1.041109963076923e+01
0	 4.937499999999998e+00	 1.250000000000000e+00	 1.036414326461538e+01
0	 4.937499999999998e+00	 1.312500000000000e+00	 1.036714299046153e+01
0	 4.937499999999997e+00	 1.375000000000000e+00	 1.037027605476922e+01
0	 4.937499999999997e+00	 1.437500000000000e+00	 1.037354245753846e+01
0	 4.937499999999998e+00	 1.500000000000000e+00	 1.037694219876923e+01
0	 4.937499999999997e+00	 1.562500000000000e+00	 1.038047527846154e+01
0	 4.937499999999999e+00	 1.625000000000000e+00	 1.038414169661539e+01
0	 4.937499999999997e+00	 1.687500000000000e+00	 1.038794145323077e+01
0	 4.937499999999997e+00	 1.750000000000000e+00	 1.039187454830769e+01
0	 4.937499999999997e+00	 1.812500000000000e+00	 1.039594098184616e+01
0	 4.937499999999998e+00	 1.875000000000000e+00	 1.040014075384616e+01
0	 5.000000000000000e+00	 1.250000000000000e+00	 1.035302507692307e+01
0	 5.000000000000000e+00	 1.312500000000000e+00	 1.035603400000000e+01
0	 5.000000000000001e+00	 1.375000000000000e+00	 1.035920086153846e+01
0	 5.000000000000002e+00	 1.437500000000000e+00	 1.036252566153846e+01
0	 5.000000000000000e+00	 1.500000000000000e+00	 1.036600839999999e+01
0	 5.000000000000001e+00	 1.562500000000000e+00	 1.036964907692307e+01
0	 5.000000000000001e+00	 1.625000000000000e+00	 1.037344769230769e+01
0	 5.000000000000000e+00	 1.687500000000000e+00	 1.037740424615385e+01
0	 5.000000000000001e+00	 1.750000000000001e+00	 1.038151873846154e+01
0	 5.000000000000000e+00	 1.812500000000000e+00	 1.038579116923077e+01
0	 5.000000000000000e+00	 1.875000000000000e+00	 1.039022153846154e+01
0	 4.375000000000000e+00	 1.875000000000000e+00	 1.053619846153846e+01
0	 4.375000000000000e+00	 1.937500000000000e+00	 1.053169680000000e+01
0	 4.375000000000000e+00	 2.000000000000000e+00	 1.052788966153846e+01
0	 4.375000000000001e+00	 2.062500000000000e+00	 1.052477704615384e+01
0	 4.375000000000000e+00	 2.125000000000000e+00	 1.052235895384615e+01
0	 4.375000000000001e+00	 2.187500000000000e+00	 1.052063538461538e+01
0	 4.375000000000000e+00	 2.250000000000000e+00	 1.051960633846153e+01
0	 4.375000000000000e+00	 2.312500000000000e+00	 1.051927181538461e+01
0	 4.375000000000001e+00	 2.375000000000001e+00	 1.051963181538462e+01
0	 4.375000000000000e+00	 2.437500000000001e+00	 1.052068633846154e+01
0	 4.375000000000000e+00	 2.500000000000000e+00	 1.052243538461538e+01
0	 4.437499999999999e+00	 1.875000000000000e+00	 1.051692229230769e+01
0	 4.437500000000000e+00	 1.937500000000000e+00	 1.051336809230769e+01
0	 4.437500000000000e+00	 2.000000000000000e+00	 1.051045854153846e+01
0	 4.437500000000000e+00	 2.062500000000000e+00	 1.050819363999999e+01
0	 4.437500000000001e+00	 2.125000000000001e+00	 1.050657338769231e+01
0	 4.437499999999998e+00	 2.187500000000000e+00	 1.050559778461539e+01
0	 4.437500000000000e+00	 2.250000000000000e+00	 1.050526683076923e+01
0	 4.437500000000000e+00	 2.312500000000000e+00	 1.050558052615384e+01
0	 4.437499999999999e+00	 2.375000000000000e+00	 1.050653887076923e+01
0	 4.437499999999998e+00	 2.437500000000000e+00	 1.050814186461538e+01
0	 4.437499999999999e+00	 2.500000000000000e+00	 1.051038950769231e+01
0	 4.500000000000000e+00	 1.875000000000000e+00	 1.049868578461538e+01
0	 4.499999999999999e+00	 1.937500000000000e+00	 1.049599196615385e+01
0	 4.500000000000000e+00	 2.000000000000000e+00	 1.049389292307693e+01
0	 4.499999999999999e+00	 2.062500000000000e+00	 1.049238865538462e+01
0	 4.500000000000000e+00	 2.125000000000000e+00	 1.049147916307693e+01
0	 4.500000000000001e+00	 2.187500000000001e+00	 1.049116444615385e+01
0	 4.500000000000001e+00	 2.250000000000000e+00	 1.049144450461538e+01
0	 4.499999999999999e+00	 2.312500000000000e+00	 1.049231933846154e+01
0	 4.500000000000000e+00	 2.375000000000000e+00	 1.049378894769232e+01
0	 4.499999999999999e+00	 2.437500000000000e+00	 1.049585333230769e+01
0	 4.500000000000000e+00	 2.500000000000000e+00	 1.049851249230769e+01
0	 4.562499999999998e+00	 1.875000000000000e+00	 1.048148893846154e+01
0	 4.562499999999999e+00	 1.937500000000000e+00	 1.047956842153846e+01
0	 4.562499999999999e+00	 2.000000000000000e+00	 1.047819280615385e+01
0	 4.562500000000000e+00	 2.062500000000000e+00	 1.047736209230769e+01
0	 4.562500000000000e+00	 2.125000000000001e+00	 1.047707627999999e+01
0	 4.562499999999998e+00	 2.187500000000000e+00	 1.047733536923077e+01
0	 4.562499999999999e+00	 2.250000000000000e+00	 1.047813935999999e+01
0	 4.562500000000000e+00	 2.312500000000000e+00	 1.047948825230769e+01
0	 4.562499999999998e+00	 2.375000000000000e+00	 1.048138204615384e+01
0	 4.562499999999999e+00	 2.437500000000000e+00	 1.048382074153845e+01
0	 4.562499999999998e+00	 2.500000000000000e+00	 1.048680433846154e+01
0	 4.625000000000000e+00	 1.875000000000000e+00	 1.046533175384615e+01
0	 4.625000000000000e+00	 1.937500000000000e+00	 1.046409745846154e+01
0	 4.624999999999998e+00	 2.000000000000000e+00	 1.046335819076923e+01
0	 4.624999999999998e+00	 2.062500000000000e+00	 1.046311395076923e+01
0	 4.625000000000000e+00	 2.125000000000000e+00	 1.046336473846154e+01
0	 4.624999999999998e+00	 2.187500000000000e+00	 1.046411055384615e+01
0	 4.625000000000000e+00	 2.250000000000000e+00	 1.046535139692308e+01
0	 4.625000000000000e+00	 2.312500000000000e+00	 1.046708726769230e+01
0	 4.625000000000000e+00	 2.375000000000000e+00	 1.046931816615384e+01
0	 4.625000000000001e+00	 2.437500000000000e+00	 1.047204409230770e+01
0	 4.625000000000000e+00	 2.500000000000000e+00	 1.047526504615385e+01
0	 4.687499999999998e+00	 1.875000000000000e+00	 1.045021423076923e+01
0	 4.687499999999997e+00	 1.937500000000000e+00	 1.044957907692307e+01
0	 4.687499999999999e+00	 2.000000000000000e+00	 1.044938907692307e+01
0	 4.687499999999998e+00	 2.062500000000000e+00	 1.044964423076923e+01
0	 4.687499999999998e+00	 2.125000000000000e+00	 1.045034453846154e+01
0	 4.687499999999998e+00	 2.187500000000000e+00	 1.045149000000000e+01
0	 4.687499999999999e+00	 2.250000000000000e+00	 1.045308061538462e+01
0	 4.687500000000000e+00	 2.312500000000001e+00	 1.045511638461539e+01
0	 4.687499999999998e+00	 2.375000000000000e+00	 1.045759730769231e+01
0	 4.687499999999999e+00	 2.437500000000000e+00	 1.046052338461539e+01
0	 4.687499999999998e+00	 2.500000000000000e+00	 1.046389461538462e+01
0	 4.749999999999999e+00	 1.875000000000000e+00	 1.043613636923077e+01
0	 4.749999999999998e+00	 1.937500000000000e+00	 1.043601327692307e+01
0	 4.749999999999999e+00	 2.000000000000000e+00	 1.043628546461538e+01
0	 4.749999999999997e+00	 2.062500000000000e+00	 1.043695293230769e+01
0	 4.749999999999997e+00	 2.125000000000000e+00	 1.043801568000000e+01
0	 4.749999999999999e+00	 2.187500000000000e+00	 1.043947370769231e+01
0	 4.749999999999999e+00	 2.250000000000000e+00	 1.044132701538462e+01
0	 4.749999999999998e+00	 2.312500000000000e+00	 1.044357560307692e+01
0	 4.749999999999999e+00	 2.375000000000001e+00	 1.044621947076923e+01
0	 4.749999999999998e+00	 2.437500000000000e+00	 1.044925861846154e+01
0	 4.749999999999999e+00	 2.500000000000000e+00	 1.045269304615386e+01
0	 4.812499999999998e+00	 1.875000000000000e+00	 1.042309816923077e+01
0	 4.812499999999998e+00	 1.937500000000000e+00	 1.042340005846154e+01
0	 4.812499999999999e+00	 2.000000000000001e+00	 1.042404735384616e+01
0	 4.812499999999998e+00	 2.062500000000000e+00	 1.042504005538462e+01
0	 4.812499999999999e+00	 2.125000000000001e+00	 1.042637816307692e+01
0	 4.812500000000000e+00	 2.187500000000000e+00	 1.042806167692308e+01
0	 4.812499999999998e+00	 2.250000000000000e+00	 1.043009059692308e+01
0	 4.812499999999999e+00	 2.312500000000001e+00	 1.043246492307693e+01
0	 4.812499999999998e+00	 2.375000000000000e+00	 1.043518465538462e+01
0	 4.812499999999999e+00	 2.437500000000000e+00	 1.043824979384616e+01
0	 4.812499999999998e+00	 2.500000000000000e+00	 1.044166033846154e+01
0	 4.874999999999999e+00	 1.875000000000000e+00	 1.041109963076923e+01
0	 4.874999999999998e+00	 1.937500000000000e+00	 1.041173942153846e+01
0	 4.874999999999998e+00	 2.000000000000000e+00	 1.041267474461539e+01
0	 4.874999999999998e+00	 2.062500000000000e+00	 1.041390560000000e+01
0	 4.874999999999998e+00	 2.125000000000000e+00	 1.041543198769231e+01
0	 4.874999999999998e+00	 2.187500000000000e+00	 1.041725390769231e+01
0	 4.874999999999999e+00	 2.250000000000000e+00	 1.041937136000000e+01
0	 4.874999999999998e+00	 2.312500000000000e+00	 1.042178434461539e+01
0	 4.874999999999997e+00	 2.375000000000000e+00	 1.042449286153846e+01
0	 4.874999999999998e+00	 2.437500000000001e+00	 1.042749691076924e+01
0	 4.874999999999999e+00	 2.500000000000000e+00	 1.043079649230769e+01
0	 4.937499999999998e+00	 1.875000000000000e+00	 1.040014075384616e+01
0	 4.937499999999998e+00	 1.937500000000000e+00	 1.040103136615385e+01
0	 4.937499999999997e+00	 2.000000000000000e+00	 1.040216763692308e+01
0	 4.937499999999997e+00	 2.062500000000000e+00	 1.040354956615385e+01
0	 4.937499999999998e+00	 2.125000000000000e+00	 1.040517715384616e+01
0	 4.937499999999997e+00	 2.187500000000000e+00	 1.040705040000000e+01
0	 4.937499999999999e+00	 2.250000000000000e+00	 1.040916930461539e+01
0	 4.937499999999997e+00	 2.312500000000000e+00	 1.041153386769231e+01
0	 4.937499999999997e+00	 2.375000000000000e+00	 1.041414408923077e+01
0	 4.937499999999997e+00	 2.437500000000000e+00	 1.041699996923077e+01
0	 4.937499999999998e+00	 2.500000000000000e+00	 1.042010150769231e+01
0	 5.000000000000000e+00	 1.875000000000000e+00	 1.039022153846154e+01
0	 5.000000000000000e+00	 1.937500000000000e+00	 1.039127589230770e+01
0	 5.000000000000001e+00	 2.000000000000000e+00	 1.039252603076923e+01
0	 5.000000000000002e+00	 2.062500000000000e+00	 1.039397195384615e+01
0	 5.000000000000000e+00	 2.125000000000000e+00	 1.039561366153846e+01
0	 5.000000000000001e+00	 2.187500000000000e+00	 1.039745115384616e+01
0	 5.000000000000001e+00	 2.250000000000000e+00	 1.039948443076923e+01
0	 5.000000000000000e+00	 2.312500000000000e+00	 1.040171349230770e+01
0	 5.000000000000001e+00	 2.375000000000001e+00	 1.040413833846155e+01
0	 5.000000000000000e+00	 2.437500000000001e+00	 1.040675896923078e+01
0	 5.000000000000000e+00	 2.500000000000000e+00	 1.040957538461539e+01
0	 4.375000000000000e+00	 2.500000000000000e+00	 1.052243538461538e+01
0	 4.375000000000000e+00	 2.562500000000000e+00	 1.051580590769232e+01
0	 4.375000000000001e+00	 2.625000000000000e+00	 1.050956301538461e+01
0	 4.375000000000000e+00	 2.687499999999999e+00	 1.050370670769230e+01
0	 4.375000000000000e+00	 2.750000000000000e+00	 1.049823698461538e+01
0	 4.375000000000000e+00	 2.812499999999999e+00	 1.049315384615385e+01
0	 4.375000000000000e+00	 2.874999999999999e+00	 1.048845729230768e+01
0	 4.375000000000000e+00	 2.937499999999998e+00	 1.048414732307692e+01
0	 4.375000000000000e+00	 2.999999999999998e+00	 1.048022393846153e+01
0	 4.375000000000000e+00	 3.062499999999998e+00	 1.047668713846154e+01
0	 4.375000000000000e+00	 3.125000000000000e+00	 1.047353692307692e+01
0	 4.437499999999999e+00	 2.500000000000000e+00	 1.051038950769231e+01
0	 4.437500000000000e+00	 2.562500000000000e+00	 1.050400442769230e+01
0	 4.437499999999999e+00	 2.624999999999999e+00	 1.049800389230769e+01
0	 4.437499999999999e+00	 2.687499999999999e+00	 1.049238790153846e+01
0	 4.437500000000000e+00	 2.750000000000000e+00	 1.048715645538462e+01
0	 4.437500000000000e+00	 2.812499999999999e+00	 1.048230955384616e+01
0	 4.437500000000000e+00	 2.875000000000000e+00	 1.047784719692307e+01
0	 4.437500000000000e+00	 2.937499999999999e+00	 1.047376938461538e+01
0	 4.437500000000002e+00	 2.999999999999999e+00	 1.047007611692308e+01
0	 4.437499999999998e+00	 3.062499999999997e+00	 1.046676739384615e+01
0	 4.437499999999999e+00	 3.125000000000000e+00	 1.046384321538461e+01
0	 4.500000000000000e+00	 2.500000000000000e+00	 1.049851249230769e+01
0	 4.499999999999999e+00	 2.562500000000000e+00	 1.049237876615385e+01
0	 4.500000000000001e+00	 2.625000000000000e+00	 1.048662754461539e+01
0	 4.499999999999999e+00	 2.687500000000000e+00	 1.048125882769230e+01
0	 4.499999999999998e+00	 2.749999999999999e+00	 1.047627261538462e+01
0	 4.500000000000000e+00	 2.812499999999999e+00	 1.047166890769231e+01
0	 4.499999999999999e+00	 2.874999999999999e+00	 1.046744770461538e+01
0	 4.500000000000001e+00	 2.937499999999999e+00	 1.046360900615385e+01
0	 4.500000000000000e+00	 2.999999999999998e+00	 1.046015281230770e+01
0	 4.500000000000000e+00	 3.062499999999999e+00	 1.045707912307691e+01
0	 4.500000000000000e+00	 3.125000000000000e+00	 1.045438793846154e+01
0	 4.562499999999998e+00	 2.500000000000000e+00	 1.048680433846154e+01
0	 4.562499999999999e+00	 2.562500000000000e+00	 1.048092892307692e+01
0	 4.562499999999999e+00	 2.625000000000000e+00	 1.047543397230769e+01
0	 4.562499999999999e+00	 2.687499999999999e+00	 1.047031948615384e+01
0	 4.562499999999999e+00	 2.749999999999999e+00	 1.046558546461538e+01
0	 4.562500000000000e+00	 2.812499999999999e+00	 1.046123190769231e+01
0	 4.562499999999999e+00	 2.874999999999999e+00	 1.045725881538461e+01
0	 4.562500000000000e+00	 2.937499999999999e+00	 1.045366618769231e+01
0	 4.562500000000000e+00	 2.999999999999999e+00	 1.045045402461539e+01
0	 4.562499999999999e+00	 3.062499999999998e+00	 1.044762232615385e+01
0	 4.562499999999998e+00	 3.125000000000000e+00	 1.044517109230769e+01
0	 4.625000000000000e+00	 2.500000000000000e+00	 1.047526504615385e+01
0	 4.625000000000000e+00	 2.562500000000000e+00	 1.046965489846154e+01
0	 4.624999999999999e+00	 2.625000000000000e+00	 1.046442317538462e+01
0	 4.625000000000000e+00	 2.687500000000000e+00	 1.045956987692308e+01
0	 4.625000000000000e+00	 2.750000000000000e+00	 1.045509500307692e+01
0	 4.624999999999999e+00	 2.812499999999999e+00	 1.045099855384615e+01
0	 4.624999999999999e+00	 2.874999999999999e+00	 1.044728052923077e+01
0	 4.624999999999999e+00	 2.937499999999998e+00	 1.044394092923076e+01
0	 4.625000000000000e+00	 2.999999999999999e+00	 1.044097975384615e+01
0	 4.624999999999999e+00	 3.062499999999998e+00	 1.043839700307692e+01
0	 4.625000000000000e+00	 3.125000000000000e+00	 1.043619267692307e+01
0	 4.687499999999998e+00	 2.500000000000000e+00	 1.046389461538462e+01
0	 4.687499999999998e+00	 2.562499999999999e+00	 1.045855669230769e+01
0	 4.687499999999997e+00	 2.625000000000000e+00	 1.045359515384616e+01
0	 4.687500000000000e+00	 2.687500000000000e+00	 1.044901000000001e+01
0	 4.687499999999998e+00	 2.749999999999999e+00	 1.044480123076923e+01
0	 4.687499999999999e+00	 2.812499999999999e+00	 1.044096884615385e+01
0	 4.687500000000000e+00	 2.874999999999999e+00	 1.043751284615385e+01
0	 4.687499999999999e+00	 2.937499999999998e+00	 1.043443323076924e+01
0	 4.687499999999999e+00	 2.999999999999998e+00	 1.043172999999999e+01
0	 4.687500000000000e+00	 3.062499999999998e+00	 1.042940315384615e+01
0	 4.687499999999998e+00	 3.125000000000000e+00	 1.042745269230769e+01
0	 4.749999999999999e+00	 2.500000000000000e+00	 1.045269304615386e+01
0	 4.749999999999998e+00	 2.562500000000000e+00	 1.044763430461538e+01
0	 4.749999999999998e+00	 2.625000000000000e+00	 1.044294990769231e+01
0	 4.749999999999998e+00	 2.687500000000000e+00	 1.043863985538461e+01
0	 4.750000000000000e+00	 2.750000000000000e+00	 1.043470414769231e+01
0	 4.750000000000000e+00	 2.812500000000000e+00	 1.043114278461539e+01
0	 4.749999999999999e+00	 2.874999999999999e+00	 1.042795576615385e+01
0	 4.749999999999999e+00	 2.937499999999999e+00	 1.042514309230770e+01
0	 4.749999999999998e+00	 2.999999999999999e+00	 1.042270476307692e+01
0	 4.749999999999999e+00	 3.062499999999998e+00	 1.042064077846154e+01
0	 4.749999999999999e+00	 3.125000000000000e+00	 1.041895113846153e+01
0	 4.812499999999998e+00	 2.500000000000000e+00	 1.044166033846154e+01
0	 4.812499999999999e+00	 2.562500000000000e+00	 1.043688773538461e+01
0	 4.812499999999999e+00	 2.625000000000000e+00	 1.043248743692308e+01
0	 4.812499999999998e+00	 2.687500000000000e+00	 1.042845944307693e+01
0	 4.812499999999999e+00	 2.749999999999999e+00	 1.042480375384615e+01
0	 4.812499999999999e+00	 2.812499999999999e+00	 1.042152036923077e+01
0	 4.812499999999999e+00	 2.874999999999999e+00	 1.041860928923077e+01
0	 4.812499999999998e+00	 2.937499999999998e+00	 1.041607051384615e+01
0	 4.812499999999998e+00	 2.999999999999998e+00	 1.041390404307692e+01
0	 4.812499999999999e+00	 3.062499999999998e+00	 1.041210987692308e+01
0	 4.812499999999998e+00	 3.125000000000000e+00	 1.041068801538461e+01
0	 4.874999999999999e+00	 2.500000000000000e+00	 1.043079649230769e+01
0	 4.874999999999999e+00	 2.562500000000001e+00	 1.042631698461538e+01
0	 4.874999999999998e+00	 2.625000000000000e+00	 1.042220774153846e+01
0	 4.874999999999999e+00	 2.687500000000000e+00	 1.041846876307692e+01
0	 4.874999999999998e+00	 2.749999999999999e+00	 1.041510004923077e+01
0	 4.874999999999998e+00	 2.812499999999999e+00	 1.041210160000000e+01
0	 4.874999999999998e+00	 2.874999999999999e+00	 1.040947341538461e+01
0	 4.874999999999998e+00	 2.937499999999998e+00	 1.040721549538461e+01
0	 4.874999999999999e+00	 2.999999999999998e+00	 1.040532784000000e+01
0	 4.874999999999999e+00	 3.062499999999998e+00	 1.040381044923076e+01
0	 4.874999999999999e+00	 3.125000000000000e+00	 1.040266332307692e+01
0	 4.937499999999998e+00	 2.500000000000000e+00	 1.042010150769231e+01
0	 4.937499999999998e+00	 2.562500000000000e+00	 1.041592205230770e+01
0	 4.937499999999998e+00	 2.625000000000000e+00	 1.041211082153846e+01
0	 4.937499999999997e+00	 2.687500000000000e+00	 1.040866781538462e+01
0	 4.937499999999998e+00	 2.749999999999999e+00	 1.040559303384616e+01
0	 4.937499999999998e+00	 2.812499999999999e+00	 1.040288647692307e+01
0	 4.937499999999998e+00	 2.874999999999999e+00	 1.040054814461539e+01
0	 4.937499999999998e+00	 2.937499999999998e+00	 1.039857803692307e+01
0	 4.937499999999998e+00	 2.999999999999998e+00	 1.039697615384615e+01
0	 4.937499999999998e+00	 3.062499999999998e+00	 1.039574249538461e+01
0	 4.937499999999998e+00	 3.125000000000000e+00	 1.039487706153847e+01
0	 5.000000000000000e+00	 2.500000000000000e+00	 1.040957538461539e+01
0	 4.999999999999999e+00	 2.562500000000000e+00	 1.040570293846155e+01
0	 5.000000000000001e+00	 2.625000000000000e+00	 1.040219667692308e+01
0	 4.999999999999999e+00	 2.687499999999999e+00	 1.039905660000000e+01
0	 5.000000000000000e+00	 2.750000000000000e+00	 1.039628270769231e+01
0	 4.999999999999999e+00	 2.812499999999999e+00	 1.039387500000000e+01
0	 5.000000000000000e+00	 2.874999999999999e+00	 1.039183347692307e+01
0	 4.999999999999999e+00	 2.937499999999998e+00	 1.039015813846154e+01
0	 5.000000000000000e+00	 2.999999999999998e+00	 1.038884898461538e+01
0	 5.000000000000000e+00	 3.062499999999998e+00	 1.038790601538462e+01
0	 5.000000000000000e+00	 3.125000000000000e+00	 1.038732923076923e+01
0	 4.375000000000000e+00	 3.125000000000000e+00	 1.047353692307692e+01
0	 4.375000000000000e+00	 3.187500000000000e+00	 1.046351027692305e+01
0	 4.375000000000001e+00	 3.250000000000000e+00	 1.045385895384614e+01
0	 4.375000000000000e+00	 3.312499999999999e+00	 1.044458295384615e+01
0	 4.375000000000000e+00	 3.374999999999999e+00	 1.043568227692307e+01
0	 4.375000000000000e+00	 3.437499999999999e+00	 1.042715692307692e+01
0	 4.375000000000000e+00	 3.499999999999999e+00	 1.041900689230770e+01
0	 4.375000000000000e+00	 3.562499999999998e+00	 1.041123218461539e+01
0	 4.375000000000000e+00	 3.624999999999999e+00	 1.040383280000000e+01
0	 4.375000000000000e+00	 3.687499999999998e+00	 1.039680873846153e+01
0	 4.375000000000000e+00	 3.750000000000000e+00	 1.039016000000001e+01
0	 4.437499999999999e+00	 3.125000000000000e+00	 1.046384321538461e+01
0	 4.437500000000000e+00	 3.187500000000000e+00	 1.045451863692307e+01
0	 4.437499999999999e+00	 3.250000000000000e+00	 1.044555509230769e+01
0	 4.437499999999999e+00	 3.312499999999999e+00	 1.043695258153846e+01
0	 4.437500000000000e+00	 3.374999999999999e+00	 1.042871110461538e+01
0	 4.437500000000000e+00	 3.437499999999999e+00	 1.042083066153846e+01
0	 4.437500000000000e+00	 3.500000000000000e+00	 1.041331125230769e+01
0	 4.437500000000000e+00	 3.562499999999999e+00	 1.040615287692309e+01
0	 4.437500000000002e+00	 3.625000000000000e+00	 1.039935553538462e+01
0	 4.437499999999998e+00	 3.687499999999997e+00	 1.039291922769231e+01
0	 4.437499999999999e+00	 3.750000000000000e+00	 1.038684395384616e+01
0	 4.500000000000000e+00	 3.125000000000000e+00	 1.045438793846154e+01
0	 4.499999999999999e+00	 3.187500000000000e+00	 1.044571425230769e+01
0	 4.500000000000001e+00	 3.250000000000000e+00	 1.043738731076923e+01
0	 4.499999999999999e+00	 3.312500000000000e+00	 1.042940711384616e+01
0	 4.499999999999998e+00	 3.374999999999999e+00	 1.042177366153846e+01
0	 4.500000000000000e+00	 3.437499999999999e+00	 1.041448695384616e+01
0	 4.499999999999999e+00	 3.499999999999997e+00	 1.040754699076923e+01
0	 4.500000000000001e+00	 3.562499999999999e+00	 1.040095377230769e+01
0	 4.500000000000000e+00	 3.624999999999998e+00	 1.039470729846154e+01
0	 4.500000000000000e+00	 3.687499999999999e+00	 1.038880756923078e+01
0	 4.500000000000000e+00	 3.750000000000000e+00	 1.038325458461539e+01
0	 4.562499999999998e+00	 3.125000000000000e+00	 1.044517109230769e+01
0	 4.562499999999999e+00	 3.187500000000000e+00	 1.043709712307692e+01
0	 4.562499999999999e+00	 3.250000000000000e+00	 1.042935560923077e+01
0	 4.562499999999999e+00	 3.312500000000000e+00	 1.042194655076923e+01
0	 4.562499999999999e+00	 3.374999999999999e+00	 1.041486994769231e+01
0	 4.562500000000000e+00	 3.437499999999999e+00	 1.040812580000000e+01
0	 4.562499999999999e+00	 3.499999999999998e+00	 1.040171410769232e+01
0	 4.562500000000000e+00	 3.562499999999998e+00	 1.039563487076924e+01
0	 4.562500000000000e+00	 3.624999999999998e+00	 1.038988808923078e+01
0	 4.562499999999999e+00	 3.687499999999998e+00	 1.038447376307693e+01
0	 4.562499999999998e+00	 3.750000000000000e+00	 1.037939189230769e+01
0	 4.625000000000000e+00	 3.125000000000000e+00	 1.043619267692307e+01
0	 4.625000000000000e+00	 3.187500000000000e+00	 1.042866724923077e+01
0	 4.624999999999999e+00	 3.250000000000000e+00	 1.042145998769231e+01
0	 4.625000000000000e+00	 3.312500000000000e+00	 1.041457089230769e+01
0	 4.625000000000000e+00	 3.374999999999999e+00	 1.040799996307692e+01
0	 4.624999999999999e+00	 3.437499999999999e+00	 1.040174720000000e+01
0	 4.624999999999999e+00	 3.499999999999998e+00	 1.039581260307693e+01
0	 4.624999999999999e+00	 3.562499999999998e+00	 1.039019617230769e+01
0	 4.625000000000000e+00	 3.624999999999999e+00	 1.038489790769231e+01
0	 4.624999999999999e+00	 3.687499999999998e+00	 1.037991780923077e+01
0	 4.625000000000000e+00	 3.750000000000000e+00	 1.037525587692308e+01
0	 4.687499999999998e+00	 3.125000000000000e+00	 1.042745269230769e+01
0	 4.687499999999998e+00	 3.187500000000000e+00	 1.042042463076922e+01
0	 4.687499999999997e+00	 3.250000000000000e+00	 1.041370044615385e+01
0	 4.687500000000000e+00	 3.312500000000000e+00	 1.040728013846154e+01
0	 4.687499999999998e+00	 3.374999999999998e+00	 1.040116370769231e+01
0	 4.687499999999999e+00	 3.437499999999999e+00	 1.039535115384616e+01
0	 4.687500000000000e+00	 3.499999999999999e+00	 1.038984247692308e+01
0	 4.687499999999999e+00	 3.562499999999999e+00	 1.038463767692308e+01
0	 4.687499999999999e+00	 3.624999999999998e+00	 1.037973675384616e+01
0	 4.687500000000000e+00	 3.687499999999999e+00	 1.037513970769231e+01
0	 4.687499999999998e+00	 3.750000000000000e+00	 1.037084653846154e+01
0	 4.749999999999999e+00	 3.125000000000000e+00	 1.041895113846153e+01
0	 4.749999999999998e+00	 3.187500000000000e+00	 1.041236926769230e+01
0	 4.749999999999998e+00	 3.249999999999999e+00	 1.040607698461538e+01
0	 4.749999999999998e+00	 3.312499999999999e+00	 1.040007428923077e+01
0	 4.750000000000000e+00	 3.375000000000000e+00	 1.039436118153846e+01
0	 4.750000000000000e+00	 3.437500000000000e+00	 1.038893766153847e+01
0	 4.749999999999999e+00	 3.499999999999999e+00	 1.038380372923077e+01
0	 4.749999999999999e+00	 3.562499999999999e+00	 1.037895938461538e+01
0	 4.749999999999998e+00	 3.624999999999999e+00	 1.037440462769231e+01
0	 4.749999999999999e+00	 3.687499999999998e+00	 1.037013945846154e+01
0	 4.749999999999999e+00	 3.750000000000000e+00	 1.036616387692308e+01
0	 4.812499999999998e+00	 3.125000000000000e+00	 1.041068801538461e+01
0	 4.812499999999999e+00	 3.187500000000000e+00	 1.040450116000000e+01
0	 4.812499999999999e+00	 3.250000000000000e+00	 1.039858960307692e+01
0	 4.812499999999998e+00	 3.312500000000000e+00	 1.039295334461539e+01
0	 4.812499999999999e+00	 3.374999999999999e+00	 1.038759238461538e+01
0	 4.812499999999999e+00	 3.437499999999999e+00	 1.038250672307692e+01
0	 4.812499999999999e+00	 3.499999999999999e+00	 1.037769636000000e+01
0	 4.812499999999998e+00	 3.562499999999999e+00	 1.037316129538461e+01
0	 4.812499999999998e+00	 3.624999999999998e+00	 1.036890152923077e+01
0	 4.812499999999999e+00	 3.687499999999999e+00	 1.036491706153847e+01
0	 4.812499999999998e+00	 3.750000000000000e+00	 1.036120789230769e+01
0	 4.874999999999999e+00	 3.125000000000000e+00	 1.040266332307692e+01
0	 4.874999999999999e+00	 3.187500000000001e+00	 1.039682030769231e+01
0	 4.874999999999998e+00	 3.250000000000000e+00	 1.039123830153846e+01
0	 4.874999999999999e+00	 3.312500000000000e+00	 1.038591730461537e+01
0	 4.874999999999998e+00	 3.374999999999999e+00	 1.038085731692308e+01
0	 4.874999999999998e+00	 3.437499999999999e+00	 1.037605833846154e+01
0	 4.874999999999998e+00	 3.499999999999998e+00	 1.037152036923076e+01
0	 4.874999999999998e+00	 3.562499999999998e+00	 1.036724340923077e+01
0	 4.874999999999999e+00	 3.624999999999998e+00	 1.036322745846154e+01
0	 4.874999999999999e+00	 3.687499999999998e+00	 1.035947251692308e+01
0	 4.874999999999999e+00	 3.750000000000000e+00	 1.035597858461539e+01
0	 4.937499999999998e+00	 3.125000000000000e+00	 1.039487706153847e+01
0	 4.937499999999998e+00	 3.187500000000000e+00	 1.038932671076923e+01
0	 4.937499999999998e+00	 3.250000000000000e+00	 1.038402308000000e+01
0	 4.937499999999997e+00	 3.312500000000000e+00	 1.037896616923077e+01
0	 4.937499999999998e+00	 3.374999999999999e+00	 1.037415597846154e+01
0	 4.937499999999998e+00	 3.437500000000000e+00	 1.036959250769230e+01
0	 4.937499999999998e+00	 3.499999999999998e+00	 1.036527575692308e+01
0	 4.937499999999998e+00	 3.562499999999998e+00	 1.036120572615385e+01
0	 4.937499999999998e+00	 3.624999999999998e+00	 1.035738241538462e+01
0	 4.937499999999998e+00	 3.687499999999997e+00	 1.035380582461539e+01
0	 4.937499999999998e+00	 3.750000000000000e+00	 1.035047595384615e+01
0	 5.000000000000000e+00	 3.125000000000000e+00	 1.038732923076923e+01
0	 4.999999999999999e+00	 3.187500000000000e+00	 1.038202036923076e+01
0	 5.000000000000001e+00	 3.250000000000000e+00	 1.037694393846153e+01
0	 4.999999999999999e+00	 3.312499999999999e+00	 1.037209993846154e+01
0	 5.000000000000000e+00	 3.374999999999999e+00	 1.036748836923076e+01
0	 4.999999999999999e+00	 3.437499999999999e+00	 1.036310923076923e+01
0	 5.000000000000000e+00	 3.499999999999999e+00	 1.035896252307692e+01
0	 4.999999999999999e+00	 3.562499999999998e+00	 1.035504824615384e+01
0	 5.000000000000000e+00	 3.624999999999999e+00	 1.035136640000000e+01
0	 5.000000000000000e+00	 3.687499999999998e+00	 1.034791698461537e+01
0	 5.000000000000000e+00	 3.750000000000000e+00	 1.034470000000000e+01
0	 4.375000000000000e+00	 3.750000000000000e+00	 1.039016000000001e+01
0	 4.375000000000000e+00	 3.812500000000000e+00	 1.038132075384616e+01
0	 4.375000000000001e+00	 3.875000000000000e+00	 1.037260363076924e+01
0	 4.375000000000000e+00	 3.937499999999999e+00	 1.036400863076922e+01
0	 4.375000000000000e+00	 4.000000000000000e+00	 1.035553575384616e+01
0	 4.375000000000000e+00	 4.062499999999999e+00	 1.034718500000000e+01
0	 4.375000000000000e+00	 4.124999999999999e+00	 1.033895636923076e+01
0	 4.375000000000000e+00	 4.187499999999998e+00	 1.033084986153846e+01
0	 4.375000000000000e+00	 4.249999999999998e+00	 1.032286547692307e+01
0	 4.375000000000000e+00	 4.312499999999998e+00	 1.031500321538462e+01
0	 4.375000000000000e+00	 4.375000000000000e+00	 1.030726307692307e+01
0	 4.437499999999999e+00	 3.750000000000000e+00	 1.038684395384616e+01
0	 4.437500000000000e+00	 3.812500000000000e+00	 1.037823916461539e+01
0	 4.437499999999999e+00	 3.875000000000000e+00	 1.036976307076924e+01
0	 4.437499999999999e+00	 3.937500000000000e+00	 1.036141567230770e+01
0	 4.437500000000000e+00	 3.999999999999999e+00	 1.035319696923078e+01
0	 4.437500000000000e+00	 4.062499999999999e+00	 1.034510696153846e+01
0	 4.437500000000000e+00	 4.125000000000000e+00	 1.033714564923078e+01
0	 4.437500000000000e+00	 4.187500000000000e+00	 1.032931303230769e+01
0	 4.437500000000002e+00	 4.250000000000000e+00	 1.032160911076923e+01
0	 4.437499999999998e+00	 4.312499999999997e+00	 1.031403388461539e+01
0	 4.437499999999999e+00	 4.375000000000000e+00	 1.030658735384616e+01
0	 4.500000000000000e+00	 3.750000000000000e+00	 1.038325458461539e+01
0	 4.499999999999999e+00	 3.812500000000000e+00	 1.037488259384617e+01
0	 4.500000000000001e+00	 3.875000000000000e+00	 1.036664587076924e+01
0	 4.499999999999999e+00	 3.937500000000000e+00	 1.035854441538462e+01
0	 4.499999999999998e+00	 3.999999999999999e+00	 1.035057822769231e+01
0	 4.500000000000000e+00	 4.062499999999999e+00	 1.034274730769230e+01
0	 4.499999999999999e+00	 4.124999999999997e+00	 1.033505165538463e+01
0	 4.500000000000001e+00	 4.187499999999998e+00	 1.032749127076923e+01
0	 4.500000000000000e+00	 4.249999999999998e+00	 1.032006615384616e+01
0	 4.500000000000000e+00	 4.312499999999998e+00	 1.031277630461539e+01
0	 4.500000000000000e+00	 4.375000000000000e+00	 1.030562172307690e+01
0	 4.562499999999998e+00	 3.750000000000000e+00	 1.037939189230769e+01
0	 4.562499999999999e+00	 3.812500000000000e+00	 1.037125104153847e+01
0	 4.562499999999999e+00	 3.875000000000000e+00	 1.036325203076923e+01
0	 4.562499999999999e+00	 3.937500000000000e+00	 1.035539486000001e+01
0	 4.562499999999999e+00	 3.999999999999999e+00	 1.034767952923077e+01
0	 4.562500000000000e+00	 4.062500000000000e+00	 1.034010603846154e+01
0	 4.562499999999999e+00	 4.124999999999998e+00	 1.033267438769231e+01
0	 4.562500000000000e+00	 4.187499999999999e+00	 1.032538457692308e+01
0	 4.562500000000000e+00	 4.249999999999998e+00	 1.031823660615383e+01
0	 4.562499999999999e+00	 4.312499999999997e+00	 1.031123047538462e+01
0	 4.562499999999998e+00	 4.375000000000000e+00	 1.030436618461539e+01
0	 4.625000000000000e+00	 3.750000000000000e+00	 1.037525587692308e+01
0	 4.625000000000000e+00	 3.812500000000000e+00	 1.036734450769231e+01
0	 4.624999999999999e+00	 3.875000000000000e+00	 1.035958155076924e+01
0	 4.625000000000000e+00	 3.937500000000000e+00	 1.035196700615385e+01
0	 4.625000000000000e+00	 3.999999999999999e+00	 1.034450087384616e+01
0	 4.624999999999999e+00	 4.062499999999999e+00	 1.033718315384615e+01
0	 4.624999999999999e+00	 4.124999999999998e+00	 1.033001384615385e+01
0	 4.624999999999999e+00	 4.187499999999999e+00	 1.032299295076923e+01
0	 4.625000000000000e+00	 4.249999999999998e+00	 1.031612046769231e+01
0	 4.624999999999999e+00	 4.312499999999998e+00	 1.030939639692308e+01
0	 4.625000000000000e+00	 4.375000000000000e+00	 1.030282073846154e+01
0	 4.687499999999998e+00	 3.750000000000000e+00	 1.037084653846154e+01
0	 4.687499999999998e+00	 3.812500000000000e+00	 1.036316299230769e+01
0	 4.687499999999997e+00	 3.875000000000000e+00	 1.035563443076923e+01
0	 4.687500000000000e+00	 3.937499999999999e+00	 1.034826085384616e+01
0	 4.687499999999998e+00	 3.999999999999998e+00	 1.034104226153846e+01
0	 4.687499999999999e+00	 4.062499999999999e+00	 1.033397865384615e+01
0	 4.687500000000000e+00	 4.125000000000000e+00	 1.032707003076923e+01
0	 4.687499999999999e+00	 4.187499999999998e+00	 1.032031639230769e+01
0	 4.687499999999999e+00	 4.249999999999998e+00	 1.031371773846153e+01
0	 4.687500000000000e+00	 4.312499999999998e+00	 1.030727406923076e+01
0	 4.687499999999998e+00	 4.375000000000000e+00	 1.030098538461538e+01
0	 4.749999999999999e+00	 3.750000000000000e+00	 1.036616387692308e+01
0	 4.749999999999998e+00	 3.812500000000000e+00	 1.035870649538462e+01
0	 4.749999999999998e+00	 3.874999999999999e+00	 1.035141067076923e+01
0	 4.749999999999998e+00	 3.937500000000000e+00	 1.034427640307693e+01
0	 4.750000000000000e+00	 4.000000000000000e+00	 1.033730369230769e+01
0	 4.750000000000000e+00	 4.062500000000000e+00	 1.033049253846155e+01
0	 4.749999999999999e+00	 4.124999999999999e+00	 1.032384294153847e+01
0	 4.749999999999999e+00	 4.187499999999998e+00	 1.031735490153845e+01
0	 4.749999999999998e+00	 4.249999999999999e+00	 1.031102841846153e+01
0	 4.749999999999999e+00	 4.312499999999997e+00	 1.030486349230769e+01
0	 4.749999999999999e+00	 4.375000000000000e+00	 1.029886012307691e+01
0	 4.812499999999998e+00	 3.750000000000000e+00	 1.036120789230769e+01
0	 4.812499999999999e+00	 3.812500000000000e+00	 1.035397501692307e+01
0	 4.812499999999999e+00	 3.875000000000000e+00	 1.034691027076923e+01
0	 4.812499999999998e+00	 3.937499999999999e+00	 1.034001365384616e+01
0	 4.812499999999999e+00	 3.999999999999999e+00	 1.033328516615385e+01
0	 4.812499999999999e+00	 4.062500000000000e+00	 1.032672480769232e+01
0	 4.812499999999999e+00	 4.124999999999999e+00	 1.032033257846154e+01
0	 4.812499999999998e+00	 4.187499999999999e+00	 1.031410847846153e+01
0	 4.812499999999998e+00	 4.249999999999998e+00	 1.030805250769231e+01
0	 4.812499999999999e+00	 4.312499999999998e+00	 1.030216466615386e+01
0	 4.812499999999998e+00	 4.375000000000000e+00	 1.029644495384615e+01
0	 4.874999999999999e+00	 3.750000000000000e+00	 1.035597858461539e+01
0	 4.874999999999999e+00	 3.812500000000000e+00	 1.034896855692309e+01
0	 4.874999999999998e+00	 3.875000000000000e+00	 1.034213323076923e+01
0	 4.874999999999999e+00	 3.937500000000000e+00	 1.033547260615385e+01
0	 4.874999999999998e+00	 3.999999999999999e+00	 1.032898668307692e+01
0	 4.874999999999998e+00	 4.062499999999998e+00	 1.032267546153846e+01
0	 4.874999999999998e+00	 4.124999999999999e+00	 1.031653894153847e+01
0	 4.874999999999998e+00	 4.187499999999998e+00	 1.031057712307692e+01
0	 4.874999999999999e+00	 4.249999999999998e+00	 1.030479000615385e+01
0	 4.874999999999999e+00	 4.312499999999998e+00	 1.029917759076923e+01
0	 4.874999999999999e+00	 4.375000000000000e+00	 1.029373987692308e+01
0	 4.937499999999998e+00	 3.750000000000000e+00	 1.035047595384615e+01
0	 4.937499999999998e+00	 3.812500000000000e+00	 1.034368711538462e+01
0	 4.937499999999998e+00	 3.875000000000000e+00	 1.033707955076923e+01
0	 4.937499999999997e+00	 3.937499999999999e+00	 1.033065326000000e+01
0	 4.937499999999998e+00	 3.999999999999999e+00	 1.032440824307692e+01
0	 4.937499999999998e+00	 4.062499999999998e+00	 1.031834450000000e+01
0	 4.937499999999998e+00	 4.124999999999998e+00	 1.031246203076923e+01
0	 4.937499999999998e+00	 4.187499999999998e+00	 1.030676083538462e+01
0	 4.937499999999998e+00	 4.249999999999998e+00	 1.030124091384615e+01
0	 4.937499999999998e+00	 4.312499999999998e+00	 1.029590226615385e+01
0	 4.937499999999998e+00	 4.375000000000000e+00	 1.029074489230769e+01
0	 5.000000000000000e+00	 3.750000000000000e+00	 1.034470000000000e+01
0	 4.999999999999999e+00	 3.812500000000000e+00	 1.033813069230770e+01
0	 5.000000000000001e+00	 3.875000000000000e+00	 1.033174923076923e+01
0	 4.999999999999999e+00	 3.937499999999999e+00	 1.032555561538461e+01
0	 5.000000000000000e+00	 4.000000000000000e+00	 1.031954984615384e+01
0	 4.999999999999999e+00	 4.062499999999999e+00	 1.031373192307693e+01
0	 5.000000000000000e+00	 4.124999999999999e+00	 1.030810184615384e+01
0	 4.999999999999999e+00	 4.187499999999998e+00	 1.030265961538461e+01
0	 5.000000000000000e+00	 4.249999999999998e+00	 1.029740523076923e+01
0	 5.000000000000000e+00	 4.312499999999998e+00	 1.029233869230769e+01
0	 5.000000000000000e+00	 4.375000000000000e+00	 1.028746000000000e+01
0	 4.375000000000000e+00	 4.375000000000000e+00	 1.030726307692307e+01
0	 4.375000000000000e+00	 4.437499999999999e+00	 1.029925326153844e+01
0	 4.375000000000001e+00	 4.500000000000001e+00	 1.029131212307693e+01
0	 4.375000000000000e+00	 4.562499999999999e+00	 1.028343966153846e+01
0	 4.375000000000000e+00	 4.625000000000000e+00	 1.027563587692307e+01
0	 4.375000000000000e+00	 4.687499999999999e+00	 1.026790076923076e+01
0	 4.375000000000000e+00	 4.749999999999999e+00	 1.026023433846154e+01
0	 4.375000000000000e+00	 4.812499999999998e+00	 1.025263658461538e+01
0	 4.375000000000000e+00	 4.874999999999998e+00	 1.024510750769231e+01
0	 4.375000000000000e+00	 4.937499999999998e+00	 1.023764710769230e+01
0	 4.375000000000000e+00	 5.000000000000000e+00	 1.023025538461538e+01
0	 4.437499999999999e+00	 4.375000000000000e+00	 1.030658735384616e+01
0	 4.437500000000000e+00	 4.437500000000000e+00	 1.029881640769230e+01
0	 4.437499999999999e+00	 4.499999999999999e+00	 1.029111491384615e+01
0	 4.437499999999999e+00	 4.562499999999999e+00	 1.028348287230769e+01
0	 4.437500000000000e+00	 4.625000000000000e+00	 1.027592028307692e+01
0	 4.437500000000000e+00	 4.687500000000001e+00	 1.026842714615385e+01
0	 4.437500000000000e+00	 4.749999999999999e+00	 1.026100346153846e+01
0	 4.437500000000000e+00	 4.812499999999999e+00	 1.025364922923077e+01
0	 4.437500000000002e+00	 4.875000000000000e+00	 1.024636444923077e+01
0	 4.437499999999998e+00	 4.937499999999997e+00	 1.023914912153846e+01
0	 4.437499999999999e+00	 4.999999999999999e+00	 1.023200324615384e+01
0	 4.500000000000000e+00	 4.375000000000000e+00	 1.030562172307690e+01
0	 4.499999999999999e+00	 4.437500000000000e+00	 1.029807928615386e+01
0	 4.500000000000001e+00	 4.500000000000001e+00	 1.029060707692307e+01
0	 4.499999999999999e+00	 4.562499999999999e+00	 1.028320509538461e+01
0	 4.499999999999998e+00	 4.624999999999998e+00	 1.027587334153846e+01
0	 4.500000000000000e+00	 4.687499999999997e+00	 1.026861181538462e+01
0	 4.499999999999999e+00	 4.749999999999998e+00	 1.026142051692307e+01
0	 4.500000000000001e+00	 4.812499999999999e+00	 1.025429944615385e+01
0	 4.500000000000000e+00	 4.874999999999998e+00	 1.024724860307693e+01
0	 4.500000000000000e+00	 4.937499999999998e+00	 1.024026798769232e+01
0	 4.500000000000000e+00	 5.000000000000000e+00	 1.023335760000001e+01
0	 4.562499999999998e+00	 4.375000000000000e+00	 1.030436618461539e+01
0	 4.562499999999999e+00	 4.437500000000000e+00	 1.029704189692307e+01
0	 4.562499999999999e+00	 4.500000000000000e+00	 1.028978861230769e+01
0	 4.562499999999999e+00	 4.562499999999999e+00	 1.028260633076923e+01
0	 4.562499999999999e+00	 4.625000000000000e+00	 1.027549505230770e+01
0	 4.562500000000000e+00	 4.687499999999999e+00	 1.026845477692308e+01
0	 4.562499999999999e+00	 4.749999999999998e+00	 1.026148550461539e+01
0	 4.562500000000000e+00	 4.812499999999998e+00	 1.025458723538461e+01
0	 4.562500000000000e+00	 4.874999999999998e+00	 1.024775996923079e+01
0	 4.562499999999999e+00	 4.937499999999997e+00	 1.024100370615386e+01
0	 4.562499999999998e+00	 4.999999999999999e+00	 1.023431844615383e+01
0	 4.625000000000000e+00	 4.375000000000000e+00	 1.030282073846154e+01
0	 4.625000000000000e+00	 4.437500000000000e+00	 1.029570423999999e+01
0	 4.624999999999999e+00	 4.500000000000000e+00	 1.028865951999999e+01
0	 4.625000000000000e+00	 4.562499999999999e+00	 1.028168657846154e+01
0	 4.625000000000000e+00	 4.624999999999999e+00	 1.027478541538462e+01
0	 4.624999999999999e+00	 4.687500000000000e+00	 1.026795603076923e+01
0	 4.624999999999999e+00	 4.749999999999998e+00	 1.026119842461539e+01
0	 4.624999999999999e+00	 4.812499999999999e+00	 1.025451259692308e+01
0	 4.625000000000000e+00	 4.874999999999998e+00	 1.024789854769231e+01
0	 4.624999999999999e+00	 4.937499999999997e+00	 1.024135627692306e+01
0	 4.625000000000000e+00	 5.000000000000000e+00	 1.023488578461539e+01
0	 4.687499999999998e+00	 4.375000000000000e+00	 1.030098538461538e+01
0	 4.687499999999998e+00	 4.437499999999999e+00	 1.029406631538460e+01
0	 4.687499999999997e+00	 4.499999999999999e+00	 1.028721980000001e+01
0	 4.687500000000000e+00	 4.562499999999999e+00	 1.028044583846154e+01
0	 4.687499999999998e+00	 4.624999999999998e+00	 1.027374443076924e+01
0	 4.687499999999999e+00	 4.687499999999999e+00	 1.026711557692308e+01
0	 4.687500000000000e+00	 4.750000000000000e+00	 1.026055927692308e+01
0	 4.687499999999999e+00	 4.812499999999998e+00	 1.025407553076923e+01
0	 4.687499999999999e+00	 4.874999999999998e+00	 1.024766433846154e+01
0	 4.687500000000000e+00	 4.937499999999999e+00	 1.024132570000001e+01
0	 4.687499999999998e+00	 5.000000000000000e+00	 1.023505961538462e+01
0	 4.749999999999999e+00	 4.375000000000000e+00	 1.029886012307691e+01
0	 4.749999999999998e+00	 4.437499999999999e+00	 1.029212812307692e+01
0	 4.749999999999998e+00	 4.499999999999998e+00	 1.028546945230769e+01
0	 4.749999999999998e+00	 4.562499999999999e+00	 1.027888411076923e+01
0	 4.750000000000000e+00	 4.625000000000001e+00	 1.027237209846154e+01
0	 4.750000000000000e+00	 4.687499999999999e+00	 1.026593341538461e+01
0	 4.749999999999999e+00	 4.749999999999998e+00	 1.025956806153846e+01
0	 4.749999999999999e+00	 4.812499999999999e+00	 1.025327603692308e+01
0	 4.749999999999998e+00	 4.874999999999998e+00	 1.024705734153847e+01
0	 4.749999999999999e+00	 4.937499999999999e+00	 1.024091197538461e+01
0	 4.749999999999999e+00	 5.000000000000001e+00	 1.023483993846156e+01
0	 4.812499999999998e+00	 4.375000000000000e+00	 1.029644495384615e+01
0	 4.812499999999999e+00	 4.437499999999999e+00	 1.028988966307693e+01
0	 4.812499999999999e+00	 4.500000000000000e+00	 1.028340847692306e+01
0	 4.812499999999998e+00	 4.562499999999999e+00	 1.027700139538462e+01
0	 4.812499999999999e+00	 4.625000000000000e+00	 1.027066841846154e+01
0	 4.812499999999999e+00	 4.687500000000000e+00	 1.026440954615384e+01
0	 4.812499999999999e+00	 4.749999999999999e+00	 1.025822477846154e+01
0	 4.812499999999998e+00	 4.812499999999999e+00	 1.025211411538461e+01
0	 4.812499999999998e+00	 4.874999999999998e+00	 1.024607755692307e+01
0	 4.812499999999999e+00	 4.937499999999999e+00	 1.024011510307693e+01
0	 4.812499999999998e+00	 4.999999999999999e+00	 1.023422675384615e+01
0	 4.874999999999999e+00	 4.375000000000000e+00	 1.029373987692308e+01
0	 4.874999999999999e+00	 4.437500000000001e+00	 1.028735093538462e+01
0	 4.874999999999998e+00	 4.499999999999999e+00	 1.028103687384615e+01
0	 4.874999999999999e+00	 4.562500000000000e+00	 1.027479769230769e+01
0	 4.874999999999998e+00	 4.624999999999999e+00	 1.026863339076922e+01
0	 4.874999999999998e+00	 4.687499999999998e+00	 1.026254396923076e+01
0	 4.874999999999998e+00	 4.749999999999999e+00	 1.025652942769231e+01
0	 4.874999999999998e+00	 4.812499999999998e+00	 1.025058976615385e+01
0	 4.874999999999999e+00	 4.874999999999999e+00	 1.024472498461536e+01
0	 4.874999999999999e+00	 4.937499999999998e+00	 1.023893508307692e+01
0	 4.874999999999999e+00	 5.000000000000000e+00	 1.023322006153846e+01
0	 4.937499999999998e+00	 4.375000000000000e+00	 1.029074489230769e+01
0	 4.937499999999998e+00	 4.437500000000000e+00	 1.028451193999999e+01
0	 4.937499999999998e+00	 4.500000000000000e+00	 1.027835464307692e+01
0	 4.937499999999997e+00	 4.562500000000000e+00	 1.027227300153847e+01
0	 4.937499999999998e+00	 4.624999999999999e+00	 1.026626701538461e+01
0	 4.937499999999998e+00	 4.687499999999999e+00	 1.026033668461538e+01
0	 4.937499999999998e+00	 4.749999999999999e+00	 1.025448200923077e+01
0	 4.937499999999998e+00	 4.812499999999998e+00	 1.024870298923077e+01
0	 4.937499999999998e+00	 4.874999999999999e+00	 1.024299962461538e+01
0	 4.937499999999998e+00	 4.937499999999998e+00	 1.023737191538462e+01
0	 4.937499999999998e+00	 5.000000000000000e+00	 1.023181986153847e+01
0	 5.000000000000000e+00	 4.375000000000000e+00	 1.028746000000000e+01
0	 4.999999999999999e+00	 4.437499999999999e+00	 1.028137267692306e+01
0	 5.000000000000001e+00	 4.500000000000001e+00	 1.027536178461538e+01
0	 4.999999999999999e+00	 4.562499999999999e+00	 1.026942732307693e+01
0	 5.000000000000000e+00	 4.625000000000000e+00	 1.026356929230769e+01
0	 4.999999999999999e+00	 4.687499999999999e+00	 1.025778769230768e+01
0	 5.000000000000000e+00	 4.749999999999999e+00	 1.025208252307692e+01
0	 4.999999999999999e+00	 4.812499999999998e+00	 1.024645378461538e+01
0	 5.000000000000000e+00	 4.874999999999998e+00	 1.024090147692307e+01
0	 5.000000000000000e+00	 4.937499999999998e+00	 1.023542559999999e+01
0	 5.000000000000000e+00	 5.000000000000000e+00	 1.023002615384615e+01
0	 4.375000000000000e+00	 5.000000000000000e+00	 1.023025538461538e+01
0	 4.375000000000000e+00	 5.062500000000000e+00	 1.022409347692309e+01
0	 4.375000000000001e+00	 5.125000000000001e+00	 1.021791236923077e+01
0	 4.375000000000000e+00	 5.187499999999999e+00	 1.021171206153845e+01
0	 4.375000000000000e+00	 5.249999999999999e+00	 1.020549255384615e+01
0	 4.375000000000000e+00	 5.312499999999999e+00	 1.019925384615384e+01
0	 4.375000000000000e+00	 5.374999999999998e+00	 1.019299593846154e+01
0	 4.375000000000000e+00	 5.437499999999998e+00	 1.018671883076922e+01
0	 4.375000000000000e+00	 5.499999999999998e+00	 1.018042252307693e+01
0	 4.375000000000000e+00	 5.562499999999998e+00	 1.017410701538462e+01
0	 4.375000000000000e+00	 5.625000000000000e+00	 1.016777230769231e+01
0	 4.437499999999999e+00	 4.999999999999999e+00	 1.023200324615384e+01
0	 4.437500000000000e+00	 5.062500000000000e+00	 1.022587468923077e+01
0	 4.437499999999999e+00	 5.125000000000000e+00	 1.021973253538461e+01
0	 4.437499999999999e+00	 5.187499999999999e+00	 1.021357678461539e+01
0	 4.437500000000000e+00	 5.249999999999998e+00	 1.020740743692308e+01
0	 4.437500000000000e+00	 5.312500000000000e+00	 1.020122449230770e+01
0	 4.437500000000000e+00	 5.374999999999999e+00	 1.019502795076923e+01
0	 4.437500000000000e+00	 5.437499999999999e+00	 1.018881781230770e+01
0	 4.437500000000002e+00	 5.499999999999999e+00	 1.018259407692308e+01
0	 4.437499999999998e+00	 5.562499999999996e+00	 1.017635674461539e+01
0	 4.437499999999999e+00	 5.625000000000000e+00	 1.017010581538461e+01
0	 4.500000000000000e+00	 5.000000000000000e+00	 1.023335760000001e+01
0	 4.499999999999999e+00	 5.062499999999999e+00	 1.022726909230769e+01
0	 4.500000000000001e+00	 5.125000000000001e+00	 1.022117259076923e+01
0	 4.499999999999999e+00	 5.187499999999998e+00	 1.021506809538462e+01
0	 4.499999999999998e+00	 5.249999999999999e+00	 1.020895560615385e+01
0	 4.500000000000000e+00	 5.312499999999999e+00	 1.020283512307692e+01
0	 4.499999999999999e+00	 5.374999999999999e+00	 1.019670664615385e+01
0	 4.500000000000001e+00	 5.437499999999999e+00	 1.019057017538463e+01
0	 4.500000000000000e+00	 5.499999999999998e+00	 1.018442571076923e+01
0	 4.500000000000000e+00	 5.562499999999999e+00	 1.017827325230770e+01
0	 4.500000000000000e+00	 5.625000000000000e+00	 1.017211280000000e+01
0	 4.562499999999998e+00	 4.999999999999999e+00	 1.023431844615383e+01
0	 4.562499999999999e+00	 5.062500000000001e+00	 1.022827668615385e+01
0	 4.562499999999999e+00	 5.125000000000000e+00	 1.022223253538461e+01
0	 4.562499999999999e+00	 5.187499999999999e+00	 1.021618599384615e+01
0	 4.562499999999999e+00	 5.250000000000000e+00	 1.021013706153846e+01
0	 4.562500000000000e+00	 5.312499999999999e+00	 1.020408573846153e+01
0	 4.562499999999999e+00	 5.374999999999998e+00	 1.019803202461538e+01
0	 4.562500000000000e+00	 5.437499999999999e+00	 1.019197591999999e+01
0	 4.562500000000000e+00	 5.499999999999998e+00	 1.018591742461539e+01
0	 4.562499999999999e+00	 5.562499999999997e+00	 1.017985653846154e+01
0	 4.562499999999998e+00	 5.625000000000000e+00	 1.017379326153846e+01
0	 4.625000000000000e+00	 5.000000000000000e+00	 1.023488578461539e+01
0	 4.625000000000000e+00	 5.062500000000000e+00	 1.022889747076922e+01
0	 4.624999999999999e+00	 5.125000000000000e+00	 1.022291236923076e+01
0	 4.625000000000000e+00	 5.187500000000000e+00	 1.021693047999999e+01
0	 4.625000000000000e+00	 5.249999999999999e+00	 1.021095180307692e+01
0	 4.624999999999999e+00	 5.312499999999999e+00	 1.020497633846154e+01
0	 4.624999999999999e+00	 5.374999999999998e+00	 1.019900408615385e+01
0	 4.624999999999999e+00	 5.437499999999999e+00	 1.019303504615385e+01
0	 4.625000000000000e+00	 5.499999999999999e+00	 1.018706921846153e+01
0	 4.624999999999999e+00	 5.562499999999998e+00	 1.018110660307692e+01
0	 4.625000000000000e+00	 5.625000000000000e+00	 1.017514719999998e+01
0	 4.687499999999998e+00	 5.000000000000000e+00	 1.023505961538462e+01
0	 4.687499999999998e+00	 5.062500000000000e+00	 1.022913144615385e+01
0	 4.687499999999997e+00	 5.124999999999999e+00	 1.022321209230770e+01
0	 4.687500000000000e+00	 5.187500000000000e+00	 1.021730155384616e+01
0	 4.687499999999998e+00	 5.249999999999998e+00	 1.021139983076923e+01
0	 4.687499999999999e+00	 5.312499999999999e+00	 1.020550692307692e+01
0	 4.687500000000000e+00	 5.375000000000000e+00	 1.019962283076923e+01
0	 4.687499999999999e+00	 5.437499999999998e+00	 1.019374755384616e+01
0	 4.687499999999999e+00	 5.499999999999998e+00	 1.018788109230769e+01
0	 4.687500000000000e+00	 5.562499999999999e+00	 1.018202344615383e+01
0	 4.687499999999998e+00	 5.625000000000000e+00	 1.017617461538460e+01
0	 4.749999999999999e+00	 5.000000000000001e+00	 1.023483993846156e+01
0	 4.749999999999998e+00	 5.062499999999999e+00	 1.022897861230768e+01
0	 4.749999999999998e+00	 5.125000000000000e+00	 1.022313170461538e+01
0	 4.749999999999998e+00	 5.187500000000000e+00	 1.021729921538461e+01
0	 4.750000000000000e+00	 5.250000000000001e+00	 1.021148114461538e+01
0	 4.750000000000000e+00	 5.312500000000001e+00	 1.020567749230770e+01
0	 4.749999999999999e+00	 5.374999999999999e+00	 1.019988825846154e+01
0	 4.749999999999999e+00	 5.437499999999999e+00	 1.019411344307693e+01
0	 4.749999999999998e+00	 5.499999999999998e+00	 1.018835304615384e+01
0	 4.749999999999999e+00	 5.562499999999998e+00	 1.018260706769230e+01
0	 4.749999999999999e+00	 5.625000000000000e+00	 1.017687550769231e+01
0	 4.812499999999998e+00	 4.999999999999999e+00	 1.023422675384615e+01
0	 4.812499999999999e+00	 5.062500000000000e+00	 1.022843896923077e+01
0	 4.812499999999999e+00	 5.125000000000000e+00	 1.022267120615384e+01
0	 4.812499999999998e+00	 5.187500000000000e+00	 1.021692346461538e+01
0	 4.812499999999999e+00	 5.250000000000000e+00	 1.021119574461538e+01
0	 4.812499999999999e+00	 5.312500000000000e+00	 1.020548804615385e+01
0	 4.812499999999999e+00	 5.374999999999999e+00	 1.019980036923077e+01
0	 4.812499999999998e+00	 5.437499999999998e+00	 1.019413271384614e+01
0	 4.812499999999998e+00	 5.499999999999998e+00	 1.018848507999999e+01
0	 4.812499999999999e+00	 5.562499999999999e+00	 1.018285746769231e+01
0	 4.812499999999998e+00	 5.625000000000000e+00	 1.017724987692307e+01
0	 4.874999999999999e+00	 5.000000000000000e+00	 1.023322006153846e+01
0	 4.874999999999999e+00	 5.062500000000002e+00	 1.022751251692309e+01
0	 4.874999999999998e+00	 5.124999999999999e+00	 1.022183059692308e+01
0	 4.874999999999999e+00	 5.187500000000000e+00	 1.021617430153847e+01
0	 4.874999999999998e+00	 5.249999999999998e+00	 1.021054363076923e+01
0	 4.874999999999998e+00	 5.312499999999999e+00	 1.020493858461539e+01
0	 4.874999999999998e+00	 5.374999999999998e+00	 1.019935916307693e+01
0	 4.874999999999998e+00	 5.437499999999998e+00	 1.019380536615384e+01
0	 4.874999999999999e+00	 5.499999999999999e+00	 1.018827719384616e+01
0	 4.874999999999999e+00	 5.562499999999998e+00	 1.018277464615383e+01
0	 4.874999999999999e+00	 5.625000000000000e+00	 1.017729772307692e+01
0	 4.937499999999998e+00	 5.000000000000000e+00	 1.023181986153847e+01
0	 4.937499999999998e+00	 5.062500000000000e+00	 1.022619925538461e+01
0	 4.937499999999998e+00	 5.125000000000001e+00	 1.022060987692308e+01
0	 4.937499999999997e+00	 5.187499999999999e+00	 1.021505172615385e+01
0	 4.937499999999998e+00	 5.249999999999999e+00	 1.020952480307692e+01
0	 4.937499999999998e+00	 5.312499999999998e+00	 1.020402910769231e+01
0	 4.937499999999998e+00	 5.374999999999997e+00	 1.019856464000000e+01
0	 4.937499999999998e+00	 5.437499999999998e+00	 1.019313140000000e+01
0	 4.937499999999998e+00	 5.499999999999999e+00	 1.018772938769230e+01
0	 4.937499999999998e+00	 5.562499999999998e+00	 1.018235860307692e+01
0	 4.937499999999998e+00	 5.625000000000000e+00	 1.017701904615384e+01
0	 5.000000000000000e+00	 5.000000000000000e+00	 1.023002615384615e+01
0	 4.999999999999999e+00	 5.062500000000000e+00	 1.022449918461539e+01
0	 5.000000000000001e+00	 5.125000000000001e+00	 1.021900904615385e+01
0	 4.999999999999999e+00	 5.187499999999999e+00	 1.021355573846152e+01
0	 5.000000000000000e+00	 5.249999999999999e+00	 1.020813926153845e+01
0	 4.999999999999999e+00	 5.312499999999999e+00	 1.020275961538461e+01
0	 5.000000000000000e+00	 5.374999999999998e+00	 1.019741679999999e+01
0	 4.999999999999999e+00	 5.437499999999998e+00	 1.019211081538461e+01
0	 5.000000000000000e+00	 5.499999999999998e+00	 1.018684166153846e+01
0	 5.000000000000000e+00	 5.562499999999998e+00	 1.018160933846153e+01
0	 5.000000000000000e+00	 5.625000000000000e+00	 1.017641384615384e+01
0	 4.375000000000000e+00	 5.625000000000000e+00	 1.016777230769231e+01
0	 4.375000000000000e+00	 5.687500000000000e+00	 1.016293279999999e+01
0	 4.375000000000001e+00	 5.750000000000000e+00	 1.015806596923076e+01
0	 4.375000000000000e+00	 5.812499999999999e+00	 1.015317181538462e+01
0	 4.375000000000000e+00	 5.874999999999999e+00	 1.014825033846154e+01
0	 4.375000000000000e+00	 5.937499999999999e+00	 1.014330153846154e+01
0	 4.375000000000000e+00	 5.999999999999998e+00	 1.013832541538461e+01
0	 4.375000000000000e+00	 6.062499999999998e+00	 1.013332196923078e+01
0	 4.375000000000000e+00	 6.124999999999998e+00	 1.012829120000001e+01
0	 4.375000000000000e+00	 6.187499999999998e+00	 1.012323310769230e+01
0	 4.375000000000000e+00	 6.250000000000000e+00	 1.011814769230769e+01
0	 4.437499999999999e+00	 5.625000000000000e+00	 1.017010581538461e+01
0	 4.437500000000000e+00	 5.687499999999999e+00	 1.016527359692309e+01
0	 4.437499999999999e+00	 5.749999999999999e+00	 1.016041615076923e+01
0	 4.437499999999999e+00	 5.812499999999998e+00	 1.015553347692308e+01
0	 4.437500000000000e+00	 5.875000000000000e+00	 1.015062557538462e+01
0	 4.437500000000000e+00	 5.937500000000001e+00	 1.014569244615384e+01
0	 4.437500000000000e+00	 5.999999999999999e+00	 1.014073408923077e+01
0	 4.437500000000000e+00	 6.062500000000000e+00	 1.013575050461538e+01
0	 4.437500000000002e+00	 6.125000000000000e+00	 1.013074169230768e+01
0	 4.437499999999998e+00	 6.187499999999996e+00	 1.012570765230768e+01
0	 4.437499999999999e+00	 6.250000000000000e+00	 1.012064838461538e+01
0	 4.500000000000000e+00	 5.625000000000000e+00	 1.017211280000000e+01
0	 4.499999999999999e+00	 5.687499999999999e+00	 1.016729241538462e+01
0	 4.500000000000001e+00	 5.750000000000002e+00	 1.016244889846153e+01
0	 4.499999999999999e+00	 5.812499999999999e+00	 1.015758224923078e+01
0	 4.499999999999998e+00	 5.874999999999998e+00	 1.015269246769231e+01
0	 4.500000000000000e+00	 5.937499999999999e+00	 1.014777955384615e+01
0	 4.499999999999999e+00	 5.999999999999998e+00	 1.014284350769231e+01
0	 4.500000000000001e+00	 6.062499999999999e+00	 1.013788432923076e+01
0	 4.500000000000000e+00	 6.124999999999998e+00	 1.013290201846153e+01
0	 4.500000000000000e+00	 6.187499999999998e+00	 1.012789657538461e+01
0	 4.500000000000000e+00	 6.250000000000000e+00	 1.012286800000001e+01
0	 4.562499999999998e+00	 5.625000000000000e+00	 1.017379326153846e+01
0	 4.562499999999999e+00	 5.687500000000000e+00	 1.016898925538461e+01
0	 4.562499999999999e+00	 5.749999999999999e+00	 1.016416421230768e+01
0	 4.562499999999999e+00	 5.812499999999999e+00	 1.015931813230769e+01
0	 4.562499999999999e+00	 5.875000000000000e+00	 1.015445101538461e+01
0	 4.562500000000000e+00	 5.937500000000000e+00	 1.014956286153846e+01
0	 4.562499999999999e+00	 5.999999999999998e+00	 1.014465367076922e+01
0	 4.562500000000000e+00	 6.062499999999998e+00	 1.013972344307692e+01
0	 4.562500000000000e+00	 6.124999999999997e+00	 1.013477217846154e+01
0	 4.562499999999999e+00	 6.187499999999997e+00	 1.012979987692309e+01
0	 4.562499999999998e+00	 6.250000000000000e+00	 1.012480653846153e+01
0	 4.625000000000000e+00	 5.625000000000000e+00	 1.017514719999998e+01
0	 4.625000000000000e+00	 5.687500000000000e+00	 1.017036411692307e+01
0	 4.624999999999999e+00	 5.750000000000000e+00	 1.016556209230770e+01
0	 4.625000000000000e+00	 5.812500000000000e+00	 1.016074112615385e+01
0	 4.625000000000000e+00	 5.874999999999999e+00	 1.015590121846153e+01
0	 4.624999999999999e+00	 5.937499999999999e+00	 1.015104236923076e+01
0	 4.624999999999999e+00	 5.999999999999997e+00	 1.014616457846155e+01
0	 4.624999999999999e+00	 6.062499999999998e+00	 1.014126784615384e+01
0	 4.625000000000000e+00	 6.124999999999999e+00	 1.013635217230769e+01
0	 4.624999999999999e+00	 6.187499999999998e+00	 1.013141755692308e+01
0	 4.625000000000000e+00	 6.250000000000000e+00	 1.012646400000001e+01
0	 4.687499999999998e+00	 5.625000000000000e+00	 1.017617461538460e+01
0	 4.687499999999998e+00	 5.687500000000000e+00	 1.017141700000002e+01
0	 4.687499999999997e+00	 5.750000000000000e+00	 1.016664253846154e+01
0	 4.687500000000000e+00	 5.812500000000000e+00	 1.016185123076924e+01
0	 4.687499999999998e+00	 5.874999999999998e+00	 1.015704307692308e+01
0	 4.687499999999999e+00	 5.937499999999998e+00	 1.015221807692308e+01
0	 4.687500000000000e+00	 6.000000000000000e+00	 1.014737623076923e+01
0	 4.687499999999999e+00	 6.062499999999998e+00	 1.014251753846154e+01
0	 4.687499999999999e+00	 6.124999999999998e+00	 1.013764199999999e+01
0	 4.687500000000000e+00	 6.187499999999999e+00	 1.013274961538463e+01
0	 4.687499999999998e+00	 6.250000000000000e+00	 1.012784038461540e+01
0	 4.749999999999999e+00	 5.625000000000000e+00	 1.017687550769231e+01
0	 4.749999999999998e+00	 5.687499999999999e+00	 1.017214790461537e+01
0	 4.749999999999998e+00	 5.750000000000000e+00	 1.016740555076922e+01
0	 4.749999999999998e+00	 5.812499999999999e+00	 1.016264844615383e+01
0	 4.750000000000000e+00	 5.875000000000001e+00	 1.015787659076923e+01
0	 4.750000000000000e+00	 5.937499999999999e+00	 1.015308998461538e+01
0	 4.749999999999999e+00	 5.999999999999998e+00	 1.014828862769231e+01
0	 4.749999999999999e+00	 6.062499999999999e+00	 1.014347252000000e+01
0	 4.749999999999998e+00	 6.124999999999998e+00	 1.013864166153846e+01
0	 4.749999999999999e+00	 6.187499999999998e+00	 1.013379605230769e+01
0	 4.749999999999999e+00	 6.250000000000000e+00	 1.012893569230769e+01
0	 4.812499999999998e+00	 5.625000000000000e+00	 1.017724987692307e+01
0	 4.812499999999999e+00	 5.687500000000000e+00	 1.017255683076922e+01
0	 4.812499999999999e+00	 5.750000000000000e+00	 1.016785112923076e+01
0	 4.812499999999998e+00	 5.812499999999999e+00	 1.016313277230769e+01
0	 4.812499999999999e+00	 5.874999999999999e+00	 1.015840176000000e+01
0	 4.812499999999999e+00	 5.937500000000001e+00	 1.015365809230771e+01
0	 4.812499999999999e+00	 5.999999999999999e+00	 1.014890176923077e+01
0	 4.812499999999998e+00	 6.062499999999999e+00	 1.014413279076924e+01
0	 4.812499999999998e+00	 6.124999999999999e+00	 1.013935115692308e+01
0	 4.812499999999999e+00	 6.187499999999999e+00	 1.013455686769231e+01
0	 4.812499999999998e+00	 6.250000000000000e+00	 1.012974992307693e+01
0	 4.874999999999999e+00	 5.625000000000000e+00	 1.017729772307692e+01
0	 4.874999999999999e+00	 5.687500000000000e+00	 1.017264377846154e+01
0	 4.874999999999998e+00	 5.750000000000000e+00	 1.016797927384615e+01
0	 4.874999999999999e+00	 5.812499999999999e+00	 1.016330420923076e+01
0	 4.874999999999998e+00	 5.875000000000000e+00	 1.015861858461539e+01
0	 4.874999999999998e+00	 5.937500000000000e+00	 1.015392239999999e+01
0	 4.874999999999998e+00	 5.999999999999998e+00	 1.014921565538461e+01
0	 4.874999999999998e+00	 6.062499999999998e+00	 1.014449835076923e+01
0	 4.874999999999999e+00	 6.124999999999999e+00	 1.013977048615385e+01
0	 4.874999999999999e+00	 6.187499999999998e+00	 1.013503206153847e+01
0	 4.874999999999999e+00	 6.250000000000000e+00	 1.013028307692309e+01
0	 4.937499999999998e+00	 5.625000000000000e+00	 1.017701904615384e+01
0	 4.937499999999998e+00	 5.687500000000000e+00	 1.017240874769231e+01
0	 4.937499999999998e+00	 5.750000000000000e+00	 1.016778998461538e+01
0	 4.937499999999997e+00	 5.812499999999999e+00	 1.016316275692307e+01
0	 4.937499999999998e+00	 5.875000000000000e+00	 1.015852706461538e+01
0	 4.937499999999998e+00	 5.937499999999999e+00	 1.015388290769230e+01
0	 4.937499999999998e+00	 5.999999999999998e+00	 1.014923028615385e+01
0	 4.937499999999998e+00	 6.062499999999998e+00	 1.014456920000001e+01
0	 4.937499999999998e+00	 6.124999999999998e+00	 1.013989964923077e+01
0	 4.937499999999998e+00	 6.187499999999997e+00	 1.013522163384615e+01
0	 4.937499999999998e+00	 6.250000000000000e+00	 1.013053515384616e+01
0	 5.000000000000000e+00	 5.625000000000000e+00	 1.017641384615384e+01
0	 4.999999999999999e+00	 5.687500000000000e+00	 1.017185173846153e+01
0	 5.000000000000001e+00	 5.750000000000000e+00	 1.016728326153845e+01
0	 4.999999999999999e+00	 5.812499999999999e+00	 1.016270841538462e+01
0	 5.000000000000000e+00	 5.874999999999999e+00	 1.015812719999999e+01
0	 4.999999999999999e+00	 5.937499999999999e+00	 1.015353961538461e+01
0	 5.000000000000000e+00	 5.999999999999998e+00	 1.014894566153847e+01
0	 4.999999999999999e+00	 6.062499999999998e+00	 1.014434533846154e+01
0	 5.000000000000000e+00	 6.124999999999998e+00	 1.013973864615385e+01
0	 5.000000000000000e+00	 6.187499999999998e+00	 1.013512558461538e+01
0	 5.000000000000000e+00	 6.250000000000000e+00	 1.013050615384615e+01
0	 4.375000000000000e+00	 6.250000000000000e+00	 1.011814769230769e+01
0	 4.375000000000000e+00	 6.312500000000000e+00	 1.011455487692308e+01
0	 4.375000000000001e+00	 6.375000000000000e+00	 1.011092043076923e+01
0	 4.375000000000000e+00	 6.437499999999999e+00	 1.010724435384614e+01
0	 4.375000000000000e+00	 6.499999999999999e+00	 1.010352664615384e+01
0	 4.375000000000000e+00	 6.562499999999998e+00	 1.009976730769231e+01
0	 4.375000000000000e+00	 6.624999999999998e+00	 1.009596633846152e+01
0	 4.375000000000000e+00	 6.687499999999998e+00	 1.009212373846153e+01
0	 4.375000000000000e+00	 6.749999999999998e+00	 1.008823950769231e+01
0	 4.375000000000000e+00	 6.812499999999998e+00	 1.008431364615384e+01
0	 4.375000000000000e+00	 6.875000000000000e+00	 1.008034615384615e+01
0	 4.437499999999999e+00	 6.250000000000000e+00	 1.012064838461538e+01
0	 4.437500000000000e+00	 6.312500000000000e+00	 1.011700728461539e+01
0	 4.437499999999999e+00	 6.374999999999999e+00	 1.011332673230768e+01
0	 4.437499999999999e+00	 6.437500000000000e+00	 1.010960672769231e+01
0	 4.437500000000000e+00	 6.499999999999997e+00	 1.010584727076923e+01
0	 4.437500000000000e+00	 6.562500000000000e+00	 1.010204836153846e+01
0	 4.437500000000000e+00	 6.624999999999999e+00	 1.009821000000000e+01
0	 4.437500000000000e+00	 6.687499999999999e+00	 1.009433218615385e+01
0	 4.437500000000002e+00	 6.749999999999999e+00	 1.009041492000000e+01
0	 4.437499999999998e+00	 6.812499999999996e+00	 1.008645820153844e+01
0	 4.437499999999999e+00	 6.875000000000001e+00	 1.008246203076923e+01
0	 4.500000000000000e+00	 6.250000000000000e+00	 1.012286800000001e+01
0	 4.499999999999999e+00	 6.312499999999999e+00	 1.011918596000000e+01
0	 4.500000000000001e+00	 6.375000000000000e+00	 1.011546664615385e+01
0	 4.499999999999999e+00	 6.437499999999998e+00	 1.011171005846153e+01
0	 4.499999999999998e+00	 6.499999999999996e+00	 1.010791619692307e+01
0	 4.500000000000000e+00	 6.562499999999998e+00	 1.010408506153846e+01
0	 4.499999999999999e+00	 6.624999999999996e+00	 1.010021665230769e+01
0	 4.500000000000001e+00	 6.687499999999999e+00	 1.009631096923077e+01
0	 4.500000000000000e+00	 6.749999999999997e+00	 1.009236801230768e+01
0	 4.500000000000000e+00	 6.812500000000000e+00	 1.008838778153844e+01
0	 4.500000000000000e+00	 6.875000000000000e+00	 1.008437027692308e+01
0	 4.562499999999998e+00	 6.250000000000000e+00	 1.012480653846153e+01
0	 4.562499999999999e+00	 6.312499999999999e+00	 1.012109090307694e+01
0	 4.562499999999999e+00	 6.375000000000000e+00	 1.011734017230768e+01
0	 4.562499999999999e+00	 6.437500000000000e+00	 1.011355434615383e+01
0	 4.562499999999999e+00	 6.499999999999998e+00	 1.010973342461538e+01
0	 4.562500000000000e+00	 6.562499999999999e+00	 1.010587740769230e+01
0	 4.562499999999999e+00	 6.624999999999999e+00	 1.010198629538460e+01
0	 4.562500000000000e+00	 6.687499999999998e+00	 1.009806008769230e+01
0	 4.562500000000000e+00	 6.749999999999998e+00	 1.009409878461538e+01
0	 4.562499999999999e+00	 6.812499999999997e+00	 1.009010238615383e+01
0	 4.562499999999998e+00	 6.874999999999999e+00	 1.008607089230768e+01
0	 4.625000000000000e+00	 6.250000000000000e+00	 1.012646400000001e+01
0	 4.625000000000000e+00	 6.312499999999999e+00	 1.012272211384616e+01
0	 4.624999999999999e+00	 6.375000000000000e+00	 1.011894731076923e+01
0	 4.625000000000000e+00	 6.437499999999999e+00	 1.011513959076924e+01
0	 4.625000000000000e+00	 6.499999999999997e+00	 1.011129895384616e+01
0	 4.624999999999999e+00	 6.562499999999999e+00	 1.010742539999999e+01
0	 4.624999999999999e+00	 6.624999999999998e+00	 1.010351892923075e+01
0	 4.624999999999999e+00	 6.687499999999998e+00	 1.009957954153846e+01
0	 4.625000000000000e+00	 6.749999999999998e+00	 1.009560723692306e+01
0	 4.624999999999999e+00	 6.812499999999998e+00	 1.009160201538462e+01
0	 4.625000000000000e+00	 6.875000000000001e+00	 1.008756387692304e+01
0	 4.687499999999998e+00	 6.250000000000000e+00	 1.012784038461540e+01
0	 4.687499999999998e+00	 6.312500000000000e+00	 1.012407959230769e+01
0	 4.687499999999997e+00	 6.375000000000000e+00	 1.012028806153845e+01
0	 4.687500000000000e+00	 6.437499999999999e+00	 1.011646579230770e+01
0	 4.687499999999998e+00	 6.499999999999997e+00	 1.011261278461538e+01
0	 4.687499999999999e+00	 6.562499999999999e+00	 1.010872903846154e+01
0	 4.687500000000000e+00	 6.625000000000000e+00	 1.010481455384615e+01
0	 4.687499999999999e+00	 6.687499999999999e+00	 1.010086933076923e+01
0	 4.687499999999999e+00	 6.749999999999999e+00	 1.009689336923075e+01
0	 4.687500000000000e+00	 6.812499999999998e+00	 1.009288666923076e+01
0	 4.687499999999998e+00	 6.875000000000000e+00	 1.008884923076922e+01
0	 4.749999999999999e+00	 6.250000000000000e+00	 1.012893569230769e+01
0	 4.749999999999998e+00	 6.312499999999999e+00	 1.012516333846154e+01
0	 4.749999999999998e+00	 6.374999999999997e+00	 1.012136242461538e+01
0	 4.749999999999998e+00	 6.437499999999999e+00	 1.011753295076923e+01
0	 4.750000000000000e+00	 6.500000000000000e+00	 1.011367491692308e+01
0	 4.750000000000000e+00	 6.562500000000001e+00	 1.010978832307691e+01
0	 4.749999999999999e+00	 6.624999999999998e+00	 1.010587316923077e+01
0	 4.749999999999999e+00	 6.687499999999999e+00	 1.010192945538460e+01
0	 4.749999999999998e+00	 6.749999999999999e+00	 1.009795718153844e+01
0	 4.749999999999999e+00	 6.812499999999998e+00	 1.009395634769230e+01
0	 4.749999999999999e+00	 6.875000000000000e+00	 1.008992695384613e+01
0	 4.812499999999998e+00	 6.250000000000000e+00	 1.012974992307693e+01
0	 4.812499999999999e+00	 6.312499999999999e+00	 1.012597335230768e+01
0	 4.812499999999999e+00	 6.375000000000001e+00	 1.012217040000000e+01
0	 4.812499999999998e+00	 6.437499999999999e+00	 1.011834106615384e+01
0	 4.812499999999999e+00	 6.500000000000000e+00	 1.011448535076923e+01
0	 4.812499999999999e+00	 6.562499999999999e+00	 1.011060325384615e+01
0	 4.812499999999999e+00	 6.624999999999999e+00	 1.010669477538462e+01
0	 4.812499999999998e+00	 6.687499999999999e+00	 1.010275991538462e+01
0	 4.812499999999998e+00	 6.749999999999998e+00	 1.009879867384614e+01
0	 4.812499999999999e+00	 6.812499999999999e+00	 1.009481105076924e+01
0	 4.812499999999998e+00	 6.875000000000000e+00	 1.009079704615383e+01
0	 4.874999999999999e+00	 6.250000000000000e+00	 1.013028307692309e+01
0	 4.874999999999999e+00	 6.312500000000001e+00	 1.012650963384614e+01
0	 4.874999999999998e+00	 6.374999999999999e+00	 1.012271198769231e+01
0	 4.874999999999999e+00	 6.437500000000000e+00	 1.011889013846153e+01
0	 4.874999999999998e+00	 6.499999999999999e+00	 1.011504408615384e+01
0	 4.874999999999998e+00	 6.562499999999999e+00	 1.011117383076922e+01
0	 4.874999999999998e+00	 6.624999999999998e+00	 1.010727937230769e+01
0	 4.874999999999998e+00	 6.687499999999998e+00	 1.010336071076922e+01
0	 4.874999999999999e+00	 6.749999999999998e+00	 1.009941784615383e+01
0	 4.874999999999999e+00	 6.812499999999998e+00	 1.009545077846154e+01
0	 4.874999999999999e+00	 6.875000000000000e+00	 1.009145950769230e+01
0	 4.937499999999998e+00	 6.250000000000000e+00	 1.013053515384616e+01
0	 4.937499999999998e+00	 6.312500000000000e+00	 1.012677218307692e+01
0	 4.937499999999998e+00	 6.375000000000000e+00	 1.012298718769230e+01
0	 4.937499999999997e+00	 6.437499999999999e+00	 1.011918016769229e+01
0	 4.937499999999998e+00	 6.499999999999998e+00	 1.011535112307691e+01
0	 4.937499999999998e+00	 6.562499999999998e+00	 1.011150005384615e+01
0	 4.937499999999998e+00	 6.624999999999998e+00	 1.010762695999999e+01
0	 4.937499999999998e+00	 6.687499999999998e+00	 1.010373184153845e+01
0	 4.937499999999998e+00	 6.749999999999999e+00	 1.009981469846152e+01
0	 4.937499999999998e+00	 6.812499999999997e+00	 1.009587553076924e+01
0	 4.937499999999998e+00	 6.875000000000000e+00	 1.009191433846153e+01
0	 5.000000000000000e+00	 6.250000000000000e+00	 1.013050615384615e+01
0	 4.999999999999999e+00	 6.312500000000000e+00	 1.012676099999999e+01
0	 5.000000000000001e+00	 6.375000000000000e+00	 1.012299600000000e+01
0	 4.999999999999999e+00	 6.437499999999999e+00	 1.011921115384614e+01
0	 5.000000000000000e+00	 6.499999999999999e+00	 1.011540646153845e+01
0	 4.999999999999999e+00	 6.562499999999998e+00	 1.011158192307693e+01
0	 5.000000000000000e+00	 6.624999999999998e+00	 1.010773753846152e+01
0	 4.999999999999999e+00	 6.687499999999998e+00	 1.010387330769229e+01
0	 5.000000000000000e+00	 6.749999999999998e+00	 1.009998923076922e+01
0	 5.000000000000000e+00	 6.812499999999998e+00	 1.009608530769230e+01
0	 5.000000000000000e+00	 6.875000000000000e+00	 1.009216153846153e+01
0	 4.375000000000000e+00	 6.875000000000000e+00	 1.008034615384615e+01
0	 4.375000000000000e+00	 6.937500000000000e+00	 1.007764930769230e+01
0	 4.375000000000001e+00	 7.000000000000000e+00	 1.007491415384613e+01
0	 4.375000000000000e+00	 7.062500000000000e+00	 1.007214069230771e+01
0	 4.375000000000000e+00	 7.125000000000000e+00	 1.006932892307692e+01
0	 4.375000000000000e+00	 7.187499999999998e+00	 1.006647884615384e+01
0	 4.375000000000000e+00	 7.249999999999998e+00	 1.006359046153849e+01
0	 4.375000000000000e+00	 7.312499999999998e+00	 1.006066376923077e+01
0	 4.375000000000000e+00	 7.374999999999998e+00	 1.005769876923078e+01
0	 4.375000000000000e+00	 7.437499999999998e+00	 1.005469546153846e+01
0	 4.375000000000000e+00	 7.500000000000000e+00	 1.005165384615385e+01
0	 4.437499999999999e+00	 6.875000000000001e+00	 1.008246203076923e+01
0	 4.437500000000000e+00	 6.937499999999999e+00	 1.007971110461537e+01
0	 4.437499999999999e+00	 6.999999999999999e+00	 1.007692243384615e+01
0	 4.437499999999999e+00	 7.062500000000000e+00	 1.007409601846153e+01
0	 4.437500000000000e+00	 7.124999999999998e+00	 1.007123185846154e+01
0	 4.437500000000000e+00	 7.187499999999999e+00	 1.006832995384616e+01
0	 4.437500000000000e+00	 7.250000000000000e+00	 1.006539030461539e+01
0	 4.437500000000000e+00	 7.312499999999999e+00	 1.006241291076923e+01
0	 4.437500000000002e+00	 7.374999999999999e+00	 1.005939777230770e+01
0	 4.437499999999998e+00	 7.437499999999996e+00	 1.005634488923077e+01
0	 4.437499999999999e+00	 7.500000000000000e+00	 1.005325426153847e+01
0	 4.500000000000000e+00	 6.875000000000000e+00	 1.008437027692308e+01
0	 4.499999999999999e+00	 6.937499999999999e+00	 1.008157119384615e+01
0	 4.500000000000001e+00	 7.000000000000001e+00	 1.007873492923075e+01
0	 4.499999999999999e+00	 7.062499999999999e+00	 1.007586148307692e+01
0	 4.499999999999998e+00	 7.124999999999998e+00	 1.007295085538461e+01
0	 4.500000000000000e+00	 7.187499999999999e+00	 1.007000304615385e+01
0	 4.499999999999999e+00	 7.249999999999996e+00	 1.006701805538463e+01
0	 4.500000000000001e+00	 7.312499999999998e+00	 1.006399588307693e+01
0	 4.500000000000000e+00	 7.374999999999997e+00	 1.006093652923076e+01
0	 4.500000000000000e+00	 7.437500000000000e+00	 1.005783999384617e+01
0	 4.500000000000000e+00	 7.499999999999999e+00	 1.005470627692308e+01
0	 4.562499999999998e+00	 6.874999999999999e+00	 1.008607089230768e+01
0	 4.562499999999999e+00	 6.937499999999999e+00	 1.008322957538461e+01
0	 4.562499999999999e+00	 7.000000000000000e+00	 1.008035163999999e+01
0	 4.562499999999999e+00	 7.062500000000000e+00	 1.007743708615383e+01
0	 4.562499999999999e+00	 7.124999999999999e+00	 1.007448591384616e+01
0	 4.562500000000000e+00	 7.187499999999999e+00	 1.007149812307692e+01
0	 4.562499999999999e+00	 7.250000000000000e+00	 1.006847371384614e+01
0	 4.562500000000000e+00	 7.312499999999999e+00	 1.006541268615385e+01
0	 4.562500000000000e+00	 7.374999999999997e+00	 1.006231503999999e+01
0	 4.562499999999999e+00	 7.437499999999998e+00	 1.005918077538462e+01
0	 4.562499999999998e+00	 7.500000000000000e+00	 1.005600989230773e+01
0	 4.625000000000000e+00	 6.875000000000001e+00	 1.008756387692304e+01
0	 4.625000000000000e+00	 6.937499999999999e+00	 1.008468624923076e+01
0	 4.624999999999999e+00	 7.000000000000001e+00	 1.008177256615385e+01
0	 4.625000000000000e+00	 7.062500000000000e+00	 1.007882282769230e+01
0	 4.625000000000000e+00	 7.124999999999999e+00	 1.007583703384616e+01
0	 4.624999999999999e+00	 7.187499999999999e+00	 1.007281518461537e+01
0	 4.624999999999999e+00	 7.249999999999997e+00	 1.006975728000000e+01
0	 4.624999999999999e+00	 7.312499999999998e+00	 1.006666331999999e+01
0	 4.625000000000000e+00	 7.374999999999999e+00	 1.006353330461539e+01
0	 4.624999999999999e+00	 7.437499999999998e+00	 1.006036723384615e+01
0	 4.625000000000000e+00	 7.500000000000000e+00	 1.005716510769232e+01
0	 4.687499999999998e+00	 6.875000000000000e+00	 1.008884923076922e+01
0	 4.687499999999998e+00	 6.937500000000000e+00	 1.008594121538461e+01
0	 4.687499999999997e+00	 7.000000000000000e+00	 1.008299770769232e+01
0	 4.687500000000000e+00	 7.062500000000000e+00	 1.008001870769229e+01
0	 4.687499999999998e+00	 7.124999999999997e+00	 1.007700421538462e+01
0	 4.687499999999999e+00	 7.187499999999999e+00	 1.007395423076923e+01
0	 4.687500000000000e+00	 7.249999999999999e+00	 1.007086875384613e+01
0	 4.687499999999999e+00	 7.312499999999998e+00	 1.006774778461538e+01
0	 4.687499999999999e+00	 7.374999999999997e+00	 1.006459132307694e+01
0	 4.687500000000000e+00	 7.437499999999998e+00	 1.006139936923077e+01
0	 4.687499999999998e+00	 7.500000000000000e+00	 1.005817192307693e+01
0	 4.749999999999999e+00	 6.875000000000000e+00	 1.008992695384613e+01
0	 4.749999999999998e+00	 6.937500000000000e+00	 1.008699447384615e+01
0	 4.749999999999998e+00	 6.999999999999998e+00	 1.008402706461536e+01
0	 4.749999999999998e+00	 7.062500000000000e+00	 1.008102472615384e+01
0	 4.750000000000000e+00	 7.125000000000000e+00	 1.007798745846153e+01
0	 4.750000000000000e+00	 7.187500000000000e+00	 1.007491526153845e+01
0	 4.749999999999999e+00	 7.249999999999998e+00	 1.007180813538462e+01
0	 4.749999999999999e+00	 7.312499999999999e+00	 1.006866608000001e+01
0	 4.749999999999998e+00	 7.374999999999999e+00	 1.006548909538462e+01
0	 4.749999999999999e+00	 7.437499999999998e+00	 1.006227718153846e+01
0	 4.749999999999999e+00	 7.499999999999999e+00	 1.005903033846154e+01
0	 4.812499999999998e+00	 6.875000000000000e+00	 1.009079704615383e+01
0	 4.812499999999999e+00	 6.937499999999999e+00	 1.008784602461538e+01
0	 4.812499999999999e+00	 7.000000000000001e+00	 1.008486063692306e+01
0	 4.812499999999998e+00	 7.062499999999999e+00	 1.008184088307691e+01
0	 4.812499999999999e+00	 7.124999999999999e+00	 1.007878676307692e+01
0	 4.812499999999999e+00	 7.187500000000000e+00	 1.007569827692307e+01
0	 4.812499999999999e+00	 7.249999999999999e+00	 1.007257542461539e+01
0	 4.812499999999998e+00	 7.312500000000000e+00	 1.006941820615385e+01
0	 4.812499999999998e+00	 7.374999999999998e+00	 1.006622662153847e+01
0	 4.812499999999999e+00	 7.437499999999999e+00	 1.006300067076923e+01
0	 4.812499999999998e+00	 7.499999999999998e+00	 1.005974035384618e+01
0	 4.874999999999999e+00	 6.875000000000000e+00	 1.009145950769230e+01
0	 4.874999999999999e+00	 6.937500000000001e+00	 1.008849586769230e+01
0	 4.874999999999998e+00	 6.999999999999998e+00	 1.008549842461538e+01
0	 4.874999999999999e+00	 7.062500000000000e+00	 1.008246717846154e+01
0	 4.874999999999998e+00	 7.125000000000000e+00	 1.007940212923077e+01
0	 4.874999999999998e+00	 7.187500000000000e+00	 1.007630327692309e+01
0	 4.874999999999998e+00	 7.250000000000000e+00	 1.007317062153846e+01
0	 4.874999999999998e+00	 7.312499999999999e+00	 1.007000416307693e+01
0	 4.874999999999999e+00	 7.374999999999998e+00	 1.006680390153847e+01
0	 4.874999999999999e+00	 7.437499999999998e+00	 1.006356983692307e+01
0	 4.874999999999999e+00	 7.500000000000000e+00	 1.006030196923077e+01
0	 4.937499999999998e+00	 6.875000000000000e+00	 1.009191433846153e+01
0	 4.937499999999998e+00	 6.937500000000001e+00	 1.008894400307692e+01
0	 4.937499999999998e+00	 7.000000000000001e+00	 1.008594042769231e+01
0	 4.937499999999997e+00	 7.062500000000000e+00	 1.008290361230769e+01
0	 4.937499999999998e+00	 7.124999999999999e+00	 1.007983355692309e+01
0	 4.937499999999998e+00	 7.187499999999998e+00	 1.007673026153846e+01
0	 4.937499999999998e+00	 7.249999999999999e+00	 1.007359372615385e+01
0	 4.937499999999998e+00	 7.312499999999998e+00	 1.007042395076923e+01
0	 4.937499999999998e+00	 7.374999999999998e+00	 1.006722093538462e+01
0	 4.937499999999998e+00	 7.437499999999998e+00	 1.006398468000002e+01
0	 4.937499999999998e+00	 7.500000000000000e+00	 1.006071518461541e+01
0	 5.000000000000000e+00	 6.875000000000000e+00	 1.009216153846153e+01
0	 4.999999999999999e+00	 6.937500000000000e+00	 1.008919043076923e+01
0	 5.000000000000001e+00	 7.000000000000000e+00	 1.008618664615382e+01
0	 4.999999999999999e+00	 7.062500000000000e+00	 1.008315018461539e+01
0	 5.000000000000000e+00	 7.125000000000000e+00	 1.008008104615384e+01
0	 4.999999999999999e+00	 7.187499999999998e+00	 1.007697923076922e+01
0	 5.000000000000000e+00	 7.249999999999998e+00	 1.007384473846156e+01
0	 4.999999999999999e+00	 7.312499999999998e+00	 1.007067756923077e+01
0	 5.000000000000000e+00	 7.374999999999998e+00	 1.006747772307692e+01
0	 5.000000000000000e+00	 7.437499999999998e+00	 1.006424520000000e+01
0	 5.000000000000000e+00	 7.500000000000000e+00	 1.006098000000001e+01
0	 4.375000000000000e+00	 7.500000000000000e+00	 1.005165384615385e+01
0	 4.375000000000000e+00	 7.562500000000000e+00	 1.004966940000001e+01
0	 4.375000000000001e+00	 7.625000000000000e+00	 1.004764498461541e+01
0	 4.375000000000000e+00	 7.687499999999999e+00	 1.004558060000000e+01
0	 4.375000000000000e+00	 7.750000000000000e+00	 1.004347624615385e+01
0	 4.375000000000000e+00	 7.812499999999999e+00	 1.004133192307694e+01
0	 4.375000000000000e+00	 7.874999999999998e+00	 1.003914763076923e+01
0	 4.375000000000000e+00	 7.937499999999997e+00	 1.003692336923076e+01
0	 4.375000000000000e+00	 7.999999999999998e+00	 1.003465913846154e+01
0	 4.375000000000000e+00	 8.062499999999996e+00	 1.003235493846154e+01
0	 4.375000000000000e+00	 8.125000000000000e+00	 1.003001076923076e+01
0	 4.437499999999999e+00	 7.500000000000000e+00	 1.005325426153847e+01
0	 4.437500000000000e+00	 7.562499999999999e+00	 1.005121374153847e+01
0	 4.437499999999999e+00	 7.624999999999998e+00	 1.004913316923078e+01
0	 4.437499999999999e+00	 7.687499999999998e+00	 1.004701254461538e+01
0	 4.437500000000000e+00	 7.750000000000000e+00	 1.004485186769231e+01
0	 4.437500000000000e+00	 7.812500000000000e+00	 1.004265113846153e+01
0	 4.437500000000000e+00	 7.874999999999999e+00	 1.004041035692307e+01
0	 4.437500000000000e+00	 7.937499999999998e+00	 1.003812952307691e+01
0	 4.437500000000002e+00	 8.000000000000000e+00	 1.003580863692307e+01
0	 4.437499999999998e+00	 8.062499999999995e+00	 1.003344769846153e+01
0	 4.437499999999999e+00	 8.125000000000000e+00	 1.003104670769229e+01
0	 4.500000000000000e+00	 7.499999999999999e+00	 1.005470627692308e+01
0	 4.499999999999999e+00	 7.562500000000001e+00	 1.005261478769233e+01
0	 4.500000000000001e+00	 7.625000000000001e+00	 1.005048316307693e+01
0	 4.499999999999999e+00	 7.687500000000001e+00	 1.004831140307691e+01
0	 4.499999999999998e+00	 7.749999999999998e+00	 1.004609950769231e+01
0	 4.500000000000000e+00	 7.812499999999998e+00	 1.004384747692308e+01
0	 4.499999999999999e+00	 7.874999999999996e+00	 1.004155531076924e+01
0	 4.500000000000001e+00	 7.937499999999998e+00	 1.003922300923076e+01
0	 4.500000000000000e+00	 7.999999999999999e+00	 1.003685057230769e+01
0	 4.500000000000000e+00	 8.062499999999998e+00	 1.003443799999999e+01
0	 4.500000000000000e+00	 8.125000000000000e+00	 1.003198529230769e+01
0	 4.562499999999998e+00	 7.500000000000000e+00	 1.005600989230773e+01
0	 4.562499999999999e+00	 7.562500000000001e+00	 1.005387253846154e+01
0	 4.562499999999999e+00	 7.625000000000001e+00	 1.005169496615386e+01
0	 4.562499999999999e+00	 7.687500000000000e+00	 1.004947717538463e+01
0	 4.562499999999999e+00	 7.749999999999999e+00	 1.004721916615384e+01
0	 4.562500000000000e+00	 7.812499999999999e+00	 1.004492093846155e+01
0	 4.562499999999999e+00	 7.874999999999998e+00	 1.004258249230770e+01
0	 4.562500000000000e+00	 7.937499999999998e+00	 1.004020382769232e+01
0	 4.562500000000000e+00	 7.999999999999998e+00	 1.003778494461540e+01
0	 4.562499999999999e+00	 8.062499999999996e+00	 1.003532584307692e+01
0	 4.562499999999998e+00	 8.125000000000000e+00	 1.003282652307690e+01
0	 4.625000000000000e+00	 7.500000000000000e+00	 1.005716510769232e+01
0	 4.625000000000000e+00	 7.562500000000000e+00	 1.005498699384616e+01
0	 4.624999999999999e+00	 7.625000000000000e+00	 1.005276857846154e+01
0	 4.625000000000000e+00	 7.687500000000000e+00	 1.005050986153845e+01
0	 4.625000000000000e+00	 7.749999999999998e+00	 1.004821084307691e+01
0	 4.624999999999999e+00	 7.812500000000000e+00	 1.004587152307692e+01
0	 4.624999999999999e+00	 7.874999999999998e+00	 1.004349190153847e+01
0	 4.624999999999999e+00	 7.937499999999999e+00	 1.004107197846152e+01
0	 4.625000000000000e+00	 7.999999999999997e+00	 1.003861175384614e+01
0	 4.624999999999999e+00	 8.062500000000000e+00	 1.003611122769232e+01
0	 4.625000000000000e+00	 8.125000000000000e+00	 1.003357039999999e+01
0	 4.687499999999998e+00	 7.500000000000000e+00	 1.005817192307693e+01
0	 4.687499999999998e+00	 7.562499999999999e+00	 1.005595815384614e+01
0	 4.687499999999997e+00	 7.624999999999999e+00	 1.005370400000001e+01
0	 4.687500000000000e+00	 7.687500000000000e+00	 1.005140946153846e+01
0	 4.687499999999998e+00	 7.749999999999996e+00	 1.004907453846153e+01
0	 4.687499999999999e+00	 7.812499999999999e+00	 1.004669923076923e+01
0	 4.687500000000000e+00	 7.875000000000000e+00	 1.004428353846154e+01
0	 4.687499999999999e+00	 7.937499999999999e+00	 1.004182746153845e+01
0	 4.687499999999999e+00	 7.999999999999998e+00	 1.003933100000000e+01
0	 4.687500000000000e+00	 8.062500000000000e+00	 1.003679415384616e+01
0	 4.687499999999998e+00	 8.125000000000000e+00	 1.003421692307692e+01
0	 4.749999999999999e+00	 7.499999999999999e+00	 1.005903033846154e+01
0	 4.749999999999998e+00	 7.562500000000000e+00	 1.005678601846151e+01
0	 4.749999999999998e+00	 7.624999999999998e+00	 1.005450123076923e+01
0	 4.749999999999998e+00	 7.687499999999998e+00	 1.005217597538462e+01
0	 4.750000000000000e+00	 7.750000000000001e+00	 1.004981025230769e+01
0	 4.750000000000000e+00	 7.812500000000000e+00	 1.004740406153846e+01
0	 4.749999999999999e+00	 7.874999999999998e+00	 1.004495740307692e+01
0	 4.749999999999999e+00	 7.937499999999999e+00	 1.004247027692308e+01
0	 4.749999999999998e+00	 8.000000000000000e+00	 1.003994268307694e+01
0	 4.749999999999999e+00	 8.062499999999998e+00	 1.003737462153846e+01
0	 4.749999999999999e+00	 8.125000000000000e+00	 1.003476609230770e+01
0	 4.812499999999998e+00	 7.499999999999998e+00	 1.005974035384618e+01
0	 4.812499999999999e+00	 7.562500000000000e+00	 1.005747058769233e+01
0	 4.812499999999999e+00	 7.624999999999999e+00	 1.005516027076925e+01
0	 4.812499999999998e+00	 7.687500000000000e+00	 1.005280940307692e+01
0	 4.812499999999999e+00	 7.749999999999998e+00	 1.005041798461539e+01
0	 4.812499999999999e+00	 7.812500000000000e+00	 1.004798601538462e+01
0	 4.812499999999999e+00	 7.874999999999999e+00	 1.004551349538462e+01
0	 4.812499999999998e+00	 7.937500000000000e+00	 1.004300042461539e+01
0	 4.812499999999998e+00	 7.999999999999998e+00	 1.004044680307691e+01
0	 4.812499999999999e+00	 8.062500000000000e+00	 1.003785263076923e+01
0	 4.812499999999998e+00	 8.125000000000000e+00	 1.003521790769229e+01
0	 4.874999999999999e+00	 7.500000000000000e+00	 1.006030196923077e+01
0	 4.874999999999999e+00	 7.562500000000001e+00	 1.005801186153846e+01
0	 4.874999999999998e+00	 7.625000000000000e+00	 1.005568112000001e+01
0	 4.874999999999999e+00	 7.687500000000001e+00	 1.005330974461540e+01
0	 4.874999999999998e+00	 7.749999999999999e+00	 1.005089773538462e+01
0	 4.874999999999998e+00	 7.812499999999998e+00	 1.004844509230769e+01
0	 4.874999999999998e+00	 7.875000000000000e+00	 1.004595181538460e+01
0	 4.874999999999998e+00	 7.937499999999998e+00	 1.004341790461539e+01
0	 4.874999999999999e+00	 7.999999999999998e+00	 1.004084335999999e+01
0	 4.874999999999999e+00	 8.062500000000000e+00	 1.003822818153845e+01
0	 4.874999999999999e+00	 8.125000000000000e+00	 1.003557236923075e+01
0	 4.937499999999998e+00	 7.500000000000000e+00	 1.006071518461541e+01
0	 4.937499999999998e+00	 7.562500000000001e+00	 1.005840984000000e+01
0	 4.937499999999998e+00	 7.624999999999999e+00	 1.005606377846153e+01
0	 4.937499999999997e+00	 7.687499999999999e+00	 1.005367700000002e+01
0	 4.937499999999998e+00	 7.750000000000000e+00	 1.005124950461538e+01
0	 4.937499999999998e+00	 7.812499999999999e+00	 1.004878129230768e+01
0	 4.937499999999998e+00	 7.874999999999998e+00	 1.004627236307692e+01
0	 4.937499999999998e+00	 7.937499999999998e+00	 1.004372271692307e+01
0	 4.937499999999998e+00	 7.999999999999998e+00	 1.004113235384614e+01
0	 4.937499999999998e+00	 8.062499999999998e+00	 1.003850127384616e+01
0	 4.937499999999998e+00	 8.125000000000000e+00	 1.003582947692308e+01
0	 5.000000000000000e+00	 7.500000000000000e+00	 1.006098000000001e+01
0	 4.999999999999999e+00	 7.562500000000000e+00	 1.005866452307694e+01
0	 5.000000000000001e+00	 7.625000000000000e+00	 1.005630824615386e+01
0	 4.999999999999999e+00	 7.687499999999999e+00	 1.005391116923077e+01
0	 5.000000000000000e+00	 7.750000000000000e+00	 1.005147329230772e+01
0	 4.999999999999999e+00	 7.812499999999999e+00	 1.004899461538462e+01
0	 5.000000000000000e+00	 7.874999999999998e+00	 1.004647513846154e+01
0	 4.999999999999999e+00	 7.937499999999997e+00	 1.004391486153846e+01
0	 5.000000000000000e+00	 7.999999999999998e+00	 1.004131378461539e+01
0	 5.000000000000000e+00	 8.062499999999996e+00	 1.003867190769229e+01
0	 5.000000000000000e+00	 8.125000000000000e+00	 1.003598923076922e+01
0	 4.375000000000000e+00	 8.125000000000000e+00	 1.003001076923076e+01
0	 4.375000000000000e+00	 8.187500000000000e+00	 1.002860493846154e+01
0	 4.375000000000001e+00	 8.250000000000002e+00	 1.002715359999997e+01
0	 4.375000000000000e+00	 8.312500000000000e+00	 1.002565675384614e+01
0	 4.375000000000000e+00	 8.374999999999998e+00	 1.002411439999999e+01
0	 4.375000000000000e+00	 8.437500000000000e+00	 1.002252653846153e+01
0	 4.375000000000000e+00	 8.500000000000000e+00	 1.002089316923076e+01
0	 4.375000000000000e+00	 8.562499999999998e+00	 1.001921429230769e+01
0	 4.375000000000000e+00	 8.625000000000000e+00	 1.001748990769230e+01
0	 4.375000000000000e+00	 8.687499999999998e+00	 1.001572001538459e+01
0	 4.375000000000000e+00	 8.750000000000000e+00	 1.001390461538461e+01
0	 4.437499999999999e+00	 8.125000000000000e+00	 1.003104670769229e+01
0	 4.437500000000000e+00	 8.187500000000002e+00	 1.002959761538462e+01
0	 4.437499999999999e+00	 8.250000000000000e+00	 1.002810211076923e+01
0	 4.437499999999999e+00	 8.312499999999998e+00	 1.002656019384614e+01
0	 4.437500000000000e+00	 8.374999999999998e+00	 1.002497186461537e+01
0	 4.437500000000000e+00	 8.437500000000000e+00	 1.002333712307691e+01
0	 4.437500000000000e+00	 8.500000000000002e+00	 1.002165596923077e+01
0	 4.437500000000000e+00	 8.562500000000000e+00	 1.001992840307692e+01
0	 4.437500000000002e+00	 8.625000000000002e+00	 1.001815442461538e+01
0	 4.437499999999998e+00	 8.687499999999996e+00	 1.001633403384614e+01
0	 4.437499999999999e+00	 8.750000000000002e+00	 1.001446723076924e+01
0	 4.500000000000000e+00	 8.125000000000000e+00	 1.003198529230769e+01
0	 4.499999999999999e+00	 8.187499999999998e+00	 1.003049642769231e+01
0	 4.500000000000001e+00	 8.250000000000000e+00	 1.002896024615384e+01
0	 4.499999999999999e+00	 8.312500000000000e+00	 1.002737674769229e+01
0	 4.499999999999998e+00	 8.374999999999998e+00	 1.002574593230768e+01
0	 4.500000000000000e+00	 8.437499999999998e+00	 1.002406779999998e+01
0	 4.499999999999999e+00	 8.499999999999996e+00	 1.002234235076923e+01
0	 4.500000000000001e+00	 8.562500000000002e+00	 1.002056958461537e+01
0	 4.500000000000000e+00	 8.624999999999998e+00	 1.001874950153847e+01
0	 4.500000000000000e+00	 8.687499999999998e+00	 1.001688210153848e+01
0	 4.500000000000000e+00	 8.750000000000000e+00	 1.001496738461535e+01
0	 4.562499999999998e+00	 8.125000000000000e+00	 1.003282652307690e+01
0	 4.562499999999999e+00	 8.187500000000000e+00	 1.003130137538461e+01
0	 4.562499999999999e+00	 8.250000000000002e+00	 1.002972800615386e+01
0	 4.562499999999999e+00	 8.312499999999998e+00	 1.002810641538462e+01
0	 4.562499999999999e+00	 8.374999999999998e+00	 1.002643660307692e+01
0	 4.562500000000000e+00	 8.437500000000000e+00	 1.002471856923075e+01
0	 4.562499999999999e+00	 8.499999999999998e+00	 1.002295231384615e+01
0	 4.562500000000000e+00	 8.562500000000000e+00	 1.002113783692307e+01
0	 4.562500000000000e+00	 8.625000000000000e+00	 1.001927513846152e+01
0	 4.562499999999999e+00	 8.687499999999996e+00	 1.001736421846152e+01
0	 4.562499999999998e+00	 8.750000000000000e+00	 1.001540507692309e+01
0	 4.625000000000000e+00	 8.125000000000000e+00	 1.003357039999999e+01
0	 4.625000000000000e+00	 8.187499999999998e+00	 1.003201245846153e+01
0	 4.624999999999999e+00	 8.250000000000002e+00	 1.003040539076923e+01
0	 4.625000000000000e+00	 8.312500000000000e+00	 1.002874919692308e+01
0	 4.625000000000000e+00	 8.374999999999998e+00	 1.002704387692306e+01
0	 4.624999999999999e+00	 8.437500000000000e+00	 1.002528943076922e+01
0	 4.624999999999999e+00	 8.499999999999998e+00	 1.002348585846152e+01
0	 4.624999999999999e+00	 8.562499999999998e+00	 1.002163316000000e+01
0	 4.625000000000000e+00	 8.624999999999998e+00	 1.001973133538461e+01
0	 4.624999999999999e+00	 8.687499999999996e+00	 1.001778038461537e+01
0	 4.625000000000000e+00	 8.749999999999998e+00	 1.001578030769229e+01
0	 4.687499999999998e+00	 8.125000000000000e+00	 1.003421692307692e+01
0	 4.687499999999998e+00	 8.187499999999998e+00	 1.003262967692306e+01
0	 4.687499999999997e+00	 8.249999999999998e+00	 1.003099240000001e+01
0	 4.687500000000000e+00	 8.312500000000000e+00	 1.002930509230768e+01
0	 4.687499999999998e+00	 8.374999999999998e+00	 1.002756775384615e+01
0	 4.687499999999999e+00	 8.437499999999998e+00	 1.002578038461538e+01
0	 4.687500000000000e+00	 8.500000000000002e+00	 1.002394298461538e+01
0	 4.687499999999999e+00	 8.562499999999998e+00	 1.002205555384615e+01
0	 4.687499999999999e+00	 8.624999999999998e+00	 1.002011809230772e+01
0	 4.687500000000000e+00	 8.687500000000000e+00	 1.001813059999997e+01
0	 4.687499999999998e+00	 8.750000000000000e+00	 1.001609307692309e+01
0	 4.749999999999999e+00	 8.125000000000000e+00	 1.003476609230770e+01
0	 4.749999999999998e+00	 8.187500000000000e+00	 1.003315303076923e+01
0	 4.749999999999998e+00	 8.249999999999998e+00	 1.003148903384614e+01
0	 4.749999999999998e+00	 8.312500000000000e+00	 1.002977410153845e+01
0	 4.750000000000000e+00	 8.375000000000002e+00	 1.002800823384614e+01
0	 4.750000000000000e+00	 8.437500000000002e+00	 1.002619143076923e+01
0	 4.749999999999999e+00	 8.499999999999998e+00	 1.002432369230768e+01
0	 4.749999999999999e+00	 8.562500000000000e+00	 1.002240501846154e+01
0	 4.749999999999998e+00	 8.624999999999998e+00	 1.002043540923075e+01
0	 4.749999999999999e+00	 8.687499999999998e+00	 1.001841486461538e+01
0	 4.749999999999999e+00	 8.750000000000000e+00	 1.001634338461537e+01
0	 4.812499999999998e+00	 8.125000000000000e+00	 1.003521790769229e+01
0	 4.812499999999999e+00	 8.187500000000000e+00	 1.003358251999999e+01
0	 4.812499999999999e+00	 8.250000000000000e+00	 1.003189529230767e+01
0	 4.812499999999998e+00	 8.312500000000000e+00	 1.003015622461538e+01
0	 4.812499999999999e+00	 8.374999999999998e+00	 1.002836531692307e+01
0	 4.812499999999999e+00	 8.437500000000000e+00	 1.002652256923075e+01
0	 4.812499999999999e+00	 8.500000000000000e+00	 1.002462798153846e+01
0	 4.812499999999998e+00	 8.562499999999998e+00	 1.002268155384616e+01
0	 4.812499999999998e+00	 8.624999999999998e+00	 1.002068328615382e+01
0	 4.812499999999999e+00	 8.687500000000000e+00	 1.001863317846154e+01
0	 4.812499999999998e+00	 8.750000000000000e+00	 1.001653123076925e+01
0	 4.874999999999999e+00	 8.125000000000000e+00	 1.003557236923075e+01
0	 4.874999999999999e+00	 8.187500000000002e+00	 1.003391814461537e+01
0	 4.874999999999998e+00	 8.250000000000000e+00	 1.003221117538462e+01
0	 4.874999999999999e+00	 8.312500000000000e+00	 1.003045146153845e+01
0	 4.874999999999998e+00	 8.375000000000002e+00	 1.002863900307692e+01
0	 4.874999999999998e+00	 8.437500000000000e+00	 1.002677379999998e+01
0	 4.874999999999998e+00	 8.500000000000000e+00	 1.002485585230768e+01
0	 4.874999999999998e+00	 8.562499999999996e+00	 1.002288516000002e+01
0	 4.874999999999999e+00	 8.624999999999998e+00	 1.002086172307691e+01
0	 4.874999999999999e+00	 8.687499999999998e+00	 1.001878554153848e+01
0	 4.874999999999999e+00	 8.750000000000002e+00	 1.001665661538462e+01
0	 4.937499999999998e+00	 8.125000000000000e+00	 1.003582947692308e+01
0	 4.937499999999998e+00	 8.187500000000000e+00	 1.003415990461541e+01
0	 4.937499999999998e+00	 8.250000000000002e+00	 1.003243668307692e+01
0	 4.937499999999997e+00	 8.312499999999998e+00	 1.003065981230769e+01
0	 4.937499999999998e+00	 8.374999999999998e+00	 1.002882929230769e+01
0	 4.937499999999998e+00	 8.437499999999998e+00	 1.002694512307692e+01
0	 4.937499999999998e+00	 8.499999999999998e+00	 1.002500730461537e+01
0	 4.937499999999998e+00	 8.562499999999998e+00	 1.002301583692308e+01
0	 4.937499999999998e+00	 8.624999999999998e+00	 1.002097072000001e+01
0	 4.937499999999998e+00	 8.687499999999998e+00	 1.001887195384615e+01
0	 4.937499999999998e+00	 8.750000000000000e+00	 1.001671953846155e+01
0	 5.000000000000000e+00	 8.125000000000000e+00	 1.003598923076922e+01
0	 4.999999999999999e+00	 8.187500000000000e+00	 1.003430780000000e+01
0	 5.000000000000001e+00	 8.250000000000002e+00	 1.003257181538459e+01
0	 4.999999999999999e+00	 8.312500000000000e+00	 1.003078127692308e+01
0	 5.000000000000000e+00	 8.374999999999998e+00	 1.002893618461537e+01
0	 4.999999999999999e+00	 8.437500000000000e+00	 1.002703653846151e+01
0	 5.000000000000000e+00	 8.500000000000000e+00	 1.002508233846154e+01
0	 4.999999999999999e+00	 8.562499999999998e+00	 1.002307358461538e+01
0	 5.000000000000000e+00	 8.625000000000000e+00	 1.002101027692307e+01
0	 5.000000000000000e+00	 8.687499999999998e+00	 1.001889241538461e+01
0	 5.000000000000000e+00	 8.750000000000000e+00	 1.001672000000000e+01
0	 4.375000000000000e+00	 8.750000000000000e+00	 1.001390461538461e+01
0	 4.375000000000000e+00	 8.812500000000000e+00	 1.001306470769232e+01
0	 4.375000000000001e+00	 8.875000000000002e+00	 1.001216221538463e+01
0	 4.375000000000000e+00	 8.937499999999998e+00	 1.001119713846153e+01
0	 4.375000000000000e+00	 9.000000000000000e+00	 1.001016947692309e+01
0	 4.375000000000000e+00	 9.062500000000000e+00	 1.000907923076924e+01
0	 4.375000000000000e+00	 9.124999999999998e+00	 1.000792640000001e+01
0	 4.375000000000000e+00	 9.187499999999998e+00	 1.000671098461539e+01
0	 4.375000000000000e+00	 9.249999999999998e+00	 1.000543298461540e+01
0	 4.375000000000000e+00	 9.312499999999998e+00	 1.000409240000002e+01
0	 4.375000000000000e+00	 9.375000000000000e+00	 1.000268923076924e+01
0	 4.437499999999999e+00	 8.750000000000002e+00	 1.001446723076924e+01
0	 4.437500000000000e+00	 8.812499999999998e+00	 1.001360311692309e+01
0	 4.437499999999999e+00	 8.875000000000000e+00	 1.001267487692307e+01
0	 4.437499999999999e+00	 8.937500000000000e+00	 1.001168251076922e+01
0	 4.437500000000000e+00	 9.000000000000000e+00	 1.001062601846154e+01
0	 4.437500000000000e+00	 9.062500000000000e+00	 1.000950539999999e+01
0	 4.437500000000000e+00	 9.125000000000000e+00	 1.000832065538462e+01
0	 4.437500000000000e+00	 9.187499999999998e+00	 1.000707178461541e+01
0	 4.437500000000002e+00	 9.250000000000000e+00	 1.000575878769232e+01
0	 4.437499999999998e+00	 9.312499999999996e+00	 1.000438166461537e+01
0	 4.437499999999999e+00	 9.375000000000000e+00	 1.000294041538463e+01
0	 4.500000000000000e+00	 8.750000000000000e+00	 1.001496738461535e+01
0	 4.499999999999999e+00	 8.812500000000000e+00	 1.001408080923077e+01
0	 4.500000000000001e+00	 8.875000000000004e+00	 1.001312856615383e+01
0	 4.499999999999999e+00	 8.937500000000000e+00	 1.001211065538461e+01
0	 4.499999999999998e+00	 8.999999999999998e+00	 1.001102707692308e+01
0	 4.500000000000000e+00	 9.062500000000000e+00	 1.000987783076923e+01
0	 4.499999999999999e+00	 9.124999999999998e+00	 1.000866291692307e+01
0	 4.500000000000001e+00	 9.187500000000002e+00	 1.000738233538462e+01
0	 4.500000000000000e+00	 9.249999999999996e+00	 1.000603608615386e+01
0	 4.500000000000000e+00	 9.312499999999998e+00	 1.000462416923077e+01
0	 4.500000000000000e+00	 9.375000000000000e+00	 1.000314658461540e+01
0	 4.562499999999998e+00	 8.750000000000000e+00	 1.001540507692309e+01
0	 4.562499999999999e+00	 8.812500000000000e+00	 1.001449778461539e+01
0	 4.562499999999999e+00	 8.875000000000002e+00	 1.001352328307692e+01
0	 4.562499999999999e+00	 8.937500000000000e+00	 1.001248157230770e+01
0	 4.562499999999999e+00	 9.000000000000000e+00	 1.001137265230770e+01
0	 4.562500000000000e+00	 9.062499999999998e+00	 1.001019652307694e+01
0	 4.562499999999999e+00	 9.124999999999998e+00	 1.000895318461539e+01
0	 4.562500000000000e+00	 9.187500000000002e+00	 1.000764263692310e+01
0	 4.562500000000000e+00	 9.249999999999998e+00	 1.000626488000000e+01
0	 4.562499999999999e+00	 9.312499999999998e+00	 1.000481991384617e+01
0	 4.562499999999998e+00	 9.375000000000002e+00	 1.000330773846155e+01
0	 4.625000000000000e+00	 8.749999999999998e+00	 1.001578030769229e+01
0	 4.625000000000000e+00	 8.812500000000000e+00	 1.001485404307692e+01
0	 4.624999999999999e+00	 8.875000000000002e+00	 1.001385902769230e+01
0	 4.625000000000000e+00	 8.937500000000000e+00	 1.001279526153845e+01
0	 4.625000000000000e+00	 8.999999999999998e+00	 1.001166274461539e+01
0	 4.624999999999999e+00	 9.062500000000000e+00	 1.001046147692308e+01
0	 4.624999999999999e+00	 9.124999999999998e+00	 1.000919145846154e+01
0	 4.624999999999999e+00	 9.187500000000000e+00	 1.000785268923076e+01
0	 4.625000000000000e+00	 9.249999999999998e+00	 1.000644516923079e+01
0	 4.624999999999999e+00	 9.312500000000000e+00	 1.000496889846156e+01
0	 4.625000000000000e+00	 9.375000000000002e+00	 1.000342387692311e+01
0	 4.687499999999998e+00	 8.750000000000000e+00	 1.001609307692309e+01
0	 4.687499999999998e+00	 8.812500000000000e+00	 1.001514958461540e+01
0	 4.687499999999997e+00	 8.875000000000000e+00	 1.001413579999998e+01
0	 4.687500000000000e+00	 8.937500000000000e+00	 1.001305172307694e+01
0	 4.687499999999998e+00	 8.999999999999998e+00	 1.001189735384615e+01
0	 4.687499999999999e+00	 9.062500000000000e+00	 1.001067269230770e+01
0	 4.687500000000000e+00	 9.125000000000002e+00	 1.000937773846154e+01
0	 4.687499999999999e+00	 9.187499999999998e+00	 1.000801249230768e+01
0	 4.687499999999999e+00	 9.249999999999998e+00	 1.000657695384617e+01
0	 4.687500000000000e+00	 9.312500000000000e+00	 1.000507112307692e+01
0	 4.687499999999998e+00	 9.375000000000002e+00	 1.000349500000001e+01
0	 4.749999999999999e+00	 8.750000000000000e+00	 1.001634338461537e+01
0	 4.749999999999998e+00	 8.812500000000000e+00	 1.001538440923076e+01
0	 4.749999999999998e+00	 8.874999999999996e+00	 1.001435359999999e+01
0	 4.749999999999998e+00	 8.937499999999998e+00	 1.001325095692306e+01
0	 4.750000000000000e+00	 9.000000000000004e+00	 1.001207648000000e+01
0	 4.750000000000000e+00	 9.062500000000002e+00	 1.001083016923078e+01
0	 4.749999999999999e+00	 9.124999999999998e+00	 1.000951202461538e+01
0	 4.749999999999999e+00	 9.187500000000000e+00	 1.000812204615385e+01
0	 4.749999999999998e+00	 9.249999999999998e+00	 1.000666023384618e+01
0	 4.749999999999999e+00	 9.312499999999998e+00	 1.000512658769232e+01
0	 4.749999999999999e+00	 9.375000000000000e+00	 1.000352110769233e+01
0	 4.812499999999998e+00	 8.750000000000000e+00	 1.001653123076925e+01
0	 4.812499999999999e+00	 8.812499999999998e+00	 1.001555851692307e+01
0	 4.812499999999999e+00	 8.875000000000002e+00	 1.001451242769232e+01
0	 4.812499999999998e+00	 8.937500000000002e+00	 1.001339296307693e+01
0	 4.812499999999999e+00	 8.999999999999998e+00	 1.001220012307692e+01
0	 4.812499999999999e+00	 9.062500000000000e+00	 1.001093390769232e+01
0	 4.812499999999999e+00	 9.125000000000000e+00	 1.000959431692306e+01
0	 4.812499999999998e+00	 9.187500000000000e+00	 1.000818135076924e+01
0	 4.812499999999998e+00	 9.249999999999998e+00	 1.000669500923076e+01
0	 4.812499999999999e+00	 9.312500000000000e+00	 1.000513529230771e+01
0	 4.812499999999998e+00	 9.375000000000000e+00	 1.000350220000000e+01
0	 4.874999999999999e+00	 8.750000000000002e+00	 1.001665661538462e+01
0	 4.874999999999999e+00	 8.812500000000002e+00	 1.001567190769230e+01
0	 4.874999999999998e+00	 8.875000000000000e+00	 1.001461228307694e+01
0	 4.874999999999999e+00	 8.937500000000002e+00	 1.001347774153846e+01
0	 4.874999999999998e+00	 8.999999999999998e+00	 1.001226828307690e+01
0	 4.874999999999998e+00	 9.062499999999998e+00	 1.001098390769232e+01
0	 4.874999999999998e+00	 9.125000000000000e+00	 1.000962461538461e+01
0	 4.874999999999998e+00	 9.187499999999998e+00	 1.000819040615385e+01
0	 4.874999999999999e+00	 9.250000000000000e+00	 1.000668128000003e+01
0	 4.874999999999999e+00	 9.312499999999998e+00	 1.000509723692308e+01
0	 4.874999999999999e+00	 9.375000000000000e+00	 1.000343827692309e+01
0	 4.937499999999998e+00	 8.750000000000000e+00	 1.001671953846155e+01
0	 4.937499999999998e+00	 8.812500000000000e+00	 1.001572458153846e+01
0	 4.937499999999998e+00	 8.875000000000002e+00	 1.001465316615383e+01
0	 4.937499999999997e+00	 8.937500000000000e+00	 1.001350529230769e+01
0	 4.937499999999998e+00	 9.000000000000000e+00	 1.001228096000001e+01
0	 4.937499999999998e+00	 9.062500000000000e+00	 1.001098016923076e+01
0	 4.937499999999998e+00	 9.125000000000000e+00	 1.000960291999999e+01
0	 4.937499999999998e+00	 9.187499999999998e+00	 1.000814921230771e+01
0	 4.937499999999998e+00	 9.249999999999998e+00	 1.000661904615386e+01
0	 4.937499999999998e+00	 9.312499999999996e+00	 1.000501242153847e+01
0	 4.937499999999998e+00	 9.375000000000000e+00	 1.000332933846157e+01
0	 5.000000000000000e+00	 8.750000000000000e+00	 1.001672000000000e+01
0	 4.999999999999999e+00	 8.812500000000000e+00	 1.001571653846156e+01
0	 5.000000000000001e+00	 8.875000000000002e+00	 1.001463507692308e+01
0	 4.999999999999999e+00	 8.937499999999998e+00	 1.001347561538461e+01
0	 5.000000000000000e+00	 9.000000000000000e+00	 1.001223815384616e+01
0	 4.999999999999999e+00	 9.062500000000000e+00	 1.001092269230769e+01
0	 5.000000000000000e+00	 9.124999999999998e+00	 1.000952923076922e+01
0	 4.999999999999999e+00	 9.187499999999998e+00	 1.000805776923075e+01
0	 5.000000000000000e+00	 9.249999999999998e+00	 1.000650830769231e+01
0	 5.000000000000000e+00	 9.312499999999998e+00	 1.000488084615385e+01
0	 5.000000000000000e+00	 9.375000000000000e+00	 1.000317538461539e+01
0	 4.375000000000000e+00	 9.375000000000000e+00	 1.000268923076924e+01
0	 4.375000000000000e+00	 9.437499999999998e+00	 1.000266363076924e+01
0	 4.375000000000000e+00	 9.500000000000000e+00	 1.000253944615384e+01
0	 4.374999999999999e+00	 9.562500000000000e+00	 1.000231667692308e+01
0	 4.375000000000000e+00	 9.625000000000000e+00	 1.000199532307693e+01
0	 4.375000000000000e+00	 9.687499999999998e+00	 1.000157538461538e+01
0	 4.375000000000000e+00	 9.749999999999998e+00	 1.000105686153846e+01
0	 4.375000000000000e+00	 9.812500000000000e+00	 1.000043975384616e+01
0	 4.375000000000001e+00	 9.875000000000000e+00	 9.999724061538458e+00
0	 4.375000000000000e+00	 9.937499999999998e+00	 9.998909784615437e+00
0	 4.375000000000000e+00	 1.000000000000000e+01	 9.997996923076935e+00
0	 4.437499999999999e+00	 9.375000000000000e+00	 1.000294041538463e+01
0	 4.437500000000001e+00	 9.437500000000002e+00	 1.000292006769231e+01
0	 4.437499999999997e+00	 9.500000000000000e+00	 1.000279909538462e+01
0	 4.437500000000000e+00	 9.562500000000000e+00	 1.000257749846156e+01
0	 4.437500000000000e+00	 9.625000000000000e+00	 1.000225527692311e+01
0	 4.437500000000001e+00	 9.687500000000000e+00	 1.000183243076923e+01
0	 4.437500000000001e+00	 9.749999999999998e+00	 1.000130896000003e+01
0	 4.437499999999999e+00	 9.812499999999998e+00	 1.000068486461538e+01
0	 4.437500000000000e+00	 9.874999999999998e+00	 9.999960144615402e+00
0	 4.437499999999999e+00	 9.937499999999996e+00	 9.999134800000030e+00
0	 4.437500000000000e+00	 1.000000000000000e+01	 9.998208830769213e+00
0	 4.500000000000000e+00	 9.375000000000000e+00	 1.000314658461540e+01
0	 4.499999999999997e+00	 9.437499999999998e+00	 1.000313043384616e+01
0	 4.500000000000001e+00	 9.500000000000000e+00	 1.000301161846154e+01
0	 4.499999999999999e+00	 9.562500000000000e+00	 1.000279013846157e+01
0	 4.499999999999999e+00	 9.625000000000002e+00	 1.000246599384616e+01
0	 4.500000000000001e+00	 9.687500000000002e+00	 1.000203918461539e+01
0	 4.500000000000000e+00	 9.750000000000000e+00	 1.000150971076923e+01
0	 4.500000000000000e+00	 9.812500000000002e+00	 1.000087757230771e+01
0	 4.499999999999999e+00	 9.874999999999996e+00	 1.000014276923075e+01
0	 4.500000000000001e+00	 9.937500000000000e+00	 9.999305301538476e+00
0	 4.500000000000000e+00	 1.000000000000000e+01	 9.998365169230748e+00
0	 4.562499999999998e+00	 9.375000000000002e+00	 1.000330773846155e+01
0	 4.562499999999999e+00	 9.437500000000000e+00	 1.000329472923078e+01
0	 4.562499999999997e+00	 9.499999999999996e+00	 1.000317701538462e+01
0	 4.562499999999999e+00	 9.562500000000000e+00	 1.000295459692311e+01
0	 4.562500000000000e+00	 9.624999999999998e+00	 1.000262747384617e+01
0	 4.562499999999999e+00	 9.687500000000000e+00	 1.000219564615389e+01
0	 4.562499999999999e+00	 9.749999999999996e+00	 1.000165911384616e+01
0	 4.562499999999999e+00	 9.812499999999996e+00	 1.000101787692306e+01
0	 4.562499999999999e+00	 9.875000000000000e+00	 1.000027193538459e+01
0	 4.562499999999999e+00	 9.937499999999998e+00	 9.999421289230778e+00
0	 4.562499999999999e+00	 1.000000000000000e+01	 9.998465938461502e+00
0	 4.625000000000000e+00	 9.375000000000002e+00	 1.000342387692311e+01
0	 4.624999999999998e+00	 9.437500000000000e+00	 1.000341295384615e+01
0	 4.624999999999999e+00	 9.500000000000004e+00	 1.000329528615386e+01
0	 4.624999999999999e+00	 9.562500000000000e+00	 1.000307087384617e+01
0	 4.624999999999999e+00	 9.624999999999998e+00	 1.000273971692307e+01
0	 4.624999999999999e+00	 9.687499999999998e+00	 1.000230181538463e+01
0	 4.624999999999998e+00	 9.750000000000000e+00	 1.000175716923080e+01
0	 4.624999999999998e+00	 9.812499999999996e+00	 1.000110577846156e+01
0	 4.624999999999999e+00	 9.874999999999998e+00	 1.000034764307691e+01
0	 4.624999999999999e+00	 9.937499999999996e+00	 9.999482763076951e+00
0	 4.625000000000000e+00	 1.000000000000000e+01	 9.998511138461524e+00
0	 4.687499999999998e+00	 9.375000000000002e+00	 1.000349500000001e+01
0	 4.687499999999999e+00	 9.437499999999998e+00	 1.000348510769233e+01
0	 4.687499999999999e+00	 9.499999999999998e+00	 1.000336643076922e+01
0	 4.687499999999999e+00	 9.562500000000000e+00	 1.000313896923078e+01
0	 4.687499999999998e+00	 9.624999999999998e+00	 1.000280272307692e+01
0	 4.687499999999998e+00	 9.687500000000000e+00	 1.000235769230771e+01
0	 4.687499999999999e+00	 9.750000000000000e+00	 1.000180387692310e+01
0	 4.687499999999999e+00	 9.812499999999998e+00	 1.000114127692308e+01
0	 4.687499999999998e+00	 9.874999999999998e+00	 1.000036989230771e+01
0	 4.687499999999999e+00	 9.937499999999998e+00	 9.999489723076955e+00
0	 4.687499999999999e+00	 1.000000000000000e+01	 9.998500769230752e+00
0	 4.749999999999999e+00	 9.375000000000000e+00	 1.000352110769233e+01
0	 4.749999999999998e+00	 9.437499999999998e+00	 1.000351119076924e+01
0	 4.750000000000000e+00	 9.500000000000000e+00	 1.000339044923077e+01
0	 4.749999999999999e+00	 9.562500000000000e+00	 1.000315888307693e+01
0	 4.749999999999999e+00	 9.625000000000000e+00	 1.000281649230769e+01
0	 4.749999999999999e+00	 9.687499999999998e+00	 1.000236327692309e+01
0	 4.749999999999999e+00	 9.749999999999998e+00	 1.000179923692306e+01
0	 4.749999999999997e+00	 9.812499999999996e+00	 1.000112437230772e+01
0	 4.749999999999998e+00	 9.874999999999998e+00	 1.000033868307690e+01
0	 4.749999999999999e+00	 9.937499999999998e+00	 9.999442169230797e+00
0	 4.749999999999998e+00	 9.999999999999998e+00	 9.998434830769288e+00
0	 4.812499999999998e+00	 9.375000000000000e+00	 1.000350220000000e+01
0	 4.812499999999998e+00	 9.437499999999998e+00	 1.000349120307694e+01
0	 4.812499999999998e+00	 9.499999999999998e+00	 1.000336734153849e+01
0	 4.812499999999999e+00	 9.562500000000002e+00	 1.000313061538462e+01
0	 4.812499999999998e+00	 9.624999999999998e+00	 1.000278102461539e+01
0	 4.812499999999998e+00	 9.687500000000000e+00	 1.000231856923077e+01
0	 4.812499999999999e+00	 9.750000000000000e+00	 1.000174324923074e+01
0	 4.812499999999999e+00	 9.812500000000000e+00	 1.000105506461540e+01
0	 4.812499999999998e+00	 9.874999999999998e+00	 1.000025401538460e+01
0	 4.812499999999998e+00	 9.937499999999998e+00	 9.999340101538444e+00
0	 4.812499999999999e+00	 1.000000000000000e+01	 9.998313323076973e+00
0	 4.874999999999999e+00	 9.375000000000000e+00	 1.000343827692309e+01
0	 4.874999999999998e+00	 9.437500000000002e+00	 1.000342514461541e+01
0	 4.874999999999998e+00	 9.500000000000000e+00	 1.000329710769231e+01
0	 4.874999999999998e+00	 9.562500000000002e+00	 1.000305416615386e+01
0	 4.874999999999997e+00	 9.624999999999998e+00	 1.000269631999999e+01
0	 4.874999999999998e+00	 9.687499999999998e+00	 1.000222356923078e+01
0	 4.874999999999998e+00	 9.750000000000000e+00	 1.000163591384616e+01
0	 4.874999999999998e+00	 9.812499999999998e+00	 1.000093335384614e+01
0	 4.874999999999998e+00	 9.874999999999998e+00	 1.000011588923077e+01
0	 4.874999999999998e+00	 9.937499999999998e+00	 9.999183519999958e+00
0	 4.874999999999998e+00	 1.000000000000000e+01	 9.998136246153823e+00
0	 4.937499999999998e+00	 9.375000000000000e+00	 1.000332933846157e+01
0	 4.937499999999996e+00	 9.437500000000000e+00	 1.000331301538464e+01
0	 4.937499999999998e+00	 9.499999999999998e+00	 1.000317974769231e+01
0	 4.937499999999998e+00	 9.562500000000000e+00	 1.000292953538463e+01
0	 4.937499999999998e+00	 9.624999999999998e+00	 1.000256237846156e+01
0	 4.937499999999997e+00	 9.687499999999996e+00	 1.000207827692306e+01
0	 4.937499999999998e+00	 9.749999999999998e+00	 1.000147723076923e+01
0	 4.937499999999998e+00	 9.812499999999998e+00	 1.000075924000000e+01
0	 4.937499999999997e+00	 9.874999999999996e+00	 9.999924304615414e+00
0	 4.937499999999998e+00	 9.937499999999998e+00	 9.998972424615378e+00
0	 4.937499999999998e+00	 1.000000000000000e+01	 9.997903600000022e+00
0	 5.000000000000000e+00	 9.375000000000000e+00	 1.000317538461539e+01
0	 5.000000000000000e+00	 9.437499999999998e+00	 1.000315481538463e+01
0	 5.000000000000000e+00	 9.500000000000000e+00	 1.000301526153845e+01
0	 5.000000000000000e+00	 9.562500000000000e+00	 1.000275672307692e+01
0	 5.000000000000000e+00	 9.625000000000000e+00	 1.000237920000001e+01
0	 5.000000000000000e+00	 9.687499999999998e+00	 1.000188269230768e+01
0	 5.000000000000000e+00	 9.749999999999998e+00	 1.000126720000002e+01
0	 5.000000000000000e+00	 9.812500000000000e+00	 1.000053272307695e+01
0	 5.000000000000001e+00	 9.875000000000000e+00	 9.999679261538473e+00
0	 5.000000000000000e+00	 9.937499999999998e+00	 9.998706815384642e+00
0	 5.000000000000000e+00	 1.000000000000000e+01	 9.997615384615395e+00
0	 5.000000000000000e+00	 0.000000000000000e+00	 1.028541692307692e+01
0	 5.000000000000001e+00	 6.250000000000000e-02	 1.028990324615384e+01
0	 5.000000000000000e+00	 1.250000000000000e-01	 1.029365415384615e+01
0	 4.999999999999999e+00	 1.875000000000000e-01	 1.029666964615384e+01
0	 5.000000000000000e+00	 2.500000000000000e-01	 1.029894972307692e+01
0	 5.000000000000000e+00	 3.125000000000000e-01	 1.030049438461538e+01
0	 5.000000000000000e+00	 3.750000000000000e-01	 1.030130363076923e+01
0	 5.000000000000000e+00	 4.374999999999999e-01	 1.030137746153846e+01
0	 5.000000000000000e+00	 5.000000000000000e-01	 1.030071587692307e+01
0	 5.000000000000000e+00	 5.624999999999999e-01	 1.029931887692308e+01
0	 5.000000000000000e+00	 6.250000000000000e-01	 1.029718646153846e+01
0	 5.062500000000000e+00	 0.000000000000000e+00	 1.027574434769230e+01
0	 5.062499999999999e+00	 6.249999999999999e-02	 1.028035080599999e+01
0	 5.062499999999999e+00	 1.250000000000000e-01	 1.028426982123076e+01
0	 5.062499999999999e+00	 1.875000000000000e-01	 1.028750139338461e+01
0	 5.062499999999998e+00	 2.500000000000000e-01	 1.029004552246154e+01
0	 5.062500000000001e+00	 3.125000000000001e-01	 1.029190220846153e+01
0	 5.062499999999999e+00	 3.749999999999999e-01	 1.029307145138461e+01
0	 5.062500000000000e+00	 4.374999999999999e-01	 1.029355325123076e+01
0	 5.062500000000002e+00	 5.000000000000000e-01	 1.029334760800000e+01
0	 5.062500000000000e+00	 5.625000000000000e-01	 1.029245452169231e+01
0	 5.062500000000000e+00	 6.250000000000000e-01	 1.029087399230769e+01
0	 5.125000000000000e+00	 0.000000000000000e+00	 1.026654988307692e+01
0	 5.125000000000002e+00	 6.250000000000000e-02	 1.027120756861538e+01
0	 5.124999999999999e+00	 1.250000000000000e-01	 1.027522578338461e+01
0	 5.125000000000000e+00	 1.875000000000000e-01	 1.027860452738462e+01
0	 5.125000000000001e+00	 2.500000000000001e-01	 1.028134380061538e+01
0	 5.124999999999998e+00	 3.125000000000000e-01	 1.028344360307692e+01
0	 5.125000000000001e+00	 3.749999999999999e-01	 1.028490393476923e+01
0	 5.124999999999999e+00	 4.375000000000000e-01	 1.028572479569231e+01
0	 5.124999999999999e+00	 4.999999999999999e-01	 1.028590618584616e+01
0	 5.125000000000000e+00	 5.625000000000000e-01	 1.028544810523077e+01
0	 5.124999999999999e+00	 6.249999999999999e-01	 1.028435055384615e+01
0	 5.187499999999999e+00	 0.000000000000000e+00	 1.025783352923077e+01
0	 5.187500000000000e+00	 6.250000000000000e-02	 1.026247353400000e+01
0	 5.187499999999998e+00	 1.250000000000000e-01	 1.026652204030768e+01
0	 5.187500000000000e+00	 1.875000000000001e-01	 1.026997904815384e+01
0	 5.187500000000000e+00	 2.500000000000001e-01	 1.027284455753846e+01
0	 5.187499999999999e+00	 3.125000000000000e-01	 1.027511856846154e+01
0	 5.187500000000000e+00	 3.749999999999999e-01	 1.027680108092308e+01
0	 5.187499999999999e+00	 4.374999999999999e-01	 1.027789209492308e+01
0	 5.187499999999998e+00	 4.999999999999999e-01	 1.027839161046153e+01
0	 5.187500000000000e+00	 5.625000000000001e-01	 1.027829962753846e+01
0	 5.187500000000000e+00	 6.249999999999999e-01	 1.027761614615385e+01
0	 5.249999999999999e+00	 0.000000000000000e+00	 1.024959528615385e+01
0	 5.249999999999999e+00	 6.250000000000000e-02	 1.025414870215385e+01
0	 5.249999999999998e+00	 1.250000000000000e-01	 1.025815859200000e+01
0	 5.249999999999999e+00	 1.875000000000000e-01	 1.026162495569230e+01
0	 5.249999999999998e+00	 2.500000000000000e-01	 1.026454779323076e+01
0	 5.250000000000000e+00	 3.125000000000000e-01	 1.026692710461538e+01
0	 5.249999999999999e+00	 3.750000000000000e-01	 1.026876288984615e+01
0	 5.249999999999999e+00	 4.375000000000000e-01	 1.027005514892307e+01
0	 5.250000000000000e+00	 4.999999999999999e-01	 1.027080388184615e+01
0	 5.249999999999999e+00	 5.625000000000000e-01	 1.027100908861538e+01
0	 5.249999999999998e+00	 6.250000000000001e-01	 1.027067076923077e+01
0	 5.312499999999999e+00	 0.000000000000000e+00	 1.024183515384615e+01
0	 5.312499999999998e+00	 6.249999999999998e-02	 1.024623307307692e+01
0	 5.312500000000000e+00	 1.250000000000000e-01	 1.025013543846154e+01
0	 5.312499999999999e+00	 1.875000000000000e-01	 1.025354225000000e+01
0	 5.312499999999998e+00	 2.499999999999999e-01	 1.025645350769230e+01
0	 5.312499999999999e+00	 3.125000000000000e-01	 1.025886921153846e+01
0	 5.312499999999999e+00	 3.750000000000000e-01	 1.026078936153846e+01
0	 5.312499999999999e+00	 4.375000000000000e-01	 1.026221395769231e+01
0	 5.312499999999999e+00	 4.999999999999999e-01	 1.026314299999999e+01
0	 5.312500000000000e+00	 5.625000000000001e-01	 1.026357648846153e+01
0	 5.312499999999999e+00	 6.250000000000000e-01	 1.026351442307692e+01
0	 5.374999999999998e+00	 0.000000000000000e+00	 1.023455313230769e+01
0	 5.374999999999998e+00	 6.249999999999999e-02	 1.023872664676923e+01
0	 5.374999999999998e+00	 1.250000000000000e-01	 1.024245257969230e+01
0	 5.374999999999997e+00	 1.875000000000001e-01	 1.024573093107692e+01
0	 5.375000000000000e+00	 2.500000000000001e-01	 1.024856170092308e+01
0	 5.374999999999999e+00	 3.125000000000001e-01	 1.025094488923077e+01
0	 5.374999999999997e+00	 3.749999999999999e-01	 1.025288049600000e+01
0	 5.374999999999998e+00	 4.375000000000000e-01	 1.025436852123077e+01
0	 5.374999999999998e+00	 4.999999999999998e-01	 1.025540896492307e+01
0	 5.374999999999997e+00	 5.624999999999999e-01	 1.025600182707693e+01
0	 5.374999999999998e+00	 6.250000000000001e-01	 1.025614710769231e+01
0	 5.437499999999999e+00	 0.000000000000000e+00	 1.022774922153846e+01
0	 5.437499999999999e+00	 6.250000000000000e-02	 1.023162942323077e+01
0	 5.437499999999998e+00	 1.250000000000000e-01	 1.023511001569231e+01
0	 5.437499999999999e+00	 1.875000000000000e-01	 1.023819099892308e+01
0	 5.437499999999998e+00	 2.500000000000000e-01	 1.024087237292308e+01
0	 5.437500000000000e+00	 3.125000000000001e-01	 1.024315413769231e+01
0	 5.437499999999998e+00	 3.750000000000000e-01	 1.024503629323077e+01
0	 5.437499999999998e+00	 4.375000000000000e-01	 1.024651883953846e+01
0	 5.437500000000000e+00	 4.999999999999999e-01	 1.024760177661538e+01
0	 5.437499999999999e+00	 5.625000000000000e-01	 1.024828510446154e+01
0	 5.437499999999998e+00	 6.249999999999999e-01	 1.024856882307692e+01
0	 5.499999999999998e+00	 0.000000000000000e+00	 1.022142342153846e+01
0	 5.499999999999999e+00	 6.249999999999999e-02	 1.022494140246153e+01
0	 5.499999999999999e+00	 1.250000000000000e-01	 1.022810774646153e+01
0	 5.499999999999999e+00	 1.875000000000001e-01	 1.023092245353846e+01
0	 5.499999999999997e+00	 2.500000000000000e-01	 1.023338552369230e+01
0	 5.499999999999996e+00	 3.124999999999999e-01	 1.023549695692307e+01
0	 5.499999999999999e+00	 3.749999999999999e-01	 1.023725675323077e+01
0	 5.499999999999999e+00	 4.375000000000000e-01	 1.023866491261538e+01
0	 5.499999999999998e+00	 4.999999999999999e-01	 1.023972143507692e+01
0	 5.499999999999999e+00	 5.625000000000000e-01	 1.024042632061538e+01
0	 5.499999999999998e+00	 6.250000000000000e-01	 1.024077956923077e+01
0	 5.562499999999998e+00	 0.000000000000000e+00	 1.021557573230769e+01
0	 5.562499999999999e+00	 6.250000000000000e-02	 1.021866258446153e+01
0	 5.562499999999998e+00	 1.250000000000000e-01	 1.022144577199999e+01
0	 5.562499999999999e+00	 1.875000000000000e-01	 1.022392529492307e+01
0	 5.562499999999997e+00	 2.499999999999999e-01	 1.022610115323076e+01
0	 5.562499999999998e+00	 3.125000000000000e-01	 1.022797334692307e+01
0	 5.562499999999998e+00	 3.750000000000000e-01	 1.022954187600000e+01
0	 5.562499999999998e+00	 4.375000000000000e-01	 1.023080674046154e+01
0	 5.562499999999997e+00	 4.999999999999999e-01	 1.023176794030769e+01
0	 5.562499999999997e+00	 5.625000000000000e-01	 1.023242547553846e+01
0	 5.562499999999998e+00	 6.250000000000000e-01	 1.023277934615385e+01
0	 5.625000000000000e+00	 0.000000000000000e+00	 1.021020615384615e+01
0	 5.624999999999999e+00	 6.250000000000000e-02	 1.021279296923077e+01
0	 5.625000000000000e+00	 1.250000000000000e-01	 1.021512409230769e+01
0	 5.625000000000000e+00	 1.875000000000000e-01	 1.021719952307693e+01
0	 5.624999999999999e+00	 2.500000000000000e-01	 1.021901926153846e+01
0	 5.625000000000000e+00	 3.125000000000000e-01	 1.022058330769230e+01
0	 5.625000000000000e+00	 3.750000000000000e-01	 1.022189166153846e+01
0	 5.625000000000000e+00	 4.374999999999999e-01	 1.022294432307692e+01
0	 5.625000000000001e+00	 5.000000000000000e-01	 1.022374129230769e+01
0	 5.625000000000000e+00	 5.624999999999999e-01	 1.022428256923077e+01
0	 5.625000000000000e+00	 6.250000000000000e-01	 1.022456815384615e+01
0	 5.000000000000000e+00	 6.250000000000000e-01	 1.029718646153846e+01
0	 5.000000000000000e+00	 6.875000000000000e-01	 1.030441233846154e+01
0	 5.000000000000001e+00	 7.500000000000002e-01	 1.031127332307693e+01
0	 5.000000000000002e+00	 8.125000000000002e-01	 1.031776941538461e+01
0	 5.000000000000000e+00	 8.750000000000002e-01	 1.032390061538461e+01
0	 5.000000000000001e+00	 9.375000000000002e-01	 1.032966692307692e+01
0	 5.000000000000001e+00	 1.000000000000000e+00	 1.033506833846154e+01
0	 5.000000000000000e+00	 1.062500000000000e+00	 1.034010486153846e+01
0	 5.000000000000001e+00	 1.125000000000001e+00	 1.034477649230769e+01
0	 5.000000000000000e+00	 1.187500000000000e+00	 1.034908323076923e+01
0	 5.000000000000000e+00	 1.250000000000000e+00	 1.035302507692307e+01
0	 5.062500000000000e+00	 6.250000000000000e-01	 1.029087399230769e+01
0	 5.062500000000000e+00	 6.875000000000001e-01	 1.029745873953846e+01
0	 5.062500000000000e+00	 7.500000000000001e-01	 1.030369580984615e+01
0	 5.062500000000000e+00	 8.125000000000002e-01	 1.030958520323077e+01
0	 5.062500000000001e+00	 8.750000000000003e-01	 1.031512691969231e+01
0	 5.062500000000001e+00	 9.375000000000003e-01	 1.032032095923076e+01
0	 5.062500000000000e+00	 1.000000000000000e+00	 1.032516732184615e+01
0	 5.062500000000001e+00	 1.062500000000000e+00	 1.032966600753846e+01
0	 5.062499999999999e+00	 1.125000000000000e+00	 1.033381701630769e+01
0	 5.062499999999999e+00	 1.187500000000000e+00	 1.033762034815384e+01
0	 5.062500000000000e+00	 1.250000000000000e+00	 1.034107600307692e+01
0	 5.124999999999999e+00	 6.249999999999999e-01	 1.028435055384615e+01
0	 5.125000000000001e+00	 6.875000000000001e-01	 1.029036163200000e+01
0	 5.125000000000000e+00	 7.500000000000002e-01	 1.029604224861539e+01
0	 5.124999999999999e+00	 8.125000000000001e-01	 1.030139240369230e+01
0	 5.125000000000000e+00	 8.750000000000003e-01	 1.030641209723077e+01
0	 5.125000000000000e+00	 9.375000000000003e-01	 1.031110132923077e+01
0	 5.125000000000001e+00	 1.000000000000000e+00	 1.031546009969231e+01
0	 5.124999999999999e+00	 1.062500000000000e+00	 1.031948840861538e+01
0	 5.125000000000000e+00	 1.125000000000000e+00	 1.032318625600000e+01
0	 5.125000000000000e+00	 1.187500000000001e+00	 1.032655364184615e+01
0	 5.124999999999999e+00	 1.250000000000000e+00	 1.032959056615384e+01
0	 5.187500000000000e+00	 6.249999999999999e-01	 1.027761614615385e+01
0	 5.187500000000000e+00	 6.875000000000000e-01	 1.028312101584615e+01
0	 5.187500000000001e+00	 7.500000000000000e-01	 1.028831263938461e+01
0	 5.187499999999999e+00	 8.125000000000002e-01	 1.029319101676923e+01
0	 5.187499999999999e+00	 8.750000000000002e-01	 1.029775614800000e+01
0	 5.187499999999999e+00	 9.375000000000002e-01	 1.030200803307692e+01
0	 5.187499999999999e+00	 1.000000000000000e+00	 1.030594667200000e+01
0	 5.187499999999999e+00	 1.062500000000000e+00	 1.030957206476923e+01
0	 5.187499999999999e+00	 1.125000000000000e+00	 1.031288421138462e+01
0	 5.187500000000000e+00	 1.187500000000000e+00	 1.031588311184615e+01
0	 5.187500000000000e+00	 1.250000000000000e+00	 1.031856876615385e+01
0	 5.249999999999998e+00	 6.250000000000001e-01	 1.027067076923077e+01
0	 5.249999999999999e+00	 6.875000000000000e-01	 1.027573689107692e+01
0	 5.249999999999999e+00	 7.500000000000000e-01	 1.028050698215384e+01
0	 5.249999999999998e+00	 8.125000000000001e-01	 1.028498104246154e+01
0	 5.250000000000000e+00	 8.750000000000003e-01	 1.028915907200000e+01
0	 5.249999999999997e+00	 9.375000000000000e-01	 1.029304107076923e+01
0	 5.250000000000000e+00	 1.000000000000000e+00	 1.029662703876923e+01
0	 5.250000000000000e+00	 1.062500000000000e+00	 1.029991697600000e+01
0	 5.249999999999999e+00	 1.125000000000000e+00	 1.030291088246154e+01
0	 5.250000000000000e+00	 1.187500000000000e+00	 1.030560875815385e+01
0	 5.249999999999998e+00	 1.250000000000000e+00	 1.030801060307692e+01
0	 5.312499999999999e+00	 6.250000000000000e-01	 1.026351442307692e+01
0	 5.312499999999997e+00	 6.875000000000000e-01	 1.026820925769230e+01
0	 5.312499999999999e+00	 7.500000000000001e-01	 1.027262527692308e+01
0	 5.312499999999999e+00	 8.125000000000002e-01	 1.027676248076923e+01
0	 5.312499999999999e+00	 8.750000000000003e-01	 1.028062086923076e+01
0	 5.312499999999999e+00	 9.375000000000002e-01	 1.028420044230769e+01
0	 5.312499999999999e+00	 1.000000000000000e+00	 1.028750120000000e+01
0	 5.312500000000000e+00	 1.062500000000000e+00	 1.029052314230769e+01
0	 5.312499999999999e+00	 1.125000000000000e+00	 1.029326626923077e+01
0	 5.312499999999998e+00	 1.187500000000001e+00	 1.029573058076923e+01
0	 5.312499999999999e+00	 1.250000000000000e+00	 1.029791607692307e+01
0	 5.374999999999998e+00	 6.250000000000001e-01	 1.025614710769231e+01
0	 5.374999999999996e+00	 6.874999999999999e-01	 1.026053811569231e+01
0	 5.375000000000000e+00	 7.500000000000003e-01	 1.026466752369230e+01
0	 5.374999999999998e+00	 8.125000000000000e-01	 1.026853533169231e+01
0	 5.374999999999998e+00	 8.750000000000001e-01	 1.027214153969231e+01
0	 5.374999999999998e+00	 9.375000000000003e-01	 1.027548614769230e+01
0	 5.374999999999998e+00	 1.000000000000000e+00	 1.027856915569231e+01
0	 5.374999999999998e+00	 1.062500000000000e+00	 1.028139056369231e+01
0	 5.375000000000000e+00	 1.125000000000000e+00	 1.028395037169230e+01
0	 5.374999999999997e+00	 1.187500000000000e+00	 1.028624857969230e+01
0	 5.374999999999998e+00	 1.250000000000000e+00	 1.028828518769231e+01
0	 5.437499999999998e+00	 6.249999999999999e-01	 1.024856882307692e+01
0	 5.437499999999999e+00	 6.875000000000000e-01	 1.025272346507692e+01
0	 5.437499999999998e+00	 7.500000000000002e-01	 1.025663372246153e+01
0	 5.437499999999998e+00	 8.125000000000000e-01	 1.026029959523077e+01
0	 5.437499999999999e+00	 8.750000000000002e-01	 1.026372108338461e+01
0	 5.437499999999999e+00	 9.375000000000004e-01	 1.026689818692307e+01
0	 5.437499999999999e+00	 1.000000000000000e+00	 1.026983090584615e+01
0	 5.437499999999999e+00	 1.062500000000001e+00	 1.027251924015385e+01
0	 5.437499999999999e+00	 1.125000000000000e+00	 1.027496318984615e+01
0	 5.437499999999999e+00	 1.187500000000000e+00	 1.027716275492307e+01
0	 5.437499999999998e+00	 1.250000000000000e+00	 1.027911793538461e+01
0	 5.499999999999998e+00	 6.250000000000000e-01	 1.024077956923077e+01
0	 5.499999999999999e+00	 6.875000000000000e-01	 1.024476530584615e+01
0	 5.499999999999997e+00	 7.500000000000000e-01	 1.024852387323077e+01
0	 5.499999999999997e+00	 8.125000000000001e-01	 1.025205527138462e+01
0	 5.499999999999998e+00	 8.750000000000003e-01	 1.025535950030769e+01
0	 5.499999999999998e+00	 9.375000000000002e-01	 1.025843656000000e+01
0	 5.499999999999998e+00	 1.000000000000001e+00	 1.026128645046153e+01
0	 5.499999999999999e+00	 1.062500000000000e+00	 1.026390917169230e+01
0	 5.499999999999998e+00	 1.125000000000000e+00	 1.026630472369230e+01
0	 5.499999999999998e+00	 1.187500000000000e+00	 1.026847310646154e+01
0	 5.499999999999998e+00	 1.250000000000000e+00	 1.027041431999999e+01
0	 5.562499999999998e+00	 6.250000000000000e-01	 1.023277934615385e+01
0	 5.562499999999999e+00	 6.875000000000002e-01	 1.023666363800000e+01
0	 5.562499999999998e+00	 7.500000000000001e-01	 1.024033797600000e+01
0	 5.562499999999996e+00	 8.125000000000001e-01	 1.024380236015385e+01
0	 5.562499999999998e+00	 8.750000000000002e-01	 1.024705679046154e+01
0	 5.562499999999998e+00	 9.375000000000002e-01	 1.025010126692307e+01
0	 5.562499999999998e+00	 1.000000000000000e+00	 1.025293578953846e+01
0	 5.562499999999998e+00	 1.062500000000000e+00	 1.025556035830769e+01
0	 5.562499999999996e+00	 1.125000000000000e+00	 1.025797497323077e+01
0	 5.562499999999998e+00	 1.187500000000000e+00	 1.026017963430769e+01
0	 5.562499999999998e+00	 1.250000000000000e+00	 1.026217434153845e+01
0	 5.625000000000000e+00	 6.250000000000000e-01	 1.022456815384615e+01
0	 5.624999999999999e+00	 6.875000000000000e-01	 1.022841846153846e+01
0	 5.625000000000000e+00	 7.500000000000002e-01	 1.023207603076923e+01
0	 5.625000000000000e+00	 8.125000000000002e-01	 1.023554086153846e+01
0	 5.625000000000000e+00	 8.750000000000002e-01	 1.023881295384615e+01
0	 5.625000000000000e+00	 9.375000000000002e-01	 1.024189230769230e+01
0	 5.625000000000000e+00	 1.000000000000000e+00	 1.024477892307692e+01
0	 5.625000000000000e+00	 1.062500000000000e+00	 1.024747280000000e+01
0	 5.625000000000002e+00	 1.125000000000001e+00	 1.024997393846154e+01
0	 5.625000000000000e+00	 1.187500000000000e+00	 1.025228233846154e+01
0	 5.625000000000000e+00	 1.250000000000000e+00	 1.025439799999999e+01
0	 5.000000000000000e+00	 1.250000000000000e+00	 1.035302507692307e+01
0	 5.000000000000000e+00	 1.312500000000000e+00	 1.035603400000000e+01
0	 5.000000000000001e+00	 1.375000000000000e+00	 1.035920086153846e+01
0	 5.000000000000002e+00	 1.437500000000000e+00	 1.036252566153846e+01
0	 5.000000000000000e+00	 1.500000000000000e+00	 1.036600839999999e+01
0	 5.000000000000001e+00	 1.562500000000000e+00	 1.036964907692307e+01
0	 5.000000000000001e+00	 1.625000000000000e+00	 1.037344769230769e+01
0	 5.000000000000000e+00	 1.687500000000000e+00	 1.037740424615385e+01
0	 5.000000000000001e+00	 1.750000000000001e+00	 1.038151873846154e+01
0	 5.000000000000000e+00	 1.812500000000000e+00	 1.038579116923077e+01
0	 5.000000000000000e+00	 1.875000000000000e+00	 1.039022153846154e+01
0	 5.062500000000000e+00	 1.250000000000000e+00	 1.034107600307692e+01
0	 5.062500000000000e+00	 1.312500000000000e+00	 1.034427415661538e+01
0	 5.062500000000000e+00	 1.375000000000000e+00	 1.034760955323076e+01
0	 5.062500000000000e+00	 1.437500000000000e+00	 1.035108219292307e+01
0	 5.062500000000001e+00	 1.500000000000000e+00	 1.035469207569231e+01
0	 5.062500000000001e+00	 1.562500000000000e+00	 1.035843920153846e+01
0	 5.062500000000000e+00	 1.625000000000000e+00	 1.036232357046154e+01
0	 5.062500000000001e+00	 1.687500000000000e+00	 1.036634518246153e+01
0	 5.062499999999999e+00	 1.750000000000000e+00	 1.037050403753846e+01
0	 5.062499999999999e+00	 1.812500000000000e+00	 1.037480013569231e+01
0	 5.062500000000000e+00	 1.875000000000000e+00	 1.037923347692308e+01
0	 5.124999999999999e+00	 1.250000000000000e+00	 1.032959056615384e+01
0	 5.125000000000001e+00	 1.312500000000000e+00	 1.033295372800000e+01
0	 5.125000000000000e+00	 1.375000000000000e+00	 1.033643343753846e+01
0	 5.124999999999999e+00	 1.437500000000000e+00	 1.034002969476923e+01
0	 5.125000000000000e+00	 1.500000000000000e+00	 1.034374249969231e+01
0	 5.125000000000000e+00	 1.562500000000000e+00	 1.034757185230769e+01
0	 5.125000000000001e+00	 1.625000000000000e+00	 1.035151775261539e+01
0	 5.124999999999999e+00	 1.687500000000000e+00	 1.035558020061539e+01
0	 5.125000000000000e+00	 1.750000000000001e+00	 1.035975919630769e+01
0	 5.125000000000000e+00	 1.812500000000001e+00	 1.036405473969231e+01
0	 5.124999999999999e+00	 1.875000000000000e+00	 1.036846683076922e+01
0	 5.187500000000000e+00	 1.250000000000000e+00	 1.031856876615385e+01
0	 5.187500000000000e+00	 1.312500000000000e+00	 1.032207271415385e+01
0	 5.187500000000001e+00	 1.375000000000000e+00	 1.032567251446154e+01
0	 5.187499999999999e+00	 1.437500000000000e+00	 1.032936816707692e+01
0	 5.187499999999999e+00	 1.500000000000000e+00	 1.033315967200000e+01
0	 5.187499999999999e+00	 1.562500000000000e+00	 1.033704702923077e+01
0	 5.187499999999999e+00	 1.625000000000000e+00	 1.034103023876923e+01
0	 5.187499999999999e+00	 1.687500000000000e+00	 1.034510930061539e+01
0	 5.187499999999999e+00	 1.750000000000000e+00	 1.034928421476923e+01
0	 5.187500000000000e+00	 1.812500000000000e+00	 1.035355498123076e+01
0	 5.187500000000000e+00	 1.875000000000000e+00	 1.035792160000001e+01
0	 5.249999999999998e+00	 1.250000000000000e+00	 1.030801060307692e+01
0	 5.249999999999999e+00	 1.312500000000000e+00	 1.031163111507692e+01
0	 5.249999999999999e+00	 1.375000000000000e+00	 1.031532678399999e+01
0	 5.249999999999998e+00	 1.437500000000000e+00	 1.031909760984615e+01
0	 5.250000000000000e+00	 1.500000000000000e+00	 1.032294359261539e+01
0	 5.249999999999997e+00	 1.562500000000000e+00	 1.032686473230769e+01
0	 5.250000000000000e+00	 1.625000000000001e+00	 1.033086102892308e+01
0	 5.250000000000000e+00	 1.687500000000000e+00	 1.033493248246153e+01
0	 5.249999999999999e+00	 1.750000000000001e+00	 1.033907909292308e+01
0	 5.250000000000000e+00	 1.812500000000000e+00	 1.034330086030769e+01
0	 5.249999999999998e+00	 1.875000000000000e+00	 1.034759778461538e+01
0	 5.312499999999999e+00	 1.250000000000000e+00	 1.029791607692307e+01
0	 5.312499999999997e+00	 1.312500000000000e+00	 1.030162893076922e+01
0	 5.312499999999999e+00	 1.375000000000000e+00	 1.030539624615385e+01
0	 5.312499999999999e+00	 1.437500000000000e+00	 1.030921802307692e+01
0	 5.312499999999999e+00	 1.500000000000000e+00	 1.031309426153846e+01
0	 5.312499999999999e+00	 1.562500000000000e+00	 1.031702496153846e+01
0	 5.312499999999999e+00	 1.625000000000000e+00	 1.032101012307692e+01
0	 5.312500000000000e+00	 1.687500000000000e+00	 1.032504974615384e+01
0	 5.312499999999999e+00	 1.750000000000000e+00	 1.032914383076923e+01
0	 5.312499999999998e+00	 1.812500000000000e+00	 1.033329237692307e+01
0	 5.312499999999999e+00	 1.875000000000000e+00	 1.033749538461539e+01
0	 5.374999999999998e+00	 1.250000000000000e+00	 1.028828518769231e+01
0	 5.374999999999996e+00	 1.312500000000000e+00	 1.029206616123077e+01
0	 5.375000000000000e+00	 1.375000000000000e+00	 1.029588090092307e+01
0	 5.374999999999998e+00	 1.437500000000000e+00	 1.029972940676923e+01
0	 5.374999999999998e+00	 1.500000000000000e+00	 1.030361167876923e+01
0	 5.374999999999998e+00	 1.562500000000000e+00	 1.030752771692307e+01
0	 5.374999999999998e+00	 1.625000000000000e+00	 1.031147752123077e+01
0	 5.374999999999998e+00	 1.687500000000000e+00	 1.031546109169231e+01
0	 5.375000000000000e+00	 1.750000000000000e+00	 1.031947842830769e+01
0	 5.374999999999997e+00	 1.812500000000000e+00	 1.032352953107692e+01
0	 5.374999999999998e+00	 1.875000000000000e+00	 1.032761440000000e+01
0	 5.437499999999998e+00	 1.250000000000000e+00	 1.027911793538461e+01
0	 5.437499999999999e+00	 1.312500000000000e+00	 1.028294280646153e+01
0	 5.437499999999998e+00	 1.375000000000000e+00	 1.028678074830769e+01
0	 5.437499999999998e+00	 1.437500000000000e+00	 1.029063176092307e+01
0	 5.437499999999999e+00	 1.500000000000001e+00	 1.029449584430769e+01
0	 5.437499999999999e+00	 1.562500000000000e+00	 1.029837299846154e+01
0	 5.437499999999999e+00	 1.625000000000000e+00	 1.030226322338462e+01
0	 5.437499999999999e+00	 1.687500000000000e+00	 1.030616651907692e+01
0	 5.437499999999999e+00	 1.750000000000000e+00	 1.031008288553846e+01
0	 5.437499999999999e+00	 1.812500000000000e+00	 1.031401232276923e+01
0	 5.437499999999998e+00	 1.875000000000000e+00	 1.031795483076924e+01
0	 5.499999999999998e+00	 1.250000000000000e+00	 1.027041431999999e+01
0	 5.499999999999999e+00	 1.312500000000000e+00	 1.027425886646154e+01
0	 5.499999999999997e+00	 1.375000000000000e+00	 1.027809578830769e+01
0	 5.499999999999997e+00	 1.437500000000000e+00	 1.028192508553846e+01
0	 5.499999999999998e+00	 1.500000000000000e+00	 1.028574675815385e+01
0	 5.499999999999998e+00	 1.562500000000000e+00	 1.028956080615384e+01
0	 5.499999999999998e+00	 1.625000000000001e+00	 1.029336722953845e+01
0	 5.499999999999999e+00	 1.687500000000000e+00	 1.029716602830769e+01
0	 5.499999999999998e+00	 1.750000000000000e+00	 1.030095720246154e+01
0	 5.499999999999998e+00	 1.812500000000001e+00	 1.030474075200000e+01
0	 5.499999999999998e+00	 1.875000000000000e+00	 1.030851667692308e+01
0	 5.562499999999998e+00	 1.250000000000000e+00	 1.026217434153845e+01
0	 5.562499999999999e+00	 1.312500000000000e+00	 1.026601434123076e+01
0	 5.562499999999998e+00	 1.375000000000000e+00	 1.026982602092308e+01
0	 5.562499999999996e+00	 1.437500000000000e+00	 1.027360938061538e+01
0	 5.562499999999998e+00	 1.500000000000000e+00	 1.027736442030769e+01
0	 5.562499999999998e+00	 1.562500000000000e+00	 1.028109114000000e+01
0	 5.562499999999998e+00	 1.625000000000000e+00	 1.028478953969230e+01
0	 5.562499999999998e+00	 1.687500000000000e+00	 1.028845961938461e+01
0	 5.562499999999996e+00	 1.750000000000000e+00	 1.029210137907692e+01
0	 5.562499999999998e+00	 1.812500000000000e+00	 1.029571481876924e+01
0	 5.562499999999998e+00	 1.875000000000000e+00	 1.029929993846154e+01
0	 5.625000000000000e+00	 1.250000000000000e+00	 1.025439799999999e+01
0	 5.624999999999999e+00	 1.312500000000000e+00	 1.025820923076922e+01
0	 5.625000000000000e+00	 1.375000000000000e+00	 1.026197144615384e+01
0	 5.625000000000000e+00	 1.437500000000000e+00	 1.026568464615385e+01
0	 5.625000000000000e+00	 1.500000000000000e+00	 1.026934883076922e+01
0	 5.625000000000000e+00	 1.562500000000000e+00	 1.027296399999999e+01
0	 5.625000000000000e+00	 1.625000000000000e+00	 1.027653015384615e+01
0	 5.625000000000000e+00	 1.687500000000000e+00	 1.028004729230769e+01
0	 5.625000000000002e+00	 1.750000000000001e+00	 1.028351541538461e+01
0	 5.625000000000000e+00	 1.812500000000000e+00	 1.028693452307692e+01
0	 5.625000000000000e+00	 1.875000000000000e+00	 1.029030461538461e+01
0	 5.000000000000000e+00	 1.875000000000000e+00	 1.039022153846154e+01
0	 5.000000000000000e+00	 1.937500000000000e+00	 1.039127589230770e+01
0	 5.000000000000001e+00	 2.000000000000000e+00	 1.039252603076923e+01
0	 5.000000000000002e+00	 2.062500000000000e+00	 1.039397195384615e+01
0	 5.000000000000000e+00	 2.125000000000000e+00	 1.039561366153846e+01
0	 5.000000000000001e+00	 2.187500000000000e+00	 1.039745115384616e+01
0	 5.000000000000001e+00	 2.250000000000000e+00	 1.039948443076923e+01
0	 5.000000000000000e+00	 2.312500000000000e+00	 1.040171349230770e+01
0	 5.000000000000001e+00	 2.375000000000001e+00	 1.040413833846155e+01
0	 5.000000000000000e+00	 2.437500000000001e+00	 1.040675896923078e+01
0	 5.000000000000000e+00	 2.500000000000000e+00	 1.040957538461539e+01
0	 5.062500000000000e+00	 1.875000000000000e+00	 1.037923347692308e+01
0	 5.062500000000000e+00	 1.937500000000000e+00	 1.038016066000000e+01
0	 5.062500000000000e+00	 2.000000000000000e+00	 1.038128025846153e+01
0	 5.062500000000000e+00	 2.062500000000000e+00	 1.038259227230769e+01
0	 5.062500000000001e+00	 2.125000000000001e+00	 1.038409670153847e+01
0	 5.062500000000001e+00	 2.187500000000000e+00	 1.038579354615385e+01
0	 5.062500000000000e+00	 2.250000000000000e+00	 1.038768280615385e+01
0	 5.062500000000001e+00	 2.312500000000000e+00	 1.038976448153846e+01
0	 5.062499999999999e+00	 2.375000000000000e+00	 1.039203857230770e+01
0	 5.062499999999999e+00	 2.437500000000000e+00	 1.039450507846154e+01
0	 5.062500000000000e+00	 2.500000000000000e+00	 1.039716400000000e+01
0	 5.124999999999999e+00	 1.875000000000000e+00	 1.036846683076922e+01
0	 5.125000000000001e+00	 1.937500000000000e+00	 1.036929273230770e+01
0	 5.125000000000000e+00	 2.000000000000000e+00	 1.037030768000001e+01
0	 5.124999999999999e+00	 2.062500000000000e+00	 1.037151167384615e+01
0	 5.125000000000000e+00	 2.125000000000000e+00	 1.037290471384616e+01
0	 5.125000000000000e+00	 2.187500000000001e+00	 1.037448680000001e+01
0	 5.125000000000001e+00	 2.250000000000000e+00	 1.037625793230769e+01
0	 5.124999999999999e+00	 2.312500000000000e+00	 1.037821811076923e+01
0	 5.125000000000000e+00	 2.375000000000000e+00	 1.038036733538463e+01
0	 5.125000000000000e+00	 2.437500000000000e+00	 1.038270560615385e+01
0	 5.124999999999999e+00	 2.500000000000000e+00	 1.038523292307693e+01
0	 5.187500000000000e+00	 1.875000000000000e+00	 1.035792160000001e+01
0	 5.187500000000000e+00	 1.937500000000000e+00	 1.035867210923076e+01
0	 5.187500000000001e+00	 2.000000000000000e+00	 1.035960829538461e+01
0	 5.187499999999999e+00	 2.062500000000000e+00	 1.036073015846154e+01
0	 5.187499999999999e+00	 2.125000000000001e+00	 1.036203769846154e+01
0	 5.187499999999999e+00	 2.187500000000000e+00	 1.036353091538461e+01
0	 5.187499999999999e+00	 2.250000000000000e+00	 1.036520980923077e+01
0	 5.187499999999999e+00	 2.312500000000000e+00	 1.036707438000000e+01
0	 5.187499999999999e+00	 2.375000000000000e+00	 1.036912462769231e+01
0	 5.187500000000000e+00	 2.437500000000000e+00	 1.037136055230770e+01
0	 5.187500000000000e+00	 2.500000000000000e+00	 1.037378215384616e+01
0	 5.249999999999998e+00	 1.875000000000000e+00	 1.034759778461538e+01
0	 5.249999999999999e+00	 1.937500000000000e+00	 1.034829879076922e+01
0	 5.249999999999999e+00	 2.000000000000000e+00	 1.034918210461539e+01
0	 5.249999999999998e+00	 2.062500000000000e+00	 1.035024772615385e+01
0	 5.250000000000000e+00	 2.125000000000000e+00	 1.035149565538462e+01
0	 5.249999999999997e+00	 2.187500000000000e+00	 1.035292589230770e+01
0	 5.250000000000000e+00	 2.250000000000000e+00	 1.035453843692308e+01
0	 5.250000000000000e+00	 2.312500000000000e+00	 1.035633328923076e+01
0	 5.249999999999999e+00	 2.375000000000000e+00	 1.035831044923076e+01
0	 5.250000000000000e+00	 2.437500000000000e+00	 1.036046991692308e+01
0	 5.249999999999998e+00	 2.500000000000000e+00	 1.036281169230770e+01
0	 5.312499999999999e+00	 1.875000000000000e+00	 1.033749538461539e+01
0	 5.312499999999997e+00	 1.937500000000000e+00	 1.033817277692308e+01
0	 5.312499999999999e+00	 2.000000000000000e+00	 1.033902910769230e+01
0	 5.312499999999999e+00	 2.062500000000000e+00	 1.034006437692308e+01
0	 5.312499999999999e+00	 2.125000000000000e+00	 1.034127858461538e+01
0	 5.312499999999999e+00	 2.187500000000000e+00	 1.034267173076923e+01
0	 5.312499999999999e+00	 2.250000000000000e+00	 1.034424381538462e+01
0	 5.312500000000000e+00	 2.312500000000001e+00	 1.034599483846154e+01
0	 5.312499999999999e+00	 2.375000000000000e+00	 1.034792480000000e+01
0	 5.312499999999998e+00	 2.437500000000000e+00	 1.035003370000000e+01
0	 5.312499999999999e+00	 2.500000000000000e+00	 1.035232153846154e+01
0	 5.374999999999998e+00	 1.875000000000000e+00	 1.032761440000000e+01
0	 5.374999999999996e+00	 1.937500000000000e+00	 1.032829406769231e+01
0	 5.375000000000000e+00	 2.000000000000000e+00	 1.032914930461538e+01
0	 5.374999999999998e+00	 2.062500000000000e+00	 1.033018011076923e+01
0	 5.374999999999998e+00	 2.125000000000000e+00	 1.033138648615384e+01
0	 5.374999999999998e+00	 2.187500000000000e+00	 1.033276843076924e+01
0	 5.374999999999998e+00	 2.250000000000000e+00	 1.033432594461538e+01
0	 5.374999999999998e+00	 2.312500000000000e+00	 1.033605902769231e+01
0	 5.375000000000000e+00	 2.375000000000001e+00	 1.033796768000000e+01
0	 5.374999999999997e+00	 2.437500000000000e+00	 1.034005190153847e+01
0	 5.374999999999998e+00	 2.500000000000000e+00	 1.034231169230770e+01
0	 5.437499999999998e+00	 1.875000000000000e+00	 1.031795483076924e+01
0	 5.437499999999999e+00	 1.937500000000000e+00	 1.031866266307692e+01
0	 5.437499999999998e+00	 2.000000000000001e+00	 1.031954269538462e+01
0	 5.437499999999998e+00	 2.062500000000000e+00	 1.032059492769231e+01
0	 5.437499999999999e+00	 2.125000000000001e+00	 1.032181935999999e+01
0	 5.437499999999999e+00	 2.187500000000000e+00	 1.032321599230769e+01
0	 5.437499999999999e+00	 2.250000000000000e+00	 1.032478482461538e+01
0	 5.437499999999999e+00	 2.312500000000001e+00	 1.032652585692308e+01
0	 5.437499999999999e+00	 2.375000000000000e+00	 1.032843908923077e+01
0	 5.437499999999999e+00	 2.437500000000000e+00	 1.033052452153847e+01
0	 5.437499999999998e+00	 2.500000000000000e+00	 1.033278215384615e+01
0	 5.499999999999998e+00	 1.875000000000000e+00	 1.030851667692308e+01
0	 5.499999999999999e+00	 1.937500000000000e+00	 1.030927856307693e+01
0	 5.499999999999997e+00	 2.000000000000000e+00	 1.031020928000000e+01
0	 5.499999999999997e+00	 2.062500000000000e+00	 1.031130882769231e+01
0	 5.499999999999998e+00	 2.125000000000000e+00	 1.031257720615384e+01
0	 5.499999999999998e+00	 2.187500000000000e+00	 1.031401441538461e+01
0	 5.499999999999998e+00	 2.250000000000000e+00	 1.031562045538461e+01
0	 5.499999999999999e+00	 2.312500000000000e+00	 1.031739532615384e+01
0	 5.499999999999998e+00	 2.375000000000000e+00	 1.031933902769231e+01
0	 5.499999999999998e+00	 2.437500000000001e+00	 1.032145156000000e+01
0	 5.499999999999998e+00	 2.500000000000000e+00	 1.032373292307692e+01
0	 5.562499999999998e+00	 1.875000000000000e+00	 1.029929993846154e+01
0	 5.562499999999999e+00	 1.937500000000000e+00	 1.030014176769231e+01
0	 5.562499999999998e+00	 2.000000000000000e+00	 1.030114905846154e+01
0	 5.562499999999996e+00	 2.062500000000000e+00	 1.030232181076924e+01
0	 5.562499999999998e+00	 2.125000000000000e+00	 1.030366002461539e+01
0	 5.562499999999998e+00	 2.187500000000000e+00	 1.030516370000000e+01
0	 5.562499999999998e+00	 2.250000000000000e+00	 1.030683283692307e+01
0	 5.562499999999998e+00	 2.312500000000000e+00	 1.030866743538461e+01
0	 5.562499999999996e+00	 2.375000000000000e+00	 1.031066749538461e+01
0	 5.562499999999998e+00	 2.437500000000000e+00	 1.031283301692307e+01
0	 5.562499999999998e+00	 2.500000000000000e+00	 1.031516400000000e+01
0	 5.625000000000000e+00	 1.875000000000000e+00	 1.029030461538461e+01
0	 5.624999999999999e+00	 1.937500000000000e+00	 1.029125227692308e+01
0	 5.625000000000000e+00	 2.000000000000000e+00	 1.029236203076923e+01
0	 5.625000000000000e+00	 2.062500000000000e+00	 1.029363387692308e+01
0	 5.625000000000000e+00	 2.125000000000000e+00	 1.029506781538461e+01
0	 5.625000000000000e+00	 2.187500000000000e+00	 1.029666384615384e+01
0	 5.625000000000000e+00	 2.250000000000000e+00	 1.029842196923076e+01
0	 5.625000000000000e+00	 2.312500000000000e+00	 1.030034218461538e+01
0	 5.625000000000002e+00	 2.375000000000001e+00	 1.030242449230770e+01
0	 5.625000000000000e+00	 2.437500000000001e+00	 1.030466889230769e+01
0	 5.625000000000000e+00	 2.500000000000000e+00	 1.030707538461538e+01
0	 5.000000000000000e+00	 2.500000000000000e+00	 1.040957538461539e+01
0	 4.999999999999999e+00	 2.562500000000000e+00	 1.040570293846155e+01
0	 5.000000000000001e+00	 2.625000000000000e+00	 1.040219667692308e+01
0	 4.999999999999999e+00	 2.687499999999999e+00	 1.039905660000000e+01
0	 5.000000000000000e+00	 2.750000000000000e+00	 1.039628270769231e+01
0	 4.999999999999999e+00	 2.812499999999999e+00	 1.039387500000000e+01
0	 5.000000000000000e+00	 2.874999999999999e+00	 1.039183347692307e+01
0	 4.999999999999999e+00	 2.937499999999998e+00	 1.039015813846154e+01
0	 5.000000000000000e+00	 2.999999999999998e+00	 1.038884898461538e+01
0	 5.000000000000000e+00	 3.062499999999998e+00	 1.038790601538462e+01
0	 5.000000000000000e+00	 3.125000000000000e+00	 1.038732923076923e+01
0	 5.062500000000000e+00	 2.500000000000000e+00	 1.039716400000000e+01
0	 5.062499999999999e+00	 2.562500000000000e+00	 1.039375651692308e+01
0	 5.062499999999999e+00	 2.624999999999999e+00	 1.039069673846154e+01
0	 5.062500000000001e+00	 2.687499999999999e+00	 1.038798466461538e+01
0	 5.062500000000000e+00	 2.750000000000000e+00	 1.038562029538462e+01
0	 5.062500000000002e+00	 2.812499999999999e+00	 1.038360363076923e+01
0	 5.062500000000001e+00	 2.875000000000000e+00	 1.038193467076923e+01
0	 5.062500000000002e+00	 2.937499999999999e+00	 1.038061341538462e+01
0	 5.062500000000002e+00	 2.999999999999999e+00	 1.037963986461538e+01
0	 5.062499999999999e+00	 3.062499999999997e+00	 1.037901401846154e+01
0	 5.062500000000000e+00	 3.125000000000000e+00	 1.037873587692307e+01
0	 5.124999999999999e+00	 2.500000000000000e+00	 1.038523292307693e+01
0	 5.125000000000000e+00	 2.562500000000000e+00	 1.038225284000001e+01
0	 5.124999999999999e+00	 2.625000000000000e+00	 1.037960198153847e+01
0	 5.124999999999998e+00	 2.687500000000000e+00	 1.037728034769232e+01
0	 5.125000000000000e+00	 2.749999999999999e+00	 1.037528793846154e+01
0	 5.124999999999999e+00	 2.812499999999999e+00	 1.037362475384616e+01
0	 5.125000000000000e+00	 2.874999999999999e+00	 1.037229079384616e+01
0	 5.125000000000000e+00	 2.937499999999999e+00	 1.037128605846154e+01
0	 5.124999999999998e+00	 2.999999999999998e+00	 1.037061054769231e+01
0	 5.125000000000000e+00	 3.062499999999999e+00	 1.037026426153845e+01
0	 5.124999999999999e+00	 3.125000000000000e+00	 1.037024720000000e+01
0	 5.187500000000000e+00	 2.500000000000000e+00	 1.037378215384616e+01
0	 5.187500000000000e+00	 2.562500000000000e+00	 1.037119190769231e+01
0	 5.187500000000000e+00	 2.625000000000000e+00	 1.036891240615385e+01
0	 5.187500000000001e+00	 2.687499999999999e+00	 1.036694364923077e+01
0	 5.187499999999999e+00	 2.749999999999999e+00	 1.036528563692307e+01
0	 5.187500000000000e+00	 2.812499999999999e+00	 1.036393836923077e+01
0	 5.187500000000000e+00	 2.874999999999999e+00	 1.036290184615384e+01
0	 5.187499999999999e+00	 2.937499999999999e+00	 1.036217606769232e+01
0	 5.187500000000000e+00	 2.999999999999999e+00	 1.036176103384615e+01
0	 5.187499999999999e+00	 3.062499999999998e+00	 1.036165674461539e+01
0	 5.187500000000000e+00	 3.125000000000000e+00	 1.036186320000001e+01
0	 5.249999999999998e+00	 2.500000000000000e+00	 1.036281169230770e+01
0	 5.249999999999999e+00	 2.562500000000000e+00	 1.036057372000000e+01
0	 5.250000000000000e+00	 2.625000000000000e+00	 1.035862801230770e+01
0	 5.249999999999999e+00	 2.687500000000000e+00	 1.035697456923077e+01
0	 5.249999999999998e+00	 2.750000000000000e+00	 1.035561339076923e+01
0	 5.250000000000000e+00	 2.812499999999999e+00	 1.035454447692308e+01
0	 5.249999999999999e+00	 2.874999999999999e+00	 1.035376782769231e+01
0	 5.249999999999999e+00	 2.937499999999998e+00	 1.035328344307692e+01
0	 5.249999999999998e+00	 2.999999999999999e+00	 1.035309132307692e+01
0	 5.249999999999999e+00	 3.062499999999998e+00	 1.035319146769231e+01
0	 5.249999999999998e+00	 3.125000000000000e+00	 1.035358387692308e+01
0	 5.312499999999999e+00	 2.500000000000000e+00	 1.035232153846154e+01
0	 5.312499999999999e+00	 2.562499999999999e+00	 1.035039827692308e+01
0	 5.312499999999999e+00	 2.625000000000000e+00	 1.034874880000000e+01
0	 5.312499999999999e+00	 2.687500000000000e+00	 1.034737310769231e+01
0	 5.312499999999998e+00	 2.749999999999999e+00	 1.034627120000000e+01
0	 5.312499999999999e+00	 2.812499999999999e+00	 1.034544307692308e+01
0	 5.312500000000000e+00	 2.874999999999999e+00	 1.034488873846154e+01
0	 5.312499999999999e+00	 2.937499999999998e+00	 1.034460818461539e+01
0	 5.312499999999998e+00	 2.999999999999998e+00	 1.034460141538461e+01
0	 5.312499999999999e+00	 3.062499999999998e+00	 1.034486843076923e+01
0	 5.312499999999999e+00	 3.125000000000000e+00	 1.034540923076923e+01
0	 5.374999999999998e+00	 2.500000000000000e+00	 1.034231169230770e+01
0	 5.374999999999999e+00	 2.562500000000000e+00	 1.034066557846153e+01
0	 5.374999999999998e+00	 2.625000000000000e+00	 1.033927476923077e+01
0	 5.374999999999999e+00	 2.687500000000000e+00	 1.033813926461539e+01
0	 5.375000000000000e+00	 2.750000000000000e+00	 1.033725906461539e+01
0	 5.375000000000000e+00	 2.812500000000000e+00	 1.033663416923077e+01
0	 5.374999999999999e+00	 2.874999999999999e+00	 1.033626457846153e+01
0	 5.374999999999999e+00	 2.937499999999999e+00	 1.033615029230769e+01
0	 5.374999999999999e+00	 2.999999999999999e+00	 1.033629131076922e+01
0	 5.374999999999998e+00	 3.062499999999998e+00	 1.033668763384616e+01
0	 5.374999999999998e+00	 3.125000000000000e+00	 1.033733926153845e+01
0	 5.437499999999998e+00	 2.500000000000000e+00	 1.033278215384615e+01
0	 5.437499999999998e+00	 2.562500000000000e+00	 1.033137562461538e+01
0	 5.437499999999999e+00	 2.625000000000000e+00	 1.033020592000000e+01
0	 5.437499999999999e+00	 2.687500000000000e+00	 1.032927304000000e+01
0	 5.437499999999999e+00	 2.749999999999999e+00	 1.032857698461538e+01
0	 5.437499999999999e+00	 2.812499999999999e+00	 1.032811775384616e+01
0	 5.437499999999999e+00	 2.874999999999999e+00	 1.032789534769231e+01
0	 5.437499999999999e+00	 2.937499999999998e+00	 1.032790976615385e+01
0	 5.437499999999999e+00	 2.999999999999998e+00	 1.032816100923078e+01
0	 5.437499999999999e+00	 3.062499999999998e+00	 1.032864907692308e+01
0	 5.437499999999998e+00	 3.125000000000000e+00	 1.032937396923078e+01
0	 5.499999999999998e+00	 2.500000000000000e+00	 1.032373292307692e+01
0	 5.499999999999999e+00	 2.562500000000001e+00	 1.032252841538461e+01
0	 5.499999999999997e+00	 2.625000000000000e+00	 1.032154225230769e+01
0	 5.499999999999998e+00	 2.687500000000000e+00	 1.032077443384615e+01
0	 5.499999999999998e+00	 2.749999999999999e+00	 1.032022496000000e+01
0	 5.499999999999997e+00	 2.812499999999999e+00	 1.031989383076923e+01
0	 5.499999999999998e+00	 2.874999999999999e+00	 1.031978104615384e+01
0	 5.499999999999998e+00	 2.937499999999998e+00	 1.031988660615384e+01
0	 5.499999999999999e+00	 2.999999999999998e+00	 1.032021051076923e+01
0	 5.499999999999999e+00	 3.062499999999998e+00	 1.032075275999999e+01
0	 5.499999999999998e+00	 3.125000000000000e+00	 1.032151335384615e+01
0	 5.562499999999998e+00	 2.500000000000000e+00	 1.031516400000000e+01
0	 5.562499999999997e+00	 2.562500000000000e+00	 1.031412395076923e+01
0	 5.562499999999999e+00	 2.625000000000000e+00	 1.031328376615385e+01
0	 5.562499999999998e+00	 2.687500000000000e+00	 1.031264344615385e+01
0	 5.562499999999998e+00	 2.749999999999999e+00	 1.031220299076924e+01
0	 5.562499999999998e+00	 2.812499999999999e+00	 1.031196239999999e+01
0	 5.562499999999997e+00	 2.874999999999999e+00	 1.031192167384616e+01
0	 5.562499999999998e+00	 2.937499999999998e+00	 1.031208081230769e+01
0	 5.562499999999998e+00	 2.999999999999998e+00	 1.031243981538462e+01
0	 5.562499999999998e+00	 3.062499999999998e+00	 1.031299868307692e+01
0	 5.562499999999998e+00	 3.125000000000000e+00	 1.031375741538462e+01
0	 5.625000000000000e+00	 2.500000000000000e+00	 1.030707538461538e+01
0	 5.625000000000000e+00	 2.562500000000000e+00	 1.030616223076924e+01
0	 5.625000000000001e+00	 2.625000000000000e+00	 1.030543046153846e+01
0	 5.625000000000000e+00	 2.687499999999999e+00	 1.030488007692307e+01
0	 5.625000000000000e+00	 2.750000000000000e+00	 1.030451107692308e+01
0	 5.625000000000000e+00	 2.812499999999999e+00	 1.030432346153847e+01
0	 5.625000000000000e+00	 2.874999999999999e+00	 1.030431723076922e+01
0	 5.624999999999999e+00	 2.937499999999998e+00	 1.030449238461539e+01
0	 5.624999999999999e+00	 2.999999999999998e+00	 1.030484892307692e+01
0	 5.625000000000000e+00	 3.062499999999998e+00	 1.030538684615385e+01
0	 5.625000000000000e+00	 3.125000000000000e+00	 1.030610615384615e+01
0	 5.000000000000000e+00	 3.125000000000000e+00	 1.038732923076923e+01
0	 4.999999999999999e+00	 3.187500000000000e+00	 1.038202036923076e+01
0	 5.000000000000001e+00	 3.250000000000000e+00	 1.037694393846153e+01
0	 4.999999999999999e+00	 3.312499999999999e+00	 1.037209993846154e+01
0	 5.000000000000000e+00	 3.374999999999999e+00	 1.036748836923076e+01
0	 4.999999999999999e+00	 3.437499999999999e+00	 1.036310923076923e+01
0	 5.000000000000000e+00	 3.499999999999999e+00	 1.035896252307692e+01
0	 4.999999999999999e+00	 3.562499999999998e+00	 1.035504824615384e+01
0	 5.000000000000000e+00	 3.624999999999999e+00	 1.035136640000000e+01
0	 5.000000000000000e+00	 3.687499999999998e+00	 1.034791698461537e+01
0	 5.000000000000000e+00	 3.750000000000000e+00	 1.034470000000000e+01
0	 5.062500000000000e+00	 3.125000000000000e+00	 1.037873587692307e+01
0	 5.062499999999999e+00	 3.187500000000000e+00	 1.037366298769230e+01
0	 5.062499999999999e+00	 3.250000000000000e+00	 1.036882019384615e+01
0	 5.062500000000001e+00	 3.312499999999999e+00	 1.036420749538462e+01
0	 5.062500000000000e+00	 3.374999999999999e+00	 1.035982489230769e+01
0	 5.062500000000002e+00	 3.437499999999999e+00	 1.035567238461539e+01
0	 5.062500000000001e+00	 3.500000000000000e+00	 1.035174997230769e+01
0	 5.062500000000002e+00	 3.562499999999999e+00	 1.034805765538462e+01
0	 5.062500000000002e+00	 3.625000000000000e+00	 1.034459543384615e+01
0	 5.062499999999999e+00	 3.687499999999997e+00	 1.034136330769230e+01
0	 5.062500000000000e+00	 3.750000000000000e+00	 1.033836127692309e+01
0	 5.124999999999999e+00	 3.125000000000000e+00	 1.037024720000000e+01
0	 5.125000000000000e+00	 3.187500000000000e+00	 1.036540431692308e+01
0	 5.124999999999999e+00	 3.250000000000000e+00	 1.036078919384615e+01
0	 5.124999999999998e+00	 3.312500000000000e+00	 1.035640183076923e+01
0	 5.125000000000000e+00	 3.374999999999999e+00	 1.035224222769231e+01
0	 5.124999999999999e+00	 3.437499999999999e+00	 1.034831038461538e+01
0	 5.125000000000000e+00	 3.499999999999997e+00	 1.034460630153847e+01
0	 5.125000000000000e+00	 3.562499999999999e+00	 1.034112997846154e+01
0	 5.124999999999998e+00	 3.624999999999998e+00	 1.033788141538462e+01
0	 5.125000000000000e+00	 3.687499999999999e+00	 1.033486061230770e+01
0	 5.124999999999999e+00	 3.750000000000000e+00	 1.033206756923076e+01
0	 5.187500000000000e+00	 3.125000000000000e+00	 1.036186320000001e+01
0	 5.187500000000000e+00	 3.187500000000000e+00	 1.035724435692308e+01
0	 5.187500000000000e+00	 3.250000000000000e+00	 1.035285093846154e+01
0	 5.187500000000001e+00	 3.312500000000000e+00	 1.034868294461538e+01
0	 5.187499999999999e+00	 3.374999999999999e+00	 1.034474037538462e+01
0	 5.187500000000000e+00	 3.437499999999999e+00	 1.034102323076923e+01
0	 5.187500000000000e+00	 3.499999999999998e+00	 1.033753151076923e+01
0	 5.187499999999999e+00	 3.562499999999998e+00	 1.033426521538461e+01
0	 5.187500000000000e+00	 3.624999999999998e+00	 1.033122434461538e+01
0	 5.187499999999999e+00	 3.687499999999998e+00	 1.032840889846154e+01
0	 5.187500000000000e+00	 3.750000000000000e+00	 1.032581887692307e+01
0	 5.249999999999998e+00	 3.125000000000000e+00	 1.035358387692308e+01
0	 5.249999999999999e+00	 3.187500000000000e+00	 1.034918310769232e+01
0	 5.250000000000000e+00	 3.250000000000000e+00	 1.034500542769231e+01
0	 5.249999999999999e+00	 3.312500000000000e+00	 1.034105083692308e+01
0	 5.249999999999998e+00	 3.374999999999999e+00	 1.033731933538462e+01
0	 5.250000000000000e+00	 3.437499999999999e+00	 1.033381092307693e+01
0	 5.249999999999999e+00	 3.499999999999998e+00	 1.033052560000000e+01
0	 5.249999999999999e+00	 3.562499999999998e+00	 1.032746336615385e+01
0	 5.249999999999998e+00	 3.624999999999999e+00	 1.032462422153846e+01
0	 5.249999999999999e+00	 3.687499999999998e+00	 1.032200816615384e+01
0	 5.249999999999998e+00	 3.750000000000000e+00	 1.031961520000000e+01
0	 5.312499999999999e+00	 3.125000000000000e+00	 1.034540923076923e+01
0	 5.312499999999999e+00	 3.187500000000000e+00	 1.034122056923077e+01
0	 5.312499999999999e+00	 3.250000000000000e+00	 1.033725266153847e+01
0	 5.312499999999999e+00	 3.312500000000000e+00	 1.033350550769231e+01
0	 5.312499999999998e+00	 3.374999999999998e+00	 1.032997910769231e+01
0	 5.312499999999999e+00	 3.437499999999999e+00	 1.032667346153846e+01
0	 5.312500000000000e+00	 3.499999999999999e+00	 1.032358856923076e+01
0	 5.312499999999999e+00	 3.562499999999999e+00	 1.032072443076923e+01
0	 5.312499999999998e+00	 3.624999999999998e+00	 1.031808104615385e+01
0	 5.312499999999999e+00	 3.687499999999999e+00	 1.031565841538462e+01
0	 5.312499999999999e+00	 3.750000000000000e+00	 1.031345653846153e+01
0	 5.374999999999998e+00	 3.125000000000000e+00	 1.033733926153845e+01
0	 5.374999999999999e+00	 3.187500000000000e+00	 1.033335674153847e+01
0	 5.374999999999998e+00	 3.249999999999999e+00	 1.032959264000000e+01
0	 5.374999999999999e+00	 3.312499999999999e+00	 1.032604695692308e+01
0	 5.375000000000000e+00	 3.375000000000000e+00	 1.032271969230770e+01
0	 5.375000000000000e+00	 3.437500000000000e+00	 1.031961084615385e+01
0	 5.374999999999999e+00	 3.499999999999999e+00	 1.031672041846154e+01
0	 5.374999999999999e+00	 3.562499999999999e+00	 1.031404840923076e+01
0	 5.374999999999999e+00	 3.624999999999999e+00	 1.031159481846154e+01
0	 5.374999999999998e+00	 3.687499999999998e+00	 1.030935964615385e+01
0	 5.374999999999998e+00	 3.750000000000000e+00	 1.030734289230769e+01
0	 5.437499999999998e+00	 3.125000000000000e+00	 1.032937396923078e+01
0	 5.437499999999998e+00	 3.187500000000000e+00	 1.032559162461539e+01
0	 5.437499999999999e+00	 3.250000000000000e+00	 1.032202536307692e+01
0	 5.437499999999999e+00	 3.312500000000000e+00	 1.031867518461539e+01
0	 5.437499999999999e+00	 3.374999999999999e+00	 1.031554108923077e+01
0	 5.437499999999999e+00	 3.437499999999999e+00	 1.031262307692308e+01
0	 5.437499999999999e+00	 3.499999999999999e+00	 1.030992114769231e+01
0	 5.437499999999999e+00	 3.562499999999999e+00	 1.030743530153845e+01
0	 5.437499999999999e+00	 3.624999999999998e+00	 1.030516553846154e+01
0	 5.437499999999999e+00	 3.687499999999999e+00	 1.030311185846154e+01
0	 5.437499999999998e+00	 3.750000000000000e+00	 1.030127426153846e+01
0	 5.499999999999998e+00	 3.125000000000000e+00	 1.032151335384615e+01
0	 5.499999999999999e+00	 3.187500000000001e+00	 1.031792521846154e+01
0	 5.499999999999997e+00	 3.250000000000000e+00	 1.031455083076922e+01
0	 5.499999999999998e+00	 3.312500000000000e+00	 1.031139019076922e+01
0	 5.499999999999998e+00	 3.374999999999999e+00	 1.030844329846155e+01
0	 5.499999999999997e+00	 3.437499999999999e+00	 1.030571015384615e+01
0	 5.499999999999998e+00	 3.499999999999998e+00	 1.030319075692307e+01
0	 5.499999999999998e+00	 3.562499999999998e+00	 1.030088510769231e+01
0	 5.499999999999999e+00	 3.624999999999998e+00	 1.029879320615384e+01
0	 5.499999999999999e+00	 3.687499999999998e+00	 1.029691505230768e+01
0	 5.499999999999998e+00	 3.750000000000000e+00	 1.029525064615385e+01
0	 5.562499999999998e+00	 3.125000000000000e+00	 1.031375741538462e+01
0	 5.562499999999997e+00	 3.187500000000000e+00	 1.031035752307693e+01
0	 5.562499999999999e+00	 3.250000000000000e+00	 1.030716904307693e+01
0	 5.562499999999998e+00	 3.312500000000000e+00	 1.030419197538462e+01
0	 5.562499999999998e+00	 3.374999999999999e+00	 1.030142632000000e+01
0	 5.562499999999998e+00	 3.437500000000000e+00	 1.029887207692308e+01
0	 5.562499999999997e+00	 3.499999999999998e+00	 1.029652924615385e+01
0	 5.562499999999998e+00	 3.562499999999998e+00	 1.029439782769231e+01
0	 5.562499999999998e+00	 3.624999999999998e+00	 1.029247782153845e+01
0	 5.562499999999998e+00	 3.687499999999997e+00	 1.029076922769231e+01
0	 5.562499999999998e+00	 3.750000000000000e+00	 1.028927204615384e+01
0	 5.625000000000000e+00	 3.125000000000000e+00	 1.030610615384615e+01
0	 5.625000000000000e+00	 3.187500000000000e+00	 1.030288853846153e+01
0	 5.625000000000001e+00	 3.250000000000000e+00	 1.029987999999999e+01
0	 5.625000000000000e+00	 3.312499999999999e+00	 1.029708053846154e+01
0	 5.625000000000000e+00	 3.374999999999999e+00	 1.029449015384615e+01
0	 5.625000000000000e+00	 3.437499999999999e+00	 1.029210884615384e+01
0	 5.625000000000000e+00	 3.499999999999999e+00	 1.028993661538462e+01
0	 5.624999999999999e+00	 3.562499999999998e+00	 1.028797346153846e+01
0	 5.624999999999999e+00	 3.624999999999999e+00	 1.028621938461538e+01
0	 5.625000000000000e+00	 3.687499999999998e+00	 1.028467438461537e+01
0	 5.625000000000000e+00	 3.750000000000000e+00	 1.028333846153846e+01
0	 5.000000000000000e+00	 3.750000000000000e+00	 1.034470000000000e+01
0	 4.999999999999999e+00	 3.812500000000000e+00	 1.033813069230770e+01
0	 5.000000000000001e+00	 3.875000000000000e+00	 1.033174923076923e+01
0	 4.999999999999999e+00	 3.937499999999999e+00	 1.032555561538461e+01
0	 5.000000000000000e+00	 4.000000000000000e+00	 1.031954984615384e+01
0	 4.999999999999999e+00	 4.062499999999999e+00	 1.031373192307693e+01
0	 5.000000000000000e+00	 4.124999999999999e+00	 1.030810184615384e+01
0	 4.999999999999999e+00	 4.187499999999998e+00	 1.030265961538461e+01
0	 5.000000000000000e+00	 4.249999999999998e+00	 1.029740523076923e+01
0	 5.000000000000000e+00	 4.312499999999998e+00	 1.029233869230769e+01
0	 5.000000000000000e+00	 4.375000000000000e+00	 1.028746000000000e+01
0	 5.062500000000000e+00	 3.750000000000000e+00	 1.033836127692309e+01
0	 5.062499999999999e+00	 3.812500000000000e+00	 1.033213154923077e+01
0	 5.062499999999999e+00	 3.875000000000000e+00	 1.032608484000001e+01
0	 5.062500000000001e+00	 3.937500000000000e+00	 1.032022114923078e+01
0	 5.062500000000000e+00	 3.999999999999999e+00	 1.031454047692308e+01
0	 5.062500000000002e+00	 4.062499999999999e+00	 1.030904282307692e+01
0	 5.062500000000001e+00	 4.125000000000000e+00	 1.030372818769231e+01
0	 5.062500000000002e+00	 4.187500000000000e+00	 1.029859657076923e+01
0	 5.062500000000002e+00	 4.250000000000000e+00	 1.029364797230768e+01
0	 5.062499999999999e+00	 4.312499999999997e+00	 1.028888239230769e+01
0	 5.062500000000000e+00	 4.375000000000000e+00	 1.028429983076923e+01
0	 5.124999999999999e+00	 3.750000000000000e+00	 1.033206756923076e+01
0	 5.125000000000000e+00	 3.812500000000000e+00	 1.032615734769231e+01
0	 5.124999999999999e+00	 3.875000000000000e+00	 1.032042531692308e+01
0	 5.124999999999998e+00	 3.937500000000000e+00	 1.031487147692308e+01
0	 5.125000000000000e+00	 3.999999999999999e+00	 1.030949582769231e+01
0	 5.124999999999999e+00	 4.062499999999999e+00	 1.030429836923076e+01
0	 5.125000000000000e+00	 4.124999999999997e+00	 1.029927910153847e+01
0	 5.125000000000000e+00	 4.187499999999998e+00	 1.029443802461538e+01
0	 5.124999999999998e+00	 4.249999999999998e+00	 1.028977513846154e+01
0	 5.125000000000000e+00	 4.312499999999998e+00	 1.028529044307692e+01
0	 5.124999999999999e+00	 4.375000000000000e+00	 1.028098393846152e+01
0	 5.187500000000000e+00	 3.750000000000000e+00	 1.032581887692307e+01
0	 5.187500000000000e+00	 3.812500000000000e+00	 1.032020808769231e+01
0	 5.187500000000000e+00	 3.875000000000000e+00	 1.031477066153846e+01
0	 5.187500000000001e+00	 3.937500000000000e+00	 1.030950659846154e+01
0	 5.187499999999999e+00	 3.999999999999999e+00	 1.030441589846154e+01
0	 5.187500000000000e+00	 4.062500000000000e+00	 1.029949856153846e+01
0	 5.187500000000000e+00	 4.124999999999998e+00	 1.029475458769230e+01
0	 5.187499999999999e+00	 4.187499999999999e+00	 1.029018397692307e+01
0	 5.187500000000000e+00	 4.249999999999998e+00	 1.028578672923076e+01
0	 5.187499999999999e+00	 4.312499999999997e+00	 1.028156284461538e+01
0	 5.187500000000000e+00	 4.375000000000000e+00	 1.027751232307693e+01
0	 5.249999999999998e+00	 3.750000000000000e+00	 1.031961520000000e+01
0	 5.249999999999999e+00	 3.812500000000000e+00	 1.031428376923077e+01
0	 5.250000000000000e+00	 3.875000000000000e+00	 1.030912087384615e+01
0	 5.249999999999999e+00	 3.937500000000000e+00	 1.030412651384615e+01
0	 5.249999999999998e+00	 3.999999999999999e+00	 1.029930068923077e+01
0	 5.250000000000000e+00	 4.062499999999999e+00	 1.029464340000000e+01
0	 5.249999999999999e+00	 4.124999999999998e+00	 1.029015464615385e+01
0	 5.249999999999999e+00	 4.187499999999999e+00	 1.028583442769231e+01
0	 5.249999999999998e+00	 4.249999999999998e+00	 1.028168274461538e+01
0	 5.249999999999999e+00	 4.312499999999998e+00	 1.027769959692307e+01
0	 5.249999999999998e+00	 4.375000000000000e+00	 1.027388498461538e+01
0	 5.312499999999999e+00	 3.750000000000000e+00	 1.031345653846153e+01
0	 5.312499999999999e+00	 3.812500000000000e+00	 1.030838439230769e+01
0	 5.312499999999999e+00	 3.875000000000000e+00	 1.030347595384614e+01
0	 5.312499999999999e+00	 3.937499999999999e+00	 1.029873122307693e+01
0	 5.312499999999998e+00	 3.999999999999998e+00	 1.029415019999999e+01
0	 5.312499999999999e+00	 4.062499999999999e+00	 1.028973288461538e+01
0	 5.312500000000000e+00	 4.125000000000000e+00	 1.028547927692307e+01
0	 5.312499999999999e+00	 4.187499999999998e+00	 1.028138937692307e+01
0	 5.312499999999998e+00	 4.249999999999998e+00	 1.027746318461537e+01
0	 5.312499999999999e+00	 4.312499999999998e+00	 1.027370069999998e+01
0	 5.312499999999999e+00	 4.375000000000000e+00	 1.027010192307691e+01
0	 5.374999999999998e+00	 3.750000000000000e+00	 1.030734289230769e+01
0	 5.374999999999999e+00	 3.812500000000000e+00	 1.030250995692308e+01
0	 5.374999999999998e+00	 3.874999999999999e+00	 1.029783590153846e+01
0	 5.374999999999999e+00	 3.937500000000000e+00	 1.029332072615385e+01
0	 5.375000000000000e+00	 4.000000000000000e+00	 1.028896443076923e+01
0	 5.375000000000000e+00	 4.062500000000000e+00	 1.028476701538463e+01
0	 5.374999999999999e+00	 4.124999999999999e+00	 1.028072847999999e+01
0	 5.374999999999999e+00	 4.187499999999998e+00	 1.027684882461537e+01
0	 5.374999999999999e+00	 4.249999999999999e+00	 1.027312804923076e+01
0	 5.374999999999998e+00	 4.312499999999997e+00	 1.026956615384615e+01
0	 5.374999999999998e+00	 4.375000000000000e+00	 1.026616313846152e+01
0	 5.437499999999998e+00	 3.750000000000000e+00	 1.030127426153846e+01
0	 5.437499999999998e+00	 3.812500000000000e+00	 1.029666046307693e+01
0	 5.437499999999999e+00	 3.875000000000000e+00	 1.029220071692308e+01
0	 5.437499999999999e+00	 3.937499999999999e+00	 1.028789502307693e+01
0	 5.437499999999999e+00	 3.999999999999999e+00	 1.028374338153846e+01
0	 5.437499999999999e+00	 4.062500000000000e+00	 1.027974579230770e+01
0	 5.437499999999999e+00	 4.124999999999999e+00	 1.027590225538462e+01
0	 5.437499999999999e+00	 4.187499999999999e+00	 1.027221277076923e+01
0	 5.437499999999999e+00	 4.249999999999998e+00	 1.026867733846153e+01
0	 5.437499999999999e+00	 4.312499999999998e+00	 1.026529595846154e+01
0	 5.437499999999998e+00	 4.375000000000000e+00	 1.026206863076923e+01
0	 5.499999999999998e+00	 3.750000000000000e+00	 1.029525064615385e+01
0	 5.499999999999999e+00	 3.812500000000000e+00	 1.029083591076924e+01
0	 5.499999999999997e+00	 3.875000000000000e+00	 1.028657040000000e+01
0	 5.499999999999998e+00	 3.937500000000000e+00	 1.028245411384615e+01
0	 5.499999999999998e+00	 3.999999999999999e+00	 1.027848705230769e+01
0	 5.499999999999997e+00	 4.062499999999998e+00	 1.027466921538461e+01
0	 5.499999999999998e+00	 4.124999999999999e+00	 1.027100060307693e+01
0	 5.499999999999998e+00	 4.187499999999998e+00	 1.026748121538461e+01
0	 5.499999999999999e+00	 4.249999999999998e+00	 1.026411105230769e+01
0	 5.499999999999999e+00	 4.312499999999998e+00	 1.026089011384615e+01
0	 5.499999999999998e+00	 4.375000000000000e+00	 1.025781840000000e+01
0	 5.562499999999998e+00	 3.750000000000000e+00	 1.028927204615384e+01
0	 5.562499999999997e+00	 3.812500000000000e+00	 1.028503630000000e+01
0	 5.562499999999999e+00	 3.875000000000000e+00	 1.028094495076922e+01
0	 5.562499999999998e+00	 3.937499999999999e+00	 1.027699799846153e+01
0	 5.562499999999998e+00	 3.999999999999999e+00	 1.027319544307692e+01
0	 5.562499999999998e+00	 4.062499999999998e+00	 1.026953728461538e+01
0	 5.562499999999997e+00	 4.124999999999998e+00	 1.026602352307692e+01
0	 5.562499999999998e+00	 4.187499999999998e+00	 1.026265415846154e+01
0	 5.562499999999998e+00	 4.249999999999998e+00	 1.025942919076923e+01
0	 5.562499999999998e+00	 4.312499999999998e+00	 1.025634862000000e+01
0	 5.562499999999998e+00	 4.375000000000000e+00	 1.025341244615382e+01
0	 5.625000000000000e+00	 3.750000000000000e+00	 1.028333846153846e+01
0	 5.625000000000000e+00	 3.812500000000000e+00	 1.027926163076924e+01
0	 5.625000000000001e+00	 3.875000000000000e+00	 1.027532436923077e+01
0	 5.625000000000000e+00	 3.937499999999999e+00	 1.027152667692307e+01
0	 5.625000000000000e+00	 4.000000000000000e+00	 1.026786855384615e+01
0	 5.625000000000000e+00	 4.062499999999999e+00	 1.026435000000001e+01
0	 5.625000000000000e+00	 4.124999999999999e+00	 1.026097101538460e+01
0	 5.624999999999999e+00	 4.187499999999998e+00	 1.025773160000000e+01
0	 5.624999999999999e+00	 4.249999999999998e+00	 1.025463175384615e+01
0	 5.625000000000000e+00	 4.312499999999998e+00	 1.025167147692309e+01
0	 5.625000000000000e+00	 4.375000000000000e+00	 1.024885076923076e+01
0	 5.000000000000000e+00	 4.375000000000000e+00	 1.028746000000000e+01
0	 4.999999999999999e+00	 4.437499999999999e+00	 1.028137267692306e+01
0	 5.000000000000001e+00	 4.500000000000001e+00	 1.027536178461538e+01
0	 4.999999999999999e+00	 4.562499999999999e+00	 1.026942732307693e+01
0	 5.000000000000000e+00	 4.625000000000000e+00	 1.026356929230769e+01
0	 4.999999999999999e+00	 4.687499999999999e+00	 1.025778769230768e+01
0	 5.000000000000000e+00	 4.749999999999999e+00	 1.025208252307692e+01
0	 4.999999999999999e+00	 4.812499999999998e+00	 1.024645378461538e+01
0	 5.000000000000000e+00	 4.874999999999998e+00	 1.024090147692307e+01
0	 5.000000000000000e+00	 4.937499999999998e+00	 1.023542559999999e+01
0	 5.000000000000000e+00	 5.000000000000000e+00	 1.023002615384615e+01
0	 5.062500000000000e+00	 4.375000000000000e+00	 1.028429983076923e+01
0	 5.062499999999999e+00	 4.437500000000000e+00	 1.027837502000000e+01
0	 5.062499999999999e+00	 4.499999999999999e+00	 1.027252906769230e+01
0	 5.062500000000001e+00	 4.562499999999999e+00	 1.026676197384615e+01
0	 5.062500000000000e+00	 4.625000000000000e+00	 1.026107373846154e+01
0	 5.062500000000002e+00	 4.687500000000001e+00	 1.025546436153846e+01
0	 5.062500000000001e+00	 4.749999999999999e+00	 1.024993384307691e+01
0	 5.062500000000002e+00	 4.812499999999999e+00	 1.024448218307692e+01
0	 5.062500000000002e+00	 4.875000000000000e+00	 1.023910938153845e+01
0	 5.062499999999999e+00	 4.937499999999997e+00	 1.023381543846153e+01
0	 5.062500000000000e+00	 4.999999999999999e+00	 1.022860035384614e+01
0	 5.124999999999999e+00	 4.375000000000000e+00	 1.028098393846152e+01
0	 5.125000000000000e+00	 4.437500000000000e+00	 1.027521888307693e+01
0	 5.124999999999999e+00	 4.500000000000001e+00	 1.026953511384615e+01
0	 5.124999999999998e+00	 4.562499999999999e+00	 1.026393263076922e+01
0	 5.125000000000000e+00	 4.624999999999998e+00	 1.025841143384615e+01
0	 5.124999999999999e+00	 4.687499999999997e+00	 1.025297152307693e+01
0	 5.125000000000000e+00	 4.749999999999998e+00	 1.024761289846155e+01
0	 5.125000000000000e+00	 4.812499999999999e+00	 1.024233556000000e+01
0	 5.124999999999998e+00	 4.874999999999998e+00	 1.023713950769231e+01
0	 5.125000000000000e+00	 4.937499999999998e+00	 1.023202474153846e+01
0	 5.124999999999999e+00	 5.000000000000000e+00	 1.022699126153846e+01
0	 5.187500000000000e+00	 4.375000000000000e+00	 1.027751232307693e+01
0	 5.187500000000000e+00	 4.437500000000000e+00	 1.027190426615385e+01
0	 5.187500000000000e+00	 4.500000000000000e+00	 1.026637992307692e+01
0	 5.187500000000001e+00	 4.562499999999999e+00	 1.026093929384614e+01
0	 5.187499999999999e+00	 4.625000000000000e+00	 1.025558237846154e+01
0	 5.187500000000000e+00	 4.687499999999999e+00	 1.025030917692307e+01
0	 5.187500000000000e+00	 4.749999999999998e+00	 1.024511968923077e+01
0	 5.187499999999999e+00	 4.812499999999998e+00	 1.024001391538462e+01
0	 5.187500000000000e+00	 4.874999999999998e+00	 1.023499185538461e+01
0	 5.187499999999999e+00	 4.937499999999997e+00	 1.023005350923078e+01
0	 5.187500000000000e+00	 4.999999999999999e+00	 1.022519887692307e+01
0	 5.249999999999998e+00	 4.375000000000000e+00	 1.027388498461538e+01
0	 5.249999999999999e+00	 4.437500000000000e+00	 1.026843116923076e+01
0	 5.250000000000000e+00	 4.500000000000000e+00	 1.026306349538460e+01
0	 5.249999999999999e+00	 4.562499999999999e+00	 1.025778196307692e+01
0	 5.249999999999998e+00	 4.624999999999999e+00	 1.025258657230770e+01
0	 5.250000000000000e+00	 4.687500000000000e+00	 1.024747732307692e+01
0	 5.249999999999999e+00	 4.749999999999998e+00	 1.024245421538461e+01
0	 5.249999999999999e+00	 4.812499999999999e+00	 1.023751724923076e+01
0	 5.249999999999998e+00	 4.874999999999998e+00	 1.023266642461539e+01
0	 5.249999999999999e+00	 4.937499999999997e+00	 1.022790174153845e+01
0	 5.249999999999998e+00	 5.000000000000000e+00	 1.022322319999999e+01
0	 5.312499999999999e+00	 4.375000000000000e+00	 1.027010192307691e+01
0	 5.312499999999999e+00	 4.437499999999999e+00	 1.026479959230768e+01
0	 5.312499999999999e+00	 4.499999999999999e+00	 1.025958583076924e+01
0	 5.312499999999999e+00	 4.562499999999999e+00	 1.025446063846153e+01
0	 5.312499999999998e+00	 4.624999999999998e+00	 1.024942401538462e+01
0	 5.312499999999999e+00	 4.687499999999999e+00	 1.024447596153846e+01
0	 5.312500000000000e+00	 4.750000000000000e+00	 1.023961647692307e+01
0	 5.312499999999999e+00	 4.812499999999998e+00	 1.023484556153846e+01
0	 5.312499999999998e+00	 4.874999999999998e+00	 1.023016321538462e+01
0	 5.312499999999999e+00	 4.937499999999999e+00	 1.022556943846153e+01
0	 5.312499999999999e+00	 5.000000000000000e+00	 1.022106423076923e+01
0	 5.374999999999998e+00	 4.375000000000000e+00	 1.026616313846152e+01
0	 5.374999999999999e+00	 4.437499999999999e+00	 1.026100953538461e+01
0	 5.374999999999998e+00	 4.499999999999998e+00	 1.025594692923077e+01
0	 5.374999999999999e+00	 4.562499999999999e+00	 1.025097531999999e+01
0	 5.375000000000000e+00	 4.625000000000001e+00	 1.024609470769231e+01
0	 5.375000000000000e+00	 4.687499999999999e+00	 1.024130509230769e+01
0	 5.374999999999999e+00	 4.749999999999998e+00	 1.023660647384614e+01
0	 5.374999999999999e+00	 4.812499999999999e+00	 1.023199885230769e+01
0	 5.374999999999999e+00	 4.874999999999998e+00	 1.022748222769231e+01
0	 5.374999999999998e+00	 4.937499999999999e+00	 1.022305659999998e+01
0	 5.374999999999998e+00	 5.000000000000001e+00	 1.021872196923078e+01
0	 5.437499999999998e+00	 4.375000000000000e+00	 1.026206863076923e+01
0	 5.437499999999998e+00	 4.437499999999999e+00	 1.025706099846153e+01
0	 5.437499999999999e+00	 4.500000000000000e+00	 1.025214679076922e+01
0	 5.437499999999999e+00	 4.562499999999999e+00	 1.024732600769231e+01
0	 5.437499999999999e+00	 4.625000000000000e+00	 1.024259864923076e+01
0	 5.437499999999999e+00	 4.687500000000000e+00	 1.023796471538460e+01
0	 5.437499999999999e+00	 4.749999999999999e+00	 1.023342420615385e+01
0	 5.437499999999999e+00	 4.812499999999999e+00	 1.022897712153846e+01
0	 5.437499999999999e+00	 4.874999999999998e+00	 1.022462346153844e+01
0	 5.437499999999999e+00	 4.937499999999999e+00	 1.022036322615384e+01
0	 5.437499999999998e+00	 4.999999999999999e+00	 1.021619641538461e+01
0	 5.499999999999998e+00	 4.375000000000000e+00	 1.025781840000000e+01
0	 5.499999999999999e+00	 4.437500000000001e+00	 1.025295398153845e+01
0	 5.499999999999997e+00	 4.499999999999999e+00	 1.024818541538461e+01
0	 5.499999999999998e+00	 4.562500000000000e+00	 1.024351270153845e+01
0	 5.499999999999998e+00	 4.624999999999999e+00	 1.023893584000000e+01
0	 5.499999999999997e+00	 4.687499999999998e+00	 1.023445483076923e+01
0	 5.499999999999998e+00	 4.749999999999999e+00	 1.023006967384614e+01
0	 5.499999999999998e+00	 4.812499999999998e+00	 1.022578036923077e+01
0	 5.499999999999999e+00	 4.874999999999999e+00	 1.022158691692306e+01
0	 5.499999999999999e+00	 4.937499999999998e+00	 1.021748931692307e+01
0	 5.499999999999998e+00	 5.000000000000000e+00	 1.021348756923078e+01
0	 5.562499999999998e+00	 4.375000000000000e+00	 1.025341244615382e+01
0	 5.562499999999997e+00	 4.437500000000000e+00	 1.024868848461537e+01
0	 5.562499999999999e+00	 4.500000000000000e+00	 1.024406280307692e+01
0	 5.562499999999998e+00	 4.562500000000000e+00	 1.023953540153845e+01
0	 5.562499999999998e+00	 4.624999999999999e+00	 1.023510627999999e+01
0	 5.562499999999998e+00	 4.687499999999999e+00	 1.023077543846153e+01
0	 5.562499999999997e+00	 4.749999999999999e+00	 1.022654287692307e+01
0	 5.562499999999998e+00	 4.812499999999998e+00	 1.022240859538462e+01
0	 5.562499999999998e+00	 4.874999999999999e+00	 1.021837259384614e+01
0	 5.562499999999998e+00	 4.937499999999998e+00	 1.021443487230769e+01
0	 5.562499999999998e+00	 5.000000000000000e+00	 1.021059543076923e+01
0	 5.625000000000000e+00	 4.375000000000000e+00	 1.024885076923076e+01
0	 5.625000000000000e+00	 4.437499999999999e+00	 1.024426450769228e+01
0	 5.625000000000001e+00	 4.500000000000001e+00	 1.023977895384614e+01
0	 5.625000000000000e+00	 4.562499999999999e+00	 1.023539410769231e+01
0	 5.625000000000000e+00	 4.625000000000000e+00	 1.023110996923076e+01
0	 5.625000000000000e+00	 4.687499999999999e+00	 1.022692653846153e+01
0	 5.625000000000000e+00	 4.749999999999999e+00	 1.022284381538461e+01
0	 5.624999999999999e+00	 4.812499999999998e+00	 1.021886180000000e+01
0	 5.624999999999999e+00	 4.874999999999998e+00	 1.021498049230768e+01
0	 5.625000000000000e+00	 4.937499999999998e+00	 1.021119989230768e+01
0	 5.625000000000000e+00	 5.000000000000000e+00	 1.020752000000000e+01
0	 5.000000000000000e+00	 5.000000000000000e+00	 1.023002615384615e+01
0	 4.999999999999999e+00	 5.062500000000000e+00	 1.022449918461539e+01
0	 5.000000000000001e+00	 5.125000000000001e+00	 1.021900904615385e+01
0	 4.999999999999999e+00	 5.187499999999999e+00	 1.021355573846152e+01
0	 5.000000000000000e+00	 5.249999999999999e+00	 1.020813926153845e+01
0	 4.999999999999999e+00	 5.312499999999999e+00	 1.020275961538461e+01
0	 5.000000000000000e+00	 5.374999999999998e+00	 1.019741679999999e+01
0	 4.999999999999999e+00	 5.437499999999998e+00	 1.019211081538461e+01
0	 5.000000000000000e+00	 5.499999999999998e+00	 1.018684166153846e+01
0	 5.000000000000000e+00	 5.562499999999998e+00	 1.018160933846153e+01
0	 5.000000000000000e+00	 5.625000000000000e+00	 1.017641384615384e+01
0	 5.062500000000000e+00	 4.999999999999999e+00	 1.022860035384614e+01
0	 5.062499999999999e+00	 5.062500000000000e+00	 1.022320542307691e+01
0	 5.062499999999999e+00	 5.125000000000000e+00	 1.021784819999999e+01
0	 5.062500000000001e+00	 5.187499999999999e+00	 1.021252868461539e+01
0	 5.062500000000000e+00	 5.249999999999998e+00	 1.020724687692308e+01
0	 5.062500000000002e+00	 5.312500000000000e+00	 1.020200277692307e+01
0	 5.062500000000001e+00	 5.374999999999999e+00	 1.019679638461538e+01
0	 5.062500000000002e+00	 5.437499999999999e+00	 1.019162770000000e+01
0	 5.062500000000002e+00	 5.499999999999999e+00	 1.018649672307692e+01
0	 5.062499999999999e+00	 5.562499999999996e+00	 1.018140345384616e+01
0	 5.062500000000000e+00	 5.625000000000000e+00	 1.017634789230769e+01
0	 5.124999999999999e+00	 5.000000000000000e+00	 1.022699126153846e+01
0	 5.125000000000000e+00	 5.062499999999999e+00	 1.022172492307692e+01
0	 5.124999999999999e+00	 5.125000000000001e+00	 1.021649716923076e+01
0	 5.124999999999998e+00	 5.187499999999998e+00	 1.021130800000000e+01
0	 5.125000000000000e+00	 5.249999999999999e+00	 1.020615741538462e+01
0	 5.124999999999999e+00	 5.312499999999999e+00	 1.020104541538460e+01
0	 5.125000000000000e+00	 5.374999999999999e+00	 1.019597200000000e+01
0	 5.125000000000000e+00	 5.437499999999999e+00	 1.019093716923078e+01
0	 5.124999999999998e+00	 5.499999999999998e+00	 1.018594092307692e+01
0	 5.125000000000000e+00	 5.562499999999999e+00	 1.018098326153845e+01
0	 5.124999999999999e+00	 5.625000000000000e+00	 1.017606418461539e+01
0	 5.187500000000000e+00	 4.999999999999999e+00	 1.022519887692307e+01
0	 5.187500000000000e+00	 5.062500000000001e+00	 1.022005768461537e+01
0	 5.187500000000000e+00	 5.125000000000000e+00	 1.021495595384615e+01
0	 5.187500000000001e+00	 5.187499999999999e+00	 1.020989368461538e+01
0	 5.187499999999999e+00	 5.250000000000000e+00	 1.020487087692307e+01
0	 5.187500000000000e+00	 5.312499999999999e+00	 1.019988753076922e+01
0	 5.187500000000000e+00	 5.374999999999998e+00	 1.019494364615384e+01
0	 5.187499999999999e+00	 5.437499999999999e+00	 1.019003922307693e+01
0	 5.187500000000000e+00	 5.499999999999998e+00	 1.018517426153846e+01
0	 5.187499999999999e+00	 5.562499999999997e+00	 1.018034876153846e+01
0	 5.187500000000000e+00	 5.625000000000000e+00	 1.017556272307691e+01
0	 5.249999999999998e+00	 5.000000000000000e+00	 1.022322319999999e+01
0	 5.249999999999999e+00	 5.062500000000000e+00	 1.021820370769229e+01
0	 5.250000000000000e+00	 5.125000000000000e+00	 1.021322455384614e+01
0	 5.249999999999999e+00	 5.187500000000000e+00	 1.020828573846152e+01
0	 5.249999999999998e+00	 5.249999999999999e+00	 1.020338726153845e+01
0	 5.250000000000000e+00	 5.312499999999999e+00	 1.019852912307692e+01
0	 5.249999999999999e+00	 5.374999999999998e+00	 1.019371132307691e+01
0	 5.249999999999999e+00	 5.437499999999999e+00	 1.018893386153847e+01
0	 5.249999999999998e+00	 5.499999999999999e+00	 1.018419673846154e+01
0	 5.249999999999999e+00	 5.562499999999998e+00	 1.017949995384615e+01
0	 5.249999999999998e+00	 5.625000000000000e+00	 1.017484350769230e+01
0	 5.312499999999999e+00	 5.000000000000000e+00	 1.022106423076923e+01
0	 5.312499999999999e+00	 5.062500000000000e+00	 1.021616299230769e+01
0	 5.312499999999999e+00	 5.124999999999999e+00	 1.021130296923076e+01
0	 5.312499999999999e+00	 5.187500000000000e+00	 1.020648416153845e+01
0	 5.312499999999998e+00	 5.249999999999998e+00	 1.020170656923075e+01
0	 5.312499999999999e+00	 5.312499999999999e+00	 1.019697019230768e+01
0	 5.312500000000000e+00	 5.375000000000000e+00	 1.019227503076922e+01
0	 5.312499999999999e+00	 5.437499999999998e+00	 1.018762108461539e+01
0	 5.312499999999998e+00	 5.499999999999998e+00	 1.018300835384614e+01
0	 5.312499999999999e+00	 5.562499999999999e+00	 1.017843683846153e+01
0	 5.312499999999999e+00	 5.625000000000000e+00	 1.017390653846152e+01
0	 5.374999999999998e+00	 5.000000000000001e+00	 1.021872196923078e+01
0	 5.374999999999999e+00	 5.062499999999999e+00	 1.021393553846153e+01
0	 5.374999999999998e+00	 5.125000000000000e+00	 1.020919119999999e+01
0	 5.374999999999999e+00	 5.187500000000000e+00	 1.020448895384614e+01
0	 5.375000000000000e+00	 5.250000000000001e+00	 1.019982879999998e+01
0	 5.375000000000000e+00	 5.312500000000001e+00	 1.019521073846154e+01
0	 5.374999999999999e+00	 5.374999999999999e+00	 1.019063476923077e+01
0	 5.374999999999999e+00	 5.437499999999999e+00	 1.018610089230770e+01
0	 5.374999999999999e+00	 5.499999999999998e+00	 1.018160910769230e+01
0	 5.374999999999998e+00	 5.562499999999998e+00	 1.017715941538463e+01
0	 5.374999999999998e+00	 5.625000000000000e+00	 1.017275181538462e+01
0	 5.437499999999998e+00	 4.999999999999999e+00	 1.021619641538461e+01
0	 5.437499999999998e+00	 5.062500000000000e+00	 1.021152134615383e+01
0	 5.437499999999999e+00	 5.125000000000000e+00	 1.020688924615382e+01
0	 5.437499999999999e+00	 5.187500000000000e+00	 1.020230011538461e+01
0	 5.437499999999999e+00	 5.250000000000000e+00	 1.019775395384616e+01
0	 5.437499999999999e+00	 5.312500000000000e+00	 1.019325076153847e+01
0	 5.437499999999999e+00	 5.374999999999999e+00	 1.018879053846153e+01
0	 5.437499999999999e+00	 5.437499999999998e+00	 1.018437328461538e+01
0	 5.437499999999999e+00	 5.499999999999998e+00	 1.017999900000000e+01
0	 5.437499999999999e+00	 5.562499999999999e+00	 1.017566768461539e+01
0	 5.437499999999998e+00	 5.625000000000000e+00	 1.017137933846153e+01
0	 5.499999999999998e+00	 5.000000000000000e+00	 1.021348756923078e+01
0	 5.499999999999999e+00	 5.062500000000002e+00	 1.020892041538462e+01
0	 5.499999999999997e+00	 5.124999999999999e+00	 1.020439710769231e+01
0	 5.499999999999998e+00	 5.187500000000000e+00	 1.019991764615385e+01
0	 5.499999999999998e+00	 5.249999999999998e+00	 1.019548203076923e+01
0	 5.499999999999997e+00	 5.312499999999999e+00	 1.019109026153846e+01
0	 5.499999999999998e+00	 5.374999999999998e+00	 1.018674233846154e+01
0	 5.499999999999998e+00	 5.437499999999998e+00	 1.018243826153845e+01
0	 5.499999999999999e+00	 5.499999999999999e+00	 1.017817803076924e+01
0	 5.499999999999999e+00	 5.562499999999998e+00	 1.017396164615385e+01
0	 5.499999999999998e+00	 5.625000000000000e+00	 1.016978910769232e+01
0	 5.562499999999998e+00	 5.000000000000000e+00	 1.021059543076923e+01
0	 5.562499999999997e+00	 5.062500000000000e+00	 1.020613274615384e+01
0	 5.562499999999999e+00	 5.125000000000001e+00	 1.020171478461539e+01
0	 5.562499999999998e+00	 5.187499999999999e+00	 1.019734154615384e+01
0	 5.562499999999998e+00	 5.249999999999999e+00	 1.019301303076923e+01
0	 5.562499999999998e+00	 5.312499999999998e+00	 1.018872923846154e+01
0	 5.562499999999997e+00	 5.374999999999997e+00	 1.018449016923076e+01
0	 5.562499999999998e+00	 5.437499999999998e+00	 1.018029582307693e+01
0	 5.562499999999998e+00	 5.499999999999999e+00	 1.017614620000002e+01
0	 5.562499999999998e+00	 5.562499999999998e+00	 1.017204129999999e+01
0	 5.562499999999998e+00	 5.625000000000000e+00	 1.016798112307692e+01
0	 5.625000000000000e+00	 5.000000000000000e+00	 1.020752000000000e+01
0	 5.625000000000000e+00	 5.062500000000000e+00	 1.020315833846155e+01
0	 5.625000000000001e+00	 5.125000000000001e+00	 1.019884227692308e+01
0	 5.625000000000000e+00	 5.187499999999999e+00	 1.019457181538461e+01
0	 5.625000000000000e+00	 5.249999999999999e+00	 1.019034695384615e+01
0	 5.625000000000000e+00	 5.312499999999999e+00	 1.018616769230770e+01
0	 5.625000000000000e+00	 5.374999999999998e+00	 1.018203403076923e+01
0	 5.624999999999999e+00	 5.437499999999998e+00	 1.017794596923077e+01
0	 5.624999999999999e+00	 5.499999999999998e+00	 1.017390350769231e+01
0	 5.625000000000000e+00	 5.562499999999998e+00	 1.016990664615384e+01
0	 5.625000000000000e+00	 5.625000000000000e+00	 1.016595538461539e+01
0	 5.000000000000000e+00	 5.625000000000000e+00	 1.017641384615384e+01
0	 4.999999999999999e+00	 5.687500000000000e+00	 1.017185173846153e+01
0	 5.000000000000001e+00	 5.750000000000000e+00	 1.016728326153845e+01
0	 4.999999999999999e+00	 5.812499999999999e+00	 1.016270841538462e+01
0	 5.000000000000000e+00	 5.874999999999999e+00	 1.015812719999999e+01
0	 4.999999999999999e+00	 5.937499999999999e+00	 1.015353961538461e+01
0	 5.000000000000000e+00	 5.999999999999998e+00	 1.014894566153847e+01
0	 4.999999999999999e+00	 6.062499999999998e+00	 1.014434533846154e+01
0	 5.000000000000000e+00	 6.124999999999998e+00	 1.013973864615385e+01
0	 5.000000000000000e+00	 6.187499999999998e+00	 1.013512558461538e+01
0	 5.000000000000000e+00	 6.250000000000000e+00	 1.013050615384615e+01
0	 5.062500000000000e+00	 5.625000000000000e+00	 1.017634789230769e+01
0	 5.062499999999999e+00	 5.687499999999999e+00	 1.017182973692308e+01
0	 5.062499999999999e+00	 5.749999999999999e+00	 1.016730760307692e+01
0	 5.062500000000001e+00	 5.812499999999998e+00	 1.016278149076923e+01
0	 5.062500000000000e+00	 5.875000000000000e+00	 1.015825140000000e+01
0	 5.062500000000002e+00	 5.937500000000001e+00	 1.015371733076922e+01
0	 5.062500000000001e+00	 5.999999999999999e+00	 1.014917928307691e+01
0	 5.062500000000002e+00	 6.062500000000000e+00	 1.014463725692307e+01
0	 5.062500000000002e+00	 6.125000000000000e+00	 1.014009125230768e+01
0	 5.062499999999999e+00	 6.187499999999996e+00	 1.013554126923077e+01
0	 5.062500000000000e+00	 6.250000000000000e+00	 1.013098730769230e+01
0	 5.124999999999999e+00	 5.625000000000000e+00	 1.017606418461539e+01
0	 5.125000000000000e+00	 5.687499999999999e+00	 1.017159291076923e+01
0	 5.124999999999999e+00	 5.750000000000002e+00	 1.016712004923077e+01
0	 5.124999999999998e+00	 5.812499999999999e+00	 1.016264560000000e+01
0	 5.125000000000000e+00	 5.874999999999998e+00	 1.015816956307692e+01
0	 5.124999999999999e+00	 5.937499999999999e+00	 1.015369193846154e+01
0	 5.125000000000000e+00	 5.999999999999998e+00	 1.014921272615384e+01
0	 5.125000000000000e+00	 6.062499999999999e+00	 1.014473192615384e+01
0	 5.124999999999998e+00	 6.124999999999998e+00	 1.014024953846152e+01
0	 5.125000000000000e+00	 6.187499999999998e+00	 1.013576556307691e+01
0	 5.124999999999999e+00	 6.250000000000000e+00	 1.013128000000000e+01
0	 5.187500000000000e+00	 5.625000000000000e+00	 1.017556272307691e+01
0	 5.187500000000000e+00	 5.687500000000000e+00	 1.017114125999999e+01
0	 5.187500000000000e+00	 5.749999999999999e+00	 1.016672059999999e+01
0	 5.187500000000001e+00	 5.812499999999999e+00	 1.016230074307692e+01
0	 5.187499999999999e+00	 5.875000000000000e+00	 1.015788168923077e+01
0	 5.187500000000000e+00	 5.937500000000000e+00	 1.015346343846153e+01
0	 5.187500000000000e+00	 5.999999999999998e+00	 1.014904599076923e+01
0	 5.187499999999999e+00	 6.062499999999998e+00	 1.014462934615385e+01
0	 5.187500000000000e+00	 6.124999999999997e+00	 1.014021350461538e+01
0	 5.187499999999999e+00	 6.187499999999997e+00	 1.013579846615386e+01
0	 5.187500000000000e+00	 6.250000000000000e+00	 1.013138423076924e+01
0	 5.249999999999998e+00	 5.625000000000000e+00	 1.017484350769230e+01
0	 5.249999999999999e+00	 5.687500000000000e+00	 1.017047478461538e+01
0	 5.250000000000000e+00	 5.750000000000000e+00	 1.016610925538463e+01
0	 5.249999999999999e+00	 5.812500000000000e+00	 1.016174692000000e+01
0	 5.249999999999998e+00	 5.874999999999999e+00	 1.015738777846153e+01
0	 5.250000000000000e+00	 5.937499999999999e+00	 1.015303183076924e+01
0	 5.249999999999999e+00	 5.999999999999997e+00	 1.014867907692307e+01
0	 5.249999999999999e+00	 6.062499999999998e+00	 1.014432951692308e+01
0	 5.249999999999998e+00	 6.124999999999999e+00	 1.013998315076923e+01
0	 5.249999999999999e+00	 6.187499999999998e+00	 1.013563997846154e+01
0	 5.249999999999998e+00	 6.250000000000000e+00	 1.013130000000000e+01
0	 5.312499999999999e+00	 5.625000000000000e+00	 1.017390653846152e+01
0	 5.312499999999999e+00	 5.687500000000000e+00	 1.016959348461540e+01
0	 5.312499999999999e+00	 5.750000000000000e+00	 1.016528601538461e+01
0	 5.312499999999999e+00	 5.812500000000000e+00	 1.016098413076923e+01
0	 5.312499999999998e+00	 5.874999999999998e+00	 1.015668783076923e+01
0	 5.312499999999999e+00	 5.937499999999998e+00	 1.015239711538463e+01
0	 5.312500000000000e+00	 6.000000000000000e+00	 1.014811198461538e+01
0	 5.312499999999999e+00	 6.062499999999998e+00	 1.014383243846152e+01
0	 5.312499999999998e+00	 6.124999999999998e+00	 1.013955847692308e+01
0	 5.312499999999999e+00	 6.187499999999999e+00	 1.013529010000000e+01
0	 5.312499999999999e+00	 6.250000000000000e+00	 1.013102730769232e+01
0	 5.374999999999998e+00	 5.625000000000000e+00	 1.017275181538462e+01
0	 5.374999999999999e+00	 5.687499999999999e+00	 1.016849736000000e+01
0	 5.374999999999998e+00	 5.750000000000000e+00	 1.016425087999999e+01
0	 5.374999999999999e+00	 5.812499999999999e+00	 1.016001237538460e+01
0	 5.375000000000000e+00	 5.875000000000001e+00	 1.015578184615385e+01
0	 5.375000000000000e+00	 5.937499999999999e+00	 1.015155929230770e+01
0	 5.374999999999999e+00	 5.999999999999998e+00	 1.014734471384615e+01
0	 5.374999999999999e+00	 6.062499999999999e+00	 1.014313811076923e+01
0	 5.374999999999999e+00	 6.124999999999998e+00	 1.013893948307691e+01
0	 5.374999999999998e+00	 6.187499999999998e+00	 1.013474883076921e+01
0	 5.374999999999998e+00	 6.250000000000000e+00	 1.013056615384615e+01
0	 5.437499999999998e+00	 5.625000000000000e+00	 1.017137933846153e+01
0	 5.437499999999998e+00	 5.687500000000000e+00	 1.016718641076921e+01
0	 5.437499999999999e+00	 5.750000000000000e+00	 1.016300384923076e+01
0	 5.437499999999999e+00	 5.812499999999999e+00	 1.015883165384616e+01
0	 5.437499999999999e+00	 5.874999999999999e+00	 1.015466982461539e+01
0	 5.437499999999999e+00	 5.937500000000001e+00	 1.015051836153847e+01
0	 5.437499999999999e+00	 5.999999999999999e+00	 1.014637726461539e+01
0	 5.437499999999999e+00	 6.062499999999999e+00	 1.014224653384617e+01
0	 5.437499999999999e+00	 6.124999999999999e+00	 1.013812616923077e+01
0	 5.437499999999999e+00	 6.187499999999999e+00	 1.013401617076921e+01
0	 5.437499999999998e+00	 6.250000000000000e+00	 1.012991653846153e+01
0	 5.499999999999998e+00	 5.625000000000000e+00	 1.016978910769232e+01
0	 5.499999999999999e+00	 5.687500000000000e+00	 1.016566063692308e+01
0	 5.499999999999997e+00	 5.750000000000000e+00	 1.016154492307692e+01
0	 5.499999999999998e+00	 5.812499999999999e+00	 1.015744196615384e+01
0	 5.499999999999998e+00	 5.875000000000000e+00	 1.015335176615385e+01
0	 5.499999999999997e+00	 5.937500000000000e+00	 1.014927432307693e+01
0	 5.499999999999998e+00	 5.999999999999998e+00	 1.014520963692308e+01
0	 5.499999999999998e+00	 6.062499999999998e+00	 1.014115770769231e+01
0	 5.499999999999999e+00	 6.124999999999999e+00	 1.013711853538461e+01
0	 5.499999999999999e+00	 6.187499999999998e+00	 1.013309212000000e+01
0	 5.499999999999998e+00	 6.250000000000000e+00	 1.012907846153846e+01
0	 5.562499999999998e+00	 5.625000000000000e+00	 1.016798112307692e+01
0	 5.562499999999997e+00	 5.687500000000000e+00	 1.016392003846154e+01
0	 5.562499999999999e+00	 5.750000000000000e+00	 1.015987410153846e+01
0	 5.562499999999998e+00	 5.812499999999999e+00	 1.015584331230769e+01
0	 5.562499999999998e+00	 5.875000000000000e+00	 1.015182767076923e+01
0	 5.562499999999998e+00	 5.937499999999999e+00	 1.014782717692307e+01
0	 5.562499999999997e+00	 5.999999999999998e+00	 1.014384183076923e+01
0	 5.562499999999998e+00	 6.062499999999998e+00	 1.013987163230771e+01
0	 5.562499999999998e+00	 6.124999999999998e+00	 1.013591658153846e+01
0	 5.562499999999998e+00	 6.187499999999997e+00	 1.013197667846154e+01
0	 5.562499999999998e+00	 6.250000000000000e+00	 1.012805192307692e+01
0	 5.625000000000000e+00	 5.625000000000000e+00	 1.016595538461539e+01
0	 5.625000000000000e+00	 5.687500000000000e+00	 1.016196461538461e+01
0	 5.625000000000001e+00	 5.750000000000000e+00	 1.015799138461538e+01
0	 5.625000000000000e+00	 5.812499999999999e+00	 1.015403569230770e+01
0	 5.625000000000000e+00	 5.874999999999999e+00	 1.015009753846154e+01
0	 5.625000000000000e+00	 5.937499999999999e+00	 1.014617692307693e+01
0	 5.625000000000000e+00	 5.999999999999998e+00	 1.014227384615386e+01
0	 5.624999999999999e+00	 6.062499999999998e+00	 1.013838830769231e+01
0	 5.624999999999999e+00	 6.124999999999998e+00	 1.013452030769230e+01
0	 5.625000000000000e+00	 6.187499999999998e+00	 1.013066984615384e+01
0	 5.625000000000000e+00	 6.250000000000000e+00	 1.012683692307692e+01
0	 5.000000000000000e+00	 6.250000000000000e+00	 1.013050615384615e+01
0	 4.999999999999999e+00	 6.312500000000000e+00	 1.012676099999999e+01
0	 5.000000000000001e+00	 6.375000000000000e+00	 1.012299600000000e+01
0	 4.999999999999999e+00	 6.437499999999999e+00	 1.011921115384614e+01
0	 5.000000000000000e+00	 6.499999999999999e+00	 1.011540646153845e+01
0	 4.999999999999999e+00	 6.562499999999998e+00	 1.011158192307693e+01
0	 5.000000000000000e+00	 6.624999999999998e+00	 1.010773753846152e+01
0	 4.999999999999999e+00	 6.687499999999998e+00	 1.010387330769229e+01
0	 5.000000000000000e+00	 6.749999999999998e+00	 1.009998923076922e+01
0	 5.000000000000000e+00	 6.812499999999998e+00	 1.009608530769230e+01
0	 5.000000000000000e+00	 6.875000000000000e+00	 1.009216153846153e+01
0	 5.062500000000000e+00	 6.250000000000000e+00	 1.013098730769230e+01
0	 5.062499999999999e+00	 6.312500000000000e+00	 1.012725946153844e+01
0	 5.062499999999999e+00	 6.374999999999999e+00	 1.012351295076922e+01
0	 5.062500000000001e+00	 6.437500000000000e+00	 1.011974777538462e+01
0	 5.062500000000000e+00	 6.499999999999997e+00	 1.011596393538462e+01
0	 5.062500000000002e+00	 6.562500000000000e+00	 1.011216143076923e+01
0	 5.062500000000001e+00	 6.624999999999999e+00	 1.010834026153846e+01
0	 5.062500000000002e+00	 6.687499999999999e+00	 1.010450042769232e+01
0	 5.062500000000002e+00	 6.749999999999999e+00	 1.010064192923077e+01
0	 5.062499999999999e+00	 6.812499999999996e+00	 1.009676476615383e+01
0	 5.062500000000000e+00	 6.875000000000001e+00	 1.009286893846154e+01
0	 5.124999999999999e+00	 6.250000000000000e+00	 1.013128000000000e+01
0	 5.125000000000000e+00	 6.312499999999999e+00	 1.012757243384616e+01
0	 5.124999999999999e+00	 6.375000000000000e+00	 1.012384738461539e+01
0	 5.124999999999998e+00	 6.437499999999998e+00	 1.012010485230768e+01
0	 5.125000000000000e+00	 6.499999999999996e+00	 1.011634483692307e+01
0	 5.124999999999999e+00	 6.562499999999998e+00	 1.011256733846153e+01
0	 5.125000000000000e+00	 6.624999999999996e+00	 1.010877235692308e+01
0	 5.125000000000000e+00	 6.687499999999999e+00	 1.010495989230769e+01
0	 5.124999999999998e+00	 6.749999999999997e+00	 1.010112994461537e+01
0	 5.125000000000000e+00	 6.812500000000000e+00	 1.009728251384614e+01
0	 5.124999999999999e+00	 6.875000000000000e+00	 1.009341760000000e+01
0	 5.187500000000000e+00	 6.250000000000000e+00	 1.013138423076924e+01
0	 5.187500000000000e+00	 6.312499999999999e+00	 1.012769991692309e+01
0	 5.187500000000000e+00	 6.375000000000000e+00	 1.012399930153846e+01
0	 5.187500000000001e+00	 6.437500000000000e+00	 1.012028238461536e+01
0	 5.187499999999999e+00	 6.499999999999998e+00	 1.011654916615384e+01
0	 5.187500000000000e+00	 6.562499999999999e+00	 1.011279964615384e+01
0	 5.187500000000000e+00	 6.624999999999999e+00	 1.010903382461537e+01
0	 5.187499999999999e+00	 6.687499999999998e+00	 1.010525170153846e+01
0	 5.187500000000000e+00	 6.749999999999998e+00	 1.010145327692305e+01
0	 5.187499999999999e+00	 6.812499999999997e+00	 1.009763855076924e+01
0	 5.187500000000000e+00	 6.874999999999999e+00	 1.009380752307693e+01
0	 5.249999999999998e+00	 6.250000000000000e+00	 1.013130000000000e+01
0	 5.249999999999999e+00	 6.312499999999999e+00	 1.012764191076922e+01
0	 5.250000000000000e+00	 6.375000000000000e+00	 1.012396870153847e+01
0	 5.249999999999999e+00	 6.437499999999999e+00	 1.012028037230769e+01
0	 5.249999999999998e+00	 6.499999999999997e+00	 1.011657692307691e+01
0	 5.250000000000000e+00	 6.562499999999999e+00	 1.011285835384615e+01
0	 5.249999999999999e+00	 6.624999999999998e+00	 1.010912466461537e+01
0	 5.249999999999999e+00	 6.687499999999998e+00	 1.010537585538461e+01
0	 5.249999999999998e+00	 6.749999999999998e+00	 1.010161192615384e+01
0	 5.249999999999999e+00	 6.812499999999998e+00	 1.009783287692308e+01
0	 5.249999999999998e+00	 6.875000000000001e+00	 1.009403870769229e+01
0	 5.312499999999999e+00	 6.250000000000000e+00	 1.013102730769232e+01
0	 5.312499999999999e+00	 6.312500000000000e+00	 1.012739841538462e+01
0	 5.312499999999999e+00	 6.375000000000000e+00	 1.012375558461536e+01
0	 5.312499999999999e+00	 6.437499999999999e+00	 1.012009881538462e+01
0	 5.312499999999998e+00	 6.499999999999997e+00	 1.011642810769230e+01
0	 5.312499999999999e+00	 6.562499999999999e+00	 1.011274346153846e+01
0	 5.312500000000000e+00	 6.625000000000000e+00	 1.010904487692306e+01
0	 5.312499999999999e+00	 6.687499999999999e+00	 1.010533235384616e+01
0	 5.312499999999998e+00	 6.749999999999999e+00	 1.010160589230768e+01
0	 5.312499999999999e+00	 6.812499999999998e+00	 1.009786549230767e+01
0	 5.312499999999999e+00	 6.875000000000000e+00	 1.009411115384614e+01
0	 5.374999999999998e+00	 6.250000000000000e+00	 1.013056615384615e+01
0	 5.374999999999999e+00	 6.312499999999999e+00	 1.012696943076924e+01
0	 5.374999999999998e+00	 6.374999999999997e+00	 1.012335995076922e+01
0	 5.374999999999999e+00	 6.437499999999999e+00	 1.011973771384615e+01
0	 5.375000000000000e+00	 6.500000000000000e+00	 1.011610271999999e+01
0	 5.375000000000000e+00	 6.562500000000001e+00	 1.011245496923077e+01
0	 5.374999999999999e+00	 6.624999999999998e+00	 1.010879446153846e+01
0	 5.374999999999999e+00	 6.687499999999999e+00	 1.010512119692307e+01
0	 5.374999999999999e+00	 6.749999999999999e+00	 1.010143517538459e+01
0	 5.374999999999998e+00	 6.812499999999998e+00	 1.009773639692306e+01
0	 5.374999999999998e+00	 6.875000000000000e+00	 1.009402486153844e+01
0	 5.437499999999998e+00	 6.250000000000000e+00	 1.012991653846153e+01
0	 5.437499999999998e+00	 6.312499999999999e+00	 1.012635495692307e+01
0	 5.437499999999999e+00	 6.375000000000001e+00	 1.012278180000000e+01
0	 5.437499999999999e+00	 6.437499999999999e+00	 1.011919706769230e+01
0	 5.437499999999999e+00	 6.500000000000000e+00	 1.011560076000000e+01
0	 5.437499999999999e+00	 6.562499999999999e+00	 1.011199287692308e+01
0	 5.437499999999999e+00	 6.624999999999999e+00	 1.010837341846153e+01
0	 5.437499999999999e+00	 6.687499999999999e+00	 1.010474238461539e+01
0	 5.437499999999999e+00	 6.749999999999998e+00	 1.010109977538462e+01
0	 5.437499999999999e+00	 6.812499999999999e+00	 1.009744559076923e+01
0	 5.437499999999998e+00	 6.875000000000000e+00	 1.009377983076925e+01
0	 5.499999999999998e+00	 6.250000000000000e+00	 1.012907846153846e+01
0	 5.499999999999999e+00	 6.312500000000001e+00	 1.012555499384615e+01
0	 5.499999999999997e+00	 6.374999999999999e+00	 1.012202113230770e+01
0	 5.499999999999998e+00	 6.437500000000000e+00	 1.011847687692307e+01
0	 5.499999999999998e+00	 6.499999999999999e+00	 1.011492222769231e+01
0	 5.499999999999997e+00	 6.562499999999999e+00	 1.011135718461538e+01
0	 5.499999999999998e+00	 6.624999999999998e+00	 1.010778174769231e+01
0	 5.499999999999998e+00	 6.687499999999998e+00	 1.010419591692308e+01
0	 5.499999999999999e+00	 6.749999999999998e+00	 1.010059969230767e+01
0	 5.499999999999999e+00	 6.812499999999998e+00	 1.009699307384616e+01
0	 5.499999999999998e+00	 6.875000000000000e+00	 1.009337606153847e+01
0	 5.562499999999998e+00	 6.250000000000000e+00	 1.012805192307692e+01
0	 5.562499999999997e+00	 6.312500000000000e+00	 1.012456954153848e+01
0	 5.562499999999999e+00	 6.375000000000000e+00	 1.012107794769229e+01
0	 5.562499999999998e+00	 6.437499999999999e+00	 1.011757714153845e+01
0	 5.562499999999998e+00	 6.499999999999998e+00	 1.011406712307692e+01
0	 5.562499999999998e+00	 6.562499999999998e+00	 1.011054789230768e+01
0	 5.562499999999997e+00	 6.624999999999998e+00	 1.010701944923076e+01
0	 5.562499999999998e+00	 6.687499999999998e+00	 1.010348179384615e+01
0	 5.562499999999998e+00	 6.749999999999999e+00	 1.009993492615383e+01
0	 5.562499999999998e+00	 6.812499999999997e+00	 1.009637884615385e+01
0	 5.562499999999998e+00	 6.875000000000000e+00	 1.009281355384615e+01
0	 5.625000000000000e+00	 6.250000000000000e+00	 1.012683692307692e+01
0	 5.625000000000000e+00	 6.312500000000000e+00	 1.012339859999999e+01
0	 5.625000000000001e+00	 6.375000000000000e+00	 1.011995224615384e+01
0	 5.625000000000000e+00	 6.437499999999999e+00	 1.011649786153845e+01
0	 5.625000000000000e+00	 6.499999999999999e+00	 1.011303544615384e+01
0	 5.625000000000000e+00	 6.562499999999998e+00	 1.010956500000001e+01
0	 5.625000000000000e+00	 6.624999999999998e+00	 1.010608652307691e+01
0	 5.624999999999999e+00	 6.687499999999998e+00	 1.010260001538462e+01
0	 5.624999999999999e+00	 6.749999999999998e+00	 1.009910547692307e+01
0	 5.625000000000000e+00	 6.812499999999998e+00	 1.009560290769230e+01
0	 5.625000000000000e+00	 6.875000000000000e+00	 1.009209230769231e+01
0	 5.000000000000000e+00	 6.875000000000000e+00	 1.009216153846153e+01
0	 4.999999999999999e+00	 6.937500000000000e+00	 1.008919043076923e+01
0	 5.000000000000001e+00	 7.000000000000000e+00	 1.008618664615382e+01
0	 4.999999999999999e+00	 7.062500000000000e+00	 1.008315018461539e+01
0	 5.000000000000000e+00	 7.125000000000000e+00	 1.008008104615384e+01
0	 4.999999999999999e+00	 7.187499999999998e+00	 1.007697923076922e+01
0	 5.000000000000000e+00	 7.249999999999998e+00	 1.007384473846156e+01
0	 4.999999999999999e+00	 7.312499999999998e+00	 1.007067756923077e+01
0	 5.000000000000000e+00	 7.374999999999998e+00	 1.006747772307692e+01
0	 5.000000000000000e+00	 7.437499999999998e+00	 1.006424520000000e+01
0	 5.000000000000000e+00	 7.500000000000000e+00	 1.006098000000001e+01
0	 5.062500000000000e+00	 6.875000000000001e+00	 1.009286893846154e+01
0	 5.062499999999999e+00	 6.937499999999999e+00	 1.008988711999997e+01
0	 5.062499999999999e+00	 6.999999999999999e+00	 1.008687359384617e+01
0	 5.062500000000001e+00	 7.062500000000000e+00	 1.008382836000001e+01
0	 5.062500000000000e+00	 7.124999999999998e+00	 1.008075141846155e+01
0	 5.062500000000002e+00	 7.187499999999999e+00	 1.007764276923077e+01
0	 5.062500000000001e+00	 7.250000000000000e+00	 1.007450241230770e+01
0	 5.062500000000002e+00	 7.312499999999999e+00	 1.007133034769231e+01
0	 5.062500000000002e+00	 7.374999999999999e+00	 1.006812657538464e+01
0	 5.062499999999999e+00	 7.437499999999996e+00	 1.006489109538463e+01
0	 5.062500000000000e+00	 7.500000000000000e+00	 1.006162390769231e+01
0	 5.124999999999999e+00	 6.875000000000000e+00	 1.009341760000000e+01
0	 5.125000000000000e+00	 6.937499999999999e+00	 1.009042914153845e+01
0	 5.124999999999999e+00	 7.000000000000001e+00	 1.008740994461537e+01
0	 5.124999999999998e+00	 7.062499999999999e+00	 1.008436000923077e+01
0	 5.125000000000000e+00	 7.124999999999998e+00	 1.008127933538460e+01
0	 5.124999999999999e+00	 7.187499999999999e+00	 1.007816792307692e+01
0	 5.125000000000000e+00	 7.249999999999996e+00	 1.007502577230770e+01
0	 5.125000000000000e+00	 7.312499999999998e+00	 1.007185288307693e+01
0	 5.124999999999998e+00	 7.374999999999997e+00	 1.006864925538462e+01
0	 5.125000000000000e+00	 7.437500000000000e+00	 1.006541488923077e+01
0	 5.124999999999999e+00	 7.499999999999999e+00	 1.006214978461537e+01
0	 5.187500000000000e+00	 6.874999999999999e+00	 1.009380752307693e+01
0	 5.187500000000000e+00	 6.937499999999999e+00	 1.009081649538463e+01
0	 5.187500000000000e+00	 7.000000000000000e+00	 1.008779569846152e+01
0	 5.187500000000001e+00	 7.062500000000000e+00	 1.008474513230768e+01
0	 5.187499999999999e+00	 7.124999999999999e+00	 1.008166479692308e+01
0	 5.187500000000000e+00	 7.187499999999999e+00	 1.007855469230770e+01
0	 5.187500000000000e+00	 7.250000000000000e+00	 1.007541481846154e+01
0	 5.187499999999999e+00	 7.312499999999999e+00	 1.007224517538463e+01
0	 5.187500000000000e+00	 7.374999999999997e+00	 1.006904576307691e+01
0	 5.187499999999999e+00	 7.437499999999998e+00	 1.006581658153848e+01
0	 5.187500000000000e+00	 7.500000000000000e+00	 1.006255763076926e+01
0	 5.249999999999998e+00	 6.875000000000001e+00	 1.009403870769229e+01
0	 5.249999999999999e+00	 6.937499999999999e+00	 1.009104918153844e+01
0	 5.250000000000000e+00	 7.000000000000001e+00	 1.008803085538463e+01
0	 5.249999999999999e+00	 7.062500000000000e+00	 1.008498372923077e+01
0	 5.249999999999998e+00	 7.124999999999999e+00	 1.008190780307693e+01
0	 5.250000000000000e+00	 7.187499999999999e+00	 1.007880307692307e+01
0	 5.249999999999999e+00	 7.249999999999997e+00	 1.007566955076923e+01
0	 5.249999999999999e+00	 7.312499999999998e+00	 1.007250722461537e+01
0	 5.249999999999998e+00	 7.374999999999999e+00	 1.006931609846156e+01
0	 5.249999999999999e+00	 7.437499999999998e+00	 1.006609617230770e+01
0	 5.249999999999998e+00	 7.500000000000000e+00	 1.006284744615385e+01
0	 5.312499999999999e+00	 6.875000000000000e+00	 1.009411115384614e+01
0	 5.312499999999999e+00	 6.937500000000000e+00	 1.009112720000001e+01
0	 5.312499999999999e+00	 7.000000000000000e+00	 1.008811541538463e+01
0	 5.312499999999999e+00	 7.062500000000000e+00	 1.008507580000000e+01
0	 5.312499999999998e+00	 7.124999999999997e+00	 1.008200835384616e+01
0	 5.312499999999999e+00	 7.187499999999999e+00	 1.007891307692308e+01
0	 5.312500000000000e+00	 7.249999999999999e+00	 1.007578996923076e+01
0	 5.312499999999999e+00	 7.312499999999998e+00	 1.007263903076923e+01
0	 5.312499999999998e+00	 7.374999999999997e+00	 1.006946026153848e+01
0	 5.312499999999999e+00	 7.437499999999998e+00	 1.006625366153846e+01
0	 5.312499999999999e+00	 7.500000000000000e+00	 1.006301923076925e+01
0	 5.374999999999998e+00	 6.875000000000000e+00	 1.009402486153844e+01
0	 5.374999999999999e+00	 6.937500000000000e+00	 1.009105055076924e+01
0	 5.374999999999998e+00	 6.999999999999998e+00	 1.008804937846153e+01
0	 5.374999999999999e+00	 7.062500000000000e+00	 1.008502134461540e+01
0	 5.375000000000000e+00	 7.125000000000000e+00	 1.008196644923077e+01
0	 5.375000000000000e+00	 7.187500000000000e+00	 1.007888469230770e+01
0	 5.374999999999999e+00	 7.249999999999998e+00	 1.007577607384616e+01
0	 5.374999999999999e+00	 7.312499999999999e+00	 1.007264059384617e+01
0	 5.374999999999999e+00	 7.374999999999999e+00	 1.006947825230770e+01
0	 5.374999999999998e+00	 7.437499999999998e+00	 1.006628904923078e+01
0	 5.374999999999998e+00	 7.499999999999999e+00	 1.006307298461539e+01
0	 5.437499999999998e+00	 6.875000000000000e+00	 1.009377983076925e+01
0	 5.437499999999998e+00	 6.937499999999999e+00	 1.009081923384613e+01
0	 5.437499999999999e+00	 7.000000000000001e+00	 1.008783274461539e+01
0	 5.437499999999999e+00	 7.062499999999999e+00	 1.008482036307692e+01
0	 5.437499999999999e+00	 7.124999999999999e+00	 1.008178208923076e+01
0	 5.437499999999999e+00	 7.187500000000000e+00	 1.007871792307692e+01
0	 5.437499999999999e+00	 7.249999999999999e+00	 1.007562786461538e+01
0	 5.437499999999999e+00	 7.312500000000000e+00	 1.007251191384615e+01
0	 5.437499999999999e+00	 7.374999999999998e+00	 1.006937007076924e+01
0	 5.437499999999999e+00	 7.437499999999999e+00	 1.006620233538460e+01
0	 5.437499999999998e+00	 7.499999999999998e+00	 1.006300870769233e+01
0	 5.499999999999998e+00	 6.875000000000000e+00	 1.009337606153847e+01
0	 5.499999999999999e+00	 6.937500000000001e+00	 1.009043324923078e+01
0	 5.499999999999997e+00	 6.999999999999998e+00	 1.008746551384616e+01
0	 5.499999999999998e+00	 7.062500000000000e+00	 1.008447285538461e+01
0	 5.499999999999998e+00	 7.125000000000000e+00	 1.008145527384616e+01
0	 5.499999999999997e+00	 7.187500000000000e+00	 1.007841276923077e+01
0	 5.499999999999998e+00	 7.250000000000000e+00	 1.007534534153846e+01
0	 5.499999999999998e+00	 7.312499999999999e+00	 1.007225299076924e+01
0	 5.499999999999999e+00	 7.374999999999998e+00	 1.006913571692308e+01
0	 5.499999999999999e+00	 7.437499999999998e+00	 1.006599352000000e+01
0	 5.499999999999998e+00	 7.500000000000000e+00	 1.006282640000000e+01
0	 5.562499999999998e+00	 6.875000000000000e+00	 1.009281355384615e+01
0	 5.562499999999997e+00	 6.937500000000001e+00	 1.008989259692307e+01
0	 5.562499999999999e+00	 7.000000000000001e+00	 1.008694768615385e+01
0	 5.562499999999998e+00	 7.062500000000000e+00	 1.008397882153846e+01
0	 5.562499999999998e+00	 7.124999999999999e+00	 1.008098600307693e+01
0	 5.562499999999998e+00	 7.187499999999998e+00	 1.007796923076923e+01
0	 5.562499999999997e+00	 7.249999999999999e+00	 1.007492850461538e+01
0	 5.562499999999998e+00	 7.312499999999998e+00	 1.007186382461540e+01
0	 5.562499999999998e+00	 7.374999999999998e+00	 1.006877519076923e+01
0	 5.562499999999998e+00	 7.437499999999998e+00	 1.006566260307693e+01
0	 5.562499999999998e+00	 7.500000000000000e+00	 1.006252606153846e+01
0	 5.625000000000000e+00	 6.875000000000000e+00	 1.009209230769231e+01
0	 5.625000000000000e+00	 6.937500000000000e+00	 1.008919727692307e+01
0	 5.625000000000001e+00	 7.000000000000000e+00	 1.008627926153845e+01
0	 5.625000000000000e+00	 7.062500000000000e+00	 1.008333826153847e+01
0	 5.625000000000000e+00	 7.125000000000000e+00	 1.008037427692308e+01
0	 5.625000000000000e+00	 7.187499999999998e+00	 1.007738730769230e+01
0	 5.625000000000000e+00	 7.249999999999998e+00	 1.007437735384616e+01
0	 5.624999999999999e+00	 7.312499999999998e+00	 1.007134441538462e+01
0	 5.624999999999999e+00	 7.374999999999998e+00	 1.006828849230769e+01
0	 5.625000000000000e+00	 7.437499999999998e+00	 1.006520958461539e+01
0	 5.625000000000000e+00	 7.500000000000000e+00	 1.006210769230769e+01
0	 5.000000000000000e+00	 7.500000000000000e+00	 1.006098000000001e+01
0	 4.999999999999999e+00	 7.562500000000000e+00	 1.005866452307694e+01
0	 5.000000000000001e+00	 7.625000000000000e+00	 1.005630824615386e+01
0	 4.999999999999999e+00	 7.687499999999999e+00	 1.005391116923077e+01
0	 5.000000000000000e+00	 7.750000000000000e+00	 1.005147329230772e+01
0	 4.999999999999999e+00	 7.812499999999999e+00	 1.004899461538462e+01
0	 5.000000000000000e+00	 7.874999999999998e+00	 1.004647513846154e+01
0	 4.999999999999999e+00	 7.937499999999997e+00	 1.004391486153846e+01
0	 5.000000000000000e+00	 7.999999999999998e+00	 1.004131378461539e+01
0	 5.000000000000000e+00	 8.062499999999996e+00	 1.003867190769229e+01
0	 5.000000000000000e+00	 8.125000000000000e+00	 1.003598923076922e+01
0	 5.062500000000000e+00	 7.500000000000000e+00	 1.006162390769231e+01
0	 5.062499999999999e+00	 7.562499999999999e+00	 1.005929165230770e+01
0	 5.062499999999999e+00	 7.624999999999998e+00	 1.005691884615386e+01
0	 5.062500000000001e+00	 7.687499999999998e+00	 1.005450548923077e+01
0	 5.062500000000000e+00	 7.750000000000000e+00	 1.005205158153846e+01
0	 5.062500000000002e+00	 7.812500000000000e+00	 1.004955712307693e+01
0	 5.062500000000001e+00	 7.874999999999999e+00	 1.004702211384615e+01
0	 5.062500000000002e+00	 7.937499999999998e+00	 1.004444655384615e+01
0	 5.062500000000002e+00	 8.000000000000000e+00	 1.004183044307691e+01
0	 5.062499999999999e+00	 8.062499999999995e+00	 1.003917378153847e+01
0	 5.062500000000000e+00	 8.125000000000000e+00	 1.003647656923076e+01
0	 5.124999999999999e+00	 7.499999999999999e+00	 1.006214978461537e+01
0	 5.125000000000000e+00	 7.562500000000001e+00	 1.005980417538464e+01
0	 5.124999999999999e+00	 7.625000000000001e+00	 1.005741826461541e+01
0	 5.124999999999998e+00	 7.687500000000001e+00	 1.005499205230768e+01
0	 5.125000000000000e+00	 7.749999999999998e+00	 1.005252553846154e+01
0	 5.124999999999999e+00	 7.812499999999998e+00	 1.005001872307693e+01
0	 5.125000000000000e+00	 7.874999999999996e+00	 1.004747160615385e+01
0	 5.125000000000000e+00	 7.937499999999998e+00	 1.004488418769232e+01
0	 5.124999999999998e+00	 7.999999999999999e+00	 1.004225646769231e+01
0	 5.125000000000000e+00	 8.062499999999998e+00	 1.003958844615383e+01
0	 5.124999999999999e+00	 8.125000000000000e+00	 1.003688012307692e+01
0	 5.187500000000000e+00	 7.500000000000000e+00	 1.006255763076926e+01
0	 5.187500000000000e+00	 7.562500000000001e+00	 1.006020209230769e+01
0	 5.187500000000000e+00	 7.625000000000001e+00	 1.005780650153846e+01
0	 5.187500000000001e+00	 7.687500000000000e+00	 1.005537085846154e+01
0	 5.187499999999999e+00	 7.749999999999999e+00	 1.005289516307692e+01
0	 5.187500000000000e+00	 7.812499999999999e+00	 1.005037941538463e+01
0	 5.187500000000000e+00	 7.874999999999998e+00	 1.004782361538461e+01
0	 5.187499999999999e+00	 7.937499999999998e+00	 1.004522776307694e+01
0	 5.187500000000000e+00	 7.999999999999998e+00	 1.004259185846156e+01
0	 5.187499999999999e+00	 8.062499999999996e+00	 1.003991590153846e+01
0	 5.187500000000000e+00	 8.125000000000000e+00	 1.003719989230766e+01
0	 5.249999999999998e+00	 7.500000000000000e+00	 1.006284744615385e+01
0	 5.249999999999999e+00	 7.562500000000000e+00	 1.006048540307693e+01
0	 5.250000000000000e+00	 7.625000000000000e+00	 1.005808355692309e+01
0	 5.249999999999999e+00	 7.687500000000000e+00	 1.005564190769230e+01
0	 5.249999999999998e+00	 7.749999999999998e+00	 1.005316045538462e+01
0	 5.250000000000000e+00	 7.812500000000000e+00	 1.005063920000001e+01
0	 5.249999999999999e+00	 7.874999999999998e+00	 1.004807814153847e+01
0	 5.249999999999999e+00	 7.937499999999999e+00	 1.004547727999998e+01
0	 5.249999999999998e+00	 7.999999999999997e+00	 1.004283661538461e+01
0	 5.249999999999999e+00	 8.062500000000000e+00	 1.004015614769232e+01
0	 5.249999999999998e+00	 8.125000000000000e+00	 1.003743587692306e+01
0	 5.312499999999999e+00	 7.500000000000000e+00	 1.006301923076925e+01
0	 5.312499999999999e+00	 7.562499999999999e+00	 1.006065410769230e+01
0	 5.312499999999999e+00	 7.624999999999999e+00	 1.005824943076922e+01
0	 5.312499999999999e+00	 7.687500000000000e+00	 1.005580520000001e+01
0	 5.312499999999998e+00	 7.749999999999996e+00	 1.005332141538462e+01
0	 5.312499999999999e+00	 7.812499999999999e+00	 1.005079807692308e+01
0	 5.312500000000000e+00	 7.875000000000000e+00	 1.004823518461538e+01
0	 5.312499999999999e+00	 7.937499999999999e+00	 1.004563273846152e+01
0	 5.312499999999998e+00	 7.999999999999998e+00	 1.004299073846154e+01
0	 5.312499999999999e+00	 8.062500000000000e+00	 1.004030918461539e+01
0	 5.312499999999999e+00	 8.125000000000000e+00	 1.003758807692306e+01
0	 5.374999999999998e+00	 7.499999999999999e+00	 1.006307298461539e+01
0	 5.374999999999999e+00	 7.562500000000000e+00	 1.006070820615383e+01
0	 5.374999999999998e+00	 7.624999999999998e+00	 1.005830412307692e+01
0	 5.374999999999999e+00	 7.687499999999998e+00	 1.005586073538462e+01
0	 5.375000000000000e+00	 7.750000000000001e+00	 1.005337804307692e+01
0	 5.375000000000000e+00	 7.812500000000000e+00	 1.005085604615385e+01
0	 5.374999999999999e+00	 7.874999999999998e+00	 1.004829474461538e+01
0	 5.374999999999999e+00	 7.937499999999999e+00	 1.004569413846152e+01
0	 5.374999999999999e+00	 8.000000000000000e+00	 1.004305422769231e+01
0	 5.374999999999998e+00	 8.062499999999998e+00	 1.004037501230767e+01
0	 5.374999999999998e+00	 8.125000000000000e+00	 1.003765649230769e+01
0	 5.437499999999998e+00	 7.499999999999998e+00	 1.006300870769233e+01
0	 5.437499999999998e+00	 7.562500000000000e+00	 1.006064769846155e+01
0	 5.437499999999999e+00	 7.624999999999999e+00	 1.005824763384618e+01
0	 5.437499999999999e+00	 7.687500000000000e+00	 1.005580851384616e+01
0	 5.437499999999999e+00	 7.749999999999998e+00	 1.005333033846154e+01
0	 5.437499999999999e+00	 7.812500000000000e+00	 1.005081310769232e+01
0	 5.437499999999999e+00	 7.874999999999999e+00	 1.004825682153847e+01
0	 5.437499999999999e+00	 7.937500000000000e+00	 1.004566147999999e+01
0	 5.437499999999999e+00	 7.999999999999998e+00	 1.004302708307693e+01
0	 5.437499999999999e+00	 8.062500000000000e+00	 1.004035363076922e+01
0	 5.437499999999998e+00	 8.125000000000000e+00	 1.003764112307689e+01
0	 5.499999999999998e+00	 7.500000000000000e+00	 1.006282640000000e+01
0	 5.499999999999999e+00	 7.562500000000001e+00	 1.006047258461541e+01
0	 5.499999999999997e+00	 7.625000000000000e+00	 1.005807996307692e+01
0	 5.499999999999998e+00	 7.687500000000001e+00	 1.005564853538462e+01
0	 5.499999999999998e+00	 7.749999999999999e+00	 1.005317830153848e+01
0	 5.499999999999997e+00	 7.812499999999998e+00	 1.005066926153847e+01
0	 5.499999999999998e+00	 7.875000000000000e+00	 1.004812141538462e+01
0	 5.499999999999998e+00	 7.937499999999998e+00	 1.004553476307692e+01
0	 5.499999999999999e+00	 7.999999999999998e+00	 1.004290930461539e+01
0	 5.499999999999999e+00	 8.062500000000000e+00	 1.004024503999999e+01
0	 5.499999999999998e+00	 8.125000000000000e+00	 1.003754196923077e+01
0	 5.562499999999998e+00	 7.500000000000000e+00	 1.006252606153846e+01
0	 5.562499999999997e+00	 7.562500000000001e+00	 1.006018286461539e+01
0	 5.562499999999999e+00	 7.624999999999999e+00	 1.005780111076922e+01
0	 5.562499999999998e+00	 7.687499999999999e+00	 1.005538080000000e+01
0	 5.562499999999998e+00	 7.750000000000000e+00	 1.005292193230770e+01
0	 5.562499999999998e+00	 7.812499999999999e+00	 1.005042450769230e+01
0	 5.562499999999997e+00	 7.874999999999998e+00	 1.004788852615383e+01
0	 5.562499999999998e+00	 7.937499999999998e+00	 1.004531398769231e+01
0	 5.562499999999998e+00	 7.999999999999998e+00	 1.004270089230768e+01
0	 5.562499999999998e+00	 8.062499999999998e+00	 1.004004923999999e+01
0	 5.562499999999998e+00	 8.125000000000000e+00	 1.003735903076922e+01
0	 5.625000000000000e+00	 7.500000000000000e+00	 1.006210769230769e+01
0	 5.625000000000000e+00	 7.562500000000000e+00	 1.005977853846153e+01
0	 5.625000000000001e+00	 7.625000000000000e+00	 1.005741107692309e+01
0	 5.625000000000000e+00	 7.687499999999999e+00	 1.005500530769230e+01
0	 5.625000000000000e+00	 7.750000000000000e+00	 1.005256123076926e+01
0	 5.625000000000000e+00	 7.812499999999999e+00	 1.005007884615384e+01
0	 5.625000000000000e+00	 7.874999999999998e+00	 1.004755815384615e+01
0	 5.624999999999999e+00	 7.937499999999997e+00	 1.004499915384615e+01
0	 5.624999999999999e+00	 7.999999999999998e+00	 1.004240184615385e+01
0	 5.625000000000000e+00	 8.062499999999996e+00	 1.003976623076922e+01
0	 5.625000000000000e+00	 8.125000000000000e+00	 1.003709230769230e+01
0	 5.000000000000000e+00	 8.125000000000000e+00	 1.003598923076922e+01
0	 4.999999999999999e+00	 8.187500000000000e+00	 1.003430780000000e+01
0	 5.000000000000001e+00	 8.250000000000002e+00	 1.003257181538459e+01
0	 4.999999999999999e+00	 8.312500000000000e+00	 1.003078127692308e+01
0	 5.000000000000000e+00	 8.374999999999998e+00	 1.002893618461537e+01
0	 4.999999999999999e+00	 8.437500000000000e+00	 1.002703653846151e+01
0	 5.000000000000000e+00	 8.500000000000000e+00	 1.002508233846154e+01
0	 4.999999999999999e+00	 8.562499999999998e+00	 1.002307358461538e+01
0	 5.000000000000000e+00	 8.625000000000000e+00	 1.002101027692307e+01
0	 5.000000000000000e+00	 8.687499999999998e+00	 1.001889241538461e+01
0	 5.000000000000000e+00	 8.750000000000000e+00	 1.001672000000000e+01
0	 5.062500000000000e+00	 8.125000000000000e+00	 1.003647656923076e+01
0	 5.062499999999999e+00	 8.187500000000002e+00	 1.003477888615385e+01
0	 5.062499999999999e+00	 8.250000000000000e+00	 1.003302645538461e+01
0	 5.062500000000001e+00	 8.312499999999998e+00	 1.003121927692307e+01
0	 5.062500000000000e+00	 8.374999999999998e+00	 1.002935735076922e+01
0	 5.062500000000002e+00	 8.437500000000000e+00	 1.002744067692306e+01
0	 5.062500000000001e+00	 8.500000000000002e+00	 1.002546925538461e+01
0	 5.062500000000002e+00	 8.562500000000000e+00	 1.002344308615384e+01
0	 5.062500000000002e+00	 8.625000000000002e+00	 1.002136216923077e+01
0	 5.062499999999999e+00	 8.687499999999996e+00	 1.001922650461537e+01
0	 5.062500000000000e+00	 8.750000000000002e+00	 1.001703609230769e+01
0	 5.124999999999999e+00	 8.125000000000000e+00	 1.003688012307692e+01
0	 5.125000000000000e+00	 8.187499999999998e+00	 1.003516870769230e+01
0	 5.124999999999999e+00	 8.250000000000000e+00	 1.003340235076923e+01
0	 5.124999999999998e+00	 8.312500000000000e+00	 1.003158105230769e+01
0	 5.125000000000000e+00	 8.374999999999998e+00	 1.002970481230769e+01
0	 5.124999999999999e+00	 8.437499999999998e+00	 1.002777363076923e+01
0	 5.125000000000000e+00	 8.499999999999996e+00	 1.002578750769232e+01
0	 5.125000000000000e+00	 8.562500000000002e+00	 1.002374644307693e+01
0	 5.124999999999998e+00	 8.624999999999998e+00	 1.002165043692308e+01
0	 5.125000000000000e+00	 8.687499999999998e+00	 1.001949948923078e+01
0	 5.124999999999999e+00	 8.750000000000000e+00	 1.001729359999996e+01
0	 5.187500000000000e+00	 8.125000000000000e+00	 1.003719989230766e+01
0	 5.187500000000000e+00	 8.187500000000000e+00	 1.003547726461538e+01
0	 5.187500000000000e+00	 8.250000000000002e+00	 1.003369950153847e+01
0	 5.187500000000001e+00	 8.312499999999998e+00	 1.003186660307693e+01
0	 5.187499999999999e+00	 8.374999999999998e+00	 1.002997856923075e+01
0	 5.187500000000000e+00	 8.437500000000000e+00	 1.002803539999999e+01
0	 5.187500000000000e+00	 8.499999999999998e+00	 1.002603709538460e+01
0	 5.187499999999999e+00	 8.562500000000000e+00	 1.002398365538460e+01
0	 5.187500000000000e+00	 8.625000000000000e+00	 1.002187508000000e+01
0	 5.187499999999999e+00	 8.687499999999996e+00	 1.001971136923076e+01
0	 5.187500000000000e+00	 8.750000000000000e+00	 1.001749252307693e+01
0	 5.249999999999998e+00	 8.125000000000000e+00	 1.003743587692306e+01
0	 5.249999999999999e+00	 8.187499999999998e+00	 1.003570455692304e+01
0	 5.250000000000000e+00	 8.250000000000002e+00	 1.003391790769230e+01
0	 5.249999999999999e+00	 8.312500000000000e+00	 1.003207592923077e+01
0	 5.249999999999998e+00	 8.374999999999998e+00	 1.003017862153845e+01
0	 5.250000000000000e+00	 8.437500000000000e+00	 1.002822598461538e+01
0	 5.249999999999999e+00	 8.499999999999998e+00	 1.002621801846152e+01
0	 5.249999999999999e+00	 8.562499999999998e+00	 1.002415472307692e+01
0	 5.249999999999998e+00	 8.624999999999998e+00	 1.002203609846154e+01
0	 5.249999999999999e+00	 8.687499999999996e+00	 1.001986214461538e+01
0	 5.249999999999998e+00	 8.749999999999998e+00	 1.001763286153846e+01
0	 5.312499999999999e+00	 8.125000000000000e+00	 1.003758807692306e+01
0	 5.312499999999999e+00	 8.187499999999998e+00	 1.003585058461536e+01
0	 5.312499999999999e+00	 8.249999999999998e+00	 1.003405756923077e+01
0	 5.312499999999999e+00	 8.312500000000000e+00	 1.003220903076922e+01
0	 5.312499999999998e+00	 8.374999999999998e+00	 1.003030496923078e+01
0	 5.312499999999999e+00	 8.437499999999998e+00	 1.002834538461538e+01
0	 5.312500000000000e+00	 8.500000000000002e+00	 1.002633027692306e+01
0	 5.312499999999999e+00	 8.562499999999998e+00	 1.002425964615384e+01
0	 5.312499999999998e+00	 8.624999999999998e+00	 1.002213349230768e+01
0	 5.312499999999999e+00	 8.687500000000000e+00	 1.001995181538460e+01
0	 5.312499999999999e+00	 8.750000000000000e+00	 1.001771461538464e+01
0	 5.374999999999998e+00	 8.125000000000000e+00	 1.003765649230769e+01
0	 5.374999999999999e+00	 8.187500000000000e+00	 1.003591534769229e+01
0	 5.374999999999998e+00	 8.249999999999998e+00	 1.003411848615385e+01
0	 5.374999999999999e+00	 8.312500000000000e+00	 1.003226590769230e+01
0	 5.375000000000000e+00	 8.375000000000002e+00	 1.003035761230770e+01
0	 5.375000000000000e+00	 8.437500000000002e+00	 1.002839360000000e+01
0	 5.374999999999999e+00	 8.499999999999998e+00	 1.002637387076923e+01
0	 5.374999999999999e+00	 8.562500000000000e+00	 1.002429842461539e+01
0	 5.374999999999999e+00	 8.624999999999998e+00	 1.002216726153846e+01
0	 5.374999999999998e+00	 8.687499999999998e+00	 1.001998038153845e+01
0	 5.374999999999998e+00	 8.750000000000000e+00	 1.001773778461538e+01
0	 5.437499999999998e+00	 8.125000000000000e+00	 1.003764112307689e+01
0	 5.437499999999998e+00	 8.187500000000000e+00	 1.003589884615383e+01
0	 5.437499999999999e+00	 8.250000000000000e+00	 1.003410065846153e+01
0	 5.437499999999999e+00	 8.312500000000000e+00	 1.003224655999998e+01
0	 5.437499999999999e+00	 8.374999999999998e+00	 1.003033655076923e+01
0	 5.437499999999999e+00	 8.437500000000000e+00	 1.002837063076922e+01
0	 5.437499999999999e+00	 8.500000000000000e+00	 1.002634879999999e+01
0	 5.437499999999999e+00	 8.562499999999998e+00	 1.002427105846153e+01
0	 5.437499999999999e+00	 8.624999999999998e+00	 1.002213740615386e+01
0	 5.437499999999999e+00	 8.687500000000000e+00	 1.001994784307693e+01
0	 5.437499999999998e+00	 8.750000000000000e+00	 1.001770236923079e+01
0	 5.499999999999998e+00	 8.125000000000000e+00	 1.003754196923077e+01
0	 5.499999999999999e+00	 8.187500000000002e+00	 1.003580107999998e+01
0	 5.499999999999997e+00	 8.250000000000000e+00	 1.003400408615385e+01
0	 5.499999999999998e+00	 8.312500000000000e+00	 1.003215098769229e+01
0	 5.499999999999998e+00	 8.375000000000002e+00	 1.003024178461538e+01
0	 5.499999999999997e+00	 8.437500000000000e+00	 1.002827647692307e+01
0	 5.499999999999998e+00	 8.500000000000000e+00	 1.002625506461539e+01
0	 5.499999999999998e+00	 8.562499999999996e+00	 1.002417754769232e+01
0	 5.499999999999999e+00	 8.624999999999998e+00	 1.002204392615385e+01
0	 5.499999999999999e+00	 8.687499999999998e+00	 1.001985420000002e+01
0	 5.499999999999998e+00	 8.750000000000002e+00	 1.001760836923078e+01
0	 5.562499999999998e+00	 8.125000000000000e+00	 1.003735903076922e+01
0	 5.562499999999997e+00	 8.187500000000000e+00	 1.003562204923078e+01
0	 5.562499999999999e+00	 8.250000000000002e+00	 1.003382876923077e+01
0	 5.562499999999998e+00	 8.312499999999998e+00	 1.003197919076922e+01
0	 5.562499999999998e+00	 8.374999999999998e+00	 1.003007331384617e+01
0	 5.562499999999998e+00	 8.437499999999998e+00	 1.002811113846153e+01
0	 5.562499999999997e+00	 8.499999999999998e+00	 1.002609266461537e+01
0	 5.562499999999998e+00	 8.562499999999998e+00	 1.002401789230770e+01
0	 5.562499999999998e+00	 8.624999999999998e+00	 1.002188682153846e+01
0	 5.562499999999998e+00	 8.687499999999998e+00	 1.001969945230770e+01
0	 5.562499999999998e+00	 8.750000000000000e+00	 1.001745578461540e+01
0	 5.625000000000000e+00	 8.125000000000000e+00	 1.003709230769230e+01
0	 5.625000000000000e+00	 8.187500000000000e+00	 1.003536175384616e+01
0	 5.625000000000001e+00	 8.250000000000002e+00	 1.003357470769229e+01
0	 5.625000000000000e+00	 8.312500000000000e+00	 1.003173116923077e+01
0	 5.625000000000000e+00	 8.374999999999998e+00	 1.002983113846154e+01
0	 5.625000000000000e+00	 8.437500000000000e+00	 1.002787461538460e+01
0	 5.625000000000000e+00	 8.500000000000000e+00	 1.002586160000000e+01
0	 5.624999999999999e+00	 8.562499999999998e+00	 1.002379209230769e+01
0	 5.624999999999999e+00	 8.625000000000000e+00	 1.002166609230769e+01
0	 5.625000000000000e+00	 8.687499999999998e+00	 1.001948359999999e+01
0	 5.625000000000000e+00	 8.750000000000000e+00	 1.001724461538462e+01
0	 5.000000000000000e+00	 8.750000000000000e+00	 1.001672000000000e+01
0	 4.999999999999999e+00	 8.812500000000000e+00	 1.001571653846156e+01
0	 5.000000000000001e+00	 8.875000000000002e+00	 1.001463507692308e+01
0	 4.999999999999999e+00	 8.937499999999998e+00	 1.001347561538461e+01
0	 5.000000000000000e+00	 9.000000000000000e+00	 1.001223815384616e+01
0	 4.999999999999999e+00	 9.062500000000000e+00	 1.001092269230769e+01
0	 5.000000000000000e+00	 9.124999999999998e+00	 1.000952923076922e+01
0	 4.999999999999999e+00	 9.187499999999998e+00	 1.000805776923075e+01
0	 5.000000000000000e+00	 9.249999999999998e+00	 1.000650830769231e+01
0	 5.000000000000000e+00	 9.312499999999998e+00	 1.000488084615385e+01
0	 5.000000000000000e+00	 9.375000000000000e+00	 1.000317538461539e+01
0	 5.062500000000000e+00	 8.750000000000002e+00	 1.001703609230769e+01
0	 5.062499999999999e+00	 8.812499999999998e+00	 1.001602542461539e+01
0	 5.062499999999999e+00	 8.875000000000000e+00	 1.001493630461536e+01
0	 5.062500000000001e+00	 8.937500000000000e+00	 1.001376873230772e+01
0	 5.062500000000000e+00	 9.000000000000000e+00	 1.001252270769231e+01
0	 5.062500000000002e+00	 9.062500000000000e+00	 1.001119823076923e+01
0	 5.062500000000001e+00	 9.125000000000000e+00	 1.000979530153847e+01
0	 5.062500000000002e+00	 9.187499999999998e+00	 1.000831392000002e+01
0	 5.062500000000002e+00	 9.250000000000000e+00	 1.000675408615384e+01
0	 5.062499999999999e+00	 9.312499999999996e+00	 1.000511580000002e+01
0	 5.062500000000000e+00	 9.375000000000000e+00	 1.000339906153848e+01
0	 5.124999999999999e+00	 8.750000000000000e+00	 1.001729359999996e+01
0	 5.125000000000000e+00	 8.812500000000000e+00	 1.001627678153847e+01
0	 5.124999999999999e+00	 8.875000000000004e+00	 1.001518105846153e+01
0	 5.124999999999998e+00	 8.937500000000000e+00	 1.001400643076921e+01
0	 5.125000000000000e+00	 8.999999999999998e+00	 1.001275289846155e+01
0	 5.124999999999999e+00	 9.062500000000000e+00	 1.001142046153847e+01
0	 5.125000000000000e+00	 9.124999999999998e+00	 1.001000912000000e+01
0	 5.125000000000000e+00	 9.187500000000002e+00	 1.000851887384616e+01
0	 5.124999999999998e+00	 9.249999999999996e+00	 1.000694972307691e+01
0	 5.125000000000000e+00	 9.312499999999998e+00	 1.000530166769227e+01
0	 5.124999999999999e+00	 9.375000000000000e+00	 1.000357470769231e+01
0	 5.187500000000000e+00	 8.750000000000000e+00	 1.001749252307693e+01
0	 5.187500000000000e+00	 8.812500000000000e+00	 1.001647060923078e+01
0	 5.187500000000000e+00	 8.875000000000002e+00	 1.001536933846155e+01
0	 5.187500000000001e+00	 8.937500000000000e+00	 1.001418871076923e+01
0	 5.187499999999999e+00	 9.000000000000000e+00	 1.001292872615383e+01
0	 5.187500000000000e+00	 9.062499999999998e+00	 1.001158938461538e+01
0	 5.187500000000000e+00	 9.124999999999998e+00	 1.001017068615387e+01
0	 5.187499999999999e+00	 9.187500000000002e+00	 1.000867263076925e+01
0	 5.187500000000000e+00	 9.249999999999998e+00	 1.000709521846153e+01
0	 5.187499999999999e+00	 9.312499999999998e+00	 1.000543844923078e+01
0	 5.187500000000000e+00	 9.375000000000002e+00	 1.000370232307692e+01
0	 5.249999999999998e+00	 8.749999999999998e+00	 1.001763286153846e+01
0	 5.249999999999999e+00	 8.812500000000000e+00	 1.001660690769231e+01
0	 5.250000000000000e+00	 8.875000000000002e+00	 1.001550114461539e+01
0	 5.249999999999999e+00	 8.937500000000000e+00	 1.001431557230770e+01
0	 5.249999999999998e+00	 8.999999999999998e+00	 1.001305019076923e+01
0	 5.250000000000000e+00	 9.062500000000000e+00	 1.001170500000001e+01
0	 5.249999999999999e+00	 9.124999999999998e+00	 1.001028000000002e+01
0	 5.249999999999999e+00	 9.187500000000000e+00	 1.000877519076922e+01
0	 5.249999999999998e+00	 9.249999999999998e+00	 1.000719057230769e+01
0	 5.249999999999999e+00	 9.312500000000000e+00	 1.000552614461541e+01
0	 5.249999999999998e+00	 9.375000000000002e+00	 1.000378190769232e+01
0	 5.312499999999999e+00	 8.750000000000000e+00	 1.001771461538464e+01
0	 5.312499999999999e+00	 8.812500000000000e+00	 1.001668567692310e+01
0	 5.312499999999999e+00	 8.875000000000000e+00	 1.001557647692308e+01
0	 5.312499999999999e+00	 8.937500000000000e+00	 1.001438701538463e+01
0	 5.312499999999998e+00	 8.999999999999998e+00	 1.001311729230769e+01
0	 5.312499999999999e+00	 9.062500000000000e+00	 1.001176730769232e+01
0	 5.312500000000000e+00	 9.125000000000002e+00	 1.001033706153844e+01
0	 5.312499999999999e+00	 9.187499999999998e+00	 1.000882655384614e+01
0	 5.312499999999998e+00	 9.249999999999998e+00	 1.000723578461539e+01
0	 5.312499999999999e+00	 9.312500000000000e+00	 1.000556475384614e+01
0	 5.312499999999999e+00	 9.375000000000002e+00	 1.000381346153844e+01
0	 5.374999999999998e+00	 8.750000000000000e+00	 1.001773778461538e+01
0	 5.374999999999999e+00	 8.812500000000000e+00	 1.001670691692309e+01
0	 5.374999999999998e+00	 8.874999999999996e+00	 1.001559533538459e+01
0	 5.374999999999999e+00	 8.937499999999998e+00	 1.001440304000000e+01
0	 5.375000000000000e+00	 9.000000000000004e+00	 1.001313003076923e+01
0	 5.375000000000000e+00	 9.062500000000002e+00	 1.001177630769231e+01
0	 5.374999999999999e+00	 9.124999999999998e+00	 1.001034187076923e+01
0	 5.374999999999999e+00	 9.187500000000000e+00	 1.000882671999999e+01
0	 5.374999999999999e+00	 9.249999999999998e+00	 1.000723085538461e+01
0	 5.374999999999998e+00	 9.312499999999998e+00	 1.000555427692308e+01
0	 5.374999999999998e+00	 9.375000000000000e+00	 1.000379698461538e+01
0	 5.437499999999998e+00	 8.750000000000000e+00	 1.001770236923079e+01
0	 5.437499999999998e+00	 8.812499999999998e+00	 1.001667062769233e+01
0	 5.437499999999999e+00	 8.875000000000002e+00	 1.001555772000001e+01
0	 5.437499999999999e+00	 8.937500000000002e+00	 1.001436364615385e+01
0	 5.437499999999999e+00	 8.999999999999998e+00	 1.001308840615383e+01
0	 5.437499999999999e+00	 9.062500000000000e+00	 1.001173200000000e+01
0	 5.437499999999999e+00	 9.125000000000000e+00	 1.001029442769229e+01
0	 5.437499999999999e+00	 9.187500000000000e+00	 1.000877568923077e+01
0	 5.437499999999999e+00	 9.249999999999998e+00	 1.000717578461537e+01
0	 5.437499999999999e+00	 9.312500000000000e+00	 1.000549471384617e+01
0	 5.437499999999998e+00	 9.375000000000000e+00	 1.000373247692305e+01
0	 5.499999999999998e+00	 8.750000000000002e+00	 1.001760836923078e+01
0	 5.499999999999999e+00	 8.812500000000002e+00	 1.001657680923077e+01
0	 5.499999999999997e+00	 8.875000000000000e+00	 1.001546363076923e+01
0	 5.499999999999998e+00	 8.937500000000002e+00	 1.001426883384616e+01
0	 5.499999999999998e+00	 8.999999999999998e+00	 1.001299241846153e+01
0	 5.499999999999997e+00	 9.062499999999998e+00	 1.001163438461539e+01
0	 5.499999999999998e+00	 9.125000000000000e+00	 1.001019473230768e+01
0	 5.499999999999998e+00	 9.187499999999998e+00	 1.000867346153846e+01
0	 5.499999999999999e+00	 9.250000000000000e+00	 1.000707057230770e+01
0	 5.499999999999999e+00	 9.312499999999998e+00	 1.000538606461539e+01
0	 5.499999999999998e+00	 9.375000000000000e+00	 1.000361993846153e+01
0	 5.562499999999998e+00	 8.750000000000000e+00	 1.001745578461540e+01
0	 5.562499999999997e+00	 8.812500000000000e+00	 1.001642546153846e+01
0	 5.562499999999999e+00	 8.875000000000002e+00	 1.001531306769230e+01
0	 5.562499999999998e+00	 8.937500000000000e+00	 1.001411860307693e+01
0	 5.562499999999998e+00	 9.000000000000000e+00	 1.001284206769231e+01
0	 5.562499999999998e+00	 9.062500000000000e+00	 1.001148346153846e+01
0	 5.562499999999997e+00	 9.125000000000000e+00	 1.001004278461538e+01
0	 5.562499999999998e+00	 9.187499999999998e+00	 1.000852003692309e+01
0	 5.562499999999998e+00	 9.249999999999998e+00	 1.000691521846155e+01
0	 5.562499999999998e+00	 9.312499999999996e+00	 1.000522832923078e+01
0	 5.562499999999998e+00	 9.375000000000000e+00	 1.000345936923077e+01
0	 5.625000000000000e+00	 8.750000000000000e+00	 1.001724461538462e+01
0	 5.625000000000000e+00	 8.812500000000000e+00	 1.001621658461539e+01
0	 5.625000000000001e+00	 8.875000000000002e+00	 1.001510603076924e+01
0	 5.625000000000000e+00	 8.937499999999998e+00	 1.001391295384615e+01
0	 5.625000000000000e+00	 9.000000000000000e+00	 1.001263735384616e+01
0	 5.625000000000000e+00	 9.062500000000000e+00	 1.001127923076923e+01
0	 5.625000000000000e+00	 9.124999999999998e+00	 1.000983858461538e+01
0	 5.624999999999999e+00	 9.187499999999998e+00	 1.000831541538460e+01
0	 5.624999999999999e+00	 9.249999999999998e+00	 1.000670972307690e+01
0	 5.625000000000000e+00	 9.312499999999998e+00	 1.000502150769229e+01
0	 5.625000000000000e+00	 9.375000000000000e+00	 1.000325076923077e+01
0	 5.000000000000000e+00	 9.375000000000000e+00	 1.000317538461539e+01
0	 5.000000000000000e+00	 9.437499999999998e+00	 1.000315481538463e+01
0	 5.000000000000000e+00	 9.500000000000000e+00	 1.000301526153845e+01
0	 5.000000000000000e+00	 9.562500000000000e+00	 1.000275672307692e+01
0	 5.000000000000000e+00	 9.625000000000000e+00	 1.000237920000001e+01
0	 5.000000000000000e+00	 9.687499999999998e+00	 1.000188269230768e+01
0	 5.000000000000000e+00	 9.749999999999998e+00	 1.000126720000002e+01
0	 5.000000000000000e+00	 9.812500000000000e+00	 1.000053272307695e+01
0	 5.000000000000001e+00	 9.875000000000000e+00	 9.999679261538473e+00
0	 5.000000000000000e+00	 9.937499999999998e+00	 9.998706815384642e+00
0	 5.000000000000000e+00	 1.000000000000000e+01	 9.997615384615395e+00
0	 5.062500000000000e+00	 9.375000000000000e+00	 1.000339906153848e+01
0	 5.062500000000000e+00	 9.437500000000002e+00	 1.000338415846154e+01
0	 5.062499999999999e+00	 9.500000000000000e+00	 1.000324984615386e+01
0	 5.062499999999999e+00	 9.562500000000000e+00	 1.000299612461539e+01
0	 5.062500000000000e+00	 9.625000000000000e+00	 1.000262299384618e+01
0	 5.062500000000001e+00	 9.687500000000000e+00	 1.000213045384615e+01
0	 5.062500000000001e+00	 9.749999999999998e+00	 1.000151850461539e+01
0	 5.062500000000001e+00	 9.812499999999998e+00	 1.000078714615384e+01
0	 5.062500000000001e+00	 9.874999999999998e+00	 9.999936378461566e+00
0	 5.062499999999999e+00	 9.937499999999996e+00	 9.998966201538519e+00
0	 5.062500000000000e+00	 1.000000000000000e+01	 9.997876615384614e+00
0	 5.124999999999999e+00	 9.375000000000000e+00	 1.000357470769231e+01
0	 5.124999999999999e+00	 9.437499999999998e+00	 1.000356424307692e+01
0	 5.125000000000000e+00	 9.500000000000000e+00	 1.000343394461539e+01
0	 5.124999999999999e+00	 9.562500000000000e+00	 1.000318381230771e+01
0	 5.125000000000000e+00	 9.625000000000002e+00	 1.000281384615386e+01
0	 5.125000000000001e+00	 9.687500000000002e+00	 1.000232404615387e+01
0	 5.124999999999999e+00	 9.750000000000000e+00	 1.000171441230769e+01
0	 5.124999999999999e+00	 9.812500000000002e+00	 1.000098494461542e+01
0	 5.124999999999998e+00	 9.874999999999996e+00	 1.000013564307692e+01
0	 5.125000000000000e+00	 9.937500000000000e+00	 9.999166507692326e+00
0	 5.125000000000000e+00	 1.000000000000000e+01	 9.998077538461535e+00
0	 5.187500000000000e+00	 9.375000000000002e+00	 1.000370232307692e+01
0	 5.187499999999999e+00	 9.437500000000000e+00	 1.000369506923077e+01
0	 5.187499999999998e+00	 9.499999999999996e+00	 1.000356755692308e+01
0	 5.187500000000000e+00	 9.562500000000000e+00	 1.000331978615388e+01
0	 5.187499999999998e+00	 9.624999999999998e+00	 1.000295175692307e+01
0	 5.187499999999998e+00	 9.687500000000000e+00	 1.000246346923080e+01
0	 5.187499999999998e+00	 9.749999999999996e+00	 1.000185492307692e+01
0	 5.187500000000000e+00	 9.812499999999996e+00	 1.000112611846154e+01
0	 5.187499999999999e+00	 9.875000000000000e+00	 1.000027705538461e+01
0	 5.187499999999999e+00	 9.937499999999998e+00	 9.999307733846148e+00
0	 5.187499999999999e+00	 1.000000000000000e+01	 9.998218153846164e+00
0	 5.249999999999998e+00	 9.375000000000002e+00	 1.000378190769232e+01
0	 5.249999999999998e+00	 9.437500000000000e+00	 1.000377663692307e+01
0	 5.250000000000001e+00	 9.500000000000004e+00	 1.000365068307692e+01
0	 5.249999999999999e+00	 9.562500000000000e+00	 1.000340404615386e+01
0	 5.249999999999998e+00	 9.624999999999998e+00	 1.000303672615385e+01
0	 5.250000000000000e+00	 9.687499999999998e+00	 1.000254872307691e+01
0	 5.250000000000000e+00	 9.750000000000000e+00	 1.000194003692312e+01
0	 5.249999999999999e+00	 9.812499999999996e+00	 1.000121066769233e+01
0	 5.250000000000000e+00	 9.874999999999998e+00	 1.000036061538461e+01
0	 5.249999999999998e+00	 9.937499999999996e+00	 9.999389880000043e+00
0	 5.249999999999999e+00	 1.000000000000000e+01	 9.998298461538473e+00
0	 5.312499999999999e+00	 9.375000000000002e+00	 1.000381346153844e+01
0	 5.312499999999998e+00	 9.437499999999998e+00	 1.000380894615385e+01
0	 5.312499999999999e+00	 9.499999999999998e+00	 1.000368332307691e+01
0	 5.312499999999998e+00	 9.562500000000000e+00	 1.000343659230768e+01
0	 5.312499999999998e+00	 9.624999999999998e+00	 1.000306875384614e+01
0	 5.312499999999999e+00	 9.687500000000000e+00	 1.000257980769231e+01
0	 5.312499999999999e+00	 9.750000000000000e+00	 1.000196975384620e+01
0	 5.312499999999999e+00	 9.812499999999998e+00	 1.000123859230772e+01
0	 5.312500000000000e+00	 9.874999999999998e+00	 1.000038632307693e+01
0	 5.312499999999999e+00	 9.937499999999998e+00	 9.999412946153836e+00
0	 5.312499999999999e+00	 1.000000000000000e+01	 9.998318461538499e+00
0	 5.374999999999998e+00	 9.375000000000000e+00	 1.000379698461538e+01
0	 5.374999999999998e+00	 9.437499999999998e+00	 1.000379199692308e+01
0	 5.374999999999998e+00	 9.500000000000000e+00	 1.000366547692307e+01
0	 5.374999999999998e+00	 9.562500000000000e+00	 1.000341742461538e+01
0	 5.374999999999999e+00	 9.625000000000000e+00	 1.000304784000000e+01
0	 5.374999999999999e+00	 9.687499999999998e+00	 1.000255672307695e+01
0	 5.374999999999999e+00	 9.749999999999998e+00	 1.000194407384616e+01
0	 5.374999999999998e+00	 9.812499999999996e+00	 1.000120989230769e+01
0	 5.374999999999998e+00	 9.874999999999998e+00	 1.000035417846153e+01
0	 5.374999999999999e+00	 9.937499999999998e+00	 9.999376932307705e+00
0	 5.374999999999998e+00	 9.999999999999998e+00	 9.998278153846211e+00
0	 5.437499999999998e+00	 9.375000000000000e+00	 1.000373247692305e+01
0	 5.437499999999997e+00	 9.437499999999998e+00	 1.000372578923076e+01
0	 5.437499999999998e+00	 9.499999999999998e+00	 1.000359714461539e+01
0	 5.437499999999999e+00	 9.562500000000002e+00	 1.000334654307693e+01
0	 5.437499999999998e+00	 9.624999999999998e+00	 1.000297398461539e+01
0	 5.437499999999999e+00	 9.687500000000000e+00	 1.000247946923076e+01
0	 5.437499999999999e+00	 9.750000000000000e+00	 1.000186299692303e+01
0	 5.437499999999999e+00	 9.812500000000000e+00	 1.000112456769231e+01
0	 5.437499999999999e+00	 9.874999999999998e+00	 1.000026418153846e+01
0	 5.437499999999998e+00	 9.937499999999998e+00	 9.999281838461513e+00
0	 5.437499999999999e+00	 1.000000000000000e+01	 9.998177538461617e+00
0	 5.499999999999998e+00	 9.375000000000000e+00	 1.000361993846153e+01
0	 5.499999999999999e+00	 9.437500000000002e+00	 1.000361032307693e+01
0	 5.499999999999998e+00	 9.500000000000000e+00	 1.000347832615385e+01
0	 5.499999999999998e+00	 9.562500000000002e+00	 1.000322394769232e+01
0	 5.499999999999998e+00	 9.624999999999998e+00	 1.000284718769229e+01
0	 5.499999999999998e+00	 9.687499999999998e+00	 1.000234804615384e+01
0	 5.499999999999998e+00	 9.750000000000000e+00	 1.000172652307692e+01
0	 5.499999999999998e+00	 9.812499999999998e+00	 1.000098261846154e+01
0	 5.499999999999998e+00	 9.874999999999998e+00	 1.000011633230766e+01
0	 5.499999999999998e+00	 9.937499999999998e+00	 9.999127664615351e+00
0	 5.499999999999998e+00	 1.000000000000000e+01	 9.998016615384602e+00
0	 5.562499999999998e+00	 9.375000000000000e+00	 1.000345936923077e+01
0	 5.562499999999998e+00	 9.437500000000000e+00	 1.000344559846155e+01
0	 5.562499999999997e+00	 9.499999999999998e+00	 1.000330902153848e+01
0	 5.562499999999999e+00	 9.562500000000000e+00	 1.000304963846155e+01
0	 5.562499999999998e+00	 9.624999999999998e+00	 1.000266744923078e+01
0	 5.562499999999998e+00	 9.687499999999996e+00	 1.000216245384615e+01
0	 5.562499999999997e+00	 9.749999999999998e+00	 1.000153465230770e+01
0	 5.562499999999998e+00	 9.812499999999998e+00	 1.000078404461538e+01
0	 5.562499999999998e+00	 9.874999999999996e+00	 9.999910630769284e+00
0	 5.562499999999998e+00	 9.937499999999998e+00	 9.998914410769171e+00
0	 5.562499999999998e+00	 1.000000000000000e+01	 9.997795384615394e+00
0	 5.625000000000000e+00	 9.375000000000000e+00	 1.000325076923077e+01
0	 5.625000000000000e+00	 9.437499999999998e+00	 1.000323161538462e+01
0	 5.625000000000000e+00	 9.500000000000000e+00	 1.000308923076921e+01
0	 5.624999999999999e+00	 9.562500000000000e+00	 1.000282361538460e+01
0	 5.625000000000001e+00	 9.625000000000000e+00	 1.000243476923075e+01
0	 5.625000000000000e+00	 9.687499999999998e+00	 1.000192269230770e+01
0	 5.625000000000000e+00	 9.749999999999998e+00	 1.000128738461537e+01
0	 5.625000000000000e+00	 9.812500000000000e+00	 1.000052884615387e+01
0	 5.625000000000001e+00	 9.875000000000000e+00	 9.999647076923047e+00
0	 5.625000000000000e+00	 9.937499999999998e+00	 9.998642076923083e+00
0	 5.625000000000000e+00	 1.000000000000000e+01	 9.997513846153851e+00
0	 5.625000000000000e+00	 0.000000000000000e+00	 1.021020615384615e+01
0	 5.624999999999999e+00	 6.250000000000000e-02	 1.021279296923077e+01
0	 5.625000000000000e+00	 1.250000000000000e-01	 1.021512409230769e+01
0	 5.625000000000000e+00	 1.875000000000000e-01	 1.021719952307693e+01
0	 5.624999999999999e+00	 2.500000000000000e-01	 1.021901926153846e+01
0	 5.625000000000000e+00	 3.125000000000000e-01	 1.022058330769230e+01
0	 5.625000000000000e+00	 3.750000000000000e-01	 1.022189166153846e+01
0	 5.625000000000000e+00	 4.374999999999999e-01	 1.022294432307692e+01
0	 5.625000000000001e+00	 5.000000000000000e-01	 1.022374129230769e+01
0	 5.625000000000000e+00	 5.624999999999999e-01	 1.022428256923077e+01
0	 5.625000000000000e+00	 6.250000000000000e-01	 1.022456815384615e+01
0	 5.687499999999999e+00	 0.000000000000000e+00	 1.020467024000000e+01
0	 5.687499999999999e+00	 6.249999999999999e-02	 1.020710638046154e+01
0	 5.687499999999998e+00	 1.250000000000000e-01	 1.020928666246153e+01
0	 5.687500000000000e+00	 1.875000000000000e-01	 1.021121108600000e+01
0	 5.687499999999999e+00	 2.500000000000000e-01	 1.021287965107692e+01
0	 5.687499999999999e+00	 3.125000000000001e-01	 1.021429235769231e+01
0	 5.687499999999999e+00	 3.749999999999999e-01	 1.021544920584615e+01
0	 5.687500000000001e+00	 4.374999999999999e-01	 1.021635019553846e+01
0	 5.687500000000000e+00	 5.000000000000000e-01	 1.021699532676923e+01
0	 5.687500000000000e+00	 5.625000000000000e-01	 1.021738459953846e+01
0	 5.687500000000001e+00	 6.250000000000000e-01	 1.021751801384616e+01
0	 5.749999999999999e+00	 0.000000000000000e+00	 1.019901216000000e+01
0	 5.750000000000001e+00	 6.250000000000000e-02	 1.020131954953846e+01
0	 5.750000000000000e+00	 1.250000000000000e-01	 1.020337091446154e+01
0	 5.749999999999999e+00	 1.875000000000000e-01	 1.020516625476923e+01
0	 5.749999999999999e+00	 2.500000000000001e-01	 1.020670557046154e+01
0	 5.749999999999999e+00	 3.125000000000000e-01	 1.020798886153846e+01
0	 5.750000000000000e+00	 3.749999999999999e-01	 1.020901612800000e+01
0	 5.750000000000000e+00	 4.375000000000000e-01	 1.020978736984615e+01
0	 5.750000000000002e+00	 4.999999999999999e-01	 1.021030258707692e+01
0	 5.750000000000000e+00	 5.625000000000000e-01	 1.021056177969231e+01
0	 5.750000000000000e+00	 6.249999999999999e-01	 1.021056494769231e+01
0	 5.812499999999999e+00	 0.000000000000000e+00	 1.019323191384615e+01
0	 5.812499999999998e+00	 6.250000000000000e-02	 1.019543247646154e+01
0	 5.812499999999999e+00	 1.250000000000000e-01	 1.019737684830769e+01
0	 5.812500000000000e+00	 1.875000000000001e-01	 1.019906502938461e+01
0	 5.812500000000001e+00	 2.500000000000001e-01	 1.020049701969231e+01
0	 5.812500000000000e+00	 3.125000000000000e-01	 1.020167281923077e+01
0	 5.812500000000000e+00	 3.749999999999999e-01	 1.020259242800000e+01
0	 5.812499999999999e+00	 4.374999999999999e-01	 1.020325584600000e+01
0	 5.812499999999998e+00	 4.999999999999999e-01	 1.020366307323077e+01
0	 5.812500000000000e+00	 5.625000000000001e-01	 1.020381410969230e+01
0	 5.812499999999999e+00	 6.249999999999999e-01	 1.020370895538461e+01
0	 5.874999999999999e+00	 0.000000000000000e+00	 1.018732950153846e+01
0	 5.874999999999998e+00	 6.250000000000000e-02	 1.018944516123077e+01
0	 5.874999999999998e+00	 1.250000000000000e-01	 1.019130446400000e+01
0	 5.874999999999999e+00	 1.875000000000000e-01	 1.019290740984615e+01
0	 5.874999999999998e+00	 2.500000000000000e-01	 1.019425399876923e+01
0	 5.874999999999999e+00	 3.125000000000000e-01	 1.019534423076923e+01
0	 5.874999999999999e+00	 3.750000000000000e-01	 1.019617810584615e+01
0	 5.874999999999999e+00	 4.375000000000000e-01	 1.019675562400000e+01
0	 5.874999999999999e+00	 4.999999999999999e-01	 1.019707678523077e+01
0	 5.874999999999999e+00	 5.625000000000000e-01	 1.019714158953846e+01
0	 5.875000000000000e+00	 6.250000000000001e-01	 1.019695003692307e+01
0	 5.937499999999998e+00	 0.000000000000000e+00	 1.018130492307693e+01
0	 5.937499999999997e+00	 6.249999999999998e-02	 1.018335760384615e+01
0	 5.937500000000000e+00	 1.250000000000000e-01	 1.018515376153846e+01
0	 5.937499999999999e+00	 1.875000000000000e-01	 1.018669339615384e+01
0	 5.937499999999999e+00	 2.499999999999999e-01	 1.018797650769231e+01
0	 5.937499999999998e+00	 3.125000000000000e-01	 1.018900309615385e+01
0	 5.937499999999998e+00	 3.750000000000000e-01	 1.018977316153846e+01
0	 5.937499999999998e+00	 4.375000000000000e-01	 1.019028670384615e+01
0	 5.937499999999998e+00	 4.999999999999999e-01	 1.019054372307691e+01
0	 5.937500000000000e+00	 5.625000000000001e-01	 1.019054421923077e+01
0	 5.937499999999999e+00	 6.250000000000000e-01	 1.019028819230769e+01
0	 5.999999999999998e+00	 0.000000000000000e+00	 1.017515817846154e+01
0	 5.999999999999999e+00	 6.249999999999999e-02	 1.017716980430769e+01
0	 6.000000000000000e+00	 1.250000000000000e-01	 1.017892474092307e+01
0	 5.999999999999999e+00	 1.875000000000001e-01	 1.018042298830769e+01
0	 5.999999999999999e+00	 2.500000000000001e-01	 1.018166454646154e+01
0	 5.999999999999999e+00	 3.125000000000001e-01	 1.018264941538461e+01
0	 5.999999999999998e+00	 3.749999999999999e-01	 1.018337759507692e+01
0	 6.000000000000000e+00	 4.375000000000000e-01	 1.018384908553846e+01
0	 5.999999999999999e+00	 4.999999999999998e-01	 1.018406388676923e+01
0	 5.999999999999998e+00	 5.624999999999999e-01	 1.018402199876923e+01
0	 5.999999999999998e+00	 6.250000000000001e-01	 1.018372342153845e+01
0	 6.062499999999999e+00	 0.000000000000000e+00	 1.016888926769231e+01
0	 6.062499999999999e+00	 6.250000000000000e-02	 1.017088176261538e+01
0	 6.062499999999998e+00	 1.250000000000000e-01	 1.017261740215385e+01
0	 6.062500000000000e+00	 1.875000000000000e-01	 1.017409618630770e+01
0	 6.062499999999998e+00	 2.500000000000000e-01	 1.017531811507692e+01
0	 6.062499999999998e+00	 3.125000000000001e-01	 1.017628318846154e+01
0	 6.062499999999998e+00	 3.750000000000000e-01	 1.017699140646154e+01
0	 6.062499999999998e+00	 4.375000000000000e-01	 1.017744276907692e+01
0	 6.062499999999998e+00	 4.999999999999999e-01	 1.017763727630769e+01
0	 6.062499999999999e+00	 5.625000000000000e-01	 1.017757492815384e+01
0	 6.062499999999998e+00	 6.249999999999999e-01	 1.017725572461538e+01
0	 6.124999999999998e+00	 0.000000000000000e+00	 1.016249819076923e+01
0	 6.124999999999998e+00	 6.249999999999999e-02	 1.016449347876923e+01
0	 6.124999999999999e+00	 1.250000000000000e-01	 1.016623174523077e+01
0	 6.125000000000000e+00	 1.875000000000001e-01	 1.016771299015384e+01
0	 6.124999999999998e+00	 2.500000000000000e-01	 1.016893721353846e+01
0	 6.124999999999997e+00	 3.124999999999999e-01	 1.016990441538461e+01
0	 6.124999999999998e+00	 3.749999999999999e-01	 1.017061459569230e+01
0	 6.124999999999997e+00	 4.375000000000000e-01	 1.017106775446153e+01
0	 6.124999999999999e+00	 4.999999999999999e-01	 1.017126389169231e+01
0	 6.124999999999998e+00	 5.625000000000000e-01	 1.017120300738461e+01
0	 6.124999999999998e+00	 6.250000000000000e-01	 1.017088510153846e+01
0	 6.187499999999998e+00	 0.000000000000000e+00	 1.015598494769231e+01
0	 6.187499999999999e+00	 6.250000000000000e-02	 1.015800495276923e+01
0	 6.187499999999997e+00	 1.250000000000000e-01	 1.015976777015384e+01
0	 6.187499999999998e+00	 1.875000000000000e-01	 1.016127339984615e+01
0	 6.187499999999996e+00	 2.499999999999999e-01	 1.016252184184614e+01
0	 6.187499999999998e+00	 3.125000000000000e-01	 1.016351309615384e+01
0	 6.187499999999997e+00	 3.750000000000000e-01	 1.016424716276923e+01
0	 6.187499999999997e+00	 4.375000000000000e-01	 1.016472404169230e+01
0	 6.187499999999997e+00	 4.999999999999999e-01	 1.016494373292307e+01
0	 6.187499999999998e+00	 5.625000000000000e-01	 1.016490623646153e+01
0	 6.187499999999997e+00	 6.250000000000000e-01	 1.016461155230769e+01
0	 6.250000000000000e+00	 0.000000000000000e+00	 1.014934953846154e+01
0	 6.250000000000001e+00	 6.250000000000000e-02	 1.015141618461539e+01
0	 6.250000000000000e+00	 1.250000000000000e-01	 1.015322547692307e+01
0	 6.249999999999999e+00	 1.875000000000000e-01	 1.015477741538461e+01
0	 6.250000000000001e+00	 2.500000000000000e-01	 1.015607200000000e+01
0	 6.250000000000000e+00	 3.125000000000000e-01	 1.015710923076923e+01
0	 6.250000000000001e+00	 3.750000000000000e-01	 1.015788910769230e+01
0	 6.250000000000000e+00	 4.374999999999999e-01	 1.015841163076923e+01
0	 6.250000000000001e+00	 5.000000000000000e-01	 1.015867680000000e+01
0	 6.250000000000000e+00	 5.624999999999999e-01	 1.015868461538462e+01
0	 6.250000000000000e+00	 6.250000000000000e-01	 1.015843507692307e+01
0	 5.625000000000000e+00	 6.250000000000000e-01	 1.022456815384615e+01
0	 5.624999999999999e+00	 6.875000000000000e-01	 1.022841846153846e+01
0	 5.625000000000000e+00	 7.500000000000002e-01	 1.023207603076923e+01
0	 5.625000000000000e+00	 8.125000000000002e-01	 1.023554086153846e+01
0	 5.625000000000000e+00	 8.750000000000002e-01	 1.023881295384615e+01
0	 5.625000000000000e+00	 9.375000000000002e-01	 1.024189230769230e+01
0	 5.625000000000000e+00	 1.000000000000000e+00	 1.024477892307692e+01
0	 5.625000000000000e+00	 1.062500000000000e+00	 1.024747280000000e+01
0	 5.625000000000002e+00	 1.125000000000001e+00	 1.024997393846154e+01
0	 5.625000000000000e+00	 1.187500000000000e+00	 1.025228233846154e+01
0	 5.625000000000000e+00	 1.250000000000000e+00	 1.025439799999999e+01
0	 5.687500000000001e+00	 6.250000000000000e-01	 1.021751801384616e+01
0	 5.687500000000000e+00	 6.875000000000001e-01	 1.022127680830769e+01
0	 5.687499999999998e+00	 7.500000000000001e-01	 1.022484747046154e+01
0	 5.687499999999999e+00	 8.125000000000002e-01	 1.022823000030769e+01
0	 5.687500000000001e+00	 8.750000000000003e-01	 1.023142439784615e+01
0	 5.687500000000000e+00	 9.375000000000003e-01	 1.023443066307692e+01
0	 5.687500000000000e+00	 1.000000000000000e+00	 1.023724879600000e+01
0	 5.687499999999999e+00	 1.062500000000000e+00	 1.023987879661538e+01
0	 5.687499999999999e+00	 1.125000000000000e+00	 1.024232066492307e+01
0	 5.687499999999999e+00	 1.187500000000000e+00	 1.024457440092307e+01
0	 5.687500000000001e+00	 1.250000000000000e+00	 1.024664000461538e+01
0	 5.750000000000000e+00	 6.249999999999999e-01	 1.021056494769231e+01
0	 5.750000000000000e+00	 6.875000000000001e-01	 1.021423124246153e+01
0	 5.750000000000002e+00	 7.500000000000002e-01	 1.021771401107693e+01
0	 5.749999999999998e+00	 8.125000000000001e-01	 1.022101325353846e+01
0	 5.750000000000000e+00	 8.750000000000003e-01	 1.022412896984615e+01
0	 5.750000000000001e+00	 9.375000000000003e-01	 1.022706116000000e+01
0	 5.750000000000001e+00	 1.000000000000000e+00	 1.022980982400000e+01
0	 5.749999999999999e+00	 1.062500000000000e+00	 1.023237496184615e+01
0	 5.750000000000000e+00	 1.125000000000000e+00	 1.023475657353846e+01
0	 5.750000000000000e+00	 1.187500000000001e+00	 1.023695465907692e+01
0	 5.750000000000000e+00	 1.250000000000000e+00	 1.023896921846154e+01
0	 5.812499999999999e+00	 6.249999999999999e-01	 1.020370895538461e+01
0	 5.812499999999998e+00	 6.875000000000000e-01	 1.020728176400000e+01
0	 5.812499999999999e+00	 7.500000000000000e-01	 1.021067565261538e+01
0	 5.812500000000001e+00	 8.125000000000002e-01	 1.021389062123077e+01
0	 5.812499999999999e+00	 8.750000000000002e-01	 1.021692666984615e+01
0	 5.812499999999998e+00	 9.375000000000002e-01	 1.021978379846153e+01
0	 5.812499999999998e+00	 1.000000000000000e+00	 1.022246200707692e+01
0	 5.812500000000001e+00	 1.062500000000000e+00	 1.022496129569230e+01
0	 5.812499999999998e+00	 1.125000000000000e+00	 1.022728166430768e+01
0	 5.812499999999999e+00	 1.187500000000000e+00	 1.022942311292307e+01
0	 5.812499999999999e+00	 1.250000000000000e+00	 1.023138564153846e+01
0	 5.875000000000000e+00	 6.250000000000001e-01	 1.019695003692307e+01
0	 5.875000000000000e+00	 6.875000000000000e-01	 1.020042837292307e+01
0	 5.874999999999998e+00	 7.500000000000000e-01	 1.020373239507692e+01
0	 5.874999999999998e+00	 8.125000000000001e-01	 1.020686210338462e+01
0	 5.874999999999999e+00	 8.750000000000003e-01	 1.020981749784615e+01
0	 5.874999999999998e+00	 9.375000000000000e-01	 1.021259857846153e+01
0	 5.874999999999999e+00	 1.000000000000000e+00	 1.021520534523077e+01
0	 5.875000000000000e+00	 1.062500000000000e+00	 1.021763779815385e+01
0	 5.874999999999999e+00	 1.125000000000000e+00	 1.021989593723077e+01
0	 5.875000000000000e+00	 1.187500000000000e+00	 1.022197976246153e+01
0	 5.875000000000000e+00	 1.250000000000000e+00	 1.022388927384615e+01
0	 5.937499999999999e+00	 6.250000000000000e-01	 1.019028819230769e+01
0	 5.937499999999998e+00	 6.875000000000000e-01	 1.019367106923077e+01
0	 5.937499999999999e+00	 7.500000000000001e-01	 1.019688423846153e+01
0	 5.937500000000000e+00	 8.125000000000002e-01	 1.019992770000000e+01
0	 5.937500000000000e+00	 8.750000000000003e-01	 1.020280145384615e+01
0	 5.937499999999998e+00	 9.375000000000002e-01	 1.020550550000000e+01
0	 5.937499999999998e+00	 1.000000000000000e+00	 1.020803983846153e+01
0	 5.937500000000001e+00	 1.062500000000000e+00	 1.021040446923076e+01
0	 5.937500000000000e+00	 1.125000000000000e+00	 1.021259939230769e+01
0	 5.937499999999998e+00	 1.187500000000001e+00	 1.021462460769230e+01
0	 5.937499999999999e+00	 1.250000000000000e+00	 1.021648011538462e+01
0	 5.999999999999998e+00	 6.250000000000001e-01	 1.018372342153845e+01
0	 5.999999999999998e+00	 6.874999999999999e-01	 1.018700985292307e+01
0	 6.000000000000001e+00	 7.500000000000003e-01	 1.019013118276922e+01
0	 6.000000000000000e+00	 8.125000000000000e-01	 1.019308741107692e+01
0	 5.999999999999998e+00	 8.750000000000001e-01	 1.019587853784616e+01
0	 5.999999999999999e+00	 9.375000000000003e-01	 1.019850456307692e+01
0	 5.999999999999999e+00	 1.000000000000000e+00	 1.020096548676923e+01
0	 5.999999999999998e+00	 1.062500000000000e+00	 1.020326130892307e+01
0	 6.000000000000000e+00	 1.125000000000000e+00	 1.020539202953846e+01
0	 5.999999999999998e+00	 1.187500000000000e+00	 1.020735764861538e+01
0	 5.999999999999998e+00	 1.250000000000000e+00	 1.020915816615384e+01
0	 6.062499999999998e+00	 6.249999999999999e-01	 1.017725572461538e+01
0	 6.062499999999997e+00	 6.875000000000000e-01	 1.018044472400000e+01
0	 6.062500000000000e+00	 7.500000000000002e-01	 1.018347322800000e+01
0	 6.062499999999998e+00	 8.125000000000000e-01	 1.018634123661538e+01
0	 6.062500000000000e+00	 8.750000000000002e-01	 1.018904874984615e+01
0	 6.062499999999999e+00	 9.375000000000004e-01	 1.019159576769230e+01
0	 6.062499999999997e+00	 1.000000000000000e+00	 1.019398229015384e+01
0	 6.062499999999999e+00	 1.062500000000001e+00	 1.019620831723076e+01
0	 6.062499999999998e+00	 1.125000000000000e+00	 1.019827384892308e+01
0	 6.062500000000000e+00	 1.187500000000000e+00	 1.020017888523076e+01
0	 6.062499999999998e+00	 1.250000000000000e+00	 1.020192342615384e+01
0	 6.124999999999998e+00	 6.250000000000000e-01	 1.017088510153846e+01
0	 6.124999999999999e+00	 6.875000000000000e-01	 1.017397568246153e+01
0	 6.124999999999996e+00	 7.500000000000000e-01	 1.017691037415384e+01
0	 6.124999999999997e+00	 8.125000000000001e-01	 1.017968917661539e+01
0	 6.124999999999998e+00	 8.750000000000003e-01	 1.018231208984615e+01
0	 6.124999999999997e+00	 9.375000000000002e-01	 1.018477911384615e+01
0	 6.125000000000000e+00	 1.000000000000001e+00	 1.018709024861538e+01
0	 6.124999999999998e+00	 1.062500000000000e+00	 1.018924549415384e+01
0	 6.124999999999998e+00	 1.125000000000000e+00	 1.019124485046154e+01
0	 6.124999999999998e+00	 1.187500000000000e+00	 1.019308831753845e+01
0	 6.124999999999998e+00	 1.250000000000000e+00	 1.019477589538462e+01
0	 6.187499999999997e+00	 6.250000000000000e-01	 1.016461155230769e+01
0	 6.187499999999999e+00	 6.875000000000002e-01	 1.016760272830769e+01
0	 6.187499999999998e+00	 7.500000000000001e-01	 1.017044262123076e+01
0	 6.187499999999998e+00	 8.125000000000001e-01	 1.017313123107692e+01
0	 6.187499999999998e+00	 8.750000000000002e-01	 1.017566855784615e+01
0	 6.187499999999998e+00	 9.375000000000002e-01	 1.017805460153846e+01
0	 6.187499999999998e+00	 1.000000000000000e+00	 1.018028936215385e+01
0	 6.187499999999998e+00	 1.062500000000000e+00	 1.018237283969230e+01
0	 6.187499999999998e+00	 1.125000000000000e+00	 1.018430503415384e+01
0	 6.187499999999998e+00	 1.187500000000000e+00	 1.018608594553847e+01
0	 6.187499999999997e+00	 1.250000000000000e+00	 1.018771557384615e+01
0	 6.250000000000000e+00	 6.250000000000000e-01	 1.015843507692307e+01
0	 6.250000000000000e+00	 6.875000000000000e-01	 1.016132586153846e+01
0	 6.249999999999999e+00	 7.500000000000002e-01	 1.016406996923076e+01
0	 6.250000000000001e+00	 8.125000000000002e-01	 1.016666740000000e+01
0	 6.250000000000000e+00	 8.750000000000002e-01	 1.016911815384615e+01
0	 6.250000000000000e+00	 9.375000000000002e-01	 1.017142223076922e+01
0	 6.250000000000000e+00	 1.000000000000000e+00	 1.017357963076923e+01
0	 6.250000000000000e+00	 1.062500000000000e+00	 1.017559035384615e+01
0	 6.250000000000000e+00	 1.125000000000001e+00	 1.017745439999999e+01
0	 6.250000000000000e+00	 1.187500000000000e+00	 1.017917176923077e+01
0	 6.250000000000000e+00	 1.250000000000000e+00	 1.018074246153846e+01
0	 5.625000000000000e+00	 1.250000000000000e+00	 1.025439799999999e+01
0	 5.624999999999999e+00	 1.312500000000000e+00	 1.025820923076922e+01
0	 5.625000000000000e+00	 1.375000000000000e+00	 1.026197144615384e+01
0	 5.625000000000000e+00	 1.437500000000000e+00	 1.026568464615385e+01
0	 5.625000000000000e+00	 1.500000000000000e+00	 1.026934883076922e+01
0	 5.625000000000000e+00	 1.562500000000000e+00	 1.027296399999999e+01
0	 5.625000000000000e+00	 1.625000000000000e+00	 1.027653015384615e+01
0	 5.625000000000000e+00	 1.687500000000000e+00	 1.028004729230769e+01
0	 5.625000000000002e+00	 1.750000000000001e+00	 1.028351541538461e+01
0	 5.625000000000000e+00	 1.812500000000000e+00	 1.028693452307692e+01
0	 5.625000000000000e+00	 1.875000000000000e+00	 1.029030461538461e+01
0	 5.687500000000001e+00	 1.250000000000000e+00	 1.024664000461538e+01
0	 5.687500000000000e+00	 1.312500000000000e+00	 1.025022264569230e+01
0	 5.687499999999998e+00	 1.375000000000000e+00	 1.025375868984615e+01
0	 5.687499999999999e+00	 1.437500000000000e+00	 1.025724813707692e+01
0	 5.687500000000001e+00	 1.500000000000000e+00	 1.026069098738461e+01
0	 5.687500000000000e+00	 1.562500000000000e+00	 1.026408724076922e+01
0	 5.687500000000000e+00	 1.625000000000000e+00	 1.026743689723076e+01
0	 5.687499999999999e+00	 1.687500000000000e+00	 1.027073995676922e+01
0	 5.687499999999999e+00	 1.750000000000000e+00	 1.027399641938461e+01
0	 5.687499999999999e+00	 1.812500000000000e+00	 1.027720628507692e+01
0	 5.687500000000001e+00	 1.875000000000000e+00	 1.028036955384615e+01
0	 5.750000000000000e+00	 1.250000000000000e+00	 1.023896921846154e+01
0	 5.750000000000000e+00	 1.312500000000000e+00	 1.024234584430770e+01
0	 5.750000000000002e+00	 1.375000000000000e+00	 1.024567829169231e+01
0	 5.749999999999998e+00	 1.437500000000000e+00	 1.024896656061539e+01
0	 5.750000000000000e+00	 1.500000000000000e+00	 1.025221065107692e+01
0	 5.750000000000001e+00	 1.562500000000000e+00	 1.025541056307692e+01
0	 5.750000000000001e+00	 1.625000000000000e+00	 1.025856629661538e+01
0	 5.749999999999999e+00	 1.687500000000000e+00	 1.026167785169230e+01
0	 5.750000000000000e+00	 1.750000000000001e+00	 1.026474522830769e+01
0	 5.750000000000000e+00	 1.812500000000001e+00	 1.026776842646154e+01
0	 5.750000000000000e+00	 1.875000000000000e+00	 1.027074744615385e+01
0	 5.812499999999999e+00	 1.250000000000000e+00	 1.023138564153846e+01
0	 5.812499999999998e+00	 1.312500000000000e+00	 1.023457882661538e+01
0	 5.812499999999999e+00	 1.375000000000000e+00	 1.023773025169231e+01
0	 5.812500000000001e+00	 1.437500000000000e+00	 1.024083991676923e+01
0	 5.812499999999999e+00	 1.500000000000000e+00	 1.024390782184615e+01
0	 5.812499999999998e+00	 1.562500000000000e+00	 1.024693396692307e+01
0	 5.812499999999998e+00	 1.625000000000000e+00	 1.024991835200000e+01
0	 5.812500000000001e+00	 1.687500000000000e+00	 1.025286097707692e+01
0	 5.812499999999998e+00	 1.750000000000000e+00	 1.025576184215385e+01
0	 5.812499999999999e+00	 1.812500000000000e+00	 1.025862094723076e+01
0	 5.812499999999999e+00	 1.875000000000000e+00	 1.026143829230769e+01
0	 5.875000000000000e+00	 1.250000000000000e+00	 1.022388927384615e+01
0	 5.875000000000000e+00	 1.312500000000000e+00	 1.022692159261538e+01
0	 5.874999999999998e+00	 1.375000000000000e+00	 1.022991456984615e+01
0	 5.874999999999998e+00	 1.437500000000000e+00	 1.023286820553846e+01
0	 5.874999999999999e+00	 1.500000000000000e+00	 1.023578249969231e+01
0	 5.874999999999998e+00	 1.562500000000000e+00	 1.023865745230768e+01
0	 5.874999999999999e+00	 1.625000000000001e+00	 1.024149306338461e+01
0	 5.875000000000000e+00	 1.687500000000000e+00	 1.024428933292307e+01
0	 5.874999999999999e+00	 1.750000000000001e+00	 1.024704626092307e+01
0	 5.875000000000000e+00	 1.812500000000000e+00	 1.024976384738461e+01
0	 5.875000000000000e+00	 1.875000000000000e+00	 1.025244209230769e+01
0	 5.937499999999999e+00	 1.250000000000000e+00	 1.021648011538462e+01
0	 5.937499999999998e+00	 1.312500000000000e+00	 1.021937414230769e+01
0	 5.937499999999999e+00	 1.375000000000000e+00	 1.022223124615384e+01
0	 5.937500000000000e+00	 1.437500000000000e+00	 1.022505142692308e+01
0	 5.937500000000000e+00	 1.500000000000000e+00	 1.022783468461538e+01
0	 5.937499999999998e+00	 1.562500000000000e+00	 1.023058101923076e+01
0	 5.937499999999998e+00	 1.625000000000000e+00	 1.023329043076923e+01
0	 5.937500000000001e+00	 1.687500000000000e+00	 1.023596291923076e+01
0	 5.937500000000000e+00	 1.750000000000000e+00	 1.023859848461538e+01
0	 5.937499999999998e+00	 1.812500000000000e+00	 1.024119712692307e+01
0	 5.937499999999999e+00	 1.875000000000000e+00	 1.024375884615385e+01
0	 5.999999999999998e+00	 1.250000000000000e+00	 1.020915816615384e+01
0	 5.999999999999998e+00	 1.312500000000000e+00	 1.021193647569230e+01
0	 6.000000000000001e+00	 1.375000000000000e+00	 1.021468028061537e+01
0	 6.000000000000000e+00	 1.437500000000000e+00	 1.021738958092308e+01
0	 5.999999999999998e+00	 1.500000000000000e+00	 1.022006437661538e+01
0	 5.999999999999999e+00	 1.562500000000000e+00	 1.022270466769231e+01
0	 5.999999999999999e+00	 1.625000000000000e+00	 1.022531045415384e+01
0	 5.999999999999998e+00	 1.687500000000000e+00	 1.022788173600000e+01
0	 6.000000000000000e+00	 1.750000000000000e+00	 1.023041851323076e+01
0	 5.999999999999998e+00	 1.812500000000000e+00	 1.023292078584615e+01
0	 5.999999999999998e+00	 1.875000000000000e+00	 1.023538855384615e+01
0	 6.062499999999998e+00	 1.250000000000000e+00	 1.020192342615384e+01
0	 6.062499999999997e+00	 1.312500000000000e+00	 1.020460859276923e+01
0	 6.062500000000000e+00	 1.375000000000000e+00	 1.020726167323076e+01
0	 6.062499999999998e+00	 1.437500000000000e+00	 1.020988266753846e+01
0	 6.062500000000000e+00	 1.500000000000001e+00	 1.021247157569230e+01
0	 6.062499999999999e+00	 1.562500000000000e+00	 1.021502839769231e+01
0	 6.062499999999997e+00	 1.625000000000000e+00	 1.021755313353846e+01
0	 6.062499999999999e+00	 1.687500000000000e+00	 1.022004578323076e+01
0	 6.062499999999998e+00	 1.750000000000000e+00	 1.022250634676923e+01
0	 6.062500000000000e+00	 1.812500000000000e+00	 1.022493482415384e+01
0	 6.062499999999998e+00	 1.875000000000000e+00	 1.022733121538462e+01
0	 6.124999999999998e+00	 1.250000000000000e+00	 1.019477589538462e+01
0	 6.124999999999999e+00	 1.312500000000000e+00	 1.019739049353846e+01
0	 6.124999999999996e+00	 1.375000000000000e+00	 1.019997542399999e+01
0	 6.124999999999997e+00	 1.437500000000000e+00	 1.020253068676923e+01
0	 6.124999999999998e+00	 1.500000000000000e+00	 1.020505628184615e+01
0	 6.124999999999997e+00	 1.562500000000000e+00	 1.020755220923077e+01
0	 6.125000000000000e+00	 1.625000000000001e+00	 1.021001846892307e+01
0	 6.124999999999998e+00	 1.687500000000000e+00	 1.021245506092307e+01
0	 6.124999999999998e+00	 1.750000000000000e+00	 1.021486198523076e+01
0	 6.124999999999998e+00	 1.812500000000001e+00	 1.021723924184614e+01
0	 6.124999999999998e+00	 1.875000000000000e+00	 1.021958683076923e+01
0	 6.187499999999997e+00	 1.250000000000000e+00	 1.018771557384615e+01
0	 6.187499999999999e+00	 1.312500000000000e+00	 1.019028217800000e+01
0	 6.187499999999998e+00	 1.375000000000000e+00	 1.019282153292307e+01
0	 6.187499999999998e+00	 1.437500000000000e+00	 1.019533363861538e+01
0	 6.187499999999998e+00	 1.500000000000000e+00	 1.019781849507692e+01
0	 6.187499999999998e+00	 1.562500000000000e+00	 1.020027610230770e+01
0	 6.187499999999998e+00	 1.625000000000000e+00	 1.020270646030770e+01
0	 6.187499999999998e+00	 1.687500000000000e+00	 1.020510956907693e+01
0	 6.187499999999998e+00	 1.750000000000000e+00	 1.020748542861539e+01
0	 6.187499999999998e+00	 1.812500000000000e+00	 1.020983403892308e+01
0	 6.187499999999997e+00	 1.875000000000000e+00	 1.021215540000000e+01
0	 6.250000000000000e+00	 1.250000000000000e+00	 1.018074246153846e+01
0	 6.250000000000000e+00	 1.312500000000000e+00	 1.018328364615384e+01
0	 6.249999999999999e+00	 1.375000000000000e+00	 1.018580000000000e+01
0	 6.250000000000001e+00	 1.437500000000000e+00	 1.018829152307693e+01
0	 6.250000000000000e+00	 1.500000000000000e+00	 1.019075821538462e+01
0	 6.250000000000000e+00	 1.562500000000000e+00	 1.019320007692307e+01
0	 6.250000000000000e+00	 1.625000000000000e+00	 1.019561710769231e+01
0	 6.250000000000000e+00	 1.687500000000000e+00	 1.019800930769231e+01
0	 6.250000000000000e+00	 1.750000000000001e+00	 1.020037667692308e+01
0	 6.250000000000000e+00	 1.812500000000000e+00	 1.020271921538462e+01
0	 6.250000000000000e+00	 1.875000000000000e+00	 1.020503692307692e+01
0	 5.625000000000000e+00	 1.875000000000000e+00	 1.029030461538461e+01
0	 5.624999999999999e+00	 1.937500000000000e+00	 1.029125227692308e+01
0	 5.625000000000000e+00	 2.000000000000000e+00	 1.029236203076923e+01
0	 5.625000000000000e+00	 2.062500000000000e+00	 1.029363387692308e+01
0	 5.625000000000000e+00	 2.125000000000000e+00	 1.029506781538461e+01
0	 5.625000000000000e+00	 2.187500000000000e+00	 1.029666384615384e+01
0	 5.625000000000000e+00	 2.250000000000000e+00	 1.029842196923076e+01
0	 5.625000000000000e+00	 2.312500000000000e+00	 1.030034218461538e+01
0	 5.625000000000002e+00	 2.375000000000001e+00	 1.030242449230770e+01
0	 5.625000000000000e+00	 2.437500000000001e+00	 1.030466889230769e+01
0	 5.625000000000000e+00	 2.500000000000000e+00	 1.030707538461538e+01
0	 5.687500000000001e+00	 1.875000000000000e+00	 1.028036955384615e+01
0	 5.687500000000000e+00	 1.937500000000000e+00	 1.028144655384615e+01
0	 5.687499999999998e+00	 2.000000000000000e+00	 1.028267519692307e+01
0	 5.687499999999999e+00	 2.062500000000000e+00	 1.028405548307692e+01
0	 5.687500000000001e+00	 2.125000000000001e+00	 1.028558741230769e+01
0	 5.687500000000000e+00	 2.187500000000000e+00	 1.028727098461538e+01
0	 5.687500000000000e+00	 2.250000000000000e+00	 1.028910620000000e+01
0	 5.687499999999999e+00	 2.312500000000000e+00	 1.029109305846154e+01
0	 5.687499999999999e+00	 2.375000000000000e+00	 1.029323156000000e+01
0	 5.687499999999999e+00	 2.437500000000000e+00	 1.029552170461538e+01
0	 5.687500000000001e+00	 2.500000000000000e+00	 1.029796349230770e+01
0	 5.750000000000000e+00	 1.875000000000000e+00	 1.027074744615385e+01
0	 5.750000000000000e+00	 1.937500000000000e+00	 1.027194081846154e+01
0	 5.750000000000002e+00	 2.000000000000000e+00	 1.027327538461538e+01
0	 5.749999999999998e+00	 2.062500000000000e+00	 1.027475114461539e+01
0	 5.750000000000000e+00	 2.125000000000000e+00	 1.027636809846154e+01
0	 5.750000000000001e+00	 2.187500000000001e+00	 1.027812624615384e+01
0	 5.750000000000001e+00	 2.250000000000000e+00	 1.028002558769230e+01
0	 5.749999999999999e+00	 2.312500000000000e+00	 1.028206612307693e+01
0	 5.750000000000000e+00	 2.375000000000000e+00	 1.028424785230770e+01
0	 5.750000000000000e+00	 2.437500000000000e+00	 1.028657077538461e+01
0	 5.750000000000000e+00	 2.500000000000000e+00	 1.028903489230769e+01
0	 5.812499999999999e+00	 1.875000000000000e+00	 1.026143829230769e+01
0	 5.812499999999998e+00	 1.937500000000000e+00	 1.026273507076922e+01
0	 5.812499999999999e+00	 2.000000000000000e+00	 1.026416259384615e+01
0	 5.812500000000001e+00	 2.062500000000000e+00	 1.026572086153847e+01
0	 5.812499999999999e+00	 2.125000000000001e+00	 1.026740987384615e+01
0	 5.812499999999998e+00	 2.187500000000000e+00	 1.026922963076923e+01
0	 5.812499999999998e+00	 2.250000000000000e+00	 1.027118013230769e+01
0	 5.812500000000001e+00	 2.312500000000000e+00	 1.027326137846154e+01
0	 5.812499999999998e+00	 2.375000000000000e+00	 1.027547336923076e+01
0	 5.812499999999999e+00	 2.437500000000000e+00	 1.027781610461538e+01
0	 5.812499999999999e+00	 2.500000000000000e+00	 1.028028958461539e+01
0	 5.875000000000000e+00	 1.875000000000000e+00	 1.025244209230769e+01
0	 5.875000000000000e+00	 1.937500000000000e+00	 1.025382931076922e+01
0	 5.874999999999998e+00	 2.000000000000000e+00	 1.025533682461538e+01
0	 5.874999999999998e+00	 2.062500000000000e+00	 1.025696463384615e+01
0	 5.874999999999999e+00	 2.125000000000000e+00	 1.025871273846153e+01
0	 5.874999999999998e+00	 2.187500000000000e+00	 1.026058113846154e+01
0	 5.874999999999999e+00	 2.250000000000000e+00	 1.026256983384615e+01
0	 5.875000000000000e+00	 2.312500000000000e+00	 1.026467882461538e+01
0	 5.874999999999999e+00	 2.375000000000000e+00	 1.026690811076922e+01
0	 5.875000000000000e+00	 2.437500000000000e+00	 1.026925769230769e+01
0	 5.875000000000000e+00	 2.500000000000000e+00	 1.027172756923077e+01
0	 5.937499999999999e+00	 1.875000000000000e+00	 1.024375884615385e+01
0	 5.937499999999998e+00	 1.937500000000000e+00	 1.024522353846154e+01
0	 5.937499999999999e+00	 2.000000000000000e+00	 1.024679807692307e+01
0	 5.937500000000000e+00	 2.062500000000000e+00	 1.024848246153846e+01
0	 5.937500000000000e+00	 2.125000000000000e+00	 1.025027669230769e+01
0	 5.937499999999998e+00	 2.187500000000000e+00	 1.025218076923077e+01
0	 5.937499999999998e+00	 2.250000000000000e+00	 1.025419469230769e+01
0	 5.937500000000001e+00	 2.312500000000001e+00	 1.025631846153846e+01
0	 5.937500000000000e+00	 2.375000000000000e+00	 1.025855207692307e+01
0	 5.937499999999998e+00	 2.437500000000000e+00	 1.026089553846154e+01
0	 5.937499999999999e+00	 2.500000000000000e+00	 1.026334884615385e+01
0	 5.999999999999998e+00	 1.875000000000000e+00	 1.023538855384615e+01
0	 5.999999999999998e+00	 1.937500000000000e+00	 1.023691775384615e+01
0	 6.000000000000001e+00	 2.000000000000000e+00	 1.023854635076923e+01
0	 6.000000000000000e+00	 2.062500000000000e+00	 1.024027434461538e+01
0	 5.999999999999998e+00	 2.125000000000000e+00	 1.024210173538461e+01
0	 5.999999999999999e+00	 2.187500000000000e+00	 1.024402852307692e+01
0	 5.999999999999999e+00	 2.250000000000000e+00	 1.024605470769231e+01
0	 5.999999999999998e+00	 2.312500000000000e+00	 1.024818028923077e+01
0	 6.000000000000000e+00	 2.375000000000001e+00	 1.025040526769230e+01
0	 5.999999999999998e+00	 2.437500000000000e+00	 1.025272964307692e+01
0	 5.999999999999998e+00	 2.500000000000000e+00	 1.025515341538462e+01
0	 6.062499999999998e+00	 1.875000000000000e+00	 1.022733121538462e+01
0	 6.062499999999997e+00	 1.937500000000000e+00	 1.022891195692308e+01
0	 6.062500000000000e+00	 2.000000000000001e+00	 1.023058164615384e+01
0	 6.062499999999998e+00	 2.062500000000000e+00	 1.023234028307692e+01
0	 6.062500000000000e+00	 2.125000000000001e+00	 1.023418786769230e+01
0	 6.062499999999999e+00	 2.187500000000000e+00	 1.023612440000000e+01
0	 6.062499999999997e+00	 2.250000000000000e+00	 1.023814988000000e+01
0	 6.062499999999999e+00	 2.312500000000001e+00	 1.024026430769231e+01
0	 6.062499999999998e+00	 2.375000000000000e+00	 1.024246768307692e+01
0	 6.062500000000000e+00	 2.437500000000000e+00	 1.024476000615384e+01
0	 6.062499999999998e+00	 2.500000000000000e+00	 1.024714127692308e+01
0	 6.124999999999998e+00	 1.875000000000000e+00	 1.021958683076923e+01
0	 6.124999999999999e+00	 1.937500000000000e+00	 1.022120614769231e+01
0	 6.124999999999996e+00	 2.000000000000000e+00	 1.022290396307692e+01
0	 6.124999999999997e+00	 2.062500000000000e+00	 1.022468027692307e+01
0	 6.124999999999998e+00	 2.125000000000000e+00	 1.022653508923076e+01
0	 6.124999999999997e+00	 2.187500000000000e+00	 1.022846840000000e+01
0	 6.125000000000000e+00	 2.250000000000000e+00	 1.023048020923076e+01
0	 6.124999999999998e+00	 2.312500000000000e+00	 1.023257051692307e+01
0	 6.124999999999998e+00	 2.375000000000000e+00	 1.023473932307692e+01
0	 6.124999999999998e+00	 2.437500000000001e+00	 1.023698662769231e+01
0	 6.124999999999998e+00	 2.500000000000000e+00	 1.023931243076923e+01
0	 6.187499999999997e+00	 1.875000000000000e+00	 1.021215540000000e+01
0	 6.187499999999999e+00	 1.937500000000000e+00	 1.021380032615385e+01
0	 6.187499999999998e+00	 2.000000000000000e+00	 1.021551330153846e+01
0	 6.187499999999998e+00	 2.062500000000000e+00	 1.021729432615385e+01
0	 6.187499999999998e+00	 2.125000000000000e+00	 1.021914340000000e+01
0	 6.187499999999998e+00	 2.187500000000000e+00	 1.022106052307692e+01
0	 6.187499999999998e+00	 2.250000000000000e+00	 1.022304569538462e+01
0	 6.187499999999998e+00	 2.312500000000000e+00	 1.022509891692307e+01
0	 6.187499999999998e+00	 2.375000000000000e+00	 1.022722018769231e+01
0	 6.187499999999998e+00	 2.437500000000000e+00	 1.022940950769231e+01
0	 6.187499999999997e+00	 2.500000000000000e+00	 1.023166687692308e+01
0	 6.250000000000000e+00	 1.875000000000000e+00	 1.020503692307692e+01
0	 6.250000000000000e+00	 1.937500000000000e+00	 1.020669449230769e+01
0	 6.249999999999999e+00	 2.000000000000000e+00	 1.020840966153847e+01
0	 6.250000000000001e+00	 2.062500000000000e+00	 1.021018243076923e+01
0	 6.250000000000000e+00	 2.125000000000000e+00	 1.021201280000000e+01
0	 6.250000000000000e+00	 2.187500000000000e+00	 1.021390076923077e+01
0	 6.250000000000000e+00	 2.250000000000000e+00	 1.021584633846153e+01
0	 6.250000000000000e+00	 2.312500000000000e+00	 1.021784950769231e+01
0	 6.250000000000000e+00	 2.375000000000001e+00	 1.021991027692308e+01
0	 6.250000000000000e+00	 2.437500000000001e+00	 1.022202864615384e+01
0	 6.250000000000000e+00	 2.500000000000000e+00	 1.022420461538461e+01
0	 5.625000000000000e+00	 2.500000000000000e+00	 1.030707538461538e+01
0	 5.625000000000000e+00	 2.562500000000000e+00	 1.030616223076924e+01
0	 5.625000000000001e+00	 2.625000000000000e+00	 1.030543046153846e+01
0	 5.625000000000000e+00	 2.687499999999999e+00	 1.030488007692307e+01
0	 5.625000000000000e+00	 2.750000000000000e+00	 1.030451107692308e+01
0	 5.625000000000000e+00	 2.812499999999999e+00	 1.030432346153847e+01
0	 5.625000000000000e+00	 2.874999999999999e+00	 1.030431723076922e+01
0	 5.624999999999999e+00	 2.937499999999998e+00	 1.030449238461539e+01
0	 5.624999999999999e+00	 2.999999999999998e+00	 1.030484892307692e+01
0	 5.625000000000000e+00	 3.062499999999998e+00	 1.030538684615385e+01
0	 5.625000000000000e+00	 3.125000000000000e+00	 1.030610615384615e+01
0	 5.687500000000001e+00	 2.500000000000000e+00	 1.029796349230770e+01
0	 5.687499999999999e+00	 2.562500000000000e+00	 1.029711645076923e+01
0	 5.687499999999999e+00	 2.624999999999999e+00	 1.029644585538462e+01
0	 5.687499999999999e+00	 2.687499999999999e+00	 1.029595170615385e+01
0	 5.687500000000000e+00	 2.750000000000000e+00	 1.029563400307692e+01
0	 5.687500000000001e+00	 2.812499999999999e+00	 1.029549274615385e+01
0	 5.687500000000001e+00	 2.875000000000000e+00	 1.029552793538462e+01
0	 5.687500000000001e+00	 2.937499999999999e+00	 1.029573957076923e+01
0	 5.687499999999999e+00	 2.999999999999999e+00	 1.029612765230769e+01
0	 5.687499999999998e+00	 3.062499999999997e+00	 1.029669218000000e+01
0	 5.687500000000001e+00	 3.125000000000000e+00	 1.029743315384614e+01
0	 5.750000000000000e+00	 2.500000000000000e+00	 1.028903489230769e+01
0	 5.749999999999998e+00	 2.562500000000000e+00	 1.028825684923077e+01
0	 5.750000000000001e+00	 2.625000000000000e+00	 1.028765031384616e+01
0	 5.749999999999998e+00	 2.687500000000000e+00	 1.028721528615385e+01
0	 5.749999999999999e+00	 2.749999999999999e+00	 1.028695176615385e+01
0	 5.750000000000000e+00	 2.812499999999999e+00	 1.028685975384616e+01
0	 5.750000000000000e+00	 2.874999999999999e+00	 1.028693924923077e+01
0	 5.750000000000000e+00	 2.937499999999999e+00	 1.028719025230770e+01
0	 5.750000000000000e+00	 2.999999999999998e+00	 1.028761276307692e+01
0	 5.750000000000000e+00	 3.062499999999999e+00	 1.028820678153845e+01
0	 5.750000000000000e+00	 3.125000000000000e+00	 1.028897230769232e+01
0	 5.812499999999999e+00	 2.500000000000000e+00	 1.028028958461539e+01
0	 5.812499999999998e+00	 2.562500000000000e+00	 1.027958342615384e+01
0	 5.812500000000000e+00	 2.625000000000000e+00	 1.027904383692308e+01
0	 5.812500000000000e+00	 2.687499999999999e+00	 1.027867081692307e+01
0	 5.812500000000000e+00	 2.749999999999999e+00	 1.027846436615384e+01
0	 5.812500000000000e+00	 2.812499999999999e+00	 1.027842448461539e+01
0	 5.812499999999999e+00	 2.874999999999999e+00	 1.027855117230769e+01
0	 5.812500000000000e+00	 2.937499999999999e+00	 1.027884442923077e+01
0	 5.812499999999999e+00	 2.999999999999999e+00	 1.027930425538462e+01
0	 5.812499999999997e+00	 3.062499999999998e+00	 1.027993065076923e+01
0	 5.812499999999999e+00	 3.125000000000000e+00	 1.028072361538461e+01
0	 5.875000000000000e+00	 2.500000000000000e+00	 1.027172756923077e+01
0	 5.875000000000000e+00	 2.562500000000000e+00	 1.027109618153846e+01
0	 5.875000000000000e+00	 2.625000000000000e+00	 1.027062642461538e+01
0	 5.875000000000000e+00	 2.687500000000000e+00	 1.027031829846154e+01
0	 5.874999999999998e+00	 2.750000000000000e+00	 1.027017180307692e+01
0	 5.874999999999999e+00	 2.812499999999999e+00	 1.027018693846153e+01
0	 5.874999999999998e+00	 2.874999999999999e+00	 1.027036370461538e+01
0	 5.874999999999999e+00	 2.937499999999998e+00	 1.027070210153847e+01
0	 5.875000000000000e+00	 2.999999999999999e+00	 1.027120212923077e+01
0	 5.875000000000000e+00	 3.062499999999998e+00	 1.027186378769231e+01
0	 5.875000000000000e+00	 3.125000000000000e+00	 1.027268707692307e+01
0	 5.937499999999999e+00	 2.500000000000000e+00	 1.026334884615385e+01
0	 5.937499999999999e+00	 2.562499999999999e+00	 1.026279511538461e+01
0	 5.937499999999999e+00	 2.625000000000000e+00	 1.026239807692307e+01
0	 5.937499999999999e+00	 2.687500000000000e+00	 1.026215773076923e+01
0	 5.937499999999999e+00	 2.749999999999999e+00	 1.026207407692308e+01
0	 5.937499999999999e+00	 2.812499999999999e+00	 1.026214711538462e+01
0	 5.937499999999999e+00	 2.874999999999999e+00	 1.026237684615385e+01
0	 5.937500000000000e+00	 2.937499999999998e+00	 1.026276326923077e+01
0	 5.937499999999999e+00	 2.999999999999998e+00	 1.026330638461538e+01
0	 5.937500000000000e+00	 3.062499999999998e+00	 1.026400619230769e+01
0	 5.937499999999999e+00	 3.125000000000000e+00	 1.026486269230769e+01
0	 5.999999999999998e+00	 2.500000000000000e+00	 1.025515341538462e+01
0	 5.999999999999999e+00	 2.562500000000000e+00	 1.025468022769230e+01
0	 5.999999999999999e+00	 2.625000000000000e+00	 1.025435879384616e+01
0	 5.999999999999999e+00	 2.687500000000000e+00	 1.025418911384615e+01
0	 5.999999999999999e+00	 2.750000000000000e+00	 1.025417118769230e+01
0	 5.999999999999999e+00	 2.812500000000000e+00	 1.025430501538462e+01
0	 5.999999999999998e+00	 2.874999999999999e+00	 1.025459059692308e+01
0	 5.999999999999999e+00	 2.937499999999999e+00	 1.025502793230769e+01
0	 5.999999999999999e+00	 2.999999999999999e+00	 1.025561702153846e+01
0	 5.999999999999999e+00	 3.062499999999998e+00	 1.025635786461538e+01
0	 5.999999999999998e+00	 3.125000000000000e+00	 1.025725046153845e+01
0	 6.062499999999998e+00	 2.500000000000000e+00	 1.024714127692308e+01
0	 6.062499999999999e+00	 2.562500000000000e+00	 1.024675151846154e+01
0	 6.062499999999999e+00	 2.625000000000000e+00	 1.024650857538462e+01
0	 6.062499999999998e+00	 2.687500000000000e+00	 1.024641244769231e+01
0	 6.062499999999998e+00	 2.749999999999999e+00	 1.024646313538461e+01
0	 6.062500000000000e+00	 2.812499999999999e+00	 1.024666063846153e+01
0	 6.062499999999999e+00	 2.874999999999999e+00	 1.024700495692307e+01
0	 6.062499999999999e+00	 2.937499999999998e+00	 1.024749609076923e+01
0	 6.062499999999999e+00	 2.999999999999998e+00	 1.024813404000000e+01
0	 6.062499999999999e+00	 3.062499999999998e+00	 1.024891880461539e+01
0	 6.062499999999998e+00	 3.125000000000000e+00	 1.024985038461538e+01
0	 6.124999999999998e+00	 2.500000000000000e+00	 1.023931243076923e+01
0	 6.125000000000000e+00	 2.562500000000001e+00	 1.023900898769230e+01
0	 6.124999999999998e+00	 2.625000000000000e+00	 1.023884742153846e+01
0	 6.124999999999999e+00	 2.687500000000000e+00	 1.023882773230769e+01
0	 6.124999999999999e+00	 2.749999999999999e+00	 1.023894992000000e+01
0	 6.124999999999998e+00	 2.812499999999999e+00	 1.023921398461538e+01
0	 6.124999999999998e+00	 2.874999999999999e+00	 1.023961992615384e+01
0	 6.124999999999998e+00	 2.937499999999998e+00	 1.024016774461538e+01
0	 6.124999999999999e+00	 2.999999999999998e+00	 1.024085744000000e+01
0	 6.124999999999998e+00	 3.062499999999998e+00	 1.024168901230770e+01
0	 6.124999999999998e+00	 3.125000000000000e+00	 1.024266246153846e+01
0	 6.187499999999997e+00	 2.500000000000000e+00	 1.023166687692308e+01
0	 6.187499999999998e+00	 2.562500000000000e+00	 1.023145263538462e+01
0	 6.187499999999998e+00	 2.625000000000000e+00	 1.023137533230769e+01
0	 6.187499999999997e+00	 2.687500000000000e+00	 1.023143496769231e+01
0	 6.187499999999998e+00	 2.749999999999999e+00	 1.023163154153846e+01
0	 6.187499999999997e+00	 2.812499999999999e+00	 1.023196505384615e+01
0	 6.187499999999997e+00	 2.874999999999999e+00	 1.023243550461538e+01
0	 6.187499999999997e+00	 2.937499999999998e+00	 1.023304289384615e+01
0	 6.187499999999998e+00	 2.999999999999998e+00	 1.023378722153847e+01
0	 6.187499999999997e+00	 3.062499999999998e+00	 1.023466848769230e+01
0	 6.187499999999997e+00	 3.125000000000000e+00	 1.023568669230768e+01
0	 6.250000000000000e+00	 2.500000000000000e+00	 1.022420461538461e+01
0	 6.250000000000001e+00	 2.562500000000000e+00	 1.022408246153847e+01
0	 6.250000000000001e+00	 2.625000000000000e+00	 1.022409230769231e+01
0	 6.250000000000000e+00	 2.687499999999999e+00	 1.022423415384616e+01
0	 6.250000000000001e+00	 2.750000000000000e+00	 1.022450799999999e+01
0	 6.250000000000000e+00	 2.812499999999999e+00	 1.022491384615385e+01
0	 6.250000000000000e+00	 2.874999999999999e+00	 1.022545169230769e+01
0	 6.250000000000000e+00	 2.937499999999998e+00	 1.022612153846154e+01
0	 6.250000000000001e+00	 2.999999999999998e+00	 1.022692338461538e+01
0	 6.250000000000000e+00	 3.062499999999998e+00	 1.022785723076924e+01
0	 6.250000000000000e+00	 3.125000000000000e+00	 1.022892307692307e+01
0	 5.625000000000000e+00	 3.125000000000000e+00	 1.030610615384615e+01
0	 5.625000000000000e+00	 3.187500000000000e+00	 1.030288853846153e+01
0	 5.625000000000001e+00	 3.250000000000000e+00	 1.029987999999999e+01
0	 5.625000000000000e+00	 3.312499999999999e+00	 1.029708053846154e+01
0	 5.625000000000000e+00	 3.374999999999999e+00	 1.029449015384615e+01
0	 5.625000000000000e+00	 3.437499999999999e+00	 1.029210884615384e+01
0	 5.625000000000000e+00	 3.499999999999999e+00	 1.028993661538462e+01
0	 5.624999999999999e+00	 3.562499999999998e+00	 1.028797346153846e+01
0	 5.624999999999999e+00	 3.624999999999999e+00	 1.028621938461538e+01
0	 5.625000000000000e+00	 3.687499999999998e+00	 1.028467438461537e+01
0	 5.625000000000000e+00	 3.750000000000000e+00	 1.028333846153846e+01
0	 5.687500000000001e+00	 3.125000000000000e+00	 1.029743315384614e+01
0	 5.687499999999999e+00	 3.187500000000000e+00	 1.029446918307692e+01
0	 5.687499999999999e+00	 3.250000000000000e+00	 1.029170632307693e+01
0	 5.687499999999999e+00	 3.312499999999999e+00	 1.028914457384616e+01
0	 5.687500000000000e+00	 3.374999999999999e+00	 1.028678393538461e+01
0	 5.687500000000001e+00	 3.437499999999999e+00	 1.028462440769231e+01
0	 5.687500000000001e+00	 3.500000000000000e+00	 1.028266599076923e+01
0	 5.687500000000001e+00	 3.562499999999999e+00	 1.028090868461539e+01
0	 5.687499999999999e+00	 3.625000000000000e+00	 1.027935248923077e+01
0	 5.687499999999998e+00	 3.687499999999997e+00	 1.027799740461538e+01
0	 5.687500000000001e+00	 3.750000000000000e+00	 1.027684343076923e+01
0	 5.750000000000000e+00	 3.125000000000000e+00	 1.028897230769232e+01
0	 5.749999999999998e+00	 3.187500000000000e+00	 1.028624591384615e+01
0	 5.750000000000001e+00	 3.250000000000000e+00	 1.028371266461539e+01
0	 5.749999999999998e+00	 3.312500000000000e+00	 1.028137256000000e+01
0	 5.749999999999999e+00	 3.374999999999999e+00	 1.027922560000000e+01
0	 5.750000000000000e+00	 3.437499999999999e+00	 1.027727178461539e+01
0	 5.750000000000000e+00	 3.499999999999997e+00	 1.027551111384615e+01
0	 5.750000000000000e+00	 3.562499999999999e+00	 1.027394358769230e+01
0	 5.750000000000000e+00	 3.624999999999998e+00	 1.027256920615384e+01
0	 5.750000000000000e+00	 3.687499999999999e+00	 1.027138796923078e+01
0	 5.750000000000000e+00	 3.750000000000000e+00	 1.027039987692308e+01
0	 5.812499999999999e+00	 3.125000000000000e+00	 1.028072361538461e+01
0	 5.812499999999998e+00	 3.187500000000000e+00	 1.027821873076923e+01
0	 5.812500000000000e+00	 3.250000000000000e+00	 1.027589902461539e+01
0	 5.812500000000000e+00	 3.312500000000000e+00	 1.027376449692307e+01
0	 5.812500000000000e+00	 3.374999999999999e+00	 1.027181514769231e+01
0	 5.812500000000000e+00	 3.437499999999999e+00	 1.027005097692308e+01
0	 5.812499999999999e+00	 3.499999999999998e+00	 1.026847198461538e+01
0	 5.812500000000000e+00	 3.562499999999998e+00	 1.026707817076922e+01
0	 5.812499999999999e+00	 3.624999999999998e+00	 1.026586953538462e+01
0	 5.812499999999997e+00	 3.687499999999998e+00	 1.026484607846155e+01
0	 5.812499999999999e+00	 3.750000000000000e+00	 1.026400780000000e+01
0	 5.875000000000000e+00	 3.125000000000000e+00	 1.027268707692307e+01
0	 5.875000000000000e+00	 3.187500000000000e+00	 1.027038763384616e+01
0	 5.875000000000000e+00	 3.250000000000000e+00	 1.026826540307692e+01
0	 5.875000000000000e+00	 3.312500000000000e+00	 1.026632038461539e+01
0	 5.874999999999998e+00	 3.374999999999999e+00	 1.026455257846153e+01
0	 5.874999999999999e+00	 3.437499999999999e+00	 1.026296198461538e+01
0	 5.874999999999998e+00	 3.499999999999998e+00	 1.026154860307692e+01
0	 5.874999999999999e+00	 3.562499999999998e+00	 1.026031243384615e+01
0	 5.875000000000000e+00	 3.624999999999999e+00	 1.025925347692308e+01
0	 5.875000000000000e+00	 3.687499999999998e+00	 1.025837173230769e+01
0	 5.875000000000000e+00	 3.750000000000000e+00	 1.025766720000000e+01
0	 5.937499999999999e+00	 3.125000000000000e+00	 1.026486269230769e+01
0	 5.937499999999999e+00	 3.187500000000000e+00	 1.026275262307693e+01
0	 5.937499999999999e+00	 3.250000000000000e+00	 1.026081180000000e+01
0	 5.937499999999999e+00	 3.312500000000000e+00	 1.025904022307693e+01
0	 5.937499999999999e+00	 3.374999999999998e+00	 1.025743789230769e+01
0	 5.937499999999999e+00	 3.437499999999999e+00	 1.025600480769231e+01
0	 5.937499999999999e+00	 3.499999999999999e+00	 1.025474096923077e+01
0	 5.937500000000000e+00	 3.562499999999999e+00	 1.025364637692307e+01
0	 5.937499999999999e+00	 3.624999999999998e+00	 1.025272103076923e+01
0	 5.937500000000000e+00	 3.687499999999999e+00	 1.025196493076924e+01
0	 5.937499999999999e+00	 3.750000000000000e+00	 1.025137807692309e+01
0	 5.999999999999998e+00	 3.125000000000000e+00	 1.025725046153845e+01
0	 5.999999999999999e+00	 3.187500000000000e+00	 1.025531369846154e+01
0	 5.999999999999999e+00	 3.249999999999999e+00	 1.025353821538461e+01
0	 5.999999999999999e+00	 3.312499999999999e+00	 1.025192401230769e+01
0	 5.999999999999999e+00	 3.375000000000000e+00	 1.025047108923077e+01
0	 5.999999999999999e+00	 3.437500000000000e+00	 1.024917944615385e+01
0	 5.999999999999998e+00	 3.499999999999999e+00	 1.024804908307692e+01
0	 5.999999999999999e+00	 3.562499999999999e+00	 1.024708000000000e+01
0	 5.999999999999999e+00	 3.624999999999999e+00	 1.024627219692307e+01
0	 5.999999999999999e+00	 3.687499999999998e+00	 1.024562567384615e+01
0	 5.999999999999998e+00	 3.750000000000000e+00	 1.024514043076923e+01
0	 6.062499999999998e+00	 3.125000000000000e+00	 1.024985038461538e+01
0	 6.062499999999999e+00	 3.187500000000000e+00	 1.024807086000001e+01
0	 6.062499999999999e+00	 3.250000000000000e+00	 1.024644464923077e+01
0	 6.062499999999998e+00	 3.312500000000000e+00	 1.024497175230769e+01
0	 6.062499999999998e+00	 3.374999999999999e+00	 1.024365216923077e+01
0	 6.062500000000000e+00	 3.437499999999999e+00	 1.024248589999999e+01
0	 6.062499999999999e+00	 3.499999999999999e+00	 1.024147294461538e+01
0	 6.062499999999999e+00	 3.562499999999999e+00	 1.024061330307691e+01
0	 6.062499999999999e+00	 3.624999999999998e+00	 1.023990697538462e+01
0	 6.062499999999999e+00	 3.687499999999999e+00	 1.023935396153847e+01
0	 6.062499999999998e+00	 3.750000000000000e+00	 1.023895426153846e+01
0	 6.124999999999998e+00	 3.125000000000000e+00	 1.024266246153846e+01
0	 6.125000000000000e+00	 3.187500000000001e+00	 1.024102410769231e+01
0	 6.124999999999998e+00	 3.250000000000000e+00	 1.023953110153846e+01
0	 6.124999999999999e+00	 3.312500000000000e+00	 1.023818344307692e+01
0	 6.124999999999999e+00	 3.374999999999999e+00	 1.023698113230769e+01
0	 6.124999999999998e+00	 3.437499999999999e+00	 1.023592416923076e+01
0	 6.124999999999998e+00	 3.499999999999998e+00	 1.023501255384615e+01
0	 6.124999999999998e+00	 3.562499999999998e+00	 1.023424628615384e+01
0	 6.124999999999999e+00	 3.624999999999998e+00	 1.023362536615384e+01
0	 6.124999999999998e+00	 3.687499999999998e+00	 1.023314979384615e+01
0	 6.124999999999998e+00	 3.750000000000000e+00	 1.023281956923077e+01
0	 6.187499999999997e+00	 3.125000000000000e+00	 1.023568669230768e+01
0	 6.187499999999998e+00	 3.187500000000000e+00	 1.023417344153846e+01
0	 6.187499999999998e+00	 3.250000000000000e+00	 1.023279757230769e+01
0	 6.187499999999997e+00	 3.312500000000000e+00	 1.023155908461537e+01
0	 6.187499999999998e+00	 3.374999999999999e+00	 1.023045797846154e+01
0	 6.187499999999997e+00	 3.437500000000000e+00	 1.022949425384616e+01
0	 6.187499999999997e+00	 3.499999999999998e+00	 1.022866791076923e+01
0	 6.187499999999997e+00	 3.562499999999998e+00	 1.022797894923077e+01
0	 6.187499999999998e+00	 3.624999999999998e+00	 1.022742736923077e+01
0	 6.187499999999997e+00	 3.687499999999997e+00	 1.022701317076923e+01
0	 6.187499999999997e+00	 3.750000000000000e+00	 1.022673635384615e+01
0	 6.250000000000000e+00	 3.125000000000000e+00	 1.022892307692307e+01
0	 6.250000000000001e+00	 3.187500000000000e+00	 1.022751886153845e+01
0	 6.250000000000001e+00	 3.250000000000000e+00	 1.022624406153846e+01
0	 6.250000000000000e+00	 3.312499999999999e+00	 1.022509867692308e+01
0	 6.250000000000001e+00	 3.374999999999999e+00	 1.022408270769230e+01
0	 6.250000000000000e+00	 3.437499999999999e+00	 1.022319615384614e+01
0	 6.250000000000000e+00	 3.499999999999999e+00	 1.022243901538461e+01
0	 6.250000000000000e+00	 3.562499999999998e+00	 1.022181129230769e+01
0	 6.250000000000001e+00	 3.624999999999999e+00	 1.022131298461539e+01
0	 6.250000000000000e+00	 3.687499999999998e+00	 1.022094409230768e+01
0	 6.250000000000000e+00	 3.750000000000000e+00	 1.022070461538462e+01
0	 5.625000000000000e+00	 3.750000000000000e+00	 1.028333846153846e+01
0	 5.625000000000000e+00	 3.812500000000000e+00	 1.027926163076924e+01
0	 5.625000000000001e+00	 3.875000000000000e+00	 1.027532436923077e+01
0	 5.625000000000000e+00	 3.937499999999999e+00	 1.027152667692307e+01
0	 5.625000000000000e+00	 4.000000000000000e+00	 1.026786855384615e+01
0	 5.625000000000000e+00	 4.062499999999999e+00	 1.026435000000001e+01
0	 5.625000000000000e+00	 4.124999999999999e+00	 1.026097101538460e+01
0	 5.624999999999999e+00	 4.187499999999998e+00	 1.025773160000000e+01
0	 5.624999999999999e+00	 4.249999999999998e+00	 1.025463175384615e+01
0	 5.625000000000000e+00	 4.312499999999998e+00	 1.025167147692309e+01
0	 5.625000000000000e+00	 4.375000000000000e+00	 1.024885076923076e+01
0	 5.687500000000001e+00	 3.750000000000000e+00	 1.027684343076923e+01
0	 5.687499999999999e+00	 3.812500000000000e+00	 1.027294306615385e+01
0	 5.687499999999999e+00	 3.875000000000000e+00	 1.026918049846153e+01
0	 5.687499999999999e+00	 3.937500000000000e+00	 1.026555572769230e+01
0	 5.687500000000000e+00	 3.999999999999999e+00	 1.026206875384615e+01
0	 5.687500000000001e+00	 4.062499999999999e+00	 1.025871957692307e+01
0	 5.687500000000001e+00	 4.125000000000000e+00	 1.025550819692308e+01
0	 5.687500000000001e+00	 4.187500000000000e+00	 1.025243461384615e+01
0	 5.687499999999999e+00	 4.250000000000000e+00	 1.024949882769229e+01
0	 5.687499999999998e+00	 4.312499999999997e+00	 1.024670083846153e+01
0	 5.687500000000001e+00	 4.375000000000000e+00	 1.024404064615385e+01
0	 5.750000000000000e+00	 3.750000000000000e+00	 1.027039987692308e+01
0	 5.749999999999998e+00	 3.812500000000000e+00	 1.026667031384616e+01
0	 5.750000000000001e+00	 3.875000000000000e+00	 1.026307677538462e+01
0	 5.749999999999998e+00	 3.937500000000000e+00	 1.025961926153846e+01
0	 5.749999999999999e+00	 3.999999999999999e+00	 1.025629777230769e+01
0	 5.750000000000000e+00	 4.062499999999999e+00	 1.025311230769231e+01
0	 5.750000000000000e+00	 4.124999999999997e+00	 1.025006286769230e+01
0	 5.750000000000000e+00	 4.187499999999998e+00	 1.024714945230768e+01
0	 5.750000000000000e+00	 4.249999999999998e+00	 1.024437206153846e+01
0	 5.750000000000000e+00	 4.312499999999998e+00	 1.024173069538461e+01
0	 5.750000000000000e+00	 4.375000000000000e+00	 1.023922535384613e+01
0	 5.812499999999999e+00	 3.750000000000000e+00	 1.026400780000000e+01
0	 5.812499999999998e+00	 3.812500000000000e+00	 1.026044337384615e+01
0	 5.812500000000000e+00	 3.875000000000000e+00	 1.025701320000000e+01
0	 5.812500000000000e+00	 3.937500000000000e+00	 1.025371727846155e+01
0	 5.812500000000000e+00	 3.999999999999999e+00	 1.025055560923076e+01
0	 5.812500000000000e+00	 4.062500000000000e+00	 1.024752819230768e+01
0	 5.812499999999999e+00	 4.124999999999998e+00	 1.024463502769231e+01
0	 5.812500000000000e+00	 4.187499999999999e+00	 1.024187611538461e+01
0	 5.812499999999999e+00	 4.249999999999998e+00	 1.023925145538460e+01
0	 5.812499999999997e+00	 4.312499999999997e+00	 1.023676104769231e+01
0	 5.812499999999999e+00	 4.375000000000000e+00	 1.023440489230768e+01
0	 5.875000000000000e+00	 3.750000000000000e+00	 1.025766720000000e+01
0	 5.875000000000000e+00	 3.812500000000000e+00	 1.025426224615384e+01
0	 5.875000000000000e+00	 3.875000000000000e+00	 1.025098977230769e+01
0	 5.875000000000000e+00	 3.937500000000000e+00	 1.024784977846153e+01
0	 5.874999999999998e+00	 3.999999999999999e+00	 1.024484226461539e+01
0	 5.874999999999999e+00	 4.062499999999999e+00	 1.024196723076922e+01
0	 5.874999999999998e+00	 4.124999999999998e+00	 1.023922467692308e+01
0	 5.874999999999999e+00	 4.187499999999999e+00	 1.023661460307692e+01
0	 5.875000000000000e+00	 4.249999999999998e+00	 1.023413700923077e+01
0	 5.875000000000000e+00	 4.312499999999998e+00	 1.023179189538461e+01
0	 5.875000000000000e+00	 4.375000000000000e+00	 1.022957926153846e+01
0	 5.937499999999999e+00	 3.750000000000000e+00	 1.025137807692309e+01
0	 5.937499999999999e+00	 3.812500000000000e+00	 1.024812693076923e+01
0	 5.937499999999999e+00	 3.875000000000000e+00	 1.024500649230768e+01
0	 5.937499999999999e+00	 3.937499999999999e+00	 1.024201676153846e+01
0	 5.937499999999999e+00	 3.999999999999998e+00	 1.023915773846153e+01
0	 5.937499999999999e+00	 4.062499999999999e+00	 1.023642942307692e+01
0	 5.937499999999999e+00	 4.125000000000000e+00	 1.023383181538461e+01
0	 5.937500000000000e+00	 4.187499999999998e+00	 1.023136491538461e+01
0	 5.937499999999999e+00	 4.249999999999998e+00	 1.022902872307691e+01
0	 5.937500000000000e+00	 4.312499999999998e+00	 1.022682323846152e+01
0	 5.937499999999999e+00	 4.375000000000000e+00	 1.022474846153844e+01
0	 5.999999999999998e+00	 3.750000000000000e+00	 1.024514043076923e+01
0	 5.999999999999999e+00	 3.812500000000000e+00	 1.024203742769230e+01
0	 5.999999999999999e+00	 3.874999999999999e+00	 1.023906335999999e+01
0	 5.999999999999999e+00	 3.937500000000000e+00	 1.023621822769231e+01
0	 5.999999999999999e+00	 4.000000000000000e+00	 1.023350203076923e+01
0	 5.999999999999999e+00	 4.062500000000000e+00	 1.023091476923077e+01
0	 5.999999999999998e+00	 4.124999999999999e+00	 1.022845644307693e+01
0	 5.999999999999999e+00	 4.187499999999998e+00	 1.022612705230768e+01
0	 5.999999999999999e+00	 4.249999999999999e+00	 1.022392659692307e+01
0	 5.999999999999999e+00	 4.312499999999997e+00	 1.022185507692307e+01
0	 5.999999999999998e+00	 4.375000000000000e+00	 1.021991249230767e+01
0	 6.062499999999998e+00	 3.750000000000000e+00	 1.023895426153846e+01
0	 6.062499999999999e+00	 3.812500000000000e+00	 1.023599373692308e+01
0	 6.062499999999999e+00	 3.875000000000000e+00	 1.023316037538462e+01
0	 6.062499999999998e+00	 3.937499999999999e+00	 1.023045417692307e+01
0	 6.062499999999998e+00	 3.999999999999999e+00	 1.022787514153846e+01
0	 6.062500000000000e+00	 4.062500000000000e+00	 1.022542326923077e+01
0	 6.062499999999999e+00	 4.124999999999999e+00	 1.022309855999999e+01
0	 6.062499999999999e+00	 4.187499999999999e+00	 1.022090101384615e+01
0	 6.062499999999999e+00	 4.249999999999998e+00	 1.021883063076923e+01
0	 6.062499999999999e+00	 4.312499999999998e+00	 1.021688741076924e+01
0	 6.062499999999998e+00	 4.375000000000000e+00	 1.021507135384615e+01
0	 6.124999999999998e+00	 3.750000000000000e+00	 1.023281956923077e+01
0	 6.125000000000000e+00	 3.812500000000000e+00	 1.022999585846155e+01
0	 6.124999999999998e+00	 3.875000000000000e+00	 1.022729753846154e+01
0	 6.124999999999999e+00	 3.937500000000000e+00	 1.022472460923077e+01
0	 6.124999999999999e+00	 3.999999999999999e+00	 1.022227707076923e+01
0	 6.124999999999998e+00	 4.062499999999998e+00	 1.021995492307692e+01
0	 6.124999999999998e+00	 4.124999999999999e+00	 1.021775816615385e+01
0	 6.124999999999998e+00	 4.187499999999998e+00	 1.021568679999999e+01
0	 6.124999999999999e+00	 4.249999999999998e+00	 1.021374082461538e+01
0	 6.124999999999998e+00	 4.312499999999998e+00	 1.021192024000001e+01
0	 6.124999999999998e+00	 4.375000000000000e+00	 1.021022504615385e+01
0	 6.187499999999997e+00	 3.750000000000000e+00	 1.022673635384615e+01
0	 6.187499999999998e+00	 3.812500000000000e+00	 1.022404379230770e+01
0	 6.187499999999998e+00	 3.875000000000000e+00	 1.022147484923077e+01
0	 6.187499999999997e+00	 3.937499999999999e+00	 1.021902952461538e+01
0	 6.187499999999998e+00	 3.999999999999999e+00	 1.021670781846153e+01
0	 6.187499999999997e+00	 4.062499999999998e+00	 1.021450973076923e+01
0	 6.187499999999997e+00	 4.124999999999998e+00	 1.021243526153846e+01
0	 6.187499999999997e+00	 4.187499999999998e+00	 1.021048441076923e+01
0	 6.187499999999998e+00	 4.249999999999998e+00	 1.020865717846154e+01
0	 6.187499999999997e+00	 4.312499999999998e+00	 1.020695356461539e+01
0	 6.187499999999997e+00	 4.375000000000000e+00	 1.020537356923076e+01
0	 6.250000000000000e+00	 3.750000000000000e+00	 1.022070461538462e+01
0	 6.250000000000001e+00	 3.812500000000000e+00	 1.021813753846155e+01
0	 6.250000000000001e+00	 3.875000000000000e+00	 1.021569230769231e+01
0	 6.250000000000000e+00	 3.937499999999999e+00	 1.021336892307692e+01
0	 6.250000000000001e+00	 4.000000000000000e+00	 1.021116738461538e+01
0	 6.250000000000000e+00	 4.062499999999999e+00	 1.020908769230770e+01
0	 6.250000000000000e+00	 4.124999999999999e+00	 1.020712984615384e+01
0	 6.250000000000000e+00	 4.187499999999998e+00	 1.020529384615384e+01
0	 6.250000000000001e+00	 4.249999999999998e+00	 1.020357969230769e+01
0	 6.250000000000000e+00	 4.312499999999998e+00	 1.020198738461539e+01
0	 6.250000000000000e+00	 4.375000000000000e+00	 1.020051692307692e+01
0	 5.625000000000000e+00	 4.375000000000000e+00	 1.024885076923076e+01
0	 5.625000000000000e+00	 4.437499999999999e+00	 1.024426450769228e+01
0	 5.625000000000001e+00	 4.500000000000001e+00	 1.023977895384614e+01
0	 5.625000000000000e+00	 4.562499999999999e+00	 1.023539410769231e+01
0	 5.625000000000000e+00	 4.625000000000000e+00	 1.023110996923076e+01
0	 5.625000000000000e+00	 4.687499999999999e+00	 1.022692653846153e+01
0	 5.625000000000000e+00	 4.749999999999999e+00	 1.022284381538461e+01
0	 5.624999999999999e+00	 4.812499999999998e+00	 1.021886180000000e+01
0	 5.624999999999999e+00	 4.874999999999998e+00	 1.021498049230768e+01
0	 5.625000000000000e+00	 4.937499999999998e+00	 1.021119989230768e+01
0	 5.625000000000000e+00	 5.000000000000000e+00	 1.020752000000000e+01
0	 5.687500000000001e+00	 4.375000000000000e+00	 1.024404064615385e+01
0	 5.687499999999999e+00	 4.437500000000000e+00	 1.023964384461537e+01
0	 5.687499999999999e+00	 4.499999999999999e+00	 1.023534594153846e+01
0	 5.687499999999999e+00	 4.562499999999999e+00	 1.023114693692306e+01
0	 5.687500000000000e+00	 4.625000000000000e+00	 1.022704683076922e+01
0	 5.687500000000001e+00	 4.687500000000001e+00	 1.022304562307692e+01
0	 5.687500000000001e+00	 4.749999999999999e+00	 1.021914331384615e+01
0	 5.687500000000001e+00	 4.812499999999999e+00	 1.021533990307692e+01
0	 5.687499999999999e+00	 4.875000000000000e+00	 1.021163539076922e+01
0	 5.687499999999998e+00	 4.937499999999997e+00	 1.020802977692308e+01
0	 5.687500000000001e+00	 4.999999999999999e+00	 1.020452306153845e+01
0	 5.750000000000000e+00	 4.375000000000000e+00	 1.023922535384613e+01
0	 5.749999999999998e+00	 4.437500000000000e+00	 1.023500963384615e+01
0	 5.750000000000001e+00	 4.500000000000001e+00	 1.023089100307691e+01
0	 5.749999999999998e+00	 4.562499999999999e+00	 1.022686946153845e+01
0	 5.749999999999999e+00	 4.624999999999998e+00	 1.022294500923076e+01
0	 5.750000000000000e+00	 4.687499999999997e+00	 1.021911764615385e+01
0	 5.750000000000000e+00	 4.749999999999998e+00	 1.021538737230768e+01
0	 5.750000000000000e+00	 4.812499999999999e+00	 1.021175418769230e+01
0	 5.750000000000000e+00	 4.874999999999998e+00	 1.020821809230769e+01
0	 5.750000000000000e+00	 4.937499999999998e+00	 1.020477908615385e+01
0	 5.750000000000000e+00	 5.000000000000000e+00	 1.020143716923077e+01
0	 5.812499999999999e+00	 4.375000000000000e+00	 1.023440489230768e+01
0	 5.812499999999998e+00	 4.437500000000000e+00	 1.023036187538460e+01
0	 5.812500000000000e+00	 4.500000000000000e+00	 1.022641413846153e+01
0	 5.812500000000000e+00	 4.562499999999999e+00	 1.022256168153845e+01
0	 5.812500000000000e+00	 4.625000000000000e+00	 1.021880450461538e+01
0	 5.812500000000000e+00	 4.687499999999999e+00	 1.021514260769230e+01
0	 5.812499999999999e+00	 4.749999999999998e+00	 1.021157599076923e+01
0	 5.812500000000000e+00	 4.812499999999998e+00	 1.020810465384614e+01
0	 5.812499999999999e+00	 4.874999999999998e+00	 1.020472859692308e+01
0	 5.812499999999997e+00	 4.937499999999997e+00	 1.020144782000001e+01
0	 5.812499999999999e+00	 4.999999999999999e+00	 1.019826232307693e+01
0	 5.875000000000000e+00	 4.375000000000000e+00	 1.022957926153846e+01
0	 5.875000000000000e+00	 4.437500000000000e+00	 1.022570056923076e+01
0	 5.875000000000000e+00	 4.500000000000000e+00	 1.022191534769229e+01
0	 5.875000000000000e+00	 4.562499999999999e+00	 1.021822359692307e+01
0	 5.874999999999998e+00	 4.624999999999999e+00	 1.021462531692308e+01
0	 5.874999999999999e+00	 4.687500000000000e+00	 1.021112050769231e+01
0	 5.874999999999998e+00	 4.749999999999998e+00	 1.020770916923077e+01
0	 5.874999999999999e+00	 4.812499999999999e+00	 1.020439130153846e+01
0	 5.875000000000000e+00	 4.874999999999998e+00	 1.020116690461538e+01
0	 5.875000000000000e+00	 4.937499999999997e+00	 1.019803597846153e+01
0	 5.875000000000000e+00	 5.000000000000000e+00	 1.019499852307693e+01
0	 5.937499999999999e+00	 4.375000000000000e+00	 1.022474846153844e+01
0	 5.937499999999999e+00	 4.437499999999999e+00	 1.022102571538461e+01
0	 5.937499999999999e+00	 4.499999999999999e+00	 1.021739463076923e+01
0	 5.937499999999999e+00	 4.562499999999999e+00	 1.021385520769230e+01
0	 5.937499999999999e+00	 4.624999999999998e+00	 1.021040744615385e+01
0	 5.937499999999999e+00	 4.687499999999999e+00	 1.020705134615385e+01
0	 5.937499999999999e+00	 4.750000000000000e+00	 1.020378690769231e+01
0	 5.937500000000000e+00	 4.812499999999998e+00	 1.020061413076923e+01
0	 5.937499999999999e+00	 4.874999999999998e+00	 1.019753301538462e+01
0	 5.937500000000000e+00	 4.937499999999999e+00	 1.019454356153847e+01
0	 5.937499999999999e+00	 5.000000000000000e+00	 1.019164576923079e+01
0	 5.999999999999998e+00	 4.375000000000000e+00	 1.021991249230767e+01
0	 5.999999999999999e+00	 4.437499999999999e+00	 1.021633731384615e+01
0	 5.999999999999999e+00	 4.499999999999998e+00	 1.021285198769229e+01
0	 5.999999999999999e+00	 4.562499999999999e+00	 1.020945651384614e+01
0	 5.999999999999999e+00	 4.625000000000001e+00	 1.020615089230769e+01
0	 5.999999999999999e+00	 4.687499999999999e+00	 1.020293512307692e+01
0	 5.999999999999998e+00	 4.749999999999998e+00	 1.019980920615385e+01
0	 5.999999999999999e+00	 4.812499999999999e+00	 1.019677314153846e+01
0	 5.999999999999999e+00	 4.874999999999998e+00	 1.019382692923078e+01
0	 5.999999999999999e+00	 4.937499999999999e+00	 1.019097056923077e+01
0	 5.999999999999998e+00	 5.000000000000001e+00	 1.018820406153848e+01
0	 6.062499999999998e+00	 4.375000000000000e+00	 1.021507135384615e+01
0	 6.062499999999999e+00	 4.437499999999999e+00	 1.021163536461538e+01
0	 6.062499999999999e+00	 4.500000000000000e+00	 1.020828741846153e+01
0	 6.062499999999998e+00	 4.562499999999999e+00	 1.020502751538461e+01
0	 6.062499999999998e+00	 4.625000000000000e+00	 1.020185565538462e+01
0	 6.062500000000000e+00	 4.687500000000000e+00	 1.019877183846153e+01
0	 6.062499999999999e+00	 4.749999999999999e+00	 1.019577606461538e+01
0	 6.062499999999999e+00	 4.812499999999999e+00	 1.019286833384616e+01
0	 6.062499999999999e+00	 4.874999999999998e+00	 1.019004864615384e+01
0	 6.062499999999999e+00	 4.937499999999999e+00	 1.018731700153847e+01
0	 6.062499999999998e+00	 4.999999999999999e+00	 1.018467340000001e+01
0	 6.124999999999998e+00	 4.375000000000000e+00	 1.021022504615385e+01
0	 6.125000000000000e+00	 4.437500000000001e+00	 1.020691986769231e+01
0	 6.124999999999998e+00	 4.499999999999999e+00	 1.020370092307691e+01
0	 6.124999999999999e+00	 4.562500000000000e+00	 1.020056821230768e+01
0	 6.124999999999999e+00	 4.624999999999999e+00	 1.019752173538460e+01
0	 6.124999999999998e+00	 4.687499999999998e+00	 1.019456149230770e+01
0	 6.124999999999998e+00	 4.749999999999999e+00	 1.019168748307692e+01
0	 6.124999999999998e+00	 4.812499999999998e+00	 1.018889970769231e+01
0	 6.124999999999999e+00	 4.874999999999999e+00	 1.018619816615384e+01
0	 6.124999999999998e+00	 4.937499999999998e+00	 1.018358285846154e+01
0	 6.124999999999998e+00	 5.000000000000000e+00	 1.018105378461538e+01
0	 6.187499999999997e+00	 4.375000000000000e+00	 1.020537356923076e+01
0	 6.187499999999998e+00	 4.437500000000000e+00	 1.020219082307692e+01
0	 6.187499999999998e+00	 4.500000000000000e+00	 1.019909250153845e+01
0	 6.187499999999997e+00	 4.562500000000000e+00	 1.019607860461539e+01
0	 6.187499999999998e+00	 4.624999999999999e+00	 1.019314913230768e+01
0	 6.187499999999997e+00	 4.687499999999999e+00	 1.019030408461538e+01
0	 6.187499999999997e+00	 4.749999999999999e+00	 1.018754346153846e+01
0	 6.187499999999997e+00	 4.812499999999998e+00	 1.018486726307693e+01
0	 6.187499999999998e+00	 4.874999999999999e+00	 1.018227548923077e+01
0	 6.187499999999997e+00	 4.937499999999998e+00	 1.017976814000000e+01
0	 6.187499999999997e+00	 5.000000000000000e+00	 1.017734521538463e+01
0	 6.250000000000000e+00	 4.375000000000000e+00	 1.020051692307692e+01
0	 6.250000000000001e+00	 4.437499999999999e+00	 1.019744823076921e+01
0	 6.250000000000001e+00	 4.500000000000001e+00	 1.019446215384614e+01
0	 6.250000000000000e+00	 4.562499999999999e+00	 1.019155869230770e+01
0	 6.250000000000001e+00	 4.625000000000000e+00	 1.018873784615385e+01
0	 6.250000000000000e+00	 4.687499999999999e+00	 1.018599961538462e+01
0	 6.250000000000000e+00	 4.749999999999999e+00	 1.018334400000000e+01
0	 6.250000000000000e+00	 4.812499999999998e+00	 1.018077100000000e+01
0	 6.250000000000001e+00	 4.874999999999998e+00	 1.017828061538461e+01
0	 6.250000000000000e+00	 4.937499999999998e+00	 1.017587284615384e+01
0	 6.250000000000000e+00	 5.000000000000000e+00	 1.017354769230770e+01
0	 5.625000000000000e+00	 5.000000000000000e+00	 1.020752000000000e+01
0	 5.625000000000000e+00	 5.062500000000000e+00	 1.020315833846155e+01
0	 5.625000000000001e+00	 5.125000000000001e+00	 1.019884227692308e+01
0	 5.625000000000000e+00	 5.187499999999999e+00	 1.019457181538461e+01
0	 5.625000000000000e+00	 5.249999999999999e+00	 1.019034695384615e+01
0	 5.625000000000000e+00	 5.312499999999999e+00	 1.018616769230770e+01
0	 5.625000000000000e+00	 5.374999999999998e+00	 1.018203403076923e+01
0	 5.624999999999999e+00	 5.437499999999998e+00	 1.017794596923077e+01
0	 5.624999999999999e+00	 5.499999999999998e+00	 1.017390350769231e+01
0	 5.625000000000000e+00	 5.562499999999998e+00	 1.016990664615384e+01
0	 5.625000000000000e+00	 5.625000000000000e+00	 1.016595538461539e+01
0	 5.687500000000001e+00	 4.999999999999999e+00	 1.020452306153845e+01
0	 5.687499999999999e+00	 5.062500000000000e+00	 1.020027683692307e+01
0	 5.687499999999999e+00	 5.125000000000000e+00	 1.019607706153846e+01
0	 5.687499999999999e+00	 5.187499999999999e+00	 1.019192373538461e+01
0	 5.687500000000000e+00	 5.249999999999998e+00	 1.018781685846154e+01
0	 5.687500000000001e+00	 5.312500000000000e+00	 1.018375643076923e+01
0	 5.687500000000001e+00	 5.374999999999999e+00	 1.017974245230769e+01
0	 5.687500000000001e+00	 5.437499999999999e+00	 1.017577492307693e+01
0	 5.687499999999999e+00	 5.499999999999999e+00	 1.017185384307692e+01
0	 5.687499999999998e+00	 5.562499999999996e+00	 1.016797921230772e+01
0	 5.687500000000001e+00	 5.625000000000000e+00	 1.016415103076923e+01
0	 5.750000000000000e+00	 5.000000000000000e+00	 1.020143716923077e+01
0	 5.749999999999998e+00	 5.062499999999999e+00	 1.019730452923077e+01
0	 5.750000000000001e+00	 5.125000000000001e+00	 1.019321918769230e+01
0	 5.749999999999998e+00	 5.187499999999998e+00	 1.018918114461538e+01
0	 5.749999999999999e+00	 5.249999999999999e+00	 1.018519040000000e+01
0	 5.750000000000000e+00	 5.312499999999999e+00	 1.018124695384615e+01
0	 5.750000000000000e+00	 5.374999999999999e+00	 1.017735080615385e+01
0	 5.750000000000000e+00	 5.437499999999999e+00	 1.017350195692309e+01
0	 5.750000000000000e+00	 5.499999999999998e+00	 1.016970040615384e+01
0	 5.750000000000000e+00	 5.562499999999999e+00	 1.016594615384614e+01
0	 5.750000000000000e+00	 5.625000000000000e+00	 1.016223920000002e+01
0	 5.812499999999999e+00	 4.999999999999999e+00	 1.019826232307693e+01
0	 5.812499999999998e+00	 5.062500000000001e+00	 1.019424141538461e+01
0	 5.812500000000000e+00	 5.125000000000000e+00	 1.019026865538462e+01
0	 5.812500000000000e+00	 5.187499999999999e+00	 1.018634404307692e+01
0	 5.812500000000000e+00	 5.250000000000000e+00	 1.018246757846154e+01
0	 5.812500000000000e+00	 5.312499999999999e+00	 1.017863926153846e+01
0	 5.812499999999999e+00	 5.374999999999998e+00	 1.017485909230769e+01
0	 5.812500000000000e+00	 5.437499999999999e+00	 1.017112707076923e+01
0	 5.812499999999999e+00	 5.499999999999998e+00	 1.016744319692308e+01
0	 5.812499999999997e+00	 5.562499999999997e+00	 1.016380747076922e+01
0	 5.812499999999999e+00	 5.625000000000000e+00	 1.016021989230766e+01
0	 5.875000000000000e+00	 5.000000000000000e+00	 1.019499852307693e+01
0	 5.875000000000000e+00	 5.062500000000000e+00	 1.019108749538461e+01
0	 5.875000000000000e+00	 5.125000000000000e+00	 1.018722546461538e+01
0	 5.875000000000000e+00	 5.187500000000000e+00	 1.018341243076923e+01
0	 5.874999999999998e+00	 5.249999999999999e+00	 1.017964839384615e+01
0	 5.874999999999999e+00	 5.312499999999999e+00	 1.017593335384615e+01
0	 5.874999999999998e+00	 5.374999999999998e+00	 1.017226731076923e+01
0	 5.874999999999999e+00	 5.437499999999999e+00	 1.016865026461539e+01
0	 5.875000000000000e+00	 5.499999999999999e+00	 1.016508221538462e+01
0	 5.875000000000000e+00	 5.562499999999998e+00	 1.016156316307694e+01
0	 5.875000000000000e+00	 5.625000000000000e+00	 1.015809310769231e+01
0	 5.937499999999999e+00	 5.000000000000000e+00	 1.019164576923079e+01
0	 5.937499999999999e+00	 5.062500000000000e+00	 1.018784276923078e+01
0	 5.937499999999999e+00	 5.124999999999999e+00	 1.018408961538462e+01
0	 5.937499999999999e+00	 5.187500000000000e+00	 1.018038630769231e+01
0	 5.937499999999999e+00	 5.249999999999998e+00	 1.017673284615385e+01
0	 5.937499999999999e+00	 5.312499999999999e+00	 1.017312923076923e+01
0	 5.937499999999999e+00	 5.375000000000000e+00	 1.016957546153846e+01
0	 5.937500000000000e+00	 5.437499999999998e+00	 1.016607153846154e+01
0	 5.937499999999999e+00	 5.499999999999998e+00	 1.016261746153847e+01
0	 5.937500000000000e+00	 5.562499999999999e+00	 1.015921323076923e+01
0	 5.937499999999999e+00	 5.625000000000000e+00	 1.015585884615385e+01
0	 5.999999999999998e+00	 5.000000000000001e+00	 1.018820406153848e+01
0	 5.999999999999999e+00	 5.062499999999999e+00	 1.018450723692307e+01
0	 5.999999999999999e+00	 5.125000000000000e+00	 1.018086110769229e+01
0	 5.999999999999999e+00	 5.187500000000000e+00	 1.017726567384616e+01
0	 5.999999999999999e+00	 5.250000000000001e+00	 1.017372093538461e+01
0	 5.999999999999999e+00	 5.312500000000001e+00	 1.017022689230770e+01
0	 5.999999999999998e+00	 5.374999999999999e+00	 1.016678354461539e+01
0	 5.999999999999999e+00	 5.437499999999999e+00	 1.016339089230770e+01
0	 5.999999999999999e+00	 5.499999999999998e+00	 1.016004893538461e+01
0	 5.999999999999999e+00	 5.562499999999998e+00	 1.015675767384615e+01
0	 5.999999999999998e+00	 5.625000000000000e+00	 1.015351710769229e+01
0	 6.062499999999998e+00	 4.999999999999999e+00	 1.018467340000001e+01
0	 6.062499999999999e+00	 5.062500000000000e+00	 1.018108089846154e+01
0	 6.062499999999999e+00	 5.125000000000000e+00	 1.017753994153846e+01
0	 6.062499999999998e+00	 5.187500000000000e+00	 1.017405052923077e+01
0	 6.062499999999998e+00	 5.250000000000000e+00	 1.017061266153847e+01
0	 6.062500000000000e+00	 5.312500000000000e+00	 1.016722633846155e+01
0	 6.062499999999999e+00	 5.374999999999999e+00	 1.016389156000000e+01
0	 6.062499999999999e+00	 5.437499999999998e+00	 1.016060832615383e+01
0	 6.062499999999999e+00	 5.499999999999998e+00	 1.015737663692308e+01
0	 6.062499999999999e+00	 5.562499999999999e+00	 1.015419649230769e+01
0	 6.062499999999998e+00	 5.625000000000000e+00	 1.015106789230769e+01
0	 6.124999999999998e+00	 5.000000000000000e+00	 1.018105378461538e+01
0	 6.125000000000000e+00	 5.062500000000002e+00	 1.017756375384616e+01
0	 6.124999999999998e+00	 5.124999999999999e+00	 1.017412611692309e+01
0	 6.124999999999999e+00	 5.187500000000000e+00	 1.017074087384617e+01
0	 6.124999999999999e+00	 5.249999999999998e+00	 1.016740802461538e+01
0	 6.124999999999998e+00	 5.312499999999999e+00	 1.016412756923077e+01
0	 6.124999999999998e+00	 5.374999999999998e+00	 1.016089950769230e+01
0	 6.124999999999998e+00	 5.437499999999998e+00	 1.015772383999998e+01
0	 6.124999999999999e+00	 5.499999999999999e+00	 1.015460056615386e+01
0	 6.124999999999998e+00	 5.562499999999998e+00	 1.015152968615385e+01
0	 6.124999999999998e+00	 5.625000000000000e+00	 1.014851120000001e+01
0	 6.187499999999997e+00	 5.000000000000000e+00	 1.017734521538463e+01
0	 6.187499999999998e+00	 5.062500000000000e+00	 1.017395580307693e+01
0	 6.187499999999998e+00	 5.125000000000001e+00	 1.017061963384616e+01
0	 6.187499999999997e+00	 5.187499999999999e+00	 1.016733670769230e+01
0	 6.187499999999998e+00	 5.249999999999999e+00	 1.016410702461539e+01
0	 6.187499999999997e+00	 5.312499999999998e+00	 1.016093058461539e+01
0	 6.187499999999997e+00	 5.374999999999997e+00	 1.015780738769231e+01
0	 6.187499999999997e+00	 5.437499999999998e+00	 1.015473743384616e+01
0	 6.187499999999998e+00	 5.499999999999999e+00	 1.015172072307693e+01
0	 6.187499999999997e+00	 5.562499999999998e+00	 1.014875725538461e+01
0	 6.187499999999997e+00	 5.625000000000000e+00	 1.014584703076923e+01
0	 6.250000000000000e+00	 5.000000000000000e+00	 1.017354769230770e+01
0	 6.250000000000001e+00	 5.062500000000000e+00	 1.017025704615387e+01
0	 6.250000000000001e+00	 5.125000000000001e+00	 1.016702049230770e+01
0	 6.250000000000000e+00	 5.187499999999999e+00	 1.016383803076923e+01
0	 6.250000000000001e+00	 5.249999999999999e+00	 1.016070966153846e+01
0	 6.250000000000000e+00	 5.312499999999999e+00	 1.015763538461539e+01
0	 6.250000000000000e+00	 5.374999999999998e+00	 1.015461519999999e+01
0	 6.250000000000000e+00	 5.437499999999998e+00	 1.015164910769231e+01
0	 6.250000000000001e+00	 5.499999999999998e+00	 1.014873710769231e+01
0	 6.250000000000000e+00	 5.562499999999998e+00	 1.014587920000000e+01
0	 6.250000000000000e+00	 5.625000000000000e+00	 1.014307538461538e+01
0	 5.625000000000000e+00	 5.625000000000000e+00	 1.016595538461539e+01
0	 5.625000000000000e+00	 5.687500000000000e+00	 1.016196461538461e+01
0	 5.625000000000001e+00	 5.750000000000000e+00	 1.015799138461538e+01
0	 5.625000000000000e+00	 5.812499999999999e+00	 1.015403569230770e+01
0	 5.625000000000000e+00	 5.874999999999999e+00	 1.015009753846154e+01
0	 5.625000000000000e+00	 5.937499999999999e+00	 1.014617692307693e+01
0	 5.625000000000000e+00	 5.999999999999998e+00	 1.014227384615386e+01
0	 5.624999999999999e+00	 6.062499999999998e+00	 1.013838830769231e+01
0	 5.624999999999999e+00	 6.124999999999998e+00	 1.013452030769230e+01
0	 5.625000000000000e+00	 6.187499999999998e+00	 1.013066984615384e+01
0	 5.625000000000000e+00	 6.250000000000000e+00	 1.012683692307692e+01
0	 5.687500000000001e+00	 5.625000000000000e+00	 1.016415103076923e+01
0	 5.687499999999999e+00	 5.687499999999999e+00	 1.016024739384616e+01
0	 5.687499999999999e+00	 5.749999999999999e+00	 1.015636186769231e+01
0	 5.687499999999999e+00	 5.812499999999998e+00	 1.015249445230769e+01
0	 5.687500000000000e+00	 5.875000000000000e+00	 1.014864514769231e+01
0	 5.687500000000001e+00	 5.937500000000001e+00	 1.014481395384615e+01
0	 5.687500000000001e+00	 5.999999999999999e+00	 1.014100087076923e+01
0	 5.687500000000001e+00	 6.062500000000000e+00	 1.013720589846153e+01
0	 5.687499999999999e+00	 6.125000000000000e+00	 1.013342903692306e+01
0	 5.687499999999998e+00	 6.187499999999996e+00	 1.012967028615384e+01
0	 5.687500000000001e+00	 6.250000000000000e+00	 1.012592964615384e+01
0	 5.750000000000000e+00	 5.625000000000000e+00	 1.016223920000002e+01
0	 5.749999999999998e+00	 5.687499999999999e+00	 1.015842161846154e+01
0	 5.750000000000001e+00	 5.750000000000002e+00	 1.015462272000000e+01
0	 5.749999999999998e+00	 5.812499999999999e+00	 1.015084250461538e+01
0	 5.749999999999999e+00	 5.874999999999998e+00	 1.014708097230770e+01
0	 5.750000000000000e+00	 5.937499999999999e+00	 1.014333812307692e+01
0	 5.750000000000000e+00	 5.999999999999998e+00	 1.013961395692307e+01
0	 5.750000000000000e+00	 6.062499999999999e+00	 1.013590847384614e+01
0	 5.750000000000000e+00	 6.124999999999998e+00	 1.013222167384614e+01
0	 5.750000000000000e+00	 6.187499999999998e+00	 1.012855355692307e+01
0	 5.750000000000000e+00	 6.250000000000000e+00	 1.012490412307693e+01
0	 5.812499999999999e+00	 5.625000000000000e+00	 1.016021989230766e+01
0	 5.812499999999998e+00	 5.687500000000000e+00	 1.015648728923076e+01
0	 5.812500000000000e+00	 5.749999999999999e+00	 1.015277394153846e+01
0	 5.812500000000000e+00	 5.812499999999999e+00	 1.014907984923077e+01
0	 5.812500000000000e+00	 5.875000000000000e+00	 1.014540501230770e+01
0	 5.812500000000000e+00	 5.937500000000000e+00	 1.014174943076923e+01
0	 5.812499999999999e+00	 5.999999999999998e+00	 1.013811310461539e+01
0	 5.812500000000000e+00	 6.062499999999998e+00	 1.013449603384617e+01
0	 5.812499999999999e+00	 6.124999999999997e+00	 1.013089821846154e+01
0	 5.812499999999997e+00	 6.187499999999997e+00	 1.012731965846154e+01
0	 5.812499999999999e+00	 6.250000000000000e+00	 1.012376035384615e+01
0	 5.875000000000000e+00	 5.625000000000000e+00	 1.015809310769231e+01
0	 5.875000000000000e+00	 5.687500000000000e+00	 1.015444440615386e+01
0	 5.875000000000000e+00	 5.750000000000000e+00	 1.015081553230770e+01
0	 5.875000000000000e+00	 5.812500000000000e+00	 1.014720648615385e+01
0	 5.874999999999998e+00	 5.874999999999999e+00	 1.014361726769231e+01
0	 5.874999999999999e+00	 5.937499999999999e+00	 1.014004787692308e+01
0	 5.874999999999998e+00	 5.999999999999997e+00	 1.013649831384616e+01
0	 5.874999999999999e+00	 6.062499999999998e+00	 1.013296857846154e+01
0	 5.875000000000000e+00	 6.124999999999999e+00	 1.012945867076924e+01
0	 5.875000000000000e+00	 6.187499999999998e+00	 1.012596859076924e+01
0	 5.875000000000000e+00	 6.250000000000000e+00	 1.012249833846153e+01
0	 5.937499999999999e+00	 5.625000000000000e+00	 1.015585884615385e+01
0	 5.937499999999999e+00	 5.687500000000000e+00	 1.015229296923077e+01
0	 5.937499999999999e+00	 5.750000000000000e+00	 1.014874749230770e+01
0	 5.937499999999999e+00	 5.812500000000000e+00	 1.014522241538462e+01
0	 5.937499999999999e+00	 5.874999999999998e+00	 1.014171773846155e+01
0	 5.937499999999999e+00	 5.937499999999998e+00	 1.013823346153846e+01
0	 5.937499999999999e+00	 6.000000000000000e+00	 1.013476958461539e+01
0	 5.937500000000000e+00	 6.062499999999998e+00	 1.013132610769232e+01
0	 5.937499999999999e+00	 6.124999999999998e+00	 1.012790303076923e+01
0	 5.937500000000000e+00	 6.187499999999999e+00	 1.012450035384616e+01
0	 5.937499999999999e+00	 6.250000000000000e+00	 1.012111807692308e+01
0	 5.999999999999998e+00	 5.625000000000000e+00	 1.015351710769229e+01
0	 5.999999999999999e+00	 5.687499999999999e+00	 1.015003297846154e+01
0	 5.999999999999999e+00	 5.750000000000000e+00	 1.014656982153844e+01
0	 5.999999999999999e+00	 5.812499999999999e+00	 1.014312763692307e+01
0	 5.999999999999999e+00	 5.875000000000001e+00	 1.013970642461538e+01
0	 5.999999999999999e+00	 5.937499999999999e+00	 1.013630618461539e+01
0	 5.999999999999998e+00	 5.999999999999998e+00	 1.013292691692308e+01
0	 5.999999999999999e+00	 6.062499999999999e+00	 1.012956862153847e+01
0	 5.999999999999999e+00	 6.124999999999998e+00	 1.012623129846154e+01
0	 5.999999999999999e+00	 6.187499999999998e+00	 1.012291494769232e+01
0	 5.999999999999998e+00	 6.250000000000000e+00	 1.011961956923077e+01
0	 6.062499999999998e+00	 5.625000000000000e+00	 1.015106789230769e+01
0	 6.062499999999999e+00	 5.687500000000000e+00	 1.014766443384615e+01
0	 6.062499999999999e+00	 5.750000000000000e+00	 1.014428251999999e+01
0	 6.062499999999998e+00	 5.812499999999999e+00	 1.014092215076923e+01
0	 6.062499999999998e+00	 5.874999999999999e+00	 1.013758332615386e+01
0	 6.062500000000000e+00	 5.937500000000001e+00	 1.013426604615385e+01
0	 6.062499999999999e+00	 5.999999999999999e+00	 1.013097031076923e+01
0	 6.062499999999999e+00	 6.062499999999999e+00	 1.012769612000000e+01
0	 6.062499999999999e+00	 6.124999999999999e+00	 1.012444347384615e+01
0	 6.062499999999999e+00	 6.187499999999999e+00	 1.012121237230770e+01
0	 6.062499999999998e+00	 6.250000000000000e+00	 1.011800281538463e+01
0	 6.124999999999998e+00	 5.625000000000000e+00	 1.014851120000001e+01
0	 6.125000000000000e+00	 5.687500000000000e+00	 1.014518733538462e+01
0	 6.124999999999998e+00	 5.750000000000000e+00	 1.014188558769231e+01
0	 6.124999999999999e+00	 5.812499999999999e+00	 1.013860595692307e+01
0	 6.124999999999999e+00	 5.875000000000000e+00	 1.013534844307691e+01
0	 6.124999999999998e+00	 5.937500000000000e+00	 1.013211304615383e+01
0	 6.124999999999998e+00	 5.999999999999998e+00	 1.012889976615384e+01
0	 6.124999999999998e+00	 6.062499999999998e+00	 1.012570860307692e+01
0	 6.124999999999999e+00	 6.124999999999999e+00	 1.012253955692308e+01
0	 6.124999999999998e+00	 6.187499999999998e+00	 1.011939262769233e+01
0	 6.124999999999998e+00	 6.250000000000000e+00	 1.011626781538462e+01
0	 6.187499999999997e+00	 5.625000000000000e+00	 1.014584703076923e+01
0	 6.187499999999998e+00	 5.687500000000000e+00	 1.014260168307692e+01
0	 6.187499999999998e+00	 5.750000000000000e+00	 1.013937902461537e+01
0	 6.187499999999997e+00	 5.812499999999999e+00	 1.013617905538460e+01
0	 6.187499999999998e+00	 5.875000000000000e+00	 1.013300177538462e+01
0	 6.187499999999997e+00	 5.937499999999999e+00	 1.012984718461539e+01
0	 6.187499999999997e+00	 5.999999999999998e+00	 1.012671528307694e+01
0	 6.187499999999997e+00	 6.062499999999998e+00	 1.012360607076924e+01
0	 6.187499999999998e+00	 6.124999999999998e+00	 1.012051954769231e+01
0	 6.187499999999997e+00	 6.187499999999997e+00	 1.011745571384616e+01
0	 6.187499999999997e+00	 6.250000000000000e+00	 1.011441456923077e+01
0	 6.250000000000000e+00	 5.625000000000000e+00	 1.014307538461538e+01
0	 6.250000000000001e+00	 5.687500000000000e+00	 1.013990747692307e+01
0	 6.250000000000001e+00	 5.750000000000000e+00	 1.013676283076922e+01
0	 6.250000000000000e+00	 5.812499999999999e+00	 1.013364144615386e+01
0	 6.250000000000001e+00	 5.874999999999999e+00	 1.013054332307692e+01
0	 6.250000000000000e+00	 5.937499999999999e+00	 1.012746846153846e+01
0	 6.250000000000000e+00	 5.999999999999998e+00	 1.012441686153847e+01
0	 6.250000000000000e+00	 6.062499999999998e+00	 1.012138852307693e+01
0	 6.250000000000001e+00	 6.124999999999998e+00	 1.011838344615386e+01
0	 6.250000000000000e+00	 6.187499999999998e+00	 1.011540163076924e+01
0	 6.250000000000000e+00	 6.250000000000000e+00	 1.011244307692308e+01
0	 5.625000000000000e+00	 6.250000000000000e+00	 1.012683692307692e+01
0	 5.625000000000000e+00	 6.312500000000000e+00	 1.012339859999999e+01
0	 5.625000000000001e+00	 6.375000000000000e+00	 1.011995224615384e+01
0	 5.625000000000000e+00	 6.437499999999999e+00	 1.011649786153845e+01
0	 5.625000000000000e+00	 6.499999999999999e+00	 1.011303544615384e+01
0	 5.625000000000000e+00	 6.562499999999998e+00	 1.010956500000001e+01
0	 5.625000000000000e+00	 6.624999999999998e+00	 1.010608652307691e+01
0	 5.624999999999999e+00	 6.687499999999998e+00	 1.010260001538462e+01
0	 5.624999999999999e+00	 6.749999999999998e+00	 1.009910547692307e+01
0	 5.625000000000000e+00	 6.812499999999998e+00	 1.009560290769230e+01
0	 5.625000000000000e+00	 6.875000000000000e+00	 1.009209230769231e+01
0	 5.687500000000001e+00	 6.250000000000000e+00	 1.012592964615384e+01
0	 5.687499999999999e+00	 6.312500000000000e+00	 1.012253621999998e+01
0	 5.687499999999999e+00	 6.374999999999999e+00	 1.011913582461538e+01
0	 5.687499999999999e+00	 6.437500000000000e+00	 1.011572846000001e+01
0	 5.687500000000000e+00	 6.499999999999997e+00	 1.011231412615384e+01
0	 5.687500000000001e+00	 6.562500000000000e+00	 1.010889282307693e+01
0	 5.687500000000001e+00	 6.624999999999999e+00	 1.010546455076922e+01
0	 5.687500000000001e+00	 6.687499999999999e+00	 1.010202930923077e+01
0	 5.687499999999999e+00	 6.749999999999999e+00	 1.009858709846154e+01
0	 5.687499999999998e+00	 6.812499999999996e+00	 1.009513791846154e+01
0	 5.687500000000001e+00	 6.875000000000001e+00	 1.009168176923077e+01
0	 5.750000000000000e+00	 6.250000000000000e+00	 1.012490412307693e+01
0	 5.749999999999998e+00	 6.312499999999999e+00	 1.012155718769231e+01
0	 5.750000000000001e+00	 6.375000000000000e+00	 1.011820434461540e+01
0	 5.749999999999998e+00	 6.437499999999998e+00	 1.011484559384615e+01
0	 5.749999999999999e+00	 6.499999999999996e+00	 1.011148093538461e+01
0	 5.750000000000000e+00	 6.562499999999998e+00	 1.010811036923077e+01
0	 5.750000000000000e+00	 6.624999999999996e+00	 1.010473389538462e+01
0	 5.750000000000000e+00	 6.687499999999999e+00	 1.010135151384616e+01
0	 5.750000000000000e+00	 6.749999999999997e+00	 1.009796322461537e+01
0	 5.750000000000000e+00	 6.812500000000000e+00	 1.009456902769230e+01
0	 5.750000000000000e+00	 6.875000000000000e+00	 1.009116892307692e+01
0	 5.812499999999999e+00	 6.250000000000000e+00	 1.012376035384615e+01
0	 5.812499999999998e+00	 6.312499999999999e+00	 1.012046150307693e+01
0	 5.812500000000000e+00	 6.375000000000000e+00	 1.011715780615385e+01
0	 5.812500000000000e+00	 6.437500000000000e+00	 1.011384926307691e+01
0	 5.812500000000000e+00	 6.499999999999998e+00	 1.011053587384616e+01
0	 5.812500000000000e+00	 6.562499999999999e+00	 1.010721763846153e+01
0	 5.812499999999999e+00	 6.624999999999999e+00	 1.010389455692307e+01
0	 5.812500000000000e+00	 6.687499999999998e+00	 1.010056662923076e+01
0	 5.812499999999999e+00	 6.749999999999998e+00	 1.009723385538461e+01
0	 5.812499999999997e+00	 6.812499999999997e+00	 1.009389623538463e+01
0	 5.812499999999999e+00	 6.874999999999999e+00	 1.009055376923077e+01
0	 5.875000000000000e+00	 6.250000000000000e+00	 1.012249833846153e+01
0	 5.875000000000000e+00	 6.312499999999999e+00	 1.011924916615385e+01
0	 5.875000000000000e+00	 6.375000000000000e+00	 1.011599620923076e+01
0	 5.875000000000000e+00	 6.437499999999999e+00	 1.011273946769231e+01
0	 5.874999999999998e+00	 6.499999999999997e+00	 1.010947894153846e+01
0	 5.874999999999999e+00	 6.562499999999999e+00	 1.010621463076923e+01
0	 5.874999999999998e+00	 6.624999999999998e+00	 1.010294653538461e+01
0	 5.874999999999999e+00	 6.687499999999998e+00	 1.009967465538461e+01
0	 5.875000000000000e+00	 6.749999999999998e+00	 1.009639899076923e+01
0	 5.875000000000000e+00	 6.812499999999998e+00	 1.009311954153848e+01
0	 5.875000000000000e+00	 6.875000000000001e+00	 1.008983630769229e+01
0	 5.937499999999999e+00	 6.250000000000000e+00	 1.012111807692308e+01
0	 5.937499999999999e+00	 6.312500000000000e+00	 1.011792017692308e+01
0	 5.937499999999999e+00	 6.375000000000000e+00	 1.011471955384615e+01
0	 5.937499999999999e+00	 6.437499999999999e+00	 1.011151620769232e+01
0	 5.937499999999999e+00	 6.499999999999997e+00	 1.010831013846154e+01
0	 5.937499999999999e+00	 6.562499999999999e+00	 1.010510134615385e+01
0	 5.937499999999999e+00	 6.625000000000000e+00	 1.010188983076923e+01
0	 5.937500000000000e+00	 6.687499999999999e+00	 1.009867559230769e+01
0	 5.937499999999999e+00	 6.749999999999999e+00	 1.009545863076923e+01
0	 5.937500000000000e+00	 6.812499999999998e+00	 1.009223894615386e+01
0	 5.937499999999999e+00	 6.875000000000000e+00	 1.008901653846154e+01
0	 5.999999999999998e+00	 6.250000000000000e+00	 1.011961956923077e+01
0	 5.999999999999999e+00	 6.312499999999999e+00	 1.011647453538462e+01
0	 5.999999999999999e+00	 6.374999999999997e+00	 1.011332783999999e+01
0	 5.999999999999999e+00	 6.437499999999999e+00	 1.011017948307692e+01
0	 5.999999999999999e+00	 6.500000000000000e+00	 1.010702946461539e+01
0	 5.999999999999999e+00	 6.562500000000001e+00	 1.010387778461539e+01
0	 5.999999999999998e+00	 6.624999999999998e+00	 1.010072444307693e+01
0	 5.999999999999999e+00	 6.687499999999999e+00	 1.009756944000000e+01
0	 5.999999999999999e+00	 6.749999999999999e+00	 1.009441277538461e+01
0	 5.999999999999999e+00	 6.812499999999998e+00	 1.009125444923076e+01
0	 5.999999999999998e+00	 6.875000000000000e+00	 1.008809446153846e+01
0	 6.062499999999998e+00	 6.250000000000000e+00	 1.011800281538463e+01
0	 6.062499999999999e+00	 6.312499999999999e+00	 1.011491224153847e+01
0	 6.062499999999999e+00	 6.375000000000001e+00	 1.011182106769232e+01
0	 6.062499999999998e+00	 6.437499999999999e+00	 1.010872929384615e+01
0	 6.062499999999998e+00	 6.500000000000000e+00	 1.010563692000000e+01
0	 6.062500000000000e+00	 6.562499999999999e+00	 1.010254394615385e+01
0	 6.062499999999999e+00	 6.624999999999999e+00	 1.009945037230770e+01
0	 6.062499999999999e+00	 6.687499999999999e+00	 1.009635619846155e+01
0	 6.062499999999999e+00	 6.749999999999998e+00	 1.009326142461540e+01
0	 6.062499999999999e+00	 6.812499999999999e+00	 1.009016605076926e+01
0	 6.062499999999998e+00	 6.875000000000000e+00	 1.008707007692308e+01
0	 6.124999999999998e+00	 6.250000000000000e+00	 1.011626781538462e+01
0	 6.125000000000000e+00	 6.312500000000001e+00	 1.011323329538462e+01
0	 6.124999999999998e+00	 6.374999999999999e+00	 1.011019923692309e+01
0	 6.124999999999999e+00	 6.437500000000000e+00	 1.010716564000001e+01
0	 6.124999999999999e+00	 6.499999999999999e+00	 1.010413250461538e+01
0	 6.124999999999998e+00	 6.562499999999999e+00	 1.010109983076924e+01
0	 6.124999999999998e+00	 6.624999999999998e+00	 1.009806761846155e+01
0	 6.124999999999998e+00	 6.687499999999998e+00	 1.009503586769231e+01
0	 6.124999999999999e+00	 6.749999999999998e+00	 1.009200457846153e+01
0	 6.124999999999998e+00	 6.812499999999998e+00	 1.008897375076924e+01
0	 6.124999999999998e+00	 6.875000000000000e+00	 1.008594338461540e+01
0	 6.187499999999997e+00	 6.250000000000000e+00	 1.011441456923077e+01
0	 6.187499999999998e+00	 6.312500000000000e+00	 1.011143769692310e+01
0	 6.187499999999998e+00	 6.375000000000000e+00	 1.010846234769231e+01
0	 6.187499999999997e+00	 6.437499999999999e+00	 1.010548852153846e+01
0	 6.187499999999998e+00	 6.499999999999998e+00	 1.010251621846154e+01
0	 6.187499999999997e+00	 6.562499999999998e+00	 1.009954543846154e+01
0	 6.187499999999997e+00	 6.624999999999998e+00	 1.009657618153847e+01
0	 6.187499999999997e+00	 6.687499999999998e+00	 1.009360844769232e+01
0	 6.187499999999998e+00	 6.749999999999999e+00	 1.009064223692307e+01
0	 6.187499999999997e+00	 6.812499999999997e+00	 1.008767754923078e+01
0	 6.187499999999997e+00	 6.875000000000000e+00	 1.008471438461539e+01
0	 6.250000000000000e+00	 6.250000000000000e+00	 1.011244307692308e+01
0	 6.250000000000001e+00	 6.312500000000000e+00	 1.010952544615385e+01
0	 6.250000000000001e+00	 6.375000000000000e+00	 1.010661040000001e+01
0	 6.250000000000000e+00	 6.437499999999999e+00	 1.010369793846153e+01
0	 6.250000000000001e+00	 6.499999999999999e+00	 1.010078806153846e+01
0	 6.250000000000000e+00	 6.562499999999998e+00	 1.009788076923078e+01
0	 6.250000000000000e+00	 6.624999999999998e+00	 1.009497606153846e+01
0	 6.250000000000000e+00	 6.687499999999998e+00	 1.009207393846155e+01
0	 6.250000000000001e+00	 6.749999999999998e+00	 1.008917440000000e+01
0	 6.250000000000000e+00	 6.812499999999998e+00	 1.008627744615385e+01
0	 6.250000000000000e+00	 6.875000000000000e+00	 1.008338307692308e+01
0	 5.625000000000000e+00	 6.875000000000000e+00	 1.009209230769231e+01
0	 5.625000000000000e+00	 6.937500000000000e+00	 1.008919727692307e+01
0	 5.625000000000001e+00	 7.000000000000000e+00	 1.008627926153845e+01
0	 5.625000000000000e+00	 7.062500000000000e+00	 1.008333826153847e+01
0	 5.625000000000000e+00	 7.125000000000000e+00	 1.008037427692308e+01
0	 5.625000000000000e+00	 7.187499999999998e+00	 1.007738730769230e+01
0	 5.625000000000000e+00	 7.249999999999998e+00	 1.007437735384616e+01
0	 5.624999999999999e+00	 7.312499999999998e+00	 1.007134441538462e+01
0	 5.624999999999999e+00	 7.374999999999998e+00	 1.006828849230769e+01
0	 5.625000000000000e+00	 7.437499999999998e+00	 1.006520958461539e+01
0	 5.625000000000000e+00	 7.500000000000000e+00	 1.006210769230769e+01
0	 5.687500000000001e+00	 6.875000000000001e+00	 1.009168176923077e+01
0	 5.687499999999999e+00	 6.937499999999999e+00	 1.008881288769230e+01
0	 5.687499999999999e+00	 6.999999999999999e+00	 1.008592170461540e+01
0	 5.687499999999999e+00	 7.062500000000000e+00	 1.008300822000000e+01
0	 5.687500000000000e+00	 7.124999999999998e+00	 1.008007243384615e+01
0	 5.687500000000001e+00	 7.187499999999999e+00	 1.007711434615385e+01
0	 5.687500000000001e+00	 7.250000000000000e+00	 1.007413395692308e+01
0	 5.687500000000001e+00	 7.312499999999999e+00	 1.007113126615383e+01
0	 5.687499999999999e+00	 7.374999999999999e+00	 1.006810627384614e+01
0	 5.687499999999998e+00	 7.437499999999996e+00	 1.006505898000001e+01
0	 5.687500000000001e+00	 7.500000000000000e+00	 1.006198938461539e+01
0	 5.750000000000000e+00	 6.875000000000000e+00	 1.009116892307692e+01
0	 5.749999999999998e+00	 6.937499999999999e+00	 1.008832802153847e+01
0	 5.750000000000001e+00	 7.000000000000001e+00	 1.008546550153846e+01
0	 5.749999999999998e+00	 7.062499999999999e+00	 1.008258136307692e+01
0	 5.749999999999999e+00	 7.124999999999998e+00	 1.007967560615383e+01
0	 5.750000000000000e+00	 7.187499999999999e+00	 1.007674823076922e+01
0	 5.750000000000000e+00	 7.249999999999996e+00	 1.007379923692308e+01
0	 5.750000000000000e+00	 7.312499999999998e+00	 1.007082862461538e+01
0	 5.750000000000000e+00	 7.374999999999997e+00	 1.006783639384614e+01
0	 5.750000000000000e+00	 7.437500000000000e+00	 1.006482254461539e+01
0	 5.750000000000000e+00	 7.499999999999999e+00	 1.006178707692304e+01
0	 5.812499999999999e+00	 6.874999999999999e+00	 1.009055376923077e+01
0	 5.812499999999998e+00	 6.937499999999999e+00	 1.008774267846155e+01
0	 5.812500000000000e+00	 7.000000000000000e+00	 1.008491065230771e+01
0	 5.812500000000000e+00	 7.062500000000000e+00	 1.008205769076922e+01
0	 5.812500000000000e+00	 7.124999999999999e+00	 1.007918379384615e+01
0	 5.812500000000000e+00	 7.187499999999999e+00	 1.007628896153846e+01
0	 5.812499999999999e+00	 7.250000000000000e+00	 1.007337319384616e+01
0	 5.812500000000000e+00	 7.312499999999999e+00	 1.007043649076922e+01
0	 5.812499999999999e+00	 7.374999999999997e+00	 1.006747885230768e+01
0	 5.812499999999997e+00	 7.437499999999998e+00	 1.006450027846154e+01
0	 5.812499999999999e+00	 7.500000000000000e+00	 1.006150076923078e+01
0	 5.875000000000000e+00	 6.875000000000001e+00	 1.008983630769229e+01
0	 5.875000000000000e+00	 6.937499999999999e+00	 1.008705685846152e+01
0	 5.875000000000000e+00	 7.000000000000001e+00	 1.008425715692308e+01
0	 5.875000000000000e+00	 7.062500000000000e+00	 1.008143720307693e+01
0	 5.874999999999998e+00	 7.124999999999999e+00	 1.007859699692308e+01
0	 5.874999999999999e+00	 7.187499999999999e+00	 1.007573653846152e+01
0	 5.874999999999998e+00	 7.249999999999997e+00	 1.007285582769231e+01
0	 5.874999999999999e+00	 7.312499999999998e+00	 1.006995486461535e+01
0	 5.875000000000000e+00	 7.374999999999999e+00	 1.006703364923077e+01
0	 5.875000000000000e+00	 7.437499999999998e+00	 1.006409218153845e+01
0	 5.875000000000000e+00	 7.500000000000000e+00	 1.006113046153846e+01
0	 5.937499999999999e+00	 6.875000000000000e+00	 1.008901653846154e+01
0	 5.937499999999999e+00	 6.937500000000000e+00	 1.008627056153845e+01
0	 5.937499999999999e+00	 7.000000000000000e+00	 1.008350501538463e+01
0	 5.937499999999999e+00	 7.062500000000000e+00	 1.008071990000001e+01
0	 5.937499999999999e+00	 7.124999999999997e+00	 1.007791521538462e+01
0	 5.937499999999999e+00	 7.187499999999999e+00	 1.007509096153846e+01
0	 5.937499999999999e+00	 7.249999999999999e+00	 1.007224713846153e+01
0	 5.937500000000000e+00	 7.312499999999998e+00	 1.006938374615383e+01
0	 5.937499999999999e+00	 7.374999999999997e+00	 1.006650078461539e+01
0	 5.937500000000000e+00	 7.437499999999998e+00	 1.006359825384613e+01
0	 5.937499999999999e+00	 7.500000000000000e+00	 1.006067615384615e+01
0	 5.999999999999998e+00	 6.875000000000000e+00	 1.008809446153846e+01
0	 5.999999999999999e+00	 6.937500000000000e+00	 1.008538378769232e+01
0	 5.999999999999999e+00	 6.999999999999998e+00	 1.008265422769230e+01
0	 5.999999999999999e+00	 7.062500000000000e+00	 1.007990578153846e+01
0	 5.999999999999999e+00	 7.125000000000000e+00	 1.007713844923077e+01
0	 5.999999999999999e+00	 7.187500000000000e+00	 1.007435223076923e+01
0	 5.999999999999998e+00	 7.249999999999998e+00	 1.007154712615385e+01
0	 5.999999999999999e+00	 7.312499999999999e+00	 1.006872313538462e+01
0	 5.999999999999999e+00	 7.374999999999999e+00	 1.006588025846153e+01
0	 5.999999999999999e+00	 7.437499999999998e+00	 1.006301849538459e+01
0	 5.999999999999998e+00	 7.499999999999999e+00	 1.006013784615382e+01
0	 6.062499999999998e+00	 6.875000000000000e+00	 1.008707007692308e+01
0	 6.062499999999999e+00	 6.937499999999999e+00	 1.008439653692310e+01
0	 6.062499999999999e+00	 7.000000000000001e+00	 1.008170479384614e+01
0	 6.062499999999998e+00	 7.062499999999999e+00	 1.007899484769230e+01
0	 6.062499999999998e+00	 7.124999999999999e+00	 1.007626669846154e+01
0	 6.062500000000000e+00	 7.187500000000000e+00	 1.007352034615383e+01
0	 6.062499999999999e+00	 7.249999999999999e+00	 1.007075579076923e+01
0	 6.062499999999999e+00	 7.312500000000000e+00	 1.006797303230769e+01
0	 6.062499999999999e+00	 7.374999999999998e+00	 1.006517207076923e+01
0	 6.062499999999999e+00	 7.437499999999999e+00	 1.006235290615382e+01
0	 6.062499999999998e+00	 7.499999999999998e+00	 1.005951553846156e+01
0	 6.124999999999998e+00	 6.875000000000000e+00	 1.008594338461540e+01
0	 6.125000000000000e+00	 6.937500000000001e+00	 1.008330880923078e+01
0	 6.124999999999998e+00	 6.999999999999998e+00	 1.008065671384616e+01
0	 6.124999999999999e+00	 7.062500000000000e+00	 1.007798709846154e+01
0	 6.124999999999999e+00	 7.125000000000000e+00	 1.007529996307693e+01
0	 6.124999999999998e+00	 7.187500000000000e+00	 1.007259530769231e+01
0	 6.124999999999998e+00	 7.250000000000000e+00	 1.006987313230768e+01
0	 6.124999999999998e+00	 7.312499999999999e+00	 1.006713343692305e+01
0	 6.124999999999999e+00	 7.374999999999998e+00	 1.006437622153845e+01
0	 6.124999999999998e+00	 7.437499999999998e+00	 1.006160148615383e+01
0	 6.124999999999998e+00	 7.500000000000000e+00	 1.005880923076920e+01
0	 6.187499999999997e+00	 6.875000000000000e+00	 1.008471438461539e+01
0	 6.187499999999998e+00	 6.937500000000001e+00	 1.008212060461539e+01
0	 6.187499999999998e+00	 7.000000000000001e+00	 1.007950998769231e+01
0	 6.187499999999997e+00	 7.062500000000000e+00	 1.007688253384615e+01
0	 6.187499999999998e+00	 7.124999999999999e+00	 1.007423824307693e+01
0	 6.187499999999997e+00	 7.187499999999998e+00	 1.007157711538461e+01
0	 6.187499999999997e+00	 7.249999999999999e+00	 1.006889915076923e+01
0	 6.187499999999997e+00	 7.312499999999998e+00	 1.006620434923078e+01
0	 6.187499999999998e+00	 7.374999999999998e+00	 1.006349271076921e+01
0	 6.187499999999997e+00	 7.437499999999998e+00	 1.006076423538461e+01
0	 6.187499999999997e+00	 7.500000000000000e+00	 1.005801892307691e+01
0	 6.250000000000000e+00	 6.875000000000000e+00	 1.008338307692308e+01
0	 6.250000000000001e+00	 6.937500000000000e+00	 1.008083192307692e+01
0	 6.250000000000001e+00	 7.000000000000000e+00	 1.007826461538460e+01
0	 6.250000000000000e+00	 7.062500000000000e+00	 1.007568115384617e+01
0	 6.250000000000001e+00	 7.125000000000000e+00	 1.007308153846154e+01
0	 6.250000000000000e+00	 7.187499999999998e+00	 1.007046576923076e+01
0	 6.250000000000000e+00	 7.249999999999998e+00	 1.006783384615385e+01
0	 6.250000000000000e+00	 7.312499999999998e+00	 1.006518576923076e+01
0	 6.250000000000001e+00	 7.374999999999998e+00	 1.006252153846153e+01
0	 6.250000000000000e+00	 7.437499999999998e+00	 1.005984115384615e+01
0	 6.250000000000000e+00	 7.500000000000000e+00	 1.005714461538460e+01
0	 5.625000000000000e+00	 7.500000000000000e+00	 1.006210769230769e+01
0	 5.625000000000000e+00	 7.562500000000000e+00	 1.005977853846153e+01
0	 5.625000000000001e+00	 7.625000000000000e+00	 1.005741107692309e+01
0	 5.625000000000000e+00	 7.687499999999999e+00	 1.005500530769230e+01
0	 5.625000000000000e+00	 7.750000000000000e+00	 1.005256123076926e+01
0	 5.625000000000000e+00	 7.812499999999999e+00	 1.005007884615384e+01
0	 5.625000000000000e+00	 7.874999999999998e+00	 1.004755815384615e+01
0	 5.624999999999999e+00	 7.937499999999997e+00	 1.004499915384615e+01
0	 5.624999999999999e+00	 7.999999999999998e+00	 1.004240184615385e+01
0	 5.625000000000000e+00	 8.062499999999996e+00	 1.003976623076922e+01
0	 5.625000000000000e+00	 8.125000000000000e+00	 1.003709230769230e+01
0	 5.687500000000001e+00	 7.500000000000000e+00	 1.006198938461539e+01
0	 5.687499999999999e+00	 7.562499999999999e+00	 1.005967168461539e+01
0	 5.687499999999999e+00	 7.624999999999998e+00	 1.005731621230771e+01
0	 5.687499999999999e+00	 7.687499999999998e+00	 1.005492296769230e+01
0	 5.687500000000000e+00	 7.750000000000000e+00	 1.005249195076922e+01
0	 5.687500000000001e+00	 7.812500000000000e+00	 1.005002316153845e+01
0	 5.687500000000001e+00	 7.874999999999999e+00	 1.004751660000000e+01
0	 5.687500000000001e+00	 7.937499999999998e+00	 1.004497226615384e+01
0	 5.687499999999999e+00	 8.000000000000000e+00	 1.004239015999999e+01
0	 5.687499999999998e+00	 8.062499999999995e+00	 1.003977028153846e+01
0	 5.687500000000001e+00	 8.125000000000000e+00	 1.003711263076922e+01
0	 5.750000000000000e+00	 7.499999999999999e+00	 1.006178707692304e+01
0	 5.749999999999998e+00	 7.562500000000001e+00	 1.005948283384615e+01
0	 5.750000000000001e+00	 7.625000000000001e+00	 1.005714135384614e+01
0	 5.749999999999998e+00	 7.687500000000001e+00	 1.005476263692306e+01
0	 5.749999999999999e+00	 7.749999999999998e+00	 1.005234668307692e+01
0	 5.750000000000000e+00	 7.812499999999998e+00	 1.004989349230769e+01
0	 5.750000000000000e+00	 7.874999999999996e+00	 1.004740306461538e+01
0	 5.750000000000000e+00	 7.937499999999998e+00	 1.004487540000000e+01
0	 5.750000000000000e+00	 7.999999999999999e+00	 1.004231049846153e+01
0	 5.750000000000000e+00	 8.062499999999998e+00	 1.003970835999997e+01
0	 5.750000000000000e+00	 8.125000000000000e+00	 1.003706898461540e+01
0	 5.812499999999999e+00	 7.500000000000000e+00	 1.006150076923078e+01
0	 5.812499999999998e+00	 7.562500000000001e+00	 1.005921198615384e+01
0	 5.812500000000000e+00	 7.625000000000001e+00	 1.005688650153845e+01
0	 5.812500000000000e+00	 7.687500000000000e+00	 1.005452431538461e+01
0	 5.812500000000000e+00	 7.749999999999999e+00	 1.005212542769230e+01
0	 5.812500000000000e+00	 7.812499999999999e+00	 1.004968983846154e+01
0	 5.812499999999999e+00	 7.874999999999998e+00	 1.004721754769231e+01
0	 5.812500000000000e+00	 7.937499999999998e+00	 1.004470855538461e+01
0	 5.812499999999999e+00	 7.999999999999998e+00	 1.004216286153845e+01
0	 5.812499999999997e+00	 8.062499999999996e+00	 1.003958046615383e+01
0	 5.812499999999999e+00	 8.125000000000000e+00	 1.003696136923074e+01
0	 5.875000000000000e+00	 7.500000000000000e+00	 1.006113046153846e+01
0	 5.875000000000000e+00	 7.562500000000000e+00	 1.005885914153844e+01
0	 5.875000000000000e+00	 7.625000000000000e+00	 1.005655165538461e+01
0	 5.875000000000000e+00	 7.687500000000000e+00	 1.005420800307690e+01
0	 5.874999999999998e+00	 7.749999999999998e+00	 1.005182818461537e+01
0	 5.874999999999999e+00	 7.812500000000000e+00	 1.004941219999999e+01
0	 5.874999999999998e+00	 7.874999999999998e+00	 1.004696004923077e+01
0	 5.874999999999999e+00	 7.937499999999999e+00	 1.004447173230767e+01
0	 5.875000000000000e+00	 7.999999999999997e+00	 1.004194724923075e+01
0	 5.875000000000000e+00	 8.062500000000000e+00	 1.003938660000001e+01
0	 5.875000000000000e+00	 8.125000000000000e+00	 1.003678978461539e+01
0	 5.937499999999999e+00	 7.500000000000000e+00	 1.006067615384615e+01
0	 5.937499999999999e+00	 7.562499999999999e+00	 1.005842429999997e+01
0	 5.937499999999999e+00	 7.624999999999999e+00	 1.005613681538459e+01
0	 5.937499999999999e+00	 7.687500000000000e+00	 1.005381369999998e+01
0	 5.937499999999999e+00	 7.749999999999996e+00	 1.005145495384615e+01
0	 5.937499999999999e+00	 7.812499999999999e+00	 1.004906057692307e+01
0	 5.937499999999999e+00	 7.875000000000000e+00	 1.004663056923075e+01
0	 5.937500000000000e+00	 7.937499999999999e+00	 1.004416493076921e+01
0	 5.937499999999999e+00	 7.999999999999998e+00	 1.004166366153844e+01
0	 5.937500000000000e+00	 8.062500000000000e+00	 1.003912676153848e+01
0	 5.937499999999999e+00	 8.125000000000000e+00	 1.003655423076922e+01
0	 5.999999999999998e+00	 7.499999999999999e+00	 1.006013784615382e+01
0	 5.999999999999999e+00	 7.562500000000000e+00	 1.005790746153843e+01
0	 5.999999999999999e+00	 7.624999999999998e+00	 1.005564198153845e+01
0	 5.999999999999999e+00	 7.687499999999998e+00	 1.005334140615384e+01
0	 5.999999999999999e+00	 7.750000000000001e+00	 1.005100573538459e+01
0	 5.999999999999999e+00	 7.812500000000000e+00	 1.004863496923077e+01
0	 5.999999999999998e+00	 7.874999999999998e+00	 1.004622910769231e+01
0	 5.999999999999999e+00	 7.937499999999999e+00	 1.004378815076920e+01
0	 5.999999999999999e+00	 8.000000000000000e+00	 1.004131209846153e+01
0	 5.999999999999999e+00	 8.062499999999998e+00	 1.003880095076924e+01
0	 5.999999999999998e+00	 8.125000000000000e+00	 1.003625470769230e+01
0	 6.062499999999998e+00	 7.499999999999998e+00	 1.005951553846156e+01
0	 6.062499999999999e+00	 7.562500000000000e+00	 1.005730862615384e+01
0	 6.062499999999999e+00	 7.624999999999999e+00	 1.005506715384615e+01
0	 6.062499999999998e+00	 7.687500000000000e+00	 1.005279112153844e+01
0	 6.062499999999998e+00	 7.749999999999998e+00	 1.005048052923077e+01
0	 6.062500000000000e+00	 7.812500000000000e+00	 1.004813537692307e+01
0	 6.062499999999999e+00	 7.874999999999999e+00	 1.004575566461538e+01
0	 6.062499999999999e+00	 7.937500000000000e+00	 1.004334139230770e+01
0	 6.062499999999999e+00	 7.999999999999998e+00	 1.004089256000000e+01
0	 6.062499999999999e+00	 8.062500000000000e+00	 1.003840916769230e+01
0	 6.062499999999998e+00	 8.125000000000000e+00	 1.003589121538460e+01
0	 6.124999999999998e+00	 7.500000000000000e+00	 1.005880923076920e+01
0	 6.125000000000000e+00	 7.562500000000001e+00	 1.005662779384613e+01
0	 6.124999999999998e+00	 7.625000000000000e+00	 1.005441233230768e+01
0	 6.124999999999999e+00	 7.687500000000001e+00	 1.005216284615384e+01
0	 6.124999999999999e+00	 7.749999999999999e+00	 1.004987933538461e+01
0	 6.124999999999998e+00	 7.812499999999998e+00	 1.004756180000001e+01
0	 6.124999999999998e+00	 7.875000000000000e+00	 1.004521024000000e+01
0	 6.124999999999998e+00	 7.937499999999998e+00	 1.004282465538461e+01
0	 6.124999999999999e+00	 7.999999999999998e+00	 1.004040504615384e+01
0	 6.124999999999998e+00	 8.062500000000000e+00	 1.003795141230769e+01
0	 6.124999999999998e+00	 8.125000000000000e+00	 1.003546375384616e+01
0	 6.187499999999997e+00	 7.500000000000000e+00	 1.005801892307691e+01
0	 6.187499999999998e+00	 7.562500000000001e+00	 1.005586496461537e+01
0	 6.187499999999998e+00	 7.624999999999999e+00	 1.005367751692305e+01
0	 6.187499999999997e+00	 7.687499999999999e+00	 1.005145657999999e+01
0	 6.187499999999998e+00	 7.750000000000000e+00	 1.004920215384614e+01
0	 6.187499999999997e+00	 7.812499999999999e+00	 1.004691423846152e+01
0	 6.187499999999997e+00	 7.874999999999998e+00	 1.004459283384613e+01
0	 6.187499999999997e+00	 7.937499999999998e+00	 1.004223793999999e+01
0	 6.187499999999998e+00	 7.999999999999998e+00	 1.003984955692306e+01
0	 6.187499999999997e+00	 8.062499999999998e+00	 1.003742768461538e+01
0	 6.187499999999997e+00	 8.125000000000000e+00	 1.003497232307690e+01
0	 6.250000000000000e+00	 7.500000000000000e+00	 1.005714461538460e+01
0	 6.250000000000001e+00	 7.562500000000000e+00	 1.005502013846152e+01
0	 6.250000000000001e+00	 7.625000000000000e+00	 1.005286270769232e+01
0	 6.250000000000000e+00	 7.687499999999999e+00	 1.005067232307691e+01
0	 6.250000000000001e+00	 7.750000000000000e+00	 1.004844898461539e+01
0	 6.250000000000000e+00	 7.812499999999999e+00	 1.004619269230768e+01
0	 6.250000000000000e+00	 7.874999999999998e+00	 1.004390344615383e+01
0	 6.250000000000000e+00	 7.937499999999997e+00	 1.004158124615383e+01
0	 6.250000000000001e+00	 7.999999999999998e+00	 1.003922609230769e+01
0	 6.250000000000000e+00	 8.062499999999996e+00	 1.003683798461537e+01
0	 6.250000000000000e+00	 8.125000000000000e+00	 1.003441692307692e+01
0	 5.625000000000000e+00	 8.125000000000000e+00	 1.003709230769230e+01
0	 5.625000000000000e+00	 8.187500000000000e+00	 1.003536175384616e+01
0	 5.625000000000001e+00	 8.250000000000002e+00	 1.003357470769229e+01
0	 5.625000000000000e+00	 8.312500000000000e+00	 1.003173116923077e+01
0	 5.625000000000000e+00	 8.374999999999998e+00	 1.002983113846154e+01
0	 5.625000000000000e+00	 8.437500000000000e+00	 1.002787461538460e+01
0	 5.625000000000000e+00	 8.500000000000000e+00	 1.002586160000000e+01
0	 5.624999999999999e+00	 8.562499999999998e+00	 1.002379209230769e+01
0	 5.624999999999999e+00	 8.625000000000000e+00	 1.002166609230769e+01
0	 5.625000000000000e+00	 8.687499999999998e+00	 1.001948359999999e+01
0	 5.625000000000000e+00	 8.750000000000000e+00	 1.001724461538462e+01
0	 5.687500000000001e+00	 8.125000000000000e+00	 1.003711263076922e+01
0	 5.687499999999999e+00	 8.187500000000002e+00	 1.003538819384615e+01
0	 5.687499999999999e+00	 8.250000000000000e+00	 1.003360763384615e+01
0	 5.687499999999999e+00	 8.312499999999998e+00	 1.003177095076921e+01
0	 5.687500000000000e+00	 8.374999999999998e+00	 1.002987814461538e+01
0	 5.687500000000001e+00	 8.437500000000000e+00	 1.002792921538460e+01
0	 5.687500000000001e+00	 8.500000000000002e+00	 1.002592416307692e+01
0	 5.687500000000001e+00	 8.562500000000000e+00	 1.002386298769231e+01
0	 5.687499999999999e+00	 8.625000000000002e+00	 1.002174568923077e+01
0	 5.687499999999998e+00	 8.687499999999996e+00	 1.001957226769230e+01
0	 5.687500000000001e+00	 8.750000000000002e+00	 1.001734272307694e+01
0	 5.750000000000000e+00	 8.125000000000000e+00	 1.003706898461540e+01
0	 5.749999999999998e+00	 8.187499999999998e+00	 1.003535212923078e+01
0	 5.750000000000001e+00	 8.250000000000000e+00	 1.003357952000001e+01
0	 5.749999999999998e+00	 8.312500000000000e+00	 1.003175115692307e+01
0	 5.749999999999999e+00	 8.374999999999998e+00	 1.002986703999999e+01
0	 5.750000000000000e+00	 8.437499999999998e+00	 1.002792716923076e+01
0	 5.750000000000000e+00	 8.499999999999996e+00	 1.002593154461539e+01
0	 5.750000000000000e+00	 8.562500000000002e+00	 1.002388016615385e+01
0	 5.750000000000000e+00	 8.624999999999998e+00	 1.002177303384616e+01
0	 5.750000000000000e+00	 8.687499999999998e+00	 1.001961014769232e+01
0	 5.750000000000000e+00	 8.750000000000000e+00	 1.001739150769228e+01
0	 5.812499999999999e+00	 8.125000000000000e+00	 1.003696136923074e+01
0	 5.812499999999998e+00	 8.187500000000000e+00	 1.003525355999999e+01
0	 5.812500000000000e+00	 8.250000000000002e+00	 1.003349036615385e+01
0	 5.812500000000000e+00	 8.312499999999998e+00	 1.003167178769232e+01
0	 5.812500000000000e+00	 8.374999999999998e+00	 1.002979782461538e+01
0	 5.812500000000000e+00	 8.437500000000000e+00	 1.002786847692307e+01
0	 5.812499999999999e+00	 8.499999999999998e+00	 1.002588374461539e+01
0	 5.812500000000000e+00	 8.562500000000000e+00	 1.002384362769230e+01
0	 5.812499999999999e+00	 8.625000000000000e+00	 1.002174812615384e+01
0	 5.812499999999997e+00	 8.687499999999996e+00	 1.001959723999997e+01
0	 5.812499999999999e+00	 8.750000000000000e+00	 1.001739096923077e+01
0	 5.875000000000000e+00	 8.125000000000000e+00	 1.003678978461539e+01
0	 5.875000000000000e+00	 8.187499999999998e+00	 1.003509248615383e+01
0	 5.875000000000000e+00	 8.250000000000002e+00	 1.003334017230771e+01
0	 5.875000000000000e+00	 8.312500000000000e+00	 1.003153284307692e+01
0	 5.874999999999998e+00	 8.374999999999998e+00	 1.002967049846153e+01
0	 5.874999999999999e+00	 8.437500000000000e+00	 1.002775313846153e+01
0	 5.874999999999998e+00	 8.499999999999998e+00	 1.002578076307691e+01
0	 5.874999999999999e+00	 8.562499999999998e+00	 1.002375337230771e+01
0	 5.875000000000000e+00	 8.624999999999998e+00	 1.002167096615383e+01
0	 5.875000000000000e+00	 8.687499999999996e+00	 1.001953354461538e+01
0	 5.875000000000000e+00	 8.749999999999998e+00	 1.001734110769230e+01
0	 5.937499999999999e+00	 8.125000000000000e+00	 1.003655423076922e+01
0	 5.937499999999999e+00	 8.187499999999998e+00	 1.003486890769230e+01
0	 5.937499999999999e+00	 8.249999999999998e+00	 1.003312893846153e+01
0	 5.937499999999999e+00	 8.312500000000000e+00	 1.003133432307691e+01
0	 5.937499999999999e+00	 8.374999999999998e+00	 1.002948506153848e+01
0	 5.937499999999999e+00	 8.437499999999998e+00	 1.002758115384614e+01
0	 5.937499999999999e+00	 8.500000000000002e+00	 1.002562259999999e+01
0	 5.937500000000000e+00	 8.562499999999998e+00	 1.002360939999999e+01
0	 5.937499999999999e+00	 8.624999999999998e+00	 1.002154155384618e+01
0	 5.937500000000000e+00	 8.687500000000000e+00	 1.001941906153844e+01
0	 5.937499999999999e+00	 8.750000000000000e+00	 1.001724192307692e+01
0	 5.999999999999998e+00	 8.125000000000000e+00	 1.003625470769230e+01
0	 5.999999999999999e+00	 8.187500000000000e+00	 1.003458282461538e+01
0	 5.999999999999999e+00	 8.249999999999998e+00	 1.003285666461538e+01
0	 5.999999999999999e+00	 8.312500000000000e+00	 1.003107622769230e+01
0	 5.999999999999999e+00	 8.375000000000002e+00	 1.002924151384616e+01
0	 5.999999999999999e+00	 8.437500000000002e+00	 1.002735252307693e+01
0	 5.999999999999998e+00	 8.499999999999998e+00	 1.002540925538460e+01
0	 5.999999999999999e+00	 8.562500000000000e+00	 1.002341171076923e+01
0	 5.999999999999999e+00	 8.624999999999998e+00	 1.002135988923078e+01
0	 5.999999999999999e+00	 8.687499999999998e+00	 1.001925379076921e+01
0	 5.999999999999998e+00	 8.750000000000000e+00	 1.001709341538461e+01
0	 6.062499999999998e+00	 8.125000000000000e+00	 1.003589121538460e+01
0	 6.062499999999999e+00	 8.187500000000000e+00	 1.003423423692308e+01
0	 6.062499999999999e+00	 8.250000000000000e+00	 1.003252335076923e+01
0	 6.062499999999998e+00	 8.312500000000000e+00	 1.003075855692306e+01
0	 6.062499999999998e+00	 8.374999999999998e+00	 1.002893985538461e+01
0	 6.062500000000000e+00	 8.437500000000000e+00	 1.002706724615384e+01
0	 6.062499999999999e+00	 8.500000000000000e+00	 1.002514072923077e+01
0	 6.062499999999999e+00	 8.562499999999998e+00	 1.002316030461538e+01
0	 6.062499999999999e+00	 8.624999999999998e+00	 1.002112597230769e+01
0	 6.062499999999999e+00	 8.687500000000000e+00	 1.001903773230769e+01
0	 6.062499999999998e+00	 8.750000000000000e+00	 1.001689558461540e+01
0	 6.124999999999998e+00	 8.125000000000000e+00	 1.003546375384616e+01
0	 6.125000000000000e+00	 8.187500000000002e+00	 1.003382314461538e+01
0	 6.124999999999998e+00	 8.250000000000000e+00	 1.003212899692308e+01
0	 6.124999999999999e+00	 8.312500000000000e+00	 1.003038131076925e+01
0	 6.124999999999999e+00	 8.375000000000002e+00	 1.002858008615385e+01
0	 6.124999999999998e+00	 8.437500000000000e+00	 1.002672532307692e+01
0	 6.124999999999998e+00	 8.500000000000000e+00	 1.002481702153846e+01
0	 6.124999999999998e+00	 8.562499999999996e+00	 1.002285518153847e+01
0	 6.124999999999999e+00	 8.624999999999998e+00	 1.002083980307690e+01
0	 6.124999999999998e+00	 8.687499999999998e+00	 1.001877088615387e+01
0	 6.124999999999998e+00	 8.750000000000002e+00	 1.001664843076923e+01
0	 6.187499999999997e+00	 8.125000000000000e+00	 1.003497232307690e+01
0	 6.187499999999998e+00	 8.187500000000000e+00	 1.003334954769234e+01
0	 6.187499999999998e+00	 8.250000000000002e+00	 1.003167360307691e+01
0	 6.187499999999997e+00	 8.312499999999998e+00	 1.002994448923077e+01
0	 6.187499999999998e+00	 8.374999999999998e+00	 1.002816220615385e+01
0	 6.187499999999997e+00	 8.437499999999998e+00	 1.002632675384614e+01
0	 6.187499999999997e+00	 8.499999999999998e+00	 1.002443813230769e+01
0	 6.187499999999997e+00	 8.562499999999998e+00	 1.002249634153847e+01
0	 6.187499999999998e+00	 8.624999999999998e+00	 1.002050138153845e+01
0	 6.187499999999997e+00	 8.687499999999998e+00	 1.001845325230769e+01
0	 6.187499999999997e+00	 8.750000000000000e+00	 1.001635195384617e+01
0	 6.250000000000000e+00	 8.125000000000000e+00	 1.003441692307692e+01
0	 6.250000000000001e+00	 8.187500000000000e+00	 1.003281344615385e+01
0	 6.250000000000001e+00	 8.250000000000002e+00	 1.003115716923075e+01
0	 6.250000000000000e+00	 8.312500000000000e+00	 1.002944809230770e+01
0	 6.250000000000001e+00	 8.374999999999998e+00	 1.002768621538460e+01
0	 6.250000000000000e+00	 8.437500000000000e+00	 1.002587153846154e+01
0	 6.250000000000000e+00	 8.500000000000000e+00	 1.002400406153846e+01
0	 6.250000000000000e+00	 8.562499999999998e+00	 1.002208378461537e+01
0	 6.250000000000001e+00	 8.625000000000000e+00	 1.002011070769231e+01
0	 6.250000000000000e+00	 8.687499999999998e+00	 1.001808483076919e+01
0	 6.250000000000000e+00	 8.750000000000000e+00	 1.001600615384615e+01
0	 5.625000000000000e+00	 8.750000000000000e+00	 1.001724461538462e+01
0	 5.625000000000000e+00	 8.812500000000000e+00	 1.001621658461539e+01
0	 5.625000000000001e+00	 8.875000000000002e+00	 1.001510603076924e+01
0	 5.625000000000000e+00	 8.937499999999998e+00	 1.001391295384615e+01
0	 5.625000000000000e+00	 9.000000000000000e+00	 1.001263735384616e+01
0	 5.625000000000000e+00	 9.062500000000000e+00	 1.001127923076923e+01
0	 5.625000000000000e+00	 9.124999999999998e+00	 1.000983858461538e+01
0	 5.624999999999999e+00	 9.187499999999998e+00	 1.000831541538460e+01
0	 5.624999999999999e+00	 9.249999999999998e+00	 1.000670972307690e+01
0	 5.625000000000000e+00	 9.312499999999998e+00	 1.000502150769229e+01
0	 5.625000000000000e+00	 9.375000000000000e+00	 1.000325076923077e+01
0	 5.687500000000001e+00	 8.750000000000002e+00	 1.001734272307694e+01
0	 5.687499999999999e+00	 8.812499999999998e+00	 1.001632114461539e+01
0	 5.687499999999999e+00	 8.875000000000000e+00	 1.001521744000000e+01
0	 5.687499999999999e+00	 8.937500000000000e+00	 1.001403160923078e+01
0	 5.687500000000000e+00	 9.000000000000000e+00	 1.001276365230769e+01
0	 5.687500000000001e+00	 9.062500000000000e+00	 1.001141356923077e+01
0	 5.687500000000001e+00	 9.125000000000000e+00	 1.000998136000001e+01
0	 5.687500000000001e+00	 9.187499999999998e+00	 1.000846702461538e+01
0	 5.687499999999999e+00	 9.250000000000000e+00	 1.000687056307692e+01
0	 5.687499999999998e+00	 9.312499999999996e+00	 1.000519197538462e+01
0	 5.687500000000001e+00	 9.375000000000000e+00	 1.000343126153847e+01
0	 5.750000000000000e+00	 8.750000000000000e+00	 1.001739150769228e+01
0	 5.749999999999998e+00	 8.812500000000000e+00	 1.001637670461537e+01
0	 5.750000000000001e+00	 8.875000000000004e+00	 1.001528017230770e+01
0	 5.749999999999998e+00	 8.937500000000000e+00	 1.001410191076923e+01
0	 5.749999999999999e+00	 8.999999999999998e+00	 1.001284191999999e+01
0	 5.750000000000000e+00	 9.062500000000000e+00	 1.001150020000001e+01
0	 5.750000000000000e+00	 9.124999999999998e+00	 1.001007675076922e+01
0	 5.750000000000000e+00	 9.187500000000002e+00	 1.000857157230768e+01
0	 5.750000000000000e+00	 9.249999999999996e+00	 1.000698466461536e+01
0	 5.750000000000000e+00	 9.312499999999998e+00	 1.000531602769231e+01
0	 5.750000000000000e+00	 9.375000000000000e+00	 1.000356566153847e+01
0	 5.812499999999999e+00	 8.750000000000000e+00	 1.001739096923077e+01
0	 5.812499999999998e+00	 8.812500000000000e+00	 1.001638326461537e+01
0	 5.812500000000000e+00	 8.875000000000002e+00	 1.001529422769231e+01
0	 5.812500000000000e+00	 8.937500000000000e+00	 1.001412385846154e+01
0	 5.812500000000000e+00	 9.000000000000000e+00	 1.001287215692307e+01
0	 5.812500000000000e+00	 9.062499999999998e+00	 1.001153912307692e+01
0	 5.812499999999999e+00	 9.124999999999998e+00	 1.001012475692309e+01
0	 5.812500000000000e+00	 9.187500000000002e+00	 1.000862905846153e+01
0	 5.812499999999999e+00	 9.249999999999998e+00	 1.000705202769230e+01
0	 5.812499999999997e+00	 9.312499999999998e+00	 1.000539366461537e+01
0	 5.812499999999999e+00	 9.375000000000002e+00	 1.000365396923077e+01
0	 5.875000000000000e+00	 8.749999999999998e+00	 1.001734110769230e+01
0	 5.875000000000000e+00	 8.812500000000000e+00	 1.001634082461538e+01
0	 5.875000000000000e+00	 8.875000000000002e+00	 1.001525960615385e+01
0	 5.875000000000000e+00	 8.937500000000000e+00	 1.001409745230769e+01
0	 5.874999999999998e+00	 8.999999999999998e+00	 1.001285436307692e+01
0	 5.874999999999999e+00	 9.062500000000000e+00	 1.001153033846156e+01
0	 5.874999999999998e+00	 9.124999999999998e+00	 1.001012537846154e+01
0	 5.874999999999999e+00	 9.187500000000000e+00	 1.000863948307691e+01
0	 5.875000000000000e+00	 9.249999999999998e+00	 1.000707265230769e+01
0	 5.875000000000000e+00	 9.312500000000000e+00	 1.000542488615386e+01
0	 5.875000000000000e+00	 9.375000000000002e+00	 1.000369618461539e+01
0	 5.937499999999999e+00	 8.750000000000000e+00	 1.001724192307692e+01
0	 5.937499999999999e+00	 8.812500000000000e+00	 1.001624938461540e+01
0	 5.937499999999999e+00	 8.875000000000000e+00	 1.001517630769230e+01
0	 5.937499999999999e+00	 8.937500000000000e+00	 1.001402269230770e+01
0	 5.937499999999999e+00	 8.999999999999998e+00	 1.001278853846155e+01
0	 5.937499999999999e+00	 9.062500000000000e+00	 1.001147384615384e+01
0	 5.937499999999999e+00	 9.125000000000002e+00	 1.001007861538461e+01
0	 5.937500000000000e+00	 9.187499999999998e+00	 1.000860284615383e+01
0	 5.937499999999999e+00	 9.249999999999998e+00	 1.000704653846154e+01
0	 5.937500000000000e+00	 9.312500000000000e+00	 1.000540969230768e+01
0	 5.937499999999999e+00	 9.375000000000002e+00	 1.000369230769229e+01
0	 5.999999999999998e+00	 8.750000000000000e+00	 1.001709341538461e+01
0	 5.999999999999999e+00	 8.812500000000000e+00	 1.001610894461537e+01
0	 5.999999999999999e+00	 8.874999999999996e+00	 1.001504433230769e+01
0	 5.999999999999999e+00	 8.937499999999998e+00	 1.001389957846153e+01
0	 5.999999999999999e+00	 9.000000000000004e+00	 1.001267468307691e+01
0	 5.999999999999999e+00	 9.062500000000002e+00	 1.001136964615384e+01
0	 5.999999999999998e+00	 9.124999999999998e+00	 1.000998446769230e+01
0	 5.999999999999999e+00	 9.187500000000000e+00	 1.000851914769231e+01
0	 5.999999999999999e+00	 9.249999999999998e+00	 1.000697368615385e+01
0	 5.999999999999999e+00	 9.312499999999998e+00	 1.000534808307692e+01
0	 5.999999999999998e+00	 9.375000000000000e+00	 1.000364233846153e+01
0	 6.062499999999998e+00	 8.750000000000000e+00	 1.001689558461540e+01
0	 6.062499999999999e+00	 8.812499999999998e+00	 1.001591950461540e+01
0	 6.062499999999999e+00	 8.875000000000002e+00	 1.001486368000002e+01
0	 6.062499999999998e+00	 8.937500000000002e+00	 1.001372811076924e+01
0	 6.062499999999998e+00	 8.999999999999998e+00	 1.001251279692307e+01
0	 6.062500000000000e+00	 9.062500000000000e+00	 1.001121773846153e+01
0	 6.062499999999999e+00	 9.125000000000000e+00	 1.000984293538461e+01
0	 6.062499999999999e+00	 9.187500000000000e+00	 1.000838838769231e+01
0	 6.062499999999999e+00	 9.249999999999998e+00	 1.000685409538460e+01
0	 6.062499999999999e+00	 9.312500000000000e+00	 1.000524005846155e+01
0	 6.062499999999998e+00	 9.375000000000000e+00	 1.000354627692308e+01
0	 6.124999999999998e+00	 8.750000000000002e+00	 1.001664843076923e+01
0	 6.125000000000000e+00	 8.812500000000002e+00	 1.001568106461539e+01
0	 6.124999999999998e+00	 8.875000000000000e+00	 1.001463435076923e+01
0	 6.124999999999999e+00	 8.937500000000002e+00	 1.001350828923077e+01
0	 6.124999999999999e+00	 8.999999999999998e+00	 1.001230288000000e+01
0	 6.124999999999998e+00	 9.062499999999998e+00	 1.001101812307693e+01
0	 6.124999999999998e+00	 9.125000000000000e+00	 1.000965401846154e+01
0	 6.124999999999998e+00	 9.187499999999998e+00	 1.000821056615384e+01
0	 6.124999999999999e+00	 9.250000000000000e+00	 1.000668776615386e+01
0	 6.124999999999998e+00	 9.312499999999998e+00	 1.000508561846155e+01
0	 6.124999999999998e+00	 9.375000000000000e+00	 1.000340412307694e+01
0	 6.187499999999997e+00	 8.750000000000000e+00	 1.001635195384617e+01
0	 6.187499999999998e+00	 8.812500000000000e+00	 1.001539362461535e+01
0	 6.187499999999998e+00	 8.875000000000002e+00	 1.001435634461537e+01
0	 6.187499999999997e+00	 8.937500000000000e+00	 1.001324011384615e+01
0	 6.187499999999998e+00	 9.000000000000000e+00	 1.001204493230769e+01
0	 6.187499999999997e+00	 9.062500000000000e+00	 1.001077080000000e+01
0	 6.187499999999997e+00	 9.125000000000000e+00	 1.000941771692309e+01
0	 6.187499999999997e+00	 9.187499999999998e+00	 1.000798568307692e+01
0	 6.187499999999998e+00	 9.249999999999998e+00	 1.000647469846154e+01
0	 6.187499999999997e+00	 9.312499999999996e+00	 1.000488476307693e+01
0	 6.187499999999997e+00	 9.375000000000000e+00	 1.000321587692309e+01
0	 6.250000000000000e+00	 8.750000000000000e+00	 1.001600615384615e+01
0	 6.250000000000001e+00	 8.812500000000000e+00	 1.001505718461539e+01
0	 6.250000000000001e+00	 8.875000000000002e+00	 1.001402966153846e+01
0	 6.250000000000000e+00	 8.937499999999998e+00	 1.001292358461538e+01
0	 6.250000000000001e+00	 9.000000000000000e+00	 1.001173895384615e+01
0	 6.250000000000000e+00	 9.062500000000000e+00	 1.001047576923077e+01
0	 6.250000000000000e+00	 9.124999999999998e+00	 1.000913403076923e+01
0	 6.250000000000000e+00	 9.187499999999998e+00	 1.000771373846152e+01
0	 6.250000000000001e+00	 9.249999999999998e+00	 1.000621489230769e+01
0	 6.250000000000000e+00	 9.312499999999998e+00	 1.000463749230769e+01
0	 6.250000000000000e+00	 9.375000000000000e+00	 1.000298153846154e+01
0	 5.625000000000000e+00	 9.375000000000000e+00	 1.000325076923077e+01
0	 5.625000000000000e+00	 9.437499999999998e+00	 1.000323161538462e+01
0	 5.625000000000000e+00	 9.500000000000000e+00	 1.000308923076921e+01
0	 5.624999999999999e+00	 9.562500000000000e+00	 1.000282361538460e+01
0	 5.625000000000001e+00	 9.625000000000000e+00	 1.000243476923075e+01
0	 5.625000000000000e+00	 9.687499999999998e+00	 1.000192269230770e+01
0	 5.625000000000000e+00	 9.749999999999998e+00	 1.000128738461537e+01
0	 5.625000000000000e+00	 9.812500000000000e+00	 1.000052884615387e+01
0	 5.625000000000001e+00	 9.875000000000000e+00	 9.999647076923047e+00
0	 5.625000000000000e+00	 9.937499999999998e+00	 9.998642076923083e+00
0	 5.625000000000000e+00	 1.000000000000000e+01	 9.997513846153851e+00
0	 5.687500000000001e+00	 9.375000000000000e+00	 1.000343126153847e+01
0	 5.687500000000001e+00	 9.437500000000002e+00	 1.000341773076924e+01
0	 5.687499999999998e+00	 9.500000000000000e+00	 1.000328182769232e+01
0	 5.687499999999999e+00	 9.562500000000000e+00	 1.000302355230767e+01
0	 5.687500000000000e+00	 9.625000000000000e+00	 1.000264290461540e+01
0	 5.687500000000000e+00	 9.687500000000000e+00	 1.000213988461539e+01
0	 5.687500000000000e+00	 9.749999999999998e+00	 1.000151449230768e+01
0	 5.687499999999999e+00	 9.812499999999998e+00	 1.000076672769230e+01
0	 5.687499999999999e+00	 9.874999999999998e+00	 9.999896590769218e+00
0	 5.687499999999999e+00	 9.937499999999996e+00	 9.998904081538509e+00
0	 5.687499999999999e+00	 1.000000000000000e+01	 9.997789199999978e+00
0	 5.750000000000000e+00	 9.375000000000000e+00	 1.000356566153847e+01
0	 5.749999999999999e+00	 9.437499999999998e+00	 1.000355663384613e+01
0	 5.750000000000001e+00	 9.500000000000000e+00	 1.000342609230770e+01
0	 5.749999999999999e+00	 9.562500000000000e+00	 1.000317403692309e+01
0	 5.750000000000001e+00	 9.625000000000002e+00	 1.000280046769232e+01
0	 5.750000000000000e+00	 9.687500000000002e+00	 1.000230538461539e+01
0	 5.750000000000000e+00	 9.750000000000000e+00	 1.000168878769230e+01
0	 5.750000000000000e+00	 9.812500000000002e+00	 1.000095067692311e+01
0	 5.749999999999999e+00	 9.874999999999996e+00	 1.000009105230770e+01
0	 5.750000000000001e+00	 9.937500000000000e+00	 9.999109913846155e+00
0	 5.749999999999999e+00	 1.000000000000000e+01	 9.998007261538445e+00
0	 5.812499999999999e+00	 9.375000000000002e+00	 1.000365396923077e+01
0	 5.812499999999998e+00	 9.437500000000000e+00	 1.000364832461537e+01
0	 5.812499999999998e+00	 9.499999999999996e+00	 1.000352202461539e+01
0	 5.812499999999999e+00	 9.562500000000000e+00	 1.000327506923078e+01
0	 5.812499999999999e+00	 9.624999999999998e+00	 1.000290745846154e+01
0	 5.812499999999998e+00	 9.687500000000000e+00	 1.000241919230771e+01
0	 5.812499999999999e+00	 9.749999999999996e+00	 1.000181027076923e+01
0	 5.812499999999998e+00	 9.812499999999996e+00	 1.000108069384612e+01
0	 5.812500000000000e+00	 9.875000000000000e+00	 1.000023046153843e+01
0	 5.812499999999999e+00	 9.937499999999998e+00	 9.999259573846158e+00
0	 5.812499999999999e+00	 1.000000000000000e+01	 9.998168030769245e+00
0	 5.875000000000000e+00	 9.375000000000002e+00	 1.000369618461539e+01
0	 5.874999999999998e+00	 9.437500000000000e+00	 1.000369280307691e+01
0	 5.875000000000001e+00	 9.500000000000004e+00	 1.000356962461538e+01
0	 5.874999999999998e+00	 9.562500000000000e+00	 1.000332664923077e+01
0	 5.875000000000000e+00	 9.624999999999998e+00	 1.000296387692305e+01
0	 5.874999999999999e+00	 9.687499999999998e+00	 1.000248130769232e+01
0	 5.874999999999999e+00	 9.750000000000000e+00	 1.000187894153848e+01
0	 5.874999999999999e+00	 9.812499999999996e+00	 1.000115677846154e+01
0	 5.874999999999999e+00	 9.874999999999998e+00	 1.000031481846152e+01
0	 5.874999999999998e+00	 9.937499999999996e+00	 9.999353061538487e+00
0	 5.874999999999999e+00	 1.000000000000000e+01	 9.998271507692280e+00
0	 5.937499999999999e+00	 9.375000000000002e+00	 1.000369230769229e+01
0	 5.937499999999998e+00	 9.437499999999998e+00	 1.000369006923076e+01
0	 5.937499999999998e+00	 9.499999999999998e+00	 1.000356889230768e+01
0	 5.937499999999999e+00	 9.562500000000000e+00	 1.000332877692307e+01
0	 5.937499999999998e+00	 9.624999999999998e+00	 1.000296972307691e+01
0	 5.937499999999999e+00	 9.687500000000000e+00	 1.000249173076924e+01
0	 5.937499999999998e+00	 9.750000000000000e+00	 1.000189480000002e+01
0	 5.937499999999998e+00	 9.812499999999998e+00	 1.000117893076924e+01
0	 5.937499999999999e+00	 9.874999999999998e+00	 1.000034412307691e+01
0	 5.937499999999999e+00	 9.937499999999998e+00	 9.999390376923067e+00
0	 5.937499999999998e+00	 1.000000000000000e+01	 9.998317692307745e+00
0	 5.999999999999998e+00	 9.375000000000000e+00	 1.000364233846153e+01
0	 5.999999999999997e+00	 9.437499999999998e+00	 1.000364012307693e+01
0	 5.999999999999999e+00	 9.500000000000000e+00	 1.000351982769231e+01
0	 5.999999999999998e+00	 9.562500000000000e+00	 1.000328145230768e+01
0	 5.999999999999998e+00	 9.625000000000000e+00	 1.000292499692306e+01
0	 5.999999999999998e+00	 9.687499999999998e+00	 1.000245046153849e+01
0	 5.999999999999999e+00	 9.749999999999998e+00	 1.000185784615386e+01
0	 5.999999999999998e+00	 9.812499999999996e+00	 1.000114715076921e+01
0	 5.999999999999999e+00	 9.874999999999998e+00	 1.000031837538459e+01
0	 6.000000000000000e+00	 9.937499999999998e+00	 9.999371519999997e+00
0	 5.999999999999998e+00	 9.999999999999998e+00	 9.998306584615451e+00
0	 6.062499999999998e+00	 9.375000000000000e+00	 1.000354627692308e+01
0	 6.062499999999998e+00	 9.437499999999998e+00	 1.000354296461538e+01
0	 6.062499999999997e+00	 9.499999999999998e+00	 1.000342243076923e+01
0	 6.062499999999999e+00	 9.562500000000002e+00	 1.000318467538462e+01
0	 6.062499999999998e+00	 9.624999999999998e+00	 1.000282969846155e+01
0	 6.062499999999999e+00	 9.687500000000000e+00	 1.000235750000000e+01
0	 6.062499999999998e+00	 9.750000000000000e+00	 1.000176807999998e+01
0	 6.062499999999999e+00	 9.812500000000000e+00	 1.000106143846151e+01
0	 6.062499999999999e+00	 9.874999999999998e+00	 1.000023757538458e+01
0	 6.062500000000000e+00	 9.937499999999998e+00	 9.999296490769243e+00
0	 6.062499999999999e+00	 1.000000000000000e+01	 9.998238184615444e+00
0	 6.124999999999998e+00	 9.375000000000000e+00	 1.000340412307694e+01
0	 6.124999999999999e+00	 9.437500000000002e+00	 1.000339859384616e+01
0	 6.124999999999998e+00	 9.500000000000000e+00	 1.000327670153845e+01
0	 6.124999999999999e+00	 9.562500000000002e+00	 1.000303844615386e+01
0	 6.124999999999996e+00	 9.624999999999998e+00	 1.000268382769228e+01
0	 6.124999999999998e+00	 9.687499999999998e+00	 1.000221284615382e+01
0	 6.124999999999998e+00	 9.750000000000000e+00	 1.000162550153842e+01
0	 6.124999999999998e+00	 9.812499999999998e+00	 1.000092179384611e+01
0	 6.124999999999997e+00	 9.874999999999998e+00	 1.000010172307686e+01
0	 6.124999999999997e+00	 9.937499999999998e+00	 9.999165289230742e+00
0	 6.124999999999998e+00	 1.000000000000000e+01	 9.998112492307651e+00
0	 6.187499999999997e+00	 9.375000000000000e+00	 1.000321587692309e+01
0	 6.187499999999997e+00	 9.437500000000000e+00	 1.000320701076927e+01
0	 6.187499999999998e+00	 9.499999999999998e+00	 1.000308264000002e+01
0	 6.187500000000000e+00	 9.562500000000000e+00	 1.000284276461541e+01
0	 6.187499999999998e+00	 9.624999999999998e+00	 1.000248738461539e+01
0	 6.187499999999997e+00	 9.687499999999996e+00	 1.000201649999999e+01
0	 6.187499999999998e+00	 9.749999999999998e+00	 1.000143011076924e+01
0	 6.187499999999998e+00	 9.812499999999998e+00	 1.000072821692303e+01
0	 6.187499999999997e+00	 9.874999999999996e+00	 9.999910818461533e+00
0	 6.187499999999998e+00	 9.937499999999998e+00	 9.998977915384609e+00
0	 6.187499999999998e+00	 1.000000000000000e+01	 9.997929507692277e+00
0	 6.250000000000000e+00	 9.375000000000000e+00	 1.000298153846154e+01
0	 6.250000000000000e+00	 9.437499999999998e+00	 1.000296821538461e+01
0	 6.249999999999999e+00	 9.500000000000000e+00	 1.000284024615384e+01
0	 6.249999999999999e+00	 9.562500000000000e+00	 1.000259763076923e+01
0	 6.250000000000000e+00	 9.625000000000000e+00	 1.000224036923075e+01
0	 6.250000000000000e+00	 9.687499999999998e+00	 1.000176846153845e+01
0	 6.250000000000000e+00	 9.749999999999998e+00	 1.000118190769231e+01
0	 6.250000000000000e+00	 9.812500000000000e+00	 1.000048070769230e+01
0	 6.250000000000001e+00	 9.875000000000000e+00	 9.999664861538429e+00
0	 6.250000000000000e+00	 9.937499999999998e+00	 9.998734369230762e+00
0	 6.250000000000000e+00	 1.000000000000000e+01	 9.997689230769220e+00
0	 6.250000000000000e+00	 0.000000000000000e+00	 1.014934953846154e+01
0	 6.250000000000001e+00	 6.250000000000000e-02	 1.015141618461539e+01
0	 6.250000000000000e+00	 1.250000000000000e-01	 1.015322547692307e+01
0	 6.249999999999999e+00	 1.875000000000000e-01	 1.015477741538461e+01
0	 6.250000000000001e+00	 2.500000000000000e-01	 1.015607200000000e+01
0	 6.250000000000000e+00	 3.125000000000000e-01	 1.015710923076923e+01
0	 6.250000000000001e+00	 3.750000000000000e-01	 1.015788910769230e+01
0	 6.250000000000000e+00	 4.374999999999999e-01	 1.015841163076923e+01
0	 6.250000000000001e+00	 5.000000000000000e-01	 1.015867680000000e+01
0	 6.250000000000000e+00	 5.624999999999999e-01	 1.015868461538462e+01
0	 6.250000000000000e+00	 6.250000000000000e-01	 1.015843507692307e+01
0	 6.312500000000001e+00	 0.000000000000000e+00	 1.014394334153846e+01
0	 6.312499999999998e+00	 6.249999999999999e-02	 1.014590921553846e+01
0	 6.312499999999999e+00	 1.250000000000000e-01	 1.014763065876923e+01
0	 6.312500000000000e+00	 1.875000000000000e-01	 1.014910767123077e+01
0	 6.312499999999999e+00	 2.500000000000000e-01	 1.015034025292307e+01
0	 6.312500000000000e+00	 3.125000000000001e-01	 1.015132840384615e+01
0	 6.312499999999999e+00	 3.749999999999999e-01	 1.015207212399999e+01
0	 6.312499999999999e+00	 4.374999999999999e-01	 1.015257141338461e+01
0	 6.312500000000000e+00	 5.000000000000000e-01	 1.015282627200000e+01
0	 6.312500000000001e+00	 5.625000000000000e-01	 1.015283669984615e+01
0	 6.312500000000000e+00	 6.250000000000000e-01	 1.015260269692308e+01
0	 6.374999999999999e+00	 0.000000000000000e+00	 1.013850173538461e+01
0	 6.375000000000002e+00	 6.250000000000000e-02	 1.014036856676923e+01
0	 6.374999999999999e+00	 1.250000000000000e-01	 1.014200389046154e+01
0	 6.374999999999999e+00	 1.875000000000000e-01	 1.014340770646154e+01
0	 6.375000000000000e+00	 2.500000000000001e-01	 1.014458001476923e+01
0	 6.374999999999999e+00	 3.125000000000000e-01	 1.014552081538461e+01
0	 6.374999999999999e+00	 3.749999999999999e-01	 1.014623010830769e+01
0	 6.374999999999998e+00	 4.375000000000000e-01	 1.014670789353845e+01
0	 6.375000000000000e+00	 4.999999999999999e-01	 1.014695417107692e+01
0	 6.375000000000000e+00	 5.625000000000000e-01	 1.014696894092308e+01
0	 6.374999999999999e+00	 6.249999999999999e-01	 1.014675220307693e+01
0	 6.437499999999999e+00	 0.000000000000000e+00	 1.013302472000000e+01
0	 6.437499999999999e+00	 6.250000000000000e-02	 1.013479423830769e+01
0	 6.437499999999998e+00	 1.250000000000000e-01	 1.013634517199999e+01
0	 6.437500000000000e+00	 1.875000000000001e-01	 1.013767752107693e+01
0	 6.437500000000001e+00	 2.500000000000001e-01	 1.013879128553846e+01
0	 6.437499999999998e+00	 3.125000000000000e-01	 1.013968646538462e+01
0	 6.437500000000000e+00	 3.749999999999999e-01	 1.014036306061538e+01
0	 6.437499999999999e+00	 4.374999999999999e-01	 1.014082107123077e+01
0	 6.437499999999998e+00	 4.999999999999999e-01	 1.014106049723076e+01
0	 6.437500000000000e+00	 5.625000000000001e-01	 1.014108133861538e+01
0	 6.437499999999998e+00	 6.249999999999999e-01	 1.014088359538461e+01
0	 6.499999999999999e+00	 0.000000000000000e+00	 1.012751229538461e+01
0	 6.499999999999997e+00	 6.250000000000000e-02	 1.012918623015385e+01
0	 6.499999999999997e+00	 1.250000000000000e-01	 1.013065450338462e+01
0	 6.499999999999997e+00	 1.875000000000000e-01	 1.013191711507692e+01
0	 6.499999999999996e+00	 2.500000000000000e-01	 1.013297406523077e+01
0	 6.499999999999999e+00	 3.125000000000000e-01	 1.013382535384615e+01
0	 6.499999999999999e+00	 3.750000000000000e-01	 1.013447098092308e+01
0	 6.500000000000000e+00	 4.375000000000000e-01	 1.013491094646154e+01
0	 6.499999999999998e+00	 4.999999999999999e-01	 1.013514525046153e+01
0	 6.499999999999999e+00	 5.625000000000000e-01	 1.013517389292308e+01
0	 6.499999999999999e+00	 6.250000000000001e-01	 1.013499687384615e+01
0	 6.562499999999999e+00	 0.000000000000000e+00	 1.012196446153846e+01
0	 6.562499999999997e+00	 6.249999999999998e-02	 1.012354454230769e+01
0	 6.562499999999999e+00	 1.250000000000000e-01	 1.012493188461538e+01
0	 6.562499999999997e+00	 1.875000000000000e-01	 1.012612648846153e+01
0	 6.562499999999997e+00	 2.499999999999999e-01	 1.012712835384615e+01
0	 6.562499999999999e+00	 3.125000000000000e-01	 1.012793748076923e+01
0	 6.562499999999997e+00	 3.750000000000000e-01	 1.012855386923076e+01
0	 6.562499999999999e+00	 4.375000000000000e-01	 1.012897751923077e+01
0	 6.562499999999997e+00	 4.999999999999999e-01	 1.012920843076923e+01
0	 6.562500000000000e+00	 5.625000000000001e-01	 1.012924660384615e+01
0	 6.562499999999998e+00	 6.250000000000000e-01	 1.012909203846153e+01
0	 6.624999999999998e+00	 0.000000000000000e+00	 1.011638121846154e+01
0	 6.624999999999998e+00	 6.249999999999999e-02	 1.011786917476923e+01
0	 6.624999999999998e+00	 1.250000000000000e-01	 1.011917731569231e+01
0	 6.624999999999999e+00	 1.875000000000001e-01	 1.012030564123076e+01
0	 6.624999999999998e+00	 2.500000000000001e-01	 1.012125415138461e+01
0	 6.624999999999999e+00	 3.125000000000001e-01	 1.012202284615385e+01
0	 6.624999999999998e+00	 3.749999999999999e-01	 1.012261172553846e+01
0	 6.624999999999999e+00	 4.375000000000000e-01	 1.012302078953846e+01
0	 6.624999999999996e+00	 4.999999999999998e-01	 1.012325003815385e+01
0	 6.624999999999998e+00	 5.624999999999999e-01	 1.012329947138462e+01
0	 6.624999999999998e+00	 6.250000000000001e-01	 1.012316908923077e+01
0	 6.687499999999999e+00	 0.000000000000000e+00	 1.011076256615385e+01
0	 6.687499999999998e+00	 6.250000000000000e-02	 1.011216012753846e+01
0	 6.687499999999997e+00	 1.250000000000000e-01	 1.011339079661538e+01
0	 6.687499999999999e+00	 1.875000000000000e-01	 1.011445457338462e+01
0	 6.687499999999999e+00	 2.500000000000000e-01	 1.011535145784615e+01
0	 6.687499999999999e+00	 3.125000000000001e-01	 1.011608145000001e+01
0	 6.687499999999997e+00	 3.750000000000000e-01	 1.011664454984615e+01
0	 6.687499999999998e+00	 4.375000000000000e-01	 1.011704075738461e+01
0	 6.687499999999998e+00	 4.999999999999999e-01	 1.011727007261538e+01
0	 6.687500000000000e+00	 5.625000000000000e-01	 1.011733249553846e+01
0	 6.687499999999996e+00	 6.249999999999999e-01	 1.011722802615384e+01
0	 6.749999999999998e+00	 0.000000000000000e+00	 1.010510850461538e+01
0	 6.749999999999999e+00	 6.249999999999999e-02	 1.010641740061538e+01
0	 6.750000000000000e+00	 1.250000000000000e-01	 1.010757232738461e+01
0	 6.750000000000001e+00	 1.875000000000001e-01	 1.010857328492307e+01
0	 6.749999999999996e+00	 2.500000000000000e-01	 1.010942027323077e+01
0	 6.749999999999996e+00	 3.124999999999999e-01	 1.011011329230769e+01
0	 6.749999999999998e+00	 3.749999999999999e-01	 1.011065234215385e+01
0	 6.749999999999999e+00	 4.375000000000000e-01	 1.011103742276923e+01
0	 6.749999999999999e+00	 4.999999999999999e-01	 1.011126853415384e+01
0	 6.749999999999998e+00	 5.625000000000000e-01	 1.011134567630769e+01
0	 6.749999999999998e+00	 6.250000000000000e-01	 1.011126884923077e+01
0	 6.812499999999998e+00	 0.000000000000000e+00	 1.009941903384615e+01
0	 6.812499999999998e+00	 6.250000000000000e-02	 1.010064099400000e+01
0	 6.812499999999998e+00	 1.250000000000000e-01	 1.010172190800000e+01
0	 6.812499999999998e+00	 1.875000000000000e-01	 1.010266177584615e+01
0	 6.812499999999996e+00	 2.499999999999999e-01	 1.010346059753846e+01
0	 6.812499999999997e+00	 3.125000000000000e-01	 1.010411837307692e+01
0	 6.812499999999997e+00	 3.750000000000000e-01	 1.010463510246154e+01
0	 6.812499999999998e+00	 4.375000000000000e-01	 1.010501078569231e+01
0	 6.812499999999997e+00	 4.999999999999999e-01	 1.010524542276923e+01
0	 6.812499999999998e+00	 5.625000000000000e-01	 1.010533901369231e+01
0	 6.812499999999998e+00	 6.250000000000000e-01	 1.010529155846154e+01
0	 6.875000000000000e+00	 0.000000000000000e+00	 1.009369415384615e+01
0	 6.875000000000001e+00	 6.250000000000000e-02	 1.009483090769231e+01
0	 6.875000000000000e+00	 1.250000000000000e-01	 1.009583953846154e+01
0	 6.875000000000000e+00	 1.875000000000000e-01	 1.009672004615384e+01
0	 6.875000000000000e+00	 2.500000000000000e-01	 1.009747243076923e+01
0	 6.875000000000000e+00	 3.125000000000000e-01	 1.009809669230769e+01
0	 6.875000000000000e+00	 3.750000000000000e-01	 1.009859283076923e+01
0	 6.875000000000000e+00	 4.374999999999999e-01	 1.009896084615385e+01
0	 6.875000000000002e+00	 5.000000000000000e-01	 1.009920073846154e+01
0	 6.875000000000000e+00	 5.624999999999999e-01	 1.009931250769230e+01
0	 6.875000000000000e+00	 6.250000000000000e-01	 1.009929615384616e+01
0	 6.250000000000000e+00	 6.250000000000000e-01	 1.015843507692307e+01
0	 6.250000000000000e+00	 6.875000000000000e-01	 1.016132586153846e+01
0	 6.249999999999999e+00	 7.500000000000002e-01	 1.016406996923076e+01
0	 6.250000000000001e+00	 8.125000000000002e-01	 1.016666740000000e+01
0	 6.250000000000000e+00	 8.750000000000002e-01	 1.016911815384615e+01
0	 6.250000000000000e+00	 9.375000000000002e-01	 1.017142223076922e+01
0	 6.250000000000000e+00	 1.000000000000000e+00	 1.017357963076923e+01
0	 6.250000000000000e+00	 1.062500000000000e+00	 1.017559035384615e+01
0	 6.250000000000000e+00	 1.125000000000001e+00	 1.017745439999999e+01
0	 6.250000000000000e+00	 1.187500000000000e+00	 1.017917176923077e+01
0	 6.250000000000000e+00	 1.250000000000000e+00	 1.018074246153846e+01
0	 6.312500000000000e+00	 6.250000000000000e-01	 1.015260269692308e+01
0	 6.312499999999999e+00	 6.875000000000001e-01	 1.015536245969231e+01
0	 6.312500000000000e+00	 7.500000000000001e-01	 1.015798000400000e+01
0	 6.312499999999999e+00	 8.125000000000002e-01	 1.016045532984615e+01
0	 6.312500000000001e+00	 8.750000000000003e-01	 1.016278843723077e+01
0	 6.312500000000000e+00	 9.375000000000003e-01	 1.016497932615384e+01
0	 6.312500000000000e+00	 1.000000000000000e+00	 1.016702799661538e+01
0	 6.312499999999999e+00	 1.062500000000000e+00	 1.016893444861538e+01
0	 6.312499999999999e+00	 1.125000000000000e+00	 1.017069868215385e+01
0	 6.312499999999998e+00	 1.187500000000000e+00	 1.017232069723076e+01
0	 6.312500000000000e+00	 1.250000000000000e+00	 1.017380049384615e+01
0	 6.374999999999999e+00	 6.249999999999999e-01	 1.014675220307693e+01
0	 6.375000000000001e+00	 6.875000000000001e-01	 1.014939060184615e+01
0	 6.374999999999999e+00	 7.500000000000002e-01	 1.015189124061538e+01
0	 6.374999999999998e+00	 8.125000000000001e-01	 1.015425411938462e+01
0	 6.375000000000000e+00	 8.750000000000003e-01	 1.015647923815384e+01
0	 6.375000000000000e+00	 9.375000000000003e-01	 1.015856659692307e+01
0	 6.375000000000001e+00	 1.000000000000000e+00	 1.016051619569231e+01
0	 6.374999999999999e+00	 1.062500000000000e+00	 1.016232803446154e+01
0	 6.374999999999999e+00	 1.125000000000000e+00	 1.016400211323077e+01
0	 6.375000000000000e+00	 1.187500000000001e+00	 1.016553843200000e+01
0	 6.374999999999999e+00	 1.250000000000000e+00	 1.016693699076923e+01
0	 6.437499999999998e+00	 6.249999999999999e-01	 1.014088359538461e+01
0	 6.437499999999998e+00	 6.875000000000000e-01	 1.014341028800000e+01
0	 6.437500000000000e+00	 7.500000000000000e-01	 1.014580367907692e+01
0	 6.437500000000000e+00	 8.125000000000002e-01	 1.014806376861538e+01
0	 6.437499999999998e+00	 8.750000000000002e-01	 1.015019055661538e+01
0	 6.437499999999998e+00	 9.375000000000002e-01	 1.015218404307692e+01
0	 6.437499999999999e+00	 1.000000000000000e+00	 1.015404422800000e+01
0	 6.437499999999999e+00	 1.062500000000000e+00	 1.015577111138461e+01
0	 6.437499999999999e+00	 1.125000000000000e+00	 1.015736469323076e+01
0	 6.437499999999999e+00	 1.187500000000000e+00	 1.015882497353845e+01
0	 6.437499999999998e+00	 1.250000000000000e+00	 1.016015195230769e+01
0	 6.499999999999999e+00	 6.250000000000001e-01	 1.013499687384615e+01
0	 6.500000000000001e+00	 6.875000000000000e-01	 1.013742151815384e+01
0	 6.499999999999998e+00	 7.500000000000000e-01	 1.013971731938461e+01
0	 6.499999999999999e+00	 8.125000000000001e-01	 1.014188427753846e+01
0	 6.499999999999999e+00	 8.750000000000003e-01	 1.014392239261538e+01
0	 6.499999999999998e+00	 9.375000000000000e-01	 1.014583166461539e+01
0	 6.500000000000000e+00	 1.000000000000000e+00	 1.014761209353846e+01
0	 6.500000000000000e+00	 1.062500000000000e+00	 1.014926367938462e+01
0	 6.500000000000000e+00	 1.125000000000000e+00	 1.015078642215384e+01
0	 6.499999999999999e+00	 1.187500000000000e+00	 1.015218032184615e+01
0	 6.499999999999999e+00	 1.250000000000000e+00	 1.015344537846153e+01
0	 6.562499999999998e+00	 6.250000000000000e-01	 1.012909203846153e+01
0	 6.562499999999998e+00	 6.875000000000000e-01	 1.013142429230769e+01
0	 6.562499999999999e+00	 7.500000000000001e-01	 1.013363216153846e+01
0	 6.562499999999997e+00	 8.125000000000002e-01	 1.013571564615384e+01
0	 6.562499999999999e+00	 8.750000000000003e-01	 1.013767474615384e+01
0	 6.562499999999998e+00	 9.375000000000002e-01	 1.013950946153846e+01
0	 6.562499999999999e+00	 1.000000000000000e+00	 1.014121979230769e+01
0	 6.562499999999999e+00	 1.062500000000000e+00	 1.014280573846153e+01
0	 6.562499999999999e+00	 1.125000000000000e+00	 1.014426729999999e+01
0	 6.562499999999998e+00	 1.187500000000001e+00	 1.014560447692307e+01
0	 6.562499999999998e+00	 1.250000000000000e+00	 1.014681726923077e+01
0	 6.624999999999998e+00	 6.250000000000001e-01	 1.012316908923077e+01
0	 6.624999999999997e+00	 6.874999999999999e-01	 1.012541861046154e+01
0	 6.625000000000000e+00	 7.500000000000003e-01	 1.012754820553846e+01
0	 6.624999999999998e+00	 8.125000000000000e-01	 1.012955787446154e+01
0	 6.624999999999997e+00	 8.750000000000001e-01	 1.013144761723077e+01
0	 6.624999999999999e+00	 9.375000000000003e-01	 1.013321743384615e+01
0	 6.624999999999998e+00	 1.000000000000000e+00	 1.013486732430769e+01
0	 6.624999999999998e+00	 1.062500000000000e+00	 1.013639728861538e+01
0	 6.624999999999998e+00	 1.125000000000000e+00	 1.013780732676923e+01
0	 6.624999999999997e+00	 1.187500000000000e+00	 1.013909743876922e+01
0	 6.624999999999998e+00	 1.250000000000000e+00	 1.014026762461539e+01
0	 6.687499999999996e+00	 6.249999999999999e-01	 1.011722802615384e+01
0	 6.687499999999997e+00	 6.875000000000000e-01	 1.011940447261539e+01
0	 6.687499999999999e+00	 7.500000000000002e-01	 1.012146545138462e+01
0	 6.687499999999998e+00	 8.125000000000000e-01	 1.012341096246153e+01
0	 6.687500000000000e+00	 8.750000000000002e-01	 1.012524100584614e+01
0	 6.687499999999999e+00	 9.375000000000004e-01	 1.012695558153846e+01
0	 6.687499999999998e+00	 1.000000000000000e+00	 1.012855468953845e+01
0	 6.687500000000001e+00	 1.062500000000001e+00	 1.013003832984615e+01
0	 6.687499999999998e+00	 1.125000000000000e+00	 1.013140650246154e+01
0	 6.687499999999998e+00	 1.187500000000000e+00	 1.013265920738462e+01
0	 6.687499999999996e+00	 1.250000000000000e+00	 1.013379644461538e+01
0	 6.749999999999998e+00	 6.250000000000000e-01	 1.011126884923077e+01
0	 6.749999999999998e+00	 6.875000000000000e-01	 1.011338187876922e+01
0	 6.749999999999996e+00	 7.500000000000000e-01	 1.011538389907692e+01
0	 6.749999999999998e+00	 8.125000000000001e-01	 1.011727491015385e+01
0	 6.749999999999999e+00	 8.750000000000003e-01	 1.011905491200000e+01
0	 6.749999999999999e+00	 9.375000000000002e-01	 1.012072390461539e+01
0	 6.750000000000000e+00	 1.000000000000001e+00	 1.012228188799999e+01
0	 6.749999999999999e+00	 1.062500000000000e+00	 1.012372886215384e+01
0	 6.749999999999998e+00	 1.125000000000000e+00	 1.012506482707692e+01
0	 6.749999999999999e+00	 1.187500000000000e+00	 1.012628978276923e+01
0	 6.749999999999998e+00	 1.250000000000000e+00	 1.012740372923077e+01
0	 6.812499999999998e+00	 6.250000000000000e-01	 1.010529155846154e+01
0	 6.812499999999998e+00	 6.875000000000002e-01	 1.010735082892308e+01
0	 6.812499999999998e+00	 7.500000000000001e-01	 1.010930354861538e+01
0	 6.812499999999997e+00	 8.125000000000001e-01	 1.011114971753846e+01
0	 6.812499999999997e+00	 8.750000000000002e-01	 1.011288933569231e+01
0	 6.812499999999997e+00	 9.375000000000002e-01	 1.011452240307693e+01
0	 6.812499999999998e+00	 1.000000000000000e+00	 1.011604891969230e+01
0	 6.812499999999998e+00	 1.062500000000000e+00	 1.011746888553846e+01
0	 6.812499999999998e+00	 1.125000000000000e+00	 1.011878230061538e+01
0	 6.812499999999998e+00	 1.187500000000000e+00	 1.011998916492307e+01
0	 6.812499999999998e+00	 1.250000000000000e+00	 1.012108947846153e+01
0	 6.875000000000000e+00	 6.250000000000000e-01	 1.009929615384616e+01
0	 6.875000000000000e+00	 6.875000000000000e-01	 1.010131132307692e+01
0	 6.875000000000000e+00	 7.500000000000002e-01	 1.010322440000000e+01
0	 6.875000000000001e+00	 8.125000000000002e-01	 1.010503538461539e+01
0	 6.875000000000001e+00	 8.750000000000002e-01	 1.010674427692307e+01
0	 6.875000000000000e+00	 9.375000000000002e-01	 1.010835107692307e+01
0	 6.875000000000000e+00	 1.000000000000000e+00	 1.010985578461538e+01
0	 6.875000000000000e+00	 1.062500000000000e+00	 1.011125840000000e+01
0	 6.875000000000001e+00	 1.125000000000001e+00	 1.011255892307692e+01
0	 6.875000000000000e+00	 1.187500000000000e+00	 1.011375735384615e+01
0	 6.875000000000000e+00	 1.250000000000000e+00	 1.011485369230769e+01
0	 6.250000000000000e+00	 1.250000000000000e+00	 1.018074246153846e+01
0	 6.250000000000000e+00	 1.312500000000000e+00	 1.018328364615384e+01
0	 6.249999999999999e+00	 1.375000000000000e+00	 1.018580000000000e+01
0	 6.250000000000001e+00	 1.437500000000000e+00	 1.018829152307693e+01
0	 6.250000000000000e+00	 1.500000000000000e+00	 1.019075821538462e+01
0	 6.250000000000000e+00	 1.562500000000000e+00	 1.019320007692307e+01
0	 6.250000000000000e+00	 1.625000000000000e+00	 1.019561710769231e+01
0	 6.250000000000000e+00	 1.687500000000000e+00	 1.019800930769231e+01
0	 6.250000000000000e+00	 1.750000000000001e+00	 1.020037667692308e+01
0	 6.250000000000000e+00	 1.812500000000000e+00	 1.020271921538462e+01
0	 6.250000000000000e+00	 1.875000000000000e+00	 1.020503692307692e+01
0	 6.312500000000000e+00	 1.250000000000000e+00	 1.017380049384615e+01
0	 6.312499999999999e+00	 1.312500000000000e+00	 1.017629050907692e+01
0	 6.312500000000000e+00	 1.375000000000000e+00	 1.017875471507692e+01
0	 6.312499999999999e+00	 1.437500000000000e+00	 1.018119311184615e+01
0	 6.312500000000001e+00	 1.500000000000000e+00	 1.018360569938461e+01
0	 6.312500000000000e+00	 1.562500000000000e+00	 1.018599247769231e+01
0	 6.312500000000000e+00	 1.625000000000000e+00	 1.018835344676923e+01
0	 6.312499999999999e+00	 1.687500000000000e+00	 1.019068860661538e+01
0	 6.312499999999999e+00	 1.750000000000000e+00	 1.019299795723077e+01
0	 6.312499999999998e+00	 1.812500000000000e+00	 1.019528149861538e+01
0	 6.312500000000000e+00	 1.875000000000000e+00	 1.019753923076923e+01
0	 6.374999999999999e+00	 1.250000000000000e+00	 1.016693699076923e+01
0	 6.375000000000001e+00	 1.312500000000000e+00	 1.016937789784615e+01
0	 6.374999999999999e+00	 1.375000000000000e+00	 1.017179201723077e+01
0	 6.374999999999998e+00	 1.437500000000000e+00	 1.017417934892308e+01
0	 6.375000000000000e+00	 1.500000000000000e+00	 1.017653989292308e+01
0	 6.375000000000000e+00	 1.562500000000000e+00	 1.017887364923076e+01
0	 6.375000000000001e+00	 1.625000000000000e+00	 1.018118061784615e+01
0	 6.374999999999999e+00	 1.687500000000000e+00	 1.018346079876923e+01
0	 6.374999999999999e+00	 1.750000000000001e+00	 1.018571419200000e+01
0	 6.375000000000000e+00	 1.812500000000001e+00	 1.018794079753846e+01
0	 6.374999999999999e+00	 1.875000000000000e+00	 1.019014061538461e+01
0	 6.437499999999998e+00	 1.250000000000000e+00	 1.016015195230769e+01
0	 6.437499999999998e+00	 1.312500000000000e+00	 1.016254581246154e+01
0	 6.437500000000000e+00	 1.375000000000000e+00	 1.016491190646154e+01
0	 6.437500000000000e+00	 1.437500000000000e+00	 1.016725023430769e+01
0	 6.437499999999998e+00	 1.500000000000000e+00	 1.016956079600000e+01
0	 6.437499999999998e+00	 1.562500000000000e+00	 1.017184359153846e+01
0	 6.437499999999999e+00	 1.625000000000000e+00	 1.017409862092307e+01
0	 6.437499999999999e+00	 1.687500000000000e+00	 1.017632588415384e+01
0	 6.437499999999999e+00	 1.750000000000000e+00	 1.017852538123077e+01
0	 6.437499999999999e+00	 1.812500000000000e+00	 1.018069711215384e+01
0	 6.437499999999998e+00	 1.875000000000000e+00	 1.018284107692308e+01
0	 6.499999999999999e+00	 1.250000000000000e+00	 1.015344537846153e+01
0	 6.500000000000001e+00	 1.312500000000000e+00	 1.015579425292308e+01
0	 6.499999999999998e+00	 1.375000000000000e+00	 1.015811438276923e+01
0	 6.499999999999999e+00	 1.437500000000000e+00	 1.016040576799999e+01
0	 6.499999999999999e+00	 1.500000000000000e+00	 1.016266840861538e+01
0	 6.499999999999998e+00	 1.562500000000000e+00	 1.016490230461538e+01
0	 6.500000000000000e+00	 1.625000000000001e+00	 1.016710745600000e+01
0	 6.500000000000000e+00	 1.687500000000000e+00	 1.016928386276923e+01
0	 6.500000000000000e+00	 1.750000000000001e+00	 1.017143152492307e+01
0	 6.499999999999999e+00	 1.812500000000000e+00	 1.017355044246153e+01
0	 6.499999999999999e+00	 1.875000000000000e+00	 1.017564061538461e+01
0	 6.562499999999998e+00	 1.250000000000000e+00	 1.014681726923077e+01
0	 6.562499999999998e+00	 1.312500000000000e+00	 1.014912321923076e+01
0	 6.562499999999999e+00	 1.375000000000000e+00	 1.015139944615385e+01
0	 6.562499999999997e+00	 1.437500000000000e+00	 1.015364595000000e+01
0	 6.562499999999999e+00	 1.500000000000000e+00	 1.015586273076923e+01
0	 6.562499999999998e+00	 1.562500000000000e+00	 1.015804978846153e+01
0	 6.562499999999999e+00	 1.625000000000000e+00	 1.016020712307692e+01
0	 6.562499999999999e+00	 1.687500000000000e+00	 1.016233473461538e+01
0	 6.562499999999999e+00	 1.750000000000000e+00	 1.016443262307692e+01
0	 6.562499999999998e+00	 1.812500000000000e+00	 1.016650078846153e+01
0	 6.562499999999998e+00	 1.875000000000000e+00	 1.016853923076923e+01
0	 6.624999999999998e+00	 1.250000000000000e+00	 1.014026762461539e+01
0	 6.624999999999997e+00	 1.312500000000000e+00	 1.014253271138461e+01
0	 6.625000000000000e+00	 1.375000000000000e+00	 1.014476709661538e+01
0	 6.624999999999998e+00	 1.437500000000000e+00	 1.014697078030769e+01
0	 6.624999999999997e+00	 1.500000000000000e+00	 1.014914376246154e+01
0	 6.624999999999999e+00	 1.562500000000000e+00	 1.015128604307692e+01
0	 6.624999999999998e+00	 1.625000000000000e+00	 1.015339762215385e+01
0	 6.624999999999998e+00	 1.687500000000000e+00	 1.015547849969231e+01
0	 6.624999999999998e+00	 1.750000000000000e+00	 1.015752867569230e+01
0	 6.624999999999997e+00	 1.812500000000000e+00	 1.015954815015384e+01
0	 6.624999999999998e+00	 1.875000000000000e+00	 1.016153692307692e+01
0	 6.687499999999996e+00	 1.250000000000000e+00	 1.013379644461538e+01
0	 6.687499999999997e+00	 1.312500000000000e+00	 1.013602272938462e+01
0	 6.687499999999999e+00	 1.375000000000000e+00	 1.013821733415384e+01
0	 6.687499999999998e+00	 1.437500000000000e+00	 1.014038025892307e+01
0	 6.687500000000000e+00	 1.500000000000001e+00	 1.014251150369230e+01
0	 6.687499999999999e+00	 1.562500000000000e+00	 1.014461106846154e+01
0	 6.687499999999998e+00	 1.625000000000000e+00	 1.014667895323077e+01
0	 6.687500000000001e+00	 1.687500000000000e+00	 1.014871515800000e+01
0	 6.687499999999998e+00	 1.750000000000000e+00	 1.015071968276923e+01
0	 6.687499999999998e+00	 1.812500000000000e+00	 1.015269252753846e+01
0	 6.687499999999996e+00	 1.875000000000000e+00	 1.015463369230769e+01
0	 6.749999999999998e+00	 1.250000000000000e+00	 1.012740372923077e+01
0	 6.749999999999998e+00	 1.312500000000000e+00	 1.012959327323076e+01
0	 6.749999999999996e+00	 1.375000000000000e+00	 1.013175015876923e+01
0	 6.749999999999998e+00	 1.437500000000000e+00	 1.013387438584615e+01
0	 6.749999999999999e+00	 1.500000000000000e+00	 1.013596595446153e+01
0	 6.749999999999999e+00	 1.562500000000000e+00	 1.013802486461539e+01
0	 6.750000000000000e+00	 1.625000000000001e+00	 1.014005111630769e+01
0	 6.749999999999999e+00	 1.687500000000000e+00	 1.014204470953845e+01
0	 6.749999999999998e+00	 1.750000000000000e+00	 1.014400564430769e+01
0	 6.749999999999999e+00	 1.812500000000001e+00	 1.014593392061538e+01
0	 6.749999999999998e+00	 1.875000000000000e+00	 1.014782953846154e+01
0	 6.812499999999998e+00	 1.250000000000000e+00	 1.012108947846153e+01
0	 6.812499999999998e+00	 1.312500000000000e+00	 1.012324434292307e+01
0	 6.812499999999998e+00	 1.375000000000000e+00	 1.012536557046153e+01
0	 6.812499999999997e+00	 1.437500000000000e+00	 1.012745316107692e+01
0	 6.812499999999997e+00	 1.500000000000000e+00	 1.012950711476923e+01
0	 6.812499999999997e+00	 1.562500000000000e+00	 1.013152743153846e+01
0	 6.812499999999998e+00	 1.625000000000000e+00	 1.013351411138461e+01
0	 6.812499999999998e+00	 1.687500000000000e+00	 1.013546715430769e+01
0	 6.812499999999998e+00	 1.750000000000000e+00	 1.013738656030770e+01
0	 6.812499999999998e+00	 1.812500000000000e+00	 1.013927232938461e+01
0	 6.812499999999998e+00	 1.875000000000000e+00	 1.014112446153846e+01
0	 6.875000000000000e+00	 1.250000000000000e+00	 1.011485369230769e+01
0	 6.875000000000000e+00	 1.312500000000000e+00	 1.011697593846154e+01
0	 6.875000000000000e+00	 1.375000000000000e+00	 1.011906356923077e+01
0	 6.875000000000001e+00	 1.437500000000000e+00	 1.012111658461538e+01
0	 6.875000000000001e+00	 1.500000000000000e+00	 1.012313498461538e+01
0	 6.875000000000000e+00	 1.562500000000000e+00	 1.012511876923076e+01
0	 6.875000000000000e+00	 1.625000000000000e+00	 1.012706793846154e+01
0	 6.875000000000000e+00	 1.687500000000000e+00	 1.012898249230770e+01
0	 6.875000000000001e+00	 1.750000000000001e+00	 1.013086243076923e+01
0	 6.875000000000000e+00	 1.812500000000000e+00	 1.013270775384616e+01
0	 6.875000000000000e+00	 1.875000000000000e+00	 1.013451846153845e+01
0	 6.250000000000000e+00	 1.875000000000000e+00	 1.020503692307692e+01
0	 6.250000000000000e+00	 1.937500000000000e+00	 1.020669449230769e+01
0	 6.249999999999999e+00	 2.000000000000000e+00	 1.020840966153847e+01
0	 6.250000000000001e+00	 2.062500000000000e+00	 1.021018243076923e+01
0	 6.250000000000000e+00	 2.125000000000000e+00	 1.021201280000000e+01
0	 6.250000000000000e+00	 2.187500000000000e+00	 1.021390076923077e+01
0	 6.250000000000000e+00	 2.250000000000000e+00	 1.021584633846153e+01
0	 6.250000000000000e+00	 2.312500000000000e+00	 1.021784950769231e+01
0	 6.250000000000000e+00	 2.375000000000001e+00	 1.021991027692308e+01
0	 6.250000000000000e+00	 2.437500000000001e+00	 1.022202864615384e+01
0	 6.250000000000000e+00	 2.500000000000000e+00	 1.022420461538461e+01
0	 6.312500000000000e+00	 1.875000000000000e+00	 1.019753923076923e+01
0	 6.312499999999999e+00	 1.937500000000000e+00	 1.019914082153846e+01
0	 6.312500000000000e+00	 2.000000000000000e+00	 1.020079758461537e+01
0	 6.312499999999999e+00	 2.062500000000000e+00	 1.020250951999999e+01
0	 6.312500000000001e+00	 2.125000000000001e+00	 1.020427662769230e+01
0	 6.312500000000000e+00	 2.187500000000000e+00	 1.020609890769231e+01
0	 6.312500000000000e+00	 2.250000000000000e+00	 1.020797636000000e+01
0	 6.312499999999999e+00	 2.312500000000000e+00	 1.020990898461538e+01
0	 6.312499999999999e+00	 2.375000000000000e+00	 1.021189678153847e+01
0	 6.312499999999998e+00	 2.437500000000000e+00	 1.021393975076923e+01
0	 6.312500000000000e+00	 2.500000000000000e+00	 1.021603789230769e+01
0	 6.374999999999999e+00	 1.875000000000000e+00	 1.019014061538461e+01
0	 6.375000000000001e+00	 1.937500000000000e+00	 1.019169460615385e+01
0	 6.374999999999999e+00	 2.000000000000000e+00	 1.019330134153846e+01
0	 6.374999999999998e+00	 2.062500000000000e+00	 1.019496082153846e+01
0	 6.375000000000000e+00	 2.125000000000000e+00	 1.019667304615384e+01
0	 6.375000000000000e+00	 2.187500000000001e+00	 1.019843801538461e+01
0	 6.375000000000001e+00	 2.250000000000000e+00	 1.020025572923077e+01
0	 6.374999999999999e+00	 2.312500000000000e+00	 1.020212618769230e+01
0	 6.374999999999999e+00	 2.375000000000000e+00	 1.020404939076923e+01
0	 6.375000000000000e+00	 2.437500000000000e+00	 1.020602533846154e+01
0	 6.374999999999999e+00	 2.500000000000000e+00	 1.020805403076923e+01
0	 6.437499999999998e+00	 1.875000000000000e+00	 1.018284107692308e+01
0	 6.437499999999998e+00	 1.937500000000000e+00	 1.018435584615384e+01
0	 6.437500000000000e+00	 2.000000000000000e+00	 1.018592093230769e+01
0	 6.437500000000000e+00	 2.062500000000000e+00	 1.018753633538461e+01
0	 6.437499999999998e+00	 2.125000000000001e+00	 1.018920205538461e+01
0	 6.437499999999998e+00	 2.187500000000000e+00	 1.019091809230770e+01
0	 6.437499999999999e+00	 2.250000000000000e+00	 1.019268444615384e+01
0	 6.437499999999999e+00	 2.312500000000000e+00	 1.019450111692307e+01
0	 6.437499999999999e+00	 2.375000000000000e+00	 1.019636810461538e+01
0	 6.437499999999999e+00	 2.437500000000000e+00	 1.019828540923076e+01
0	 6.437499999999998e+00	 2.500000000000000e+00	 1.020025303076923e+01
0	 6.499999999999999e+00	 1.875000000000000e+00	 1.017564061538461e+01
0	 6.500000000000001e+00	 1.937500000000000e+00	 1.017712454153846e+01
0	 6.499999999999998e+00	 2.000000000000000e+00	 1.017865635692307e+01
0	 6.499999999999999e+00	 2.062500000000000e+00	 1.018023606153846e+01
0	 6.499999999999999e+00	 2.125000000000000e+00	 1.018186365538461e+01
0	 6.499999999999998e+00	 2.187500000000000e+00	 1.018353913846154e+01
0	 6.500000000000000e+00	 2.250000000000000e+00	 1.018526251076923e+01
0	 6.500000000000000e+00	 2.312500000000000e+00	 1.018703377230769e+01
0	 6.500000000000000e+00	 2.375000000000000e+00	 1.018885292307692e+01
0	 6.499999999999999e+00	 2.437500000000000e+00	 1.019071996307692e+01
0	 6.499999999999999e+00	 2.500000000000000e+00	 1.019263489230769e+01
0	 6.562499999999998e+00	 1.875000000000000e+00	 1.016853923076923e+01
0	 6.562499999999998e+00	 1.937500000000000e+00	 1.017000069230769e+01
0	 6.562499999999999e+00	 2.000000000000000e+00	 1.017150761538461e+01
0	 6.562499999999997e+00	 2.062500000000000e+00	 1.017306000000000e+01
0	 6.562499999999999e+00	 2.125000000000000e+00	 1.017465784615385e+01
0	 6.562499999999998e+00	 2.187500000000000e+00	 1.017630115384616e+01
0	 6.562499999999999e+00	 2.250000000000000e+00	 1.017798992307692e+01
0	 6.562499999999999e+00	 2.312500000000001e+00	 1.017972415384615e+01
0	 6.562499999999999e+00	 2.375000000000000e+00	 1.018150384615384e+01
0	 6.562499999999998e+00	 2.437500000000000e+00	 1.018332900000000e+01
0	 6.562499999999998e+00	 2.500000000000000e+00	 1.018519961538462e+01
0	 6.624999999999998e+00	 1.875000000000000e+00	 1.016153692307692e+01
0	 6.624999999999997e+00	 1.937500000000000e+00	 1.016298429846153e+01
0	 6.625000000000000e+00	 2.000000000000000e+00	 1.016447470769231e+01
0	 6.624999999999998e+00	 2.062500000000000e+00	 1.016600815076923e+01
0	 6.624999999999997e+00	 2.125000000000000e+00	 1.016758462769230e+01
0	 6.624999999999999e+00	 2.187500000000000e+00	 1.016920413846154e+01
0	 6.624999999999998e+00	 2.250000000000000e+00	 1.017086668307692e+01
0	 6.624999999999998e+00	 2.312500000000000e+00	 1.017257226153846e+01
0	 6.624999999999998e+00	 2.375000000000001e+00	 1.017432087384615e+01
0	 6.624999999999997e+00	 2.437500000000000e+00	 1.017611252000000e+01
0	 6.624999999999998e+00	 2.500000000000000e+00	 1.017794720000001e+01
0	 6.687499999999996e+00	 1.875000000000000e+00	 1.015463369230769e+01
0	 6.687499999999997e+00	 1.937500000000000e+00	 1.015607535999999e+01
0	 6.687499999999999e+00	 2.000000000000001e+00	 1.015755763384615e+01
0	 6.687499999999998e+00	 2.062500000000000e+00	 1.015908051384615e+01
0	 6.687500000000000e+00	 2.125000000000001e+00	 1.016064399999999e+01
0	 6.687499999999999e+00	 2.187500000000000e+00	 1.016224809230769e+01
0	 6.687499999999998e+00	 2.250000000000000e+00	 1.016389279076923e+01
0	 6.687500000000001e+00	 2.312500000000001e+00	 1.016557809538461e+01
0	 6.687499999999998e+00	 2.375000000000000e+00	 1.016730400615385e+01
0	 6.687499999999998e+00	 2.437500000000000e+00	 1.016907052307692e+01
0	 6.687499999999996e+00	 2.500000000000000e+00	 1.017087764615385e+01
0	 6.749999999999998e+00	 1.875000000000000e+00	 1.014782953846154e+01
0	 6.749999999999998e+00	 1.937500000000000e+00	 1.014927387692307e+01
0	 6.749999999999996e+00	 2.000000000000000e+00	 1.015075639384616e+01
0	 6.749999999999998e+00	 2.062500000000000e+00	 1.015227708923077e+01
0	 6.749999999999999e+00	 2.125000000000000e+00	 1.015383596307692e+01
0	 6.749999999999999e+00	 2.187500000000000e+00	 1.015543301538461e+01
0	 6.750000000000000e+00	 2.250000000000000e+00	 1.015706824615384e+01
0	 6.749999999999999e+00	 2.312500000000000e+00	 1.015874165538461e+01
0	 6.749999999999998e+00	 2.375000000000000e+00	 1.016045324307693e+01
0	 6.749999999999999e+00	 2.437500000000001e+00	 1.016220300923077e+01
0	 6.749999999999998e+00	 2.500000000000000e+00	 1.016399095384615e+01
0	 6.812499999999998e+00	 1.875000000000000e+00	 1.014112446153846e+01
0	 6.812499999999998e+00	 1.937500000000000e+00	 1.014257984923076e+01
0	 6.812499999999998e+00	 2.000000000000000e+00	 1.014407098769230e+01
0	 6.812499999999997e+00	 2.062500000000000e+00	 1.014559787692307e+01
0	 6.812499999999997e+00	 2.125000000000000e+00	 1.014716051692308e+01
0	 6.812499999999997e+00	 2.187500000000000e+00	 1.014875890769231e+01
0	 6.812499999999998e+00	 2.250000000000000e+00	 1.015039304923076e+01
0	 6.812499999999998e+00	 2.312500000000000e+00	 1.015206294153846e+01
0	 6.812499999999998e+00	 2.375000000000000e+00	 1.015376858461539e+01
0	 6.812499999999998e+00	 2.437500000000000e+00	 1.015550997846154e+01
0	 6.812499999999998e+00	 2.500000000000000e+00	 1.015728712307692e+01
0	 6.875000000000000e+00	 1.875000000000000e+00	 1.013451846153845e+01
0	 6.875000000000000e+00	 1.937500000000000e+00	 1.013599327692308e+01
0	 6.875000000000000e+00	 2.000000000000000e+00	 1.013750141538462e+01
0	 6.875000000000001e+00	 2.062500000000000e+00	 1.013904287692308e+01
0	 6.875000000000001e+00	 2.125000000000000e+00	 1.014061766153845e+01
0	 6.875000000000000e+00	 2.187500000000000e+00	 1.014222576923077e+01
0	 6.875000000000000e+00	 2.250000000000000e+00	 1.014386719999999e+01
0	 6.875000000000000e+00	 2.312500000000000e+00	 1.014554195384615e+01
0	 6.875000000000001e+00	 2.375000000000001e+00	 1.014725003076924e+01
0	 6.875000000000000e+00	 2.437500000000001e+00	 1.014899143076923e+01
0	 6.875000000000000e+00	 2.500000000000000e+00	 1.015076615384616e+01
0	 6.250000000000000e+00	 2.500000000000000e+00	 1.022420461538461e+01
0	 6.250000000000001e+00	 2.562500000000000e+00	 1.022408246153847e+01
0	 6.250000000000001e+00	 2.625000000000000e+00	 1.022409230769231e+01
0	 6.250000000000000e+00	 2.687499999999999e+00	 1.022423415384616e+01
0	 6.250000000000001e+00	 2.750000000000000e+00	 1.022450799999999e+01
0	 6.250000000000000e+00	 2.812499999999999e+00	 1.022491384615385e+01
0	 6.250000000000000e+00	 2.874999999999999e+00	 1.022545169230769e+01
0	 6.250000000000000e+00	 2.937499999999998e+00	 1.022612153846154e+01
0	 6.250000000000001e+00	 2.999999999999998e+00	 1.022692338461538e+01
0	 6.250000000000000e+00	 3.062499999999998e+00	 1.022785723076924e+01
0	 6.250000000000000e+00	 3.125000000000000e+00	 1.022892307692307e+01
0	 6.312500000000000e+00	 2.500000000000000e+00	 1.021603789230769e+01
0	 6.312499999999999e+00	 2.562500000000000e+00	 1.021601558153846e+01
0	 6.312499999999999e+00	 2.624999999999999e+00	 1.021611916923077e+01
0	 6.312499999999999e+00	 2.687499999999999e+00	 1.021634865538462e+01
0	 6.312499999999999e+00	 2.750000000000000e+00	 1.021670404000000e+01
0	 6.312500000000002e+00	 2.812499999999999e+00	 1.021718532307692e+01
0	 6.312500000000001e+00	 2.875000000000000e+00	 1.021779250461538e+01
0	 6.312500000000000e+00	 2.937499999999999e+00	 1.021852558461539e+01
0	 6.312500000000001e+00	 2.999999999999999e+00	 1.021938456307693e+01
0	 6.312499999999998e+00	 3.062499999999997e+00	 1.022036943999999e+01
0	 6.312500000000000e+00	 3.125000000000000e+00	 1.022148021538461e+01
0	 6.374999999999999e+00	 2.500000000000000e+00	 1.020805403076923e+01
0	 6.374999999999999e+00	 2.562500000000000e+00	 1.020812559692309e+01
0	 6.375000000000000e+00	 2.625000000000000e+00	 1.020831696000000e+01
0	 6.374999999999998e+00	 2.687500000000000e+00	 1.020862812000000e+01
0	 6.374999999999998e+00	 2.749999999999999e+00	 1.020905907692308e+01
0	 6.375000000000000e+00	 2.812499999999999e+00	 1.020960983076924e+01
0	 6.374999999999997e+00	 2.874999999999999e+00	 1.021028038153846e+01
0	 6.375000000000000e+00	 2.937499999999999e+00	 1.021107072923077e+01
0	 6.374999999999999e+00	 2.999999999999998e+00	 1.021198087384615e+01
0	 6.375000000000001e+00	 3.062499999999999e+00	 1.021301081538461e+01
0	 6.374999999999999e+00	 3.125000000000000e+00	 1.021416055384615e+01
0	 6.437499999999998e+00	 2.500000000000000e+00	 1.020025303076923e+01
0	 6.437499999999999e+00	 2.562500000000000e+00	 1.020041250769231e+01
0	 6.437500000000000e+00	 2.625000000000000e+00	 1.020068568000001e+01
0	 6.437500000000000e+00	 2.687499999999999e+00	 1.020107254769230e+01
0	 6.437499999999999e+00	 2.749999999999999e+00	 1.020157311076923e+01
0	 6.437499999999998e+00	 2.812499999999999e+00	 1.020218736923077e+01
0	 6.437499999999999e+00	 2.874999999999999e+00	 1.020291532307692e+01
0	 6.437499999999999e+00	 2.937499999999999e+00	 1.020375697230770e+01
0	 6.437499999999999e+00	 2.999999999999999e+00	 1.020471231692308e+01
0	 6.437499999999998e+00	 3.062499999999998e+00	 1.020578135692308e+01
0	 6.437499999999998e+00	 3.125000000000000e+00	 1.020696409230769e+01
0	 6.499999999999999e+00	 2.500000000000000e+00	 1.019263489230769e+01
0	 6.499999999999997e+00	 2.562500000000000e+00	 1.019287631384616e+01
0	 6.500000000000000e+00	 2.625000000000000e+00	 1.019322532923078e+01
0	 6.499999999999998e+00	 2.687500000000000e+00	 1.019368193846154e+01
0	 6.499999999999998e+00	 2.750000000000000e+00	 1.019424614153846e+01
0	 6.500000000000000e+00	 2.812499999999999e+00	 1.019491793846154e+01
0	 6.499999999999997e+00	 2.874999999999999e+00	 1.019569732923076e+01
0	 6.499999999999999e+00	 2.937499999999998e+00	 1.019658431384616e+01
0	 6.499999999999999e+00	 2.999999999999999e+00	 1.019757889230769e+01
0	 6.499999999999999e+00	 3.062499999999998e+00	 1.019868106461538e+01
0	 6.499999999999999e+00	 3.125000000000000e+00	 1.019989083076923e+01
0	 6.562499999999998e+00	 2.500000000000000e+00	 1.018519961538462e+01
0	 6.562499999999999e+00	 2.562499999999999e+00	 1.018551701538462e+01
0	 6.562499999999999e+00	 2.625000000000000e+00	 1.018593590769230e+01
0	 6.562499999999999e+00	 2.687500000000000e+00	 1.018645629230769e+01
0	 6.562499999999996e+00	 2.749999999999999e+00	 1.018707816923076e+01
0	 6.562499999999999e+00	 2.812499999999999e+00	 1.018780153846154e+01
0	 6.562500000000000e+00	 2.874999999999999e+00	 1.018862640000000e+01
0	 6.562499999999999e+00	 2.937499999999998e+00	 1.018955275384615e+01
0	 6.562499999999999e+00	 2.999999999999998e+00	 1.019058059999999e+01
0	 6.562500000000000e+00	 3.062499999999998e+00	 1.019170993846154e+01
0	 6.562499999999998e+00	 3.125000000000000e+00	 1.019294076923076e+01
0	 6.624999999999998e+00	 2.500000000000000e+00	 1.017794720000001e+01
0	 6.624999999999998e+00	 2.562500000000000e+00	 1.017833461230769e+01
0	 6.624999999999997e+00	 2.625000000000000e+00	 1.017881741538461e+01
0	 6.624999999999999e+00	 2.687500000000000e+00	 1.017939560923077e+01
0	 6.625000000000000e+00	 2.750000000000000e+00	 1.018006919384616e+01
0	 6.625000000000001e+00	 2.812500000000000e+00	 1.018083816923076e+01
0	 6.624999999999998e+00	 2.874999999999999e+00	 1.018170253538461e+01
0	 6.624999999999999e+00	 2.937499999999999e+00	 1.018266229230769e+01
0	 6.624999999999999e+00	 2.999999999999999e+00	 1.018371744000000e+01
0	 6.624999999999999e+00	 3.062499999999998e+00	 1.018486797846155e+01
0	 6.624999999999998e+00	 3.125000000000000e+00	 1.018611390769231e+01
0	 6.687499999999996e+00	 2.500000000000000e+00	 1.017087764615385e+01
0	 6.687499999999997e+00	 2.562500000000000e+00	 1.017132910461538e+01
0	 6.687499999999998e+00	 2.625000000000000e+00	 1.017186985230770e+01
0	 6.687499999999998e+00	 2.687500000000000e+00	 1.017249988923077e+01
0	 6.687499999999999e+00	 2.749999999999999e+00	 1.017321921538461e+01
0	 6.687499999999999e+00	 2.812499999999999e+00	 1.017402783076923e+01
0	 6.687499999999999e+00	 2.874999999999999e+00	 1.017492573538461e+01
0	 6.687499999999999e+00	 2.937499999999998e+00	 1.017591292923077e+01
0	 6.687499999999999e+00	 2.999999999999998e+00	 1.017698941230770e+01
0	 6.687499999999999e+00	 3.062499999999998e+00	 1.017815518461538e+01
0	 6.687499999999996e+00	 3.125000000000000e+00	 1.017941024615384e+01
0	 6.749999999999998e+00	 2.500000000000000e+00	 1.016399095384615e+01
0	 6.749999999999999e+00	 2.562500000000001e+00	 1.016450049230768e+01
0	 6.749999999999998e+00	 2.625000000000000e+00	 1.016509321846154e+01
0	 6.750000000000000e+00	 2.687500000000000e+00	 1.016576913230769e+01
0	 6.749999999999999e+00	 2.749999999999999e+00	 1.016652823384616e+01
0	 6.749999999999998e+00	 2.812499999999999e+00	 1.016737052307693e+01
0	 6.749999999999998e+00	 2.874999999999999e+00	 1.016829600000001e+01
0	 6.749999999999998e+00	 2.937499999999998e+00	 1.016930466461538e+01
0	 6.750000000000000e+00	 2.999999999999998e+00	 1.017039651692308e+01
0	 6.749999999999999e+00	 3.062499999999998e+00	 1.017157155692308e+01
0	 6.749999999999998e+00	 3.125000000000000e+00	 1.017282978461537e+01
0	 6.812499999999998e+00	 2.500000000000000e+00	 1.015728712307692e+01
0	 6.812499999999998e+00	 2.562500000000000e+00	 1.015784877538462e+01
0	 6.812499999999999e+00	 2.625000000000000e+00	 1.015848751384615e+01
0	 6.812499999999998e+00	 2.687500000000000e+00	 1.015920333846154e+01
0	 6.812499999999998e+00	 2.749999999999999e+00	 1.015999624923077e+01
0	 6.812499999999998e+00	 2.812499999999999e+00	 1.016086624615385e+01
0	 6.812499999999997e+00	 2.874999999999999e+00	 1.016181332923077e+01
0	 6.812499999999998e+00	 2.937499999999998e+00	 1.016283749846153e+01
0	 6.812499999999997e+00	 2.999999999999998e+00	 1.016393875384616e+01
0	 6.812499999999997e+00	 3.062499999999998e+00	 1.016511709538460e+01
0	 6.812499999999998e+00	 3.125000000000000e+00	 1.016637252307692e+01
0	 6.875000000000000e+00	 2.500000000000000e+00	 1.015076615384616e+01
0	 6.875000000000000e+00	 2.562500000000000e+00	 1.015137395384617e+01
0	 6.875000000000000e+00	 2.625000000000000e+00	 1.015205273846153e+01
0	 6.875000000000000e+00	 2.687499999999999e+00	 1.015280250769230e+01
0	 6.875000000000000e+00	 2.750000000000000e+00	 1.015362326153846e+01
0	 6.875000000000000e+00	 2.812499999999999e+00	 1.015451500000000e+01
0	 6.875000000000000e+00	 2.874999999999999e+00	 1.015547772307692e+01
0	 6.875000000000000e+00	 2.937499999999998e+00	 1.015651143076922e+01
0	 6.875000000000000e+00	 2.999999999999998e+00	 1.015761612307692e+01
0	 6.875000000000000e+00	 3.062499999999998e+00	 1.015879180000000e+01
0	 6.875000000000000e+00	 3.125000000000000e+00	 1.016003846153846e+01
0	 6.250000000000000e+00	 3.125000000000000e+00	 1.022892307692307e+01
0	 6.250000000000001e+00	 3.187500000000000e+00	 1.022751886153845e+01
0	 6.250000000000001e+00	 3.250000000000000e+00	 1.022624406153846e+01
0	 6.250000000000000e+00	 3.312499999999999e+00	 1.022509867692308e+01
0	 6.250000000000001e+00	 3.374999999999999e+00	 1.022408270769230e+01
0	 6.250000000000000e+00	 3.437499999999999e+00	 1.022319615384614e+01
0	 6.250000000000000e+00	 3.499999999999999e+00	 1.022243901538461e+01
0	 6.250000000000000e+00	 3.562499999999998e+00	 1.022181129230769e+01
0	 6.250000000000001e+00	 3.624999999999999e+00	 1.022131298461539e+01
0	 6.250000000000000e+00	 3.687499999999998e+00	 1.022094409230768e+01
0	 6.250000000000000e+00	 3.750000000000000e+00	 1.022070461538462e+01
0	 6.312500000000000e+00	 3.125000000000000e+00	 1.022148021538461e+01
0	 6.312499999999999e+00	 3.187500000000000e+00	 1.022017645384615e+01
0	 6.312499999999999e+00	 3.250000000000000e+00	 1.021899853538461e+01
0	 6.312499999999999e+00	 3.312499999999999e+00	 1.021794646000000e+01
0	 6.312499999999999e+00	 3.374999999999999e+00	 1.021702022769230e+01
0	 6.312500000000002e+00	 3.437499999999999e+00	 1.021621983846154e+01
0	 6.312500000000001e+00	 3.500000000000000e+00	 1.021554529230769e+01
0	 6.312500000000000e+00	 3.562499999999999e+00	 1.021499658923078e+01
0	 6.312500000000001e+00	 3.625000000000000e+00	 1.021457372923078e+01
0	 6.312499999999998e+00	 3.687499999999997e+00	 1.021427671230769e+01
0	 6.312500000000000e+00	 3.750000000000000e+00	 1.021410553846155e+01
0	 6.374999999999999e+00	 3.125000000000000e+00	 1.021416055384615e+01
0	 6.374999999999999e+00	 3.187500000000000e+00	 1.021295526461538e+01
0	 6.375000000000000e+00	 3.250000000000000e+00	 1.021187224615384e+01
0	 6.374999999999998e+00	 3.312500000000000e+00	 1.021091149846155e+01
0	 6.374999999999998e+00	 3.374999999999999e+00	 1.021007302153846e+01
0	 6.375000000000000e+00	 3.437499999999999e+00	 1.020935681538461e+01
0	 6.374999999999997e+00	 3.499999999999997e+00	 1.020876288000000e+01
0	 6.375000000000000e+00	 3.562499999999999e+00	 1.020829121538461e+01
0	 6.374999999999999e+00	 3.624999999999998e+00	 1.020794182153845e+01
0	 6.375000000000001e+00	 3.687499999999999e+00	 1.020771469846154e+01
0	 6.374999999999999e+00	 3.750000000000000e+00	 1.020760984615384e+01
0	 6.437499999999998e+00	 3.125000000000000e+00	 1.020696409230769e+01
0	 6.437499999999999e+00	 3.187500000000000e+00	 1.020585529384615e+01
0	 6.437500000000000e+00	 3.250000000000000e+00	 1.020486519384616e+01
0	 6.437500000000000e+00	 3.312500000000000e+00	 1.020399379230769e+01
0	 6.437499999999999e+00	 3.374999999999999e+00	 1.020324108923077e+01
0	 6.437499999999998e+00	 3.437499999999999e+00	 1.020260708461538e+01
0	 6.437499999999999e+00	 3.499999999999998e+00	 1.020209177846154e+01
0	 6.437499999999999e+00	 3.562499999999998e+00	 1.020169517076923e+01
0	 6.437499999999999e+00	 3.624999999999998e+00	 1.020141726153847e+01
0	 6.437499999999998e+00	 3.687499999999998e+00	 1.020125805076924e+01
0	 6.437499999999998e+00	 3.750000000000000e+00	 1.020121753846154e+01
0	 6.499999999999999e+00	 3.125000000000000e+00	 1.019989083076923e+01
0	 6.499999999999997e+00	 3.187500000000000e+00	 1.019887654153846e+01
0	 6.500000000000000e+00	 3.250000000000000e+00	 1.019797737846153e+01
0	 6.499999999999998e+00	 3.312500000000000e+00	 1.019719334153845e+01
0	 6.499999999999998e+00	 3.374999999999999e+00	 1.019652443076923e+01
0	 6.500000000000000e+00	 3.437499999999999e+00	 1.019597064615385e+01
0	 6.499999999999997e+00	 3.499999999999998e+00	 1.019553198769231e+01
0	 6.499999999999999e+00	 3.562499999999998e+00	 1.019520845538462e+01
0	 6.499999999999999e+00	 3.624999999999999e+00	 1.019500004923077e+01
0	 6.499999999999999e+00	 3.687499999999998e+00	 1.019490676923077e+01
0	 6.499999999999999e+00	 3.750000000000000e+00	 1.019492861538462e+01
0	 6.562499999999998e+00	 3.125000000000000e+00	 1.019294076923076e+01
0	 6.562499999999999e+00	 3.187500000000000e+00	 1.019201900769230e+01
0	 6.562499999999999e+00	 3.250000000000000e+00	 1.019120880000000e+01
0	 6.562499999999999e+00	 3.312500000000000e+00	 1.019051014615384e+01
0	 6.562499999999996e+00	 3.374999999999998e+00	 1.018992304615384e+01
0	 6.562499999999999e+00	 3.437499999999999e+00	 1.018944750000000e+01
0	 6.562500000000000e+00	 3.499999999999999e+00	 1.018908350769231e+01
0	 6.562499999999999e+00	 3.562499999999999e+00	 1.018883106923076e+01
0	 6.562499999999999e+00	 3.624999999999998e+00	 1.018869018461539e+01
0	 6.562500000000000e+00	 3.687499999999999e+00	 1.018866085384616e+01
0	 6.562499999999998e+00	 3.750000000000000e+00	 1.018874307692309e+01
0	 6.624999999999998e+00	 3.125000000000000e+00	 1.018611390769231e+01
0	 6.624999999999998e+00	 3.187500000000000e+00	 1.018528269230769e+01
0	 6.624999999999997e+00	 3.249999999999999e+00	 1.018455945846154e+01
0	 6.624999999999999e+00	 3.312499999999999e+00	 1.018394420615385e+01
0	 6.625000000000000e+00	 3.375000000000000e+00	 1.018343693538462e+01
0	 6.625000000000001e+00	 3.437500000000000e+00	 1.018303764615385e+01
0	 6.624999999999998e+00	 3.499999999999999e+00	 1.018274633846154e+01
0	 6.624999999999999e+00	 3.562499999999999e+00	 1.018256301230769e+01
0	 6.624999999999999e+00	 3.624999999999999e+00	 1.018248766769232e+01
0	 6.624999999999999e+00	 3.687499999999998e+00	 1.018252030461539e+01
0	 6.624999999999998e+00	 3.750000000000000e+00	 1.018266092307692e+01
0	 6.687499999999996e+00	 3.125000000000000e+00	 1.017941024615384e+01
0	 6.687499999999997e+00	 3.187500000000000e+00	 1.017866759538462e+01
0	 6.687499999999998e+00	 3.250000000000000e+00	 1.017802935384615e+01
0	 6.687499999999998e+00	 3.312500000000000e+00	 1.017749552153846e+01
0	 6.687499999999999e+00	 3.374999999999999e+00	 1.017706609846154e+01
0	 6.687499999999999e+00	 3.437499999999999e+00	 1.017674108461538e+01
0	 6.687499999999999e+00	 3.499999999999999e+00	 1.017652047999999e+01
0	 6.687499999999999e+00	 3.562499999999999e+00	 1.017640428461539e+01
0	 6.687499999999999e+00	 3.624999999999998e+00	 1.017639249846154e+01
0	 6.687499999999999e+00	 3.687499999999999e+00	 1.017648512153845e+01
0	 6.687499999999996e+00	 3.750000000000000e+00	 1.017668215384616e+01
0	 6.749999999999998e+00	 3.125000000000000e+00	 1.017282978461537e+01
0	 6.749999999999999e+00	 3.187500000000001e+00	 1.017217371692306e+01
0	 6.749999999999998e+00	 3.250000000000000e+00	 1.017161848615384e+01
0	 6.750000000000000e+00	 3.312500000000000e+00	 1.017116409230769e+01
0	 6.749999999999999e+00	 3.374999999999999e+00	 1.017081053538461e+01
0	 6.749999999999998e+00	 3.437499999999999e+00	 1.017055781538461e+01
0	 6.749999999999998e+00	 3.499999999999998e+00	 1.017040593230770e+01
0	 6.749999999999998e+00	 3.562499999999998e+00	 1.017035488615385e+01
0	 6.750000000000000e+00	 3.624999999999998e+00	 1.017040467692308e+01
0	 6.749999999999999e+00	 3.687499999999998e+00	 1.017055530461539e+01
0	 6.749999999999998e+00	 3.750000000000000e+00	 1.017080676923078e+01
0	 6.812499999999998e+00	 3.125000000000000e+00	 1.016637252307692e+01
0	 6.812499999999998e+00	 3.187500000000000e+00	 1.016580105692307e+01
0	 6.812499999999999e+00	 3.250000000000000e+00	 1.016532685538461e+01
0	 6.812499999999998e+00	 3.312500000000000e+00	 1.016494991846153e+01
0	 6.812499999999998e+00	 3.374999999999999e+00	 1.016467024615384e+01
0	 6.812499999999998e+00	 3.437500000000000e+00	 1.016448783846154e+01
0	 6.812499999999997e+00	 3.499999999999998e+00	 1.016440269538462e+01
0	 6.812499999999998e+00	 3.562499999999998e+00	 1.016441481692307e+01
0	 6.812499999999997e+00	 3.624999999999998e+00	 1.016452420307692e+01
0	 6.812499999999997e+00	 3.687499999999997e+00	 1.016473085384615e+01
0	 6.812499999999998e+00	 3.750000000000000e+00	 1.016503476923078e+01
0	 6.875000000000000e+00	 3.125000000000000e+00	 1.016003846153846e+01
0	 6.875000000000000e+00	 3.187500000000000e+00	 1.015954961538460e+01
0	 6.875000000000000e+00	 3.250000000000000e+00	 1.015915446153846e+01
0	 6.875000000000000e+00	 3.312499999999999e+00	 1.015885300000000e+01
0	 6.875000000000000e+00	 3.374999999999999e+00	 1.015864523076924e+01
0	 6.875000000000000e+00	 3.437499999999999e+00	 1.015853115384615e+01
0	 6.875000000000000e+00	 3.499999999999999e+00	 1.015851076923077e+01
0	 6.875000000000000e+00	 3.562499999999998e+00	 1.015858407692308e+01
0	 6.875000000000000e+00	 3.624999999999999e+00	 1.015875107692308e+01
0	 6.875000000000000e+00	 3.687499999999998e+00	 1.015901176923077e+01
0	 6.875000000000000e+00	 3.750000000000000e+00	 1.015936615384616e+01
0	 6.250000000000000e+00	 3.750000000000000e+00	 1.022070461538462e+01
0	 6.250000000000001e+00	 3.812500000000000e+00	 1.021813753846155e+01
0	 6.250000000000001e+00	 3.875000000000000e+00	 1.021569230769231e+01
0	 6.250000000000000e+00	 3.937499999999999e+00	 1.021336892307692e+01
0	 6.250000000000001e+00	 4.000000000000000e+00	 1.021116738461538e+01
0	 6.250000000000000e+00	 4.062499999999999e+00	 1.020908769230770e+01
0	 6.250000000000000e+00	 4.124999999999999e+00	 1.020712984615384e+01
0	 6.250000000000000e+00	 4.187499999999998e+00	 1.020529384615384e+01
0	 6.250000000000001e+00	 4.249999999999998e+00	 1.020357969230769e+01
0	 6.250000000000000e+00	 4.312499999999998e+00	 1.020198738461539e+01
0	 6.250000000000000e+00	 4.375000000000000e+00	 1.020051692307692e+01
0	 6.312500000000000e+00	 3.750000000000000e+00	 1.021410553846155e+01
0	 6.312499999999999e+00	 3.812500000000000e+00	 1.021169860307692e+01
0	 6.312499999999999e+00	 3.875000000000000e+00	 1.020940973846153e+01
0	 6.312499999999999e+00	 3.937500000000000e+00	 1.020723894461539e+01
0	 6.312499999999999e+00	 3.999999999999999e+00	 1.020518622153846e+01
0	 6.312500000000002e+00	 4.062499999999999e+00	 1.020325156923076e+01
0	 6.312500000000001e+00	 4.125000000000000e+00	 1.020143498769230e+01
0	 6.312500000000000e+00	 4.187500000000000e+00	 1.019973647692307e+01
0	 6.312500000000001e+00	 4.250000000000000e+00	 1.019815603692307e+01
0	 6.312499999999998e+00	 4.312499999999997e+00	 1.019669366769230e+01
0	 6.312500000000000e+00	 4.375000000000000e+00	 1.019534936923077e+01
0	 6.374999999999999e+00	 3.750000000000000e+00	 1.020760984615384e+01
0	 6.374999999999999e+00	 3.812500000000000e+00	 1.020535566461539e+01
0	 6.375000000000000e+00	 3.875000000000000e+00	 1.020321577846154e+01
0	 6.374999999999998e+00	 3.937500000000000e+00	 1.020119018769231e+01
0	 6.374999999999998e+00	 3.999999999999999e+00	 1.019927889230770e+01
0	 6.375000000000000e+00	 4.062499999999999e+00	 1.019748189230769e+01
0	 6.374999999999997e+00	 4.124999999999997e+00	 1.019579918769231e+01
0	 6.375000000000000e+00	 4.187499999999998e+00	 1.019423077846153e+01
0	 6.374999999999999e+00	 4.249999999999998e+00	 1.019277666461538e+01
0	 6.375000000000001e+00	 4.312499999999998e+00	 1.019143684615385e+01
0	 6.374999999999999e+00	 4.375000000000000e+00	 1.019021132307692e+01
0	 6.437499999999998e+00	 3.750000000000000e+00	 1.020121753846154e+01
0	 6.437499999999999e+00	 3.812500000000000e+00	 1.019910872307692e+01
0	 6.437500000000000e+00	 3.875000000000000e+00	 1.019711042769230e+01
0	 6.437500000000000e+00	 3.937500000000000e+00	 1.019522265230771e+01
0	 6.437499999999999e+00	 3.999999999999999e+00	 1.019344539692307e+01
0	 6.437499999999998e+00	 4.062500000000000e+00	 1.019177866153846e+01
0	 6.437499999999999e+00	 4.124999999999998e+00	 1.019022244615385e+01
0	 6.437499999999999e+00	 4.187499999999999e+00	 1.018877675076923e+01
0	 6.437499999999999e+00	 4.249999999999998e+00	 1.018744157538459e+01
0	 6.437499999999998e+00	 4.312499999999997e+00	 1.018621692000001e+01
0	 6.437499999999998e+00	 4.375000000000000e+00	 1.018510278461538e+01
0	 6.499999999999999e+00	 3.750000000000000e+00	 1.019492861538462e+01
0	 6.499999999999997e+00	 3.812500000000000e+00	 1.019295777846154e+01
0	 6.500000000000000e+00	 3.875000000000000e+00	 1.019109368615385e+01
0	 6.499999999999998e+00	 3.937500000000000e+00	 1.018933633846154e+01
0	 6.499999999999998e+00	 3.999999999999999e+00	 1.018768573538462e+01
0	 6.500000000000000e+00	 4.062499999999999e+00	 1.018614187692308e+01
0	 6.499999999999997e+00	 4.124999999999998e+00	 1.018470476307693e+01
0	 6.499999999999999e+00	 4.187499999999999e+00	 1.018337439384616e+01
0	 6.499999999999999e+00	 4.249999999999998e+00	 1.018215076923076e+01
0	 6.499999999999999e+00	 4.312499999999998e+00	 1.018103388923077e+01
0	 6.499999999999999e+00	 4.375000000000000e+00	 1.018002375384616e+01
0	 6.562499999999998e+00	 3.750000000000000e+00	 1.018874307692309e+01
0	 6.562499999999999e+00	 3.812500000000000e+00	 1.018690283076924e+01
0	 6.562499999999999e+00	 3.875000000000000e+00	 1.018516555384616e+01
0	 6.562499999999999e+00	 3.937499999999999e+00	 1.018353124615385e+01
0	 6.562499999999996e+00	 3.999999999999998e+00	 1.018199990769230e+01
0	 6.562499999999999e+00	 4.062499999999999e+00	 1.018057153846154e+01
0	 6.562500000000000e+00	 4.125000000000000e+00	 1.017924613846153e+01
0	 6.562499999999999e+00	 4.187499999999998e+00	 1.017802370769231e+01
0	 6.562499999999999e+00	 4.249999999999998e+00	 1.017690424615384e+01
0	 6.562500000000000e+00	 4.312499999999998e+00	 1.017588775384615e+01
0	 6.562499999999998e+00	 4.375000000000000e+00	 1.017497423076923e+01
0	 6.624999999999998e+00	 3.750000000000000e+00	 1.018266092307692e+01
0	 6.624999999999998e+00	 3.812500000000000e+00	 1.018094388000001e+01
0	 6.624999999999997e+00	 3.874999999999999e+00	 1.017932603076923e+01
0	 6.624999999999999e+00	 3.937500000000000e+00	 1.017780737538462e+01
0	 6.625000000000000e+00	 4.000000000000000e+00	 1.017638791384616e+01
0	 6.625000000000001e+00	 4.062500000000000e+00	 1.017506764615385e+01
0	 6.624999999999998e+00	 4.124999999999999e+00	 1.017384657230769e+01
0	 6.624999999999999e+00	 4.187499999999998e+00	 1.017272469230769e+01
0	 6.624999999999999e+00	 4.249999999999999e+00	 1.017170200615385e+01
0	 6.624999999999999e+00	 4.312499999999997e+00	 1.017077851384616e+01
0	 6.624999999999998e+00	 4.375000000000000e+00	 1.016995421538462e+01
0	 6.687499999999996e+00	 3.750000000000000e+00	 1.017668215384616e+01
0	 6.687499999999997e+00	 3.812500000000000e+00	 1.017508092615384e+01
0	 6.687499999999998e+00	 3.875000000000000e+00	 1.017357511692308e+01
0	 6.687499999999998e+00	 3.937499999999999e+00	 1.017216472615385e+01
0	 6.687499999999999e+00	 3.999999999999999e+00	 1.017084975384616e+01
0	 6.687499999999999e+00	 4.062500000000000e+00	 1.016963020000001e+01
0	 6.687499999999999e+00	 4.124999999999999e+00	 1.016850606461539e+01
0	 6.687499999999999e+00	 4.187499999999999e+00	 1.016747734769231e+01
0	 6.687499999999999e+00	 4.249999999999998e+00	 1.016654404923076e+01
0	 6.687499999999999e+00	 4.312499999999998e+00	 1.016570616923077e+01
0	 6.687499999999996e+00	 4.375000000000000e+00	 1.016496370769231e+01
0	 6.749999999999998e+00	 3.750000000000000e+00	 1.017080676923078e+01
0	 6.749999999999999e+00	 3.812500000000000e+00	 1.016931396923077e+01
0	 6.749999999999998e+00	 3.875000000000000e+00	 1.016791281230770e+01
0	 6.750000000000000e+00	 3.937500000000000e+00	 1.016660329846154e+01
0	 6.749999999999999e+00	 3.999999999999999e+00	 1.016538542769231e+01
0	 6.749999999999998e+00	 4.062499999999998e+00	 1.016425920000000e+01
0	 6.749999999999998e+00	 4.124999999999999e+00	 1.016322461538462e+01
0	 6.749999999999998e+00	 4.187499999999998e+00	 1.016228167384614e+01
0	 6.750000000000000e+00	 4.249999999999998e+00	 1.016143037538463e+01
0	 6.749999999999999e+00	 4.312499999999998e+00	 1.016067072000001e+01
0	 6.749999999999998e+00	 4.375000000000000e+00	 1.016000270769231e+01
0	 6.812499999999998e+00	 3.750000000000000e+00	 1.016503476923078e+01
0	 6.812499999999998e+00	 3.812500000000000e+00	 1.016364300923077e+01
0	 6.812499999999999e+00	 3.875000000000000e+00	 1.016233911692308e+01
0	 6.812499999999998e+00	 3.937499999999999e+00	 1.016112309230770e+01
0	 6.812499999999998e+00	 3.999999999999999e+00	 1.015999493538461e+01
0	 6.812499999999998e+00	 4.062499999999998e+00	 1.015895464615385e+01
0	 6.812499999999997e+00	 4.124999999999998e+00	 1.015800222461538e+01
0	 6.812499999999998e+00	 4.187499999999998e+00	 1.015713767076923e+01
0	 6.812499999999997e+00	 4.249999999999998e+00	 1.015636098461539e+01
0	 6.812499999999997e+00	 4.312499999999998e+00	 1.015567216615385e+01
0	 6.812499999999998e+00	 4.375000000000000e+00	 1.015507121538461e+01
0	 6.875000000000000e+00	 3.750000000000000e+00	 1.015936615384616e+01
0	 6.875000000000000e+00	 3.812500000000000e+00	 1.015806804615386e+01
0	 6.875000000000000e+00	 3.875000000000000e+00	 1.015685403076924e+01
0	 6.875000000000000e+00	 3.937499999999999e+00	 1.015572410769231e+01
0	 6.875000000000000e+00	 4.000000000000000e+00	 1.015467827692308e+01
0	 6.875000000000000e+00	 4.062499999999999e+00	 1.015371653846155e+01
0	 6.875000000000000e+00	 4.124999999999999e+00	 1.015283889230769e+01
0	 6.875000000000000e+00	 4.187499999999998e+00	 1.015204533846154e+01
0	 6.875000000000000e+00	 4.249999999999998e+00	 1.015133587692309e+01
0	 6.875000000000000e+00	 4.312499999999998e+00	 1.015071050769232e+01
0	 6.875000000000000e+00	 4.375000000000000e+00	 1.015016923076923e+01
0	 6.250000000000000e+00	 4.375000000000000e+00	 1.020051692307692e+01
0	 6.250000000000001e+00	 4.437499999999999e+00	 1.019744823076921e+01
0	 6.250000000000001e+00	 4.500000000000001e+00	 1.019446215384614e+01
0	 6.250000000000000e+00	 4.562499999999999e+00	 1.019155869230770e+01
0	 6.250000000000001e+00	 4.625000000000000e+00	 1.018873784615385e+01
0	 6.250000000000000e+00	 4.687499999999999e+00	 1.018599961538462e+01
0	 6.250000000000000e+00	 4.749999999999999e+00	 1.018334400000000e+01
0	 6.250000000000000e+00	 4.812499999999998e+00	 1.018077100000000e+01
0	 6.250000000000001e+00	 4.874999999999998e+00	 1.017828061538461e+01
0	 6.250000000000000e+00	 4.937499999999998e+00	 1.017587284615384e+01
0	 6.250000000000000e+00	 5.000000000000000e+00	 1.017354769230770e+01
0	 6.312500000000000e+00	 4.375000000000000e+00	 1.019534936923077e+01
0	 6.312499999999999e+00	 4.437500000000000e+00	 1.019241116307692e+01
0	 6.312499999999999e+00	 4.499999999999999e+00	 1.018955431692308e+01
0	 6.312499999999999e+00	 4.562499999999999e+00	 1.018677883076922e+01
0	 6.312499999999999e+00	 4.625000000000000e+00	 1.018408470461539e+01
0	 6.312500000000002e+00	 4.687500000000001e+00	 1.018147193846153e+01
0	 6.312500000000001e+00	 4.749999999999999e+00	 1.017894053230769e+01
0	 6.312500000000000e+00	 4.812499999999999e+00	 1.017649048615385e+01
0	 6.312500000000001e+00	 4.875000000000000e+00	 1.017412180000001e+01
0	 6.312499999999998e+00	 4.937499999999997e+00	 1.017183447384615e+01
0	 6.312500000000000e+00	 4.999999999999999e+00	 1.016962850769231e+01
0	 6.374999999999999e+00	 4.375000000000000e+00	 1.019021132307692e+01
0	 6.374999999999999e+00	 4.437500000000000e+00	 1.018739998461539e+01
0	 6.375000000000000e+00	 4.500000000000001e+00	 1.018466875076923e+01
0	 6.374999999999998e+00	 4.562499999999999e+00	 1.018201762153846e+01
0	 6.374999999999998e+00	 4.624999999999998e+00	 1.017944659692308e+01
0	 6.375000000000000e+00	 4.687499999999997e+00	 1.017695567692308e+01
0	 6.374999999999997e+00	 4.749999999999998e+00	 1.017454486153846e+01
0	 6.375000000000000e+00	 4.812499999999999e+00	 1.017221415076922e+01
0	 6.374999999999999e+00	 4.874999999999998e+00	 1.016996354461539e+01
0	 6.375000000000001e+00	 4.937499999999998e+00	 1.016779304307693e+01
0	 6.374999999999999e+00	 5.000000000000000e+00	 1.016570264615386e+01
0	 6.437499999999998e+00	 4.375000000000000e+00	 1.018510278461538e+01
0	 6.437499999999999e+00	 4.437500000000000e+00	 1.018241469538463e+01
0	 6.437500000000000e+00	 4.500000000000000e+00	 1.017980545538462e+01
0	 6.437500000000000e+00	 4.562499999999999e+00	 1.017727506461538e+01
0	 6.437499999999999e+00	 4.625000000000000e+00	 1.017482352307693e+01
0	 6.437499999999998e+00	 4.687499999999999e+00	 1.017245083076922e+01
0	 6.437499999999999e+00	 4.749999999999998e+00	 1.017015698769231e+01
0	 6.437499999999999e+00	 4.812499999999998e+00	 1.016794199384615e+01
0	 6.437499999999999e+00	 4.874999999999998e+00	 1.016580584923079e+01
0	 6.437499999999998e+00	 4.937499999999997e+00	 1.016374855384616e+01
0	 6.437499999999998e+00	 4.999999999999999e+00	 1.016177010769231e+01
0	 6.499999999999999e+00	 4.375000000000000e+00	 1.018002375384616e+01
0	 6.499999999999997e+00	 4.437500000000000e+00	 1.017745529538461e+01
0	 6.500000000000000e+00	 4.500000000000000e+00	 1.017496443076922e+01
0	 6.499999999999998e+00	 4.562499999999999e+00	 1.017255116000000e+01
0	 6.499999999999998e+00	 4.624999999999999e+00	 1.017021548307693e+01
0	 6.500000000000000e+00	 4.687500000000000e+00	 1.016795740000001e+01
0	 6.499999999999997e+00	 4.749999999999998e+00	 1.016577691076923e+01
0	 6.499999999999999e+00	 4.812499999999999e+00	 1.016367401538462e+01
0	 6.499999999999999e+00	 4.874999999999998e+00	 1.016164871384616e+01
0	 6.499999999999999e+00	 4.937499999999997e+00	 1.015970100615383e+01
0	 6.499999999999999e+00	 5.000000000000000e+00	 1.015783089230770e+01
0	 6.562499999999998e+00	 4.375000000000000e+00	 1.017497423076923e+01
0	 6.562499999999999e+00	 4.437499999999999e+00	 1.017252178461538e+01
0	 6.562499999999999e+00	 4.499999999999999e+00	 1.017014567692308e+01
0	 6.562499999999999e+00	 4.562499999999999e+00	 1.016784590769230e+01
0	 6.562499999999996e+00	 4.624999999999998e+00	 1.016562247692308e+01
0	 6.562499999999999e+00	 4.687499999999999e+00	 1.016347538461539e+01
0	 6.562500000000000e+00	 4.750000000000000e+00	 1.016140463076924e+01
0	 6.562499999999999e+00	 4.812499999999998e+00	 1.015941021538461e+01
0	 6.562499999999999e+00	 4.874999999999998e+00	 1.015749213846155e+01
0	 6.562500000000000e+00	 4.937499999999999e+00	 1.015565040000000e+01
0	 6.562499999999998e+00	 5.000000000000000e+00	 1.015388500000001e+01
0	 6.624999999999998e+00	 4.375000000000000e+00	 1.016995421538462e+01
0	 6.624999999999998e+00	 4.437499999999999e+00	 1.016761416307693e+01
0	 6.624999999999997e+00	 4.499999999999998e+00	 1.016534919384615e+01
0	 6.624999999999999e+00	 4.562499999999999e+00	 1.016315930769231e+01
0	 6.625000000000000e+00	 4.625000000000001e+00	 1.016104450461539e+01
0	 6.625000000000001e+00	 4.687499999999999e+00	 1.015900478461538e+01
0	 6.624999999999998e+00	 4.749999999999998e+00	 1.015704014769231e+01
0	 6.624999999999999e+00	 4.812499999999999e+00	 1.015515059384616e+01
0	 6.624999999999999e+00	 4.874999999999998e+00	 1.015333612307693e+01
0	 6.624999999999999e+00	 4.937499999999999e+00	 1.015159673538461e+01
0	 6.624999999999998e+00	 5.000000000000001e+00	 1.014993243076925e+01
0	 6.687499999999996e+00	 4.375000000000000e+00	 1.016496370769231e+01
0	 6.687499999999997e+00	 4.437499999999999e+00	 1.016273243076922e+01
0	 6.687499999999998e+00	 4.500000000000000e+00	 1.016057498153845e+01
0	 6.687499999999998e+00	 4.562499999999999e+00	 1.015849136000000e+01
0	 6.687499999999999e+00	 4.625000000000000e+00	 1.015648156615385e+01
0	 6.687499999999999e+00	 4.687500000000000e+00	 1.015454560000000e+01
0	 6.687499999999999e+00	 4.749999999999999e+00	 1.015268346153847e+01
0	 6.687499999999999e+00	 4.812499999999999e+00	 1.015089515076924e+01
0	 6.687499999999999e+00	 4.874999999999998e+00	 1.014918066769231e+01
0	 6.687499999999999e+00	 4.937499999999999e+00	 1.014754001230770e+01
0	 6.687499999999996e+00	 4.999999999999999e+00	 1.014597318461538e+01
0	 6.749999999999998e+00	 4.375000000000000e+00	 1.016000270769231e+01
0	 6.749999999999999e+00	 4.437500000000001e+00	 1.015787658769230e+01
0	 6.749999999999998e+00	 4.499999999999999e+00	 1.015582304000000e+01
0	 6.750000000000000e+00	 4.562500000000000e+00	 1.015384206461538e+01
0	 6.749999999999999e+00	 4.624999999999999e+00	 1.015193366153846e+01
0	 6.749999999999998e+00	 4.687499999999998e+00	 1.015009783076924e+01
0	 6.749999999999998e+00	 4.749999999999999e+00	 1.014833457230769e+01
0	 6.749999999999998e+00	 4.812499999999998e+00	 1.014664388615385e+01
0	 6.750000000000000e+00	 4.874999999999999e+00	 1.014502577230769e+01
0	 6.749999999999999e+00	 4.937499999999998e+00	 1.014348023076922e+01
0	 6.749999999999998e+00	 5.000000000000000e+00	 1.014200726153848e+01
0	 6.812499999999998e+00	 4.375000000000000e+00	 1.015507121538461e+01
0	 6.812499999999998e+00	 4.437500000000000e+00	 1.015304663384615e+01
0	 6.812499999999999e+00	 4.500000000000000e+00	 1.015109336923076e+01
0	 6.812499999999998e+00	 4.562500000000000e+00	 1.014921142153847e+01
0	 6.812499999999998e+00	 4.624999999999999e+00	 1.014740079076923e+01
0	 6.812499999999998e+00	 4.687499999999999e+00	 1.014566147692307e+01
0	 6.812499999999997e+00	 4.749999999999999e+00	 1.014399348000000e+01
0	 6.812499999999998e+00	 4.812499999999998e+00	 1.014239679999999e+01
0	 6.812499999999997e+00	 4.874999999999999e+00	 1.014087143692308e+01
0	 6.812499999999997e+00	 4.937499999999998e+00	 1.013941739076924e+01
0	 6.812499999999998e+00	 5.000000000000000e+00	 1.013803466153847e+01
0	 6.875000000000000e+00	 4.375000000000000e+00	 1.015016923076923e+01
0	 6.875000000000000e+00	 4.437499999999999e+00	 1.014824256923077e+01
0	 6.875000000000000e+00	 4.500000000000001e+00	 1.014638596923077e+01
0	 6.875000000000000e+00	 4.562499999999999e+00	 1.014459943076923e+01
0	 6.875000000000000e+00	 4.625000000000000e+00	 1.014288295384616e+01
0	 6.875000000000000e+00	 4.687499999999999e+00	 1.014123653846153e+01
0	 6.875000000000000e+00	 4.749999999999999e+00	 1.013966018461539e+01
0	 6.875000000000000e+00	 4.812499999999998e+00	 1.013815389230769e+01
0	 6.875000000000000e+00	 4.874999999999998e+00	 1.013671766153846e+01
0	 6.875000000000000e+00	 4.937499999999998e+00	 1.013535149230768e+01
0	 6.875000000000000e+00	 5.000000000000000e+00	 1.013405538461538e+01
0	 6.250000000000000e+00	 5.000000000000000e+00	 1.017354769230770e+01
0	 6.250000000000001e+00	 5.062500000000000e+00	 1.017025704615387e+01
0	 6.250000000000001e+00	 5.125000000000001e+00	 1.016702049230770e+01
0	 6.250000000000000e+00	 5.187499999999999e+00	 1.016383803076923e+01
0	 6.250000000000001e+00	 5.249999999999999e+00	 1.016070966153846e+01
0	 6.250000000000000e+00	 5.312499999999999e+00	 1.015763538461539e+01
0	 6.250000000000000e+00	 5.374999999999998e+00	 1.015461519999999e+01
0	 6.250000000000000e+00	 5.437499999999998e+00	 1.015164910769231e+01
0	 6.250000000000001e+00	 5.499999999999998e+00	 1.014873710769231e+01
0	 6.250000000000000e+00	 5.562499999999998e+00	 1.014587920000000e+01
0	 6.250000000000000e+00	 5.625000000000000e+00	 1.014307538461538e+01
0	 6.312500000000000e+00	 4.999999999999999e+00	 1.016962850769231e+01
0	 6.312499999999999e+00	 5.062500000000000e+00	 1.016646071692309e+01
0	 6.312499999999999e+00	 5.125000000000000e+00	 1.016334619692307e+01
0	 6.312499999999999e+00	 5.187499999999999e+00	 1.016028494769231e+01
0	 6.312499999999999e+00	 5.249999999999998e+00	 1.015727696923077e+01
0	 6.312500000000002e+00	 5.312500000000000e+00	 1.015432226153846e+01
0	 6.312500000000001e+00	 5.374999999999999e+00	 1.015142082461538e+01
0	 6.312500000000000e+00	 5.437499999999999e+00	 1.014857265846154e+01
0	 6.312500000000001e+00	 5.499999999999999e+00	 1.014577776307692e+01
0	 6.312499999999998e+00	 5.562499999999996e+00	 1.014303613846154e+01
0	 6.312500000000000e+00	 5.625000000000000e+00	 1.014034778461538e+01
0	 6.374999999999999e+00	 5.000000000000000e+00	 1.016570264615386e+01
0	 6.374999999999999e+00	 5.062499999999999e+00	 1.016265402769232e+01
0	 6.375000000000000e+00	 5.125000000000001e+00	 1.015965785846153e+01
0	 6.374999999999998e+00	 5.187499999999998e+00	 1.015671413846155e+01
0	 6.374999999999998e+00	 5.249999999999999e+00	 1.015382286769231e+01
0	 6.375000000000000e+00	 5.312499999999999e+00	 1.015098404615384e+01
0	 6.374999999999997e+00	 5.374999999999999e+00	 1.014819767384616e+01
0	 6.375000000000000e+00	 5.437499999999999e+00	 1.014546375076923e+01
0	 6.374999999999999e+00	 5.499999999999998e+00	 1.014278227692307e+01
0	 6.375000000000001e+00	 5.562499999999999e+00	 1.014015325230769e+01
0	 6.374999999999999e+00	 5.625000000000000e+00	 1.013757667692308e+01
0	 6.437499999999998e+00	 4.999999999999999e+00	 1.016177010769231e+01
0	 6.437499999999999e+00	 5.062500000000001e+00	 1.015883697846154e+01
0	 6.437500000000000e+00	 5.125000000000000e+00	 1.015595547692308e+01
0	 6.437500000000000e+00	 5.187499999999999e+00	 1.015312560307692e+01
0	 6.437499999999999e+00	 5.250000000000000e+00	 1.015034735692307e+01
0	 6.437499999999998e+00	 5.312499999999999e+00	 1.014762073846153e+01
0	 6.437499999999999e+00	 5.374999999999998e+00	 1.014494574769230e+01
0	 6.437499999999999e+00	 5.437499999999999e+00	 1.014232238461538e+01
0	 6.437499999999999e+00	 5.499999999999998e+00	 1.013975064923076e+01
0	 6.437499999999998e+00	 5.562499999999997e+00	 1.013723054153844e+01
0	 6.437499999999998e+00	 5.625000000000000e+00	 1.013476206153845e+01
0	 6.499999999999999e+00	 5.000000000000000e+00	 1.015783089230770e+01
0	 6.499999999999997e+00	 5.062500000000000e+00	 1.015500956923077e+01
0	 6.500000000000000e+00	 5.125000000000000e+00	 1.015223905230768e+01
0	 6.499999999999998e+00	 5.187500000000000e+00	 1.014951934153846e+01
0	 6.499999999999998e+00	 5.249999999999999e+00	 1.014685043692307e+01
0	 6.500000000000000e+00	 5.312499999999999e+00	 1.014423233846155e+01
0	 6.499999999999997e+00	 5.374999999999998e+00	 1.014166504615385e+01
0	 6.499999999999999e+00	 5.437499999999999e+00	 1.013914856000001e+01
0	 6.499999999999999e+00	 5.499999999999999e+00	 1.013668287999999e+01
0	 6.499999999999999e+00	 5.562499999999998e+00	 1.013426800615384e+01
0	 6.499999999999999e+00	 5.625000000000000e+00	 1.013190393846152e+01
0	 6.562499999999998e+00	 5.000000000000000e+00	 1.015388500000001e+01
0	 6.562499999999999e+00	 5.062500000000000e+00	 1.015117180000001e+01
0	 6.562499999999999e+00	 5.124999999999999e+00	 1.014850858461539e+01
0	 6.562499999999999e+00	 5.187500000000000e+00	 1.014589535384615e+01
0	 6.562499999999996e+00	 5.249999999999998e+00	 1.014333210769229e+01
0	 6.562499999999999e+00	 5.312499999999999e+00	 1.014081884615384e+01
0	 6.562500000000000e+00	 5.375000000000000e+00	 1.013835556923077e+01
0	 6.562499999999999e+00	 5.437499999999998e+00	 1.013594227692307e+01
0	 6.562499999999999e+00	 5.499999999999998e+00	 1.013357896923075e+01
0	 6.562500000000000e+00	 5.562499999999999e+00	 1.013126564615384e+01
0	 6.562499999999998e+00	 5.625000000000000e+00	 1.012900230769230e+01
0	 6.624999999999998e+00	 5.000000000000001e+00	 1.014993243076925e+01
0	 6.624999999999998e+00	 5.062499999999999e+00	 1.014732367076924e+01
0	 6.624999999999997e+00	 5.125000000000000e+00	 1.014476407384615e+01
0	 6.624999999999999e+00	 5.187500000000000e+00	 1.014225364000000e+01
0	 6.625000000000000e+00	 5.250000000000001e+00	 1.013979236923076e+01
0	 6.625000000000001e+00	 5.312500000000001e+00	 1.013738026153845e+01
0	 6.624999999999998e+00	 5.374999999999999e+00	 1.013501731692307e+01
0	 6.624999999999999e+00	 5.437499999999999e+00	 1.013270353538461e+01
0	 6.624999999999999e+00	 5.499999999999998e+00	 1.013043891692307e+01
0	 6.624999999999999e+00	 5.562499999999998e+00	 1.012822346153844e+01
0	 6.624999999999998e+00	 5.625000000000000e+00	 1.012605716923076e+01
0	 6.687499999999996e+00	 4.999999999999999e+00	 1.014597318461538e+01
0	 6.687499999999997e+00	 5.062500000000000e+00	 1.014346518153846e+01
0	 6.687499999999998e+00	 5.125000000000000e+00	 1.014100551999999e+01
0	 6.687499999999998e+00	 5.187500000000000e+00	 1.013859419999999e+01
0	 6.687499999999999e+00	 5.250000000000000e+00	 1.013623122153847e+01
0	 6.687499999999999e+00	 5.312500000000000e+00	 1.013391658461537e+01
0	 6.687499999999999e+00	 5.374999999999999e+00	 1.013165028923076e+01
0	 6.687499999999999e+00	 5.437499999999998e+00	 1.012943233538460e+01
0	 6.687499999999999e+00	 5.499999999999998e+00	 1.012726272307691e+01
0	 6.687499999999999e+00	 5.562499999999999e+00	 1.012514145230767e+01
0	 6.687499999999996e+00	 5.625000000000000e+00	 1.012306852307690e+01
0	 6.749999999999998e+00	 5.000000000000000e+00	 1.014200726153848e+01
0	 6.749999999999999e+00	 5.062500000000002e+00	 1.013959633230770e+01
0	 6.749999999999998e+00	 5.124999999999999e+00	 1.013723292307693e+01
0	 6.750000000000000e+00	 5.187500000000000e+00	 1.013491703384616e+01
0	 6.749999999999999e+00	 5.249999999999998e+00	 1.013264866461539e+01
0	 6.749999999999998e+00	 5.312499999999999e+00	 1.013042781538461e+01
0	 6.749999999999998e+00	 5.374999999999998e+00	 1.012825448615385e+01
0	 6.749999999999998e+00	 5.437499999999998e+00	 1.012612867692305e+01
0	 6.750000000000000e+00	 5.499999999999999e+00	 1.012405038769231e+01
0	 6.749999999999999e+00	 5.562499999999998e+00	 1.012201961846152e+01
0	 6.749999999999998e+00	 5.625000000000000e+00	 1.012003636923077e+01
0	 6.812499999999998e+00	 5.000000000000000e+00	 1.013803466153847e+01
0	 6.812499999999998e+00	 5.062500000000000e+00	 1.013571712307693e+01
0	 6.812499999999999e+00	 5.125000000000001e+00	 1.013344628307692e+01
0	 6.812499999999998e+00	 5.187499999999999e+00	 1.013122214153845e+01
0	 6.812499999999998e+00	 5.249999999999999e+00	 1.012904469846153e+01
0	 6.812499999999998e+00	 5.312499999999998e+00	 1.012691395384615e+01
0	 6.812499999999997e+00	 5.374999999999997e+00	 1.012482990769229e+01
0	 6.812499999999998e+00	 5.437499999999998e+00	 1.012279255999999e+01
0	 6.812499999999997e+00	 5.499999999999999e+00	 1.012080191076923e+01
0	 6.812499999999997e+00	 5.562499999999998e+00	 1.011885795999998e+01
0	 6.812499999999998e+00	 5.625000000000000e+00	 1.011696070769229e+01
0	 6.875000000000000e+00	 5.000000000000000e+00	 1.013405538461538e+01
0	 6.875000000000000e+00	 5.062500000000000e+00	 1.013182755384616e+01
0	 6.875000000000000e+00	 5.125000000000001e+00	 1.012964560000000e+01
0	 6.875000000000000e+00	 5.187499999999999e+00	 1.012750952307690e+01
0	 6.875000000000000e+00	 5.249999999999999e+00	 1.012541932307693e+01
0	 6.875000000000000e+00	 5.312499999999999e+00	 1.012337500000000e+01
0	 6.875000000000000e+00	 5.374999999999998e+00	 1.012137655384614e+01
0	 6.875000000000000e+00	 5.437499999999998e+00	 1.011942398461538e+01
0	 6.875000000000000e+00	 5.499999999999998e+00	 1.011751729230767e+01
0	 6.875000000000000e+00	 5.562499999999998e+00	 1.011565647692307e+01
0	 6.875000000000000e+00	 5.625000000000000e+00	 1.011384153846153e+01
0	 6.250000000000000e+00	 5.625000000000000e+00	 1.014307538461538e+01
0	 6.250000000000001e+00	 5.687500000000000e+00	 1.013990747692307e+01
0	 6.250000000000001e+00	 5.750000000000000e+00	 1.013676283076922e+01
0	 6.250000000000000e+00	 5.812499999999999e+00	 1.013364144615386e+01
0	 6.250000000000001e+00	 5.874999999999999e+00	 1.013054332307692e+01
0	 6.250000000000000e+00	 5.937499999999999e+00	 1.012746846153846e+01
0	 6.250000000000000e+00	 5.999999999999998e+00	 1.012441686153847e+01
0	 6.250000000000000e+00	 6.062499999999998e+00	 1.012138852307693e+01
0	 6.250000000000001e+00	 6.124999999999998e+00	 1.011838344615386e+01
0	 6.250000000000000e+00	 6.187499999999998e+00	 1.011540163076924e+01
0	 6.250000000000000e+00	 6.250000000000000e+00	 1.011244307692308e+01
0	 6.312500000000000e+00	 5.625000000000000e+00	 1.014034778461538e+01
0	 6.312499999999999e+00	 5.687499999999999e+00	 1.013726713076924e+01
0	 6.312499999999999e+00	 5.749999999999999e+00	 1.013421001538461e+01
0	 6.312499999999999e+00	 5.812499999999998e+00	 1.013117643846154e+01
0	 6.312499999999999e+00	 5.875000000000000e+00	 1.012816640000000e+01
0	 6.312500000000002e+00	 5.937500000000001e+00	 1.012517990000000e+01
0	 6.312500000000001e+00	 5.999999999999999e+00	 1.012221693846154e+01
0	 6.312500000000000e+00	 6.062500000000000e+00	 1.011927751538462e+01
0	 6.312500000000001e+00	 6.125000000000000e+00	 1.011636163076923e+01
0	 6.312499999999998e+00	 6.187499999999996e+00	 1.011346928461540e+01
0	 6.312500000000000e+00	 6.250000000000000e+00	 1.011060047692307e+01
0	 6.374999999999999e+00	 5.625000000000000e+00	 1.013757667692308e+01
0	 6.374999999999999e+00	 5.687499999999999e+00	 1.013458230769231e+01
0	 6.375000000000000e+00	 5.750000000000002e+00	 1.013161175384614e+01
0	 6.374999999999998e+00	 5.812499999999999e+00	 1.012866501538462e+01
0	 6.374999999999998e+00	 5.874999999999998e+00	 1.012574209230770e+01
0	 6.375000000000000e+00	 5.937499999999999e+00	 1.012284298461538e+01
0	 6.374999999999997e+00	 5.999999999999998e+00	 1.011996769230769e+01
0	 6.375000000000000e+00	 6.062499999999999e+00	 1.011711621538460e+01
0	 6.374999999999999e+00	 6.124999999999998e+00	 1.011428855384615e+01
0	 6.375000000000001e+00	 6.187499999999998e+00	 1.011148470769230e+01
0	 6.374999999999999e+00	 6.250000000000000e+00	 1.010870467692308e+01
0	 6.437499999999998e+00	 5.625000000000000e+00	 1.013476206153845e+01
0	 6.437499999999999e+00	 5.687500000000000e+00	 1.013185300769230e+01
0	 6.437500000000000e+00	 5.749999999999999e+00	 1.012896804615384e+01
0	 6.437500000000000e+00	 5.812499999999999e+00	 1.012610717692307e+01
0	 6.437499999999999e+00	 5.875000000000000e+00	 1.012327040000000e+01
0	 6.437499999999998e+00	 5.937500000000000e+00	 1.012045771538462e+01
0	 6.437499999999999e+00	 5.999999999999998e+00	 1.011766912307692e+01
0	 6.437499999999999e+00	 6.062499999999998e+00	 1.011490462307694e+01
0	 6.437499999999999e+00	 6.124999999999997e+00	 1.011216421538462e+01
0	 6.437499999999998e+00	 6.187499999999997e+00	 1.010944790000002e+01
0	 6.437499999999998e+00	 6.250000000000000e+00	 1.010675567692307e+01
0	 6.499999999999999e+00	 5.625000000000000e+00	 1.013190393846152e+01
0	 6.499999999999997e+00	 5.687500000000000e+00	 1.012907923076924e+01
0	 6.500000000000000e+00	 5.750000000000000e+00	 1.012627889230768e+01
0	 6.499999999999998e+00	 5.812500000000000e+00	 1.012350292307693e+01
0	 6.499999999999998e+00	 5.874999999999999e+00	 1.012075132307691e+01
0	 6.500000000000000e+00	 5.937499999999999e+00	 1.011802409230770e+01
0	 6.499999999999997e+00	 5.999999999999997e+00	 1.011532123076923e+01
0	 6.499999999999999e+00	 6.062499999999998e+00	 1.011264273846155e+01
0	 6.499999999999999e+00	 6.124999999999999e+00	 1.010998861538462e+01
0	 6.499999999999999e+00	 6.187499999999998e+00	 1.010735886153848e+01
0	 6.499999999999999e+00	 6.250000000000000e+00	 1.010475347692307e+01
0	 6.562499999999998e+00	 5.625000000000000e+00	 1.012900230769230e+01
0	 6.562499999999999e+00	 5.687500000000000e+00	 1.012626097692307e+01
0	 6.562499999999999e+00	 5.750000000000000e+00	 1.012354429230769e+01
0	 6.562499999999999e+00	 5.812500000000000e+00	 1.012085225384615e+01
0	 6.562499999999996e+00	 5.874999999999998e+00	 1.011818486153847e+01
0	 6.562499999999999e+00	 5.937499999999998e+00	 1.011554211538462e+01
0	 6.562500000000000e+00	 6.000000000000000e+00	 1.011292401538462e+01
0	 6.562499999999999e+00	 6.062499999999998e+00	 1.011033056153847e+01
0	 6.562499999999999e+00	 6.124999999999998e+00	 1.010776175384618e+01
0	 6.562500000000000e+00	 6.187499999999999e+00	 1.010521759230771e+01
0	 6.562499999999998e+00	 6.250000000000000e+00	 1.010269807692309e+01
0	 6.624999999999998e+00	 5.625000000000000e+00	 1.012605716923076e+01
0	 6.624999999999998e+00	 5.687499999999999e+00	 1.012339824615382e+01
0	 6.624999999999997e+00	 5.750000000000000e+00	 1.012076424615383e+01
0	 6.624999999999999e+00	 5.812499999999999e+00	 1.011815516923077e+01
0	 6.625000000000000e+00	 5.875000000000001e+00	 1.011557101538461e+01
0	 6.625000000000001e+00	 5.937499999999999e+00	 1.011301178461538e+01
0	 6.624999999999998e+00	 5.999999999999998e+00	 1.011047747692308e+01
0	 6.624999999999999e+00	 6.062499999999999e+00	 1.010796809230770e+01
0	 6.624999999999999e+00	 6.124999999999998e+00	 1.010548363076923e+01
0	 6.624999999999999e+00	 6.187499999999998e+00	 1.010302409230768e+01
0	 6.624999999999998e+00	 6.250000000000000e+00	 1.010058947692308e+01
0	 6.687499999999996e+00	 5.625000000000000e+00	 1.012306852307690e+01
0	 6.687499999999997e+00	 5.687500000000000e+00	 1.012049103846153e+01
0	 6.687499999999998e+00	 5.750000000000000e+00	 1.011793875384614e+01
0	 6.687499999999998e+00	 5.812499999999999e+00	 1.011541166923077e+01
0	 6.687499999999999e+00	 5.874999999999999e+00	 1.011290978461539e+01
0	 6.687499999999999e+00	 5.937500000000001e+00	 1.011043310000002e+01
0	 6.687499999999999e+00	 5.999999999999999e+00	 1.010798161538462e+01
0	 6.687499999999999e+00	 6.062499999999999e+00	 1.010555533076923e+01
0	 6.687499999999999e+00	 6.124999999999999e+00	 1.010315424615386e+01
0	 6.687499999999999e+00	 6.187499999999999e+00	 1.010077836153845e+01
0	 6.687499999999996e+00	 6.250000000000000e+00	 1.009842767692311e+01
0	 6.749999999999998e+00	 5.625000000000000e+00	 1.012003636923077e+01
0	 6.749999999999999e+00	 5.687500000000000e+00	 1.011753935384615e+01
0	 6.749999999999998e+00	 5.750000000000000e+00	 1.011506781538461e+01
0	 6.750000000000000e+00	 5.812499999999999e+00	 1.011262175384615e+01
0	 6.749999999999999e+00	 5.875000000000000e+00	 1.011020116923077e+01
0	 6.749999999999998e+00	 5.937500000000000e+00	 1.010780606153846e+01
0	 6.749999999999998e+00	 5.999999999999998e+00	 1.010543643076924e+01
0	 6.749999999999998e+00	 6.062499999999998e+00	 1.010309227692308e+01
0	 6.750000000000000e+00	 6.124999999999999e+00	 1.010077359999999e+01
0	 6.749999999999999e+00	 6.187499999999998e+00	 1.009848040000001e+01
0	 6.749999999999998e+00	 6.250000000000000e+00	 1.009621267692309e+01
0	 6.812499999999998e+00	 5.625000000000000e+00	 1.011696070769229e+01
0	 6.812499999999998e+00	 5.687500000000000e+00	 1.011454319230768e+01
0	 6.812499999999999e+00	 5.750000000000000e+00	 1.011215143076923e+01
0	 6.812499999999998e+00	 5.812499999999999e+00	 1.010978542307691e+01
0	 6.812499999999998e+00	 5.875000000000000e+00	 1.010744516923076e+01
0	 6.812499999999998e+00	 5.937499999999999e+00	 1.010513066923077e+01
0	 6.812499999999997e+00	 5.999999999999998e+00	 1.010284192307692e+01
0	 6.812499999999998e+00	 6.062499999999998e+00	 1.010057893076924e+01
0	 6.812499999999997e+00	 6.124999999999998e+00	 1.009834169230769e+01
0	 6.812499999999997e+00	 6.187499999999997e+00	 1.009613020769232e+01
0	 6.812499999999998e+00	 6.250000000000000e+00	 1.009394447692309e+01
0	 6.875000000000000e+00	 5.625000000000000e+00	 1.011384153846153e+01
0	 6.875000000000000e+00	 5.687500000000000e+00	 1.011150255384614e+01
0	 6.875000000000000e+00	 5.750000000000000e+00	 1.010918959999998e+01
0	 6.875000000000000e+00	 5.812499999999999e+00	 1.010690267692307e+01
0	 6.875000000000000e+00	 5.874999999999999e+00	 1.010464178461538e+01
0	 6.875000000000000e+00	 5.937499999999999e+00	 1.010240692307692e+01
0	 6.875000000000000e+00	 5.999999999999998e+00	 1.010019809230771e+01
0	 6.875000000000000e+00	 6.062499999999998e+00	 1.009801529230770e+01
0	 6.875000000000000e+00	 6.124999999999998e+00	 1.009585852307693e+01
0	 6.875000000000000e+00	 6.187499999999998e+00	 1.009372778461539e+01
0	 6.875000000000000e+00	 6.250000000000000e+00	 1.009162307692309e+01
0	 6.250000000000000e+00	 6.250000000000000e+00	 1.011244307692308e+01
0	 6.250000000000001e+00	 6.312500000000000e+00	 1.010952544615385e+01
0	 6.250000000000001e+00	 6.375000000000000e+00	 1.010661040000001e+01
0	 6.250000000000000e+00	 6.437499999999999e+00	 1.010369793846153e+01
0	 6.250000000000001e+00	 6.499999999999999e+00	 1.010078806153846e+01
0	 6.250000000000000e+00	 6.562499999999998e+00	 1.009788076923078e+01
0	 6.250000000000000e+00	 6.624999999999998e+00	 1.009497606153846e+01
0	 6.250000000000000e+00	 6.687499999999998e+00	 1.009207393846155e+01
0	 6.250000000000001e+00	 6.749999999999998e+00	 1.008917440000000e+01
0	 6.250000000000000e+00	 6.812499999999998e+00	 1.008627744615385e+01
0	 6.250000000000000e+00	 6.875000000000000e+00	 1.008338307692308e+01
0	 6.312500000000000e+00	 6.250000000000000e+00	 1.011060047692307e+01
0	 6.312499999999999e+00	 6.312500000000000e+00	 1.010775039538461e+01
0	 6.312499999999999e+00	 6.374999999999999e+00	 1.010490328615385e+01
0	 6.312499999999999e+00	 6.437500000000000e+00	 1.010205914923078e+01
0	 6.312499999999999e+00	 6.499999999999997e+00	 1.009921798461539e+01
0	 6.312500000000002e+00	 6.562500000000000e+00	 1.009637979230769e+01
0	 6.312500000000001e+00	 6.624999999999999e+00	 1.009354457230770e+01
0	 6.312500000000000e+00	 6.687499999999999e+00	 1.009071232461541e+01
0	 6.312500000000001e+00	 6.749999999999999e+00	 1.008788304923078e+01
0	 6.312499999999998e+00	 6.812499999999996e+00	 1.008505674615383e+01
0	 6.312500000000000e+00	 6.875000000000001e+00	 1.008223341538464e+01
0	 6.374999999999999e+00	 6.250000000000000e+00	 1.010870467692308e+01
0	 6.374999999999999e+00	 6.312499999999999e+00	 1.010592177846155e+01
0	 6.375000000000000e+00	 6.375000000000000e+00	 1.010314224000000e+01
0	 6.374999999999998e+00	 6.437499999999998e+00	 1.010036606153847e+01
0	 6.374999999999998e+00	 6.499999999999996e+00	 1.009759324307693e+01
0	 6.375000000000000e+00	 6.562499999999998e+00	 1.009482378461540e+01
0	 6.374999999999997e+00	 6.624999999999996e+00	 1.009205768615386e+01
0	 6.375000000000000e+00	 6.687499999999999e+00	 1.008929494769233e+01
0	 6.374999999999999e+00	 6.749999999999997e+00	 1.008653556923078e+01
0	 6.375000000000001e+00	 6.812500000000000e+00	 1.008377955076923e+01
0	 6.374999999999999e+00	 6.875000000000000e+00	 1.008102689230770e+01
0	 6.437499999999998e+00	 6.250000000000000e+00	 1.010675567692307e+01
0	 6.437499999999999e+00	 6.312499999999999e+00	 1.010403959538463e+01
0	 6.437500000000000e+00	 6.375000000000000e+00	 1.010132726153847e+01
0	 6.437500000000000e+00	 6.437500000000000e+00	 1.009861867538462e+01
0	 6.437499999999999e+00	 6.499999999999998e+00	 1.009591383692308e+01
0	 6.437499999999998e+00	 6.562499999999999e+00	 1.009321274615385e+01
0	 6.437499999999999e+00	 6.624999999999999e+00	 1.009051540307693e+01
0	 6.437499999999999e+00	 6.687499999999998e+00	 1.008782180769231e+01
0	 6.437499999999999e+00	 6.749999999999998e+00	 1.008513195999999e+01
0	 6.437499999999998e+00	 6.812499999999997e+00	 1.008244586000000e+01
0	 6.437499999999998e+00	 6.874999999999999e+00	 1.007976350769234e+01
0	 6.499999999999999e+00	 6.250000000000000e+00	 1.010475347692307e+01
0	 6.499999999999997e+00	 6.312499999999999e+00	 1.010210384615387e+01
0	 6.500000000000000e+00	 6.375000000000000e+00	 1.009945835076923e+01
0	 6.499999999999998e+00	 6.437499999999999e+00	 1.009681699076923e+01
0	 6.499999999999998e+00	 6.499999999999997e+00	 1.009417976615385e+01
0	 6.500000000000000e+00	 6.562499999999999e+00	 1.009154667692309e+01
0	 6.499999999999997e+00	 6.624999999999998e+00	 1.008891772307693e+01
0	 6.499999999999999e+00	 6.687499999999998e+00	 1.008629290461539e+01
0	 6.499999999999999e+00	 6.749999999999998e+00	 1.008367222153847e+01
0	 6.499999999999999e+00	 6.812499999999998e+00	 1.008105567384616e+01
0	 6.499999999999999e+00	 6.875000000000001e+00	 1.007844326153844e+01
0	 6.562499999999998e+00	 6.250000000000000e+00	 1.010269807692309e+01
0	 6.562499999999999e+00	 6.312500000000000e+00	 1.010011453076925e+01
0	 6.562499999999999e+00	 6.375000000000000e+00	 1.009753550769233e+01
0	 6.562499999999999e+00	 6.437499999999999e+00	 1.009496100769233e+01
0	 6.562499999999996e+00	 6.499999999999997e+00	 1.009239103076924e+01
0	 6.562499999999999e+00	 6.562499999999999e+00	 1.008982557692310e+01
0	 6.562500000000000e+00	 6.625000000000000e+00	 1.008726464615386e+01
0	 6.562499999999999e+00	 6.687499999999999e+00	 1.008470823846154e+01
0	 6.562499999999999e+00	 6.749999999999999e+00	 1.008215635384616e+01
0	 6.562500000000000e+00	 6.812499999999998e+00	 1.007960899230767e+01
0	 6.562499999999998e+00	 6.875000000000000e+00	 1.007706615384616e+01
0	 6.624999999999998e+00	 6.250000000000000e+00	 1.010058947692308e+01
0	 6.624999999999998e+00	 6.312499999999999e+00	 1.009807164923079e+01
0	 6.624999999999997e+00	 6.374999999999997e+00	 1.009555873230769e+01
0	 6.624999999999999e+00	 6.437499999999999e+00	 1.009305072615385e+01
0	 6.625000000000000e+00	 6.500000000000000e+00	 1.009054763076924e+01
0	 6.625000000000001e+00	 6.562500000000001e+00	 1.008804944615385e+01
0	 6.624999999999998e+00	 6.624999999999998e+00	 1.008555617230770e+01
0	 6.624999999999999e+00	 6.687499999999999e+00	 1.008306780923078e+01
0	 6.624999999999999e+00	 6.749999999999999e+00	 1.008058435692306e+01
0	 6.624999999999999e+00	 6.812499999999998e+00	 1.007810581538461e+01
0	 6.624999999999998e+00	 6.875000000000000e+00	 1.007563218461540e+01
0	 6.687499999999996e+00	 6.250000000000000e+00	 1.009842767692311e+01
0	 6.687499999999997e+00	 6.312499999999999e+00	 1.009597520153847e+01
0	 6.687499999999998e+00	 6.375000000000001e+00	 1.009352802461540e+01
0	 6.687499999999998e+00	 6.437499999999999e+00	 1.009108614615385e+01
0	 6.687499999999999e+00	 6.500000000000000e+00	 1.008864956615386e+01
0	 6.687499999999999e+00	 6.562499999999999e+00	 1.008621828461539e+01
0	 6.687499999999999e+00	 6.624999999999999e+00	 1.008379230153847e+01
0	 6.687499999999999e+00	 6.687499999999999e+00	 1.008137161692309e+01
0	 6.687499999999999e+00	 6.749999999999998e+00	 1.007895623076924e+01
0	 6.687499999999999e+00	 6.812499999999999e+00	 1.007654614307693e+01
0	 6.687499999999996e+00	 6.875000000000000e+00	 1.007414135384617e+01
0	 6.749999999999998e+00	 6.250000000000000e+00	 1.009621267692309e+01
0	 6.749999999999999e+00	 6.312500000000001e+00	 1.009382518769231e+01
0	 6.749999999999998e+00	 6.374999999999999e+00	 1.009144338461540e+01
0	 6.750000000000000e+00	 6.437500000000000e+00	 1.008906726769231e+01
0	 6.749999999999999e+00	 6.499999999999999e+00	 1.008669683692309e+01
0	 6.749999999999998e+00	 6.562499999999999e+00	 1.008433209230770e+01
0	 6.749999999999998e+00	 6.624999999999998e+00	 1.008197303384616e+01
0	 6.749999999999998e+00	 6.687499999999998e+00	 1.007961966153847e+01
0	 6.750000000000000e+00	 6.749999999999998e+00	 1.007727197538462e+01
0	 6.749999999999999e+00	 6.812499999999998e+00	 1.007492997538461e+01
0	 6.749999999999998e+00	 6.875000000000000e+00	 1.007259366153847e+01
0	 6.812499999999998e+00	 6.250000000000000e+00	 1.009394447692309e+01
0	 6.812499999999998e+00	 6.312500000000000e+00	 1.009162160769233e+01
0	 6.812499999999999e+00	 6.375000000000000e+00	 1.008930481230770e+01
0	 6.812499999999998e+00	 6.437499999999999e+00	 1.008699409076922e+01
0	 6.812499999999998e+00	 6.499999999999998e+00	 1.008468944307693e+01
0	 6.812499999999998e+00	 6.562499999999998e+00	 1.008239086923077e+01
0	 6.812499999999997e+00	 6.624999999999998e+00	 1.008009836923077e+01
0	 6.812499999999998e+00	 6.687499999999998e+00	 1.007781194307693e+01
0	 6.812499999999997e+00	 6.749999999999999e+00	 1.007553159076923e+01
0	 6.812499999999997e+00	 6.812499999999997e+00	 1.007325731230770e+01
0	 6.812499999999998e+00	 6.875000000000000e+00	 1.007098910769230e+01
0	 6.875000000000000e+00	 6.250000000000000e+00	 1.009162307692309e+01
0	 6.875000000000000e+00	 6.312500000000000e+00	 1.008936446153847e+01
0	 6.875000000000000e+00	 6.375000000000000e+00	 1.008711230769232e+01
0	 6.875000000000000e+00	 6.437499999999999e+00	 1.008486661538462e+01
0	 6.875000000000000e+00	 6.499999999999999e+00	 1.008262738461540e+01
0	 6.875000000000000e+00	 6.562499999999998e+00	 1.008039461538462e+01
0	 6.875000000000000e+00	 6.624999999999998e+00	 1.007816830769231e+01
0	 6.875000000000000e+00	 6.687499999999998e+00	 1.007594846153847e+01
0	 6.875000000000000e+00	 6.749999999999998e+00	 1.007373507692307e+01
0	 6.875000000000000e+00	 6.812499999999998e+00	 1.007152815384615e+01
0	 6.875000000000000e+00	 6.875000000000000e+00	 1.006932769230769e+01
0	 6.250000000000000e+00	 6.875000000000000e+00	 1.008338307692308e+01
0	 6.250000000000001e+00	 6.937500000000000e+00	 1.008083192307692e+01
0	 6.250000000000001e+00	 7.000000000000000e+00	 1.007826461538460e+01
0	 6.250000000000000e+00	 7.062500000000000e+00	 1.007568115384617e+01
0	 6.250000000000001e+00	 7.125000000000000e+00	 1.007308153846154e+01
0	 6.250000000000000e+00	 7.187499999999998e+00	 1.007046576923076e+01
0	 6.250000000000000e+00	 7.249999999999998e+00	 1.006783384615385e+01
0	 6.250000000000000e+00	 7.312499999999998e+00	 1.006518576923076e+01
0	 6.250000000000001e+00	 7.374999999999998e+00	 1.006252153846153e+01
0	 6.250000000000000e+00	 7.437499999999998e+00	 1.005984115384615e+01
0	 6.250000000000000e+00	 7.500000000000000e+00	 1.005714461538460e+01
0	 6.312500000000000e+00	 6.875000000000001e+00	 1.008223341538464e+01
0	 6.312499999999999e+00	 6.937499999999999e+00	 1.007972739538460e+01
0	 6.312499999999999e+00	 6.999999999999999e+00	 1.007720585846156e+01
0	 6.312499999999999e+00	 7.062500000000000e+00	 1.007466880461538e+01
0	 6.312499999999999e+00	 7.124999999999998e+00	 1.007211623384615e+01
0	 6.312500000000002e+00	 7.187499999999999e+00	 1.006954814615383e+01
0	 6.312500000000001e+00	 7.250000000000000e+00	 1.006696454153845e+01
0	 6.312500000000000e+00	 7.312499999999999e+00	 1.006436541999999e+01
0	 6.312500000000001e+00	 7.374999999999999e+00	 1.006175078153846e+01
0	 6.312499999999998e+00	 7.437499999999996e+00	 1.005912062615383e+01
0	 6.312500000000000e+00	 7.500000000000000e+00	 1.005647495384613e+01
0	 6.374999999999999e+00	 6.875000000000000e+00	 1.008102689230770e+01
0	 6.374999999999999e+00	 6.937499999999999e+00	 1.007856665230769e+01
0	 6.375000000000000e+00	 7.000000000000001e+00	 1.007609153230769e+01
0	 6.374999999999998e+00	 7.062499999999999e+00	 1.007360153230769e+01
0	 6.374999999999998e+00	 7.124999999999998e+00	 1.007109665230769e+01
0	 6.375000000000000e+00	 7.187499999999999e+00	 1.006857689230769e+01
0	 6.374999999999997e+00	 7.249999999999996e+00	 1.006604225230769e+01
0	 6.375000000000000e+00	 7.312499999999998e+00	 1.006349273230769e+01
0	 6.374999999999999e+00	 7.374999999999997e+00	 1.006092833230766e+01
0	 6.375000000000001e+00	 7.437500000000000e+00	 1.005834905230769e+01
0	 6.374999999999999e+00	 7.499999999999999e+00	 1.005575489230767e+01
0	 6.437499999999998e+00	 6.874999999999999e+00	 1.007976350769234e+01
0	 6.437499999999999e+00	 6.937499999999999e+00	 1.007734969384616e+01
0	 6.437500000000000e+00	 7.000000000000000e+00	 1.007492163692309e+01
0	 6.437500000000000e+00	 7.062500000000000e+00	 1.007247933692306e+01
0	 6.437499999999999e+00	 7.124999999999999e+00	 1.007002279384616e+01
0	 6.437499999999998e+00	 7.187499999999999e+00	 1.006755200769230e+01
0	 6.437499999999999e+00	 7.250000000000000e+00	 1.006506697846152e+01
0	 6.437499999999999e+00	 7.312499999999999e+00	 1.006256770615384e+01
0	 6.437499999999999e+00	 7.374999999999997e+00	 1.006005419076922e+01
0	 6.437499999999998e+00	 7.437499999999998e+00	 1.005752643230766e+01
0	 6.437499999999998e+00	 7.500000000000000e+00	 1.005498443076921e+01
0	 6.499999999999999e+00	 6.875000000000001e+00	 1.007844326153844e+01
0	 6.499999999999997e+00	 6.937499999999999e+00	 1.007607651999999e+01
0	 6.500000000000000e+00	 7.000000000000001e+00	 1.007369617230769e+01
0	 6.499999999999998e+00	 7.062500000000000e+00	 1.007130221846154e+01
0	 6.499999999999998e+00	 7.124999999999999e+00	 1.006889465846153e+01
0	 6.500000000000000e+00	 7.187499999999999e+00	 1.006647349230768e+01
0	 6.499999999999997e+00	 7.249999999999997e+00	 1.006403872000000e+01
0	 6.499999999999999e+00	 7.312499999999998e+00	 1.006159034153845e+01
0	 6.499999999999999e+00	 7.374999999999999e+00	 1.005912835692307e+01
0	 6.499999999999999e+00	 7.437499999999998e+00	 1.005665276615382e+01
0	 6.499999999999999e+00	 7.500000000000000e+00	 1.005416356923077e+01
0	 6.562499999999998e+00	 6.875000000000000e+00	 1.007706615384616e+01
0	 6.562499999999999e+00	 6.937500000000000e+00	 1.007474713076924e+01
0	 6.562499999999999e+00	 7.000000000000000e+00	 1.007241513846155e+01
0	 6.562499999999999e+00	 7.062500000000000e+00	 1.007007017692307e+01
0	 6.562499999999996e+00	 7.124999999999997e+00	 1.006771224615384e+01
0	 6.562499999999999e+00	 7.187499999999999e+00	 1.006534134615383e+01
0	 6.562500000000000e+00	 7.249999999999999e+00	 1.006295747692306e+01
0	 6.562499999999999e+00	 7.312499999999998e+00	 1.006056063846152e+01
0	 6.562499999999999e+00	 7.374999999999997e+00	 1.005815083076924e+01
0	 6.562500000000000e+00	 7.437499999999998e+00	 1.005572805384615e+01
0	 6.562499999999998e+00	 7.500000000000000e+00	 1.005329230769229e+01
0	 6.624999999999998e+00	 6.875000000000000e+00	 1.007563218461540e+01
0	 6.624999999999998e+00	 6.937500000000000e+00	 1.007336152615387e+01
0	 6.624999999999997e+00	 6.999999999999998e+00	 1.007107853538462e+01
0	 6.624999999999999e+00	 7.062500000000000e+00	 1.006878321230769e+01
0	 6.625000000000000e+00	 7.125000000000000e+00	 1.006647555692309e+01
0	 6.625000000000001e+00	 7.187500000000000e+00	 1.006415556923076e+01
0	 6.624999999999998e+00	 7.249999999999998e+00	 1.006182324923076e+01
0	 6.624999999999999e+00	 7.312499999999999e+00	 1.005947859692309e+01
0	 6.624999999999999e+00	 7.374999999999999e+00	 1.005712161230770e+01
0	 6.624999999999999e+00	 7.437499999999998e+00	 1.005475229538459e+01
0	 6.624999999999998e+00	 7.499999999999999e+00	 1.005237064615383e+01
0	 6.687499999999996e+00	 6.875000000000000e+00	 1.007414135384617e+01
0	 6.687499999999997e+00	 6.937499999999999e+00	 1.007191970615386e+01
0	 6.687499999999998e+00	 7.000000000000001e+00	 1.006968636307691e+01
0	 6.687499999999998e+00	 7.062499999999999e+00	 1.006744132461537e+01
0	 6.687499999999999e+00	 7.124999999999999e+00	 1.006518459076923e+01
0	 6.687499999999999e+00	 7.187500000000000e+00	 1.006291616153845e+01
0	 6.687499999999999e+00	 7.249999999999999e+00	 1.006063603692307e+01
0	 6.687499999999999e+00	 7.312500000000000e+00	 1.005834421692308e+01
0	 6.687499999999999e+00	 7.374999999999998e+00	 1.005604070153846e+01
0	 6.687499999999999e+00	 7.437499999999999e+00	 1.005372549076922e+01
0	 6.687499999999996e+00	 7.499999999999998e+00	 1.005139858461537e+01
0	 6.749999999999998e+00	 6.875000000000000e+00	 1.007259366153847e+01
0	 6.749999999999999e+00	 6.937500000000001e+00	 1.007042167076924e+01
0	 6.749999999999998e+00	 6.999999999999998e+00	 1.006823862153847e+01
0	 6.750000000000000e+00	 7.062500000000000e+00	 1.006604451384616e+01
0	 6.749999999999999e+00	 7.125000000000000e+00	 1.006383934769232e+01
0	 6.749999999999998e+00	 7.187500000000000e+00	 1.006162312307693e+01
0	 6.749999999999998e+00	 7.250000000000000e+00	 1.005939584000001e+01
0	 6.749999999999998e+00	 7.312499999999999e+00	 1.005715749846153e+01
0	 6.750000000000000e+00	 7.374999999999998e+00	 1.005490809846154e+01
0	 6.749999999999999e+00	 7.437499999999998e+00	 1.005264764000000e+01
0	 6.749999999999998e+00	 7.500000000000000e+00	 1.005037612307691e+01
0	 6.812499999999998e+00	 6.875000000000000e+00	 1.007098910769230e+01
0	 6.812499999999998e+00	 6.937500000000001e+00	 1.006886741999999e+01
0	 6.812499999999999e+00	 7.000000000000001e+00	 1.006673531076924e+01
0	 6.812499999999998e+00	 7.062500000000000e+00	 1.006459278000000e+01
0	 6.812499999999998e+00	 7.124999999999999e+00	 1.006243982769232e+01
0	 6.812499999999998e+00	 7.187499999999998e+00	 1.006027645384614e+01
0	 6.812499999999997e+00	 7.249999999999999e+00	 1.005810265846153e+01
0	 6.812499999999998e+00	 7.312499999999998e+00	 1.005591844153846e+01
0	 6.812499999999997e+00	 7.374999999999998e+00	 1.005372380307692e+01
0	 6.812499999999997e+00	 7.437499999999998e+00	 1.005151874307692e+01
0	 6.812499999999998e+00	 7.500000000000000e+00	 1.004930326153847e+01
0	 6.875000000000000e+00	 6.875000000000000e+00	 1.006932769230769e+01
0	 6.875000000000000e+00	 6.937500000000000e+00	 1.006725695384615e+01
0	 6.875000000000000e+00	 7.000000000000000e+00	 1.006517643076921e+01
0	 6.875000000000000e+00	 7.062500000000000e+00	 1.006308612307692e+01
0	 6.875000000000000e+00	 7.125000000000000e+00	 1.006098603076922e+01
0	 6.875000000000000e+00	 7.187499999999998e+00	 1.005887615384615e+01
0	 6.875000000000000e+00	 7.249999999999998e+00	 1.005675649230771e+01
0	 6.875000000000000e+00	 7.312499999999998e+00	 1.005462704615385e+01
0	 6.875000000000000e+00	 7.374999999999998e+00	 1.005248781538461e+01
0	 6.875000000000000e+00	 7.437499999999998e+00	 1.005033879999999e+01
0	 6.875000000000000e+00	 7.500000000000000e+00	 1.004818000000000e+01
0	 6.250000000000000e+00	 7.500000000000000e+00	 1.005714461538460e+01
0	 6.250000000000001e+00	 7.562500000000000e+00	 1.005502013846152e+01
0	 6.250000000000001e+00	 7.625000000000000e+00	 1.005286270769232e+01
0	 6.250000000000000e+00	 7.687499999999999e+00	 1.005067232307691e+01
0	 6.250000000000001e+00	 7.750000000000000e+00	 1.004844898461539e+01
0	 6.250000000000000e+00	 7.812499999999999e+00	 1.004619269230768e+01
0	 6.250000000000000e+00	 7.874999999999998e+00	 1.004390344615383e+01
0	 6.250000000000000e+00	 7.937499999999997e+00	 1.004158124615383e+01
0	 6.250000000000001e+00	 7.999999999999998e+00	 1.003922609230769e+01
0	 6.250000000000000e+00	 8.062499999999996e+00	 1.003683798461537e+01
0	 6.250000000000000e+00	 8.125000000000000e+00	 1.003441692307692e+01
0	 6.312500000000000e+00	 7.500000000000000e+00	 1.005647495384613e+01
0	 6.312499999999999e+00	 7.562499999999999e+00	 1.005438221999997e+01
0	 6.312499999999999e+00	 7.624999999999998e+00	 1.005225715076922e+01
0	 6.312499999999999e+00	 7.687499999999998e+00	 1.005009974615384e+01
0	 6.312499999999999e+00	 7.750000000000000e+00	 1.004791000615383e+01
0	 6.312500000000002e+00	 7.812500000000000e+00	 1.004568793076922e+01
0	 6.312500000000001e+00	 7.874999999999999e+00	 1.004343351999999e+01
0	 6.312500000000000e+00	 7.937499999999998e+00	 1.004114677384615e+01
0	 6.312500000000001e+00	 8.000000000000000e+00	 1.003882769230768e+01
0	 6.312499999999998e+00	 8.062499999999995e+00	 1.003647627538462e+01
0	 6.312500000000000e+00	 8.125000000000000e+00	 1.003409252307692e+01
0	 6.374999999999999e+00	 7.499999999999999e+00	 1.005575489230767e+01
0	 6.374999999999999e+00	 7.562500000000001e+00	 1.005369467692307e+01
0	 6.375000000000000e+00	 7.625000000000001e+00	 1.005160274461537e+01
0	 6.374999999999998e+00	 7.687500000000001e+00	 1.004947909538460e+01
0	 6.374999999999998e+00	 7.749999999999998e+00	 1.004732372923077e+01
0	 6.375000000000000e+00	 7.812499999999998e+00	 1.004513664615384e+01
0	 6.374999999999997e+00	 7.874999999999996e+00	 1.004291784615383e+01
0	 6.375000000000000e+00	 7.937499999999998e+00	 1.004066732923076e+01
0	 6.374999999999999e+00	 7.999999999999999e+00	 1.003838509538460e+01
0	 6.375000000000001e+00	 8.062499999999998e+00	 1.003607114461537e+01
0	 6.374999999999999e+00	 8.125000000000000e+00	 1.003372547692307e+01
0	 6.437499999999998e+00	 7.500000000000000e+00	 1.005498443076921e+01
0	 6.437499999999999e+00	 7.562500000000001e+00	 1.005295750923076e+01
0	 6.437500000000000e+00	 7.625000000000001e+00	 1.005089948923076e+01
0	 6.437500000000000e+00	 7.687500000000000e+00	 1.004881037076921e+01
0	 6.437499999999999e+00	 7.749999999999999e+00	 1.004669015384614e+01
0	 6.437499999999998e+00	 7.812499999999999e+00	 1.004453883846153e+01
0	 6.437499999999999e+00	 7.874999999999998e+00	 1.004235642461538e+01
0	 6.437499999999999e+00	 7.937499999999998e+00	 1.004014291230771e+01
0	 6.437499999999999e+00	 7.999999999999998e+00	 1.003789830153847e+01
0	 6.437499999999998e+00	 8.062499999999996e+00	 1.003562259230768e+01
0	 6.437499999999998e+00	 8.125000000000000e+00	 1.003331578461538e+01
0	 6.499999999999999e+00	 7.500000000000000e+00	 1.005416356923077e+01
0	 6.499999999999997e+00	 7.562500000000000e+00	 1.005217071692305e+01
0	 6.500000000000000e+00	 7.625000000000000e+00	 1.005014738461538e+01
0	 6.499999999999998e+00	 7.687500000000000e+00	 1.004809357230768e+01
0	 6.499999999999998e+00	 7.749999999999998e+00	 1.004600927999998e+01
0	 6.500000000000000e+00	 7.812500000000000e+00	 1.004389450769231e+01
0	 6.499999999999997e+00	 7.874999999999998e+00	 1.004174925538460e+01
0	 6.499999999999999e+00	 7.937499999999999e+00	 1.003957352307690e+01
0	 6.499999999999999e+00	 7.999999999999997e+00	 1.003736731076921e+01
0	 6.499999999999999e+00	 8.062500000000000e+00	 1.003513061846154e+01
0	 6.499999999999999e+00	 8.125000000000000e+00	 1.003286344615384e+01
0	 6.562499999999998e+00	 7.500000000000000e+00	 1.005329230769229e+01
0	 6.562499999999999e+00	 7.562499999999999e+00	 1.005133429999998e+01
0	 6.562499999999999e+00	 7.624999999999999e+00	 1.004934643076921e+01
0	 6.562499999999999e+00	 7.687500000000000e+00	 1.004732869999997e+01
0	 6.562499999999996e+00	 7.749999999999996e+00	 1.004528110769230e+01
0	 6.562499999999999e+00	 7.812499999999999e+00	 1.004320365384615e+01
0	 6.562500000000000e+00	 7.875000000000000e+00	 1.004109633846153e+01
0	 6.562499999999999e+00	 7.937499999999999e+00	 1.003895916153846e+01
0	 6.562499999999999e+00	 7.999999999999998e+00	 1.003679212307692e+01
0	 6.562500000000000e+00	 8.062500000000000e+00	 1.003459522307693e+01
0	 6.562499999999998e+00	 8.125000000000000e+00	 1.003236846153846e+01
0	 6.624999999999998e+00	 7.499999999999999e+00	 1.005237064615383e+01
0	 6.624999999999998e+00	 7.562500000000000e+00	 1.005044825846153e+01
0	 6.624999999999997e+00	 7.624999999999998e+00	 1.004849662769229e+01
0	 6.624999999999999e+00	 7.687499999999998e+00	 1.004651575384616e+01
0	 6.625000000000000e+00	 7.750000000000001e+00	 1.004450563692307e+01
0	 6.625000000000001e+00	 7.812500000000000e+00	 1.004246627692308e+01
0	 6.624999999999998e+00	 7.874999999999998e+00	 1.004039767384616e+01
0	 6.624999999999999e+00	 7.937499999999999e+00	 1.003829982769231e+01
0	 6.624999999999999e+00	 8.000000000000000e+00	 1.003617273846153e+01
0	 6.624999999999999e+00	 8.062499999999998e+00	 1.003401640615384e+01
0	 6.624999999999998e+00	 8.125000000000000e+00	 1.003183083076924e+01
0	 6.687499999999996e+00	 7.499999999999998e+00	 1.005139858461537e+01
0	 6.687499999999997e+00	 7.562500000000000e+00	 1.004951259230768e+01
0	 6.687499999999998e+00	 7.624999999999999e+00	 1.004759797538462e+01
0	 6.687499999999998e+00	 7.687500000000000e+00	 1.004565473384614e+01
0	 6.687499999999999e+00	 7.749999999999998e+00	 1.004368286769230e+01
0	 6.687499999999999e+00	 7.812500000000000e+00	 1.004168237692307e+01
0	 6.687499999999999e+00	 7.874999999999999e+00	 1.003965326153847e+01
0	 6.687499999999999e+00	 7.937500000000000e+00	 1.003759552153845e+01
0	 6.687499999999999e+00	 7.999999999999998e+00	 1.003550915692308e+01
0	 6.687499999999999e+00	 8.062500000000000e+00	 1.003339416769230e+01
0	 6.687499999999996e+00	 8.125000000000000e+00	 1.003125055384615e+01
0	 6.749999999999998e+00	 7.500000000000000e+00	 1.005037612307691e+01
0	 6.749999999999999e+00	 7.562500000000001e+00	 1.004852730153844e+01
0	 6.749999999999998e+00	 7.625000000000000e+00	 1.004665047384614e+01
0	 6.750000000000000e+00	 7.687500000000001e+00	 1.004474564000001e+01
0	 6.749999999999999e+00	 7.749999999999999e+00	 1.004281280000000e+01
0	 6.749999999999998e+00	 7.812499999999998e+00	 1.004085195384617e+01
0	 6.749999999999998e+00	 7.875000000000000e+00	 1.003886310153847e+01
0	 6.749999999999998e+00	 7.937499999999998e+00	 1.003684624307692e+01
0	 6.750000000000000e+00	 7.999999999999998e+00	 1.003480137846154e+01
0	 6.749999999999999e+00	 8.062500000000000e+00	 1.003272850769231e+01
0	 6.749999999999998e+00	 8.125000000000000e+00	 1.003062763076924e+01
0	 6.812499999999998e+00	 7.500000000000000e+00	 1.004930326153847e+01
0	 6.812499999999998e+00	 7.562500000000001e+00	 1.004749238615383e+01
0	 6.812499999999999e+00	 7.624999999999999e+00	 1.004565412307693e+01
0	 6.812499999999998e+00	 7.687499999999999e+00	 1.004378847230770e+01
0	 6.812499999999998e+00	 7.750000000000000e+00	 1.004189543384616e+01
0	 6.812499999999998e+00	 7.812499999999999e+00	 1.003997500769230e+01
0	 6.812499999999997e+00	 7.874999999999998e+00	 1.003802719384614e+01
0	 6.812499999999998e+00	 7.937499999999998e+00	 1.003605199230768e+01
0	 6.812499999999997e+00	 7.999999999999998e+00	 1.003404940307691e+01
0	 6.812499999999997e+00	 8.062499999999998e+00	 1.003201942615383e+01
0	 6.812499999999998e+00	 8.125000000000000e+00	 1.002996206153846e+01
0	 6.875000000000000e+00	 7.500000000000000e+00	 1.004818000000000e+01
0	 6.875000000000000e+00	 7.562500000000000e+00	 1.004640784615385e+01
0	 6.875000000000000e+00	 7.625000000000000e+00	 1.004460892307695e+01
0	 6.875000000000000e+00	 7.687499999999999e+00	 1.004278323076923e+01
0	 6.875000000000000e+00	 7.750000000000000e+00	 1.004093076923078e+01
0	 6.875000000000000e+00	 7.812499999999999e+00	 1.003905153846154e+01
0	 6.875000000000000e+00	 7.874999999999998e+00	 1.003714553846154e+01
0	 6.875000000000000e+00	 7.937499999999997e+00	 1.003521276923076e+01
0	 6.875000000000000e+00	 7.999999999999998e+00	 1.003325323076924e+01
0	 6.875000000000000e+00	 8.062499999999996e+00	 1.003126692307693e+01
0	 6.875000000000000e+00	 8.125000000000000e+00	 1.002925384615384e+01
0	 6.250000000000000e+00	 8.125000000000000e+00	 1.003441692307692e+01
0	 6.250000000000001e+00	 8.187500000000000e+00	 1.003281344615385e+01
0	 6.250000000000001e+00	 8.250000000000002e+00	 1.003115716923075e+01
0	 6.250000000000000e+00	 8.312500000000000e+00	 1.002944809230770e+01
0	 6.250000000000001e+00	 8.374999999999998e+00	 1.002768621538460e+01
0	 6.250000000000000e+00	 8.437500000000000e+00	 1.002587153846154e+01
0	 6.250000000000000e+00	 8.500000000000000e+00	 1.002400406153846e+01
0	 6.250000000000000e+00	 8.562499999999998e+00	 1.002208378461537e+01
0	 6.250000000000001e+00	 8.625000000000000e+00	 1.002011070769231e+01
0	 6.250000000000000e+00	 8.687499999999998e+00	 1.001808483076919e+01
0	 6.250000000000000e+00	 8.750000000000000e+00	 1.001600615384615e+01
0	 6.312500000000000e+00	 8.125000000000000e+00	 1.003409252307692e+01
0	 6.312499999999999e+00	 8.187500000000002e+00	 1.003251118461538e+01
0	 6.312499999999999e+00	 8.250000000000000e+00	 1.003087781230769e+01
0	 6.312499999999999e+00	 8.312499999999998e+00	 1.002919240615384e+01
0	 6.312499999999999e+00	 8.374999999999998e+00	 1.002745496615385e+01
0	 6.312500000000002e+00	 8.437500000000000e+00	 1.002566549230767e+01
0	 6.312500000000001e+00	 8.500000000000002e+00	 1.002382398461538e+01
0	 6.312500000000000e+00	 8.562500000000000e+00	 1.002193044307691e+01
0	 6.312500000000001e+00	 8.625000000000002e+00	 1.001998486769230e+01
0	 6.312499999999998e+00	 8.687499999999996e+00	 1.001798725846153e+01
0	 6.312500000000000e+00	 8.750000000000002e+00	 1.001593761538460e+01
0	 6.374999999999999e+00	 8.125000000000000e+00	 1.003372547692307e+01
0	 6.374999999999999e+00	 8.187499999999998e+00	 1.003216677230770e+01
0	 6.375000000000000e+00	 8.250000000000000e+00	 1.003055679999998e+01
0	 6.374999999999998e+00	 8.312500000000000e+00	 1.002889555999998e+01
0	 6.374999999999998e+00	 8.374999999999998e+00	 1.002718305230769e+01
0	 6.375000000000000e+00	 8.437499999999998e+00	 1.002541927692308e+01
0	 6.374999999999997e+00	 8.499999999999996e+00	 1.002360423384616e+01
0	 6.375000000000000e+00	 8.562500000000002e+00	 1.002173792307693e+01
0	 6.374999999999999e+00	 8.624999999999998e+00	 1.001982034461539e+01
0	 6.375000000000001e+00	 8.687499999999998e+00	 1.001785149846155e+01
0	 6.374999999999999e+00	 8.750000000000000e+00	 1.001583138461534e+01
0	 6.437499999999998e+00	 8.125000000000000e+00	 1.003331578461538e+01
0	 6.437499999999999e+00	 8.187500000000000e+00	 1.003178020923079e+01
0	 6.437500000000000e+00	 8.250000000000002e+00	 1.003019413230769e+01
0	 6.437500000000000e+00	 8.312499999999998e+00	 1.002855755384617e+01
0	 6.437499999999999e+00	 8.374999999999998e+00	 1.002687047384615e+01
0	 6.437499999999998e+00	 8.437500000000000e+00	 1.002513289230768e+01
0	 6.437499999999999e+00	 8.499999999999998e+00	 1.002334480923076e+01
0	 6.437499999999999e+00	 8.562500000000000e+00	 1.002150622461537e+01
0	 6.437499999999999e+00	 8.625000000000000e+00	 1.001961713846152e+01
0	 6.437499999999998e+00	 8.687499999999996e+00	 1.001767755076922e+01
0	 6.437499999999998e+00	 8.750000000000000e+00	 1.001568746153844e+01
0	 6.499999999999999e+00	 8.125000000000000e+00	 1.003286344615384e+01
0	 6.499999999999997e+00	 8.187499999999998e+00	 1.003135149538460e+01
0	 6.500000000000000e+00	 8.250000000000002e+00	 1.002978980923077e+01
0	 6.499999999999998e+00	 8.312500000000000e+00	 1.002817838769230e+01
0	 6.499999999999998e+00	 8.374999999999998e+00	 1.002651723076923e+01
0	 6.500000000000000e+00	 8.437500000000000e+00	 1.002480633846153e+01
0	 6.499999999999997e+00	 8.499999999999998e+00	 1.002304571076920e+01
0	 6.499999999999999e+00	 8.562499999999998e+00	 1.002123534769231e+01
0	 6.499999999999999e+00	 8.624999999999998e+00	 1.001937524923074e+01
0	 6.499999999999999e+00	 8.687499999999996e+00	 1.001746541538459e+01
0	 6.499999999999999e+00	 8.749999999999998e+00	 1.001550584615383e+01
0	 6.562499999999998e+00	 8.125000000000000e+00	 1.003236846153846e+01
0	 6.562499999999999e+00	 8.187499999999998e+00	 1.003088063076920e+01
0	 6.562499999999999e+00	 8.249999999999998e+00	 1.002934383076924e+01
0	 6.562499999999999e+00	 8.312500000000000e+00	 1.002775806153846e+01
0	 6.562499999999996e+00	 8.374999999999998e+00	 1.002612332307692e+01
0	 6.562499999999999e+00	 8.437499999999998e+00	 1.002443961538460e+01
0	 6.562500000000000e+00	 8.500000000000002e+00	 1.002270693846152e+01
0	 6.562499999999999e+00	 8.562499999999998e+00	 1.002092529230767e+01
0	 6.562499999999999e+00	 8.624999999999998e+00	 1.001909467692308e+01
0	 6.562500000000000e+00	 8.687500000000000e+00	 1.001721509230765e+01
0	 6.562499999999998e+00	 8.750000000000000e+00	 1.001528653846153e+01
0	 6.624999999999998e+00	 8.125000000000000e+00	 1.003183083076924e+01
0	 6.624999999999998e+00	 8.187500000000000e+00	 1.003036761538461e+01
0	 6.624999999999997e+00	 8.249999999999998e+00	 1.002885619692308e+01
0	 6.624999999999999e+00	 8.312500000000000e+00	 1.002729657538461e+01
0	 6.625000000000000e+00	 8.375000000000002e+00	 1.002568875076923e+01
0	 6.625000000000001e+00	 8.437500000000002e+00	 1.002403272307692e+01
0	 6.624999999999998e+00	 8.499999999999998e+00	 1.002232849230768e+01
0	 6.624999999999999e+00	 8.562500000000000e+00	 1.002057605846155e+01
0	 6.624999999999999e+00	 8.624999999999998e+00	 1.001877542153846e+01
0	 6.624999999999999e+00	 8.687499999999998e+00	 1.001692658153844e+01
0	 6.624999999999998e+00	 8.750000000000000e+00	 1.001502953846153e+01
0	 6.687499999999996e+00	 8.125000000000000e+00	 1.003125055384615e+01
0	 6.687499999999997e+00	 8.187500000000000e+00	 1.002981244923077e+01
0	 6.687499999999998e+00	 8.250000000000000e+00	 1.002832690769229e+01
0	 6.687499999999998e+00	 8.312500000000000e+00	 1.002679392923075e+01
0	 6.687499999999999e+00	 8.374999999999998e+00	 1.002521351384615e+01
0	 6.687499999999999e+00	 8.437500000000000e+00	 1.002358566153845e+01
0	 6.687499999999999e+00	 8.500000000000000e+00	 1.002191037230767e+01
0	 6.687499999999999e+00	 8.562499999999998e+00	 1.002018764615384e+01
0	 6.687499999999999e+00	 8.624999999999998e+00	 1.001841748307690e+01
0	 6.687499999999999e+00	 8.687500000000000e+00	 1.001659988307692e+01
0	 6.687499999999996e+00	 8.750000000000000e+00	 1.001473484615384e+01
0	 6.749999999999998e+00	 8.125000000000000e+00	 1.003062763076924e+01
0	 6.749999999999999e+00	 8.187500000000002e+00	 1.002921513230768e+01
0	 6.749999999999998e+00	 8.250000000000000e+00	 1.002775596307693e+01
0	 6.750000000000000e+00	 8.312500000000000e+00	 1.002625012307694e+01
0	 6.749999999999999e+00	 8.375000000000002e+00	 1.002469761230770e+01
0	 6.749999999999998e+00	 8.437500000000000e+00	 1.002309843076923e+01
0	 6.749999999999998e+00	 8.500000000000000e+00	 1.002145257846154e+01
0	 6.749999999999998e+00	 8.562499999999996e+00	 1.001976005538462e+01
0	 6.750000000000000e+00	 8.624999999999998e+00	 1.001802086153845e+01
0	 6.749999999999999e+00	 8.687499999999998e+00	 1.001623499692306e+01
0	 6.749999999999998e+00	 8.750000000000002e+00	 1.001440246153846e+01
0	 6.812499999999998e+00	 8.125000000000000e+00	 1.002996206153846e+01
0	 6.812499999999998e+00	 8.187500000000000e+00	 1.002857566461539e+01
0	 6.812499999999999e+00	 8.250000000000002e+00	 1.002714336307694e+01
0	 6.812499999999998e+00	 8.312499999999998e+00	 1.002566515692309e+01
0	 6.812499999999998e+00	 8.374999999999998e+00	 1.002414104615384e+01
0	 6.812499999999998e+00	 8.437499999999998e+00	 1.002257103076922e+01
0	 6.812499999999997e+00	 8.499999999999998e+00	 1.002095511076921e+01
0	 6.812499999999998e+00	 8.562499999999998e+00	 1.001929328615384e+01
0	 6.812499999999997e+00	 8.624999999999998e+00	 1.001758555692308e+01
0	 6.812499999999997e+00	 8.687499999999998e+00	 1.001583192307691e+01
0	 6.812499999999998e+00	 8.750000000000000e+00	 1.001403238461539e+01
0	 6.875000000000000e+00	 8.125000000000000e+00	 1.002925384615384e+01
0	 6.875000000000000e+00	 8.187500000000000e+00	 1.002789404615385e+01
0	 6.875000000000000e+00	 8.250000000000002e+00	 1.002648910769229e+01
0	 6.875000000000000e+00	 8.312500000000000e+00	 1.002503903076921e+01
0	 6.875000000000000e+00	 8.374999999999998e+00	 1.002354381538460e+01
0	 6.875000000000000e+00	 8.437500000000000e+00	 1.002200346153847e+01
0	 6.875000000000000e+00	 8.500000000000000e+00	 1.002041796923077e+01
0	 6.875000000000000e+00	 8.562499999999998e+00	 1.001878733846152e+01
0	 6.875000000000000e+00	 8.625000000000000e+00	 1.001711156923077e+01
0	 6.875000000000000e+00	 8.687499999999998e+00	 1.001539066153844e+01
0	 6.875000000000000e+00	 8.750000000000000e+00	 1.001362461538460e+01
0	 6.250000000000000e+00	 8.750000000000000e+00	 1.001600615384615e+01
0	 6.250000000000001e+00	 8.812500000000000e+00	 1.001505718461539e+01
0	 6.250000000000001e+00	 8.875000000000002e+00	 1.001402966153846e+01
0	 6.250000000000000e+00	 8.937499999999998e+00	 1.001292358461538e+01
0	 6.250000000000001e+00	 9.000000000000000e+00	 1.001173895384615e+01
0	 6.250000000000000e+00	 9.062500000000000e+00	 1.001047576923077e+01
0	 6.250000000000000e+00	 9.124999999999998e+00	 1.000913403076923e+01
0	 6.250000000000000e+00	 9.187499999999998e+00	 1.000771373846152e+01
0	 6.250000000000001e+00	 9.249999999999998e+00	 1.000621489230769e+01
0	 6.250000000000000e+00	 9.312499999999998e+00	 1.000463749230769e+01
0	 6.250000000000000e+00	 9.375000000000000e+00	 1.000298153846154e+01
0	 6.312500000000000e+00	 8.750000000000002e+00	 1.001593761538460e+01
0	 6.312499999999999e+00	 8.812499999999998e+00	 1.001500401230770e+01
0	 6.312499999999999e+00	 8.875000000000000e+00	 1.001399285230767e+01
0	 6.312499999999999e+00	 8.937500000000000e+00	 1.001290413538463e+01
0	 6.312499999999999e+00	 9.000000000000000e+00	 1.001173786153846e+01
0	 6.312500000000002e+00	 9.062500000000000e+00	 1.001049403076922e+01
0	 6.312500000000001e+00	 9.125000000000000e+00	 1.000917264307692e+01
0	 6.312500000000000e+00	 9.187499999999998e+00	 1.000777369846154e+01
0	 6.312500000000001e+00	 9.250000000000000e+00	 1.000629719692308e+01
0	 6.312499999999998e+00	 9.312499999999996e+00	 1.000474313846154e+01
0	 6.312500000000000e+00	 9.375000000000000e+00	 1.000311152307694e+01
0	 6.374999999999999e+00	 8.750000000000000e+00	 1.001583138461534e+01
0	 6.374999999999999e+00	 8.812500000000000e+00	 1.001491297538463e+01
0	 6.375000000000000e+00	 8.875000000000004e+00	 1.001391800615384e+01
0	 6.374999999999998e+00	 8.937500000000000e+00	 1.001284647692308e+01
0	 6.374999999999998e+00	 8.999999999999998e+00	 1.001169838769232e+01
0	 6.375000000000000e+00	 9.062500000000000e+00	 1.001047373846154e+01
0	 6.374999999999997e+00	 9.124999999999998e+00	 1.000917252923077e+01
0	 6.375000000000000e+00	 9.187500000000002e+00	 1.000779476000000e+01
0	 6.374999999999999e+00	 9.249999999999996e+00	 1.000634043076921e+01
0	 6.375000000000001e+00	 9.312499999999998e+00	 1.000480954153845e+01
0	 6.374999999999999e+00	 9.375000000000000e+00	 1.000320209230770e+01
0	 6.437499999999998e+00	 8.750000000000000e+00	 1.001568746153844e+01
0	 6.437499999999999e+00	 8.812500000000000e+00	 1.001478407384615e+01
0	 6.437500000000000e+00	 8.875000000000002e+00	 1.001380512307692e+01
0	 6.437500000000000e+00	 8.937500000000000e+00	 1.001275060923077e+01
0	 6.437499999999999e+00	 9.000000000000000e+00	 1.001162053230770e+01
0	 6.437499999999998e+00	 9.062499999999998e+00	 1.001041489230770e+01
0	 6.437499999999999e+00	 9.124999999999998e+00	 1.000913368923078e+01
0	 6.437499999999999e+00	 9.187500000000002e+00	 1.000777692307694e+01
0	 6.437499999999999e+00	 9.249999999999998e+00	 1.000634459384615e+01
0	 6.437499999999998e+00	 9.312499999999998e+00	 1.000483670153847e+01
0	 6.437499999999998e+00	 9.375000000000002e+00	 1.000325324615386e+01
0	 6.499999999999999e+00	 8.749999999999998e+00	 1.001550584615383e+01
0	 6.499999999999997e+00	 8.812500000000000e+00	 1.001461730769230e+01
0	 6.500000000000000e+00	 8.875000000000002e+00	 1.001365420307691e+01
0	 6.499999999999998e+00	 8.937500000000000e+00	 1.001261653230768e+01
0	 6.499999999999998e+00	 8.999999999999998e+00	 1.001150429538460e+01
0	 6.500000000000000e+00	 9.062500000000000e+00	 1.001031749230770e+01
0	 6.499999999999997e+00	 9.124999999999998e+00	 1.000905612307692e+01
0	 6.499999999999999e+00	 9.187500000000000e+00	 1.000772018769231e+01
0	 6.499999999999999e+00	 9.249999999999998e+00	 1.000630968615384e+01
0	 6.499999999999999e+00	 9.312500000000000e+00	 1.000482461846157e+01
0	 6.499999999999999e+00	 9.375000000000002e+00	 1.000326498461539e+01
0	 6.562499999999998e+00	 8.750000000000000e+00	 1.001528653846153e+01
0	 6.562499999999999e+00	 8.812500000000000e+00	 1.001441267692310e+01
0	 6.562499999999999e+00	 8.875000000000000e+00	 1.001346524615383e+01
0	 6.562499999999999e+00	 8.937500000000000e+00	 1.001244424615386e+01
0	 6.562499999999996e+00	 8.999999999999998e+00	 1.001134967692307e+01
0	 6.562499999999999e+00	 9.062500000000000e+00	 1.001018153846154e+01
0	 6.562500000000000e+00	 9.125000000000002e+00	 1.000893983076923e+01
0	 6.562499999999999e+00	 9.187499999999998e+00	 1.000762455384617e+01
0	 6.562499999999999e+00	 9.249999999999998e+00	 1.000623570769230e+01
0	 6.562500000000000e+00	 9.312500000000000e+00	 1.000477329230771e+01
0	 6.562499999999998e+00	 9.375000000000002e+00	 1.000323730769229e+01
0	 6.624999999999998e+00	 8.750000000000000e+00	 1.001502953846153e+01
0	 6.624999999999998e+00	 8.812500000000000e+00	 1.001417018153845e+01
0	 6.624999999999997e+00	 8.874999999999996e+00	 1.001323825230767e+01
0	 6.624999999999999e+00	 8.937499999999998e+00	 1.001223375076921e+01
0	 6.625000000000000e+00	 9.000000000000004e+00	 1.001115667692306e+01
0	 6.625000000000001e+00	 9.062500000000002e+00	 1.001000703076921e+01
0	 6.624999999999998e+00	 9.124999999999998e+00	 1.000878481230769e+01
0	 6.624999999999999e+00	 9.187500000000000e+00	 1.000749002153845e+01
0	 6.624999999999999e+00	 9.249999999999998e+00	 1.000612265846152e+01
0	 6.624999999999999e+00	 9.312499999999998e+00	 1.000468272307693e+01
0	 6.624999999999998e+00	 9.375000000000000e+00	 1.000317021538461e+01
0	 6.687499999999996e+00	 8.750000000000000e+00	 1.001473484615384e+01
0	 6.687499999999997e+00	 8.812499999999998e+00	 1.001388982153846e+01
0	 6.687499999999998e+00	 8.875000000000002e+00	 1.001297322153846e+01
0	 6.687499999999998e+00	 8.937500000000002e+00	 1.001198504615385e+01
0	 6.687499999999999e+00	 8.999999999999998e+00	 1.001092529538461e+01
0	 6.687499999999999e+00	 9.062500000000000e+00	 1.000979396923077e+01
0	 6.687499999999999e+00	 9.125000000000000e+00	 1.000859106769228e+01
0	 6.687499999999999e+00	 9.187500000000000e+00	 1.000731659076925e+01
0	 6.687499999999999e+00	 9.249999999999998e+00	 1.000597053846154e+01
0	 6.687499999999999e+00	 9.312500000000000e+00	 1.000455291076924e+01
0	 6.687499999999996e+00	 9.375000000000000e+00	 1.000306370769230e+01
0	 6.749999999999998e+00	 8.750000000000002e+00	 1.001440246153846e+01
0	 6.749999999999999e+00	 8.812500000000002e+00	 1.001357159692308e+01
0	 6.749999999999998e+00	 8.875000000000000e+00	 1.001267015384614e+01
0	 6.750000000000000e+00	 8.937500000000002e+00	 1.001169813230770e+01
0	 6.749999999999999e+00	 8.999999999999998e+00	 1.001065553230769e+01
0	 6.749999999999998e+00	 9.062499999999998e+00	 1.000954235384615e+01
0	 6.749999999999998e+00	 9.125000000000000e+00	 1.000835859692306e+01
0	 6.749999999999998e+00	 9.187499999999998e+00	 1.000710426153845e+01
0	 6.750000000000000e+00	 9.250000000000000e+00	 1.000577934769231e+01
0	 6.749999999999999e+00	 9.312499999999998e+00	 1.000438385538463e+01
0	 6.749999999999998e+00	 9.375000000000000e+00	 1.000291778461539e+01
0	 6.812499999999998e+00	 8.750000000000000e+00	 1.001403238461539e+01
0	 6.812499999999998e+00	 8.812500000000000e+00	 1.001321550769230e+01
0	 6.812499999999999e+00	 8.875000000000002e+00	 1.001232904923076e+01
0	 6.812499999999998e+00	 8.937500000000000e+00	 1.001137300923076e+01
0	 6.812499999999998e+00	 9.000000000000000e+00	 1.001034738769229e+01
0	 6.812499999999998e+00	 9.062500000000000e+00	 1.000925218461538e+01
0	 6.812499999999997e+00	 9.125000000000000e+00	 1.000808739999998e+01
0	 6.812499999999998e+00	 9.187499999999998e+00	 1.000685303384614e+01
0	 6.812499999999997e+00	 9.249999999999998e+00	 1.000554908615385e+01
0	 6.812499999999997e+00	 9.312499999999996e+00	 1.000417555692309e+01
0	 6.812499999999998e+00	 9.375000000000000e+00	 1.000273244615387e+01
0	 6.875000000000000e+00	 8.750000000000000e+00	 1.001362461538460e+01
0	 6.875000000000000e+00	 8.812500000000000e+00	 1.001282155384614e+01
0	 6.875000000000000e+00	 8.875000000000002e+00	 1.001194990769231e+01
0	 6.875000000000000e+00	 8.937499999999998e+00	 1.001100967692306e+01
0	 6.875000000000000e+00	 9.000000000000000e+00	 1.001000086153847e+01
0	 6.875000000000000e+00	 9.062500000000000e+00	 1.000892346153845e+01
0	 6.875000000000000e+00	 9.124999999999998e+00	 1.000777747692306e+01
0	 6.875000000000000e+00	 9.187499999999998e+00	 1.000656290769230e+01
0	 6.875000000000000e+00	 9.249999999999998e+00	 1.000527975384614e+01
0	 6.875000000000000e+00	 9.312499999999998e+00	 1.000392801538462e+01
0	 6.875000000000000e+00	 9.375000000000000e+00	 1.000250769230770e+01
0	 6.250000000000000e+00	 9.375000000000000e+00	 1.000298153846154e+01
0	 6.250000000000000e+00	 9.437499999999998e+00	 1.000296821538461e+01
0	 6.249999999999999e+00	 9.500000000000000e+00	 1.000284024615384e+01
0	 6.249999999999999e+00	 9.562500000000000e+00	 1.000259763076923e+01
0	 6.250000000000000e+00	 9.625000000000000e+00	 1.000224036923075e+01
0	 6.250000000000000e+00	 9.687499999999998e+00	 1.000176846153845e+01
0	 6.250000000000000e+00	 9.749999999999998e+00	 1.000118190769231e+01
0	 6.250000000000000e+00	 9.812500000000000e+00	 1.000048070769230e+01
0	 6.250000000000001e+00	 9.875000000000000e+00	 9.999664861538429e+00
0	 6.250000000000000e+00	 9.937499999999998e+00	 9.998734369230762e+00
0	 6.250000000000000e+00	 1.000000000000000e+01	 9.997689230769220e+00
0	 6.312500000000000e+00	 9.375000000000000e+00	 1.000311152307694e+01
0	 6.312500000000001e+00	 9.437500000000002e+00	 1.000310461538464e+01
0	 6.312499999999996e+00	 9.500000000000000e+00	 1.000298475076925e+01
0	 6.312499999999999e+00	 9.562500000000000e+00	 1.000275192923076e+01
0	 6.312500000000000e+00	 9.625000000000000e+00	 1.000240615076925e+01
0	 6.312500000000001e+00	 9.687500000000000e+00	 1.000194741538462e+01
0	 6.312500000000002e+00	 9.749999999999998e+00	 1.000137572307693e+01
0	 6.312500000000000e+00	 9.812499999999998e+00	 1.000069107384611e+01
0	 6.312500000000000e+00	 9.874999999999998e+00	 9.999893467692331e+00
0	 6.312499999999999e+00	 9.937499999999996e+00	 9.998982904615406e+00
0	 6.312500000000001e+00	 1.000000000000000e+01	 9.997959384615353e+00
0	 6.374999999999999e+00	 9.375000000000000e+00	 1.000320209230770e+01
0	 6.374999999999997e+00	 9.437499999999998e+00	 1.000320037230768e+01
0	 6.375000000000000e+00	 9.500000000000000e+00	 1.000308738461538e+01
0	 6.374999999999998e+00	 9.562500000000000e+00	 1.000286312923077e+01
0	 6.375000000000000e+00	 9.625000000000002e+00	 1.000252760615384e+01
0	 6.375000000000000e+00	 9.687500000000002e+00	 1.000208081538460e+01
0	 6.375000000000000e+00	 9.750000000000000e+00	 1.000152275692305e+01
0	 6.375000000000001e+00	 9.812500000000002e+00	 1.000085343076925e+01
0	 6.375000000000000e+00	 9.874999999999996e+00	 1.000007283692304e+01
0	 6.375000000000001e+00	 9.937500000000000e+00	 9.999180975384618e+00
0	 6.374999999999999e+00	 1.000000000000000e+01	 9.998177846153812e+00
0	 6.437499999999998e+00	 9.375000000000002e+00	 1.000325324615386e+01
0	 6.437499999999999e+00	 9.437500000000000e+00	 1.000325548615385e+01
0	 6.437499999999998e+00	 9.499999999999996e+00	 1.000314814769230e+01
0	 6.437500000000001e+00	 9.562500000000000e+00	 1.000293123076924e+01
0	 6.437499999999999e+00	 9.624999999999998e+00	 1.000260473538462e+01
0	 6.437500000000000e+00	 9.687500000000000e+00	 1.000216866153849e+01
0	 6.437499999999998e+00	 9.749999999999996e+00	 1.000162300923075e+01
0	 6.437499999999999e+00	 9.812499999999996e+00	 1.000096777846151e+01
0	 6.437499999999999e+00	 9.875000000000000e+00	 1.000020296923073e+01
0	 6.437499999999999e+00	 9.937499999999998e+00	 9.999328581538416e+00
0	 6.437499999999999e+00	 1.000000000000000e+01	 9.998344615384642e+00
0	 6.499999999999999e+00	 9.375000000000002e+00	 1.000326498461539e+01
0	 6.499999999999999e+00	 9.437500000000000e+00	 1.000326995692308e+01
0	 6.499999999999999e+00	 9.500000000000004e+00	 1.000316703999998e+01
0	 6.499999999999999e+00	 9.562500000000000e+00	 1.000295623384615e+01
0	 6.499999999999998e+00	 9.624999999999998e+00	 1.000263753846151e+01
0	 6.500000000000000e+00	 9.687499999999998e+00	 1.000221095384615e+01
0	 6.499999999999999e+00	 9.750000000000000e+00	 1.000167647999999e+01
0	 6.499999999999998e+00	 9.812499999999996e+00	 1.000103411692305e+01
0	 6.500000000000000e+00	 9.874999999999998e+00	 1.000028386461536e+01
0	 6.499999999999999e+00	 9.937499999999996e+00	 9.999425723076925e+00
0	 6.499999999999999e+00	 1.000000000000000e+01	 9.998459692307666e+00
0	 6.562499999999998e+00	 9.375000000000002e+00	 1.000323730769229e+01
0	 6.562499999999999e+00	 9.437499999999998e+00	 1.000324378461537e+01
0	 6.562499999999999e+00	 9.499999999999998e+00	 1.000314406153844e+01
0	 6.562499999999999e+00	 9.562500000000000e+00	 1.000293813846154e+01
0	 6.562499999999997e+00	 9.624999999999998e+00	 1.000262601538461e+01
0	 6.562499999999998e+00	 9.687500000000000e+00	 1.000220769230771e+01
0	 6.562499999999999e+00	 9.750000000000000e+00	 1.000168316923078e+01
0	 6.562499999999999e+00	 9.812499999999998e+00	 1.000105244615382e+01
0	 6.562499999999999e+00	 9.874999999999998e+00	 1.000031552307692e+01
0	 6.562499999999999e+00	 9.937499999999998e+00	 9.999472399999989e+00
0	 6.562499999999999e+00	 1.000000000000000e+01	 9.998523076923053e+00
0	 6.624999999999998e+00	 9.375000000000000e+00	 1.000317021538461e+01
0	 6.624999999999999e+00	 9.437499999999998e+00	 1.000317696923078e+01
0	 6.625000000000000e+00	 9.500000000000000e+00	 1.000307921230768e+01
0	 6.624999999999998e+00	 9.562500000000000e+00	 1.000287694461537e+01
0	 6.624999999999999e+00	 9.625000000000000e+00	 1.000257016615384e+01
0	 6.624999999999999e+00	 9.687499999999998e+00	 1.000215887692307e+01
0	 6.625000000000000e+00	 9.749999999999998e+00	 1.000164307692306e+01
0	 6.624999999999997e+00	 9.812499999999996e+00	 1.000102276615380e+01
0	 6.624999999999998e+00	 9.874999999999998e+00	 1.000029794461534e+01
0	 6.625000000000000e+00	 9.937499999999998e+00	 9.999468612307680e+00
0	 6.624999999999998e+00	 9.999999999999998e+00	 9.998534769230766e+00
0	 6.687499999999996e+00	 9.375000000000000e+00	 1.000306370769230e+01
0	 6.687499999999998e+00	 9.437499999999998e+00	 1.000306951076923e+01
0	 6.687499999999998e+00	 9.499999999999998e+00	 1.000297249230769e+01
0	 6.687499999999998e+00	 9.562500000000002e+00	 1.000277265230769e+01
0	 6.687499999999998e+00	 9.624999999999998e+00	 1.000246999076922e+01
0	 6.687499999999998e+00	 9.687500000000000e+00	 1.000206450769229e+01
0	 6.687500000000000e+00	 9.750000000000000e+00	 1.000155620307687e+01
0	 6.687499999999998e+00	 9.812500000000000e+00	 1.000094507692305e+01
0	 6.687499999999998e+00	 9.874999999999998e+00	 1.000023112923071e+01
0	 6.687500000000000e+00	 9.937499999999998e+00	 9.999414359999978e+00
0	 6.687499999999999e+00	 1.000000000000000e+01	 9.998494769230778e+00
0	 6.749999999999998e+00	 9.375000000000000e+00	 1.000291778461539e+01
0	 6.749999999999999e+00	 9.437500000000002e+00	 1.000292140923078e+01
0	 6.749999999999999e+00	 9.500000000000000e+00	 1.000282390153846e+01
0	 6.749999999999998e+00	 9.562500000000002e+00	 1.000262526153846e+01
0	 6.749999999999997e+00	 9.624999999999998e+00	 1.000232548923075e+01
0	 6.749999999999998e+00	 9.687499999999998e+00	 1.000192458461535e+01
0	 6.749999999999999e+00	 9.750000000000000e+00	 1.000142254769229e+01
0	 6.749999999999999e+00	 9.812499999999998e+00	 1.000081937846153e+01
0	 6.749999999999999e+00	 9.874999999999998e+00	 1.000011507692302e+01
0	 6.749999999999999e+00	 9.937499999999998e+00	 9.999309643076892e+00
0	 6.749999999999998e+00	 1.000000000000000e+01	 9.998403076923040e+00
0	 6.812499999999998e+00	 9.375000000000000e+00	 1.000273244615387e+01
0	 6.812499999999997e+00	 9.437500000000000e+00	 1.000273266461539e+01
0	 6.812499999999998e+00	 9.499999999999998e+00	 1.000263344000001e+01
0	 6.812499999999999e+00	 9.562500000000000e+00	 1.000243477230770e+01
0	 6.812499999999999e+00	 9.624999999999998e+00	 1.000213666153847e+01
0	 6.812499999999998e+00	 9.687499999999996e+00	 1.000173910769227e+01
0	 6.812499999999998e+00	 9.749999999999998e+00	 1.000124211076920e+01
0	 6.812499999999998e+00	 9.812499999999998e+00	 1.000064567076919e+01
0	 6.812499999999998e+00	 9.874999999999996e+00	 9.999949787692298e+00
0	 6.812499999999998e+00	 9.937499999999998e+00	 9.999154461538437e+00
0	 6.812499999999998e+00	 1.000000000000000e+01	 9.998259692307599e+00
0	 6.875000000000000e+00	 9.375000000000000e+00	 1.000250769230770e+01
0	 6.875000000000001e+00	 9.437499999999998e+00	 1.000250327692308e+01
0	 6.874999999999999e+00	 9.500000000000000e+00	 1.000240110769231e+01
0	 6.874999999999999e+00	 9.562500000000000e+00	 1.000220118461538e+01
0	 6.875000000000001e+00	 9.625000000000000e+00	 1.000190350769229e+01
0	 6.875000000000001e+00	 9.687499999999998e+00	 1.000150807692307e+01
0	 6.875000000000000e+00	 9.749999999999998e+00	 1.000101489230769e+01
0	 6.875000000000000e+00	 9.812500000000000e+00	 1.000042395384613e+01
0	 6.875000000000001e+00	 9.875000000000000e+00	 9.999735261538419e+00
0	 6.875000000000000e+00	 9.937499999999998e+00	 9.998948815384592e+00
0	 6.875000000000000e+00	 1.000000000000000e+01	 9.998064615384589e+00
0	 6.875000000000000e+00	 0.000000000000000e+00	 1.009369415384615e+01
0	 6.875000000000001e+00	 6.250000000000000e-02	 1.009483090769231e+01
0	 6.875000000000000e+00	 1.250000000000000e-01	 1.009583953846154e+01
0	 6.875000000000000e+00	 1.875000000000000e-01	 1.009672004615384e+01
0	 6.875000000000000e+00	 2.500000000000000e-01	 1.009747243076923e+01
0	 6.875000000000000e+00	 3.125000000000000e-01	 1.009809669230769e+01
0	 6.875000000000000e+00	 3.750000000000000e-01	 1.009859283076923e+01
0	 6.875000000000000e+00	 4.374999999999999e-01	 1.009896084615385e+01
0	 6.875000000000002e+00	 5.000000000000000e-01	 1.009920073846154e+01
0	 6.875000000000000e+00	 5.624999999999999e-01	 1.009931250769230e+01
0	 6.875000000000000e+00	 6.250000000000000e-01	 1.009929615384616e+01
0	 6.937500000000000e+00	 0.000000000000000e+00	 1.008830372000000e+01
0	 6.937499999999999e+00	 6.249999999999999e-02	 1.008941251046154e+01
0	 6.937499999999998e+00	 1.250000000000000e-01	 1.009039638092308e+01
0	 6.937499999999998e+00	 1.875000000000000e-01	 1.009125533138462e+01
0	 6.937499999999997e+00	 2.500000000000000e-01	 1.009198936184615e+01
0	 6.937500000000000e+00	 3.125000000000001e-01	 1.009259847230770e+01
0	 6.937499999999999e+00	 3.749999999999999e-01	 1.009308266276923e+01
0	 6.937500000000000e+00	 4.374999999999999e-01	 1.009344193323077e+01
0	 6.937500000000001e+00	 5.000000000000000e-01	 1.009367628369231e+01
0	 6.937499999999999e+00	 5.625000000000000e-01	 1.009378571415385e+01
0	 6.937500000000000e+00	 6.250000000000000e-01	 1.009377022461539e+01
0	 6.999999999999999e+00	 0.000000000000000e+00	 1.008285328000000e+01
0	 7.000000000000001e+00	 6.250000000000000e-02	 1.008393510646154e+01
0	 6.999999999999999e+00	 1.250000000000000e-01	 1.008489521600000e+01
0	 6.999999999999999e+00	 1.875000000000000e-01	 1.008573360861538e+01
0	 7.000000000000000e+00	 2.500000000000001e-01	 1.008645028430769e+01
0	 7.000000000000000e+00	 3.125000000000000e-01	 1.008704524307692e+01
0	 6.999999999999999e+00	 3.749999999999999e-01	 1.008751848492308e+01
0	 7.000000000000000e+00	 4.375000000000000e-01	 1.008787000984616e+01
0	 7.000000000000001e+00	 4.999999999999999e-01	 1.008809981784615e+01
0	 6.999999999999999e+00	 5.625000000000000e-01	 1.008820790892307e+01
0	 6.999999999999999e+00	 6.249999999999999e-01	 1.008819428307693e+01
0	 7.062499999999999e+00	 0.000000000000000e+00	 1.007734283384615e+01
0	 7.062499999999998e+00	 6.250000000000000e-02	 1.007839869569231e+01
0	 7.062499999999998e+00	 1.250000000000000e-01	 1.007933604369230e+01
0	 7.062500000000001e+00	 1.875000000000001e-01	 1.008015487784615e+01
0	 7.062500000000001e+00	 2.500000000000001e-01	 1.008085519815385e+01
0	 7.062499999999998e+00	 3.125000000000000e-01	 1.008143700461538e+01
0	 7.062499999999998e+00	 3.749999999999999e-01	 1.008190029723076e+01
0	 7.062500000000000e+00	 4.374999999999999e-01	 1.008224507600000e+01
0	 7.062499999999997e+00	 4.999999999999999e-01	 1.008247134092308e+01
0	 7.062500000000001e+00	 5.625000000000001e-01	 1.008257909200000e+01
0	 7.062500000000000e+00	 6.249999999999999e-01	 1.008256832923076e+01
0	 7.125000000000000e+00	 0.000000000000000e+00	 1.007177238153846e+01
0	 7.124999999999997e+00	 6.250000000000000e-02	 1.007280327815384e+01
0	 7.124999999999997e+00	 1.250000000000000e-01	 1.007371886400000e+01
0	 7.124999999999997e+00	 1.875000000000000e-01	 1.007451913907692e+01
0	 7.124999999999998e+00	 2.500000000000000e-01	 1.007520410338462e+01
0	 7.125000000000000e+00	 3.125000000000000e-01	 1.007577375692308e+01
0	 7.125000000000000e+00	 3.750000000000000e-01	 1.007622809969230e+01
0	 7.125000000000000e+00	 4.375000000000000e-01	 1.007656713169230e+01
0	 7.124999999999997e+00	 4.999999999999999e-01	 1.007679085292307e+01
0	 7.124999999999999e+00	 5.625000000000000e-01	 1.007689926338462e+01
0	 7.125000000000000e+00	 6.250000000000001e-01	 1.007689236307692e+01
0	 7.187499999999998e+00	 0.000000000000000e+00	 1.006614192307693e+01
0	 7.187499999999999e+00	 6.249999999999998e-02	 1.006714885384615e+01
0	 7.187499999999999e+00	 1.250000000000000e-01	 1.006804367692308e+01
0	 7.187499999999998e+00	 1.875000000000000e-01	 1.006882639230769e+01
0	 7.187499999999998e+00	 2.499999999999999e-01	 1.006949700000000e+01
0	 7.187499999999998e+00	 3.125000000000000e-01	 1.007005550000000e+01
0	 7.187499999999999e+00	 3.750000000000000e-01	 1.007050189230769e+01
0	 7.187499999999998e+00	 4.375000000000000e-01	 1.007083617692308e+01
0	 7.187499999999997e+00	 4.999999999999999e-01	 1.007105835384615e+01
0	 7.187500000000002e+00	 5.625000000000001e-01	 1.007116842307692e+01
0	 7.187499999999998e+00	 6.250000000000000e-01	 1.007116638461539e+01
0	 7.249999999999999e+00	 0.000000000000000e+00	 1.006045145846153e+01
0	 7.249999999999998e+00	 6.249999999999999e-02	 1.006143542276923e+01
0	 7.249999999999999e+00	 1.250000000000000e-01	 1.006231048246154e+01
0	 7.250000000000000e+00	 1.875000000000001e-01	 1.006307663753845e+01
0	 7.249999999999999e+00	 2.500000000000001e-01	 1.006373388799999e+01
0	 7.249999999999999e+00	 3.125000000000001e-01	 1.006428223384615e+01
0	 7.249999999999999e+00	 3.749999999999999e-01	 1.006472167507692e+01
0	 7.250000000000000e+00	 4.375000000000000e-01	 1.006505221169231e+01
0	 7.249999999999998e+00	 4.999999999999998e-01	 1.006527384369230e+01
0	 7.249999999999998e+00	 5.624999999999999e-01	 1.006538657107692e+01
0	 7.249999999999998e+00	 6.250000000000001e-01	 1.006539039384615e+01
0	 7.312499999999999e+00	 0.000000000000000e+00	 1.005470098769231e+01
0	 7.312499999999999e+00	 6.250000000000000e-02	 1.005566298492307e+01
0	 7.312499999999997e+00	 1.250000000000000e-01	 1.005651928061539e+01
0	 7.312499999999998e+00	 1.875000000000000e-01	 1.005726987476923e+01
0	 7.312499999999999e+00	 2.500000000000000e-01	 1.005791476738461e+01
0	 7.312499999999998e+00	 3.125000000000001e-01	 1.005845395846154e+01
0	 7.312499999999998e+00	 3.750000000000000e-01	 1.005888744800000e+01
0	 7.312499999999998e+00	 4.375000000000000e-01	 1.005921523600000e+01
0	 7.312499999999999e+00	 4.999999999999999e-01	 1.005943732246153e+01
0	 7.312499999999999e+00	 5.625000000000000e-01	 1.005955370738461e+01
0	 7.312499999999997e+00	 6.249999999999999e-01	 1.005956439076923e+01
0	 7.374999999999998e+00	 0.000000000000000e+00	 1.004889051076923e+01
0	 7.374999999999999e+00	 6.249999999999999e-02	 1.004983154030769e+01
0	 7.375000000000000e+00	 1.250000000000000e-01	 1.005067007138462e+01
0	 7.374999999999999e+00	 1.875000000000001e-01	 1.005140610399999e+01
0	 7.374999999999996e+00	 2.500000000000000e-01	 1.005203963815385e+01
0	 7.374999999999996e+00	 3.124999999999999e-01	 1.005257067384615e+01
0	 7.374999999999998e+00	 3.749999999999999e-01	 1.005299921107693e+01
0	 7.374999999999998e+00	 4.375000000000000e-01	 1.005332524984615e+01
0	 7.374999999999999e+00	 4.999999999999999e-01	 1.005354879015384e+01
0	 7.374999999999998e+00	 5.625000000000000e-01	 1.005366983200000e+01
0	 7.374999999999998e+00	 6.250000000000000e-01	 1.005368837538462e+01
0	 7.437499999999998e+00	 0.000000000000000e+00	 1.004302002769231e+01
0	 7.437499999999999e+00	 6.250000000000000e-02	 1.004394108892308e+01
0	 7.437499999999998e+00	 1.250000000000000e-01	 1.004476285476922e+01
0	 7.437499999999999e+00	 1.875000000000000e-01	 1.004548532523077e+01
0	 7.437499999999996e+00	 2.499999999999999e-01	 1.004610850030769e+01
0	 7.437499999999998e+00	 3.125000000000000e-01	 1.004663237999999e+01
0	 7.437499999999999e+00	 3.750000000000000e-01	 1.004705696430769e+01
0	 7.437499999999998e+00	 4.375000000000000e-01	 1.004738225323077e+01
0	 7.437499999999998e+00	 4.999999999999999e-01	 1.004760824676923e+01
0	 7.437499999999998e+00	 5.625000000000000e-01	 1.004773494492308e+01
0	 7.437499999999998e+00	 6.250000000000000e-01	 1.004776234769231e+01
0	 7.500000000000000e+00	 0.000000000000000e+00	 1.003708953846154e+01
0	 7.500000000000000e+00	 6.250000000000000e-02	 1.003799163076923e+01
0	 7.499999999999999e+00	 1.250000000000000e-01	 1.003879763076923e+01
0	 7.499999999999999e+00	 1.875000000000000e-01	 1.003950753846154e+01
0	 7.500000000000000e+00	 2.500000000000000e-01	 1.004012135384615e+01
0	 7.500000000000000e+00	 3.125000000000000e-01	 1.004063907692307e+01
0	 7.500000000000000e+00	 3.750000000000000e-01	 1.004106070769230e+01
0	 7.500000000000000e+00	 4.374999999999999e-01	 1.004138624615384e+01
0	 7.500000000000001e+00	 5.000000000000000e-01	 1.004161569230769e+01
0	 7.500000000000000e+00	 5.624999999999999e-01	 1.004174904615385e+01
0	 7.500000000000000e+00	 6.250000000000000e-01	 1.004178630769231e+01
0	 6.875000000000000e+00	 6.250000000000000e-01	 1.009929615384616e+01
0	 6.875000000000000e+00	 6.875000000000000e-01	 1.010131132307692e+01
0	 6.875000000000000e+00	 7.500000000000002e-01	 1.010322440000000e+01
0	 6.875000000000001e+00	 8.125000000000002e-01	 1.010503538461539e+01
0	 6.875000000000001e+00	 8.750000000000002e-01	 1.010674427692307e+01
0	 6.875000000000000e+00	 9.375000000000002e-01	 1.010835107692307e+01
0	 6.875000000000000e+00	 1.000000000000000e+00	 1.010985578461538e+01
0	 6.875000000000000e+00	 1.062500000000000e+00	 1.011125840000000e+01
0	 6.875000000000001e+00	 1.125000000000001e+00	 1.011255892307692e+01
0	 6.875000000000000e+00	 1.187500000000000e+00	 1.011375735384615e+01
0	 6.875000000000000e+00	 1.250000000000000e+00	 1.011485369230769e+01
0	 6.937500000000000e+00	 6.250000000000000e-01	 1.009377022461539e+01
0	 6.937500000000000e+00	 6.875000000000001e-01	 1.009571167984616e+01
0	 6.937500000000001e+00	 7.500000000000001e-01	 1.009755467969230e+01
0	 6.937500000000000e+00	 8.125000000000002e-01	 1.009929922415385e+01
0	 6.937500000000001e+00	 8.750000000000003e-01	 1.010094531323077e+01
0	 6.937500000000000e+00	 9.375000000000003e-01	 1.010249294692307e+01
0	 6.937500000000000e+00	 1.000000000000000e+00	 1.010394212523077e+01
0	 6.937500000000001e+00	 1.062500000000000e+00	 1.010529284815385e+01
0	 6.937500000000001e+00	 1.125000000000000e+00	 1.010654511569231e+01
0	 6.937499999999997e+00	 1.187500000000000e+00	 1.010769892784615e+01
0	 6.937500000000000e+00	 1.250000000000000e+00	 1.010875428461538e+01
0	 6.999999999999999e+00	 6.249999999999999e-01	 1.008819428307693e+01
0	 7.000000000000001e+00	 6.875000000000001e-01	 1.009006688553846e+01
0	 7.000000000000001e+00	 7.500000000000002e-01	 1.009184466953846e+01
0	 6.999999999999999e+00	 8.125000000000001e-01	 1.009352763507693e+01
0	 7.000000000000001e+00	 8.750000000000003e-01	 1.009511578215385e+01
0	 7.000000000000000e+00	 9.375000000000003e-01	 1.009660911076923e+01
0	 7.000000000000001e+00	 1.000000000000000e+00	 1.009800762092307e+01
0	 6.999999999999999e+00	 1.062500000000000e+00	 1.009931131261538e+01
0	 7.000000000000000e+00	 1.125000000000000e+00	 1.010052018584615e+01
0	 7.000000000000000e+00	 1.187500000000001e+00	 1.010163424061538e+01
0	 6.999999999999999e+00	 1.250000000000000e+00	 1.010265347692307e+01
0	 7.062500000000000e+00	 6.249999999999999e-01	 1.008256832923076e+01
0	 7.062499999999999e+00	 6.875000000000000e-01	 1.008437694015384e+01
0	 7.062499999999998e+00	 7.500000000000000e-01	 1.008609436953846e+01
0	 7.062499999999999e+00	 8.125000000000002e-01	 1.008772061738461e+01
0	 7.062499999999999e+00	 8.750000000000002e-01	 1.008925568369230e+01
0	 7.062500000000000e+00	 9.375000000000002e-01	 1.009069956846153e+01
0	 7.062499999999997e+00	 1.000000000000000e+00	 1.009205227169231e+01
0	 7.062500000000001e+00	 1.062500000000000e+00	 1.009331379338461e+01
0	 7.062500000000000e+00	 1.125000000000000e+00	 1.009448413353846e+01
0	 7.062500000000000e+00	 1.187500000000000e+00	 1.009556329215384e+01
0	 7.062500000000000e+00	 1.250000000000000e+00	 1.009655126923077e+01
0	 7.125000000000000e+00	 6.250000000000001e-01	 1.007689236307692e+01
0	 7.124999999999999e+00	 6.875000000000000e-01	 1.007864184369231e+01
0	 7.124999999999997e+00	 7.500000000000000e-01	 1.008030377969231e+01
0	 7.125000000000000e+00	 8.125000000000001e-01	 1.008187817107692e+01
0	 7.124999999999999e+00	 8.750000000000003e-01	 1.008336501784616e+01
0	 7.124999999999998e+00	 9.375000000000000e-01	 1.008476431999999e+01
0	 7.125000000000001e+00	 1.000000000000000e+00	 1.008607607753847e+01
0	 7.124999999999999e+00	 1.062500000000000e+00	 1.008730029046155e+01
0	 7.125000000000001e+00	 1.125000000000000e+00	 1.008843695876923e+01
0	 7.124999999999999e+00	 1.187500000000000e+00	 1.008948608246154e+01
0	 7.125000000000000e+00	 1.250000000000000e+00	 1.009044766153846e+01
0	 7.187499999999998e+00	 6.250000000000000e-01	 1.007116638461539e+01
0	 7.187499999999998e+00	 6.875000000000000e-01	 1.007286159615385e+01
0	 7.187499999999999e+00	 7.500000000000001e-01	 1.007447290000000e+01
0	 7.187500000000000e+00	 8.125000000000002e-01	 1.007600029615385e+01
0	 7.187499999999998e+00	 8.750000000000003e-01	 1.007744378461538e+01
0	 7.187499999999998e+00	 9.375000000000002e-01	 1.007880336538461e+01
0	 7.187500000000000e+00	 1.000000000000000e+00	 1.008007903846154e+01
0	 7.187499999999999e+00	 1.062500000000000e+00	 1.008127080384615e+01
0	 7.187499999999998e+00	 1.125000000000000e+00	 1.008237866153846e+01
0	 7.187500000000000e+00	 1.187500000000001e+00	 1.008340261153846e+01
0	 7.187499999999998e+00	 1.250000000000000e+00	 1.008434265384616e+01
0	 7.249999999999998e+00	 6.250000000000001e-01	 1.006539039384615e+01
0	 7.249999999999996e+00	 6.874999999999999e-01	 1.006703619753846e+01
0	 7.250000000000000e+00	 7.500000000000003e-01	 1.006860173046154e+01
0	 7.249999999999998e+00	 8.125000000000000e-01	 1.007008699261538e+01
0	 7.249999999999997e+00	 8.750000000000001e-01	 1.007149198400001e+01
0	 7.249999999999999e+00	 9.375000000000003e-01	 1.007281670461539e+01
0	 7.249999999999999e+00	 1.000000000000000e+00	 1.007406115446154e+01
0	 7.249999999999999e+00	 1.062500000000000e+00	 1.007522533353846e+01
0	 7.249999999999998e+00	 1.125000000000000e+00	 1.007630924184615e+01
0	 7.249999999999997e+00	 1.187500000000000e+00	 1.007731287938461e+01
0	 7.249999999999998e+00	 1.250000000000000e+00	 1.007823624615384e+01
0	 7.312499999999997e+00	 6.249999999999999e-01	 1.005956439076923e+01
0	 7.312499999999997e+00	 6.875000000000000e-01	 1.006116564784615e+01
0	 7.312500000000000e+00	 7.500000000000002e-01	 1.006269027107693e+01
0	 7.312499999999999e+00	 8.125000000000000e-01	 1.006413826046154e+01
0	 7.312500000000000e+00	 8.750000000000002e-01	 1.006550961600000e+01
0	 7.312500000000000e+00	 9.375000000000004e-01	 1.006680433769231e+01
0	 7.312499999999999e+00	 1.000000000000000e+00	 1.006802242553847e+01
0	 7.312499999999999e+00	 1.062500000000001e+00	 1.006916387953846e+01
0	 7.312499999999998e+00	 1.125000000000000e+00	 1.007022869969231e+01
0	 7.312500000000000e+00	 1.187500000000000e+00	 1.007121688600000e+01
0	 7.312499999999997e+00	 1.250000000000000e+00	 1.007212843846154e+01
0	 7.374999999999998e+00	 6.250000000000000e-01	 1.005368837538462e+01
0	 7.375000000000000e+00	 6.875000000000000e-01	 1.005524994707692e+01
0	 7.374999999999996e+00	 7.500000000000000e-01	 1.005673852184615e+01
0	 7.374999999999997e+00	 8.125000000000001e-01	 1.005815409969231e+01
0	 7.375000000000000e+00	 8.750000000000003e-01	 1.005949668061539e+01
0	 7.374999999999998e+00	 9.375000000000002e-01	 1.006076626461538e+01
0	 7.375000000000000e+00	 1.000000000000001e+00	 1.006196285169231e+01
0	 7.374999999999998e+00	 1.062500000000000e+00	 1.006308644184615e+01
0	 7.374999999999997e+00	 1.125000000000000e+00	 1.006413703507693e+01
0	 7.374999999999998e+00	 1.187500000000000e+00	 1.006511463138461e+01
0	 7.374999999999998e+00	 1.250000000000000e+00	 1.006601923076923e+01
0	 7.437499999999998e+00	 6.250000000000000e-01	 1.004776234769231e+01
0	 7.437499999999999e+00	 6.875000000000002e-01	 1.004928909523077e+01
0	 7.437499999999997e+00	 7.500000000000001e-01	 1.005074648276922e+01
0	 7.437499999999998e+00	 8.125000000000001e-01	 1.005213451030770e+01
0	 7.437499999999998e+00	 8.750000000000002e-01	 1.005345317784615e+01
0	 7.437499999999998e+00	 9.375000000000002e-01	 1.005470248538461e+01
0	 7.437499999999998e+00	 1.000000000000000e+00	 1.005588243292308e+01
0	 7.437499999999998e+00	 1.062500000000000e+00	 1.005699302046154e+01
0	 7.437499999999998e+00	 1.125000000000000e+00	 1.005803424800000e+01
0	 7.437499999999998e+00	 1.187500000000000e+00	 1.005900611553846e+01
0	 7.437499999999998e+00	 1.250000000000000e+00	 1.005990862307692e+01
0	 7.500000000000000e+00	 6.250000000000000e-01	 1.004178630769231e+01
0	 7.500000000000000e+00	 6.875000000000000e-01	 1.004328309230769e+01
0	 7.500000000000000e+00	 7.500000000000002e-01	 1.004471415384615e+01
0	 7.500000000000001e+00	 8.125000000000002e-01	 1.004607949230769e+01
0	 7.500000000000001e+00	 8.750000000000002e-01	 1.004737910769231e+01
0	 7.500000000000000e+00	 9.375000000000002e-01	 1.004861300000000e+01
0	 7.499999999999999e+00	 1.000000000000000e+00	 1.004978116923077e+01
0	 7.500000000000000e+00	 1.062500000000000e+00	 1.005088361538461e+01
0	 7.500000000000001e+00	 1.125000000000001e+00	 1.005192033846154e+01
0	 7.500000000000000e+00	 1.187500000000000e+00	 1.005289133846154e+01
0	 7.500000000000000e+00	 1.250000000000000e+00	 1.005379661538462e+01
0	 6.875000000000000e+00	 1.250000000000000e+00	 1.011485369230769e+01
0	 6.875000000000000e+00	 1.312500000000000e+00	 1.011697593846154e+01
0	 6.875000000000000e+00	 1.375000000000000e+00	 1.011906356923077e+01
0	 6.875000000000001e+00	 1.437500000000000e+00	 1.012111658461538e+01
0	 6.875000000000001e+00	 1.500000000000000e+00	 1.012313498461538e+01
0	 6.875000000000000e+00	 1.562500000000000e+00	 1.012511876923076e+01
0	 6.875000000000000e+00	 1.625000000000000e+00	 1.012706793846154e+01
0	 6.875000000000000e+00	 1.687500000000000e+00	 1.012898249230770e+01
0	 6.875000000000001e+00	 1.750000000000001e+00	 1.013086243076923e+01
0	 6.875000000000000e+00	 1.812500000000000e+00	 1.013270775384616e+01
0	 6.875000000000000e+00	 1.875000000000000e+00	 1.013451846153845e+01
0	 6.937500000000000e+00	 1.250000000000000e+00	 1.010875428461538e+01
0	 6.937500000000000e+00	 1.312500000000000e+00	 1.011080457153846e+01
0	 6.937500000000001e+00	 1.375000000000000e+00	 1.011282090769230e+01
0	 6.937500000000000e+00	 1.437500000000000e+00	 1.011480329307692e+01
0	 6.937500000000001e+00	 1.500000000000000e+00	 1.011675172769230e+01
0	 6.937500000000000e+00	 1.562500000000000e+00	 1.011866621153846e+01
0	 6.937500000000000e+00	 1.625000000000000e+00	 1.012054674461538e+01
0	 6.937500000000001e+00	 1.687500000000000e+00	 1.012239332692308e+01
0	 6.937500000000001e+00	 1.750000000000000e+00	 1.012420595846153e+01
0	 6.937499999999997e+00	 1.812500000000000e+00	 1.012598463923077e+01
0	 6.937500000000000e+00	 1.875000000000000e+00	 1.012772936923076e+01
0	 6.999999999999999e+00	 1.250000000000000e+00	 1.010265347692307e+01
0	 7.000000000000001e+00	 1.312500000000000e+00	 1.010463877230770e+01
0	 7.000000000000001e+00	 1.375000000000000e+00	 1.010659078153846e+01
0	 6.999999999999999e+00	 1.437500000000000e+00	 1.010850950461539e+01
0	 7.000000000000001e+00	 1.500000000000000e+00	 1.011039494153846e+01
0	 7.000000000000000e+00	 1.562500000000000e+00	 1.011224709230769e+01
0	 7.000000000000001e+00	 1.625000000000000e+00	 1.011406595692307e+01
0	 6.999999999999999e+00	 1.687500000000000e+00	 1.011585153538461e+01
0	 7.000000000000000e+00	 1.750000000000001e+00	 1.011760382769230e+01
0	 7.000000000000000e+00	 1.812500000000001e+00	 1.011932283384616e+01
0	 6.999999999999999e+00	 1.875000000000000e+00	 1.012100855384615e+01
0	 7.062500000000000e+00	 1.250000000000000e+00	 1.009655126923077e+01
0	 7.062499999999999e+00	 1.312500000000000e+00	 1.009847854076923e+01
0	 7.062499999999998e+00	 1.375000000000000e+00	 1.010037319076923e+01
0	 7.062499999999999e+00	 1.437500000000000e+00	 1.010223521923077e+01
0	 7.062499999999999e+00	 1.500000000000000e+00	 1.010406462615384e+01
0	 7.062500000000000e+00	 1.562500000000000e+00	 1.010586141153846e+01
0	 7.062499999999997e+00	 1.625000000000000e+00	 1.010762557538461e+01
0	 7.062500000000001e+00	 1.687500000000000e+00	 1.010935711769230e+01
0	 7.062500000000000e+00	 1.750000000000000e+00	 1.011105603846153e+01
0	 7.062500000000000e+00	 1.812500000000000e+00	 1.011272233769230e+01
0	 7.062500000000000e+00	 1.875000000000000e+00	 1.011435601538461e+01
0	 7.125000000000000e+00	 1.250000000000000e+00	 1.009044766153846e+01
0	 7.124999999999999e+00	 1.312500000000000e+00	 1.009232387692308e+01
0	 7.124999999999997e+00	 1.375000000000000e+00	 1.009416813538461e+01
0	 7.125000000000000e+00	 1.437500000000000e+00	 1.009598043692308e+01
0	 7.124999999999999e+00	 1.500000000000000e+00	 1.009776078153846e+01
0	 7.124999999999998e+00	 1.562500000000000e+00	 1.009950916923076e+01
0	 7.125000000000001e+00	 1.625000000000001e+00	 1.010122560000000e+01
0	 7.124999999999999e+00	 1.687500000000000e+00	 1.010291007384615e+01
0	 7.125000000000001e+00	 1.750000000000001e+00	 1.010456259076923e+01
0	 7.124999999999999e+00	 1.812500000000000e+00	 1.010618315076923e+01
0	 7.125000000000000e+00	 1.875000000000000e+00	 1.010777175384615e+01
0	 7.187499999999998e+00	 1.250000000000000e+00	 1.008434265384616e+01
0	 7.187499999999998e+00	 1.312500000000000e+00	 1.008617478076923e+01
0	 7.187499999999999e+00	 1.375000000000000e+00	 1.008797561538462e+01
0	 7.187500000000000e+00	 1.437500000000000e+00	 1.008974515769231e+01
0	 7.187499999999998e+00	 1.500000000000000e+00	 1.009148340769231e+01
0	 7.187499999999998e+00	 1.562500000000000e+00	 1.009319036538461e+01
0	 7.187500000000000e+00	 1.625000000000000e+00	 1.009486603076923e+01
0	 7.187499999999999e+00	 1.687500000000000e+00	 1.009651040384615e+01
0	 7.187499999999998e+00	 1.750000000000000e+00	 1.009812348461538e+01
0	 7.187500000000000e+00	 1.812500000000000e+00	 1.009970527307693e+01
0	 7.187499999999998e+00	 1.875000000000000e+00	 1.010125576923077e+01
0	 7.249999999999998e+00	 1.250000000000000e+00	 1.007823624615384e+01
0	 7.249999999999996e+00	 1.312500000000000e+00	 1.008003125230769e+01
0	 7.250000000000000e+00	 1.375000000000000e+00	 1.008179563076923e+01
0	 7.249999999999998e+00	 1.437500000000000e+00	 1.008352938153846e+01
0	 7.249999999999997e+00	 1.500000000000000e+00	 1.008523250461538e+01
0	 7.249999999999999e+00	 1.562500000000000e+00	 1.008690500000000e+01
0	 7.249999999999999e+00	 1.625000000000000e+00	 1.008854686769231e+01
0	 7.249999999999999e+00	 1.687500000000000e+00	 1.009015810769231e+01
0	 7.249999999999998e+00	 1.750000000000000e+00	 1.009173872000000e+01
0	 7.249999999999997e+00	 1.812500000000000e+00	 1.009328870461538e+01
0	 7.249999999999998e+00	 1.875000000000000e+00	 1.009480806153845e+01
0	 7.312499999999997e+00	 1.250000000000000e+00	 1.007212843846154e+01
0	 7.312499999999997e+00	 1.312500000000000e+00	 1.007389329153846e+01
0	 7.312500000000000e+00	 1.375000000000000e+00	 1.007562818153846e+01
0	 7.312499999999999e+00	 1.437500000000000e+00	 1.007733310846154e+01
0	 7.312500000000000e+00	 1.500000000000001e+00	 1.007900807230769e+01
0	 7.312500000000000e+00	 1.562500000000000e+00	 1.008065307307693e+01
0	 7.312499999999999e+00	 1.625000000000000e+00	 1.008226811076923e+01
0	 7.312499999999999e+00	 1.687500000000000e+00	 1.008385318538462e+01
0	 7.312499999999998e+00	 1.750000000000000e+00	 1.008540829692308e+01
0	 7.312500000000000e+00	 1.812500000000000e+00	 1.008693344538461e+01
0	 7.312499999999997e+00	 1.875000000000000e+00	 1.008842863076923e+01
0	 7.374999999999998e+00	 1.250000000000000e+00	 1.006601923076923e+01
0	 7.375000000000000e+00	 1.312500000000000e+00	 1.006776089846154e+01
0	 7.374999999999996e+00	 1.375000000000000e+00	 1.006947326769231e+01
0	 7.374999999999997e+00	 1.437500000000000e+00	 1.007115633846154e+01
0	 7.375000000000000e+00	 1.500000000000000e+00	 1.007281011076923e+01
0	 7.374999999999998e+00	 1.562500000000000e+00	 1.007443458461538e+01
0	 7.375000000000000e+00	 1.625000000000001e+00	 1.007602975999999e+01
0	 7.374999999999998e+00	 1.687500000000000e+00	 1.007759563692307e+01
0	 7.374999999999997e+00	 1.750000000000000e+00	 1.007913221538461e+01
0	 7.374999999999998e+00	 1.812500000000001e+00	 1.008063949538461e+01
0	 7.374999999999998e+00	 1.875000000000000e+00	 1.008211747692307e+01
0	 7.437499999999998e+00	 1.250000000000000e+00	 1.005990862307692e+01
0	 7.437499999999999e+00	 1.312500000000000e+00	 1.006163407307693e+01
0	 7.437499999999997e+00	 1.375000000000000e+00	 1.006333088923076e+01
0	 7.437499999999998e+00	 1.437500000000000e+00	 1.006499907153846e+01
0	 7.437499999999998e+00	 1.500000000000000e+00	 1.006663862000000e+01
0	 7.437499999999998e+00	 1.562500000000000e+00	 1.006824953461539e+01
0	 7.437499999999998e+00	 1.625000000000000e+00	 1.006983181538462e+01
0	 7.437499999999998e+00	 1.687500000000000e+00	 1.007138546230769e+01
0	 7.437499999999998e+00	 1.750000000000000e+00	 1.007291047538462e+01
0	 7.437499999999998e+00	 1.812500000000000e+00	 1.007440685461538e+01
0	 7.437499999999998e+00	 1.875000000000000e+00	 1.007587460000001e+01
0	 7.500000000000000e+00	 1.250000000000000e+00	 1.005379661538462e+01
0	 7.500000000000000e+00	 1.312500000000000e+00	 1.005551281538462e+01
0	 7.500000000000000e+00	 1.375000000000000e+00	 1.005720104615385e+01
0	 7.500000000000001e+00	 1.437500000000000e+00	 1.005886130769231e+01
0	 7.500000000000001e+00	 1.500000000000000e+00	 1.006049360000000e+01
0	 7.500000000000000e+00	 1.562500000000000e+00	 1.006209792307692e+01
0	 7.499999999999999e+00	 1.625000000000000e+00	 1.006367427692308e+01
0	 7.500000000000000e+00	 1.687500000000000e+00	 1.006522266153846e+01
0	 7.500000000000001e+00	 1.750000000000001e+00	 1.006674307692307e+01
0	 7.500000000000000e+00	 1.812500000000000e+00	 1.006823552307692e+01
0	 7.500000000000000e+00	 1.875000000000000e+00	 1.006970000000000e+01
0	 6.875000000000000e+00	 1.875000000000000e+00	 1.013451846153845e+01
0	 6.875000000000000e+00	 1.937500000000000e+00	 1.013599327692308e+01
0	 6.875000000000000e+00	 2.000000000000000e+00	 1.013750141538462e+01
0	 6.875000000000001e+00	 2.062500000000000e+00	 1.013904287692308e+01
0	 6.875000000000001e+00	 2.125000000000000e+00	 1.014061766153845e+01
0	 6.875000000000000e+00	 2.187500000000000e+00	 1.014222576923077e+01
0	 6.875000000000000e+00	 2.250000000000000e+00	 1.014386719999999e+01
0	 6.875000000000000e+00	 2.312500000000000e+00	 1.014554195384615e+01
0	 6.875000000000001e+00	 2.375000000000001e+00	 1.014725003076924e+01
0	 6.875000000000000e+00	 2.437500000000001e+00	 1.014899143076923e+01
0	 6.875000000000000e+00	 2.500000000000000e+00	 1.015076615384616e+01
0	 6.937500000000000e+00	 1.875000000000000e+00	 1.012772936923076e+01
0	 6.937500000000000e+00	 1.937500000000000e+00	 1.012920050461538e+01
0	 6.937500000000001e+00	 2.000000000000000e+00	 1.013070284000000e+01
0	 6.937500000000000e+00	 2.062500000000000e+00	 1.013223637538461e+01
0	 6.937500000000001e+00	 2.125000000000001e+00	 1.013380111076922e+01
0	 6.937500000000000e+00	 2.187500000000000e+00	 1.013539704615384e+01
0	 6.937500000000000e+00	 2.250000000000000e+00	 1.013702418153846e+01
0	 6.937500000000001e+00	 2.312500000000000e+00	 1.013868251692308e+01
0	 6.937500000000001e+00	 2.375000000000000e+00	 1.014037205230769e+01
0	 6.937499999999997e+00	 2.437500000000000e+00	 1.014209278769231e+01
0	 6.937500000000000e+00	 2.500000000000000e+00	 1.014384472307692e+01
0	 6.999999999999999e+00	 1.875000000000000e+00	 1.012100855384615e+01
0	 7.000000000000001e+00	 1.937500000000000e+00	 1.012247760307693e+01
0	 7.000000000000001e+00	 2.000000000000000e+00	 1.012397572923077e+01
0	 6.999999999999999e+00	 2.062500000000000e+00	 1.012550293230769e+01
0	 7.000000000000001e+00	 2.125000000000000e+00	 1.012705921230769e+01
0	 7.000000000000000e+00	 2.187500000000001e+00	 1.012864456923077e+01
0	 7.000000000000001e+00	 2.250000000000000e+00	 1.013025900307691e+01
0	 6.999999999999999e+00	 2.312500000000000e+00	 1.013190251384615e+01
0	 7.000000000000000e+00	 2.375000000000000e+00	 1.013357510153847e+01
0	 7.000000000000000e+00	 2.437500000000000e+00	 1.013527676615384e+01
0	 6.999999999999999e+00	 2.500000000000000e+00	 1.013700750769231e+01
0	 7.062500000000000e+00	 1.875000000000000e+00	 1.011435601538461e+01
0	 7.062499999999999e+00	 1.937500000000000e+00	 1.011582457230769e+01
0	 7.062499999999998e+00	 2.000000000000000e+00	 1.011732008307692e+01
0	 7.062499999999999e+00	 2.062500000000000e+00	 1.011884254769231e+01
0	 7.062499999999999e+00	 2.125000000000001e+00	 1.012039196615384e+01
0	 7.062500000000000e+00	 2.187500000000000e+00	 1.012196833846154e+01
0	 7.062499999999997e+00	 2.250000000000000e+00	 1.012357166461538e+01
0	 7.062500000000001e+00	 2.312500000000000e+00	 1.012520194461538e+01
0	 7.062500000000000e+00	 2.375000000000000e+00	 1.012685917846154e+01
0	 7.062500000000000e+00	 2.437500000000000e+00	 1.012854336615385e+01
0	 7.062500000000000e+00	 2.500000000000000e+00	 1.013025450769231e+01
0	 7.125000000000000e+00	 1.875000000000000e+00	 1.010777175384615e+01
0	 7.124999999999999e+00	 1.937500000000000e+00	 1.010924141230769e+01
0	 7.124999999999997e+00	 2.000000000000000e+00	 1.011073590153846e+01
0	 7.125000000000000e+00	 2.062500000000000e+00	 1.011225522153846e+01
0	 7.124999999999999e+00	 2.125000000000000e+00	 1.011379937230770e+01
0	 7.124999999999998e+00	 2.187500000000000e+00	 1.011536835384615e+01
0	 7.125000000000001e+00	 2.250000000000000e+00	 1.011696216615385e+01
0	 7.124999999999999e+00	 2.312500000000000e+00	 1.011858080923077e+01
0	 7.125000000000001e+00	 2.375000000000000e+00	 1.012022428307692e+01
0	 7.124999999999999e+00	 2.437500000000000e+00	 1.012189258769230e+01
0	 7.125000000000000e+00	 2.500000000000000e+00	 1.012358572307692e+01
0	 7.187499999999998e+00	 1.875000000000000e+00	 1.010125576923077e+01
0	 7.187499999999998e+00	 1.937500000000000e+00	 1.010272812307692e+01
0	 7.187499999999999e+00	 2.000000000000000e+00	 1.010422318461538e+01
0	 7.187500000000000e+00	 2.062500000000000e+00	 1.010574095384615e+01
0	 7.187499999999998e+00	 2.125000000000000e+00	 1.010728143076923e+01
0	 7.187499999999998e+00	 2.187500000000000e+00	 1.010884461538461e+01
0	 7.187500000000000e+00	 2.250000000000000e+00	 1.011043050769231e+01
0	 7.187499999999999e+00	 2.312500000000001e+00	 1.011203910769230e+01
0	 7.187499999999998e+00	 2.375000000000000e+00	 1.011367041538461e+01
0	 7.187500000000000e+00	 2.437500000000000e+00	 1.011532443076923e+01
0	 7.187499999999998e+00	 2.500000000000000e+00	 1.011700115384616e+01
0	 7.249999999999998e+00	 1.875000000000000e+00	 1.009480806153845e+01
0	 7.249999999999996e+00	 1.937500000000000e+00	 1.009628470461538e+01
0	 7.250000000000000e+00	 2.000000000000000e+00	 1.009778193230769e+01
0	 7.249999999999998e+00	 2.062500000000000e+00	 1.009929974461538e+01
0	 7.249999999999997e+00	 2.125000000000000e+00	 1.010083814153846e+01
0	 7.249999999999999e+00	 2.187500000000000e+00	 1.010239712307693e+01
0	 7.249999999999999e+00	 2.250000000000000e+00	 1.010397668923076e+01
0	 7.249999999999999e+00	 2.312500000000000e+00	 1.010557684000001e+01
0	 7.249999999999998e+00	 2.375000000000001e+00	 1.010719757538461e+01
0	 7.249999999999997e+00	 2.437500000000000e+00	 1.010883889538461e+01
0	 7.249999999999998e+00	 2.500000000000000e+00	 1.011050080000001e+01
0	 7.312499999999997e+00	 1.875000000000000e+00	 1.008842863076923e+01
0	 7.312499999999997e+00	 1.937500000000000e+00	 1.008991115692307e+01
0	 7.312500000000000e+00	 2.000000000000001e+00	 1.009141214461538e+01
0	 7.312499999999999e+00	 2.062500000000000e+00	 1.009293159384615e+01
0	 7.312500000000000e+00	 2.125000000000001e+00	 1.009446950461539e+01
0	 7.312500000000000e+00	 2.187500000000000e+00	 1.009602587692308e+01
0	 7.312499999999999e+00	 2.250000000000000e+00	 1.009760071076923e+01
0	 7.312499999999999e+00	 2.312500000000001e+00	 1.009919400615384e+01
0	 7.312499999999998e+00	 2.375000000000000e+00	 1.010080576307693e+01
0	 7.312500000000000e+00	 2.437500000000000e+00	 1.010243598153846e+01
0	 7.312499999999997e+00	 2.500000000000000e+00	 1.010408466153847e+01
0	 7.374999999999998e+00	 1.875000000000000e+00	 1.008211747692307e+01
0	 7.375000000000000e+00	 1.937500000000000e+00	 1.008360748000000e+01
0	 7.374999999999996e+00	 2.000000000000000e+00	 1.008511382153846e+01
0	 7.374999999999997e+00	 2.062500000000000e+00	 1.008663650153846e+01
0	 7.375000000000000e+00	 2.125000000000000e+00	 1.008817552000000e+01
0	 7.374999999999998e+00	 2.187500000000000e+00	 1.008973087692307e+01
0	 7.375000000000000e+00	 2.250000000000000e+00	 1.009130257230769e+01
0	 7.374999999999998e+00	 2.312500000000000e+00	 1.009289060615385e+01
0	 7.374999999999997e+00	 2.375000000000000e+00	 1.009449497846155e+01
0	 7.374999999999998e+00	 2.437500000000001e+00	 1.009611568923077e+01
0	 7.374999999999998e+00	 2.500000000000000e+00	 1.009775273846154e+01
0	 7.437499999999998e+00	 1.875000000000000e+00	 1.007587460000001e+01
0	 7.437499999999999e+00	 1.937500000000000e+00	 1.007737367384616e+01
0	 7.437499999999997e+00	 2.000000000000000e+00	 1.007888696307692e+01
0	 7.437499999999998e+00	 2.062500000000000e+00	 1.008041446769231e+01
0	 7.437499999999998e+00	 2.125000000000000e+00	 1.008195618769231e+01
0	 7.437499999999998e+00	 2.187500000000000e+00	 1.008351212307692e+01
0	 7.437499999999998e+00	 2.250000000000000e+00	 1.008508227384615e+01
0	 7.437499999999998e+00	 2.312500000000000e+00	 1.008666664000000e+01
0	 7.437499999999998e+00	 2.375000000000000e+00	 1.008826522153847e+01
0	 7.437499999999998e+00	 2.437500000000000e+00	 1.008987801846153e+01
0	 7.437499999999998e+00	 2.500000000000000e+00	 1.009150503076923e+01
0	 7.500000000000000e+00	 1.875000000000000e+00	 1.006970000000000e+01
0	 7.500000000000000e+00	 1.937500000000000e+00	 1.007120973846154e+01
0	 7.500000000000000e+00	 2.000000000000000e+00	 1.007273156923077e+01
0	 7.500000000000001e+00	 2.062500000000000e+00	 1.007426549230769e+01
0	 7.500000000000001e+00	 2.125000000000000e+00	 1.007581150769231e+01
0	 7.500000000000000e+00	 2.187500000000000e+00	 1.007736961538462e+01
0	 7.499999999999999e+00	 2.250000000000000e+00	 1.007893981538462e+01
0	 7.500000000000000e+00	 2.312500000000000e+00	 1.008052210769230e+01
0	 7.500000000000001e+00	 2.375000000000001e+00	 1.008211649230770e+01
0	 7.500000000000000e+00	 2.437500000000001e+00	 1.008372296923077e+01
0	 7.500000000000000e+00	 2.500000000000000e+00	 1.008534153846154e+01
0	 6.875000000000000e+00	 2.500000000000000e+00	 1.015076615384616e+01
0	 6.875000000000000e+00	 2.562500000000000e+00	 1.015137395384617e+01
0	 6.875000000000000e+00	 2.625000000000000e+00	 1.015205273846153e+01
0	 6.875000000000000e+00	 2.687499999999999e+00	 1.015280250769230e+01
0	 6.875000000000000e+00	 2.750000000000000e+00	 1.015362326153846e+01
0	 6.875000000000000e+00	 2.812499999999999e+00	 1.015451500000000e+01
0	 6.875000000000000e+00	 2.874999999999999e+00	 1.015547772307692e+01
0	 6.875000000000000e+00	 2.937499999999998e+00	 1.015651143076922e+01
0	 6.875000000000000e+00	 2.999999999999998e+00	 1.015761612307692e+01
0	 6.875000000000000e+00	 3.062499999999998e+00	 1.015879180000000e+01
0	 6.875000000000000e+00	 3.125000000000000e+00	 1.016003846153846e+01
0	 6.937500000000000e+00	 2.500000000000000e+00	 1.014384472307692e+01
0	 6.937499999999999e+00	 2.562500000000000e+00	 1.014447349846154e+01
0	 6.937500000000000e+00	 2.624999999999999e+00	 1.014517057230769e+01
0	 6.937500000000000e+00	 2.687499999999999e+00	 1.014593594461538e+01
0	 6.937499999999999e+00	 2.750000000000000e+00	 1.014676961538462e+01
0	 6.937500000000001e+00	 2.812499999999999e+00	 1.014767158461538e+01
0	 6.937500000000000e+00	 2.875000000000000e+00	 1.014864185230768e+01
0	 6.937500000000001e+00	 2.937499999999999e+00	 1.014968041846154e+01
0	 6.937500000000002e+00	 2.999999999999999e+00	 1.015078728307693e+01
0	 6.937499999999999e+00	 3.062499999999997e+00	 1.015196244615384e+01
0	 6.937500000000000e+00	 3.125000000000000e+00	 1.015320590769230e+01
0	 6.999999999999999e+00	 2.500000000000000e+00	 1.013700750769231e+01
0	 6.999999999999999e+00	 2.562500000000000e+00	 1.013765986461539e+01
0	 7.000000000000001e+00	 2.625000000000000e+00	 1.013837783384615e+01
0	 7.000000000000001e+00	 2.687500000000000e+00	 1.013916141538461e+01
0	 6.999999999999999e+00	 2.749999999999999e+00	 1.014001060923077e+01
0	 6.999999999999999e+00	 2.812499999999999e+00	 1.014092541538462e+01
0	 6.999999999999998e+00	 2.874999999999999e+00	 1.014190583384615e+01
0	 7.000000000000001e+00	 2.937499999999999e+00	 1.014295186461538e+01
0	 6.999999999999998e+00	 2.999999999999998e+00	 1.014406350769231e+01
0	 7.000000000000001e+00	 3.062499999999999e+00	 1.014524076307691e+01
0	 6.999999999999999e+00	 3.125000000000000e+00	 1.014648363076924e+01
0	 7.062500000000000e+00	 2.500000000000000e+00	 1.013025450769231e+01
0	 7.062500000000000e+00	 2.562500000000000e+00	 1.013093305230769e+01
0	 7.062500000000001e+00	 2.625000000000000e+00	 1.013167452307693e+01
0	 7.062500000000000e+00	 2.687499999999999e+00	 1.013247892000000e+01
0	 7.062500000000000e+00	 2.749999999999999e+00	 1.013334624307692e+01
0	 7.062500000000000e+00	 2.812499999999999e+00	 1.013427649230769e+01
0	 7.062500000000000e+00	 2.874999999999999e+00	 1.013526966769231e+01
0	 7.062499999999999e+00	 2.937499999999999e+00	 1.013632576923077e+01
0	 7.062499999999998e+00	 2.999999999999999e+00	 1.013744479692307e+01
0	 7.062500000000000e+00	 3.062499999999998e+00	 1.013862675076923e+01
0	 7.062500000000000e+00	 3.125000000000000e+00	 1.013987163076922e+01
0	 7.125000000000000e+00	 2.500000000000000e+00	 1.012358572307692e+01
0	 7.124999999999999e+00	 2.562500000000000e+00	 1.012429306153846e+01
0	 7.125000000000001e+00	 2.625000000000000e+00	 1.012506064000000e+01
0	 7.124999999999998e+00	 2.687500000000000e+00	 1.012588845846154e+01
0	 7.124999999999998e+00	 2.750000000000000e+00	 1.012677651692307e+01
0	 7.125000000000000e+00	 2.812499999999999e+00	 1.012772481538461e+01
0	 7.124999999999997e+00	 2.874999999999999e+00	 1.012873335384615e+01
0	 7.125000000000000e+00	 2.937499999999998e+00	 1.012980213230769e+01
0	 7.124999999999999e+00	 2.999999999999999e+00	 1.013093115076923e+01
0	 7.124999999999999e+00	 3.062499999999998e+00	 1.013212040923077e+01
0	 7.125000000000000e+00	 3.125000000000000e+00	 1.013336990769230e+01
0	 7.187499999999998e+00	 2.500000000000000e+00	 1.011700115384616e+01
0	 7.187499999999998e+00	 2.562499999999999e+00	 1.011773989230769e+01
0	 7.187499999999999e+00	 2.625000000000000e+00	 1.011853618461538e+01
0	 7.187499999999999e+00	 2.687500000000000e+00	 1.011939003076923e+01
0	 7.187499999999998e+00	 2.749999999999999e+00	 1.012030143076923e+01
0	 7.187499999999999e+00	 2.812499999999999e+00	 1.012127038461538e+01
0	 7.187500000000000e+00	 2.874999999999999e+00	 1.012229689230769e+01
0	 7.187499999999999e+00	 2.937499999999998e+00	 1.012338095384615e+01
0	 7.187499999999999e+00	 2.999999999999998e+00	 1.012452256923076e+01
0	 7.187499999999999e+00	 3.062499999999998e+00	 1.012572173846154e+01
0	 7.187499999999998e+00	 3.125000000000000e+00	 1.012697846153847e+01
0	 7.249999999999998e+00	 2.500000000000000e+00	 1.011050080000001e+01
0	 7.249999999999999e+00	 2.562500000000000e+00	 1.011127354461538e+01
0	 7.249999999999996e+00	 2.625000000000000e+00	 1.011210115692308e+01
0	 7.249999999999999e+00	 2.687500000000000e+00	 1.011298363692307e+01
0	 7.249999999999999e+00	 2.750000000000000e+00	 1.011392098461538e+01
0	 7.250000000000000e+00	 2.812500000000000e+00	 1.011491320000000e+01
0	 7.249999999999999e+00	 2.874999999999999e+00	 1.011596028307692e+01
0	 7.249999999999998e+00	 2.937499999999999e+00	 1.011706223384615e+01
0	 7.249999999999999e+00	 2.999999999999999e+00	 1.011821905230769e+01
0	 7.249999999999999e+00	 3.062499999999998e+00	 1.011943073846153e+01
0	 7.249999999999998e+00	 3.125000000000000e+00	 1.012069729230767e+01
0	 7.312499999999997e+00	 2.500000000000000e+00	 1.010408466153847e+01
0	 7.312499999999998e+00	 2.562500000000000e+00	 1.010489401846154e+01
0	 7.312500000000000e+00	 2.625000000000000e+00	 1.010575555692308e+01
0	 7.312499999999997e+00	 2.687500000000000e+00	 1.010666927692307e+01
0	 7.312499999999998e+00	 2.749999999999999e+00	 1.010763517846154e+01
0	 7.312499999999999e+00	 2.812499999999999e+00	 1.010865326153846e+01
0	 7.312499999999998e+00	 2.874999999999999e+00	 1.010972352615384e+01
0	 7.312500000000000e+00	 2.937499999999998e+00	 1.011084597230769e+01
0	 7.312499999999998e+00	 2.999999999999998e+00	 1.011202060000000e+01
0	 7.312499999999999e+00	 3.062499999999998e+00	 1.011324740923078e+01
0	 7.312499999999997e+00	 3.125000000000000e+00	 1.011452639999999e+01
0	 7.374999999999998e+00	 2.500000000000000e+00	 1.009775273846154e+01
0	 7.374999999999999e+00	 2.562500000000001e+00	 1.009860131384615e+01
0	 7.374999999999996e+00	 2.625000000000000e+00	 1.009949938461539e+01
0	 7.374999999999998e+00	 2.687500000000000e+00	 1.010044695076923e+01
0	 7.374999999999999e+00	 2.749999999999999e+00	 1.010144401230769e+01
0	 7.374999999999998e+00	 2.812499999999999e+00	 1.010249056923077e+01
0	 7.374999999999999e+00	 2.874999999999999e+00	 1.010358662153846e+01
0	 7.374999999999997e+00	 2.937499999999998e+00	 1.010473216923076e+01
0	 7.374999999999997e+00	 2.999999999999998e+00	 1.010592721230770e+01
0	 7.374999999999998e+00	 3.062499999999998e+00	 1.010717175076923e+01
0	 7.374999999999998e+00	 3.125000000000000e+00	 1.010846578461538e+01
0	 7.437499999999998e+00	 2.500000000000000e+00	 1.009150503076923e+01
0	 7.437499999999997e+00	 2.562500000000000e+00	 1.009239543076922e+01
0	 7.437499999999999e+00	 2.625000000000000e+00	 1.009333264000000e+01
0	 7.437499999999998e+00	 2.687500000000000e+00	 1.009431665846154e+01
0	 7.437499999999999e+00	 2.749999999999999e+00	 1.009534748615385e+01
0	 7.437499999999998e+00	 2.812499999999999e+00	 1.009642512307692e+01
0	 7.437499999999998e+00	 2.874999999999999e+00	 1.009754956923077e+01
0	 7.437499999999997e+00	 2.937499999999998e+00	 1.009872082461537e+01
0	 7.437499999999998e+00	 2.999999999999998e+00	 1.009993888923076e+01
0	 7.437499999999997e+00	 3.062499999999998e+00	 1.010120376307690e+01
0	 7.437499999999998e+00	 3.125000000000000e+00	 1.010251544615385e+01
0	 7.500000000000000e+00	 2.500000000000000e+00	 1.008534153846154e+01
0	 7.500000000000001e+00	 2.562500000000000e+00	 1.008627636923078e+01
0	 7.500000000000000e+00	 2.625000000000000e+00	 1.008725532307693e+01
0	 7.500000000000000e+00	 2.687499999999999e+00	 1.008827839999999e+01
0	 7.500000000000000e+00	 2.750000000000000e+00	 1.008934559999999e+01
0	 7.500000000000000e+00	 2.812499999999999e+00	 1.009045692307693e+01
0	 7.500000000000000e+00	 2.874999999999999e+00	 1.009161236923076e+01
0	 7.499999999999999e+00	 2.937499999999998e+00	 1.009281193846154e+01
0	 7.500000000000000e+00	 2.999999999999998e+00	 1.009405563076923e+01
0	 7.500000000000000e+00	 3.062499999999998e+00	 1.009534344615385e+01
0	 7.500000000000000e+00	 3.125000000000000e+00	 1.009667538461538e+01
0	 6.875000000000000e+00	 3.125000000000000e+00	 1.016003846153846e+01
0	 6.875000000000000e+00	 3.187500000000000e+00	 1.015954961538460e+01
0	 6.875000000000000e+00	 3.250000000000000e+00	 1.015915446153846e+01
0	 6.875000000000000e+00	 3.312499999999999e+00	 1.015885300000000e+01
0	 6.875000000000000e+00	 3.374999999999999e+00	 1.015864523076924e+01
0	 6.875000000000000e+00	 3.437499999999999e+00	 1.015853115384615e+01
0	 6.875000000000000e+00	 3.499999999999999e+00	 1.015851076923077e+01
0	 6.875000000000000e+00	 3.562499999999998e+00	 1.015858407692308e+01
0	 6.875000000000000e+00	 3.624999999999999e+00	 1.015875107692308e+01
0	 6.875000000000000e+00	 3.687499999999998e+00	 1.015901176923077e+01
0	 6.875000000000000e+00	 3.750000000000000e+00	 1.015936615384616e+01
0	 6.937500000000000e+00	 3.125000000000000e+00	 1.015320590769230e+01
0	 6.937499999999999e+00	 3.187500000000000e+00	 1.015280624153846e+01
0	 6.937500000000000e+00	 3.250000000000000e+00	 1.015249660307693e+01
0	 6.937500000000000e+00	 3.312499999999999e+00	 1.015227699230770e+01
0	 6.937499999999999e+00	 3.374999999999999e+00	 1.015214740923077e+01
0	 6.937500000000001e+00	 3.437499999999999e+00	 1.015210785384616e+01
0	 6.937500000000000e+00	 3.500000000000000e+00	 1.015215832615384e+01
0	 6.937500000000001e+00	 3.562499999999999e+00	 1.015229882615385e+01
0	 6.937500000000002e+00	 3.625000000000000e+00	 1.015252935384616e+01
0	 6.937499999999999e+00	 3.687499999999997e+00	 1.015284990923078e+01
0	 6.937500000000000e+00	 3.750000000000000e+00	 1.015326049230771e+01
0	 6.999999999999999e+00	 3.125000000000000e+00	 1.014648363076924e+01
0	 6.999999999999999e+00	 3.187500000000000e+00	 1.014617043076923e+01
0	 7.000000000000001e+00	 3.250000000000000e+00	 1.014594359384615e+01
0	 7.000000000000001e+00	 3.312500000000000e+00	 1.014580312000000e+01
0	 6.999999999999999e+00	 3.374999999999999e+00	 1.014574900923077e+01
0	 6.999999999999999e+00	 3.437499999999999e+00	 1.014578126153847e+01
0	 6.999999999999998e+00	 3.499999999999997e+00	 1.014589987692308e+01
0	 7.000000000000001e+00	 3.562499999999999e+00	 1.014610485538462e+01
0	 6.999999999999998e+00	 3.624999999999998e+00	 1.014639619692307e+01
0	 7.000000000000001e+00	 3.687499999999999e+00	 1.014677390153848e+01
0	 6.999999999999999e+00	 3.750000000000000e+00	 1.014723796923077e+01
0	 7.062500000000000e+00	 3.125000000000000e+00	 1.013987163076922e+01
0	 7.062500000000000e+00	 3.187500000000000e+00	 1.013964218307692e+01
0	 7.062500000000001e+00	 3.250000000000000e+00	 1.013949543384616e+01
0	 7.062500000000000e+00	 3.312500000000000e+00	 1.013943138307693e+01
0	 7.062500000000000e+00	 3.374999999999999e+00	 1.013945003076924e+01
0	 7.062500000000000e+00	 3.437499999999999e+00	 1.013955137692308e+01
0	 7.062500000000000e+00	 3.499999999999998e+00	 1.013973542153847e+01
0	 7.062499999999999e+00	 3.562499999999998e+00	 1.014000216461539e+01
0	 7.062499999999998e+00	 3.624999999999998e+00	 1.014035160615386e+01
0	 7.062500000000000e+00	 3.687499999999998e+00	 1.014078374615385e+01
0	 7.062500000000000e+00	 3.750000000000000e+00	 1.014129858461539e+01
0	 7.125000000000000e+00	 3.125000000000000e+00	 1.013336990769230e+01
0	 7.124999999999999e+00	 3.187500000000000e+00	 1.013322149846154e+01
0	 7.125000000000001e+00	 3.250000000000000e+00	 1.013315212307693e+01
0	 7.124999999999998e+00	 3.312500000000000e+00	 1.013316178153846e+01
0	 7.124999999999998e+00	 3.374999999999999e+00	 1.013325047384614e+01
0	 7.125000000000000e+00	 3.437499999999999e+00	 1.013341820000000e+01
0	 7.124999999999997e+00	 3.499999999999998e+00	 1.013366496000001e+01
0	 7.125000000000000e+00	 3.562499999999998e+00	 1.013399075384616e+01
0	 7.124999999999999e+00	 3.624999999999999e+00	 1.013439558153847e+01
0	 7.124999999999999e+00	 3.687499999999998e+00	 1.013487944307693e+01
0	 7.125000000000000e+00	 3.750000000000000e+00	 1.013544233846155e+01
0	 7.187499999999998e+00	 3.125000000000000e+00	 1.012697846153847e+01
0	 7.187499999999998e+00	 3.187500000000000e+00	 1.012690837692308e+01
0	 7.187499999999999e+00	 3.250000000000000e+00	 1.012691366153847e+01
0	 7.187499999999999e+00	 3.312500000000000e+00	 1.012699431538461e+01
0	 7.187499999999998e+00	 3.374999999999998e+00	 1.012715033846154e+01
0	 7.187499999999999e+00	 3.437499999999999e+00	 1.012738173076923e+01
0	 7.187500000000000e+00	 3.499999999999999e+00	 1.012768849230769e+01
0	 7.187499999999999e+00	 3.562499999999999e+00	 1.012807062307692e+01
0	 7.187499999999999e+00	 3.624999999999998e+00	 1.012852812307692e+01
0	 7.187499999999999e+00	 3.687499999999999e+00	 1.012906099230771e+01
0	 7.187499999999998e+00	 3.750000000000000e+00	 1.012966923076924e+01
0	 7.249999999999998e+00	 3.125000000000000e+00	 1.012069729230767e+01
0	 7.249999999999999e+00	 3.187500000000000e+00	 1.012070281846154e+01
0	 7.249999999999996e+00	 3.249999999999999e+00	 1.012078004923077e+01
0	 7.249999999999999e+00	 3.312499999999999e+00	 1.012092898461539e+01
0	 7.249999999999999e+00	 3.375000000000000e+00	 1.012114962461539e+01
0	 7.250000000000000e+00	 3.437500000000000e+00	 1.012144196923077e+01
0	 7.249999999999999e+00	 3.499999999999999e+00	 1.012180601846153e+01
0	 7.249999999999998e+00	 3.562499999999999e+00	 1.012224177230769e+01
0	 7.249999999999999e+00	 3.624999999999999e+00	 1.012274923076924e+01
0	 7.249999999999999e+00	 3.687499999999998e+00	 1.012332839384617e+01
0	 7.249999999999998e+00	 3.750000000000000e+00	 1.012397926153847e+01
0	 7.312499999999997e+00	 3.125000000000000e+00	 1.011452639999999e+01
0	 7.312499999999998e+00	 3.187500000000000e+00	 1.011460482307692e+01
0	 7.312500000000000e+00	 3.250000000000000e+00	 1.011475128615384e+01
0	 7.312499999999997e+00	 3.312500000000000e+00	 1.011496578923077e+01
0	 7.312499999999998e+00	 3.374999999999999e+00	 1.011524833230769e+01
0	 7.312499999999999e+00	 3.437499999999999e+00	 1.011559891538462e+01
0	 7.312499999999998e+00	 3.499999999999999e+00	 1.011601753846154e+01
0	 7.312500000000000e+00	 3.562499999999999e+00	 1.011650420153846e+01
0	 7.312499999999998e+00	 3.624999999999998e+00	 1.011705890461539e+01
0	 7.312499999999999e+00	 3.687499999999999e+00	 1.011768164769231e+01
0	 7.312499999999997e+00	 3.750000000000000e+00	 1.011837243076923e+01
0	 7.374999999999998e+00	 3.125000000000000e+00	 1.010846578461538e+01
0	 7.374999999999999e+00	 3.187500000000001e+00	 1.010861439076923e+01
0	 7.374999999999996e+00	 3.250000000000000e+00	 1.010882737230769e+01
0	 7.374999999999998e+00	 3.312500000000000e+00	 1.010910472923077e+01
0	 7.374999999999999e+00	 3.374999999999999e+00	 1.010944646153846e+01
0	 7.374999999999998e+00	 3.437499999999999e+00	 1.010985256923077e+01
0	 7.374999999999999e+00	 3.499999999999998e+00	 1.011032305230770e+01
0	 7.374999999999997e+00	 3.562499999999998e+00	 1.011085791076923e+01
0	 7.374999999999997e+00	 3.624999999999998e+00	 1.011145714461540e+01
0	 7.374999999999998e+00	 3.687499999999998e+00	 1.011212075384616e+01
0	 7.374999999999998e+00	 3.750000000000000e+00	 1.011284873846155e+01
0	 7.437499999999998e+00	 3.125000000000000e+00	 1.010251544615385e+01
0	 7.437499999999997e+00	 3.187500000000000e+00	 1.010273152153846e+01
0	 7.437499999999999e+00	 3.250000000000000e+00	 1.010300830769230e+01
0	 7.437499999999998e+00	 3.312500000000000e+00	 1.010334580461538e+01
0	 7.437499999999999e+00	 3.374999999999999e+00	 1.010374401230769e+01
0	 7.437499999999998e+00	 3.437500000000000e+00	 1.010420293076923e+01
0	 7.437499999999998e+00	 3.499999999999998e+00	 1.010472256000000e+01
0	 7.437499999999997e+00	 3.562499999999998e+00	 1.010530290000000e+01
0	 7.437499999999998e+00	 3.624999999999998e+00	 1.010594395076923e+01
0	 7.437499999999997e+00	 3.687499999999997e+00	 1.010664571230769e+01
0	 7.437499999999998e+00	 3.750000000000000e+00	 1.010740818461539e+01
0	 7.500000000000000e+00	 3.125000000000000e+00	 1.009667538461538e+01
0	 7.500000000000001e+00	 3.187500000000000e+00	 1.009695621538460e+01
0	 7.500000000000000e+00	 3.250000000000000e+00	 1.009729409230768e+01
0	 7.500000000000000e+00	 3.312499999999999e+00	 1.009768901538461e+01
0	 7.500000000000000e+00	 3.374999999999999e+00	 1.009814098461538e+01
0	 7.500000000000000e+00	 3.437499999999999e+00	 1.009865000000000e+01
0	 7.500000000000000e+00	 3.499999999999999e+00	 1.009921606153847e+01
0	 7.499999999999999e+00	 3.562499999999998e+00	 1.009983916923078e+01
0	 7.500000000000000e+00	 3.624999999999999e+00	 1.010051932307692e+01
0	 7.500000000000000e+00	 3.687499999999998e+00	 1.010125652307691e+01
0	 7.500000000000000e+00	 3.750000000000000e+00	 1.010205076923077e+01
0	 6.875000000000000e+00	 3.750000000000000e+00	 1.015936615384616e+01
0	 6.875000000000000e+00	 3.812500000000000e+00	 1.015806804615386e+01
0	 6.875000000000000e+00	 3.875000000000000e+00	 1.015685403076924e+01
0	 6.875000000000000e+00	 3.937499999999999e+00	 1.015572410769231e+01
0	 6.875000000000000e+00	 4.000000000000000e+00	 1.015467827692308e+01
0	 6.875000000000000e+00	 4.062499999999999e+00	 1.015371653846155e+01
0	 6.875000000000000e+00	 4.124999999999999e+00	 1.015283889230769e+01
0	 6.875000000000000e+00	 4.187499999999998e+00	 1.015204533846154e+01
0	 6.875000000000000e+00	 4.249999999999998e+00	 1.015133587692309e+01
0	 6.875000000000000e+00	 4.312499999999998e+00	 1.015071050769232e+01
0	 6.875000000000000e+00	 4.375000000000000e+00	 1.015016923076923e+01
0	 6.937500000000000e+00	 3.750000000000000e+00	 1.015326049230771e+01
0	 6.937499999999999e+00	 3.812500000000000e+00	 1.015206011538463e+01
0	 6.937500000000000e+00	 3.875000000000000e+00	 1.015094141230770e+01
0	 6.937500000000000e+00	 3.937500000000000e+00	 1.014990438307692e+01
0	 6.937499999999999e+00	 3.999999999999999e+00	 1.014894902769231e+01
0	 6.937500000000001e+00	 4.062499999999999e+00	 1.014807534615384e+01
0	 6.937500000000000e+00	 4.125000000000000e+00	 1.014728333846154e+01
0	 6.937500000000001e+00	 4.187500000000000e+00	 1.014657300461538e+01
0	 6.937500000000002e+00	 4.250000000000000e+00	 1.014594434461539e+01
0	 6.937499999999999e+00	 4.312499999999997e+00	 1.014539735846154e+01
0	 6.937500000000000e+00	 4.375000000000000e+00	 1.014493204615384e+01
0	 6.999999999999999e+00	 3.750000000000000e+00	 1.014723796923077e+01
0	 6.999999999999999e+00	 3.812500000000000e+00	 1.014613344923078e+01
0	 7.000000000000001e+00	 3.875000000000000e+00	 1.014510818461539e+01
0	 7.000000000000001e+00	 3.937500000000000e+00	 1.014416217538461e+01
0	 6.999999999999999e+00	 3.999999999999999e+00	 1.014329542153846e+01
0	 6.999999999999999e+00	 4.062499999999999e+00	 1.014250792307691e+01
0	 6.999999999999998e+00	 4.124999999999997e+00	 1.014179968000000e+01
0	 7.000000000000001e+00	 4.187499999999998e+00	 1.014117069230769e+01
0	 6.999999999999998e+00	 4.249999999999998e+00	 1.014062096000000e+01
0	 7.000000000000001e+00	 4.312499999999998e+00	 1.014015048307694e+01
0	 6.999999999999999e+00	 4.375000000000000e+00	 1.013975926153845e+01
0	 7.062500000000000e+00	 3.750000000000000e+00	 1.014129858461539e+01
0	 7.062500000000000e+00	 3.812500000000000e+00	 1.014028804769231e+01
0	 7.062500000000001e+00	 3.875000000000000e+00	 1.013935434769231e+01
0	 7.062500000000000e+00	 3.937500000000000e+00	 1.013849748461541e+01
0	 7.062500000000000e+00	 3.999999999999999e+00	 1.013771745846154e+01
0	 7.062500000000000e+00	 4.062500000000000e+00	 1.013701426923076e+01
0	 7.062500000000000e+00	 4.124999999999998e+00	 1.013638791692309e+01
0	 7.062499999999999e+00	 4.187499999999999e+00	 1.013583840153846e+01
0	 7.062499999999998e+00	 4.249999999999998e+00	 1.013536572307691e+01
0	 7.062500000000000e+00	 4.312499999999997e+00	 1.013496988153847e+01
0	 7.062500000000000e+00	 4.375000000000000e+00	 1.013465087692306e+01
0	 7.125000000000000e+00	 3.750000000000000e+00	 1.013544233846155e+01
0	 7.124999999999999e+00	 3.812500000000000e+00	 1.013452391076924e+01
0	 7.125000000000001e+00	 3.875000000000000e+00	 1.013367990153846e+01
0	 7.124999999999998e+00	 3.937500000000000e+00	 1.013291031076923e+01
0	 7.124999999999998e+00	 3.999999999999999e+00	 1.013221513846154e+01
0	 7.125000000000000e+00	 4.062499999999999e+00	 1.013159438461539e+01
0	 7.124999999999997e+00	 4.124999999999998e+00	 1.013104804923077e+01
0	 7.125000000000000e+00	 4.187499999999999e+00	 1.013057613230769e+01
0	 7.124999999999999e+00	 4.249999999999998e+00	 1.013017863384616e+01
0	 7.124999999999999e+00	 4.312499999999998e+00	 1.012985555384614e+01
0	 7.125000000000000e+00	 4.375000000000000e+00	 1.012960689230770e+01
0	 7.187499999999998e+00	 3.750000000000000e+00	 1.012966923076924e+01
0	 7.187499999999998e+00	 3.812500000000000e+00	 1.012884103846154e+01
0	 7.187499999999999e+00	 3.875000000000000e+00	 1.012808484615385e+01
0	 7.187499999999999e+00	 3.937499999999999e+00	 1.012740065384616e+01
0	 7.187499999999998e+00	 3.999999999999998e+00	 1.012678846153846e+01
0	 7.187499999999999e+00	 4.062499999999999e+00	 1.012624826923077e+01
0	 7.187500000000000e+00	 4.125000000000000e+00	 1.012578007692307e+01
0	 7.187499999999999e+00	 4.187499999999998e+00	 1.012538388461538e+01
0	 7.187499999999999e+00	 4.249999999999998e+00	 1.012505969230768e+01
0	 7.187499999999999e+00	 4.312499999999998e+00	 1.012480750000000e+01
0	 7.187499999999998e+00	 4.375000000000000e+00	 1.012462730769231e+01
0	 7.249999999999998e+00	 3.750000000000000e+00	 1.012397926153847e+01
0	 7.249999999999999e+00	 3.812500000000000e+00	 1.012323943076925e+01
0	 7.249999999999996e+00	 3.874999999999999e+00	 1.012256918153846e+01
0	 7.249999999999999e+00	 3.937500000000000e+00	 1.012196851384616e+01
0	 7.249999999999999e+00	 4.000000000000000e+00	 1.012143742769231e+01
0	 7.250000000000000e+00	 4.062500000000000e+00	 1.012097592307693e+01
0	 7.249999999999999e+00	 4.124999999999999e+00	 1.012058400000000e+01
0	 7.249999999999998e+00	 4.187499999999998e+00	 1.012026165846153e+01
0	 7.249999999999999e+00	 4.249999999999999e+00	 1.012000889846154e+01
0	 7.249999999999999e+00	 4.312499999999997e+00	 1.011982571999999e+01
0	 7.249999999999998e+00	 4.375000000000000e+00	 1.011971212307691e+01
0	 7.312499999999997e+00	 3.750000000000000e+00	 1.011837243076923e+01
0	 7.312499999999998e+00	 3.812500000000000e+00	 1.011771908769231e+01
0	 7.312500000000000e+00	 3.875000000000000e+00	 1.011713290769231e+01
0	 7.312499999999997e+00	 3.937499999999999e+00	 1.011661389076924e+01
0	 7.312499999999998e+00	 3.999999999999999e+00	 1.011616203692309e+01
0	 7.312499999999999e+00	 4.062500000000000e+00	 1.011577734615386e+01
0	 7.312499999999998e+00	 4.124999999999999e+00	 1.011545981846154e+01
0	 7.312500000000000e+00	 4.187499999999999e+00	 1.011520945384616e+01
0	 7.312499999999998e+00	 4.249999999999998e+00	 1.011502625230770e+01
0	 7.312499999999999e+00	 4.312499999999998e+00	 1.011491021384616e+01
0	 7.312499999999997e+00	 4.375000000000000e+00	 1.011486133846154e+01
0	 7.374999999999998e+00	 3.750000000000000e+00	 1.011284873846155e+01
0	 7.374999999999999e+00	 3.812500000000000e+00	 1.011228000923078e+01
0	 7.374999999999996e+00	 3.875000000000000e+00	 1.011177602461539e+01
0	 7.374999999999998e+00	 3.937500000000000e+00	 1.011133678461539e+01
0	 7.374999999999999e+00	 3.999999999999999e+00	 1.011096228923077e+01
0	 7.374999999999998e+00	 4.062499999999998e+00	 1.011065253846154e+01
0	 7.374999999999999e+00	 4.124999999999999e+00	 1.011040753230770e+01
0	 7.374999999999997e+00	 4.187499999999998e+00	 1.011022727076923e+01
0	 7.374999999999997e+00	 4.249999999999998e+00	 1.011011175384617e+01
0	 7.374999999999998e+00	 4.312499999999998e+00	 1.011006098153847e+01
0	 7.374999999999998e+00	 4.375000000000000e+00	 1.011007495384616e+01
0	 7.437499999999998e+00	 3.750000000000000e+00	 1.010740818461539e+01
0	 7.437499999999997e+00	 3.812500000000000e+00	 1.010692219538461e+01
0	 7.437499999999999e+00	 3.875000000000000e+00	 1.010649853230769e+01
0	 7.437499999999998e+00	 3.937499999999999e+00	 1.010613719538461e+01
0	 7.437499999999999e+00	 3.999999999999999e+00	 1.010583818461539e+01
0	 7.437499999999998e+00	 4.062499999999998e+00	 1.010560150000000e+01
0	 7.437499999999998e+00	 4.124999999999998e+00	 1.010542714153846e+01
0	 7.437499999999997e+00	 4.187499999999998e+00	 1.010531510923077e+01
0	 7.437499999999998e+00	 4.249999999999998e+00	 1.010526540307692e+01
0	 7.437499999999997e+00	 4.312499999999998e+00	 1.010527802307693e+01
0	 7.437499999999998e+00	 4.375000000000000e+00	 1.010535296923077e+01
0	 7.500000000000000e+00	 3.750000000000000e+00	 1.010205076923077e+01
0	 7.500000000000001e+00	 3.812500000000000e+00	 1.010164564615385e+01
0	 7.500000000000000e+00	 3.875000000000000e+00	 1.010130043076924e+01
0	 7.500000000000000e+00	 3.937499999999999e+00	 1.010101512307692e+01
0	 7.500000000000000e+00	 4.000000000000000e+00	 1.010078972307693e+01
0	 7.500000000000000e+00	 4.062499999999999e+00	 1.010062423076924e+01
0	 7.500000000000000e+00	 4.124999999999999e+00	 1.010051864615385e+01
0	 7.499999999999999e+00	 4.187499999999998e+00	 1.010047296923078e+01
0	 7.500000000000000e+00	 4.249999999999998e+00	 1.010048720000001e+01
0	 7.500000000000000e+00	 4.312499999999998e+00	 1.010056133846155e+01
0	 7.500000000000000e+00	 4.375000000000000e+00	 1.010069538461538e+01
0	 6.875000000000000e+00	 4.375000000000000e+00	 1.015016923076923e+01
0	 6.875000000000000e+00	 4.437499999999999e+00	 1.014824256923077e+01
0	 6.875000000000000e+00	 4.500000000000001e+00	 1.014638596923077e+01
0	 6.875000000000000e+00	 4.562499999999999e+00	 1.014459943076923e+01
0	 6.875000000000000e+00	 4.625000000000000e+00	 1.014288295384616e+01
0	 6.875000000000000e+00	 4.687499999999999e+00	 1.014123653846153e+01
0	 6.875000000000000e+00	 4.749999999999999e+00	 1.013966018461539e+01
0	 6.875000000000000e+00	 4.812499999999998e+00	 1.013815389230769e+01
0	 6.875000000000000e+00	 4.874999999999998e+00	 1.013671766153846e+01
0	 6.875000000000000e+00	 4.937499999999998e+00	 1.013535149230768e+01
0	 6.875000000000000e+00	 5.000000000000000e+00	 1.013405538461538e+01
0	 6.937500000000000e+00	 4.375000000000000e+00	 1.014493204615384e+01
0	 6.937499999999999e+00	 4.437500000000000e+00	 1.014312099230769e+01
0	 6.937500000000000e+00	 4.499999999999999e+00	 1.014137800615385e+01
0	 6.937500000000000e+00	 4.562499999999999e+00	 1.013970308769230e+01
0	 6.937499999999999e+00	 4.625000000000000e+00	 1.013809623692308e+01
0	 6.937500000000001e+00	 4.687500000000001e+00	 1.013655745384616e+01
0	 6.937500000000000e+00	 4.749999999999999e+00	 1.013508673846153e+01
0	 6.937500000000001e+00	 4.812499999999999e+00	 1.013368409076924e+01
0	 6.937500000000002e+00	 4.875000000000000e+00	 1.013234951076923e+01
0	 6.937499999999999e+00	 4.937499999999997e+00	 1.013108299846153e+01
0	 6.937500000000000e+00	 4.999999999999999e+00	 1.012988455384614e+01
0	 6.999999999999999e+00	 4.375000000000000e+00	 1.013975926153845e+01
0	 6.999999999999999e+00	 4.437500000000000e+00	 1.013806034769232e+01
0	 7.000000000000001e+00	 4.500000000000001e+00	 1.013642750769231e+01
0	 7.000000000000001e+00	 4.562499999999999e+00	 1.013486074153846e+01
0	 6.999999999999999e+00	 4.624999999999998e+00	 1.013336004923077e+01
0	 6.999999999999999e+00	 4.687499999999997e+00	 1.013192543076923e+01
0	 6.999999999999998e+00	 4.749999999999998e+00	 1.013055688615385e+01
0	 7.000000000000001e+00	 4.812499999999999e+00	 1.012925441538461e+01
0	 6.999999999999998e+00	 4.874999999999998e+00	 1.012801801846154e+01
0	 7.000000000000001e+00	 4.937499999999998e+00	 1.012684769538462e+01
0	 6.999999999999999e+00	 5.000000000000000e+00	 1.012574344615386e+01
0	 7.062500000000000e+00	 4.375000000000000e+00	 1.013465087692306e+01
0	 7.062500000000000e+00	 4.437500000000000e+00	 1.013306063538462e+01
0	 7.062500000000001e+00	 4.500000000000000e+00	 1.013153447384615e+01
0	 7.062500000000000e+00	 4.562499999999999e+00	 1.013007239230769e+01
0	 7.062500000000000e+00	 4.625000000000000e+00	 1.012867439076924e+01
0	 7.062500000000000e+00	 4.687499999999999e+00	 1.012734046923077e+01
0	 7.062500000000000e+00	 4.749999999999998e+00	 1.012607062769231e+01
0	 7.062499999999999e+00	 4.812499999999998e+00	 1.012486486615384e+01
0	 7.062499999999998e+00	 4.874999999999998e+00	 1.012372318461539e+01
0	 7.062500000000000e+00	 4.937499999999997e+00	 1.012264558307693e+01
0	 7.062500000000000e+00	 4.999999999999999e+00	 1.012163206153847e+01
0	 7.125000000000000e+00	 4.375000000000000e+00	 1.012960689230770e+01
0	 7.124999999999999e+00	 4.437500000000000e+00	 1.012812185538462e+01
0	 7.125000000000001e+00	 4.500000000000000e+00	 1.012669890461538e+01
0	 7.124999999999998e+00	 4.562499999999999e+00	 1.012533804000000e+01
0	 7.124999999999998e+00	 4.624999999999999e+00	 1.012403926153847e+01
0	 7.125000000000000e+00	 4.687500000000000e+00	 1.012280256923077e+01
0	 7.124999999999997e+00	 4.749999999999998e+00	 1.012162796307693e+01
0	 7.125000000000000e+00	 4.812499999999999e+00	 1.012051544307692e+01
0	 7.124999999999999e+00	 4.874999999999998e+00	 1.011946500923078e+01
0	 7.124999999999999e+00	 4.937499999999997e+00	 1.011847666153846e+01
0	 7.125000000000000e+00	 5.000000000000000e+00	 1.011755040000001e+01
0	 7.187499999999998e+00	 4.375000000000000e+00	 1.012462730769231e+01
0	 7.187499999999998e+00	 4.437499999999999e+00	 1.012324400769230e+01
0	 7.187499999999999e+00	 4.499999999999999e+00	 1.012192080000001e+01
0	 7.187499999999999e+00	 4.562499999999999e+00	 1.012065768461537e+01
0	 7.187499999999998e+00	 4.624999999999998e+00	 1.011945466153847e+01
0	 7.187499999999999e+00	 4.687499999999999e+00	 1.011831173076923e+01
0	 7.187500000000000e+00	 4.750000000000000e+00	 1.011722889230769e+01
0	 7.187499999999999e+00	 4.812499999999998e+00	 1.011620614615385e+01
0	 7.187499999999999e+00	 4.874999999999998e+00	 1.011524349230769e+01
0	 7.187499999999999e+00	 4.937499999999999e+00	 1.011434093076923e+01
0	 7.187499999999998e+00	 5.000000000000000e+00	 1.011349846153845e+01
0	 7.249999999999998e+00	 4.375000000000000e+00	 1.011971212307691e+01
0	 7.249999999999999e+00	 4.437499999999999e+00	 1.011842709230769e+01
0	 7.249999999999996e+00	 4.499999999999998e+00	 1.011720015999999e+01
0	 7.249999999999999e+00	 4.562499999999999e+00	 1.011603132615384e+01
0	 7.249999999999999e+00	 4.625000000000001e+00	 1.011492059076923e+01
0	 7.250000000000000e+00	 4.687499999999999e+00	 1.011386795384615e+01
0	 7.249999999999999e+00	 4.749999999999998e+00	 1.011287341538461e+01
0	 7.249999999999998e+00	 4.812499999999999e+00	 1.011193697538461e+01
0	 7.249999999999999e+00	 4.874999999999998e+00	 1.011105863384616e+01
0	 7.249999999999999e+00	 4.937499999999999e+00	 1.011023839076921e+01
0	 7.249999999999998e+00	 5.000000000000001e+00	 1.010947624615386e+01
0	 7.312499999999997e+00	 4.375000000000000e+00	 1.011486133846154e+01
0	 7.312499999999998e+00	 4.437499999999999e+00	 1.011367110923076e+01
0	 7.312500000000000e+00	 4.500000000000000e+00	 1.011253698461538e+01
0	 7.312499999999997e+00	 4.562499999999999e+00	 1.011145896461538e+01
0	 7.312499999999998e+00	 4.625000000000000e+00	 1.011043704923076e+01
0	 7.312499999999999e+00	 4.687500000000000e+00	 1.010947123846154e+01
0	 7.312499999999998e+00	 4.749999999999999e+00	 1.010856153230769e+01
0	 7.312500000000000e+00	 4.812499999999999e+00	 1.010770793076923e+01
0	 7.312499999999998e+00	 4.874999999999998e+00	 1.010691043384614e+01
0	 7.312499999999999e+00	 4.937499999999999e+00	 1.010616904153846e+01
0	 7.312499999999997e+00	 4.999999999999999e+00	 1.010548375384615e+01
0	 7.374999999999998e+00	 4.375000000000000e+00	 1.011007495384616e+01
0	 7.374999999999999e+00	 4.437500000000001e+00	 1.010897605846155e+01
0	 7.374999999999996e+00	 4.499999999999999e+00	 1.010793127384616e+01
0	 7.374999999999998e+00	 4.562500000000000e+00	 1.010694060000000e+01
0	 7.374999999999999e+00	 4.624999999999999e+00	 1.010600403692307e+01
0	 7.374999999999998e+00	 4.687499999999998e+00	 1.010512158461539e+01
0	 7.374999999999999e+00	 4.749999999999999e+00	 1.010429324307693e+01
0	 7.374999999999997e+00	 4.812499999999998e+00	 1.010351901230769e+01
0	 7.374999999999997e+00	 4.874999999999999e+00	 1.010279889230768e+01
0	 7.374999999999998e+00	 4.937499999999998e+00	 1.010213288307692e+01
0	 7.374999999999998e+00	 5.000000000000000e+00	 1.010152098461539e+01
0	 7.437499999999998e+00	 4.375000000000000e+00	 1.010535296923077e+01
0	 7.437499999999997e+00	 4.437500000000000e+00	 1.010434194000000e+01
0	 7.437499999999999e+00	 4.500000000000000e+00	 1.010338302769231e+01
0	 7.437499999999998e+00	 4.562500000000000e+00	 1.010247623230769e+01
0	 7.437499999999999e+00	 4.624999999999999e+00	 1.010162155384615e+01
0	 7.437499999999998e+00	 4.687499999999999e+00	 1.010081899230769e+01
0	 7.437499999999998e+00	 4.749999999999999e+00	 1.010006854769230e+01
0	 7.437499999999997e+00	 4.812499999999998e+00	 1.009937022000000e+01
0	 7.437499999999998e+00	 4.874999999999999e+00	 1.009872400923077e+01
0	 7.437499999999997e+00	 4.937499999999998e+00	 1.009812991538461e+01
0	 7.437499999999998e+00	 5.000000000000000e+00	 1.009758793846154e+01
0	 7.500000000000000e+00	 4.375000000000000e+00	 1.010069538461538e+01
0	 7.500000000000001e+00	 4.437499999999999e+00	 1.009976875384616e+01
0	 7.500000000000000e+00	 4.500000000000001e+00	 1.009889224615384e+01
0	 7.500000000000000e+00	 4.562499999999999e+00	 1.009806586153847e+01
0	 7.500000000000000e+00	 4.625000000000000e+00	 1.009728959999999e+01
0	 7.500000000000000e+00	 4.687499999999999e+00	 1.009656346153846e+01
0	 7.500000000000000e+00	 4.749999999999999e+00	 1.009588744615385e+01
0	 7.499999999999999e+00	 4.812499999999998e+00	 1.009526155384616e+01
0	 7.500000000000000e+00	 4.874999999999998e+00	 1.009468578461538e+01
0	 7.500000000000000e+00	 4.937499999999998e+00	 1.009416013846152e+01
0	 7.500000000000000e+00	 5.000000000000000e+00	 1.009368461538461e+01
0	 6.875000000000000e+00	 5.000000000000000e+00	 1.013405538461538e+01
0	 6.875000000000000e+00	 5.062500000000000e+00	 1.013182755384616e+01
0	 6.875000000000000e+00	 5.125000000000001e+00	 1.012964560000000e+01
0	 6.875000000000000e+00	 5.187499999999999e+00	 1.012750952307690e+01
0	 6.875000000000000e+00	 5.249999999999999e+00	 1.012541932307693e+01
0	 6.875000000000000e+00	 5.312499999999999e+00	 1.012337500000000e+01
0	 6.875000000000000e+00	 5.374999999999998e+00	 1.012137655384614e+01
0	 6.875000000000000e+00	 5.437499999999998e+00	 1.011942398461538e+01
0	 6.875000000000000e+00	 5.499999999999998e+00	 1.011751729230767e+01
0	 6.875000000000000e+00	 5.562499999999998e+00	 1.011565647692307e+01
0	 6.875000000000000e+00	 5.625000000000000e+00	 1.011384153846153e+01
0	 6.937500000000000e+00	 4.999999999999999e+00	 1.012988455384614e+01
0	 6.937499999999999e+00	 5.062500000000000e+00	 1.012775777692308e+01
0	 6.937500000000000e+00	 5.125000000000000e+00	 1.012567604615385e+01
0	 6.937500000000000e+00	 5.187499999999999e+00	 1.012363936153847e+01
0	 6.937499999999999e+00	 5.249999999999998e+00	 1.012164772307692e+01
0	 6.937500000000001e+00	 5.312500000000000e+00	 1.011970113076923e+01
0	 6.937500000000000e+00	 5.374999999999999e+00	 1.011779958461538e+01
0	 6.937500000000001e+00	 5.437499999999999e+00	 1.011594308461539e+01
0	 6.937500000000002e+00	 5.499999999999999e+00	 1.011413163076924e+01
0	 6.937499999999999e+00	 5.562499999999996e+00	 1.011236522307692e+01
0	 6.937500000000000e+00	 5.625000000000000e+00	 1.011064386153846e+01
0	 6.999999999999999e+00	 5.000000000000000e+00	 1.012574344615386e+01
0	 6.999999999999999e+00	 5.062499999999999e+00	 1.012371567692308e+01
0	 7.000000000000001e+00	 5.125000000000001e+00	 1.012173212307691e+01
0	 7.000000000000001e+00	 5.187499999999998e+00	 1.011979278461538e+01
0	 6.999999999999999e+00	 5.249999999999999e+00	 1.011789766153845e+01
0	 6.999999999999999e+00	 5.312499999999999e+00	 1.011604675384615e+01
0	 6.999999999999998e+00	 5.374999999999999e+00	 1.011424006153846e+01
0	 7.000000000000001e+00	 5.437499999999999e+00	 1.011247758461538e+01
0	 6.999999999999998e+00	 5.499999999999998e+00	 1.011075932307690e+01
0	 7.000000000000001e+00	 5.562499999999999e+00	 1.010908527692306e+01
0	 6.999999999999999e+00	 5.625000000000000e+00	 1.010745544615384e+01
0	 7.062500000000000e+00	 4.999999999999999e+00	 1.012163206153847e+01
0	 7.062500000000000e+00	 5.062500000000001e+00	 1.011970125384615e+01
0	 7.062500000000001e+00	 5.125000000000000e+00	 1.011781383076923e+01
0	 7.062500000000000e+00	 5.187499999999999e+00	 1.011596979230769e+01
0	 7.062500000000000e+00	 5.250000000000000e+00	 1.011416913846153e+01
0	 7.062500000000000e+00	 5.312499999999999e+00	 1.011241186923076e+01
0	 7.062500000000000e+00	 5.374999999999998e+00	 1.011069798461537e+01
0	 7.062499999999999e+00	 5.437499999999999e+00	 1.010902748461537e+01
0	 7.062499999999998e+00	 5.499999999999998e+00	 1.010740036923076e+01
0	 7.062500000000000e+00	 5.562499999999997e+00	 1.010581663846153e+01
0	 7.062500000000000e+00	 5.625000000000000e+00	 1.010427629230766e+01
0	 7.125000000000000e+00	 5.000000000000000e+00	 1.011755040000001e+01
0	 7.124999999999999e+00	 5.062500000000000e+00	 1.011571450769230e+01
0	 7.125000000000001e+00	 5.125000000000000e+00	 1.011392116923075e+01
0	 7.124999999999998e+00	 5.187500000000000e+00	 1.011217038461539e+01
0	 7.124999999999998e+00	 5.249999999999999e+00	 1.011046215384614e+01
0	 7.125000000000000e+00	 5.312499999999999e+00	 1.010879647692308e+01
0	 7.124999999999997e+00	 5.374999999999998e+00	 1.010717335384615e+01
0	 7.125000000000000e+00	 5.437499999999999e+00	 1.010559278461538e+01
0	 7.124999999999999e+00	 5.499999999999999e+00	 1.010405476923075e+01
0	 7.124999999999999e+00	 5.562499999999998e+00	 1.010255930769230e+01
0	 7.125000000000000e+00	 5.625000000000000e+00	 1.010110639999997e+01
0	 7.187499999999998e+00	 5.000000000000000e+00	 1.011349846153845e+01
0	 7.187499999999998e+00	 5.062500000000000e+00	 1.011175543846155e+01
0	 7.187499999999999e+00	 5.124999999999999e+00	 1.011005413846154e+01
0	 7.187499999999999e+00	 5.187500000000000e+00	 1.010839456153845e+01
0	 7.187499999999998e+00	 5.249999999999998e+00	 1.010677670769230e+01
0	 7.187499999999999e+00	 5.312499999999999e+00	 1.010520057692307e+01
0	 7.187500000000000e+00	 5.375000000000000e+00	 1.010366616923076e+01
0	 7.187499999999999e+00	 5.437499999999998e+00	 1.010217348461537e+01
0	 7.187499999999999e+00	 5.499999999999998e+00	 1.010072252307690e+01
0	 7.187499999999999e+00	 5.562499999999999e+00	 1.009931328461537e+01
0	 7.187499999999998e+00	 5.625000000000000e+00	 1.009794576923075e+01
0	 7.249999999999998e+00	 5.000000000000001e+00	 1.010947624615386e+01
0	 7.249999999999999e+00	 5.062499999999999e+00	 1.010782404615383e+01
0	 7.249999999999996e+00	 5.125000000000000e+00	 1.010621273846153e+01
0	 7.249999999999999e+00	 5.187500000000000e+00	 1.010464232307691e+01
0	 7.249999999999999e+00	 5.250000000000001e+00	 1.010311279999999e+01
0	 7.250000000000000e+00	 5.312500000000001e+00	 1.010162416923076e+01
0	 7.249999999999999e+00	 5.374999999999999e+00	 1.010017643076923e+01
0	 7.249999999999998e+00	 5.437499999999999e+00	 1.009876958461538e+01
0	 7.249999999999999e+00	 5.499999999999998e+00	 1.009740363076922e+01
0	 7.249999999999999e+00	 5.562499999999998e+00	 1.009607856923076e+01
0	 7.249999999999998e+00	 5.625000000000000e+00	 1.009479439999999e+01
0	 7.312499999999997e+00	 4.999999999999999e+00	 1.010548375384615e+01
0	 7.312499999999998e+00	 5.062500000000000e+00	 1.010392033076922e+01
0	 7.312500000000000e+00	 5.125000000000000e+00	 1.010239696923076e+01
0	 7.312499999999997e+00	 5.187500000000000e+00	 1.010091366923075e+01
0	 7.312499999999998e+00	 5.250000000000000e+00	 1.009947043076923e+01
0	 7.312499999999999e+00	 5.312500000000000e+00	 1.009806725384615e+01
0	 7.312499999999998e+00	 5.374999999999999e+00	 1.009670413846153e+01
0	 7.312500000000000e+00	 5.437499999999998e+00	 1.009538108461536e+01
0	 7.312499999999998e+00	 5.499999999999998e+00	 1.009409809230768e+01
0	 7.312499999999999e+00	 5.562499999999999e+00	 1.009285516153843e+01
0	 7.312499999999997e+00	 5.625000000000000e+00	 1.009165229230767e+01
0	 7.374999999999998e+00	 5.000000000000000e+00	 1.010152098461539e+01
0	 7.374999999999999e+00	 5.062500000000002e+00	 1.010004429230770e+01
0	 7.374999999999996e+00	 5.124999999999999e+00	 1.009860683076923e+01
0	 7.374999999999998e+00	 5.187500000000000e+00	 1.009720860000001e+01
0	 7.374999999999999e+00	 5.249999999999998e+00	 1.009584959999999e+01
0	 7.374999999999998e+00	 5.312499999999999e+00	 1.009452983076923e+01
0	 7.374999999999999e+00	 5.374999999999998e+00	 1.009324929230769e+01
0	 7.374999999999997e+00	 5.437499999999998e+00	 1.009200798461537e+01
0	 7.374999999999997e+00	 5.499999999999999e+00	 1.009080590769232e+01
0	 7.374999999999998e+00	 5.562499999999998e+00	 1.008964306153846e+01
0	 7.374999999999998e+00	 5.625000000000000e+00	 1.008851944615384e+01
0	 7.437499999999998e+00	 5.000000000000000e+00	 1.009758793846154e+01
0	 7.437499999999997e+00	 5.062500000000000e+00	 1.009619593076923e+01
0	 7.437499999999999e+00	 5.125000000000001e+00	 1.009484232307691e+01
0	 7.437499999999998e+00	 5.187499999999999e+00	 1.009352711538460e+01
0	 7.437499999999999e+00	 5.249999999999999e+00	 1.009225030769230e+01
0	 7.437499999999998e+00	 5.312499999999998e+00	 1.009101189999999e+01
0	 7.437499999999998e+00	 5.374999999999997e+00	 1.008981189230768e+01
0	 7.437499999999997e+00	 5.437499999999998e+00	 1.008865028461537e+01
0	 7.437499999999998e+00	 5.499999999999999e+00	 1.008752707692308e+01
0	 7.437499999999997e+00	 5.562499999999998e+00	 1.008644226923076e+01
0	 7.437499999999998e+00	 5.625000000000000e+00	 1.008539586153844e+01
0	 7.500000000000000e+00	 5.000000000000000e+00	 1.009368461538461e+01
0	 7.500000000000001e+00	 5.062500000000000e+00	 1.009237524615385e+01
0	 7.500000000000000e+00	 5.125000000000001e+00	 1.009110344615384e+01
0	 7.500000000000000e+00	 5.187499999999999e+00	 1.008986921538459e+01
0	 7.500000000000000e+00	 5.249999999999999e+00	 1.008867255384614e+01
0	 7.500000000000000e+00	 5.312499999999999e+00	 1.008751346153846e+01
0	 7.500000000000000e+00	 5.374999999999998e+00	 1.008639193846153e+01
0	 7.499999999999999e+00	 5.437499999999998e+00	 1.008530798461538e+01
0	 7.500000000000000e+00	 5.499999999999998e+00	 1.008426159999998e+01
0	 7.500000000000000e+00	 5.562499999999998e+00	 1.008325278461537e+01
0	 7.500000000000000e+00	 5.625000000000000e+00	 1.008228153846153e+01
0	 6.875000000000000e+00	 5.625000000000000e+00	 1.011384153846153e+01
0	 6.875000000000000e+00	 5.687500000000000e+00	 1.011150255384614e+01
0	 6.875000000000000e+00	 5.750000000000000e+00	 1.010918959999998e+01
0	 6.875000000000000e+00	 5.812499999999999e+00	 1.010690267692307e+01
0	 6.875000000000000e+00	 5.874999999999999e+00	 1.010464178461538e+01
0	 6.875000000000000e+00	 5.937499999999999e+00	 1.010240692307692e+01
0	 6.875000000000000e+00	 5.999999999999998e+00	 1.010019809230771e+01
0	 6.875000000000000e+00	 6.062499999999998e+00	 1.009801529230770e+01
0	 6.875000000000000e+00	 6.124999999999998e+00	 1.009585852307693e+01
0	 6.875000000000000e+00	 6.187499999999998e+00	 1.009372778461539e+01
0	 6.875000000000000e+00	 6.250000000000000e+00	 1.009162307692309e+01
0	 6.937500000000000e+00	 5.625000000000000e+00	 1.011064386153846e+01
0	 6.937499999999999e+00	 5.687499999999999e+00	 1.010839579692307e+01
0	 6.937500000000000e+00	 5.749999999999999e+00	 1.010617339384616e+01
0	 6.937500000000000e+00	 5.812499999999998e+00	 1.010397665230768e+01
0	 6.937499999999999e+00	 5.875000000000000e+00	 1.010180557230769e+01
0	 6.937500000000001e+00	 5.937500000000001e+00	 1.009966015384615e+01
0	 6.937500000000000e+00	 5.999999999999999e+00	 1.009754039692307e+01
0	 6.937500000000001e+00	 6.062500000000000e+00	 1.009544630153847e+01
0	 6.937500000000002e+00	 6.125000000000000e+00	 1.009337786769231e+01
0	 6.937499999999999e+00	 6.187499999999996e+00	 1.009133509538463e+01
0	 6.937500000000000e+00	 6.250000000000000e+00	 1.008931798461538e+01
0	 6.999999999999999e+00	 5.625000000000000e+00	 1.010745544615384e+01
0	 6.999999999999999e+00	 5.687499999999999e+00	 1.010529644923076e+01
0	 7.000000000000001e+00	 5.750000000000002e+00	 1.010316274461537e+01
0	 7.000000000000001e+00	 5.812499999999999e+00	 1.010105433230768e+01
0	 6.999999999999999e+00	 5.874999999999998e+00	 1.009897121230769e+01
0	 6.999999999999999e+00	 5.937499999999999e+00	 1.009691338461538e+01
0	 6.999999999999998e+00	 5.999999999999998e+00	 1.009488084923077e+01
0	 7.000000000000001e+00	 6.062499999999999e+00	 1.009287360615385e+01
0	 6.999999999999998e+00	 6.124999999999998e+00	 1.009089165538461e+01
0	 7.000000000000001e+00	 6.187499999999998e+00	 1.008893499692308e+01
0	 6.999999999999999e+00	 6.250000000000000e+00	 1.008700363076925e+01
0	 7.062500000000000e+00	 5.625000000000000e+00	 1.010427629230766e+01
0	 7.062500000000000e+00	 5.687500000000000e+00	 1.010220451076922e+01
0	 7.062500000000001e+00	 5.749999999999999e+00	 1.010015765230768e+01
0	 7.062500000000000e+00	 5.812499999999999e+00	 1.009813571692307e+01
0	 7.062500000000000e+00	 5.875000000000000e+00	 1.009613870461538e+01
0	 7.062500000000000e+00	 5.937500000000000e+00	 1.009416661538462e+01
0	 7.062500000000000e+00	 5.999999999999998e+00	 1.009221944923078e+01
0	 7.062499999999999e+00	 6.062499999999998e+00	 1.009029720615386e+01
0	 7.062499999999998e+00	 6.124999999999997e+00	 1.008839988615385e+01
0	 7.062500000000000e+00	 6.187499999999997e+00	 1.008652748923078e+01
0	 7.062500000000000e+00	 6.250000000000000e+00	 1.008468001538461e+01
0	 7.125000000000000e+00	 5.625000000000000e+00	 1.010110639999997e+01
0	 7.124999999999999e+00	 5.687500000000000e+00	 1.009911998153843e+01
0	 7.125000000000001e+00	 5.750000000000000e+00	 1.009715811692307e+01
0	 7.124999999999998e+00	 5.812500000000000e+00	 1.009522080615383e+01
0	 7.124999999999998e+00	 5.874999999999999e+00	 1.009330804923075e+01
0	 7.125000000000000e+00	 5.937499999999999e+00	 1.009141984615384e+01
0	 7.124999999999997e+00	 5.999999999999997e+00	 1.008955619692308e+01
0	 7.125000000000000e+00	 6.062499999999998e+00	 1.008771710153847e+01
0	 7.124999999999999e+00	 6.124999999999999e+00	 1.008590256000000e+01
0	 7.124999999999999e+00	 6.187499999999998e+00	 1.008411257230772e+01
0	 7.125000000000000e+00	 6.250000000000000e+00	 1.008234713846155e+01
0	 7.187499999999998e+00	 5.625000000000000e+00	 1.009794576923075e+01
0	 7.187499999999998e+00	 5.687500000000000e+00	 1.009604286153844e+01
0	 7.187499999999999e+00	 5.750000000000000e+00	 1.009416413846153e+01
0	 7.187499999999999e+00	 5.812500000000000e+00	 1.009230960000000e+01
0	 7.187499999999998e+00	 5.874999999999998e+00	 1.009047924615385e+01
0	 7.187499999999999e+00	 5.937499999999998e+00	 1.008867307692308e+01
0	 7.187500000000000e+00	 6.000000000000000e+00	 1.008689109230769e+01
0	 7.187499999999999e+00	 6.062499999999998e+00	 1.008513329230770e+01
0	 7.187499999999999e+00	 6.124999999999998e+00	 1.008339967692309e+01
0	 7.187499999999999e+00	 6.187499999999999e+00	 1.008169024615386e+01
0	 7.187499999999998e+00	 6.250000000000000e+00	 1.008000500000003e+01
0	 7.249999999999998e+00	 5.625000000000000e+00	 1.009479439999999e+01
0	 7.249999999999999e+00	 5.687499999999999e+00	 1.009297315076923e+01
0	 7.249999999999996e+00	 5.750000000000000e+00	 1.009117571692306e+01
0	 7.249999999999999e+00	 5.812499999999999e+00	 1.008940209846153e+01
0	 7.249999999999999e+00	 5.875000000000001e+00	 1.008765229538462e+01
0	 7.250000000000000e+00	 5.937499999999999e+00	 1.008592630769230e+01
0	 7.249999999999999e+00	 5.999999999999998e+00	 1.008422413538462e+01
0	 7.249999999999998e+00	 6.062499999999999e+00	 1.008254577846155e+01
0	 7.249999999999999e+00	 6.124999999999998e+00	 1.008089123692307e+01
0	 7.249999999999999e+00	 6.187499999999998e+00	 1.007926051076923e+01
0	 7.249999999999998e+00	 6.250000000000000e+00	 1.007765359999999e+01
0	 7.312499999999997e+00	 5.625000000000000e+00	 1.009165229230767e+01
0	 7.312499999999998e+00	 5.687500000000000e+00	 1.008991084923074e+01
0	 7.312500000000000e+00	 5.750000000000000e+00	 1.008819285230768e+01
0	 7.312499999999997e+00	 5.812499999999999e+00	 1.008649830153846e+01
0	 7.312499999999998e+00	 5.874999999999999e+00	 1.008482719692308e+01
0	 7.312499999999999e+00	 5.937500000000001e+00	 1.008317953846155e+01
0	 7.312499999999998e+00	 5.999999999999999e+00	 1.008155532615385e+01
0	 7.312500000000000e+00	 6.062499999999999e+00	 1.007995456000001e+01
0	 7.312499999999998e+00	 6.124999999999999e+00	 1.007837724000001e+01
0	 7.312499999999999e+00	 6.187499999999999e+00	 1.007682336615384e+01
0	 7.312499999999997e+00	 6.250000000000000e+00	 1.007529293846156e+01
0	 7.374999999999998e+00	 5.625000000000000e+00	 1.008851944615384e+01
0	 7.374999999999999e+00	 5.687500000000000e+00	 1.008685595692307e+01
0	 7.374999999999996e+00	 5.750000000000000e+00	 1.008521554461537e+01
0	 7.374999999999998e+00	 5.812499999999999e+00	 1.008359820923076e+01
0	 7.374999999999999e+00	 5.875000000000000e+00	 1.008200395076923e+01
0	 7.374999999999998e+00	 5.937500000000000e+00	 1.008043276923076e+01
0	 7.374999999999999e+00	 5.999999999999998e+00	 1.007888466461538e+01
0	 7.374999999999997e+00	 6.062499999999998e+00	 1.007735963692308e+01
0	 7.374999999999997e+00	 6.124999999999999e+00	 1.007585768615385e+01
0	 7.374999999999998e+00	 6.187499999999998e+00	 1.007437881230769e+01
0	 7.374999999999998e+00	 6.250000000000000e+00	 1.007292301538462e+01
0	 7.437499999999998e+00	 5.625000000000000e+00	 1.008539586153844e+01
0	 7.437499999999997e+00	 5.687500000000000e+00	 1.008380847384614e+01
0	 7.437499999999999e+00	 5.750000000000000e+00	 1.008224379384614e+01
0	 7.437499999999998e+00	 5.812499999999999e+00	 1.008070182153845e+01
0	 7.437499999999999e+00	 5.875000000000000e+00	 1.007918255692308e+01
0	 7.437499999999998e+00	 5.937499999999999e+00	 1.007768599999999e+01
0	 7.437499999999998e+00	 5.999999999999998e+00	 1.007621215076923e+01
0	 7.437499999999997e+00	 6.062499999999998e+00	 1.007476100923078e+01
0	 7.437499999999998e+00	 6.124999999999998e+00	 1.007333257538462e+01
0	 7.437499999999997e+00	 6.187499999999997e+00	 1.007192684923077e+01
0	 7.437499999999998e+00	 6.250000000000000e+00	 1.007054383076925e+01
0	 7.500000000000000e+00	 5.625000000000000e+00	 1.008228153846153e+01
0	 7.500000000000001e+00	 5.687500000000000e+00	 1.008076839999999e+01
0	 7.500000000000000e+00	 5.750000000000000e+00	 1.007927759999998e+01
0	 7.500000000000000e+00	 5.812499999999999e+00	 1.007780913846154e+01
0	 7.500000000000000e+00	 5.874999999999999e+00	 1.007636301538461e+01
0	 7.500000000000000e+00	 5.937499999999999e+00	 1.007493923076923e+01
0	 7.500000000000000e+00	 5.999999999999998e+00	 1.007353778461540e+01
0	 7.499999999999999e+00	 6.062499999999998e+00	 1.007215867692308e+01
0	 7.500000000000000e+00	 6.124999999999998e+00	 1.007080190769232e+01
0	 7.500000000000000e+00	 6.187499999999998e+00	 1.006946747692309e+01
0	 7.500000000000000e+00	 6.250000000000000e+00	 1.006815538461539e+01
0	 6.875000000000000e+00	 6.250000000000000e+00	 1.009162307692309e+01
0	 6.875000000000000e+00	 6.312500000000000e+00	 1.008936446153847e+01
0	 6.875000000000000e+00	 6.375000000000000e+00	 1.008711230769232e+01
0	 6.875000000000000e+00	 6.437499999999999e+00	 1.008486661538462e+01
0	 6.875000000000000e+00	 6.499999999999999e+00	 1.008262738461540e+01
0	 6.875000000000000e+00	 6.562499999999998e+00	 1.008039461538462e+01
0	 6.875000000000000e+00	 6.624999999999998e+00	 1.007816830769231e+01
0	 6.875000000000000e+00	 6.687499999999998e+00	 1.007594846153847e+01
0	 6.875000000000000e+00	 6.749999999999998e+00	 1.007373507692307e+01
0	 6.875000000000000e+00	 6.812499999999998e+00	 1.007152815384615e+01
0	 6.875000000000000e+00	 6.875000000000000e+00	 1.006932769230769e+01
0	 6.937500000000000e+00	 6.250000000000000e+00	 1.008931798461538e+01
0	 6.937499999999999e+00	 6.312500000000000e+00	 1.008713061076923e+01
0	 6.937500000000000e+00	 6.374999999999999e+00	 1.008494990153847e+01
0	 6.937500000000000e+00	 6.437500000000000e+00	 1.008277585692308e+01
0	 6.937499999999999e+00	 6.499999999999997e+00	 1.008060847692309e+01
0	 6.937500000000001e+00	 6.562500000000000e+00	 1.007844776153846e+01
0	 6.937500000000000e+00	 6.624999999999999e+00	 1.007629371076922e+01
0	 6.937500000000001e+00	 6.687499999999999e+00	 1.007414632461540e+01
0	 6.937500000000002e+00	 6.749999999999999e+00	 1.007200560307694e+01
0	 6.937499999999999e+00	 6.812499999999996e+00	 1.006987154615383e+01
0	 6.937500000000000e+00	 6.875000000000001e+00	 1.006774415384616e+01
0	 6.999999999999999e+00	 6.250000000000000e+00	 1.008700363076925e+01
0	 6.999999999999999e+00	 6.312499999999999e+00	 1.008488670153847e+01
0	 7.000000000000001e+00	 6.375000000000000e+00	 1.008277664000001e+01
0	 7.000000000000001e+00	 6.437499999999998e+00	 1.008067344615385e+01
0	 6.999999999999999e+00	 6.499999999999996e+00	 1.007857712000001e+01
0	 6.999999999999999e+00	 6.562499999999998e+00	 1.007648766153847e+01
0	 6.999999999999998e+00	 6.624999999999996e+00	 1.007440507076924e+01
0	 7.000000000000001e+00	 6.687499999999999e+00	 1.007232934769232e+01
0	 6.999999999999998e+00	 6.749999999999997e+00	 1.007026049230769e+01
0	 7.000000000000001e+00	 6.812500000000000e+00	 1.006819850461537e+01
0	 6.999999999999999e+00	 6.875000000000000e+00	 1.006614338461538e+01
0	 7.062500000000000e+00	 6.250000000000000e+00	 1.008468001538461e+01
0	 7.062500000000000e+00	 6.312499999999999e+00	 1.008263273384618e+01
0	 7.062500000000001e+00	 6.375000000000000e+00	 1.008059252307693e+01
0	 7.062500000000000e+00	 6.437500000000000e+00	 1.007855938307692e+01
0	 7.062500000000000e+00	 6.499999999999998e+00	 1.007653331384616e+01
0	 7.062500000000000e+00	 6.562499999999999e+00	 1.007451431538462e+01
0	 7.062500000000000e+00	 6.624999999999999e+00	 1.007250238769230e+01
0	 7.062499999999999e+00	 6.687499999999998e+00	 1.007049753076923e+01
0	 7.062499999999998e+00	 6.749999999999998e+00	 1.006849974461537e+01
0	 7.062500000000000e+00	 6.812499999999997e+00	 1.006650902923076e+01
0	 7.062500000000000e+00	 6.874999999999999e+00	 1.006452538461538e+01
0	 7.125000000000000e+00	 6.250000000000000e+00	 1.008234713846155e+01
0	 7.124999999999999e+00	 6.312499999999999e+00	 1.008036870769232e+01
0	 7.125000000000001e+00	 6.375000000000000e+00	 1.007839755076925e+01
0	 7.124999999999998e+00	 6.437499999999999e+00	 1.007643366769232e+01
0	 7.124999999999998e+00	 6.499999999999997e+00	 1.007447705846155e+01
0	 7.125000000000000e+00	 6.562499999999999e+00	 1.007252772307692e+01
0	 7.124999999999997e+00	 6.624999999999998e+00	 1.007058566153845e+01
0	 7.125000000000000e+00	 6.687499999999998e+00	 1.006865087384616e+01
0	 7.124999999999999e+00	 6.749999999999998e+00	 1.006672336000000e+01
0	 7.124999999999999e+00	 6.812499999999998e+00	 1.006480312000003e+01
0	 7.125000000000000e+00	 6.875000000000001e+00	 1.006289015384614e+01
0	 7.187499999999998e+00	 6.250000000000000e+00	 1.008000500000003e+01
0	 7.187499999999998e+00	 6.312500000000000e+00	 1.007809462307694e+01
0	 7.187499999999999e+00	 6.375000000000000e+00	 1.007619172307693e+01
0	 7.187499999999999e+00	 6.437499999999999e+00	 1.007429630000001e+01
0	 7.187499999999998e+00	 6.499999999999997e+00	 1.007240835384615e+01
0	 7.187499999999999e+00	 6.562499999999999e+00	 1.007052788461540e+01
0	 7.187500000000000e+00	 6.625000000000000e+00	 1.006865489230770e+01
0	 7.187499999999999e+00	 6.687499999999999e+00	 1.006678937692308e+01
0	 7.187499999999999e+00	 6.749999999999999e+00	 1.006493133846153e+01
0	 7.187499999999999e+00	 6.812499999999998e+00	 1.006308077692308e+01
0	 7.187499999999998e+00	 6.875000000000000e+00	 1.006123769230767e+01
0	 7.249999999999998e+00	 6.250000000000000e+00	 1.007765359999999e+01
0	 7.249999999999999e+00	 6.312499999999999e+00	 1.007581048000001e+01
0	 7.249999999999996e+00	 6.374999999999997e+00	 1.007397504000000e+01
0	 7.249999999999999e+00	 6.437499999999999e+00	 1.007214728000000e+01
0	 7.249999999999999e+00	 6.500000000000000e+00	 1.007032720000000e+01
0	 7.250000000000000e+00	 6.562500000000001e+00	 1.006851480000001e+01
0	 7.249999999999999e+00	 6.624999999999998e+00	 1.006671008000001e+01
0	 7.249999999999998e+00	 6.687499999999999e+00	 1.006491304000000e+01
0	 7.249999999999999e+00	 6.749999999999999e+00	 1.006312367999997e+01
0	 7.249999999999999e+00	 6.812499999999998e+00	 1.006134200000000e+01
0	 7.249999999999998e+00	 6.875000000000000e+00	 1.005956799999999e+01
0	 7.312499999999997e+00	 6.250000000000000e+00	 1.007529293846156e+01
0	 7.312499999999998e+00	 6.312499999999999e+00	 1.007351627846154e+01
0	 7.312500000000000e+00	 6.375000000000001e+00	 1.007174750153847e+01
0	 7.312499999999997e+00	 6.437499999999999e+00	 1.006998660769232e+01
0	 7.312499999999998e+00	 6.500000000000000e+00	 1.006823359692308e+01
0	 7.312499999999999e+00	 6.562499999999999e+00	 1.006648846923077e+01
0	 7.312499999999998e+00	 6.624999999999999e+00	 1.006475122461538e+01
0	 7.312500000000000e+00	 6.687499999999999e+00	 1.006302186307692e+01
0	 7.312499999999998e+00	 6.749999999999998e+00	 1.006130038461539e+01
0	 7.312499999999999e+00	 6.812499999999999e+00	 1.005958678923079e+01
0	 7.312499999999997e+00	 6.875000000000000e+00	 1.005788107692307e+01
0	 7.374999999999998e+00	 6.250000000000000e+00	 1.007292301538462e+01
0	 7.374999999999999e+00	 6.312500000000001e+00	 1.007121201846156e+01
0	 7.374999999999996e+00	 6.374999999999999e+00	 1.006950910769232e+01
0	 7.374999999999998e+00	 6.437500000000000e+00	 1.006781428307692e+01
0	 7.374999999999999e+00	 6.499999999999999e+00	 1.006612754461540e+01
0	 7.374999999999998e+00	 6.562499999999999e+00	 1.006444889230769e+01
0	 7.374999999999999e+00	 6.624999999999998e+00	 1.006277832615385e+01
0	 7.374999999999997e+00	 6.687499999999998e+00	 1.006111584615385e+01
0	 7.374999999999997e+00	 6.749999999999998e+00	 1.005946145230769e+01
0	 7.374999999999998e+00	 6.812499999999998e+00	 1.005781514461538e+01
0	 7.374999999999998e+00	 6.875000000000000e+00	 1.005617692307693e+01
0	 7.437499999999998e+00	 6.250000000000000e+00	 1.007054383076925e+01
0	 7.437499999999997e+00	 6.312500000000000e+00	 1.006889770000001e+01
0	 7.437499999999999e+00	 6.375000000000000e+00	 1.006725985846154e+01
0	 7.437499999999998e+00	 6.437499999999999e+00	 1.006563030615385e+01
0	 7.437499999999999e+00	 6.499999999999998e+00	 1.006400904307693e+01
0	 7.437499999999998e+00	 6.562499999999998e+00	 1.006239606923077e+01
0	 7.437499999999998e+00	 6.624999999999998e+00	 1.006079138461539e+01
0	 7.437499999999997e+00	 6.687499999999998e+00	 1.005919498923077e+01
0	 7.437499999999998e+00	 6.749999999999999e+00	 1.005760688307692e+01
0	 7.437499999999997e+00	 6.812499999999997e+00	 1.005602706615387e+01
0	 7.437499999999998e+00	 6.875000000000000e+00	 1.005445553846154e+01
0	 7.500000000000000e+00	 6.250000000000000e+00	 1.006815538461539e+01
0	 7.500000000000001e+00	 6.312500000000000e+00	 1.006657332307693e+01
0	 7.500000000000000e+00	 6.375000000000000e+00	 1.006499975384617e+01
0	 7.500000000000000e+00	 6.437499999999999e+00	 1.006343467692307e+01
0	 7.500000000000000e+00	 6.499999999999999e+00	 1.006187809230769e+01
0	 7.500000000000000e+00	 6.562499999999998e+00	 1.006033000000000e+01
0	 7.500000000000000e+00	 6.624999999999998e+00	 1.005879039999999e+01
0	 7.499999999999999e+00	 6.687499999999998e+00	 1.005725929230769e+01
0	 7.500000000000000e+00	 6.749999999999998e+00	 1.005573667692308e+01
0	 7.500000000000000e+00	 6.812499999999998e+00	 1.005422255384616e+01
0	 7.500000000000000e+00	 6.875000000000000e+00	 1.005271692307693e+01
0	 6.875000000000000e+00	 6.875000000000000e+00	 1.006932769230769e+01
0	 6.875000000000000e+00	 6.937500000000000e+00	 1.006725695384615e+01
0	 6.875000000000000e+00	 7.000000000000000e+00	 1.006517643076921e+01
0	 6.875000000000000e+00	 7.062500000000000e+00	 1.006308612307692e+01
0	 6.875000000000000e+00	 7.125000000000000e+00	 1.006098603076922e+01
0	 6.875000000000000e+00	 7.187499999999998e+00	 1.005887615384615e+01
0	 6.875000000000000e+00	 7.249999999999998e+00	 1.005675649230771e+01
0	 6.875000000000000e+00	 7.312499999999998e+00	 1.005462704615385e+01
0	 6.875000000000000e+00	 7.374999999999998e+00	 1.005248781538461e+01
0	 6.875000000000000e+00	 7.437499999999998e+00	 1.005033879999999e+01
0	 6.875000000000000e+00	 7.500000000000000e+00	 1.004818000000000e+01
0	 6.937500000000000e+00	 6.875000000000001e+00	 1.006774415384616e+01
0	 6.937499999999999e+00	 6.937499999999999e+00	 1.006573018307692e+01
0	 6.937500000000000e+00	 6.999999999999999e+00	 1.006370683384616e+01
0	 6.937500000000000e+00	 7.062500000000000e+00	 1.006167410615385e+01
0	 6.937499999999999e+00	 7.124999999999998e+00	 1.005963200000001e+01
0	 6.937500000000001e+00	 7.187499999999999e+00	 1.005758051538461e+01
0	 6.937500000000000e+00	 7.250000000000000e+00	 1.005551965230769e+01
0	 6.937500000000001e+00	 7.312499999999999e+00	 1.005344941076924e+01
0	 6.937500000000002e+00	 7.374999999999999e+00	 1.005136979076923e+01
0	 6.937499999999999e+00	 7.437499999999996e+00	 1.004928079230769e+01
0	 6.937500000000000e+00	 7.500000000000000e+00	 1.004718241538462e+01
0	 6.999999999999999e+00	 6.875000000000000e+00	 1.006614338461538e+01
0	 6.999999999999999e+00	 6.937499999999999e+00	 1.006418577230770e+01
0	 7.000000000000001e+00	 7.000000000000001e+00	 1.006221918769229e+01
0	 7.000000000000001e+00	 7.062499999999999e+00	 1.006024363076923e+01
0	 6.999999999999999e+00	 7.124999999999998e+00	 1.005825910153846e+01
0	 6.999999999999999e+00	 7.187499999999999e+00	 1.005626560000000e+01
0	 6.999999999999998e+00	 7.249999999999996e+00	 1.005426312615385e+01
0	 7.000000000000001e+00	 7.312499999999998e+00	 1.005225168000000e+01
0	 6.999999999999998e+00	 7.374999999999997e+00	 1.005023126153845e+01
0	 7.000000000000001e+00	 7.437500000000000e+00	 1.004820187076923e+01
0	 6.999999999999999e+00	 7.499999999999999e+00	 1.004616350769232e+01
0	 7.062500000000000e+00	 6.874999999999999e+00	 1.006452538461538e+01
0	 7.062500000000000e+00	 6.937499999999999e+00	 1.006262372153848e+01
0	 7.062500000000001e+00	 7.000000000000000e+00	 1.006071349230769e+01
0	 7.062500000000000e+00	 7.062500000000000e+00	 1.005879469692307e+01
0	 7.062500000000000e+00	 7.124999999999999e+00	 1.005686733538462e+01
0	 7.062500000000000e+00	 7.187499999999999e+00	 1.005493140769231e+01
0	 7.062500000000000e+00	 7.250000000000000e+00	 1.005298691384615e+01
0	 7.062499999999999e+00	 7.312499999999999e+00	 1.005103385384616e+01
0	 7.062499999999998e+00	 7.374999999999997e+00	 1.004907222769231e+01
0	 7.062500000000000e+00	 7.437499999999998e+00	 1.004710203538461e+01
0	 7.062500000000000e+00	 7.500000000000000e+00	 1.004512327692309e+01
0	 7.125000000000000e+00	 6.875000000000001e+00	 1.006289015384614e+01
0	 7.124999999999999e+00	 6.937499999999999e+00	 1.006104403076923e+01
0	 7.125000000000001e+00	 7.000000000000001e+00	 1.005918974769231e+01
0	 7.124999999999998e+00	 7.062500000000000e+00	 1.005732730461538e+01
0	 7.124999999999998e+00	 7.124999999999999e+00	 1.005545670153846e+01
0	 7.125000000000000e+00	 7.187499999999999e+00	 1.005357793846152e+01
0	 7.124999999999997e+00	 7.249999999999997e+00	 1.005169101538462e+01
0	 7.125000000000000e+00	 7.312499999999998e+00	 1.004979593230768e+01
0	 7.124999999999999e+00	 7.374999999999999e+00	 1.004789268923078e+01
0	 7.124999999999999e+00	 7.437499999999998e+00	 1.004598128615384e+01
0	 7.125000000000000e+00	 7.500000000000000e+00	 1.004406172307693e+01
0	 7.187499999999998e+00	 6.875000000000000e+00	 1.006123769230767e+01
0	 7.187499999999998e+00	 6.937500000000000e+00	 1.005944670000000e+01
0	 7.187499999999999e+00	 7.000000000000000e+00	 1.005764795384616e+01
0	 7.187499999999999e+00	 7.062500000000000e+00	 1.005584145384615e+01
0	 7.187499999999998e+00	 7.124999999999997e+00	 1.005402720000001e+01
0	 7.187499999999999e+00	 7.187499999999999e+00	 1.005220519230769e+01
0	 7.187500000000000e+00	 7.249999999999999e+00	 1.005037543076922e+01
0	 7.187499999999999e+00	 7.312499999999998e+00	 1.004853791538461e+01
0	 7.187499999999999e+00	 7.374999999999997e+00	 1.004669264615388e+01
0	 7.187499999999999e+00	 7.437499999999998e+00	 1.004483962307693e+01
0	 7.187499999999998e+00	 7.500000000000000e+00	 1.004297884615386e+01
0	 7.249999999999998e+00	 6.875000000000000e+00	 1.005956799999999e+01
0	 7.249999999999999e+00	 6.937500000000000e+00	 1.005783172923078e+01
0	 7.249999999999996e+00	 6.999999999999998e+00	 1.005608811076923e+01
0	 7.249999999999999e+00	 7.062500000000000e+00	 1.005433714461539e+01
0	 7.249999999999999e+00	 7.125000000000000e+00	 1.005257883076924e+01
0	 7.250000000000000e+00	 7.187500000000000e+00	 1.005081316923077e+01
0	 7.249999999999999e+00	 7.249999999999998e+00	 1.004904016000001e+01
0	 7.249999999999998e+00	 7.312499999999999e+00	 1.004725980307694e+01
0	 7.249999999999999e+00	 7.374999999999999e+00	 1.004547209846155e+01
0	 7.249999999999999e+00	 7.437499999999998e+00	 1.004367704615383e+01
0	 7.249999999999998e+00	 7.499999999999999e+00	 1.004187464615386e+01
0	 7.312499999999997e+00	 6.875000000000000e+00	 1.005788107692307e+01
0	 7.312499999999998e+00	 6.937499999999999e+00	 1.005619911846154e+01
0	 7.312500000000000e+00	 7.000000000000001e+00	 1.005451021846153e+01
0	 7.312499999999997e+00	 7.062499999999999e+00	 1.005281437692307e+01
0	 7.312499999999998e+00	 7.124999999999999e+00	 1.005111159384615e+01
0	 7.312499999999999e+00	 7.187500000000000e+00	 1.004940186923077e+01
0	 7.312499999999998e+00	 7.249999999999999e+00	 1.004768520307692e+01
0	 7.312500000000000e+00	 7.312500000000000e+00	 1.004596159538461e+01
0	 7.312499999999998e+00	 7.374999999999998e+00	 1.004423104615384e+01
0	 7.312499999999999e+00	 7.437499999999999e+00	 1.004249355538461e+01
0	 7.312499999999997e+00	 7.499999999999998e+00	 1.004074912307692e+01
0	 7.374999999999998e+00	 6.875000000000000e+00	 1.005617692307693e+01
0	 7.374999999999999e+00	 6.937500000000001e+00	 1.005454886769232e+01
0	 7.374999999999996e+00	 6.999999999999998e+00	 1.005291427692308e+01
0	 7.374999999999998e+00	 7.062500000000000e+00	 1.005127315076923e+01
0	 7.374999999999999e+00	 7.125000000000000e+00	 1.004962548923078e+01
0	 7.374999999999998e+00	 7.187500000000000e+00	 1.004797129230771e+01
0	 7.374999999999999e+00	 7.250000000000000e+00	 1.004631056000001e+01
0	 7.374999999999997e+00	 7.312499999999999e+00	 1.004464329230769e+01
0	 7.374999999999997e+00	 7.374999999999998e+00	 1.004296948923076e+01
0	 7.374999999999998e+00	 7.437499999999998e+00	 1.004128915076922e+01
0	 7.374999999999998e+00	 7.500000000000000e+00	 1.003960227692308e+01
0	 7.437499999999998e+00	 6.875000000000000e+00	 1.005445553846154e+01
0	 7.437499999999997e+00	 6.937500000000001e+00	 1.005288097692308e+01
0	 7.437499999999999e+00	 7.000000000000001e+00	 1.005130028615385e+01
0	 7.437499999999998e+00	 7.062500000000000e+00	 1.004971346615384e+01
0	 7.437499999999999e+00	 7.124999999999999e+00	 1.004812051692309e+01
0	 7.437499999999998e+00	 7.187499999999998e+00	 1.004652143846153e+01
0	 7.437499999999998e+00	 7.249999999999999e+00	 1.004491623076924e+01
0	 7.437499999999997e+00	 7.312499999999998e+00	 1.004330489384616e+01
0	 7.437499999999998e+00	 7.374999999999998e+00	 1.004168742769231e+01
0	 7.437499999999997e+00	 7.437499999999998e+00	 1.004006383230771e+01
0	 7.437499999999998e+00	 7.500000000000000e+00	 1.003843410769231e+01
0	 7.500000000000000e+00	 6.875000000000000e+00	 1.005271692307693e+01
0	 7.500000000000001e+00	 6.937500000000000e+00	 1.005119544615386e+01
0	 7.500000000000000e+00	 7.000000000000000e+00	 1.004966824615383e+01
0	 7.500000000000000e+00	 7.062500000000000e+00	 1.004813532307693e+01
0	 7.500000000000000e+00	 7.125000000000000e+00	 1.004659667692306e+01
0	 7.500000000000000e+00	 7.187499999999998e+00	 1.004505230769231e+01
0	 7.500000000000000e+00	 7.249999999999998e+00	 1.004350221538463e+01
0	 7.499999999999999e+00	 7.312499999999998e+00	 1.004194640000001e+01
0	 7.500000000000000e+00	 7.374999999999998e+00	 1.004038486153846e+01
0	 7.500000000000000e+00	 7.437499999999998e+00	 1.003881760000000e+01
0	 7.500000000000000e+00	 7.500000000000000e+00	 1.003724461538462e+01
0	 6.875000000000000e+00	 7.500000000000000e+00	 1.004818000000000e+01
0	 6.875000000000000e+00	 7.562500000000000e+00	 1.004640784615385e+01
0	 6.875000000000000e+00	 7.625000000000000e+00	 1.004460892307695e+01
0	 6.875000000000000e+00	 7.687499999999999e+00	 1.004278323076923e+01
0	 6.875000000000000e+00	 7.750000000000000e+00	 1.004093076923078e+01
0	 6.875000000000000e+00	 7.812499999999999e+00	 1.003905153846154e+01
0	 6.875000000000000e+00	 7.874999999999998e+00	 1.003714553846154e+01
0	 6.875000000000000e+00	 7.937499999999997e+00	 1.003521276923076e+01
0	 6.875000000000000e+00	 7.999999999999998e+00	 1.003325323076924e+01
0	 6.875000000000000e+00	 8.062499999999996e+00	 1.003126692307693e+01
0	 6.875000000000000e+00	 8.125000000000000e+00	 1.002925384615384e+01
0	 6.937500000000000e+00	 7.500000000000000e+00	 1.004718241538462e+01
0	 6.937499999999999e+00	 7.562499999999999e+00	 1.004545286307693e+01
0	 6.937500000000000e+00	 7.624999999999998e+00	 1.004369728000000e+01
0	 6.937500000000000e+00	 7.687499999999998e+00	 1.004191566615384e+01
0	 6.937499999999999e+00	 7.750000000000000e+00	 1.004010802153846e+01
0	 6.937500000000001e+00	 7.812500000000000e+00	 1.003827434615385e+01
0	 6.937500000000000e+00	 7.874999999999999e+00	 1.003641463999999e+01
0	 6.937500000000001e+00	 7.937499999999998e+00	 1.003452890307694e+01
0	 6.937500000000002e+00	 8.000000000000000e+00	 1.003261713538461e+01
0	 6.937499999999999e+00	 8.062499999999995e+00	 1.003067933692307e+01
0	 6.937500000000000e+00	 8.125000000000000e+00	 1.002871550769230e+01
0	 6.999999999999999e+00	 7.499999999999999e+00	 1.004616350769232e+01
0	 6.999999999999999e+00	 7.562500000000001e+00	 1.004447640615385e+01
0	 7.000000000000001e+00	 7.625000000000001e+00	 1.004276401230770e+01
0	 7.000000000000001e+00	 7.687500000000001e+00	 1.004102632615383e+01
0	 6.999999999999999e+00	 7.749999999999998e+00	 1.003926334769232e+01
0	 6.999999999999999e+00	 7.812499999999998e+00	 1.003747507692308e+01
0	 6.999999999999998e+00	 7.874999999999996e+00	 1.003566151384615e+01
0	 7.000000000000001e+00	 7.937499999999998e+00	 1.003382265846155e+01
0	 6.999999999999998e+00	 7.999999999999999e+00	 1.003195851076923e+01
0	 7.000000000000001e+00	 8.062499999999998e+00	 1.003006907076922e+01
0	 6.999999999999999e+00	 8.125000000000000e+00	 1.002815433846155e+01
0	 7.062500000000000e+00	 7.500000000000000e+00	 1.004512327692309e+01
0	 7.062500000000000e+00	 7.562500000000001e+00	 1.004347847538462e+01
0	 7.062500000000001e+00	 7.625000000000001e+00	 1.004180912000000e+01
0	 7.062500000000000e+00	 7.687500000000000e+00	 1.004011521076922e+01
0	 7.062500000000000e+00	 7.749999999999999e+00	 1.003839674769231e+01
0	 7.062500000000000e+00	 7.812499999999999e+00	 1.003665373076923e+01
0	 7.062500000000000e+00	 7.874999999999998e+00	 1.003488616000001e+01
0	 7.062499999999999e+00	 7.937499999999998e+00	 1.003309403538463e+01
0	 7.062499999999998e+00	 7.999999999999998e+00	 1.003127735692308e+01
0	 7.062500000000000e+00	 8.062499999999996e+00	 1.002943612461538e+01
0	 7.062500000000000e+00	 8.125000000000000e+00	 1.002757033846152e+01
0	 7.125000000000000e+00	 7.500000000000000e+00	 1.004406172307693e+01
0	 7.124999999999999e+00	 7.562500000000000e+00	 1.004245907076922e+01
0	 7.125000000000001e+00	 7.625000000000000e+00	 1.004083260307693e+01
0	 7.124999999999998e+00	 7.687500000000000e+00	 1.003918231999999e+01
0	 7.124999999999998e+00	 7.749999999999998e+00	 1.003750822153846e+01
0	 7.125000000000000e+00	 7.812500000000000e+00	 1.003581030769232e+01
0	 7.124999999999997e+00	 7.874999999999998e+00	 1.003408857846154e+01
0	 7.125000000000000e+00	 7.937499999999999e+00	 1.003234303384615e+01
0	 7.124999999999999e+00	 7.999999999999997e+00	 1.003057367384615e+01
0	 7.124999999999999e+00	 8.062500000000000e+00	 1.002878049846154e+01
0	 7.125000000000000e+00	 8.125000000000000e+00	 1.002696350769231e+01
0	 7.187499999999998e+00	 7.500000000000000e+00	 1.004297884615386e+01
0	 7.187499999999998e+00	 7.562499999999999e+00	 1.004141819230768e+01
0	 7.187499999999999e+00	 7.624999999999999e+00	 1.003983446153846e+01
0	 7.187499999999999e+00	 7.687500000000000e+00	 1.003822765384615e+01
0	 7.187499999999998e+00	 7.749999999999996e+00	 1.003659776923077e+01
0	 7.187499999999999e+00	 7.812499999999999e+00	 1.003494480769231e+01
0	 7.187500000000000e+00	 7.875000000000000e+00	 1.003326876923078e+01
0	 7.187499999999999e+00	 7.937499999999999e+00	 1.003156965384614e+01
0	 7.187499999999999e+00	 7.999999999999998e+00	 1.002984746153846e+01
0	 7.187499999999999e+00	 8.062500000000000e+00	 1.002810219230770e+01
0	 7.187499999999998e+00	 8.125000000000000e+00	 1.002633384615383e+01
0	 7.249999999999998e+00	 7.499999999999999e+00	 1.004187464615386e+01
0	 7.249999999999999e+00	 7.562500000000000e+00	 1.004035583999999e+01
0	 7.249999999999996e+00	 7.624999999999998e+00	 1.003881469538461e+01
0	 7.249999999999999e+00	 7.687499999999998e+00	 1.003725121230769e+01
0	 7.249999999999999e+00	 7.750000000000001e+00	 1.003566539076922e+01
0	 7.250000000000000e+00	 7.812500000000000e+00	 1.003405723076922e+01
0	 7.249999999999999e+00	 7.874999999999998e+00	 1.003242673230768e+01
0	 7.249999999999998e+00	 7.937499999999999e+00	 1.003077389538461e+01
0	 7.249999999999999e+00	 8.000000000000000e+00	 1.002909872000000e+01
0	 7.249999999999999e+00	 8.062499999999998e+00	 1.002740120615382e+01
0	 7.249999999999998e+00	 8.125000000000000e+00	 1.002568135384614e+01
0	 7.312499999999997e+00	 7.499999999999998e+00	 1.004074912307692e+01
0	 7.312499999999998e+00	 7.562500000000000e+00	 1.003927201384617e+01
0	 7.312500000000000e+00	 7.624999999999999e+00	 1.003777330461538e+01
0	 7.312499999999997e+00	 7.687500000000000e+00	 1.003625299538461e+01
0	 7.312499999999998e+00	 7.749999999999998e+00	 1.003471108615386e+01
0	 7.312499999999999e+00	 7.812500000000000e+00	 1.003314757692307e+01
0	 7.312499999999998e+00	 7.874999999999999e+00	 1.003156246769230e+01
0	 7.312500000000000e+00	 7.937500000000000e+00	 1.002995575846154e+01
0	 7.312499999999998e+00	 7.999999999999998e+00	 1.002832744923077e+01
0	 7.312499999999999e+00	 8.062500000000000e+00	 1.002667753999999e+01
0	 7.312499999999997e+00	 8.125000000000000e+00	 1.002500603076923e+01
0	 7.374999999999998e+00	 7.500000000000000e+00	 1.003960227692308e+01
0	 7.374999999999999e+00	 7.562500000000001e+00	 1.003816671384615e+01
0	 7.374999999999996e+00	 7.625000000000000e+00	 1.003671028923077e+01
0	 7.374999999999998e+00	 7.687500000000001e+00	 1.003523300307694e+01
0	 7.374999999999999e+00	 7.749999999999999e+00	 1.003373485538462e+01
0	 7.374999999999998e+00	 7.812499999999998e+00	 1.003221584615386e+01
0	 7.374999999999999e+00	 7.875000000000000e+00	 1.003067597538461e+01
0	 7.374999999999997e+00	 7.937499999999998e+00	 1.002911524307691e+01
0	 7.374999999999997e+00	 7.999999999999998e+00	 1.002753364923077e+01
0	 7.374999999999998e+00	 8.062500000000000e+00	 1.002593119384615e+01
0	 7.374999999999998e+00	 8.125000000000000e+00	 1.002430787692307e+01
0	 7.437499999999998e+00	 7.500000000000000e+00	 1.003843410769231e+01
0	 7.437499999999997e+00	 7.562500000000001e+00	 1.003703993999999e+01
0	 7.437499999999999e+00	 7.624999999999999e+00	 1.003562564923076e+01
0	 7.437499999999998e+00	 7.687499999999999e+00	 1.003419123538462e+01
0	 7.437499999999999e+00	 7.750000000000000e+00	 1.003273669846153e+01
0	 7.437499999999998e+00	 7.812499999999999e+00	 1.003126203846153e+01
0	 7.437499999999998e+00	 7.874999999999998e+00	 1.002976725538462e+01
0	 7.437499999999997e+00	 7.937499999999998e+00	 1.002825234923077e+01
0	 7.437499999999998e+00	 7.999999999999998e+00	 1.002671731999999e+01
0	 7.437499999999997e+00	 8.062499999999998e+00	 1.002516216769231e+01
0	 7.437499999999998e+00	 8.125000000000000e+00	 1.002358689230769e+01
0	 7.500000000000000e+00	 7.500000000000000e+00	 1.003724461538462e+01
0	 7.500000000000001e+00	 7.562500000000000e+00	 1.003589169230770e+01
0	 7.500000000000000e+00	 7.625000000000000e+00	 1.003451938461540e+01
0	 7.500000000000000e+00	 7.687499999999999e+00	 1.003312769230769e+01
0	 7.500000000000000e+00	 7.750000000000000e+00	 1.003171661538462e+01
0	 7.500000000000000e+00	 7.812499999999999e+00	 1.003028615384615e+01
0	 7.500000000000000e+00	 7.874999999999998e+00	 1.002883630769231e+01
0	 7.499999999999999e+00	 7.937499999999997e+00	 1.002736707692306e+01
0	 7.500000000000000e+00	 7.999999999999998e+00	 1.002587846153845e+01
0	 7.500000000000000e+00	 8.062499999999996e+00	 1.002437046153845e+01
0	 7.500000000000000e+00	 8.125000000000000e+00	 1.002284307692307e+01
0	 6.875000000000000e+00	 8.125000000000000e+00	 1.002925384615384e+01
0	 6.875000000000000e+00	 8.187500000000000e+00	 1.002789404615385e+01
0	 6.875000000000000e+00	 8.250000000000002e+00	 1.002648910769229e+01
0	 6.875000000000000e+00	 8.312500000000000e+00	 1.002503903076921e+01
0	 6.875000000000000e+00	 8.374999999999998e+00	 1.002354381538460e+01
0	 6.875000000000000e+00	 8.437500000000000e+00	 1.002200346153847e+01
0	 6.875000000000000e+00	 8.500000000000000e+00	 1.002041796923077e+01
0	 6.875000000000000e+00	 8.562499999999998e+00	 1.001878733846152e+01
0	 6.875000000000000e+00	 8.625000000000000e+00	 1.001711156923077e+01
0	 6.875000000000000e+00	 8.687499999999998e+00	 1.001539066153844e+01
0	 6.875000000000000e+00	 8.750000000000000e+00	 1.001362461538460e+01
0	 6.937500000000000e+00	 8.125000000000000e+00	 1.002871550769230e+01
0	 6.937499999999999e+00	 8.187500000000002e+00	 1.002738720769231e+01
0	 6.937500000000000e+00	 8.250000000000000e+00	 1.002601471076923e+01
0	 6.937500000000000e+00	 8.312499999999998e+00	 1.002459801692307e+01
0	 6.937499999999999e+00	 8.374999999999998e+00	 1.002313712615385e+01
0	 6.937500000000001e+00	 8.437500000000000e+00	 1.002163203846154e+01
0	 6.937500000000000e+00	 8.500000000000002e+00	 1.002008275384614e+01
0	 6.937500000000001e+00	 8.562500000000000e+00	 1.001848927230768e+01
0	 6.937500000000002e+00	 8.625000000000002e+00	 1.001685159384614e+01
0	 6.937499999999999e+00	 8.687499999999996e+00	 1.001516971846153e+01
0	 6.937500000000000e+00	 8.750000000000002e+00	 1.001344364615383e+01
0	 6.999999999999999e+00	 8.125000000000000e+00	 1.002815433846155e+01
0	 6.999999999999999e+00	 8.187499999999998e+00	 1.002685725846154e+01
0	 7.000000000000001e+00	 8.250000000000000e+00	 1.002551692307693e+01
0	 7.000000000000001e+00	 8.312500000000000e+00	 1.002413333230767e+01
0	 6.999999999999999e+00	 8.374999999999998e+00	 1.002270648615383e+01
0	 6.999999999999999e+00	 8.437499999999998e+00	 1.002123638461537e+01
0	 6.999999999999998e+00	 8.499999999999996e+00	 1.001972302769230e+01
0	 7.000000000000001e+00	 8.562500000000002e+00	 1.001816641538461e+01
0	 6.999999999999998e+00	 8.624999999999998e+00	 1.001656654769229e+01
0	 7.000000000000001e+00	 8.687499999999998e+00	 1.001492342461538e+01
0	 6.999999999999999e+00	 8.750000000000000e+00	 1.001323704615381e+01
0	 7.062500000000000e+00	 8.125000000000000e+00	 1.002757033846152e+01
0	 7.062500000000000e+00	 8.187500000000000e+00	 1.002630419846154e+01
0	 7.062500000000001e+00	 8.250000000000002e+00	 1.002499574461540e+01
0	 7.062500000000000e+00	 8.312499999999998e+00	 1.002364497692310e+01
0	 7.062500000000000e+00	 8.374999999999998e+00	 1.002225189538461e+01
0	 7.062500000000000e+00	 8.437500000000000e+00	 1.002081649999998e+01
0	 7.062500000000000e+00	 8.499999999999998e+00	 1.001933879076923e+01
0	 7.062499999999999e+00	 8.562500000000000e+00	 1.001781876769230e+01
0	 7.062499999999998e+00	 8.625000000000000e+00	 1.001625643076920e+01
0	 7.062500000000000e+00	 8.687499999999996e+00	 1.001465178000000e+01
0	 7.062500000000000e+00	 8.750000000000000e+00	 1.001300481538460e+01
0	 7.125000000000000e+00	 8.125000000000000e+00	 1.002696350769231e+01
0	 7.124999999999999e+00	 8.187499999999998e+00	 1.002572802769228e+01
0	 7.125000000000001e+00	 8.250000000000002e+00	 1.002445117538461e+01
0	 7.124999999999998e+00	 8.312500000000000e+00	 1.002313295076922e+01
0	 7.124999999999998e+00	 8.374999999999998e+00	 1.002177335384613e+01
0	 7.125000000000000e+00	 8.437500000000000e+00	 1.002037238461537e+01
0	 7.124999999999997e+00	 8.499999999999998e+00	 1.001893004307691e+01
0	 7.125000000000000e+00	 8.562499999999998e+00	 1.001744632923079e+01
0	 7.124999999999999e+00	 8.624999999999998e+00	 1.001592124307690e+01
0	 7.124999999999999e+00	 8.687499999999996e+00	 1.001435478461537e+01
0	 7.125000000000000e+00	 8.749999999999998e+00	 1.001274695384612e+01
0	 7.187499999999998e+00	 8.125000000000000e+00	 1.002633384615383e+01
0	 7.187499999999998e+00	 8.187499999999998e+00	 1.002512874615382e+01
0	 7.187499999999999e+00	 8.249999999999998e+00	 1.002388321538462e+01
0	 7.187499999999999e+00	 8.312500000000000e+00	 1.002259725384614e+01
0	 7.187499999999998e+00	 8.374999999999998e+00	 1.002127086153846e+01
0	 7.187499999999999e+00	 8.437499999999998e+00	 1.001990403846153e+01
0	 7.187500000000000e+00	 8.500000000000002e+00	 1.001849678461538e+01
0	 7.187499999999999e+00	 8.562499999999998e+00	 1.001704909999999e+01
0	 7.187499999999999e+00	 8.624999999999998e+00	 1.001556098461539e+01
0	 7.187499999999999e+00	 8.687500000000000e+00	 1.001403243846151e+01
0	 7.187499999999998e+00	 8.750000000000000e+00	 1.001246346153848e+01
0	 7.249999999999998e+00	 8.125000000000000e+00	 1.002568135384614e+01
0	 7.249999999999999e+00	 8.187500000000000e+00	 1.002450635384615e+01
0	 7.249999999999996e+00	 8.249999999999998e+00	 1.002329186461538e+01
0	 7.249999999999999e+00	 8.312500000000000e+00	 1.002203788615383e+01
0	 7.249999999999999e+00	 8.375000000000002e+00	 1.002074441846154e+01
0	 7.250000000000000e+00	 8.437500000000002e+00	 1.001941146153846e+01
0	 7.249999999999999e+00	 8.499999999999998e+00	 1.001803901538460e+01
0	 7.249999999999998e+00	 8.562500000000000e+00	 1.001662708000000e+01
0	 7.249999999999999e+00	 8.624999999999998e+00	 1.001517565538462e+01
0	 7.249999999999999e+00	 8.687499999999998e+00	 1.001368474153847e+01
0	 7.249999999999998e+00	 8.750000000000000e+00	 1.001215433846152e+01
0	 7.312499999999997e+00	 8.125000000000000e+00	 1.002500603076923e+01
0	 7.312499999999998e+00	 8.187500000000000e+00	 1.002386085076921e+01
0	 7.312500000000000e+00	 8.250000000000000e+00	 1.002267712307691e+01
0	 7.312499999999997e+00	 8.312500000000000e+00	 1.002145484769229e+01
0	 7.312499999999998e+00	 8.374999999999998e+00	 1.002019402461537e+01
0	 7.312499999999999e+00	 8.437500000000000e+00	 1.001889465384614e+01
0	 7.312499999999998e+00	 8.500000000000000e+00	 1.001755673538461e+01
0	 7.312500000000000e+00	 8.562499999999998e+00	 1.001618026923078e+01
0	 7.312499999999998e+00	 8.624999999999998e+00	 1.001476525538459e+01
0	 7.312499999999999e+00	 8.687500000000000e+00	 1.001331169384616e+01
0	 7.312499999999997e+00	 8.750000000000000e+00	 1.001181958461539e+01
0	 7.374999999999998e+00	 8.125000000000000e+00	 1.002430787692307e+01
0	 7.374999999999999e+00	 8.187500000000002e+00	 1.002319223692307e+01
0	 7.374999999999996e+00	 8.250000000000000e+00	 1.002203899076925e+01
0	 7.374999999999998e+00	 8.312500000000000e+00	 1.002084813846154e+01
0	 7.374999999999999e+00	 8.375000000000002e+00	 1.001961968000000e+01
0	 7.374999999999998e+00	 8.437500000000000e+00	 1.001835361538460e+01
0	 7.374999999999999e+00	 8.500000000000000e+00	 1.001704994461538e+01
0	 7.374999999999997e+00	 8.562499999999996e+00	 1.001570866769232e+01
0	 7.374999999999997e+00	 8.624999999999998e+00	 1.001432978461538e+01
0	 7.374999999999998e+00	 8.687499999999998e+00	 1.001291329538463e+01
0	 7.374999999999998e+00	 8.750000000000002e+00	 1.001145920000000e+01
0	 7.437499999999998e+00	 8.125000000000000e+00	 1.002358689230769e+01
0	 7.437499999999997e+00	 8.187500000000000e+00	 1.002250051230769e+01
0	 7.437499999999999e+00	 8.250000000000002e+00	 1.002137746769231e+01
0	 7.437499999999998e+00	 8.312499999999998e+00	 1.002021775846153e+01
0	 7.437499999999999e+00	 8.374999999999998e+00	 1.001902138461539e+01
0	 7.437499999999998e+00	 8.437499999999998e+00	 1.001778834615385e+01
0	 7.437499999999998e+00	 8.499999999999998e+00	 1.001651864307691e+01
0	 7.437499999999997e+00	 8.562499999999998e+00	 1.001521227538461e+01
0	 7.437499999999998e+00	 8.624999999999998e+00	 1.001386924307693e+01
0	 7.437499999999997e+00	 8.687499999999998e+00	 1.001248954615384e+01
0	 7.437499999999998e+00	 8.750000000000000e+00	 1.001107318461540e+01
0	 7.500000000000000e+00	 8.125000000000000e+00	 1.002284307692307e+01
0	 7.500000000000001e+00	 8.187500000000000e+00	 1.002178567692307e+01
0	 7.500000000000000e+00	 8.250000000000002e+00	 1.002069255384613e+01
0	 7.500000000000000e+00	 8.312500000000000e+00	 1.001956370769230e+01
0	 7.500000000000000e+00	 8.374999999999998e+00	 1.001839913846153e+01
0	 7.500000000000000e+00	 8.437500000000000e+00	 1.001719884615385e+01
0	 7.500000000000000e+00	 8.500000000000000e+00	 1.001596283076922e+01
0	 7.499999999999999e+00	 8.562499999999998e+00	 1.001469109230768e+01
0	 7.500000000000000e+00	 8.625000000000000e+00	 1.001338363076924e+01
0	 7.500000000000000e+00	 8.687499999999998e+00	 1.001204044615384e+01
0	 7.500000000000000e+00	 8.750000000000000e+00	 1.001066153846154e+01
0	 6.875000000000000e+00	 8.750000000000000e+00	 1.001362461538460e+01
0	 6.875000000000000e+00	 8.812500000000000e+00	 1.001282155384614e+01
0	 6.875000000000000e+00	 8.875000000000002e+00	 1.001194990769231e+01
0	 6.875000000000000e+00	 8.937499999999998e+00	 1.001100967692306e+01
0	 6.875000000000000e+00	 9.000000000000000e+00	 1.001000086153847e+01
0	 6.875000000000000e+00	 9.062500000000000e+00	 1.000892346153845e+01
0	 6.875000000000000e+00	 9.124999999999998e+00	 1.000777747692306e+01
0	 6.875000000000000e+00	 9.187499999999998e+00	 1.000656290769230e+01
0	 6.875000000000000e+00	 9.249999999999998e+00	 1.000527975384614e+01
0	 6.875000000000000e+00	 9.312499999999998e+00	 1.000392801538462e+01
0	 6.875000000000000e+00	 9.375000000000000e+00	 1.000250769230770e+01
0	 6.937500000000000e+00	 8.750000000000002e+00	 1.001344364615383e+01
0	 6.937499999999999e+00	 8.812499999999998e+00	 1.001266070307693e+01
0	 6.937500000000000e+00	 8.875000000000000e+00	 1.001181058769230e+01
0	 6.937500000000000e+00	 8.937500000000000e+00	 1.001089329999999e+01
0	 6.937499999999999e+00	 9.000000000000000e+00	 1.000990884000000e+01
0	 6.937500000000001e+00	 9.062500000000000e+00	 1.000885720769230e+01
0	 6.937500000000000e+00	 9.125000000000000e+00	 1.000773840307691e+01
0	 6.937500000000001e+00	 9.187499999999998e+00	 1.000655242615385e+01
0	 6.937500000000002e+00	 9.250000000000000e+00	 1.000529927692309e+01
0	 6.937499999999999e+00	 9.312499999999996e+00	 1.000397895538462e+01
0	 6.937500000000000e+00	 9.375000000000000e+00	 1.000259146153848e+01
0	 6.999999999999999e+00	 8.750000000000000e+00	 1.001323704615381e+01
0	 6.999999999999999e+00	 8.812500000000000e+00	 1.001247366153845e+01
0	 7.000000000000001e+00	 8.875000000000004e+00	 1.001164451692306e+01
0	 7.000000000000001e+00	 8.937500000000000e+00	 1.001074961230768e+01
0	 6.999999999999999e+00	 8.999999999999998e+00	 1.000978894769230e+01
0	 6.999999999999999e+00	 9.062500000000000e+00	 1.000876252307692e+01
0	 6.999999999999998e+00	 9.124999999999998e+00	 1.000767033846153e+01
0	 7.000000000000001e+00	 9.187500000000002e+00	 1.000651239384615e+01
0	 6.999999999999998e+00	 9.249999999999996e+00	 1.000528868923074e+01
0	 7.000000000000001e+00	 9.312499999999998e+00	 1.000399922461536e+01
0	 6.999999999999999e+00	 9.375000000000000e+00	 1.000264400000002e+01
0	 7.062500000000000e+00	 8.750000000000000e+00	 1.001300481538460e+01
0	 7.062500000000000e+00	 8.812500000000000e+00	 1.001226042923077e+01
0	 7.062500000000001e+00	 8.875000000000002e+00	 1.001145169538462e+01
0	 7.062500000000000e+00	 8.937500000000000e+00	 1.001057861384616e+01
0	 7.062500000000000e+00	 9.000000000000000e+00	 1.000964118461537e+01
0	 7.062500000000000e+00	 9.062499999999998e+00	 1.000863940769230e+01
0	 7.062500000000000e+00	 9.124999999999998e+00	 1.000757328307694e+01
0	 7.062499999999999e+00	 9.187500000000002e+00	 1.000644281076923e+01
0	 7.062499999999998e+00	 9.249999999999998e+00	 1.000524799076921e+01
0	 7.062500000000000e+00	 9.312499999999998e+00	 1.000398882307691e+01
0	 7.062500000000000e+00	 9.375000000000002e+00	 1.000266530769228e+01
0	 7.125000000000000e+00	 8.749999999999998e+00	 1.001274695384612e+01
0	 7.124999999999999e+00	 8.812500000000000e+00	 1.001202100615384e+01
0	 7.125000000000001e+00	 8.875000000000002e+00	 1.001123212307694e+01
0	 7.124999999999998e+00	 8.937500000000000e+00	 1.001038030461537e+01
0	 7.124999999999998e+00	 8.999999999999998e+00	 1.000946555076922e+01
0	 7.125000000000000e+00	 9.062500000000000e+00	 1.000848786153846e+01
0	 7.124999999999997e+00	 9.124999999999998e+00	 1.000744723692308e+01
0	 7.125000000000000e+00	 9.187500000000000e+00	 1.000634367692306e+01
0	 7.124999999999999e+00	 9.249999999999998e+00	 1.000517718153847e+01
0	 7.124999999999999e+00	 9.312500000000000e+00	 1.000394775076923e+01
0	 7.125000000000000e+00	 9.375000000000002e+00	 1.000265538461541e+01
0	 7.187499999999998e+00	 8.750000000000000e+00	 1.001246346153848e+01
0	 7.187499999999998e+00	 8.812500000000000e+00	 1.001175539230771e+01
0	 7.187499999999999e+00	 8.875000000000000e+00	 1.001098579999998e+01
0	 7.187499999999999e+00	 8.937500000000000e+00	 1.001015468461539e+01
0	 7.187499999999998e+00	 8.999999999999998e+00	 1.000926204615384e+01
0	 7.187499999999999e+00	 9.062500000000000e+00	 1.000830788461539e+01
0	 7.187500000000000e+00	 9.125000000000002e+00	 1.000729219999998e+01
0	 7.187499999999999e+00	 9.187499999999998e+00	 1.000621499230768e+01
0	 7.187499999999999e+00	 9.249999999999998e+00	 1.000507626153844e+01
0	 7.187499999999999e+00	 9.312500000000000e+00	 1.000387600769230e+01
0	 7.187499999999998e+00	 9.375000000000002e+00	 1.000261423076923e+01
0	 7.249999999999998e+00	 8.750000000000000e+00	 1.001215433846152e+01
0	 7.249999999999999e+00	 8.812500000000000e+00	 1.001146358769229e+01
0	 7.249999999999996e+00	 8.874999999999996e+00	 1.001071272615383e+01
0	 7.249999999999999e+00	 8.937499999999998e+00	 1.000990175384614e+01
0	 7.249999999999999e+00	 9.000000000000004e+00	 1.000903067076922e+01
0	 7.250000000000000e+00	 9.062500000000002e+00	 1.000809947692307e+01
0	 7.249999999999999e+00	 9.124999999999998e+00	 1.000710817230769e+01
0	 7.249999999999998e+00	 9.187500000000000e+00	 1.000605675692306e+01
0	 7.249999999999999e+00	 9.249999999999998e+00	 1.000494523076922e+01
0	 7.249999999999999e+00	 9.312499999999998e+00	 1.000377359384616e+01
0	 7.249999999999998e+00	 9.375000000000000e+00	 1.000254184615385e+01
0	 7.312499999999997e+00	 8.750000000000000e+00	 1.001181958461539e+01
0	 7.312499999999998e+00	 8.812499999999998e+00	 1.001114559230770e+01
0	 7.312500000000000e+00	 8.875000000000002e+00	 1.001041290153845e+01
0	 7.312499999999997e+00	 8.937500000000002e+00	 1.000962151230771e+01
0	 7.312499999999998e+00	 8.999999999999998e+00	 1.000877142461538e+01
0	 7.312499999999999e+00	 9.062500000000000e+00	 1.000786263846153e+01
0	 7.312499999999998e+00	 9.125000000000000e+00	 1.000689515384613e+01
0	 7.312500000000000e+00	 9.187500000000000e+00	 1.000586897076923e+01
0	 7.312499999999998e+00	 9.249999999999998e+00	 1.000478408923075e+01
0	 7.312499999999999e+00	 9.312500000000000e+00	 1.000364050923079e+01
0	 7.312499999999997e+00	 9.375000000000000e+00	 1.000243823076922e+01
0	 7.374999999999998e+00	 8.750000000000002e+00	 1.001145920000000e+01
0	 7.374999999999999e+00	 8.812500000000002e+00	 1.001080140615383e+01
0	 7.374999999999996e+00	 8.875000000000000e+00	 1.001008632615384e+01
0	 7.374999999999998e+00	 8.937500000000002e+00	 1.000931396000000e+01
0	 7.374999999999999e+00	 8.999999999999998e+00	 1.000848430769230e+01
0	 7.374999999999998e+00	 9.062499999999998e+00	 1.000759736923077e+01
0	 7.374999999999999e+00	 9.125000000000000e+00	 1.000665314461537e+01
0	 7.374999999999997e+00	 9.187499999999998e+00	 1.000565163384616e+01
0	 7.374999999999997e+00	 9.250000000000000e+00	 1.000459283692309e+01
0	 7.374999999999998e+00	 9.312499999999998e+00	 1.000347675384616e+01
0	 7.374999999999998e+00	 9.375000000000000e+00	 1.000230338461539e+01
0	 7.437499999999998e+00	 8.750000000000000e+00	 1.001107318461540e+01
0	 7.437499999999997e+00	 8.812500000000000e+00	 1.001043102923075e+01
0	 7.437499999999999e+00	 8.875000000000002e+00	 1.000973299999999e+01
0	 7.437499999999998e+00	 8.937500000000000e+00	 1.000897909692308e+01
0	 7.437499999999999e+00	 9.000000000000000e+00	 1.000816932000000e+01
0	 7.437499999999998e+00	 9.062500000000000e+00	 1.000730366923077e+01
0	 7.437499999999998e+00	 9.125000000000000e+00	 1.000638214461539e+01
0	 7.437499999999997e+00	 9.187499999999998e+00	 1.000540474615385e+01
0	 7.437499999999998e+00	 9.249999999999998e+00	 1.000437147384616e+01
0	 7.437499999999997e+00	 9.312499999999996e+00	 1.000328232769231e+01
0	 7.437499999999998e+00	 9.375000000000000e+00	 1.000213730769233e+01
0	 7.500000000000000e+00	 8.750000000000000e+00	 1.001066153846154e+01
0	 7.500000000000001e+00	 8.812500000000000e+00	 1.001003446153846e+01
0	 7.500000000000000e+00	 8.875000000000002e+00	 1.000935292307693e+01
0	 7.500000000000000e+00	 8.937499999999998e+00	 1.000861692307691e+01
0	 7.500000000000000e+00	 9.000000000000000e+00	 1.000782646153846e+01
0	 7.500000000000000e+00	 9.062500000000000e+00	 1.000698153846153e+01
0	 7.500000000000000e+00	 9.124999999999998e+00	 1.000608215384614e+01
0	 7.499999999999999e+00	 9.187499999999998e+00	 1.000512830769229e+01
0	 7.500000000000000e+00	 9.249999999999998e+00	 1.000411999999998e+01
0	 7.500000000000000e+00	 9.312499999999998e+00	 1.000305723076923e+01
0	 7.500000000000000e+00	 9.375000000000000e+00	 1.000193999999999e+01
0	 6.875000000000000e+00	 9.375000000000000e+00	 1.000250769230770e+01
0	 6.875000000000001e+00	 9.437499999999998e+00	 1.000250327692308e+01
0	 6.874999999999999e+00	 9.500000000000000e+00	 1.000240110769231e+01
0	 6.874999999999999e+00	 9.562500000000000e+00	 1.000220118461538e+01
0	 6.875000000000001e+00	 9.625000000000000e+00	 1.000190350769229e+01
0	 6.875000000000001e+00	 9.687499999999998e+00	 1.000150807692307e+01
0	 6.875000000000000e+00	 9.749999999999998e+00	 1.000101489230769e+01
0	 6.875000000000000e+00	 9.812500000000000e+00	 1.000042395384613e+01
0	 6.875000000000001e+00	 9.875000000000000e+00	 9.999735261538419e+00
0	 6.875000000000000e+00	 9.937499999999998e+00	 9.998948815384592e+00
0	 6.875000000000000e+00	 1.000000000000000e+01	 9.998064615384589e+00
0	 6.937500000000000e+00	 9.375000000000000e+00	 1.000259146153848e+01
0	 6.937500000000001e+00	 9.437500000000002e+00	 1.000259211538462e+01
0	 6.937499999999998e+00	 9.500000000000000e+00	 1.000249712000000e+01
0	 6.937500000000000e+00	 9.562500000000000e+00	 1.000230647538460e+01
0	 6.937500000000000e+00	 9.625000000000000e+00	 1.000202018153848e+01
0	 6.937500000000001e+00	 9.687500000000000e+00	 1.000163823846153e+01
0	 6.937500000000000e+00	 9.749999999999998e+00	 1.000116064615382e+01
0	 6.937500000000000e+00	 9.812499999999998e+00	 1.000058740461534e+01
0	 6.937500000000000e+00	 9.874999999999998e+00	 9.999918513846119e+00
0	 6.937499999999999e+00	 9.937499999999996e+00	 9.999153973846157e+00
0	 6.937500000000000e+00	 1.000000000000000e+01	 9.998293784615328e+00
0	 6.999999999999999e+00	 9.375000000000000e+00	 1.000264400000002e+01
0	 6.999999999999998e+00	 9.437499999999998e+00	 1.000264871076922e+01
0	 7.000000000000000e+00	 9.500000000000000e+00	 1.000255987692308e+01
0	 7.000000000000000e+00	 9.562500000000000e+00	 1.000237749846155e+01
0	 7.000000000000000e+00	 9.625000000000002e+00	 1.000210157538460e+01
0	 6.999999999999999e+00	 9.687500000000002e+00	 1.000173210769230e+01
0	 7.000000000000000e+00	 9.750000000000000e+00	 1.000126909538458e+01
0	 7.000000000000001e+00	 9.812500000000002e+00	 1.000071253846155e+01
0	 7.000000000000000e+00	 9.874999999999996e+00	 1.000006243692306e+01
0	 7.000000000000000e+00	 9.937500000000000e+00	 9.999318790769223e+00
0	 6.999999999999999e+00	 1.000000000000000e+01	 9.998481599999927e+00
0	 7.062500000000000e+00	 9.375000000000002e+00	 1.000266530769228e+01
0	 7.062500000000000e+00	 9.437500000000000e+00	 1.000267306307689e+01
0	 7.062499999999998e+00	 9.499999999999996e+00	 1.000258937846152e+01
0	 7.062500000000001e+00	 9.562500000000000e+00	 1.000241425384617e+01
0	 7.062499999999998e+00	 9.624999999999998e+00	 1.000214768923076e+01
0	 7.062499999999999e+00	 9.687500000000000e+00	 1.000178968461537e+01
0	 7.062500000000000e+00	 9.749999999999996e+00	 1.000134023999997e+01
0	 7.062499999999999e+00	 9.812499999999996e+00	 1.000079935538460e+01
0	 7.062500000000000e+00	 9.875000000000000e+00	 1.000016703076918e+01
0	 7.062499999999999e+00	 9.937499999999998e+00	 9.999443266153776e+00
0	 7.062499999999999e+00	 1.000000000000000e+01	 9.998628061538469e+00
0	 7.125000000000000e+00	 9.375000000000002e+00	 1.000265538461541e+01
0	 7.124999999999998e+00	 9.437500000000000e+00	 1.000266517230768e+01
0	 7.125000000000000e+00	 9.500000000000004e+00	 1.000258562461537e+01
0	 7.124999999999999e+00	 9.562500000000000e+00	 1.000241674153844e+01
0	 7.124999999999998e+00	 9.624999999999998e+00	 1.000215852307689e+01
0	 7.125000000000000e+00	 9.687499999999998e+00	 1.000181096923077e+01
0	 7.124999999999999e+00	 9.750000000000000e+00	 1.000137407999999e+01
0	 7.124999999999999e+00	 9.812499999999996e+00	 1.000084785538460e+01
0	 7.124999999999999e+00	 9.874999999999998e+00	 1.000023229538456e+01
0	 7.124999999999998e+00	 9.937499999999996e+00	 9.999527400000044e+00
0	 7.125000000000000e+00	 1.000000000000000e+01	 9.998733169230707e+00
0	 7.187499999999998e+00	 9.375000000000002e+00	 1.000261423076923e+01
0	 7.187499999999999e+00	 9.437499999999998e+00	 1.000262503846152e+01
0	 7.187499999999999e+00	 9.499999999999998e+00	 1.000254861538460e+01
0	 7.187500000000000e+00	 9.562500000000000e+00	 1.000238496153844e+01
0	 7.187499999999998e+00	 9.624999999999998e+00	 1.000213407692307e+01
0	 7.187499999999999e+00	 9.687500000000000e+00	 1.000179596153843e+01
0	 7.187499999999998e+00	 9.750000000000000e+00	 1.000137061538462e+01
0	 7.187499999999997e+00	 9.812499999999998e+00	 1.000085803846157e+01
0	 7.187499999999999e+00	 9.874999999999998e+00	 1.000025823076925e+01
0	 7.187499999999998e+00	 9.937499999999998e+00	 9.999571192307648e+00
0	 7.187499999999998e+00	 1.000000000000000e+01	 9.998796923076894e+00
0	 7.249999999999998e+00	 9.375000000000000e+00	 1.000254184615385e+01
0	 7.249999999999998e+00	 9.437499999999998e+00	 1.000255266153844e+01
0	 7.250000000000000e+00	 9.500000000000000e+00	 1.000247835076922e+01
0	 7.249999999999999e+00	 9.562500000000000e+00	 1.000231891384613e+01
0	 7.250000000000001e+00	 9.625000000000000e+00	 1.000207435076922e+01
0	 7.249999999999998e+00	 9.687499999999998e+00	 1.000174466153848e+01
0	 7.249999999999999e+00	 9.749999999999998e+00	 1.000132984615377e+01
0	 7.249999999999996e+00	 9.812499999999996e+00	 1.000082990461539e+01
0	 7.249999999999998e+00	 9.874999999999998e+00	 1.000024483692306e+01
0	 7.249999999999999e+00	 9.937499999999998e+00	 9.999574643076905e+00
0	 7.249999999999999e+00	 9.999999999999998e+00	 9.998819323076965e+00
0	 7.312499999999997e+00	 9.375000000000000e+00	 1.000243823076922e+01
0	 7.312499999999997e+00	 9.437499999999998e+00	 1.000244804153844e+01
0	 7.312499999999997e+00	 9.499999999999998e+00	 1.000237483076923e+01
0	 7.312499999999999e+00	 9.562500000000002e+00	 1.000221859846153e+01
0	 7.312499999999998e+00	 9.624999999999998e+00	 1.000197934461537e+01
0	 7.312499999999997e+00	 9.687500000000000e+00	 1.000165706923076e+01
0	 7.312499999999999e+00	 9.750000000000000e+00	 1.000125177230765e+01
0	 7.312499999999999e+00	 9.812500000000000e+00	 1.000076345384612e+01
0	 7.312499999999999e+00	 9.874999999999998e+00	 1.000019211384610e+01
0	 7.312499999999999e+00	 9.937499999999998e+00	 9.999537752307685e+00
0	 7.312499999999999e+00	 1.000000000000000e+01	 9.998800369230789e+00
0	 7.374999999999998e+00	 9.375000000000000e+00	 1.000230338461539e+01
0	 7.374999999999999e+00	 9.437500000000002e+00	 1.000231117846152e+01
0	 7.374999999999998e+00	 9.500000000000000e+00	 1.000223805538460e+01
0	 7.374999999999999e+00	 9.562500000000002e+00	 1.000208401538462e+01
0	 7.374999999999997e+00	 9.624999999999998e+00	 1.000184905846151e+01
0	 7.374999999999998e+00	 9.687499999999998e+00	 1.000153318461535e+01
0	 7.374999999999998e+00	 9.750000000000000e+00	 1.000113639384612e+01
0	 7.374999999999998e+00	 9.812499999999998e+00	 1.000065868615382e+01
0	 7.374999999999998e+00	 9.874999999999998e+00	 1.000010006153840e+01
0	 7.374999999999998e+00	 9.937499999999998e+00	 9.999460519999985e+00
0	 7.374999999999998e+00	 1.000000000000000e+01	 9.998740061538426e+00
0	 7.437499999999998e+00	 9.375000000000000e+00	 1.000213730769233e+01
0	 7.437499999999998e+00	 9.437500000000000e+00	 1.000214207230770e+01
0	 7.437499999999998e+00	 9.499999999999998e+00	 1.000206802461539e+01
0	 7.437499999999999e+00	 9.562500000000000e+00	 1.000191516461540e+01
0	 7.437499999999998e+00	 9.624999999999998e+00	 1.000168349230770e+01
0	 7.437499999999997e+00	 9.687499999999996e+00	 1.000137300769228e+01
0	 7.437499999999997e+00	 9.749999999999998e+00	 1.000098371076923e+01
0	 7.437499999999997e+00	 9.812499999999998e+00	 1.000051560153847e+01
0	 7.437499999999997e+00	 9.874999999999996e+00	 9.999968679999998e+00
0	 7.437499999999998e+00	 9.937499999999998e+00	 9.999342946153799e+00
0	 7.437499999999998e+00	 1.000000000000000e+01	 9.998638399999919e+00
0	 7.500000000000000e+00	 9.375000000000000e+00	 1.000193999999999e+01
0	 7.500000000000001e+00	 9.437499999999998e+00	 1.000194072307692e+01
0	 7.499999999999999e+00	 9.500000000000000e+00	 1.000186473846153e+01
0	 7.499999999999999e+00	 9.562500000000000e+00	 1.000171204615384e+01
0	 7.500000000000001e+00	 9.625000000000000e+00	 1.000148264615383e+01
0	 7.500000000000000e+00	 9.687499999999998e+00	 1.000117653846154e+01
0	 7.500000000000001e+00	 9.749999999999998e+00	 1.000079372307691e+01
0	 7.500000000000000e+00	 9.812500000000000e+00	 1.000033419999998e+01
0	 7.500000000000001e+00	 9.875000000000000e+00	 9.999797969230720e+00
0	 7.500000000000000e+00	 9.937499999999998e+00	 9.999185030769233e+00
0	 7.500000000000000e+00	 1.000000000000000e+01	 9.998495384615371e+00
0	 7.500000000000000e+00	 0.000000000000000e+00	 1.003708953846154e+01
0	 7.500000000000000e+00	 6.250000000000000e-02	 1.003799163076923e+01
0	 7.499999999999999e+00	 1.250000000000000e-01	 1.003879763076923e+01
0	 7.499999999999999e+00	 1.875000000000000e-01	 1.003950753846154e+01
0	 7.500000000000000e+00	 2.500000000000000e-01	 1.004012135384615e+01
0	 7.500000000000000e+00	 3.125000000000000e-01	 1.004063907692307e+01
0	 7.500000000000000e+00	 3.750000000000000e-01	 1.004106070769230e+01
0	 7.500000000000000e+00	 4.374999999999999e-01	 1.004138624615384e+01
0	 7.500000000000001e+00	 5.000000000000000e-01	 1.004161569230769e+01
0	 7.500000000000000e+00	 5.624999999999999e-01	 1.004174904615385e+01
0	 7.500000000000000e+00	 6.250000000000000e-01	 1.004178630769231e+01
0	 7.562500000000001e+00	 0.000000000000000e+00	 1.003165152615384e+01
0	 7.562500000000000e+00	 6.249999999999999e-02	 1.003251603476923e+01
0	 7.562499999999997e+00	 1.250000000000000e-01	 1.003328845723076e+01
0	 7.562499999999999e+00	 1.875000000000000e-01	 1.003396879353846e+01
0	 7.562499999999999e+00	 2.500000000000000e-01	 1.003455704369230e+01
0	 7.562500000000001e+00	 3.125000000000001e-01	 1.003505320769230e+01
0	 7.562500000000000e+00	 3.749999999999999e-01	 1.003545728553846e+01
0	 7.562500000000001e+00	 4.374999999999999e-01	 1.003576927723076e+01
0	 7.562500000000001e+00	 5.000000000000000e-01	 1.003598918276922e+01
0	 7.562500000000000e+00	 5.625000000000000e-01	 1.003611700215384e+01
0	 7.562499999999999e+00	 6.250000000000000e-01	 1.003615273538462e+01
0	 7.624999999999999e+00	 0.000000000000000e+00	 1.002610832000000e+01
0	 7.625000000000001e+00	 6.250000000000000e-02	 1.002693756676923e+01
0	 7.625000000000000e+00	 1.250000000000000e-01	 1.002767873353846e+01
0	 7.625000000000000e+00	 1.875000000000000e-01	 1.002833182030769e+01
0	 7.625000000000000e+00	 2.500000000000001e-01	 1.002889682707692e+01
0	 7.624999999999999e+00	 3.125000000000000e-01	 1.002937375384615e+01
0	 7.625000000000000e+00	 3.749999999999999e-01	 1.002976260061538e+01
0	 7.624999999999999e+00	 4.375000000000000e-01	 1.003006336738461e+01
0	 7.625000000000000e+00	 4.999999999999999e-01	 1.003027605415384e+01
0	 7.625000000000000e+00	 5.625000000000000e-01	 1.003040066092308e+01
0	 7.625000000000000e+00	 6.249999999999999e-01	 1.003043718769231e+01
0	 7.687499999999999e+00	 0.000000000000000e+00	 1.002045991999999e+01
0	 7.687499999999999e+00	 6.250000000000000e-02	 1.002125622676922e+01
0	 7.687499999999999e+00	 1.250000000000000e-01	 1.002196845969230e+01
0	 7.687500000000000e+00	 1.875000000000001e-01	 1.002259661876923e+01
0	 7.687500000000000e+00	 2.500000000000001e-01	 1.002314070400000e+01
0	 7.687499999999999e+00	 3.125000000000000e-01	 1.002360071538462e+01
0	 7.687499999999999e+00	 3.749999999999999e-01	 1.002397665292307e+01
0	 7.687499999999998e+00	 4.374999999999999e-01	 1.002426851661539e+01
0	 7.687499999999998e+00	 4.999999999999999e-01	 1.002447630646154e+01
0	 7.687500000000000e+00	 5.625000000000001e-01	 1.002460002246153e+01
0	 7.687499999999999e+00	 6.249999999999999e-01	 1.002463966461538e+01
0	 7.750000000000000e+00	 0.000000000000000e+00	 1.001470632615384e+01
0	 7.749999999999999e+00	 6.250000000000000e-02	 1.001547201476923e+01
0	 7.749999999999996e+00	 1.250000000000000e-01	 1.001615763569230e+01
0	 7.749999999999996e+00	 1.875000000000000e-01	 1.001676318892307e+01
0	 7.749999999999998e+00	 2.500000000000000e-01	 1.001728867446153e+01
0	 7.750000000000000e+00	 3.125000000000000e-01	 1.001773409230768e+01
0	 7.749999999999999e+00	 3.750000000000000e-01	 1.001809944246154e+01
0	 7.750000000000000e+00	 4.375000000000000e-01	 1.001838472492307e+01
0	 7.749999999999998e+00	 4.999999999999999e-01	 1.001858993969230e+01
0	 7.750000000000000e+00	 5.625000000000000e-01	 1.001871508676923e+01
0	 7.750000000000000e+00	 6.250000000000001e-01	 1.001876016615384e+01
0	 7.812499999999998e+00	 0.000000000000000e+00	 1.000884753846153e+01
0	 7.812499999999996e+00	 6.249999999999998e-02	 1.000958493076923e+01
0	 7.812499999999999e+00	 1.250000000000000e-01	 1.001024626153846e+01
0	 7.812499999999998e+00	 1.875000000000000e-01	 1.001083153076923e+01
0	 7.812499999999998e+00	 2.499999999999999e-01	 1.001134073846153e+01
0	 7.812499999999999e+00	 3.125000000000000e-01	 1.001177388461538e+01
0	 7.812499999999998e+00	 3.750000000000000e-01	 1.001213096923076e+01
0	 7.812500000000000e+00	 4.375000000000000e-01	 1.001241199230769e+01
0	 7.812499999999998e+00	 4.999999999999999e-01	 1.001261695384614e+01
0	 7.812500000000001e+00	 5.625000000000001e-01	 1.001274585384615e+01
0	 7.812499999999999e+00	 6.250000000000000e-01	 1.001279869230769e+01
0	 7.874999999999999e+00	 0.000000000000000e+00	 1.000288355692308e+01
0	 7.875000000000000e+00	 6.249999999999999e-02	 1.000359497476923e+01
0	 7.874999999999999e+00	 1.250000000000000e-01	 1.000423433723076e+01
0	 7.874999999999999e+00	 1.875000000000001e-01	 1.000480164430769e+01
0	 7.874999999999999e+00	 2.500000000000001e-01	 1.000529689599999e+01
0	 7.875000000000000e+00	 3.125000000000001e-01	 1.000572009230769e+01
0	 7.874999999999997e+00	 3.749999999999999e-01	 1.000607123323077e+01
0	 7.874999999999999e+00	 4.375000000000000e-01	 1.000635031876922e+01
0	 7.874999999999997e+00	 4.999999999999998e-01	 1.000655734892307e+01
0	 7.874999999999999e+00	 5.624999999999999e-01	 1.000669232369231e+01
0	 7.875000000000000e+00	 6.250000000000001e-01	 1.000675524307692e+01
0	 7.937499999999998e+00	 0.000000000000000e+00	 9.996814381538456e+00
0	 7.937499999999998e+00	 6.250000000000000e-02	 9.997502146769225e+00
0	 7.937499999999998e+00	 1.250000000000000e-01	 9.998121862769231e+00
0	 7.937499999999999e+00	 1.875000000000000e-01	 9.998673529538458e+00
0	 7.937499999999998e+00	 2.500000000000000e-01	 9.999157147076918e+00
0	 7.937499999999999e+00	 3.125000000000001e-01	 9.999572715384616e+00
0	 7.937499999999999e+00	 3.750000000000000e-01	 9.999920234461534e+00
0	 7.937499999999998e+00	 4.375000000000000e-01	 1.000019970430768e+01
0	 7.937499999999998e+00	 4.999999999999999e-01	 1.000041112492307e+01
0	 7.937499999999999e+00	 5.625000000000000e-01	 1.000055449630769e+01
0	 7.937499999999997e+00	 6.249999999999999e-01	 1.000062981846153e+01
0	 7.999999999999998e+00	 0.000000000000000e+00	 9.990640012307686e+00
0	 7.999999999999997e+00	 6.249999999999999e-02	 9.991306446769226e+00
0	 8.000000000000000e+00	 1.250000000000000e-01	 9.991908838153840e+00
0	 8.000000000000000e+00	 1.875000000000001e-01	 9.992447186461536e+00
0	 7.999999999999997e+00	 2.500000000000000e-01	 9.992921491692300e+00
0	 7.999999999999997e+00	 3.124999999999999e-01	 9.993331753846144e+00
0	 7.999999999999998e+00	 3.749999999999999e-01	 9.993677972923074e+00
0	 7.999999999999998e+00	 4.375000000000000e-01	 9.993960148923069e+00
0	 7.999999999999999e+00	 4.999999999999999e-01	 9.994178281846153e+00
0	 7.999999999999998e+00	 5.625000000000000e-01	 9.994332371692298e+00
0	 7.999999999999998e+00	 6.250000000000000e-01	 9.994422418461536e+00
0	 8.062499999999996e+00	 0.000000000000000e+00	 9.984360449230765e+00
0	 8.062499999999998e+00	 6.250000000000000e-02	 9.985007874769224e+00
0	 8.062499999999998e+00	 1.250000000000000e-01	 9.985595263384610e+00
0	 8.062499999999998e+00	 1.875000000000000e-01	 9.986122615076916e+00
0	 8.062499999999996e+00	 2.499999999999999e-01	 9.986589929846147e+00
0	 8.062499999999998e+00	 3.125000000000000e-01	 9.986997207692299e+00
0	 8.062499999999998e+00	 3.750000000000000e-01	 9.987344448615382e+00
0	 8.062499999999998e+00	 4.375000000000000e-01	 9.987631652615379e+00
0	 8.062499999999996e+00	 4.999999999999999e-01	 9.987858819692303e+00
0	 8.062499999999998e+00	 5.625000000000000e-01	 9.988025949846151e+00
0	 8.062499999999998e+00	 6.250000000000000e-01	 9.988133043076921e+00
0	 8.125000000000000e+00	 0.000000000000000e+00	 9.977975692307689e+00
0	 8.125000000000002e+00	 6.250000000000000e-02	 9.978606430769226e+00
0	 8.125000000000000e+00	 1.250000000000000e-01	 9.979181138461531e+00
0	 8.125000000000000e+00	 1.875000000000000e-01	 9.979699815384610e+00
0	 8.125000000000000e+00	 2.500000000000000e-01	 9.980162461538455e+00
0	 8.125000000000000e+00	 3.125000000000000e-01	 9.980569076923079e+00
0	 8.125000000000000e+00	 3.750000000000000e-01	 9.980919661538465e+00
0	 8.125000000000000e+00	 4.374999999999999e-01	 9.981214215384608e+00
0	 8.125000000000000e+00	 5.000000000000000e-01	 9.981452738461536e+00
0	 8.125000000000000e+00	 5.624999999999999e-01	 9.981635230769232e+00
0	 8.125000000000000e+00	 6.250000000000000e-01	 9.981761692307689e+00
0	 7.500000000000000e+00	 6.250000000000000e-01	 1.004178630769231e+01
0	 7.500000000000000e+00	 6.875000000000000e-01	 1.004328309230769e+01
0	 7.500000000000000e+00	 7.500000000000002e-01	 1.004471415384615e+01
0	 7.500000000000001e+00	 8.125000000000002e-01	 1.004607949230769e+01
0	 7.500000000000001e+00	 8.750000000000002e-01	 1.004737910769231e+01
0	 7.500000000000000e+00	 9.375000000000002e-01	 1.004861300000000e+01
0	 7.499999999999999e+00	 1.000000000000000e+00	 1.004978116923077e+01
0	 7.500000000000000e+00	 1.062500000000000e+00	 1.005088361538461e+01
0	 7.500000000000001e+00	 1.125000000000001e+00	 1.005192033846154e+01
0	 7.500000000000000e+00	 1.187500000000000e+00	 1.005289133846154e+01
0	 7.500000000000000e+00	 1.250000000000000e+00	 1.005379661538462e+01
0	 7.562499999999999e+00	 6.250000000000000e-01	 1.003615273538462e+01
0	 7.562500000000001e+00	 6.875000000000001e-01	 1.003761041661538e+01
0	 7.562499999999999e+00	 7.500000000000001e-01	 1.003900447015385e+01
0	 7.562500000000000e+00	 8.125000000000002e-01	 1.004033489600000e+01
0	 7.562500000000000e+00	 8.750000000000003e-01	 1.004160169415385e+01
0	 7.562499999999999e+00	 9.375000000000003e-01	 1.004280486461538e+01
0	 7.562500000000000e+00	 1.000000000000000e+00	 1.004394440738462e+01
0	 7.562499999999999e+00	 1.062500000000000e+00	 1.004502032246154e+01
0	 7.562499999999998e+00	 1.125000000000000e+00	 1.004603260984616e+01
0	 7.562499999999997e+00	 1.187500000000000e+00	 1.004698126953847e+01
0	 7.562499999999999e+00	 1.250000000000000e+00	 1.004786630153846e+01
0	 7.625000000000000e+00	 6.249999999999999e-01	 1.003043718769231e+01
0	 7.625000000000000e+00	 6.875000000000001e-01	 1.003185945723076e+01
0	 7.625000000000000e+00	 7.500000000000002e-01	 1.003322019446154e+01
0	 7.624999999999999e+00	 8.125000000000001e-01	 1.003451939938461e+01
0	 7.625000000000000e+00	 8.750000000000003e-01	 1.003575707200000e+01
0	 7.625000000000000e+00	 9.375000000000003e-01	 1.003693321230770e+01
0	 7.625000000000002e+00	 1.000000000000000e+00	 1.003804782030770e+01
0	 7.624999999999998e+00	 1.062500000000000e+00	 1.003910089600000e+01
0	 7.624999999999999e+00	 1.125000000000000e+00	 1.004009243938462e+01
0	 7.624999999999999e+00	 1.187500000000001e+00	 1.004102245046154e+01
0	 7.625000000000000e+00	 1.250000000000000e+00	 1.004189092923077e+01
0	 7.687499999999999e+00	 6.249999999999999e-01	 1.002463966461538e+01
0	 7.687499999999998e+00	 6.875000000000000e-01	 1.002603021415385e+01
0	 7.687500000000000e+00	 7.500000000000000e-01	 1.002736132676922e+01
0	 7.687499999999999e+00	 8.125000000000002e-01	 1.002863300246154e+01
0	 7.687500000000000e+00	 8.750000000000002e-01	 1.002984524123077e+01
0	 7.687499999999998e+00	 9.375000000000002e-01	 1.003099804307693e+01
0	 7.687499999999998e+00	 1.000000000000000e+00	 1.003209140800000e+01
0	 7.687500000000000e+00	 1.062500000000000e+00	 1.003312533600000e+01
0	 7.687500000000000e+00	 1.125000000000000e+00	 1.003409982707692e+01
0	 7.687499999999999e+00	 1.187500000000000e+00	 1.003501488123077e+01
0	 7.687499999999999e+00	 1.250000000000000e+00	 1.003587049846154e+01
0	 7.750000000000000e+00	 6.250000000000001e-01	 1.001876016615384e+01
0	 7.750000000000000e+00	 6.875000000000000e-01	 1.002012268738461e+01
0	 7.749999999999997e+00	 7.500000000000000e-01	 1.002142786707692e+01
0	 7.749999999999999e+00	 8.125000000000001e-01	 1.002267570523077e+01
0	 7.750000000000000e+00	 8.750000000000003e-01	 1.002386620184616e+01
0	 7.749999999999997e+00	 9.375000000000000e-01	 1.002499935692308e+01
0	 7.750000000000000e+00	 1.000000000000000e+00	 1.002607517046154e+01
0	 7.749999999999999e+00	 1.062500000000000e+00	 1.002709364246154e+01
0	 7.749999999999999e+00	 1.125000000000000e+00	 1.002805477292308e+01
0	 7.749999999999999e+00	 1.187500000000000e+00	 1.002895856184616e+01
0	 7.750000000000000e+00	 1.250000000000000e+00	 1.002980500923077e+01
0	 7.812499999999999e+00	 6.250000000000000e-01	 1.001279869230769e+01
0	 7.812499999999996e+00	 6.875000000000000e-01	 1.001413687692307e+01
0	 7.812499999999998e+00	 7.500000000000001e-01	 1.001541981538462e+01
0	 7.812499999999999e+00	 8.125000000000002e-01	 1.001664750769231e+01
0	 7.812499999999999e+00	 8.750000000000003e-01	 1.001781995384615e+01
0	 7.812500000000000e+00	 9.375000000000002e-01	 1.001893715384616e+01
0	 7.812499999999998e+00	 1.000000000000000e+00	 1.001999910769231e+01
0	 7.812499999999999e+00	 1.062500000000000e+00	 1.002100581538461e+01
0	 7.812499999999999e+00	 1.125000000000000e+00	 1.002195727692308e+01
0	 7.812500000000000e+00	 1.187500000000001e+00	 1.002285349230769e+01
0	 7.812499999999999e+00	 1.250000000000000e+00	 1.002369446153846e+01
0	 7.875000000000000e+00	 6.250000000000001e-01	 1.000675524307692e+01
0	 7.874999999999997e+00	 6.874999999999999e-01	 1.000807278276923e+01
0	 7.875000000000000e+00	 7.500000000000003e-01	 1.000933717169231e+01
0	 7.874999999999997e+00	 8.125000000000000e-01	 1.001054840984615e+01
0	 7.874999999999996e+00	 8.750000000000001e-01	 1.001170649723077e+01
0	 7.874999999999998e+00	 9.375000000000003e-01	 1.001281143384615e+01
0	 7.875000000000000e+00	 1.000000000000000e+00	 1.001386321969231e+01
0	 7.874999999999998e+00	 1.062500000000000e+00	 1.001486185476923e+01
0	 7.874999999999998e+00	 1.125000000000000e+00	 1.001580733907692e+01
0	 7.874999999999998e+00	 1.187500000000000e+00	 1.001669967261538e+01
0	 7.875000000000000e+00	 1.250000000000000e+00	 1.001753885538462e+01
0	 7.937499999999997e+00	 6.249999999999999e-01	 1.000062981846153e+01
0	 7.937499999999996e+00	 6.875000000000000e-01	 1.000193040492308e+01
0	 7.937499999999999e+00	 7.500000000000002e-01	 1.000317993600000e+01
0	 7.937499999999998e+00	 8.125000000000000e-01	 1.000437841169231e+01
0	 7.937500000000000e+00	 8.750000000000002e-01	 1.000552583200000e+01
0	 7.937499999999999e+00	 9.375000000000004e-01	 1.000662219692308e+01
0	 7.937499999999998e+00	 1.000000000000000e+00	 1.000766750646154e+01
0	 7.937499999999999e+00	 1.062500000000001e+00	 1.000866176061538e+01
0	 7.937499999999998e+00	 1.125000000000000e+00	 1.000960495938462e+01
0	 7.937500000000000e+00	 1.187500000000000e+00	 1.001049710276923e+01
0	 7.937499999999997e+00	 1.250000000000000e+00	 1.001133819076923e+01
0	 7.999999999999998e+00	 6.250000000000000e-01	 9.994422418461536e+00
0	 7.999999999999997e+00	 6.875000000000000e-01	 9.995709743384612e+00
0	 7.999999999999996e+00	 7.500000000000000e-01	 9.996948108307690e+00
0	 7.999999999999998e+00	 8.125000000000001e-01	 9.998137513230763e+00
0	 7.999999999999998e+00	 8.750000000000003e-01	 9.999277958153845e+00
0	 7.999999999999998e+00	 9.375000000000002e-01	 1.000036944307693e+01
0	 8.000000000000000e+00	 1.000000000000001e+00	 1.000141196800000e+01
0	 7.999999999999997e+00	 1.062500000000000e+00	 1.000240553292307e+01
0	 7.999999999999998e+00	 1.125000000000000e+00	 1.000335013784616e+01
0	 7.999999999999999e+00	 1.187500000000000e+00	 1.000424578276923e+01
0	 7.999999999999998e+00	 1.250000000000000e+00	 1.000509246769231e+01
0	 8.062499999999998e+00	 6.250000000000000e-01	 9.988133043076921e+00
0	 8.062499999999998e+00	 6.875000000000002e-01	 9.989410798153841e+00
0	 8.062499999999998e+00	 7.500000000000001e-01	 9.990641688615387e+00
0	 8.062499999999998e+00	 8.125000000000001e-01	 9.991825714461536e+00
0	 8.062499999999998e+00	 8.750000000000002e-01	 9.992962875692298e+00
0	 8.062499999999998e+00	 9.375000000000002e-01	 9.994053172307687e+00
0	 8.062499999999998e+00	 1.000000000000000e+00	 9.995096604307687e+00
0	 8.062499999999998e+00	 1.062500000000000e+00	 9.996093171692305e+00
0	 8.062499999999996e+00	 1.125000000000000e+00	 9.997042874461538e+00
0	 8.062499999999996e+00	 1.187500000000000e+00	 9.997945712615380e+00
0	 8.062499999999998e+00	 1.250000000000000e+00	 9.998801686153840e+00
0	 8.125000000000000e+00	 6.250000000000000e-01	 9.981761692307689e+00
0	 8.125000000000000e+00	 6.875000000000000e-01	 9.983033569230768e+00
0	 8.125000000000000e+00	 7.500000000000002e-01	 9.984260676923078e+00
0	 8.125000000000002e+00	 8.125000000000002e-01	 9.985443015384611e+00
0	 8.125000000000000e+00	 8.750000000000002e-01	 9.986580584615382e+00
0	 8.125000000000000e+00	 9.375000000000002e-01	 9.987673384615384e+00
0	 8.125000000000000e+00	 1.000000000000000e+00	 9.988721415384607e+00
0	 8.125000000000000e+00	 1.062500000000000e+00	 9.989724676923078e+00
0	 8.125000000000002e+00	 1.125000000000001e+00	 9.990683169230763e+00
0	 8.125000000000000e+00	 1.187500000000000e+00	 9.991596892307694e+00
0	 8.125000000000000e+00	 1.250000000000000e+00	 9.992465846153841e+00
0	 7.500000000000000e+00	 1.250000000000000e+00	 1.005379661538462e+01
0	 7.500000000000000e+00	 1.312500000000000e+00	 1.005551281538462e+01
0	 7.500000000000000e+00	 1.375000000000000e+00	 1.005720104615385e+01
0	 7.500000000000001e+00	 1.437500000000000e+00	 1.005886130769231e+01
0	 7.500000000000001e+00	 1.500000000000000e+00	 1.006049360000000e+01
0	 7.500000000000000e+00	 1.562500000000000e+00	 1.006209792307692e+01
0	 7.499999999999999e+00	 1.625000000000000e+00	 1.006367427692308e+01
0	 7.500000000000000e+00	 1.687500000000000e+00	 1.006522266153846e+01
0	 7.500000000000001e+00	 1.750000000000001e+00	 1.006674307692307e+01
0	 7.500000000000000e+00	 1.812500000000000e+00	 1.006823552307692e+01
0	 7.500000000000000e+00	 1.875000000000000e+00	 1.006970000000000e+01
0	 7.562499999999999e+00	 1.250000000000000e+00	 1.004786630153846e+01
0	 7.562500000000001e+00	 1.312500000000000e+00	 1.004955090676923e+01
0	 7.562499999999999e+00	 1.375000000000000e+00	 1.005120825353846e+01
0	 7.562500000000000e+00	 1.437500000000000e+00	 1.005283834184615e+01
0	 7.562500000000000e+00	 1.500000000000000e+00	 1.005444117169231e+01
0	 7.562499999999999e+00	 1.562500000000000e+00	 1.005601674307692e+01
0	 7.562500000000000e+00	 1.625000000000000e+00	 1.005756505600000e+01
0	 7.562499999999999e+00	 1.687500000000000e+00	 1.005908611046154e+01
0	 7.562499999999998e+00	 1.750000000000000e+00	 1.006057990646154e+01
0	 7.562499999999997e+00	 1.812500000000000e+00	 1.006204644400000e+01
0	 7.562499999999999e+00	 1.875000000000000e+00	 1.006348572307692e+01
0	 7.625000000000000e+00	 1.250000000000000e+00	 1.004189092923077e+01
0	 7.625000000000000e+00	 1.312500000000000e+00	 1.004354835938462e+01
0	 7.625000000000000e+00	 1.375000000000000e+00	 1.004517924184615e+01
0	 7.624999999999999e+00	 1.437500000000000e+00	 1.004678357661538e+01
0	 7.625000000000000e+00	 1.500000000000000e+00	 1.004836136369231e+01
0	 7.625000000000000e+00	 1.562500000000000e+00	 1.004991260307692e+01
0	 7.625000000000002e+00	 1.625000000000000e+00	 1.005143729476923e+01
0	 7.624999999999998e+00	 1.687500000000000e+00	 1.005293543876923e+01
0	 7.624999999999999e+00	 1.750000000000001e+00	 1.005440703507692e+01
0	 7.624999999999999e+00	 1.812500000000001e+00	 1.005585208369231e+01
0	 7.625000000000000e+00	 1.875000000000000e+00	 1.005727058461538e+01
0	 7.687499999999999e+00	 1.250000000000000e+00	 1.003587049846154e+01
0	 7.687499999999998e+00	 1.312500000000000e+00	 1.003750517323077e+01
0	 7.687500000000000e+00	 1.375000000000000e+00	 1.003911401107692e+01
0	 7.687499999999999e+00	 1.437500000000000e+00	 1.004069701200000e+01
0	 7.687500000000000e+00	 1.500000000000000e+00	 1.004225417600000e+01
0	 7.687499999999998e+00	 1.562500000000000e+00	 1.004378550307692e+01
0	 7.687499999999998e+00	 1.625000000000000e+00	 1.004529099323077e+01
0	 7.687500000000000e+00	 1.687500000000000e+00	 1.004677064646154e+01
0	 7.687500000000000e+00	 1.750000000000000e+00	 1.004822446276923e+01
0	 7.687499999999999e+00	 1.812500000000000e+00	 1.004965244215384e+01
0	 7.687499999999999e+00	 1.875000000000000e+00	 1.005105458461539e+01
0	 7.750000000000000e+00	 1.250000000000000e+00	 1.002980500923077e+01
0	 7.750000000000000e+00	 1.312500000000000e+00	 1.003142134830770e+01
0	 7.749999999999997e+00	 1.375000000000000e+00	 1.003301256123077e+01
0	 7.749999999999999e+00	 1.437500000000000e+00	 1.003457864800000e+01
0	 7.750000000000000e+00	 1.500000000000000e+00	 1.003611960861538e+01
0	 7.749999999999997e+00	 1.562500000000000e+00	 1.003763544307692e+01
0	 7.750000000000000e+00	 1.625000000000001e+00	 1.003912615138461e+01
0	 7.749999999999999e+00	 1.687500000000000e+00	 1.004059173353846e+01
0	 7.749999999999999e+00	 1.750000000000001e+00	 1.004203218953846e+01
0	 7.749999999999999e+00	 1.812500000000000e+00	 1.004344751938461e+01
0	 7.750000000000000e+00	 1.875000000000000e+00	 1.004483772307692e+01
0	 7.812499999999999e+00	 1.250000000000000e+00	 1.002369446153846e+01
0	 7.812499999999996e+00	 1.312500000000000e+00	 1.002529688461538e+01
0	 7.812499999999998e+00	 1.375000000000000e+00	 1.002687489230770e+01
0	 7.812499999999999e+00	 1.437500000000000e+00	 1.002842848461538e+01
0	 7.812499999999999e+00	 1.500000000000000e+00	 1.002995766153847e+01
0	 7.812500000000000e+00	 1.562500000000000e+00	 1.003146242307692e+01
0	 7.812499999999998e+00	 1.625000000000000e+00	 1.003294276923076e+01
0	 7.812499999999999e+00	 1.687500000000000e+00	 1.003439870000000e+01
0	 7.812499999999999e+00	 1.750000000000000e+00	 1.003583021538462e+01
0	 7.812500000000000e+00	 1.812500000000000e+00	 1.003723731538461e+01
0	 7.812499999999999e+00	 1.875000000000000e+00	 1.003862000000000e+01
0	 7.875000000000000e+00	 1.250000000000000e+00	 1.001753885538462e+01
0	 7.874999999999997e+00	 1.312500000000000e+00	 1.001913178215385e+01
0	 7.875000000000000e+00	 1.375000000000000e+00	 1.002070100430769e+01
0	 7.874999999999997e+00	 1.437500000000000e+00	 1.002224652184616e+01
0	 7.874999999999996e+00	 1.500000000000000e+00	 1.002376833476923e+01
0	 7.874999999999998e+00	 1.562500000000000e+00	 1.002526644307692e+01
0	 7.875000000000000e+00	 1.625000000000000e+00	 1.002674084676923e+01
0	 7.874999999999998e+00	 1.687500000000000e+00	 1.002819154584615e+01
0	 7.874999999999998e+00	 1.750000000000000e+00	 1.002961854030768e+01
0	 7.874999999999998e+00	 1.812500000000000e+00	 1.003102183015384e+01
0	 7.875000000000000e+00	 1.875000000000000e+00	 1.003240141538461e+01
0	 7.937499999999997e+00	 1.250000000000000e+00	 1.001133819076923e+01
0	 7.937499999999996e+00	 1.312500000000000e+00	 1.001292604092307e+01
0	 7.937499999999999e+00	 1.375000000000000e+00	 1.001449089723077e+01
0	 7.937499999999998e+00	 1.437500000000000e+00	 1.001603275969231e+01
0	 7.937500000000000e+00	 1.500000000000001e+00	 1.001755162830769e+01
0	 7.937499999999999e+00	 1.562500000000000e+00	 1.001904750307692e+01
0	 7.937499999999998e+00	 1.625000000000000e+00	 1.002052038400001e+01
0	 7.937499999999999e+00	 1.687500000000000e+00	 1.002197027107692e+01
0	 7.937499999999998e+00	 1.750000000000000e+00	 1.002339716430769e+01
0	 7.937500000000000e+00	 1.812500000000000e+00	 1.002480106369230e+01
0	 7.937499999999997e+00	 1.875000000000000e+00	 1.002618196923077e+01
0	 7.999999999999998e+00	 1.250000000000000e+00	 1.000509246769231e+01
0	 7.999999999999997e+00	 1.312500000000000e+00	 1.000667966092308e+01
0	 7.999999999999996e+00	 1.375000000000000e+00	 1.000824457107692e+01
0	 7.999999999999998e+00	 1.437500000000000e+00	 1.000978719815384e+01
0	 7.999999999999998e+00	 1.500000000000000e+00	 1.001130754215385e+01
0	 7.999999999999998e+00	 1.562500000000000e+00	 1.001280560307692e+01
0	 8.000000000000000e+00	 1.625000000000001e+00	 1.001428138092307e+01
0	 7.999999999999997e+00	 1.687500000000000e+00	 1.001573487569231e+01
0	 7.999999999999998e+00	 1.750000000000000e+00	 1.001716608738461e+01
0	 7.999999999999999e+00	 1.812500000000001e+00	 1.001857501600000e+01
0	 7.999999999999998e+00	 1.875000000000000e+00	 1.001996166153845e+01
0	 8.062499999999998e+00	 1.250000000000000e+00	 9.998801686153840e+00
0	 8.062499999999998e+00	 1.312500000000000e+00	 1.000039264215384e+01
0	 8.062499999999998e+00	 1.375000000000000e+00	 1.000196202584615e+01
0	 8.062499999999998e+00	 1.437500000000000e+00	 1.000350983723077e+01
0	 8.062499999999998e+00	 1.500000000000000e+00	 1.000503607630768e+01
0	 8.062499999999998e+00	 1.562500000000000e+00	 1.000654074307692e+01
0	 8.062499999999998e+00	 1.625000000000000e+00	 1.000802383753845e+01
0	 8.062499999999998e+00	 1.687500000000000e+00	 1.000948535969230e+01
0	 8.062499999999996e+00	 1.750000000000000e+00	 1.001092530953847e+01
0	 8.062499999999996e+00	 1.812500000000000e+00	 1.001234368707692e+01
0	 8.062499999999998e+00	 1.875000000000000e+00	 1.001374049230769e+01
0	 8.125000000000000e+00	 1.250000000000000e+00	 9.992465846153841e+00
0	 8.125000000000000e+00	 1.312500000000000e+00	 9.994064984615370e+00
0	 8.125000000000000e+00	 1.375000000000000e+00	 9.995643261538463e+00
0	 8.125000000000002e+00	 1.437500000000000e+00	 9.997200676923072e+00
0	 8.125000000000000e+00	 1.500000000000000e+00	 9.998737230769231e+00
0	 8.125000000000000e+00	 1.562500000000000e+00	 1.000025292307692e+01
0	 8.125000000000000e+00	 1.625000000000000e+00	 1.000174775384615e+01
0	 8.125000000000000e+00	 1.687500000000000e+00	 1.000322172307692e+01
0	 8.125000000000002e+00	 1.750000000000001e+00	 1.000467483076922e+01
0	 8.125000000000000e+00	 1.812500000000000e+00	 1.000610707692307e+01
0	 8.125000000000000e+00	 1.875000000000000e+00	 1.000751846153846e+01
0	 7.500000000000000e+00	 1.875000000000000e+00	 1.006970000000000e+01
0	 7.500000000000000e+00	 1.937500000000000e+00	 1.007120973846154e+01
0	 7.500000000000000e+00	 2.000000000000000e+00	 1.007273156923077e+01
0	 7.500000000000001e+00	 2.062500000000000e+00	 1.007426549230769e+01
0	 7.500000000000001e+00	 2.125000000000000e+00	 1.007581150769231e+01
0	 7.500000000000000e+00	 2.187500000000000e+00	 1.007736961538462e+01
0	 7.499999999999999e+00	 2.250000000000000e+00	 1.007893981538462e+01
0	 7.500000000000000e+00	 2.312500000000000e+00	 1.008052210769230e+01
0	 7.500000000000001e+00	 2.375000000000001e+00	 1.008211649230770e+01
0	 7.500000000000000e+00	 2.437500000000001e+00	 1.008372296923077e+01
0	 7.500000000000000e+00	 2.500000000000000e+00	 1.008534153846154e+01
0	 7.562499999999999e+00	 1.875000000000000e+00	 1.006348572307692e+01
0	 7.562500000000001e+00	 1.937500000000000e+00	 1.006498243846154e+01
0	 7.562499999999999e+00	 2.000000000000000e+00	 1.006649037846154e+01
0	 7.562500000000000e+00	 2.062500000000000e+00	 1.006800954307692e+01
0	 7.562500000000000e+00	 2.125000000000001e+00	 1.006953993230769e+01
0	 7.562499999999999e+00	 2.187500000000000e+00	 1.007108154615385e+01
0	 7.562500000000000e+00	 2.250000000000000e+00	 1.007263438461539e+01
0	 7.562499999999999e+00	 2.312500000000000e+00	 1.007419844769231e+01
0	 7.562499999999998e+00	 2.375000000000000e+00	 1.007577373538462e+01
0	 7.562499999999997e+00	 2.437500000000000e+00	 1.007736024769231e+01
0	 7.562499999999999e+00	 2.500000000000000e+00	 1.007895798461539e+01
0	 7.625000000000000e+00	 1.875000000000000e+00	 1.005727058461538e+01
0	 7.625000000000000e+00	 1.937500000000000e+00	 1.005875925230769e+01
0	 7.625000000000000e+00	 2.000000000000000e+00	 1.006025827692308e+01
0	 7.624999999999999e+00	 2.062500000000000e+00	 1.006176765846154e+01
0	 7.625000000000000e+00	 2.125000000000000e+00	 1.006328739692308e+01
0	 7.625000000000000e+00	 2.187500000000001e+00	 1.006481749230770e+01
0	 7.625000000000002e+00	 2.250000000000000e+00	 1.006635794461539e+01
0	 7.624999999999998e+00	 2.312500000000000e+00	 1.006790875384615e+01
0	 7.624999999999999e+00	 2.375000000000000e+00	 1.006946992000000e+01
0	 7.624999999999999e+00	 2.437500000000000e+00	 1.007104144307692e+01
0	 7.625000000000000e+00	 2.500000000000000e+00	 1.007262332307692e+01
0	 7.687499999999999e+00	 1.875000000000000e+00	 1.005105458461539e+01
0	 7.687499999999998e+00	 1.937500000000000e+00	 1.005254018000000e+01
0	 7.687500000000000e+00	 2.000000000000000e+00	 1.005403526461538e+01
0	 7.687499999999999e+00	 2.062500000000000e+00	 1.005553983846153e+01
0	 7.687500000000000e+00	 2.125000000000001e+00	 1.005705390153846e+01
0	 7.687499999999998e+00	 2.187500000000000e+00	 1.005857745384616e+01
0	 7.687499999999998e+00	 2.250000000000000e+00	 1.006011049538461e+01
0	 7.687500000000000e+00	 2.312500000000000e+00	 1.006165302615384e+01
0	 7.687500000000000e+00	 2.375000000000000e+00	 1.006320504615385e+01
0	 7.687499999999999e+00	 2.437500000000000e+00	 1.006476655538462e+01
0	 7.687499999999999e+00	 2.500000000000000e+00	 1.006633755384616e+01
0	 7.750000000000000e+00	 1.875000000000000e+00	 1.004483772307692e+01
0	 7.750000000000000e+00	 1.937500000000000e+00	 1.004632522153846e+01
0	 7.749999999999997e+00	 2.000000000000000e+00	 1.004782134153846e+01
0	 7.749999999999999e+00	 2.062500000000000e+00	 1.004932608307692e+01
0	 7.750000000000000e+00	 2.125000000000000e+00	 1.005083944615384e+01
0	 7.749999999999997e+00	 2.187500000000000e+00	 1.005236143076923e+01
0	 7.750000000000000e+00	 2.250000000000000e+00	 1.005389203692308e+01
0	 7.749999999999999e+00	 2.312500000000000e+00	 1.005543126461537e+01
0	 7.749999999999999e+00	 2.375000000000000e+00	 1.005697911384615e+01
0	 7.749999999999999e+00	 2.437500000000000e+00	 1.005853558461538e+01
0	 7.750000000000000e+00	 2.500000000000000e+00	 1.006010067692308e+01
0	 7.812499999999999e+00	 1.875000000000000e+00	 1.003862000000000e+01
0	 7.812499999999996e+00	 1.937500000000000e+00	 1.004011437692307e+01
0	 7.812499999999998e+00	 2.000000000000000e+00	 1.004161650769231e+01
0	 7.812499999999999e+00	 2.062500000000000e+00	 1.004312639230769e+01
0	 7.812499999999999e+00	 2.125000000000000e+00	 1.004464403076923e+01
0	 7.812500000000000e+00	 2.187500000000000e+00	 1.004616942307692e+01
0	 7.812499999999998e+00	 2.250000000000000e+00	 1.004770256923077e+01
0	 7.812499999999999e+00	 2.312500000000001e+00	 1.004924346923077e+01
0	 7.812499999999999e+00	 2.375000000000000e+00	 1.005079212307692e+01
0	 7.812500000000000e+00	 2.437500000000000e+00	 1.005234853076924e+01
0	 7.812499999999999e+00	 2.500000000000000e+00	 1.005391269230770e+01
0	 7.875000000000000e+00	 1.875000000000000e+00	 1.003240141538461e+01
0	 7.874999999999997e+00	 1.937500000000000e+00	 1.003390764615385e+01
0	 7.875000000000000e+00	 2.000000000000000e+00	 1.003542076307692e+01
0	 7.874999999999997e+00	 2.062500000000000e+00	 1.003694076615385e+01
0	 7.874999999999996e+00	 2.125000000000000e+00	 1.003846765538461e+01
0	 7.874999999999998e+00	 2.187500000000000e+00	 1.004000143076923e+01
0	 7.875000000000000e+00	 2.250000000000000e+00	 1.004154209230769e+01
0	 7.874999999999998e+00	 2.312500000000000e+00	 1.004308964000000e+01
0	 7.874999999999998e+00	 2.375000000000001e+00	 1.004464407384615e+01
0	 7.874999999999998e+00	 2.437500000000000e+00	 1.004620539384615e+01
0	 7.875000000000000e+00	 2.500000000000000e+00	 1.004777360000001e+01
0	 7.937499999999997e+00	 1.875000000000000e+00	 1.002618196923077e+01
0	 7.937499999999996e+00	 1.937500000000000e+00	 1.002770502923077e+01
0	 7.937499999999999e+00	 2.000000000000001e+00	 1.002923410769230e+01
0	 7.937499999999998e+00	 2.062500000000000e+00	 1.003076920461538e+01
0	 7.937500000000000e+00	 2.125000000000001e+00	 1.003231031999999e+01
0	 7.937499999999999e+00	 2.187500000000000e+00	 1.003385745384614e+01
0	 7.937499999999998e+00	 2.250000000000000e+00	 1.003541060615384e+01
0	 7.937499999999999e+00	 2.312500000000001e+00	 1.003696977692307e+01
0	 7.937499999999998e+00	 2.375000000000000e+00	 1.003853496615384e+01
0	 7.937500000000000e+00	 2.437500000000000e+00	 1.004010617384615e+01
0	 7.937499999999997e+00	 2.500000000000000e+00	 1.004168340000000e+01
0	 7.999999999999998e+00	 1.875000000000000e+00	 1.001996166153845e+01
0	 7.999999999999997e+00	 1.937500000000000e+00	 1.002150652615384e+01
0	 7.999999999999996e+00	 2.000000000000000e+00	 1.002305654153846e+01
0	 7.999999999999998e+00	 2.062500000000000e+00	 1.002461170769230e+01
0	 7.999999999999998e+00	 2.125000000000000e+00	 1.002617202461538e+01
0	 7.999999999999998e+00	 2.187500000000000e+00	 1.002773749230769e+01
0	 8.000000000000000e+00	 2.250000000000000e+00	 1.002930811076923e+01
0	 7.999999999999997e+00	 2.312500000000000e+00	 1.003088388000000e+01
0	 7.999999999999998e+00	 2.375000000000000e+00	 1.003246480000001e+01
0	 7.999999999999999e+00	 2.437500000000001e+00	 1.003405087076923e+01
0	 7.999999999999998e+00	 2.500000000000000e+00	 1.003564209230769e+01
0	 8.062499999999998e+00	 1.875000000000000e+00	 1.001374049230769e+01
0	 8.062499999999998e+00	 1.937500000000000e+00	 1.001531213692307e+01
0	 8.062499999999998e+00	 2.000000000000000e+00	 1.001688806461538e+01
0	 8.062499999999998e+00	 2.062500000000000e+00	 1.001846827538461e+01
0	 8.062499999999998e+00	 2.125000000000000e+00	 1.002005276923076e+01
0	 8.062499999999998e+00	 2.187500000000000e+00	 1.002164154615383e+01
0	 8.062499999999998e+00	 2.250000000000000e+00	 1.002323460615384e+01
0	 8.062499999999998e+00	 2.312500000000000e+00	 1.002483194923076e+01
0	 8.062499999999996e+00	 2.375000000000000e+00	 1.002643357538462e+01
0	 8.062499999999996e+00	 2.437500000000000e+00	 1.002803948461538e+01
0	 8.062499999999998e+00	 2.500000000000000e+00	 1.002964967692307e+01
0	 8.125000000000000e+00	 1.875000000000000e+00	 1.000751846153846e+01
0	 8.125000000000000e+00	 1.937500000000000e+00	 1.000912186153845e+01
0	 8.125000000000000e+00	 2.000000000000000e+00	 1.001072867692308e+01
0	 8.125000000000002e+00	 2.062500000000000e+00	 1.001233890769230e+01
0	 8.125000000000000e+00	 2.125000000000000e+00	 1.001395255384615e+01
0	 8.125000000000000e+00	 2.187500000000000e+00	 1.001556961538461e+01
0	 8.125000000000000e+00	 2.250000000000000e+00	 1.001719009230768e+01
0	 8.125000000000000e+00	 2.312500000000000e+00	 1.001881398461538e+01
0	 8.125000000000002e+00	 2.375000000000001e+00	 1.002044129230769e+01
0	 8.125000000000000e+00	 2.437500000000001e+00	 1.002207201538461e+01
0	 8.125000000000000e+00	 2.500000000000000e+00	 1.002370615384615e+01
0	 7.500000000000000e+00	 2.500000000000000e+00	 1.008534153846154e+01
0	 7.500000000000001e+00	 2.562500000000000e+00	 1.008627636923078e+01
0	 7.500000000000000e+00	 2.625000000000000e+00	 1.008725532307693e+01
0	 7.500000000000000e+00	 2.687499999999999e+00	 1.008827839999999e+01
0	 7.500000000000000e+00	 2.750000000000000e+00	 1.008934559999999e+01
0	 7.500000000000000e+00	 2.812499999999999e+00	 1.009045692307693e+01
0	 7.500000000000000e+00	 2.874999999999999e+00	 1.009161236923076e+01
0	 7.499999999999999e+00	 2.937499999999998e+00	 1.009281193846154e+01
0	 7.500000000000000e+00	 2.999999999999998e+00	 1.009405563076923e+01
0	 7.500000000000000e+00	 3.062499999999998e+00	 1.009534344615385e+01
0	 7.500000000000000e+00	 3.125000000000000e+00	 1.009667538461538e+01
0	 7.562499999999999e+00	 2.500000000000000e+00	 1.007895798461539e+01
0	 7.562500000000000e+00	 2.562500000000000e+00	 1.007992479692308e+01
0	 7.562500000000000e+00	 2.624999999999999e+00	 1.008093360923076e+01
0	 7.562500000000000e+00	 2.687499999999999e+00	 1.008198442153846e+01
0	 7.562500000000001e+00	 2.750000000000000e+00	 1.008307723384616e+01
0	 7.562500000000000e+00	 2.812499999999999e+00	 1.008421204615385e+01
0	 7.562500000000000e+00	 2.875000000000000e+00	 1.008538885846153e+01
0	 7.562500000000001e+00	 2.937499999999999e+00	 1.008660767076922e+01
0	 7.562500000000001e+00	 2.999999999999999e+00	 1.008786848307692e+01
0	 7.562499999999998e+00	 3.062499999999997e+00	 1.008917129538461e+01
0	 7.562499999999999e+00	 3.125000000000000e+00	 1.009051610769230e+01
0	 7.625000000000000e+00	 2.500000000000000e+00	 1.007262332307692e+01
0	 7.624999999999999e+00	 2.562500000000000e+00	 1.007362414153847e+01
0	 7.625000000000001e+00	 2.625000000000000e+00	 1.007466483692308e+01
0	 7.625000000000000e+00	 2.687500000000000e+00	 1.007574540923077e+01
0	 7.624999999999999e+00	 2.749999999999999e+00	 1.007686585846154e+01
0	 7.624999999999999e+00	 2.812499999999999e+00	 1.007802618461538e+01
0	 7.624999999999997e+00	 2.874999999999999e+00	 1.007922638769231e+01
0	 7.625000000000000e+00	 2.937499999999999e+00	 1.008046646769230e+01
0	 7.625000000000000e+00	 2.999999999999998e+00	 1.008174642461539e+01
0	 7.625000000000000e+00	 3.062499999999999e+00	 1.008306625846152e+01
0	 7.625000000000000e+00	 3.125000000000000e+00	 1.008442596923077e+01
0	 7.687499999999999e+00	 2.500000000000000e+00	 1.006633755384616e+01
0	 7.687499999999999e+00	 2.562500000000000e+00	 1.006737440307692e+01
0	 7.687500000000000e+00	 2.625000000000000e+00	 1.006844900615386e+01
0	 7.687500000000000e+00	 2.687499999999999e+00	 1.006956136307692e+01
0	 7.687499999999999e+00	 2.749999999999999e+00	 1.007071147384615e+01
0	 7.687500000000000e+00	 2.812499999999999e+00	 1.007189933846154e+01
0	 7.687500000000000e+00	 2.874999999999999e+00	 1.007312495692307e+01
0	 7.687499999999998e+00	 2.937499999999999e+00	 1.007438832923077e+01
0	 7.687500000000000e+00	 2.999999999999999e+00	 1.007568945538461e+01
0	 7.687499999999998e+00	 3.062499999999998e+00	 1.007702833538461e+01
0	 7.687499999999999e+00	 3.125000000000000e+00	 1.007840496923076e+01
0	 7.750000000000000e+00	 2.500000000000000e+00	 1.006010067692308e+01
0	 7.750000000000000e+00	 2.562500000000000e+00	 1.006117558153846e+01
0	 7.749999999999998e+00	 2.625000000000000e+00	 1.006228611692307e+01
0	 7.749999999999998e+00	 2.687500000000000e+00	 1.006343228307692e+01
0	 7.749999999999997e+00	 2.750000000000000e+00	 1.006461408000000e+01
0	 7.749999999999998e+00	 2.812499999999999e+00	 1.006583150769231e+01
0	 7.749999999999999e+00	 2.874999999999999e+00	 1.006708456615384e+01
0	 7.750000000000000e+00	 2.937499999999998e+00	 1.006837325538461e+01
0	 7.749999999999999e+00	 2.999999999999999e+00	 1.006969757538461e+01
0	 7.750000000000000e+00	 3.062499999999998e+00	 1.007105752615385e+01
0	 7.750000000000000e+00	 3.125000000000000e+00	 1.007245310769230e+01
0	 7.812499999999999e+00	 2.500000000000000e+00	 1.005391269230770e+01
0	 7.812499999999998e+00	 2.562499999999999e+00	 1.005502767692308e+01
0	 7.812499999999999e+00	 2.625000000000000e+00	 1.005617616923076e+01
0	 7.812499999999999e+00	 2.687500000000000e+00	 1.005735816923077e+01
0	 7.812499999999997e+00	 2.749999999999999e+00	 1.005857367692307e+01
0	 7.812499999999999e+00	 2.812499999999999e+00	 1.005982269230769e+01
0	 7.812500000000000e+00	 2.874999999999999e+00	 1.006110521538462e+01
0	 7.812499999999999e+00	 2.937499999999998e+00	 1.006242124615384e+01
0	 7.812499999999998e+00	 2.999999999999998e+00	 1.006377078461537e+01
0	 7.812500000000000e+00	 3.062499999999998e+00	 1.006515383076923e+01
0	 7.812499999999999e+00	 3.125000000000000e+00	 1.006657038461538e+01
0	 7.875000000000000e+00	 2.500000000000000e+00	 1.004777360000001e+01
0	 7.874999999999998e+00	 2.562500000000000e+00	 1.004893068923076e+01
0	 7.874999999999996e+00	 2.625000000000000e+00	 1.005011916307692e+01
0	 7.874999999999998e+00	 2.687500000000000e+00	 1.005133902153846e+01
0	 7.875000000000001e+00	 2.750000000000000e+00	 1.005259026461539e+01
0	 7.874999999999999e+00	 2.812500000000000e+00	 1.005387289230769e+01
0	 7.874999999999998e+00	 2.874999999999999e+00	 1.005518690461538e+01
0	 7.874999999999999e+00	 2.937499999999999e+00	 1.005653230153846e+01
0	 7.874999999999998e+00	 2.999999999999999e+00	 1.005790908307692e+01
0	 7.874999999999997e+00	 3.062499999999998e+00	 1.005931724923077e+01
0	 7.875000000000000e+00	 3.125000000000000e+00	 1.006075679999999e+01
0	 7.937499999999997e+00	 2.500000000000000e+00	 1.004168340000000e+01
0	 7.937499999999998e+00	 2.562500000000000e+00	 1.004288461846154e+01
0	 7.937499999999999e+00	 2.625000000000000e+00	 1.004411509846154e+01
0	 7.937499999999998e+00	 2.687500000000000e+00	 1.004537484000000e+01
0	 7.937499999999998e+00	 2.749999999999999e+00	 1.004666384307692e+01
0	 7.937500000000000e+00	 2.812499999999999e+00	 1.004798210769230e+01
0	 7.937500000000000e+00	 2.874999999999999e+00	 1.004932963384615e+01
0	 7.937500000000000e+00	 2.937499999999998e+00	 1.005070642153847e+01
0	 7.937499999999998e+00	 2.999999999999998e+00	 1.005211247076923e+01
0	 7.937499999999999e+00	 3.062499999999998e+00	 1.005354778153846e+01
0	 7.937499999999997e+00	 3.125000000000000e+00	 1.005501235384615e+01
0	 7.999999999999998e+00	 2.500000000000000e+00	 1.003564209230769e+01
0	 7.999999999999998e+00	 2.562500000000001e+00	 1.003688946461538e+01
0	 7.999999999999999e+00	 2.625000000000000e+00	 1.003816397538461e+01
0	 7.999999999999999e+00	 2.687500000000000e+00	 1.003946562461538e+01
0	 7.999999999999998e+00	 2.749999999999999e+00	 1.004079441230769e+01
0	 7.999999999999998e+00	 2.812499999999999e+00	 1.004215033846154e+01
0	 7.999999999999998e+00	 2.874999999999999e+00	 1.004353340307692e+01
0	 7.999999999999997e+00	 2.937499999999998e+00	 1.004494360615385e+01
0	 7.999999999999998e+00	 2.999999999999998e+00	 1.004638094769231e+01
0	 7.999999999999998e+00	 3.062499999999998e+00	 1.004784542769230e+01
0	 7.999999999999998e+00	 3.125000000000000e+00	 1.004933704615384e+01
0	 8.062499999999998e+00	 2.500000000000000e+00	 1.002964967692307e+01
0	 8.062499999999998e+00	 2.562500000000000e+00	 1.003094522769231e+01
0	 8.062499999999998e+00	 2.625000000000000e+00	 1.003226579384615e+01
0	 8.062500000000000e+00	 2.687500000000000e+00	 1.003361137538461e+01
0	 8.062499999999998e+00	 2.749999999999999e+00	 1.003498197230769e+01
0	 8.062499999999996e+00	 2.812499999999999e+00	 1.003637758461538e+01
0	 8.062499999999996e+00	 2.874999999999999e+00	 1.003779821230769e+01
0	 8.062499999999996e+00	 2.937499999999998e+00	 1.003924385538461e+01
0	 8.062499999999998e+00	 2.999999999999998e+00	 1.004071451384616e+01
0	 8.062499999999998e+00	 3.062499999999998e+00	 1.004221018769231e+01
0	 8.062499999999998e+00	 3.125000000000000e+00	 1.004373087692307e+01
0	 8.125000000000000e+00	 2.500000000000000e+00	 1.002370615384615e+01
0	 8.125000000000000e+00	 2.562500000000000e+00	 1.002505190769231e+01
0	 8.125000000000002e+00	 2.625000000000000e+00	 1.002642055384616e+01
0	 8.125000000000000e+00	 2.687499999999999e+00	 1.002781209230769e+01
0	 8.125000000000000e+00	 2.750000000000000e+00	 1.002922652307692e+01
0	 8.125000000000000e+00	 2.812499999999999e+00	 1.003066384615384e+01
0	 8.125000000000000e+00	 2.874999999999999e+00	 1.003212406153845e+01
0	 8.125000000000000e+00	 2.937499999999998e+00	 1.003360716923077e+01
0	 8.125000000000000e+00	 2.999999999999998e+00	 1.003511316923077e+01
0	 8.125000000000000e+00	 3.062499999999998e+00	 1.003664206153847e+01
0	 8.125000000000000e+00	 3.125000000000000e+00	 1.003819384615385e+01
0	 7.500000000000000e+00	 3.125000000000000e+00	 1.009667538461538e+01
0	 7.500000000000001e+00	 3.187500000000000e+00	 1.009695621538460e+01
0	 7.500000000000000e+00	 3.250000000000000e+00	 1.009729409230768e+01
0	 7.500000000000000e+00	 3.312499999999999e+00	 1.009768901538461e+01
0	 7.500000000000000e+00	 3.374999999999999e+00	 1.009814098461538e+01
0	 7.500000000000000e+00	 3.437499999999999e+00	 1.009865000000000e+01
0	 7.500000000000000e+00	 3.499999999999999e+00	 1.009921606153847e+01
0	 7.499999999999999e+00	 3.562499999999998e+00	 1.009983916923078e+01
0	 7.500000000000000e+00	 3.624999999999999e+00	 1.010051932307692e+01
0	 7.500000000000000e+00	 3.687499999999998e+00	 1.010125652307691e+01
0	 7.500000000000000e+00	 3.750000000000000e+00	 1.010205076923077e+01
0	 7.562499999999999e+00	 3.125000000000000e+00	 1.009051610769230e+01
0	 7.562500000000000e+00	 3.187500000000000e+00	 1.009085235538461e+01
0	 7.562500000000000e+00	 3.250000000000000e+00	 1.009124345230769e+01
0	 7.562500000000000e+00	 3.312499999999999e+00	 1.009168939846154e+01
0	 7.562500000000001e+00	 3.374999999999999e+00	 1.009219019384615e+01
0	 7.562500000000000e+00	 3.437499999999999e+00	 1.009274583846154e+01
0	 7.562500000000000e+00	 3.500000000000000e+00	 1.009335633230770e+01
0	 7.562500000000001e+00	 3.562499999999999e+00	 1.009402167538462e+01
0	 7.562500000000001e+00	 3.625000000000000e+00	 1.009474186769230e+01
0	 7.562499999999998e+00	 3.687499999999997e+00	 1.009551690923076e+01
0	 7.562499999999999e+00	 3.750000000000000e+00	 1.009634680000000e+01
0	 7.625000000000000e+00	 3.125000000000000e+00	 1.008442596923077e+01
0	 7.624999999999999e+00	 3.187500000000000e+00	 1.008481903384616e+01
0	 7.625000000000001e+00	 3.250000000000000e+00	 1.008526475076922e+01
0	 7.625000000000000e+00	 3.312500000000000e+00	 1.008576312000000e+01
0	 7.624999999999999e+00	 3.374999999999999e+00	 1.008631414153846e+01
0	 7.624999999999999e+00	 3.437499999999999e+00	 1.008691781538462e+01
0	 7.624999999999997e+00	 3.499999999999997e+00	 1.008757414153846e+01
0	 7.625000000000000e+00	 3.562499999999999e+00	 1.008828312000000e+01
0	 7.625000000000000e+00	 3.624999999999998e+00	 1.008904475076922e+01
0	 7.625000000000000e+00	 3.687499999999999e+00	 1.008985903384616e+01
0	 7.625000000000000e+00	 3.750000000000000e+00	 1.009072596923077e+01
0	 7.687499999999999e+00	 3.125000000000000e+00	 1.007840496923076e+01
0	 7.687499999999999e+00	 3.187500000000000e+00	 1.007885625076923e+01
0	 7.687500000000000e+00	 3.250000000000000e+00	 1.007935798769231e+01
0	 7.687500000000000e+00	 3.312500000000000e+00	 1.007991018000000e+01
0	 7.687499999999999e+00	 3.374999999999999e+00	 1.008051282769231e+01
0	 7.687500000000000e+00	 3.437499999999999e+00	 1.008116593076922e+01
0	 7.687500000000000e+00	 3.499999999999998e+00	 1.008186948923077e+01
0	 7.687499999999998e+00	 3.562499999999998e+00	 1.008262350307692e+01
0	 7.687500000000000e+00	 3.624999999999998e+00	 1.008342797230769e+01
0	 7.687499999999998e+00	 3.687499999999998e+00	 1.008428289692308e+01
0	 7.687499999999999e+00	 3.750000000000000e+00	 1.008518827692308e+01
0	 7.750000000000000e+00	 3.125000000000000e+00	 1.007245310769230e+01
0	 7.750000000000000e+00	 3.187500000000000e+00	 1.007296400615384e+01
0	 7.749999999999998e+00	 3.250000000000000e+00	 1.007352316307692e+01
0	 7.749999999999998e+00	 3.312500000000000e+00	 1.007413057846153e+01
0	 7.749999999999997e+00	 3.374999999999999e+00	 1.007478625230768e+01
0	 7.749999999999998e+00	 3.437499999999999e+00	 1.007549018461538e+01
0	 7.749999999999999e+00	 3.499999999999998e+00	 1.007624237538460e+01
0	 7.750000000000000e+00	 3.562499999999998e+00	 1.007704282461537e+01
0	 7.749999999999999e+00	 3.624999999999999e+00	 1.007789153230769e+01
0	 7.750000000000000e+00	 3.687499999999998e+00	 1.007878849846154e+01
0	 7.750000000000000e+00	 3.750000000000000e+00	 1.007973372307692e+01
0	 7.812499999999999e+00	 3.125000000000000e+00	 1.006657038461538e+01
0	 7.812499999999998e+00	 3.187500000000000e+00	 1.006714229999999e+01
0	 7.812499999999999e+00	 3.250000000000000e+00	 1.006776027692307e+01
0	 7.812499999999999e+00	 3.312500000000000e+00	 1.006842431538461e+01
0	 7.812499999999997e+00	 3.374999999999998e+00	 1.006913441538461e+01
0	 7.812499999999999e+00	 3.437499999999999e+00	 1.006989057692307e+01
0	 7.812500000000000e+00	 3.499999999999999e+00	 1.007069279999999e+01
0	 7.812499999999999e+00	 3.562499999999999e+00	 1.007154108461538e+01
0	 7.812499999999998e+00	 3.624999999999998e+00	 1.007243543076923e+01
0	 7.812500000000000e+00	 3.687499999999999e+00	 1.007337583846155e+01
0	 7.812499999999999e+00	 3.750000000000000e+00	 1.007436230769230e+01
0	 7.875000000000000e+00	 3.125000000000000e+00	 1.006075679999999e+01
0	 7.874999999999998e+00	 3.187500000000000e+00	 1.006139113230769e+01
0	 7.874999999999996e+00	 3.249999999999999e+00	 1.006206932923076e+01
0	 7.874999999999998e+00	 3.312499999999999e+00	 1.006279139076922e+01
0	 7.875000000000001e+00	 3.375000000000000e+00	 1.006355731692307e+01
0	 7.874999999999999e+00	 3.437500000000000e+00	 1.006436710769231e+01
0	 7.874999999999998e+00	 3.499999999999999e+00	 1.006522076307692e+01
0	 7.874999999999999e+00	 3.562499999999999e+00	 1.006611828307691e+01
0	 7.874999999999998e+00	 3.624999999999999e+00	 1.006705966769231e+01
0	 7.874999999999997e+00	 3.687499999999998e+00	 1.006804491692307e+01
0	 7.875000000000000e+00	 3.750000000000000e+00	 1.006907403076923e+01
0	 7.937499999999997e+00	 3.125000000000000e+00	 1.005501235384615e+01
0	 7.937499999999998e+00	 3.187500000000000e+00	 1.005571050307693e+01
0	 7.937499999999999e+00	 3.250000000000000e+00	 1.005645031999999e+01
0	 7.937499999999998e+00	 3.312500000000000e+00	 1.005723180461538e+01
0	 7.937499999999998e+00	 3.374999999999999e+00	 1.005805495692307e+01
0	 7.937500000000000e+00	 3.437499999999999e+00	 1.005891977692308e+01
0	 7.937500000000000e+00	 3.499999999999999e+00	 1.005982626461538e+01
0	 7.937500000000000e+00	 3.562499999999999e+00	 1.006077442000000e+01
0	 7.937499999999998e+00	 3.624999999999998e+00	 1.006176424307693e+01
0	 7.937499999999999e+00	 3.687499999999999e+00	 1.006279573384614e+01
0	 7.937499999999997e+00	 3.750000000000000e+00	 1.006386889230769e+01
0	 7.999999999999998e+00	 3.125000000000000e+00	 1.004933704615384e+01
0	 7.999999999999998e+00	 3.187500000000001e+00	 1.005010041230769e+01
0	 7.999999999999999e+00	 3.250000000000000e+00	 1.005090324923077e+01
0	 7.999999999999999e+00	 3.312500000000000e+00	 1.005174555692307e+01
0	 7.999999999999998e+00	 3.374999999999999e+00	 1.005262733538462e+01
0	 7.999999999999998e+00	 3.437499999999999e+00	 1.005354858461538e+01
0	 7.999999999999998e+00	 3.499999999999998e+00	 1.005450930461538e+01
0	 7.999999999999997e+00	 3.562499999999998e+00	 1.005550949538461e+01
0	 7.999999999999998e+00	 3.624999999999998e+00	 1.005654915692307e+01
0	 7.999999999999998e+00	 3.687499999999998e+00	 1.005762828923076e+01
0	 7.999999999999998e+00	 3.750000000000000e+00	 1.005874689230770e+01
0	 8.062499999999998e+00	 3.125000000000000e+00	 1.004373087692307e+01
0	 8.062499999999998e+00	 3.187500000000000e+00	 1.004456086000000e+01
0	 8.062499999999998e+00	 3.250000000000000e+00	 1.004542811692307e+01
0	 8.062500000000000e+00	 3.312500000000000e+00	 1.004633264769230e+01
0	 8.062499999999998e+00	 3.374999999999999e+00	 1.004727445230769e+01
0	 8.062499999999996e+00	 3.437500000000000e+00	 1.004825353076922e+01
0	 8.062499999999996e+00	 3.499999999999998e+00	 1.004926988307692e+01
0	 8.062499999999996e+00	 3.562499999999998e+00	 1.005032350923076e+01
0	 8.062499999999998e+00	 3.624999999999998e+00	 1.005141440923076e+01
0	 8.062499999999998e+00	 3.687499999999997e+00	 1.005254258307691e+01
0	 8.062499999999998e+00	 3.750000000000000e+00	 1.005370803076923e+01
0	 8.125000000000000e+00	 3.125000000000000e+00	 1.003819384615385e+01
0	 8.125000000000000e+00	 3.187500000000000e+00	 1.003909184615383e+01
0	 8.125000000000002e+00	 3.250000000000000e+00	 1.004002492307692e+01
0	 8.125000000000000e+00	 3.312499999999999e+00	 1.004099307692308e+01
0	 8.125000000000000e+00	 3.374999999999999e+00	 1.004199630769230e+01
0	 8.125000000000000e+00	 3.437499999999999e+00	 1.004303461538460e+01
0	 8.125000000000000e+00	 3.499999999999999e+00	 1.004410800000000e+01
0	 8.125000000000000e+00	 3.562499999999998e+00	 1.004521646153845e+01
0	 8.125000000000000e+00	 3.624999999999999e+00	 1.004636000000000e+01
0	 8.125000000000000e+00	 3.687499999999998e+00	 1.004753861538460e+01
0	 8.125000000000000e+00	 3.750000000000000e+00	 1.004875230769230e+01
0	 7.500000000000000e+00	 3.750000000000000e+00	 1.010205076923077e+01
0	 7.500000000000001e+00	 3.812500000000000e+00	 1.010164564615385e+01
0	 7.500000000000000e+00	 3.875000000000000e+00	 1.010130043076924e+01
0	 7.500000000000000e+00	 3.937499999999999e+00	 1.010101512307692e+01
0	 7.500000000000000e+00	 4.000000000000000e+00	 1.010078972307693e+01
0	 7.500000000000000e+00	 4.062499999999999e+00	 1.010062423076924e+01
0	 7.500000000000000e+00	 4.124999999999999e+00	 1.010051864615385e+01
0	 7.499999999999999e+00	 4.187499999999998e+00	 1.010047296923078e+01
0	 7.500000000000000e+00	 4.249999999999998e+00	 1.010048720000001e+01
0	 7.500000000000000e+00	 4.312499999999998e+00	 1.010056133846155e+01
0	 7.500000000000000e+00	 4.375000000000000e+00	 1.010069538461538e+01
0	 7.562499999999999e+00	 3.750000000000000e+00	 1.009634680000000e+01
0	 7.562500000000000e+00	 3.812500000000000e+00	 1.009602651692308e+01
0	 7.562500000000000e+00	 3.875000000000000e+00	 1.009576392615385e+01
0	 7.562500000000000e+00	 3.937500000000000e+00	 1.009555902769231e+01
0	 7.562500000000001e+00	 3.999999999999999e+00	 1.009541182153846e+01
0	 7.562500000000000e+00	 4.062499999999999e+00	 1.009532230769231e+01
0	 7.562500000000000e+00	 4.125000000000000e+00	 1.009529048615386e+01
0	 7.562500000000001e+00	 4.187500000000000e+00	 1.009531635692308e+01
0	 7.562500000000001e+00	 4.250000000000000e+00	 1.009539992000001e+01
0	 7.562499999999998e+00	 4.312499999999997e+00	 1.009554117538462e+01
0	 7.562499999999999e+00	 4.375000000000000e+00	 1.009574012307693e+01
0	 7.625000000000000e+00	 3.750000000000000e+00	 1.009072596923077e+01
0	 7.624999999999999e+00	 3.812500000000000e+00	 1.009048962153846e+01
0	 7.625000000000001e+00	 3.875000000000000e+00	 1.009030875076923e+01
0	 7.625000000000000e+00	 3.937500000000000e+00	 1.009018335692307e+01
0	 7.624999999999999e+00	 3.999999999999999e+00	 1.009011344000000e+01
0	 7.624999999999999e+00	 4.062499999999999e+00	 1.009009900000000e+01
0	 7.624999999999997e+00	 4.124999999999997e+00	 1.009014003692308e+01
0	 7.625000000000000e+00	 4.187499999999998e+00	 1.009023655076923e+01
0	 7.625000000000000e+00	 4.249999999999998e+00	 1.009038854153847e+01
0	 7.625000000000000e+00	 4.312499999999998e+00	 1.009059600923079e+01
0	 7.625000000000000e+00	 4.375000000000000e+00	 1.009085895384615e+01
0	 7.687499999999999e+00	 3.750000000000000e+00	 1.008518827692308e+01
0	 7.687499999999999e+00	 3.812500000000000e+00	 1.008503496000000e+01
0	 7.687500000000000e+00	 3.875000000000000e+00	 1.008493490461538e+01
0	 7.687500000000000e+00	 3.937500000000000e+00	 1.008488811076924e+01
0	 7.687499999999999e+00	 3.999999999999999e+00	 1.008489457846154e+01
0	 7.687500000000000e+00	 4.062500000000000e+00	 1.008495430769231e+01
0	 7.687500000000000e+00	 4.124999999999998e+00	 1.008506729846155e+01
0	 7.687499999999998e+00	 4.187499999999999e+00	 1.008523355076924e+01
0	 7.687500000000000e+00	 4.249999999999998e+00	 1.008545306461537e+01
0	 7.687499999999998e+00	 4.312499999999997e+00	 1.008572584000002e+01
0	 7.687499999999999e+00	 4.375000000000000e+00	 1.008605187692309e+01
0	 7.750000000000000e+00	 3.750000000000000e+00	 1.007973372307692e+01
0	 7.750000000000000e+00	 3.812500000000000e+00	 1.007966253230770e+01
0	 7.749999999999998e+00	 3.875000000000000e+00	 1.007964238769230e+01
0	 7.749999999999998e+00	 3.937500000000000e+00	 1.007967328923077e+01
0	 7.749999999999997e+00	 3.999999999999999e+00	 1.007975523692309e+01
0	 7.749999999999998e+00	 4.062499999999999e+00	 1.007988823076924e+01
0	 7.749999999999999e+00	 4.124999999999998e+00	 1.008007227076923e+01
0	 7.750000000000000e+00	 4.187499999999999e+00	 1.008030735692308e+01
0	 7.749999999999999e+00	 4.249999999999998e+00	 1.008059348923078e+01
0	 7.750000000000000e+00	 4.312499999999998e+00	 1.008093066769231e+01
0	 7.750000000000000e+00	 4.375000000000000e+00	 1.008131889230771e+01
0	 7.812499999999999e+00	 3.750000000000000e+00	 1.007436230769230e+01
0	 7.812499999999998e+00	 3.812500000000000e+00	 1.007437233846154e+01
0	 7.812499999999999e+00	 3.875000000000000e+00	 1.007443119999999e+01
0	 7.812499999999999e+00	 3.937499999999999e+00	 1.007453889230769e+01
0	 7.812499999999997e+00	 3.999999999999998e+00	 1.007469541538461e+01
0	 7.812499999999999e+00	 4.062499999999999e+00	 1.007490076923077e+01
0	 7.812500000000000e+00	 4.125000000000000e+00	 1.007515495384616e+01
0	 7.812499999999999e+00	 4.187499999999998e+00	 1.007545796923077e+01
0	 7.812499999999998e+00	 4.249999999999998e+00	 1.007580981538461e+01
0	 7.812500000000000e+00	 4.312499999999998e+00	 1.007621049230769e+01
0	 7.812499999999999e+00	 4.375000000000000e+00	 1.007666000000000e+01
0	 7.875000000000000e+00	 3.750000000000000e+00	 1.006907403076923e+01
0	 7.874999999999998e+00	 3.812500000000000e+00	 1.006916437846153e+01
0	 7.874999999999996e+00	 3.874999999999999e+00	 1.006930134153846e+01
0	 7.874999999999998e+00	 3.937500000000000e+00	 1.006948492000000e+01
0	 7.875000000000001e+00	 4.000000000000000e+00	 1.006971511384615e+01
0	 7.874999999999999e+00	 4.062500000000000e+00	 1.006999192307693e+01
0	 7.874999999999998e+00	 4.124999999999999e+00	 1.007031534769231e+01
0	 7.874999999999999e+00	 4.187499999999998e+00	 1.007068538769231e+01
0	 7.874999999999998e+00	 4.249999999999999e+00	 1.007110204307693e+01
0	 7.874999999999997e+00	 4.312499999999997e+00	 1.007156531384616e+01
0	 7.875000000000000e+00	 4.375000000000000e+00	 1.007207520000001e+01
0	 7.937499999999997e+00	 3.750000000000000e+00	 1.006386889230769e+01
0	 7.937499999999998e+00	 3.812500000000000e+00	 1.006403865230769e+01
0	 7.937499999999999e+00	 3.875000000000000e+00	 1.006425281230769e+01
0	 7.937499999999998e+00	 3.937499999999999e+00	 1.006451137230769e+01
0	 7.937499999999998e+00	 3.999999999999999e+00	 1.006481433230770e+01
0	 7.937500000000000e+00	 4.062500000000000e+00	 1.006516169230770e+01
0	 7.937500000000000e+00	 4.124999999999999e+00	 1.006555345230770e+01
0	 7.937500000000000e+00	 4.187499999999999e+00	 1.006598961230771e+01
0	 7.937499999999998e+00	 4.249999999999998e+00	 1.006647017230770e+01
0	 7.937499999999999e+00	 4.312499999999998e+00	 1.006699513230771e+01
0	 7.937499999999997e+00	 4.375000000000000e+00	 1.006756449230771e+01
0	 7.999999999999998e+00	 3.750000000000000e+00	 1.005874689230770e+01
0	 7.999999999999998e+00	 3.812500000000000e+00	 1.005899516000000e+01
0	 7.999999999999999e+00	 3.875000000000000e+00	 1.005928561230768e+01
0	 7.999999999999999e+00	 3.937500000000000e+00	 1.005961824923077e+01
0	 7.999999999999998e+00	 3.999999999999999e+00	 1.005999307076925e+01
0	 7.999999999999998e+00	 4.062499999999998e+00	 1.006041007692308e+01
0	 7.999999999999998e+00	 4.124999999999999e+00	 1.006086926769232e+01
0	 7.999999999999997e+00	 4.187499999999998e+00	 1.006137064307693e+01
0	 7.999999999999998e+00	 4.249999999999998e+00	 1.006191420307694e+01
0	 7.999999999999998e+00	 4.312499999999998e+00	 1.006249994769232e+01
0	 7.999999999999998e+00	 4.375000000000000e+00	 1.006312787692308e+01
0	 8.062499999999998e+00	 3.750000000000000e+00	 1.005370803076923e+01
0	 8.062499999999998e+00	 3.812500000000000e+00	 1.005403390153846e+01
0	 8.062499999999998e+00	 3.875000000000000e+00	 1.005439974153845e+01
0	 8.062500000000000e+00	 3.937499999999999e+00	 1.005480555076923e+01
0	 8.062499999999998e+00	 3.999999999999999e+00	 1.005525132923077e+01
0	 8.062499999999996e+00	 4.062499999999998e+00	 1.005573707692308e+01
0	 8.062499999999996e+00	 4.124999999999998e+00	 1.005626279384615e+01
0	 8.062499999999996e+00	 4.187499999999998e+00	 1.005682848000001e+01
0	 8.062499999999998e+00	 4.249999999999998e+00	 1.005743413538463e+01
0	 8.062499999999998e+00	 4.312499999999998e+00	 1.005807976000001e+01
0	 8.062499999999998e+00	 4.375000000000000e+00	 1.005876535384616e+01
0	 8.125000000000000e+00	 3.750000000000000e+00	 1.004875230769230e+01
0	 8.125000000000000e+00	 3.812500000000000e+00	 1.004915487692308e+01
0	 8.125000000000002e+00	 3.875000000000000e+00	 1.004959520000000e+01
0	 8.125000000000000e+00	 3.937499999999999e+00	 1.005007327692308e+01
0	 8.125000000000000e+00	 4.000000000000000e+00	 1.005058910769231e+01
0	 8.125000000000000e+00	 4.062499999999999e+00	 1.005114269230770e+01
0	 8.125000000000000e+00	 4.124999999999999e+00	 1.005173403076923e+01
0	 8.125000000000000e+00	 4.187499999999998e+00	 1.005236312307693e+01
0	 8.125000000000000e+00	 4.249999999999998e+00	 1.005302996923078e+01
0	 8.125000000000000e+00	 4.312499999999998e+00	 1.005373456923078e+01
0	 8.125000000000000e+00	 4.375000000000000e+00	 1.005447692307693e+01
0	 7.500000000000000e+00	 4.375000000000000e+00	 1.010069538461538e+01
0	 7.500000000000001e+00	 4.437499999999999e+00	 1.009976875384616e+01
0	 7.500000000000000e+00	 4.500000000000001e+00	 1.009889224615384e+01
0	 7.500000000000000e+00	 4.562499999999999e+00	 1.009806586153847e+01
0	 7.500000000000000e+00	 4.625000000000000e+00	 1.009728959999999e+01
0	 7.500000000000000e+00	 4.687499999999999e+00	 1.009656346153846e+01
0	 7.500000000000000e+00	 4.749999999999999e+00	 1.009588744615385e+01
0	 7.499999999999999e+00	 4.812499999999998e+00	 1.009526155384616e+01
0	 7.500000000000000e+00	 4.874999999999998e+00	 1.009468578461538e+01
0	 7.500000000000000e+00	 4.937499999999998e+00	 1.009416013846152e+01
0	 7.500000000000000e+00	 5.000000000000000e+00	 1.009368461538461e+01
0	 7.562499999999999e+00	 4.375000000000000e+00	 1.009574012307693e+01
0	 7.562500000000000e+00	 4.437500000000000e+00	 1.009490311692307e+01
0	 7.562500000000000e+00	 4.499999999999999e+00	 1.009411467384615e+01
0	 7.562500000000000e+00	 4.562499999999999e+00	 1.009337479384615e+01
0	 7.562500000000001e+00	 4.625000000000000e+00	 1.009268347692308e+01
0	 7.562500000000000e+00	 4.687500000000001e+00	 1.009204072307693e+01
0	 7.562500000000000e+00	 4.749999999999999e+00	 1.009144653230769e+01
0	 7.562500000000001e+00	 4.812499999999999e+00	 1.009090090461538e+01
0	 7.562500000000001e+00	 4.875000000000000e+00	 1.009040384000001e+01
0	 7.562499999999998e+00	 4.937499999999997e+00	 1.008995533846153e+01
0	 7.562499999999999e+00	 4.999999999999999e+00	 1.008955539999999e+01
0	 7.625000000000000e+00	 4.375000000000000e+00	 1.009085895384615e+01
0	 7.624999999999999e+00	 4.437500000000000e+00	 1.009011047384617e+01
0	 7.625000000000001e+00	 4.500000000000001e+00	 1.008940899692308e+01
0	 7.625000000000000e+00	 4.562499999999999e+00	 1.008875452307693e+01
0	 7.624999999999999e+00	 4.624999999999998e+00	 1.008814705230769e+01
0	 7.624999999999999e+00	 4.687499999999997e+00	 1.008758658461539e+01
0	 7.624999999999997e+00	 4.749999999999998e+00	 1.008707312000001e+01
0	 7.625000000000000e+00	 4.812499999999999e+00	 1.008660665846153e+01
0	 7.625000000000000e+00	 4.874999999999998e+00	 1.008618720000001e+01
0	 7.625000000000000e+00	 4.937499999999998e+00	 1.008581474461539e+01
0	 7.625000000000000e+00	 5.000000000000000e+00	 1.008548929230770e+01
0	 7.687499999999999e+00	 4.375000000000000e+00	 1.008605187692309e+01
0	 7.687499999999999e+00	 4.437500000000000e+00	 1.008539082461539e+01
0	 7.687500000000000e+00	 4.500000000000000e+00	 1.008477521538461e+01
0	 7.687500000000000e+00	 4.562499999999999e+00	 1.008420504923076e+01
0	 7.687499999999999e+00	 4.625000000000000e+00	 1.008368032615385e+01
0	 7.687500000000000e+00	 4.687499999999999e+00	 1.008320104615384e+01
0	 7.687500000000000e+00	 4.749999999999998e+00	 1.008276720923076e+01
0	 7.687499999999998e+00	 4.812499999999998e+00	 1.008237881538462e+01
0	 7.687500000000000e+00	 4.874999999999998e+00	 1.008203586461539e+01
0	 7.687499999999998e+00	 4.937499999999997e+00	 1.008173835692308e+01
0	 7.687499999999999e+00	 4.999999999999999e+00	 1.008148629230770e+01
0	 7.750000000000000e+00	 4.375000000000000e+00	 1.008131889230771e+01
0	 7.750000000000000e+00	 4.437500000000000e+00	 1.008074416923078e+01
0	 7.749999999999998e+00	 4.500000000000000e+00	 1.008021332923077e+01
0	 7.749999999999998e+00	 4.562499999999999e+00	 1.007972637230770e+01
0	 7.749999999999997e+00	 4.624999999999999e+00	 1.007928329846155e+01
0	 7.749999999999998e+00	 4.687500000000000e+00	 1.007888410769232e+01
0	 7.749999999999999e+00	 4.749999999999998e+00	 1.007852880000001e+01
0	 7.750000000000000e+00	 4.812499999999999e+00	 1.007821737538461e+01
0	 7.749999999999999e+00	 4.874999999999998e+00	 1.007794983384616e+01
0	 7.750000000000000e+00	 4.937499999999997e+00	 1.007772617538461e+01
0	 7.750000000000000e+00	 5.000000000000000e+00	 1.007754640000000e+01
0	 7.812499999999999e+00	 4.375000000000000e+00	 1.007666000000000e+01
0	 7.812499999999998e+00	 4.437499999999999e+00	 1.007617050769231e+01
0	 7.812499999999999e+00	 4.499999999999999e+00	 1.007572333846155e+01
0	 7.812499999999999e+00	 4.562499999999999e+00	 1.007531849230770e+01
0	 7.812499999999997e+00	 4.624999999999998e+00	 1.007495596923077e+01
0	 7.812499999999999e+00	 4.687499999999999e+00	 1.007463576923077e+01
0	 7.812500000000000e+00	 4.750000000000000e+00	 1.007435789230770e+01
0	 7.812499999999999e+00	 4.812499999999998e+00	 1.007412233846153e+01
0	 7.812499999999998e+00	 4.874999999999998e+00	 1.007392910769232e+01
0	 7.812500000000000e+00	 4.937499999999999e+00	 1.007377819999999e+01
0	 7.812499999999999e+00	 5.000000000000000e+00	 1.007366961538462e+01
0	 7.875000000000000e+00	 4.375000000000000e+00	 1.007207520000001e+01
0	 7.874999999999998e+00	 4.437499999999999e+00	 1.007166984000001e+01
0	 7.874999999999996e+00	 4.499999999999998e+00	 1.007130524307692e+01
0	 7.874999999999998e+00	 4.562499999999999e+00	 1.007098140923076e+01
0	 7.875000000000001e+00	 4.625000000000001e+00	 1.007069833846155e+01
0	 7.874999999999999e+00	 4.687499999999999e+00	 1.007045603076923e+01
0	 7.874999999999998e+00	 4.749999999999998e+00	 1.007025448615385e+01
0	 7.874999999999999e+00	 4.812499999999999e+00	 1.007009370461539e+01
0	 7.874999999999998e+00	 4.874999999999998e+00	 1.006997368615385e+01
0	 7.874999999999997e+00	 4.937499999999999e+00	 1.006989443076922e+01
0	 7.875000000000000e+00	 5.000000000000001e+00	 1.006985593846155e+01
0	 7.937499999999997e+00	 4.375000000000000e+00	 1.006756449230771e+01
0	 7.937499999999998e+00	 4.437499999999999e+00	 1.006724216615386e+01
0	 7.937499999999999e+00	 4.500000000000000e+00	 1.006695904307692e+01
0	 7.937499999999998e+00	 4.562499999999999e+00	 1.006671512307693e+01
0	 7.937499999999998e+00	 4.625000000000000e+00	 1.006651040615385e+01
0	 7.937500000000000e+00	 4.687500000000000e+00	 1.006634489230770e+01
0	 7.937500000000000e+00	 4.749999999999999e+00	 1.006621858153847e+01
0	 7.937500000000000e+00	 4.812499999999999e+00	 1.006613147384616e+01
0	 7.937499999999998e+00	 4.874999999999998e+00	 1.006608356923077e+01
0	 7.937499999999999e+00	 4.937499999999999e+00	 1.006607486769231e+01
0	 7.937499999999997e+00	 4.999999999999999e+00	 1.006610536923077e+01
0	 7.999999999999998e+00	 4.375000000000000e+00	 1.006312787692308e+01
0	 7.999999999999998e+00	 4.437500000000001e+00	 1.006288748615386e+01
0	 7.999999999999999e+00	 4.499999999999999e+00	 1.006268473846155e+01
0	 7.999999999999999e+00	 4.562500000000000e+00	 1.006251963384615e+01
0	 7.999999999999998e+00	 4.624999999999999e+00	 1.006239217230770e+01
0	 7.999999999999998e+00	 4.687499999999998e+00	 1.006230235384615e+01
0	 7.999999999999998e+00	 4.749999999999999e+00	 1.006225017846154e+01
0	 7.999999999999997e+00	 4.812499999999998e+00	 1.006223564615385e+01
0	 7.999999999999998e+00	 4.874999999999999e+00	 1.006225875692308e+01
0	 7.999999999999998e+00	 4.937499999999998e+00	 1.006231951076923e+01
0	 7.999999999999998e+00	 5.000000000000000e+00	 1.006241790769231e+01
0	 8.062499999999998e+00	 4.375000000000000e+00	 1.005876535384616e+01
0	 8.062499999999998e+00	 4.437500000000000e+00	 1.005860580000001e+01
0	 8.062499999999998e+00	 4.500000000000000e+00	 1.005848232923078e+01
0	 8.062500000000000e+00	 4.562500000000000e+00	 1.005839494153848e+01
0	 8.062499999999998e+00	 4.624999999999999e+00	 1.005834363692308e+01
0	 8.062499999999996e+00	 4.687499999999999e+00	 1.005832841538462e+01
0	 8.062499999999996e+00	 4.749999999999999e+00	 1.005834927692309e+01
0	 8.062499999999996e+00	 4.812499999999998e+00	 1.005840622153846e+01
0	 8.062499999999998e+00	 4.874999999999999e+00	 1.005849924923078e+01
0	 8.062499999999998e+00	 4.937499999999998e+00	 1.005862836000001e+01
0	 8.062499999999998e+00	 5.000000000000000e+00	 1.005879355384615e+01
0	 8.125000000000000e+00	 4.375000000000000e+00	 1.005447692307693e+01
0	 8.125000000000000e+00	 4.437499999999999e+00	 1.005439710769232e+01
0	 8.125000000000002e+00	 4.500000000000001e+00	 1.005435181538462e+01
0	 8.125000000000000e+00	 4.562499999999999e+00	 1.005434104615386e+01
0	 8.125000000000000e+00	 4.625000000000000e+00	 1.005436480000000e+01
0	 8.125000000000000e+00	 4.687499999999999e+00	 1.005442307692307e+01
0	 8.125000000000000e+00	 4.749999999999999e+00	 1.005451587692308e+01
0	 8.125000000000000e+00	 4.812499999999998e+00	 1.005464320000000e+01
0	 8.125000000000000e+00	 4.874999999999998e+00	 1.005480504615385e+01
0	 8.125000000000000e+00	 4.937499999999998e+00	 1.005500141538461e+01
0	 8.125000000000000e+00	 5.000000000000000e+00	 1.005523230769231e+01
0	 7.500000000000000e+00	 5.000000000000000e+00	 1.009368461538461e+01
0	 7.500000000000001e+00	 5.062500000000000e+00	 1.009237524615385e+01
0	 7.500000000000000e+00	 5.125000000000001e+00	 1.009110344615384e+01
0	 7.500000000000000e+00	 5.187499999999999e+00	 1.008986921538459e+01
0	 7.500000000000000e+00	 5.249999999999999e+00	 1.008867255384614e+01
0	 7.500000000000000e+00	 5.312499999999999e+00	 1.008751346153846e+01
0	 7.500000000000000e+00	 5.374999999999998e+00	 1.008639193846153e+01
0	 7.499999999999999e+00	 5.437499999999998e+00	 1.008530798461538e+01
0	 7.500000000000000e+00	 5.499999999999998e+00	 1.008426159999998e+01
0	 7.500000000000000e+00	 5.562499999999998e+00	 1.008325278461537e+01
0	 7.500000000000000e+00	 5.625000000000000e+00	 1.008228153846153e+01
0	 7.562499999999999e+00	 4.999999999999999e+00	 1.008955539999999e+01
0	 7.562500000000000e+00	 5.062500000000000e+00	 1.008833820769232e+01
0	 7.562500000000000e+00	 5.125000000000000e+00	 1.008715753230769e+01
0	 7.562500000000000e+00	 5.187499999999999e+00	 1.008601337384615e+01
0	 7.562500000000001e+00	 5.249999999999998e+00	 1.008490573230769e+01
0	 7.562500000000000e+00	 5.312500000000000e+00	 1.008383460769231e+01
0	 7.562500000000000e+00	 5.374999999999999e+00	 1.008279999999999e+01
0	 7.562500000000001e+00	 5.437499999999999e+00	 1.008180190923076e+01
0	 7.562500000000001e+00	 5.499999999999999e+00	 1.008084033538461e+01
0	 7.562499999999998e+00	 5.562499999999996e+00	 1.007991527846154e+01
0	 7.562499999999999e+00	 5.625000000000000e+00	 1.007902673846152e+01
0	 7.625000000000000e+00	 5.000000000000000e+00	 1.008548929230770e+01
0	 7.624999999999999e+00	 5.062499999999999e+00	 1.008436236000001e+01
0	 7.625000000000001e+00	 5.125000000000001e+00	 1.008327089230768e+01
0	 7.625000000000000e+00	 5.187499999999998e+00	 1.008221488923078e+01
0	 7.624999999999999e+00	 5.249999999999999e+00	 1.008119435076923e+01
0	 7.624999999999999e+00	 5.312499999999999e+00	 1.008020927692307e+01
0	 7.624999999999997e+00	 5.374999999999999e+00	 1.007925966769231e+01
0	 7.625000000000000e+00	 5.437499999999999e+00	 1.007834552307691e+01
0	 7.625000000000000e+00	 5.499999999999998e+00	 1.007746684307692e+01
0	 7.625000000000000e+00	 5.562499999999999e+00	 1.007662362769229e+01
0	 7.625000000000000e+00	 5.625000000000000e+00	 1.007581587692307e+01
0	 7.687499999999999e+00	 4.999999999999999e+00	 1.008148629230770e+01
0	 7.687499999999999e+00	 5.062500000000001e+00	 1.008044770307691e+01
0	 7.687500000000000e+00	 5.125000000000000e+00	 1.007944352615385e+01
0	 7.687500000000000e+00	 5.187499999999999e+00	 1.007847376153846e+01
0	 7.687499999999999e+00	 5.250000000000000e+00	 1.007753840923076e+01
0	 7.687500000000000e+00	 5.312499999999999e+00	 1.007663746923076e+01
0	 7.687500000000000e+00	 5.374999999999998e+00	 1.007577094153845e+01
0	 7.687499999999998e+00	 5.437499999999999e+00	 1.007493882615384e+01
0	 7.687500000000000e+00	 5.499999999999998e+00	 1.007414112307691e+01
0	 7.687499999999998e+00	 5.562499999999997e+00	 1.007337783230768e+01
0	 7.687499999999999e+00	 5.625000000000000e+00	 1.007264895384614e+01
0	 7.750000000000000e+00	 5.000000000000000e+00	 1.007754640000000e+01
0	 7.750000000000000e+00	 5.062500000000000e+00	 1.007659423692307e+01
0	 7.749999999999998e+00	 5.125000000000000e+00	 1.007567543384613e+01
0	 7.749999999999998e+00	 5.187500000000000e+00	 1.007478999076923e+01
0	 7.749999999999997e+00	 5.249999999999999e+00	 1.007393790769229e+01
0	 7.749999999999998e+00	 5.312499999999999e+00	 1.007311918461539e+01
0	 7.749999999999999e+00	 5.374999999999998e+00	 1.007233382153845e+01
0	 7.750000000000000e+00	 5.437499999999999e+00	 1.007158181846154e+01
0	 7.749999999999999e+00	 5.499999999999999e+00	 1.007086317538461e+01
0	 7.750000000000000e+00	 5.562499999999998e+00	 1.007017789230770e+01
0	 7.750000000000000e+00	 5.625000000000000e+00	 1.006952596923074e+01
0	 7.812499999999999e+00	 5.000000000000000e+00	 1.007366961538462e+01
0	 7.812499999999998e+00	 5.062500000000000e+00	 1.007280196153847e+01
0	 7.812499999999999e+00	 5.124999999999999e+00	 1.007196661538461e+01
0	 7.812499999999999e+00	 5.187500000000000e+00	 1.007116357692307e+01
0	 7.812499999999997e+00	 5.249999999999998e+00	 1.007039284615384e+01
0	 7.812499999999999e+00	 5.312499999999999e+00	 1.006965442307692e+01
0	 7.812500000000000e+00	 5.375000000000000e+00	 1.006894830769231e+01
0	 7.812499999999999e+00	 5.437499999999998e+00	 1.006827450000000e+01
0	 7.812499999999998e+00	 5.499999999999998e+00	 1.006763299999999e+01
0	 7.812500000000000e+00	 5.562499999999999e+00	 1.006702380769230e+01
0	 7.812499999999999e+00	 5.625000000000000e+00	 1.006644692307692e+01
0	 7.875000000000000e+00	 5.000000000000001e+00	 1.006985593846155e+01
0	 7.874999999999998e+00	 5.062499999999999e+00	 1.006907087692307e+01
0	 7.874999999999996e+00	 5.125000000000000e+00	 1.006831707076922e+01
0	 7.874999999999998e+00	 5.187500000000000e+00	 1.006759451999999e+01
0	 7.875000000000001e+00	 5.250000000000001e+00	 1.006690322461538e+01
0	 7.874999999999999e+00	 5.312500000000001e+00	 1.006624318461539e+01
0	 7.874999999999998e+00	 5.374999999999999e+00	 1.006561440000000e+01
0	 7.874999999999999e+00	 5.437499999999999e+00	 1.006501687076923e+01
0	 7.874999999999998e+00	 5.499999999999998e+00	 1.006445059692307e+01
0	 7.874999999999997e+00	 5.562499999999998e+00	 1.006391557846154e+01
0	 7.875000000000000e+00	 5.625000000000000e+00	 1.006341181538462e+01
0	 7.937499999999997e+00	 4.999999999999999e+00	 1.006610536923077e+01
0	 7.937499999999998e+00	 5.062500000000000e+00	 1.006540098307692e+01
0	 7.937499999999999e+00	 5.125000000000000e+00	 1.006472679999999e+01
0	 7.937499999999998e+00	 5.187500000000000e+00	 1.006408281999999e+01
0	 7.937499999999998e+00	 5.250000000000000e+00	 1.006346904307692e+01
0	 7.937500000000000e+00	 5.312500000000000e+00	 1.006288546923078e+01
0	 7.937500000000000e+00	 5.374999999999999e+00	 1.006233209846155e+01
0	 7.937500000000000e+00	 5.437499999999998e+00	 1.006180893076922e+01
0	 7.937499999999998e+00	 5.499999999999998e+00	 1.006131596615383e+01
0	 7.937499999999999e+00	 5.562499999999999e+00	 1.006085320461536e+01
0	 7.937499999999997e+00	 5.625000000000000e+00	 1.006042064615385e+01
0	 7.999999999999998e+00	 5.000000000000000e+00	 1.006241790769231e+01
0	 7.999999999999998e+00	 5.062500000000002e+00	 1.006179228000001e+01
0	 7.999999999999999e+00	 5.124999999999999e+00	 1.006119580307692e+01
0	 7.999999999999999e+00	 5.187500000000000e+00	 1.006062847692309e+01
0	 7.999999999999998e+00	 5.249999999999998e+00	 1.006009030153846e+01
0	 7.999999999999998e+00	 5.312499999999999e+00	 1.005958127692307e+01
0	 7.999999999999998e+00	 5.374999999999998e+00	 1.005910140307692e+01
0	 7.999999999999997e+00	 5.437499999999998e+00	 1.005865067999999e+01
0	 7.999999999999998e+00	 5.499999999999999e+00	 1.005822910769231e+01
0	 7.999999999999998e+00	 5.562499999999998e+00	 1.005783668615384e+01
0	 7.999999999999998e+00	 5.625000000000000e+00	 1.005747341538461e+01
0	 8.062499999999998e+00	 5.000000000000000e+00	 1.005879355384615e+01
0	 8.062499999999998e+00	 5.062500000000000e+00	 1.005824476769231e+01
0	 8.062499999999998e+00	 5.125000000000001e+00	 1.005772408000001e+01
0	 8.062500000000000e+00	 5.187499999999999e+00	 1.005723149076923e+01
0	 8.062499999999998e+00	 5.249999999999999e+00	 1.005676699999999e+01
0	 8.062499999999996e+00	 5.312499999999998e+00	 1.005633060769230e+01
0	 8.062499999999996e+00	 5.374999999999997e+00	 1.005592231384615e+01
0	 8.062499999999996e+00	 5.437499999999998e+00	 1.005554211846153e+01
0	 8.062499999999998e+00	 5.499999999999999e+00	 1.005519002153846e+01
0	 8.062499999999998e+00	 5.562499999999998e+00	 1.005486602307691e+01
0	 8.062499999999998e+00	 5.625000000000000e+00	 1.005457012307690e+01
0	 8.125000000000000e+00	 5.000000000000000e+00	 1.005523230769231e+01
0	 8.125000000000000e+00	 5.062500000000000e+00	 1.005475844615386e+01
0	 8.125000000000002e+00	 5.125000000000001e+00	 1.005431163076923e+01
0	 8.125000000000000e+00	 5.187499999999999e+00	 1.005389186153845e+01
0	 8.125000000000000e+00	 5.249999999999999e+00	 1.005349913846154e+01
0	 8.125000000000000e+00	 5.312499999999999e+00	 1.005313346153846e+01
0	 8.125000000000000e+00	 5.374999999999998e+00	 1.005279483076922e+01
0	 8.125000000000000e+00	 5.437499999999998e+00	 1.005248324615384e+01
0	 8.125000000000000e+00	 5.499999999999998e+00	 1.005219870769231e+01
0	 8.125000000000000e+00	 5.562499999999998e+00	 1.005194121538460e+01
0	 8.125000000000000e+00	 5.625000000000000e+00	 1.005171076923076e+01
0	 7.500000000000000e+00	 5.625000000000000e+00	 1.008228153846153e+01
0	 7.500000000000001e+00	 5.687500000000000e+00	 1.008076839999999e+01
0	 7.500000000000000e+00	 5.750000000000000e+00	 1.007927759999998e+01
0	 7.500000000000000e+00	 5.812499999999999e+00	 1.007780913846154e+01
0	 7.500000000000000e+00	 5.874999999999999e+00	 1.007636301538461e+01
0	 7.500000000000000e+00	 5.937499999999999e+00	 1.007493923076923e+01
0	 7.500000000000000e+00	 5.999999999999998e+00	 1.007353778461540e+01
0	 7.499999999999999e+00	 6.062499999999998e+00	 1.007215867692308e+01
0	 7.500000000000000e+00	 6.124999999999998e+00	 1.007080190769232e+01
0	 7.500000000000000e+00	 6.187499999999998e+00	 1.006946747692309e+01
0	 7.500000000000000e+00	 6.250000000000000e+00	 1.006815538461539e+01
0	 7.562499999999999e+00	 5.625000000000000e+00	 1.007902673846152e+01
0	 7.562500000000000e+00	 5.687499999999999e+00	 1.007759552000000e+01
0	 7.562500000000000e+00	 5.749999999999999e+00	 1.007618620615385e+01
0	 7.562500000000000e+00	 5.812499999999998e+00	 1.007479879692308e+01
0	 7.562500000000001e+00	 5.875000000000000e+00	 1.007343329230770e+01
0	 7.562500000000000e+00	 5.937500000000001e+00	 1.007208969230770e+01
0	 7.562500000000000e+00	 5.999999999999999e+00	 1.007076799692308e+01
0	 7.562500000000001e+00	 6.062500000000000e+00	 1.006946820615384e+01
0	 7.562500000000001e+00	 6.125000000000000e+00	 1.006819032000000e+01
0	 7.562499999999998e+00	 6.187499999999996e+00	 1.006693433846155e+01
0	 7.562499999999999e+00	 6.250000000000000e+00	 1.006570026153847e+01
0	 7.625000000000000e+00	 5.625000000000000e+00	 1.007581587692307e+01
0	 7.624999999999999e+00	 5.687499999999999e+00	 1.007446500615384e+01
0	 7.625000000000001e+00	 5.750000000000002e+00	 1.007313560615384e+01
0	 7.625000000000000e+00	 5.812499999999999e+00	 1.007182767692308e+01
0	 7.624999999999999e+00	 5.874999999999998e+00	 1.007054121846154e+01
0	 7.624999999999999e+00	 5.937499999999999e+00	 1.006927623076923e+01
0	 7.624999999999997e+00	 5.999999999999998e+00	 1.006803271384615e+01
0	 7.625000000000000e+00	 6.062499999999999e+00	 1.006681066769230e+01
0	 7.625000000000000e+00	 6.124999999999998e+00	 1.006561009230769e+01
0	 7.625000000000000e+00	 6.187499999999998e+00	 1.006443098769231e+01
0	 7.625000000000000e+00	 6.250000000000000e+00	 1.006327335384615e+01
0	 7.687499999999999e+00	 5.625000000000000e+00	 1.007264895384614e+01
0	 7.687499999999999e+00	 5.687500000000000e+00	 1.007137685846153e+01
0	 7.687500000000000e+00	 5.749999999999999e+00	 1.007012580000000e+01
0	 7.687500000000000e+00	 5.812499999999999e+00	 1.006889577846154e+01
0	 7.687499999999999e+00	 5.875000000000000e+00	 1.006768679384615e+01
0	 7.687500000000000e+00	 5.937500000000000e+00	 1.006649884615384e+01
0	 7.687500000000000e+00	 5.999999999999998e+00	 1.006533193538462e+01
0	 7.687499999999998e+00	 6.062499999999998e+00	 1.006418606153848e+01
0	 7.687500000000000e+00	 6.124999999999997e+00	 1.006306122461538e+01
0	 7.687499999999998e+00	 6.187499999999997e+00	 1.006195742461540e+01
0	 7.687499999999999e+00	 6.250000000000000e+00	 1.006087466153845e+01
0	 7.750000000000000e+00	 5.625000000000000e+00	 1.006952596923074e+01
0	 7.750000000000000e+00	 5.687500000000000e+00	 1.006833107692307e+01
0	 7.749999999999998e+00	 5.750000000000000e+00	 1.006715678769230e+01
0	 7.749999999999998e+00	 5.812500000000000e+00	 1.006600310153846e+01
0	 7.749999999999997e+00	 5.874999999999999e+00	 1.006487001846154e+01
0	 7.749999999999998e+00	 5.937499999999999e+00	 1.006375753846155e+01
0	 7.749999999999999e+00	 5.999999999999997e+00	 1.006266566153846e+01
0	 7.750000000000000e+00	 6.062499999999998e+00	 1.006159438769230e+01
0	 7.749999999999999e+00	 6.124999999999999e+00	 1.006054371692309e+01
0	 7.750000000000000e+00	 6.187499999999998e+00	 1.005951364923080e+01
0	 7.750000000000000e+00	 6.250000000000000e+00	 1.005850418461541e+01
0	 7.812499999999999e+00	 5.625000000000000e+00	 1.006644692307692e+01
0	 7.812499999999998e+00	 5.687500000000000e+00	 1.006532766153846e+01
0	 7.812499999999999e+00	 5.750000000000000e+00	 1.006422856923076e+01
0	 7.812499999999999e+00	 5.812500000000000e+00	 1.006314964615385e+01
0	 7.812499999999997e+00	 5.874999999999998e+00	 1.006209089230770e+01
0	 7.812499999999999e+00	 5.937499999999998e+00	 1.006105230769231e+01
0	 7.812500000000000e+00	 6.000000000000000e+00	 1.006003389230770e+01
0	 7.812499999999999e+00	 6.062499999999998e+00	 1.005903564615386e+01
0	 7.812499999999998e+00	 6.124999999999998e+00	 1.005805756923078e+01
0	 7.812500000000000e+00	 6.187499999999999e+00	 1.005709966153849e+01
0	 7.812499999999999e+00	 6.250000000000000e+00	 1.005616192307693e+01
0	 7.875000000000000e+00	 5.625000000000000e+00	 1.006341181538462e+01
0	 7.874999999999998e+00	 5.687499999999999e+00	 1.006236661230768e+01
0	 7.874999999999996e+00	 5.750000000000000e+00	 1.006134114461537e+01
0	 7.874999999999998e+00	 5.812499999999999e+00	 1.006033541230768e+01
0	 7.875000000000001e+00	 5.875000000000001e+00	 1.005934941538461e+01
0	 7.874999999999999e+00	 5.937499999999999e+00	 1.005838315384614e+01
0	 7.874999999999998e+00	 5.999999999999998e+00	 1.005743662769230e+01
0	 7.874999999999999e+00	 6.062499999999999e+00	 1.005650983692308e+01
0	 7.874999999999998e+00	 6.124999999999998e+00	 1.005560278153845e+01
0	 7.874999999999997e+00	 6.187499999999998e+00	 1.005471546153845e+01
0	 7.875000000000000e+00	 6.250000000000000e+00	 1.005384787692307e+01
0	 7.937499999999997e+00	 5.625000000000000e+00	 1.006042064615385e+01
0	 7.937499999999998e+00	 5.687500000000000e+00	 1.005944792923075e+01
0	 7.937499999999999e+00	 5.750000000000000e+00	 1.005849451384614e+01
0	 7.937499999999998e+00	 5.812499999999999e+00	 1.005756039999999e+01
0	 7.937499999999998e+00	 5.874999999999999e+00	 1.005664558769231e+01
0	 7.937500000000000e+00	 5.937500000000001e+00	 1.005575007692309e+01
0	 7.937500000000000e+00	 5.999999999999999e+00	 1.005487386769232e+01
0	 7.937500000000000e+00	 6.062499999999999e+00	 1.005401696000001e+01
0	 7.937499999999998e+00	 6.124999999999999e+00	 1.005317935384617e+01
0	 7.937499999999999e+00	 6.187499999999999e+00	 1.005236104923076e+01
0	 7.937499999999997e+00	 6.250000000000000e+00	 1.005156204615385e+01
0	 7.999999999999998e+00	 5.625000000000000e+00	 1.005747341538461e+01
0	 7.999999999999998e+00	 5.687500000000000e+00	 1.005657161230770e+01
0	 7.999999999999999e+00	 5.750000000000000e+00	 1.005568867692307e+01
0	 7.999999999999999e+00	 5.812499999999999e+00	 1.005482460923077e+01
0	 7.999999999999998e+00	 5.875000000000000e+00	 1.005397940923079e+01
0	 7.999999999999998e+00	 5.937500000000000e+00	 1.005315307692306e+01
0	 7.999999999999998e+00	 5.999999999999998e+00	 1.005234561230770e+01
0	 7.999999999999997e+00	 6.062499999999998e+00	 1.005155701538462e+01
0	 7.999999999999998e+00	 6.124999999999999e+00	 1.005078728615385e+01
0	 7.999999999999998e+00	 6.187499999999998e+00	 1.005003642461538e+01
0	 7.999999999999998e+00	 6.250000000000000e+00	 1.004930443076925e+01
0	 8.062499999999998e+00	 5.625000000000000e+00	 1.005457012307690e+01
0	 8.062499999999998e+00	 5.687500000000000e+00	 1.005373766153846e+01
0	 8.062499999999998e+00	 5.750000000000000e+00	 1.005292363384615e+01
0	 8.062500000000000e+00	 5.812499999999999e+00	 1.005212804000000e+01
0	 8.062499999999998e+00	 5.875000000000000e+00	 1.005135088000000e+01
0	 8.062499999999996e+00	 5.937499999999999e+00	 1.005059215384615e+01
0	 8.062499999999996e+00	 5.999999999999998e+00	 1.004985186153846e+01
0	 8.062499999999996e+00	 6.062499999999998e+00	 1.004913000307693e+01
0	 8.062499999999998e+00	 6.124999999999998e+00	 1.004842657846154e+01
0	 8.062499999999998e+00	 6.187499999999997e+00	 1.004774158769233e+01
0	 8.062499999999998e+00	 6.250000000000000e+00	 1.004707503076923e+01
0	 8.125000000000000e+00	 5.625000000000000e+00	 1.005171076923076e+01
0	 8.125000000000000e+00	 5.687500000000000e+00	 1.005094607692307e+01
0	 8.125000000000002e+00	 5.750000000000000e+00	 1.005019938461537e+01
0	 8.125000000000000e+00	 5.812499999999999e+00	 1.004947069230770e+01
0	 8.125000000000000e+00	 5.874999999999999e+00	 1.004876000000000e+01
0	 8.125000000000000e+00	 5.937499999999999e+00	 1.004806730769230e+01
0	 8.125000000000000e+00	 5.999999999999998e+00	 1.004739261538463e+01
0	 8.125000000000000e+00	 6.062499999999998e+00	 1.004673592307692e+01
0	 8.125000000000000e+00	 6.124999999999998e+00	 1.004609723076924e+01
0	 8.125000000000000e+00	 6.187499999999998e+00	 1.004547653846154e+01
0	 8.125000000000000e+00	 6.250000000000000e+00	 1.004487384615385e+01
0	 7.500000000000000e+00	 6.250000000000000e+00	 1.006815538461539e+01
0	 7.500000000000001e+00	 6.312500000000000e+00	 1.006657332307693e+01
0	 7.500000000000000e+00	 6.375000000000000e+00	 1.006499975384617e+01
0	 7.500000000000000e+00	 6.437499999999999e+00	 1.006343467692307e+01
0	 7.500000000000000e+00	 6.499999999999999e+00	 1.006187809230769e+01
0	 7.500000000000000e+00	 6.562499999999998e+00	 1.006033000000000e+01
0	 7.500000000000000e+00	 6.624999999999998e+00	 1.005879039999999e+01
0	 7.499999999999999e+00	 6.687499999999998e+00	 1.005725929230769e+01
0	 7.500000000000000e+00	 6.749999999999998e+00	 1.005573667692308e+01
0	 7.500000000000000e+00	 6.812499999999998e+00	 1.005422255384616e+01
0	 7.500000000000000e+00	 6.875000000000000e+00	 1.005271692307693e+01
0	 7.562499999999999e+00	 6.250000000000000e+00	 1.006570026153847e+01
0	 7.562500000000000e+00	 6.312500000000000e+00	 1.006418979384616e+01
0	 7.562500000000000e+00	 6.374999999999999e+00	 1.006268777230769e+01
0	 7.562500000000000e+00	 6.437500000000000e+00	 1.006119419692309e+01
0	 7.562500000000001e+00	 6.499999999999997e+00	 1.005970906769231e+01
0	 7.562500000000000e+00	 6.562500000000000e+00	 1.005823238461539e+01
0	 7.562500000000000e+00	 6.624999999999999e+00	 1.005676414769231e+01
0	 7.562500000000001e+00	 6.687499999999999e+00	 1.005530435692308e+01
0	 7.562500000000001e+00	 6.749999999999999e+00	 1.005385301230769e+01
0	 7.562499999999998e+00	 6.812499999999996e+00	 1.005241011384615e+01
0	 7.562499999999999e+00	 6.875000000000001e+00	 1.005097566153848e+01
0	 7.625000000000000e+00	 6.250000000000000e+00	 1.006327335384615e+01
0	 7.624999999999999e+00	 6.312499999999999e+00	 1.006183303692309e+01
0	 7.625000000000001e+00	 6.375000000000000e+00	 1.006040112000001e+01
0	 7.625000000000000e+00	 6.437499999999998e+00	 1.005897760307693e+01
0	 7.624999999999999e+00	 6.499999999999996e+00	 1.005756248615386e+01
0	 7.624999999999999e+00	 6.562499999999998e+00	 1.005615576923078e+01
0	 7.624999999999997e+00	 6.624999999999996e+00	 1.005475745230770e+01
0	 7.625000000000000e+00	 6.687499999999999e+00	 1.005336753538462e+01
0	 7.625000000000000e+00	 6.749999999999997e+00	 1.005198601846155e+01
0	 7.625000000000000e+00	 6.812500000000000e+00	 1.005061290153847e+01
0	 7.625000000000000e+00	 6.875000000000000e+00	 1.004924818461539e+01
0	 7.687499999999999e+00	 6.250000000000000e+00	 1.006087466153845e+01
0	 7.687499999999999e+00	 6.312499999999999e+00	 1.005950305230769e+01
0	 7.687500000000000e+00	 6.375000000000000e+00	 1.005813979692308e+01
0	 7.687500000000000e+00	 6.437500000000000e+00	 1.005678489538461e+01
0	 7.687499999999999e+00	 6.499999999999998e+00	 1.005543834769232e+01
0	 7.687500000000000e+00	 6.562499999999999e+00	 1.005410015384616e+01
0	 7.687500000000000e+00	 6.624999999999999e+00	 1.005277031384615e+01
0	 7.687499999999998e+00	 6.687499999999998e+00	 1.005144882769230e+01
0	 7.687500000000000e+00	 6.749999999999998e+00	 1.005013569538463e+01
0	 7.687499999999998e+00	 6.812499999999997e+00	 1.004883091692308e+01
0	 7.687499999999999e+00	 6.874999999999999e+00	 1.004753449230771e+01
0	 7.750000000000000e+00	 6.250000000000000e+00	 1.005850418461541e+01
0	 7.750000000000000e+00	 6.312499999999999e+00	 1.005719984000001e+01
0	 7.749999999999998e+00	 6.375000000000000e+00	 1.005590380307693e+01
0	 7.749999999999998e+00	 6.437499999999999e+00	 1.005461607384617e+01
0	 7.749999999999997e+00	 6.499999999999997e+00	 1.005333665230771e+01
0	 7.749999999999998e+00	 6.562499999999999e+00	 1.005206553846154e+01
0	 7.749999999999999e+00	 6.624999999999998e+00	 1.005080273230769e+01
0	 7.750000000000000e+00	 6.687499999999998e+00	 1.004954823384616e+01
0	 7.749999999999999e+00	 6.749999999999998e+00	 1.004830204307694e+01
0	 7.750000000000000e+00	 6.812499999999998e+00	 1.004706416000001e+01
0	 7.750000000000000e+00	 6.875000000000001e+00	 1.004583458461535e+01
0	 7.812499999999999e+00	 6.250000000000000e+00	 1.005616192307693e+01
0	 7.812499999999998e+00	 6.312500000000000e+00	 1.005492340000001e+01
0	 7.812499999999999e+00	 6.375000000000000e+00	 1.005369313846154e+01
0	 7.812499999999999e+00	 6.437499999999999e+00	 1.005247113846155e+01
0	 7.812499999999997e+00	 6.499999999999997e+00	 1.005125739999999e+01
0	 7.812499999999999e+00	 6.562499999999999e+00	 1.005005192307694e+01
0	 7.812500000000000e+00	 6.625000000000000e+00	 1.004885470769231e+01
0	 7.812499999999999e+00	 6.687499999999999e+00	 1.004766575384615e+01
0	 7.812499999999998e+00	 6.749999999999999e+00	 1.004648506153846e+01
0	 7.812500000000000e+00	 6.812499999999998e+00	 1.004531263076923e+01
0	 7.812499999999999e+00	 6.875000000000000e+00	 1.004414846153846e+01
0	 7.875000000000000e+00	 6.250000000000000e+00	 1.005384787692307e+01
0	 7.874999999999998e+00	 6.312499999999999e+00	 1.005267373230770e+01
0	 7.874999999999996e+00	 6.374999999999997e+00	 1.005150780307691e+01
0	 7.874999999999998e+00	 6.437499999999999e+00	 1.005035008923077e+01
0	 7.875000000000001e+00	 6.500000000000000e+00	 1.004920059076924e+01
0	 7.874999999999999e+00	 6.562500000000001e+00	 1.004805930769231e+01
0	 7.874999999999998e+00	 6.624999999999998e+00	 1.004692624000000e+01
0	 7.874999999999999e+00	 6.687499999999999e+00	 1.004580138769232e+01
0	 7.874999999999998e+00	 6.749999999999999e+00	 1.004468475076922e+01
0	 7.874999999999997e+00	 6.812499999999998e+00	 1.004357632923077e+01
0	 7.875000000000000e+00	 6.875000000000000e+00	 1.004247612307693e+01
0	 7.937499999999997e+00	 6.250000000000000e+00	 1.005156204615385e+01
0	 7.937499999999998e+00	 6.312499999999999e+00	 1.005045083692308e+01
0	 7.937499999999999e+00	 6.375000000000001e+00	 1.004934779692308e+01
0	 7.937499999999998e+00	 6.437499999999999e+00	 1.004825292615385e+01
0	 7.937499999999998e+00	 6.500000000000000e+00	 1.004716622461539e+01
0	 7.937500000000000e+00	 6.562499999999999e+00	 1.004608769230770e+01
0	 7.937500000000000e+00	 6.624999999999999e+00	 1.004501732923078e+01
0	 7.937500000000000e+00	 6.687499999999999e+00	 1.004395513538463e+01
0	 7.937499999999998e+00	 6.749999999999998e+00	 1.004290111076924e+01
0	 7.937499999999999e+00	 6.812499999999999e+00	 1.004185525538462e+01
0	 7.937499999999997e+00	 6.875000000000000e+00	 1.004081756923078e+01
0	 7.999999999999998e+00	 6.250000000000000e+00	 1.004930443076925e+01
0	 7.999999999999998e+00	 6.312500000000001e+00	 1.004825471384616e+01
0	 7.999999999999999e+00	 6.374999999999999e+00	 1.004721312000000e+01
0	 7.999999999999999e+00	 6.437500000000000e+00	 1.004617964923077e+01
0	 7.999999999999998e+00	 6.499999999999999e+00	 1.004515430153847e+01
0	 7.999999999999998e+00	 6.562499999999999e+00	 1.004413707692308e+01
0	 7.999999999999998e+00	 6.624999999999998e+00	 1.004312797538461e+01
0	 7.999999999999997e+00	 6.687499999999998e+00	 1.004212699692308e+01
0	 7.999999999999998e+00	 6.749999999999998e+00	 1.004113414153844e+01
0	 7.999999999999998e+00	 6.812499999999998e+00	 1.004014940923077e+01
0	 7.999999999999998e+00	 6.875000000000000e+00	 1.003917280000001e+01
0	 8.062499999999998e+00	 6.250000000000000e+00	 1.004707503076923e+01
0	 8.062499999999998e+00	 6.312500000000000e+00	 1.004608536307694e+01
0	 8.062499999999998e+00	 6.375000000000000e+00	 1.004510377230769e+01
0	 8.062500000000000e+00	 6.437499999999999e+00	 1.004413025846153e+01
0	 8.062499999999998e+00	 6.499999999999998e+00	 1.004316482153846e+01
0	 8.062499999999996e+00	 6.562499999999998e+00	 1.004220746153844e+01
0	 8.062499999999996e+00	 6.624999999999998e+00	 1.004125817846153e+01
0	 8.062499999999996e+00	 6.687499999999998e+00	 1.004031697230769e+01
0	 8.062499999999998e+00	 6.749999999999999e+00	 1.003938384307690e+01
0	 8.062499999999998e+00	 6.812499999999997e+00	 1.003845879076923e+01
0	 8.062499999999998e+00	 6.875000000000000e+00	 1.003754181538461e+01
0	 8.125000000000000e+00	 6.250000000000000e+00	 1.004487384615385e+01
0	 8.125000000000000e+00	 6.312500000000000e+00	 1.004394278461539e+01
0	 8.125000000000002e+00	 6.375000000000000e+00	 1.004301975384615e+01
0	 8.125000000000000e+00	 6.437499999999999e+00	 1.004210475384615e+01
0	 8.125000000000000e+00	 6.499999999999999e+00	 1.004119778461539e+01
0	 8.125000000000000e+00	 6.562499999999998e+00	 1.004029884615384e+01
0	 8.125000000000000e+00	 6.624999999999998e+00	 1.003940793846153e+01
0	 8.125000000000000e+00	 6.687499999999998e+00	 1.003852506153846e+01
0	 8.125000000000000e+00	 6.749999999999998e+00	 1.003765021538461e+01
0	 8.125000000000000e+00	 6.812499999999998e+00	 1.003678339999999e+01
0	 8.125000000000000e+00	 6.875000000000000e+00	 1.003592461538461e+01
0	 7.500000000000000e+00	 6.875000000000000e+00	 1.005271692307693e+01
0	 7.500000000000001e+00	 6.937500000000000e+00	 1.005119544615386e+01
0	 7.500000000000000e+00	 7.000000000000000e+00	 1.004966824615383e+01
0	 7.500000000000000e+00	 7.062500000000000e+00	 1.004813532307693e+01
0	 7.500000000000000e+00	 7.125000000000000e+00	 1.004659667692306e+01
0	 7.500000000000000e+00	 7.187499999999998e+00	 1.004505230769231e+01
0	 7.500000000000000e+00	 7.249999999999998e+00	 1.004350221538463e+01
0	 7.499999999999999e+00	 7.312499999999998e+00	 1.004194640000001e+01
0	 7.500000000000000e+00	 7.374999999999998e+00	 1.004038486153846e+01
0	 7.500000000000000e+00	 7.437499999999998e+00	 1.003881760000000e+01
0	 7.500000000000000e+00	 7.500000000000000e+00	 1.003724461538462e+01
0	 7.562499999999999e+00	 6.875000000000001e+00	 1.005097566153848e+01
0	 7.562500000000000e+00	 6.937499999999999e+00	 1.004951276461538e+01
0	 7.562500000000000e+00	 6.999999999999999e+00	 1.004804456000001e+01
0	 7.562500000000000e+00	 7.062500000000000e+00	 1.004657104769231e+01
0	 7.562500000000001e+00	 7.124999999999998e+00	 1.004509222769232e+01
0	 7.562500000000000e+00	 7.187499999999999e+00	 1.004360810000000e+01
0	 7.562500000000000e+00	 7.250000000000000e+00	 1.004211866461540e+01
0	 7.562500000000001e+00	 7.312499999999999e+00	 1.004062392153846e+01
0	 7.562500000000001e+00	 7.374999999999999e+00	 1.003912387076923e+01
0	 7.562499999999998e+00	 7.437499999999996e+00	 1.003761851230769e+01
0	 7.562499999999999e+00	 7.500000000000000e+00	 1.003610784615384e+01
0	 7.625000000000000e+00	 6.875000000000000e+00	 1.004924818461539e+01
0	 7.624999999999999e+00	 6.937499999999999e+00	 1.004784270461538e+01
0	 7.625000000000001e+00	 7.000000000000001e+00	 1.004643233230770e+01
0	 7.625000000000000e+00	 7.062499999999999e+00	 1.004501706769230e+01
0	 7.624999999999999e+00	 7.124999999999998e+00	 1.004359691076924e+01
0	 7.624999999999999e+00	 7.187499999999999e+00	 1.004217186153846e+01
0	 7.624999999999997e+00	 7.249999999999996e+00	 1.004074192000000e+01
0	 7.625000000000000e+00	 7.312499999999998e+00	 1.003930708615385e+01
0	 7.625000000000000e+00	 7.374999999999997e+00	 1.003786736000000e+01
0	 7.625000000000000e+00	 7.437500000000000e+00	 1.003642274153846e+01
0	 7.625000000000000e+00	 7.499999999999999e+00	 1.003497323076921e+01
0	 7.687499999999999e+00	 6.874999999999999e+00	 1.004753449230771e+01
0	 7.687499999999999e+00	 6.937499999999999e+00	 1.004618526615386e+01
0	 7.687500000000000e+00	 7.000000000000000e+00	 1.004483156307695e+01
0	 7.687500000000000e+00	 7.062500000000000e+00	 1.004347338307691e+01
0	 7.687499999999999e+00	 7.124999999999999e+00	 1.004211072615385e+01
0	 7.687500000000000e+00	 7.187499999999999e+00	 1.004074359230770e+01
0	 7.687500000000000e+00	 7.250000000000000e+00	 1.003937198153846e+01
0	 7.687499999999998e+00	 7.312499999999999e+00	 1.003799589384617e+01
0	 7.687500000000000e+00	 7.374999999999997e+00	 1.003661532923076e+01
0	 7.687499999999998e+00	 7.437499999999998e+00	 1.003523028769231e+01
0	 7.687499999999999e+00	 7.500000000000000e+00	 1.003384076923079e+01
0	 7.750000000000000e+00	 6.875000000000001e+00	 1.004583458461535e+01
0	 7.750000000000000e+00	 6.937499999999999e+00	 1.004454044923076e+01
0	 7.749999999999998e+00	 7.000000000000001e+00	 1.004324225230769e+01
0	 7.749999999999998e+00	 7.062500000000000e+00	 1.004193999384616e+01
0	 7.749999999999997e+00	 7.124999999999999e+00	 1.004063367384616e+01
0	 7.749999999999998e+00	 7.187499999999999e+00	 1.003932329230768e+01
0	 7.749999999999999e+00	 7.249999999999997e+00	 1.003800884923076e+01
0	 7.750000000000000e+00	 7.312499999999998e+00	 1.003669034461536e+01
0	 7.749999999999999e+00	 7.374999999999999e+00	 1.003536777846156e+01
0	 7.750000000000000e+00	 7.437499999999998e+00	 1.003404115076924e+01
0	 7.750000000000000e+00	 7.500000000000000e+00	 1.003271046153847e+01
0	 7.812499999999999e+00	 6.875000000000000e+00	 1.004414846153846e+01
0	 7.812499999999998e+00	 6.937500000000000e+00	 1.004290825384614e+01
0	 7.812499999999999e+00	 7.000000000000000e+00	 1.004166440000001e+01
0	 7.812499999999999e+00	 7.062500000000000e+00	 1.004041689999999e+01
0	 7.812499999999997e+00	 7.124999999999997e+00	 1.003916575384616e+01
0	 7.812499999999999e+00	 7.187499999999999e+00	 1.003791096153846e+01
0	 7.812500000000000e+00	 7.249999999999999e+00	 1.003665252307690e+01
0	 7.812499999999999e+00	 7.312499999999998e+00	 1.003539043846152e+01
0	 7.812499999999998e+00	 7.374999999999997e+00	 1.003412470769231e+01
0	 7.812500000000000e+00	 7.437499999999998e+00	 1.003285533076922e+01
0	 7.812499999999999e+00	 7.500000000000000e+00	 1.003158230769230e+01
0	 7.875000000000000e+00	 6.875000000000000e+00	 1.004247612307693e+01
0	 7.874999999999998e+00	 6.937500000000000e+00	 1.004128868000001e+01
0	 7.874999999999996e+00	 6.999999999999998e+00	 1.004009800615383e+01
0	 7.874999999999998e+00	 7.062500000000000e+00	 1.003890410153846e+01
0	 7.875000000000001e+00	 7.125000000000000e+00	 1.003770696615384e+01
0	 7.874999999999999e+00	 7.187500000000000e+00	 1.003650660000000e+01
0	 7.874999999999998e+00	 7.249999999999998e+00	 1.003530300307692e+01
0	 7.874999999999999e+00	 7.312499999999999e+00	 1.003409617538463e+01
0	 7.874999999999998e+00	 7.374999999999999e+00	 1.003288611692308e+01
0	 7.874999999999997e+00	 7.437499999999998e+00	 1.003167282769230e+01
0	 7.875000000000000e+00	 7.499999999999999e+00	 1.003045630769230e+01
0	 7.937499999999997e+00	 6.875000000000000e+00	 1.004081756923078e+01
0	 7.937499999999998e+00	 6.937499999999999e+00	 1.003968172769231e+01
0	 7.937499999999999e+00	 7.000000000000001e+00	 1.003854307076922e+01
0	 7.937499999999998e+00	 7.062499999999999e+00	 1.003740159846154e+01
0	 7.937499999999998e+00	 7.124999999999999e+00	 1.003625731076923e+01
0	 7.937500000000000e+00	 7.187500000000000e+00	 1.003511020769229e+01
0	 7.937500000000000e+00	 7.249999999999999e+00	 1.003396028923078e+01
0	 7.937500000000000e+00	 7.312500000000000e+00	 1.003280755538462e+01
0	 7.937499999999998e+00	 7.374999999999998e+00	 1.003165200615385e+01
0	 7.937499999999999e+00	 7.437499999999999e+00	 1.003049364153846e+01
0	 7.937499999999997e+00	 7.499999999999998e+00	 1.002933246153846e+01
0	 7.999999999999998e+00	 6.875000000000000e+00	 1.003917280000001e+01
0	 7.999999999999998e+00	 6.937500000000001e+00	 1.003808739692306e+01
0	 7.999999999999999e+00	 6.999999999999998e+00	 1.003699959384615e+01
0	 7.999999999999999e+00	 7.062500000000000e+00	 1.003590939076923e+01
0	 7.999999999999998e+00	 7.125000000000000e+00	 1.003481678769232e+01
0	 7.999999999999998e+00	 7.187500000000000e+00	 1.003372178461537e+01
0	 7.999999999999998e+00	 7.250000000000000e+00	 1.003262438153846e+01
0	 7.999999999999997e+00	 7.312499999999999e+00	 1.003152457846153e+01
0	 7.999999999999998e+00	 7.374999999999998e+00	 1.003042237538462e+01
0	 7.999999999999998e+00	 7.437499999999998e+00	 1.002931777230770e+01
0	 7.999999999999998e+00	 7.500000000000000e+00	 1.002821076923077e+01
0	 8.062499999999998e+00	 6.875000000000000e+00	 1.003754181538461e+01
0	 8.062499999999998e+00	 6.937500000000001e+00	 1.003650568769230e+01
0	 8.062499999999998e+00	 7.000000000000001e+00	 1.003546757538461e+01
0	 8.062500000000000e+00	 7.062500000000000e+00	 1.003442747846153e+01
0	 8.062499999999998e+00	 7.124999999999999e+00	 1.003338539692308e+01
0	 8.062499999999996e+00	 7.187499999999998e+00	 1.003234133076922e+01
0	 8.062499999999996e+00	 7.249999999999999e+00	 1.003129528000000e+01
0	 8.062499999999996e+00	 7.312499999999998e+00	 1.003024724461538e+01
0	 8.062499999999998e+00	 7.374999999999998e+00	 1.002919722461539e+01
0	 8.062499999999998e+00	 7.437499999999998e+00	 1.002814522000001e+01
0	 8.062499999999998e+00	 7.500000000000000e+00	 1.002709123076924e+01
0	 8.125000000000000e+00	 6.875000000000000e+00	 1.003592461538461e+01
0	 8.125000000000000e+00	 6.937500000000000e+00	 1.003493659999999e+01
0	 8.125000000000002e+00	 7.000000000000000e+00	 1.003394701538459e+01
0	 8.125000000000000e+00	 7.062500000000000e+00	 1.003295586153846e+01
0	 8.125000000000000e+00	 7.125000000000000e+00	 1.003196313846153e+01
0	 8.125000000000000e+00	 7.187499999999998e+00	 1.003096884615384e+01
0	 8.125000000000000e+00	 7.249999999999998e+00	 1.002997298461538e+01
0	 8.125000000000000e+00	 7.312499999999998e+00	 1.002897555384614e+01
0	 8.125000000000000e+00	 7.374999999999998e+00	 1.002797655384615e+01
0	 8.125000000000000e+00	 7.437499999999998e+00	 1.002697598461538e+01
0	 8.125000000000000e+00	 7.500000000000000e+00	 1.002597384615385e+01
0	 7.500000000000000e+00	 7.500000000000000e+00	 1.003724461538462e+01
0	 7.500000000000001e+00	 7.562500000000000e+00	 1.003589169230770e+01
0	 7.500000000000000e+00	 7.625000000000000e+00	 1.003451938461540e+01
0	 7.500000000000000e+00	 7.687499999999999e+00	 1.003312769230769e+01
0	 7.500000000000000e+00	 7.750000000000000e+00	 1.003171661538462e+01
0	 7.500000000000000e+00	 7.812499999999999e+00	 1.003028615384615e+01
0	 7.500000000000000e+00	 7.874999999999998e+00	 1.002883630769231e+01
0	 7.499999999999999e+00	 7.937499999999997e+00	 1.002736707692306e+01
0	 7.500000000000000e+00	 7.999999999999998e+00	 1.002587846153845e+01
0	 7.500000000000000e+00	 8.062499999999996e+00	 1.002437046153845e+01
0	 7.500000000000000e+00	 8.125000000000000e+00	 1.002284307692307e+01
0	 7.562499999999999e+00	 7.500000000000000e+00	 1.003610784615384e+01
0	 7.562500000000000e+00	 7.562499999999999e+00	 1.003480196153847e+01
0	 7.562500000000000e+00	 7.624999999999998e+00	 1.003347735692308e+01
0	 7.562500000000000e+00	 7.687499999999998e+00	 1.003213403230770e+01
0	 7.562500000000001e+00	 7.750000000000000e+00	 1.003077198769230e+01
0	 7.562500000000000e+00	 7.812500000000000e+00	 1.002939122307691e+01
0	 7.562500000000000e+00	 7.874999999999999e+00	 1.002799173846154e+01
0	 7.562500000000001e+00	 7.937499999999998e+00	 1.002657353384615e+01
0	 7.562500000000001e+00	 8.000000000000000e+00	 1.002513660923076e+01
0	 7.562499999999998e+00	 8.062499999999995e+00	 1.002368096461538e+01
0	 7.562499999999999e+00	 8.125000000000000e+00	 1.002220659999999e+01
0	 7.625000000000000e+00	 7.499999999999999e+00	 1.003497323076921e+01
0	 7.624999999999999e+00	 7.562500000000001e+00	 1.003371345846156e+01
0	 7.625000000000001e+00	 7.625000000000001e+00	 1.003243563076922e+01
0	 7.625000000000000e+00	 7.687500000000001e+00	 1.003113974769230e+01
0	 7.624999999999999e+00	 7.749999999999998e+00	 1.002982580923076e+01
0	 7.624999999999999e+00	 7.812499999999998e+00	 1.002849381538461e+01
0	 7.624999999999997e+00	 7.874999999999996e+00	 1.002714376615384e+01
0	 7.625000000000000e+00	 7.937499999999998e+00	 1.002577566153845e+01
0	 7.625000000000000e+00	 7.999999999999999e+00	 1.002438950153844e+01
0	 7.625000000000000e+00	 8.062499999999998e+00	 1.002298528615382e+01
0	 7.625000000000000e+00	 8.125000000000000e+00	 1.002156301538461e+01
0	 7.687499999999999e+00	 7.500000000000000e+00	 1.003384076923079e+01
0	 7.687499999999999e+00	 7.562500000000001e+00	 1.003262618307692e+01
0	 7.687500000000000e+00	 7.625000000000001e+00	 1.003139420615383e+01
0	 7.687500000000000e+00	 7.687500000000000e+00	 1.003014483846153e+01
0	 7.687499999999999e+00	 7.749999999999999e+00	 1.002887807999997e+01
0	 7.687500000000000e+00	 7.812499999999999e+00	 1.002759393076923e+01
0	 7.687500000000000e+00	 7.874999999999998e+00	 1.002629239076922e+01
0	 7.687499999999998e+00	 7.937499999999998e+00	 1.002497345999998e+01
0	 7.687500000000000e+00	 7.999999999999998e+00	 1.002363713846153e+01
0	 7.687499999999998e+00	 8.062499999999996e+00	 1.002228342615382e+01
0	 7.687499999999999e+00	 8.125000000000000e+00	 1.002091232307690e+01
0	 7.750000000000000e+00	 7.500000000000000e+00	 1.003271046153847e+01
0	 7.750000000000000e+00	 7.562500000000000e+00	 1.003154013538459e+01
0	 7.749999999999998e+00	 7.625000000000000e+00	 1.003035308307692e+01
0	 7.749999999999998e+00	 7.687500000000000e+00	 1.002914930461538e+01
0	 7.749999999999997e+00	 7.749999999999998e+00	 1.002792879999999e+01
0	 7.749999999999998e+00	 7.812500000000000e+00	 1.002669156923076e+01
0	 7.749999999999999e+00	 7.874999999999998e+00	 1.002543761230768e+01
0	 7.750000000000000e+00	 7.937499999999999e+00	 1.002416692923074e+01
0	 7.749999999999999e+00	 7.999999999999997e+00	 1.002287951999998e+01
0	 7.750000000000000e+00	 8.062500000000000e+00	 1.002157538461538e+01
0	 7.750000000000000e+00	 8.125000000000000e+00	 1.002025452307691e+01
0	 7.812499999999999e+00	 7.500000000000000e+00	 1.003158230769230e+01
0	 7.812499999999998e+00	 7.562499999999999e+00	 1.003045531538461e+01
0	 7.812499999999999e+00	 7.624999999999999e+00	 1.002931226153844e+01
0	 7.812499999999999e+00	 7.687500000000000e+00	 1.002815314615385e+01
0	 7.812499999999997e+00	 7.749999999999996e+00	 1.002697796923076e+01
0	 7.812499999999999e+00	 7.812499999999999e+00	 1.002578673076922e+01
0	 7.812500000000000e+00	 7.875000000000000e+00	 1.002457943076923e+01
0	 7.812499999999999e+00	 7.937499999999999e+00	 1.002335606923076e+01
0	 7.812499999999998e+00	 7.999999999999998e+00	 1.002211664615383e+01
0	 7.812500000000000e+00	 8.062500000000000e+00	 1.002086116153845e+01
0	 7.812499999999999e+00	 8.125000000000000e+00	 1.001958961538459e+01
0	 7.875000000000000e+00	 7.499999999999999e+00	 1.003045630769230e+01
0	 7.874999999999998e+00	 7.562500000000000e+00	 1.002937172307690e+01
0	 7.874999999999996e+00	 7.624999999999998e+00	 1.002827174153844e+01
0	 7.874999999999998e+00	 7.687499999999998e+00	 1.002715636307691e+01
0	 7.875000000000001e+00	 7.750000000000001e+00	 1.002602558769228e+01
0	 7.874999999999999e+00	 7.812500000000000e+00	 1.002487941538461e+01
0	 7.874999999999998e+00	 7.874999999999998e+00	 1.002371784615384e+01
0	 7.874999999999999e+00	 7.937499999999999e+00	 1.002254087999997e+01
0	 7.874999999999998e+00	 8.000000000000000e+00	 1.002134851692307e+01
0	 7.874999999999997e+00	 8.062499999999998e+00	 1.002014075692307e+01
0	 7.875000000000000e+00	 8.125000000000000e+00	 1.001891759999998e+01
0	 7.937499999999997e+00	 7.499999999999998e+00	 1.002933246153846e+01
0	 7.937499999999998e+00	 7.562500000000000e+00	 1.002828935846154e+01
0	 7.937499999999999e+00	 7.624999999999999e+00	 1.002723152307694e+01
0	 7.937499999999998e+00	 7.687500000000000e+00	 1.002615895538461e+01
0	 7.937499999999998e+00	 7.749999999999998e+00	 1.002507165538462e+01
0	 7.937500000000000e+00	 7.812500000000000e+00	 1.002396962307692e+01
0	 7.937500000000000e+00	 7.874999999999999e+00	 1.002285285846153e+01
0	 7.937500000000000e+00	 7.937500000000000e+00	 1.002172136153845e+01
0	 7.937499999999998e+00	 7.999999999999998e+00	 1.002057513230769e+01
0	 7.937499999999999e+00	 8.062500000000000e+00	 1.001941417076919e+01
0	 7.937499999999997e+00	 8.125000000000000e+00	 1.001823847692306e+01
0	 7.999999999999998e+00	 7.500000000000000e+00	 1.002821076923077e+01
0	 7.999999999999998e+00	 7.562500000000001e+00	 1.002720822153844e+01
0	 7.999999999999999e+00	 7.625000000000000e+00	 1.002619160615384e+01
0	 7.999999999999999e+00	 7.687500000000001e+00	 1.002516092307693e+01
0	 7.999999999999998e+00	 7.749999999999999e+00	 1.002411617230769e+01
0	 7.999999999999998e+00	 7.812499999999998e+00	 1.002305735384615e+01
0	 7.999999999999998e+00	 7.875000000000000e+00	 1.002198446769230e+01
0	 7.999999999999997e+00	 7.937499999999998e+00	 1.002089751384614e+01
0	 7.999999999999998e+00	 7.999999999999998e+00	 1.001979649230767e+01
0	 7.999999999999998e+00	 8.062500000000000e+00	 1.001868140307691e+01
0	 7.999999999999998e+00	 8.125000000000000e+00	 1.001755224615382e+01
0	 8.062499999999998e+00	 7.500000000000000e+00	 1.002709123076924e+01
0	 8.062499999999998e+00	 7.562500000000001e+00	 1.002612831230771e+01
0	 8.062499999999998e+00	 7.624999999999999e+00	 1.002515199076922e+01
0	 8.062500000000000e+00	 7.687499999999999e+00	 1.002416226615385e+01
0	 8.062499999999998e+00	 7.750000000000000e+00	 1.002315913846152e+01
0	 8.062499999999996e+00	 7.812499999999999e+00	 1.002214260769229e+01
0	 8.062499999999996e+00	 7.874999999999998e+00	 1.002111267384615e+01
0	 8.062499999999996e+00	 7.937499999999998e+00	 1.002006933692306e+01
0	 8.062499999999998e+00	 7.999999999999998e+00	 1.001901259692306e+01
0	 8.062499999999998e+00	 8.062499999999998e+00	 1.001794245384613e+01
0	 8.062499999999998e+00	 8.125000000000000e+00	 1.001685890769229e+01
0	 8.125000000000000e+00	 7.500000000000000e+00	 1.002597384615385e+01
0	 8.125000000000000e+00	 7.562500000000000e+00	 1.002504963076924e+01
0	 8.125000000000002e+00	 7.625000000000000e+00	 1.002411267692309e+01
0	 8.125000000000000e+00	 7.687499999999999e+00	 1.002316298461538e+01
0	 8.125000000000000e+00	 7.750000000000000e+00	 1.002220055384615e+01
0	 8.125000000000000e+00	 7.812499999999999e+00	 1.002122538461537e+01
0	 8.125000000000000e+00	 7.874999999999998e+00	 1.002023747692307e+01
0	 8.125000000000000e+00	 7.937499999999997e+00	 1.001923683076922e+01
0	 8.125000000000000e+00	 7.999999999999998e+00	 1.001822344615383e+01
0	 8.125000000000000e+00	 8.062499999999996e+00	 1.001719732307691e+01
0	 8.125000000000000e+00	 8.125000000000000e+00	 1.001615846153845e+01
0	 7.500000000000000e+00	 8.125000000000000e+00	 1.002284307692307e+01
0	 7.500000000000001e+00	 8.187500000000000e+00	 1.002178567692307e+01
0	 7.500000000000000e+00	 8.250000000000002e+00	 1.002069255384613e+01
0	 7.500000000000000e+00	 8.312500000000000e+00	 1.001956370769230e+01
0	 7.500000000000000e+00	 8.374999999999998e+00	 1.001839913846153e+01
0	 7.500000000000000e+00	 8.437500000000000e+00	 1.001719884615385e+01
0	 7.500000000000000e+00	 8.500000000000000e+00	 1.001596283076922e+01
0	 7.499999999999999e+00	 8.562499999999998e+00	 1.001469109230768e+01
0	 7.500000000000000e+00	 8.625000000000000e+00	 1.001338363076924e+01
0	 7.500000000000000e+00	 8.687499999999998e+00	 1.001204044615384e+01
0	 7.500000000000000e+00	 8.750000000000000e+00	 1.001066153846154e+01
0	 7.562499999999999e+00	 8.125000000000000e+00	 1.002220659999999e+01
0	 7.562500000000000e+00	 8.187500000000002e+00	 1.002118341230769e+01
0	 7.562500000000000e+00	 8.250000000000000e+00	 1.002012563692307e+01
0	 7.562500000000000e+00	 8.312499999999998e+00	 1.001903327384614e+01
0	 7.562500000000001e+00	 8.374999999999998e+00	 1.001790632307692e+01
0	 7.562500000000000e+00	 8.437500000000000e+00	 1.001674478461538e+01
0	 7.562500000000000e+00	 8.500000000000002e+00	 1.001554865846154e+01
0	 7.562500000000001e+00	 8.562500000000000e+00	 1.001431794461538e+01
0	 7.562500000000001e+00	 8.625000000000002e+00	 1.001305264307693e+01
0	 7.562499999999998e+00	 8.687499999999996e+00	 1.001175275384615e+01
0	 7.562499999999999e+00	 8.750000000000002e+00	 1.001041827692308e+01
0	 7.625000000000000e+00	 8.125000000000000e+00	 1.002156301538461e+01
0	 7.624999999999999e+00	 8.187499999999998e+00	 1.002057332923076e+01
0	 7.625000000000001e+00	 8.250000000000000e+00	 1.001955019076920e+01
0	 7.625000000000000e+00	 8.312500000000000e+00	 1.001849359999998e+01
0	 7.624999999999999e+00	 8.374999999999998e+00	 1.001740355692308e+01
0	 7.624999999999999e+00	 8.437499999999998e+00	 1.001628006153846e+01
0	 7.624999999999997e+00	 8.499999999999996e+00	 1.001512311384616e+01
0	 7.625000000000000e+00	 8.562500000000002e+00	 1.001393271384615e+01
0	 7.625000000000000e+00	 8.624999999999998e+00	 1.001270886153847e+01
0	 7.625000000000000e+00	 8.687499999999998e+00	 1.001145155692310e+01
0	 7.625000000000000e+00	 8.750000000000000e+00	 1.001016079999997e+01
0	 7.687499999999999e+00	 8.125000000000000e+00	 1.002091232307690e+01
0	 7.687499999999999e+00	 8.187500000000000e+00	 1.001995542769230e+01
0	 7.687500000000000e+00	 8.250000000000002e+00	 1.001896621538461e+01
0	 7.687500000000000e+00	 8.312499999999998e+00	 1.001794468615385e+01
0	 7.687499999999999e+00	 8.374999999999998e+00	 1.001689083999999e+01
0	 7.687500000000000e+00	 8.437500000000000e+00	 1.001580467692307e+01
0	 7.687500000000000e+00	 8.499999999999998e+00	 1.001468619692308e+01
0	 7.687499999999998e+00	 8.562500000000000e+00	 1.001353539999999e+01
0	 7.687500000000000e+00	 8.625000000000000e+00	 1.001235228615383e+01
0	 7.687499999999998e+00	 8.687499999999996e+00	 1.001113685538462e+01
0	 7.687499999999999e+00	 8.750000000000000e+00	 1.000988910769232e+01
0	 7.750000000000000e+00	 8.125000000000000e+00	 1.002025452307691e+01
0	 7.750000000000000e+00	 8.187499999999998e+00	 1.001932970769229e+01
0	 7.749999999999998e+00	 8.250000000000002e+00	 1.001837371076921e+01
0	 7.749999999999998e+00	 8.312500000000000e+00	 1.001738653230768e+01
0	 7.749999999999997e+00	 8.374999999999998e+00	 1.001636817230769e+01
0	 7.749999999999998e+00	 8.437500000000000e+00	 1.001531863076922e+01
0	 7.749999999999999e+00	 8.499999999999998e+00	 1.001423790769230e+01
0	 7.750000000000000e+00	 8.562499999999998e+00	 1.001312600307692e+01
0	 7.749999999999999e+00	 8.624999999999998e+00	 1.001198291692307e+01
0	 7.750000000000000e+00	 8.687499999999996e+00	 1.001080864923076e+01
0	 7.750000000000000e+00	 8.749999999999998e+00	 1.000960319999999e+01
0	 7.812499999999999e+00	 8.125000000000000e+00	 1.001958961538459e+01
0	 7.812499999999998e+00	 8.187499999999998e+00	 1.001869616923072e+01
0	 7.812499999999999e+00	 8.249999999999998e+00	 1.001777267692306e+01
0	 7.812499999999999e+00	 8.312500000000000e+00	 1.001681913846151e+01
0	 7.812499999999997e+00	 8.374999999999998e+00	 1.001583555384616e+01
0	 7.812499999999999e+00	 8.437499999999998e+00	 1.001482192307691e+01
0	 7.812500000000000e+00	 8.500000000000002e+00	 1.001377824615383e+01
0	 7.812499999999999e+00	 8.562499999999998e+00	 1.001270452307693e+01
0	 7.812499999999998e+00	 8.624999999999998e+00	 1.001160075384617e+01
0	 7.812500000000000e+00	 8.687500000000000e+00	 1.001046693846152e+01
0	 7.812499999999999e+00	 8.750000000000000e+00	 1.000930307692312e+01
0	 7.875000000000000e+00	 8.125000000000000e+00	 1.001891759999998e+01
0	 7.874999999999998e+00	 8.187500000000000e+00	 1.001805481230768e+01
0	 7.874999999999996e+00	 8.249999999999998e+00	 1.001716311384613e+01
0	 7.874999999999998e+00	 8.312500000000000e+00	 1.001624250461537e+01
0	 7.875000000000001e+00	 8.375000000000002e+00	 1.001529298461537e+01
0	 7.874999999999999e+00	 8.437500000000002e+00	 1.001431455384615e+01
0	 7.874999999999998e+00	 8.499999999999998e+00	 1.001330721230768e+01
0	 7.874999999999999e+00	 8.562500000000000e+00	 1.001227096000002e+01
0	 7.874999999999998e+00	 8.624999999999998e+00	 1.001120579692308e+01
0	 7.874999999999997e+00	 8.687499999999998e+00	 1.001011172307693e+01
0	 7.875000000000000e+00	 8.750000000000000e+00	 1.000898873846154e+01
0	 7.937499999999997e+00	 8.125000000000000e+00	 1.001823847692306e+01
0	 7.937499999999998e+00	 8.187500000000000e+00	 1.001740563692304e+01
0	 7.937499999999999e+00	 8.250000000000000e+00	 1.001654502153845e+01
0	 7.937499999999998e+00	 8.312500000000000e+00	 1.001565663076923e+01
0	 7.937499999999998e+00	 8.374999999999998e+00	 1.001474046461538e+01
0	 7.937500000000000e+00	 8.437500000000000e+00	 1.001379652307691e+01
0	 7.937500000000000e+00	 8.500000000000000e+00	 1.001282480615386e+01
0	 7.937500000000000e+00	 8.562499999999998e+00	 1.001182531384616e+01
0	 7.937499999999998e+00	 8.624999999999998e+00	 1.001079804615383e+01
0	 7.937499999999999e+00	 8.687500000000000e+00	 1.000974300307693e+01
0	 7.937499999999997e+00	 8.750000000000000e+00	 1.000866018461540e+01
0	 7.999999999999998e+00	 8.125000000000000e+00	 1.001755224615382e+01
0	 7.999999999999998e+00	 8.187500000000002e+00	 1.001674864307690e+01
0	 7.999999999999999e+00	 8.250000000000000e+00	 1.001591840000000e+01
0	 7.999999999999999e+00	 8.312500000000000e+00	 1.001506151692308e+01
0	 7.999999999999998e+00	 8.375000000000002e+00	 1.001417799384615e+01
0	 7.999999999999998e+00	 8.437500000000000e+00	 1.001326783076923e+01
0	 7.999999999999998e+00	 8.500000000000000e+00	 1.001233102769231e+01
0	 7.999999999999997e+00	 8.562499999999996e+00	 1.001136758461539e+01
0	 7.999999999999998e+00	 8.624999999999998e+00	 1.001037750153846e+01
0	 7.999999999999998e+00	 8.687499999999998e+00	 1.000936077846155e+01
0	 7.999999999999998e+00	 8.750000000000002e+00	 1.000831741538464e+01
0	 8.062499999999998e+00	 8.125000000000000e+00	 1.001685890769229e+01
0	 8.062499999999998e+00	 8.187500000000000e+00	 1.001608383076923e+01
0	 8.062499999999998e+00	 8.250000000000002e+00	 1.001528324923077e+01
0	 8.062500000000000e+00	 8.312499999999998e+00	 1.001445716307691e+01
0	 8.062499999999998e+00	 8.374999999999998e+00	 1.001360557230769e+01
0	 8.062499999999996e+00	 8.437499999999998e+00	 1.001272847692308e+01
0	 8.062499999999996e+00	 8.499999999999998e+00	 1.001182587692308e+01
0	 8.062499999999996e+00	 8.562499999999998e+00	 1.001089777230769e+01
0	 8.062499999999998e+00	 8.624999999999998e+00	 1.000994416307692e+01
0	 8.062499999999998e+00	 8.687499999999998e+00	 1.000896504923078e+01
0	 8.062499999999998e+00	 8.750000000000000e+00	 1.000796043076925e+01
0	 8.125000000000000e+00	 8.125000000000000e+00	 1.001615846153845e+01
0	 8.125000000000000e+00	 8.187500000000000e+00	 1.001541119999998e+01
0	 8.125000000000002e+00	 8.250000000000002e+00	 1.001463956923073e+01
0	 8.125000000000000e+00	 8.312500000000000e+00	 1.001384356923077e+01
0	 8.125000000000000e+00	 8.374999999999998e+00	 1.001302319999999e+01
0	 8.125000000000000e+00	 8.437500000000000e+00	 1.001217846153847e+01
0	 8.125000000000000e+00	 8.500000000000000e+00	 1.001130935384614e+01
0	 8.125000000000000e+00	 8.562499999999998e+00	 1.001041587692307e+01
0	 8.125000000000000e+00	 8.625000000000000e+00	 1.000949803076922e+01
0	 8.125000000000000e+00	 8.687499999999998e+00	 1.000855581538458e+01
0	 8.125000000000000e+00	 8.750000000000000e+00	 1.000758923076924e+01
0	 7.500000000000000e+00	 8.750000000000000e+00	 1.001066153846154e+01
0	 7.500000000000001e+00	 8.812500000000000e+00	 1.001003446153846e+01
0	 7.500000000000000e+00	 8.875000000000002e+00	 1.000935292307693e+01
0	 7.500000000000000e+00	 8.937499999999998e+00	 1.000861692307691e+01
0	 7.500000000000000e+00	 9.000000000000000e+00	 1.000782646153846e+01
0	 7.500000000000000e+00	 9.062500000000000e+00	 1.000698153846153e+01
0	 7.500000000000000e+00	 9.124999999999998e+00	 1.000608215384614e+01
0	 7.499999999999999e+00	 9.187499999999998e+00	 1.000512830769229e+01
0	 7.500000000000000e+00	 9.249999999999998e+00	 1.000411999999998e+01
0	 7.500000000000000e+00	 9.312499999999998e+00	 1.000305723076923e+01
0	 7.500000000000000e+00	 9.375000000000000e+00	 1.000193999999999e+01
0	 7.562499999999999e+00	 8.750000000000002e+00	 1.001041827692308e+01
0	 7.562500000000000e+00	 8.812499999999998e+00	 1.000981320615385e+01
0	 7.562500000000000e+00	 8.875000000000000e+00	 1.000915522461538e+01
0	 7.562500000000000e+00	 8.937500000000000e+00	 1.000844433230770e+01
0	 7.562500000000001e+00	 9.000000000000000e+00	 1.000768052923077e+01
0	 7.562500000000000e+00	 9.062500000000000e+00	 1.000686381538461e+01
0	 7.562500000000000e+00	 9.125000000000000e+00	 1.000599419076924e+01
0	 7.562500000000001e+00	 9.187499999999998e+00	 1.000507165538460e+01
0	 7.562500000000001e+00	 9.250000000000000e+00	 1.000409620923077e+01
0	 7.562499999999998e+00	 9.312499999999996e+00	 1.000306785230770e+01
0	 7.562499999999999e+00	 9.375000000000000e+00	 1.000198658461538e+01
0	 7.625000000000000e+00	 8.750000000000000e+00	 1.001016079999997e+01
0	 7.624999999999999e+00	 8.812500000000000e+00	 1.000957687384616e+01
0	 7.625000000000001e+00	 8.875000000000004e+00	 1.000894158769231e+01
0	 7.625000000000000e+00	 8.937500000000000e+00	 1.000825494153846e+01
0	 7.624999999999999e+00	 8.999999999999998e+00	 1.000751693538462e+01
0	 7.624999999999999e+00	 9.062500000000000e+00	 1.000672756923077e+01
0	 7.624999999999997e+00	 9.124999999999998e+00	 1.000588684307692e+01
0	 7.625000000000000e+00	 9.187500000000002e+00	 1.000499475692309e+01
0	 7.625000000000000e+00	 9.249999999999996e+00	 1.000405131076922e+01
0	 7.625000000000000e+00	 9.312499999999998e+00	 1.000305650461537e+01
0	 7.625000000000000e+00	 9.375000000000000e+00	 1.000201033846153e+01
0	 7.687499999999999e+00	 8.750000000000000e+00	 1.000988910769232e+01
0	 7.687499999999999e+00	 8.812500000000000e+00	 1.000932546461540e+01
0	 7.687500000000000e+00	 8.875000000000002e+00	 1.000871201230769e+01
0	 7.687500000000000e+00	 8.937500000000000e+00	 1.000804875076924e+01
0	 7.687499999999999e+00	 9.000000000000000e+00	 1.000733567999999e+01
0	 7.687500000000000e+00	 9.062499999999998e+00	 1.000657280000000e+01
0	 7.687500000000000e+00	 9.124999999999998e+00	 1.000576011076924e+01
0	 7.687499999999998e+00	 9.187500000000002e+00	 1.000489761230769e+01
0	 7.687500000000000e+00	 9.249999999999998e+00	 1.000398530461537e+01
0	 7.687499999999998e+00	 9.312499999999998e+00	 1.000302318769230e+01
0	 7.687499999999999e+00	 9.375000000000002e+00	 1.000201126153845e+01
0	 7.750000000000000e+00	 8.749999999999998e+00	 1.000960319999999e+01
0	 7.750000000000000e+00	 8.812500000000000e+00	 1.000905897846155e+01
0	 7.749999999999998e+00	 8.875000000000002e+00	 1.000846649846155e+01
0	 7.749999999999998e+00	 8.937500000000000e+00	 1.000782576000000e+01
0	 7.749999999999997e+00	 8.999999999999998e+00	 1.000713676307692e+01
0	 7.749999999999998e+00	 9.062500000000000e+00	 1.000639950769232e+01
0	 7.749999999999999e+00	 9.124999999999998e+00	 1.000561399384616e+01
0	 7.750000000000000e+00	 9.187500000000000e+00	 1.000478022153844e+01
0	 7.749999999999999e+00	 9.249999999999998e+00	 1.000389819076922e+01
0	 7.750000000000000e+00	 9.312500000000000e+00	 1.000296790153847e+01
0	 7.750000000000000e+00	 9.375000000000002e+00	 1.000198935384615e+01
0	 7.812499999999999e+00	 8.750000000000000e+00	 1.000930307692312e+01
0	 7.812499999999998e+00	 8.812500000000000e+00	 1.000877741538466e+01
0	 7.812499999999999e+00	 8.875000000000000e+00	 1.000820504615385e+01
0	 7.812499999999999e+00	 8.937500000000000e+00	 1.000758596923079e+01
0	 7.812499999999997e+00	 8.999999999999998e+00	 1.000692018461539e+01
0	 7.812499999999999e+00	 9.062500000000000e+00	 1.000620769230771e+01
0	 7.812500000000000e+00	 9.125000000000002e+00	 1.000544849230768e+01
0	 7.812499999999999e+00	 9.187499999999998e+00	 1.000464258461538e+01
0	 7.812499999999998e+00	 9.249999999999998e+00	 1.000378996923077e+01
0	 7.812500000000000e+00	 9.312500000000000e+00	 1.000289064615384e+01
0	 7.812499999999999e+00	 9.375000000000002e+00	 1.000194461538457e+01
0	 7.875000000000000e+00	 8.750000000000000e+00	 1.000898873846154e+01
0	 7.874999999999998e+00	 8.812500000000000e+00	 1.000848077538461e+01
0	 7.874999999999996e+00	 8.874999999999996e+00	 1.000792765538462e+01
0	 7.874999999999998e+00	 8.937499999999998e+00	 1.000732937846153e+01
0	 7.875000000000001e+00	 9.000000000000004e+00	 1.000668594461538e+01
0	 7.874999999999999e+00	 9.062500000000002e+00	 1.000599735384614e+01
0	 7.874999999999998e+00	 9.124999999999998e+00	 1.000526360615385e+01
0	 7.874999999999999e+00	 9.187500000000000e+00	 1.000448470153845e+01
0	 7.874999999999998e+00	 9.249999999999998e+00	 1.000366064000000e+01
0	 7.874999999999997e+00	 9.312499999999998e+00	 1.000279142153847e+01
0	 7.875000000000000e+00	 9.375000000000000e+00	 1.000187704615383e+01
0	 7.937499999999997e+00	 8.750000000000000e+00	 1.000866018461540e+01
0	 7.937499999999998e+00	 8.812499999999998e+00	 1.000816905846155e+01
0	 7.937499999999999e+00	 8.875000000000002e+00	 1.000763432615386e+01
0	 7.937499999999998e+00	 8.937500000000002e+00	 1.000705598769232e+01
0	 7.937499999999998e+00	 8.999999999999998e+00	 1.000643404307692e+01
0	 7.937500000000000e+00	 9.062500000000000e+00	 1.000576849230769e+01
0	 7.937500000000000e+00	 9.125000000000000e+00	 1.000505933538460e+01
0	 7.937500000000000e+00	 9.187500000000000e+00	 1.000430657230769e+01
0	 7.937499999999998e+00	 9.249999999999998e+00	 1.000351020307689e+01
0	 7.937499999999999e+00	 9.312500000000000e+00	 1.000267022769232e+01
0	 7.937499999999997e+00	 9.375000000000000e+00	 1.000178664615384e+01
0	 7.999999999999998e+00	 8.750000000000002e+00	 1.000831741538464e+01
0	 7.999999999999998e+00	 8.812500000000002e+00	 1.000784226461539e+01
0	 7.999999999999999e+00	 8.875000000000000e+00	 1.000732505846155e+01
0	 7.999999999999999e+00	 8.937500000000002e+00	 1.000676579692309e+01
0	 7.999999999999998e+00	 8.999999999999998e+00	 1.000616448000000e+01
0	 7.999999999999998e+00	 9.062499999999998e+00	 1.000552110769232e+01
0	 7.999999999999998e+00	 9.125000000000000e+00	 1.000483567999998e+01
0	 7.999999999999997e+00	 9.187499999999998e+00	 1.000410819692306e+01
0	 7.999999999999998e+00	 9.250000000000000e+00	 1.000333865846155e+01
0	 7.999999999999998e+00	 9.312499999999998e+00	 1.000252706461540e+01
0	 7.999999999999998e+00	 9.375000000000000e+00	 1.000167341538461e+01
0	 8.062499999999998e+00	 8.750000000000000e+00	 1.000796043076925e+01
0	 8.062499999999998e+00	 8.812500000000000e+00	 1.000750039384616e+01
0	 8.062499999999998e+00	 8.875000000000002e+00	 1.000699985230770e+01
0	 8.062500000000000e+00	 8.937500000000000e+00	 1.000645880615385e+01
0	 8.062499999999998e+00	 9.000000000000000e+00	 1.000587725538462e+01
0	 8.062499999999996e+00	 9.062500000000000e+00	 1.000525520000000e+01
0	 8.062499999999996e+00	 9.125000000000000e+00	 1.000459263999999e+01
0	 8.062499999999996e+00	 9.187499999999998e+00	 1.000388957538462e+01
0	 8.062499999999998e+00	 9.249999999999998e+00	 1.000314600615386e+01
0	 8.062499999999998e+00	 9.312499999999996e+00	 1.000236193230768e+01
0	 8.062499999999998e+00	 9.375000000000000e+00	 1.000153735384615e+01
0	 8.125000000000000e+00	 8.750000000000000e+00	 1.000758923076924e+01
0	 8.125000000000000e+00	 8.812500000000000e+00	 1.000714344615385e+01
0	 8.125000000000002e+00	 8.875000000000002e+00	 1.000665870769232e+01
0	 8.125000000000000e+00	 8.937499999999998e+00	 1.000613501538461e+01
0	 8.125000000000000e+00	 9.000000000000000e+00	 1.000557236923078e+01
0	 8.125000000000000e+00	 9.062500000000000e+00	 1.000497076923075e+01
0	 8.125000000000000e+00	 9.124999999999998e+00	 1.000433021538459e+01
0	 8.125000000000000e+00	 9.187499999999998e+00	 1.000365070769230e+01
0	 8.125000000000000e+00	 9.249999999999998e+00	 1.000293224615383e+01
0	 8.125000000000000e+00	 9.312499999999998e+00	 1.000217483076922e+01
0	 8.125000000000000e+00	 9.375000000000000e+00	 1.000137846153846e+01
0	 7.500000000000000e+00	 9.375000000000000e+00	 1.000193999999999e+01
0	 7.500000000000001e+00	 9.437499999999998e+00	 1.000194072307692e+01
0	 7.499999999999999e+00	 9.500000000000000e+00	 1.000186473846153e+01
0	 7.499999999999999e+00	 9.562500000000000e+00	 1.000171204615384e+01
0	 7.500000000000001e+00	 9.625000000000000e+00	 1.000148264615383e+01
0	 7.500000000000000e+00	 9.687499999999998e+00	 1.000117653846154e+01
0	 7.500000000000001e+00	 9.749999999999998e+00	 1.000079372307691e+01
0	 7.500000000000000e+00	 9.812500000000000e+00	 1.000033419999998e+01
0	 7.500000000000001e+00	 9.875000000000000e+00	 9.999797969230720e+00
0	 7.500000000000000e+00	 9.937499999999998e+00	 9.999185030769233e+00
0	 7.500000000000000e+00	 1.000000000000000e+01	 9.998495384615371e+00
0	 7.562499999999999e+00	 9.375000000000000e+00	 1.000198658461538e+01
0	 7.562500000000001e+00	 9.437500000000002e+00	 1.000199133384613e+01
0	 7.562499999999997e+00	 9.500000000000000e+00	 1.000192158153845e+01
0	 7.562499999999999e+00	 9.562500000000000e+00	 1.000177732769228e+01
0	 7.562500000000001e+00	 9.625000000000000e+00	 1.000155857230770e+01
0	 7.562500000000001e+00	 9.687500000000000e+00	 1.000126531538458e+01
0	 7.562500000000001e+00	 9.749999999999998e+00	 1.000089755692306e+01
0	 7.562499999999999e+00	 9.812499999999998e+00	 1.000045529692305e+01
0	 7.562499999999999e+00	 9.874999999999998e+00	 9.999938535384606e+00
0	 7.562499999999999e+00	 9.937499999999996e+00	 9.999347272307720e+00
0	 7.562500000000001e+00	 1.000000000000000e+01	 9.998681507692289e+00
0	 7.625000000000000e+00	 9.375000000000000e+00	 1.000201033846153e+01
0	 7.624999999999997e+00	 9.437499999999998e+00	 1.000201825230768e+01
0	 7.625000000000000e+00	 9.500000000000000e+00	 1.000195387076923e+01
0	 7.624999999999999e+00	 9.562500000000000e+00	 1.000181719384616e+01
0	 7.625000000000001e+00	 9.625000000000002e+00	 1.000160822153843e+01
0	 7.625000000000000e+00	 9.687500000000002e+00	 1.000132695384612e+01
0	 7.624999999999999e+00	 9.750000000000000e+00	 1.000097339076921e+01
0	 7.625000000000001e+00	 9.812500000000002e+00	 1.000054753230772e+01
0	 7.625000000000000e+00	 9.874999999999996e+00	 1.000004937846151e+01
0	 7.625000000000000e+00	 9.937500000000000e+00	 9.999478929230769e+00
0	 7.624999999999999e+00	 1.000000000000000e+01	 9.998836184615385e+00
0	 7.687499999999999e+00	 9.375000000000002e+00	 1.000201126153845e+01
0	 7.687499999999999e+00	 9.437500000000000e+00	 1.000202147846151e+01
0	 7.687499999999999e+00	 9.499999999999996e+00	 1.000196160615381e+01
0	 7.687500000000000e+00	 9.562500000000000e+00	 1.000183164461539e+01
0	 7.687499999999997e+00	 9.624999999999998e+00	 1.000163159384615e+01
0	 7.687499999999998e+00	 9.687500000000000e+00	 1.000136145384618e+01
0	 7.687499999999999e+00	 9.749999999999996e+00	 1.000102122461537e+01
0	 7.687499999999998e+00	 9.812499999999996e+00	 1.000061090615381e+01
0	 7.687499999999999e+00	 9.875000000000000e+00	 1.000013049846148e+01
0	 7.687499999999999e+00	 9.937499999999998e+00	 9.999580001538448e+00
0	 7.687499999999999e+00	 1.000000000000000e+01	 9.998959415384631e+00
0	 7.750000000000000e+00	 9.375000000000002e+00	 1.000198935384615e+01
0	 7.750000000000001e+00	 9.437500000000000e+00	 1.000200101230768e+01
0	 7.749999999999999e+00	 9.500000000000004e+00	 1.000194478769229e+01
0	 7.749999999999997e+00	 9.562500000000000e+00	 1.000182068000001e+01
0	 7.749999999999998e+00	 9.624999999999998e+00	 1.000162868923075e+01
0	 7.749999999999999e+00	 9.687499999999998e+00	 1.000136881538458e+01
0	 7.750000000000000e+00	 9.750000000000000e+00	 1.000104105846153e+01
0	 7.749999999999999e+00	 9.812499999999996e+00	 1.000064541846153e+01
0	 7.750000000000000e+00	 9.874999999999998e+00	 1.000018189538459e+01
0	 7.749999999999999e+00	 9.937499999999996e+00	 9.999650489230790e+00
0	 7.750000000000000e+00	 1.000000000000000e+01	 9.999051199999945e+00
0	 7.812499999999999e+00	 9.375000000000002e+00	 1.000194461538457e+01
0	 7.812500000000000e+00	 9.437499999999998e+00	 1.000195685384613e+01
0	 7.812499999999999e+00	 9.499999999999998e+00	 1.000190341538458e+01
0	 7.812499999999999e+00	 9.562500000000000e+00	 1.000178429999999e+01
0	 7.812499999999998e+00	 9.624999999999998e+00	 1.000159950769228e+01
0	 7.812499999999999e+00	 9.687500000000000e+00	 1.000134903846153e+01
0	 7.812499999999999e+00	 9.750000000000000e+00	 1.000103289230772e+01
0	 7.812499999999999e+00	 9.812499999999998e+00	 1.000065106923078e+01
0	 7.812499999999999e+00	 9.874999999999998e+00	 1.000020356923078e+01
0	 7.812500000000000e+00	 9.937499999999998e+00	 9.999690392307677e+00
0	 7.812499999999998e+00	 1.000000000000000e+01	 9.999111538461614e+00
0	 7.875000000000000e+00	 9.375000000000000e+00	 1.000187704615383e+01
0	 7.874999999999998e+00	 9.437499999999998e+00	 1.000188900307692e+01
0	 7.874999999999998e+00	 9.500000000000000e+00	 1.000183748923077e+01
0	 7.874999999999999e+00	 9.562500000000000e+00	 1.000172250461537e+01
0	 7.875000000000000e+00	 9.625000000000000e+00	 1.000154404923076e+01
0	 7.874999999999999e+00	 9.687499999999998e+00	 1.000130212307692e+01
0	 7.875000000000000e+00	 9.749999999999998e+00	 1.000099672615383e+01
0	 7.874999999999996e+00	 9.812499999999996e+00	 1.000062785846151e+01
0	 7.874999999999999e+00	 9.874999999999998e+00	 1.000019551999997e+01
0	 7.874999999999999e+00	 9.937499999999998e+00	 9.999699710769232e+00
0	 7.874999999999999e+00	 9.999999999999998e+00	 9.999140430769234e+00
0	 7.937499999999997e+00	 9.375000000000000e+00	 1.000178664615384e+01
0	 7.937499999999997e+00	 9.437499999999998e+00	 1.000179746000001e+01
0	 7.937499999999998e+00	 9.499999999999998e+00	 1.000174700923077e+01
0	 7.937499999999998e+00	 9.562500000000002e+00	 1.000163529384614e+01
0	 7.937500000000000e+00	 9.624999999999998e+00	 1.000146231384615e+01
0	 7.937499999999999e+00	 9.687500000000000e+00	 1.000122806923074e+01
0	 7.937499999999999e+00	 9.750000000000000e+00	 1.000093255999998e+01
0	 7.937500000000000e+00	 9.812500000000000e+00	 1.000057578615380e+01
0	 7.937499999999998e+00	 9.874999999999998e+00	 1.000015774769230e+01
0	 7.937499999999998e+00	 9.937499999999998e+00	 9.999678444615377e+00
0	 7.937499999999998e+00	 1.000000000000000e+01	 9.999137876923102e+00
0	 7.999999999999998e+00	 9.375000000000000e+00	 1.000167341538461e+01
0	 7.999999999999999e+00	 9.437500000000002e+00	 1.000168222461538e+01
0	 7.999999999999998e+00	 9.500000000000000e+00	 1.000163197538460e+01
0	 7.999999999999999e+00	 9.562500000000002e+00	 1.000152266769230e+01
0	 7.999999999999998e+00	 9.624999999999998e+00	 1.000135430153843e+01
0	 7.999999999999997e+00	 9.687499999999998e+00	 1.000112687692305e+01
0	 7.999999999999997e+00	 9.750000000000000e+00	 1.000084039384613e+01
0	 7.999999999999998e+00	 9.812499999999998e+00	 1.000049485230768e+01
0	 7.999999999999999e+00	 9.874999999999998e+00	 1.000009025230768e+01
0	 7.999999999999998e+00	 9.937499999999998e+00	 9.999626593846131e+00
0	 7.999999999999998e+00	 1.000000000000000e+01	 9.999103876923035e+00
0	 8.062499999999998e+00	 9.375000000000000e+00	 1.000153735384615e+01
0	 8.062499999999998e+00	 9.437500000000000e+00	 1.000154329692309e+01
0	 8.062499999999996e+00	 9.499999999999998e+00	 1.000149238769233e+01
0	 8.062500000000000e+00	 9.562500000000000e+00	 1.000138462615385e+01
0	 8.062500000000000e+00	 9.624999999999998e+00	 1.000122001230771e+01
0	 8.062499999999996e+00	 9.687499999999996e+00	 1.000099854615383e+01
0	 8.062499999999998e+00	 9.749999999999998e+00	 1.000072022769230e+01
0	 8.062499999999998e+00	 9.812499999999998e+00	 1.000038505692306e+01
0	 8.062499999999998e+00	 9.874999999999996e+00	 9.999993033846190e+00
0	 8.062499999999998e+00	 9.937499999999998e+00	 9.999544158461493e+00
0	 8.062499999999996e+00	 1.000000000000000e+01	 9.999038430769229e+00
0	 8.125000000000000e+00	 9.375000000000000e+00	 1.000137846153846e+01
0	 8.124999999999998e+00	 9.437499999999998e+00	 1.000138067692310e+01
0	 8.125000000000000e+00	 9.500000000000000e+00	 1.000132824615385e+01
0	 8.124999999999998e+00	 9.562500000000000e+00	 1.000122116923077e+01
0	 8.125000000000000e+00	 9.625000000000000e+00	 1.000105944615384e+01
0	 8.125000000000000e+00	 9.687499999999998e+00	 1.000084307692309e+01
0	 8.125000000000000e+00	 9.749999999999998e+00	 1.000057206153845e+01
0	 8.125000000000000e+00	 9.812500000000000e+00	 1.000024639999999e+01
0	 8.125000000000002e+00	 9.875000000000000e+00	 9.999866092307656e+00
0	 8.125000000000000e+00	 9.937499999999998e+00	 9.999431138461560e+00
0	 8.125000000000000e+00	 1.000000000000000e+01	 9.998941538461537e+00
0	 8.125000000000000e+00	 0.000000000000000e+00	 9.977975692307689e+00
0	 8.125000000000002e+00	 6.250000000000000e-02	 9.978606430769226e+00
0	 8.125000000000000e+00	 1.250000000000000e-01	 9.979181138461531e+00
0	 8.125000000000000e+00	 1.875000000000000e-01	 9.979699815384610e+00
0	 8.125000000000000e+00	 2.500000000000000e-01	 9.980162461538455e+00
0	 8.125000000000000e+00	 3.125000000000000e-01	 9.980569076923079e+00
0	 8.125000000000000e+00	 3.750000000000000e-01	 9.980919661538465e+00
0	 8.125000000000000e+00	 4.374999999999999e-01	 9.981214215384608e+00
0	 8.125000000000000e+00	 5.000000000000000e-01	 9.981452738461536e+00
0	 8.125000000000000e+00	 5.624999999999999e-01	 9.981635230769232e+00
0	 8.125000000000000e+00	 6.250000000000000e-01	 9.981761692307689e+00
0	 8.187500000000000e+00	 0.000000000000000e+00	 9.971995073846150e+00
0	 8.187499999999998e+00	 6.249999999999999e-02	 9.972616020307679e+00
0	 8.187499999999998e+00	 1.250000000000000e-01	 9.973182809846147e+00
0	 8.187499999999998e+00	 1.875000000000000e-01	 9.973695442461532e+00
0	 8.187499999999998e+00	 2.500000000000000e-01	 9.974153918153842e+00
0	 8.187500000000000e+00	 3.125000000000001e-01	 9.974558236923073e+00
0	 8.187500000000000e+00	 3.749999999999999e-01	 9.974908398769220e+00
0	 8.187500000000002e+00	 4.374999999999999e-01	 9.975204403692310e+00
0	 8.187500000000002e+00	 5.000000000000000e-01	 9.975446251692304e+00
0	 8.187500000000000e+00	 5.625000000000000e-01	 9.975633942769219e+00
0	 8.187500000000002e+00	 6.250000000000000e-01	 9.975767476923082e+00
0	 8.250000000000000e+00	 0.000000000000000e+00	 9.965862695384610e+00
0	 8.250000000000004e+00	 6.250000000000000e-02	 9.966474896615379e+00
0	 8.250000000000000e+00	 1.250000000000000e-01	 9.967034814769228e+00
0	 8.250000000000000e+00	 1.875000000000000e-01	 9.967542449846146e+00
0	 8.250000000000000e+00	 2.500000000000001e-01	 9.967997801846145e+00
0	 8.250000000000000e+00	 3.125000000000000e-01	 9.968400870769223e+00
0	 8.250000000000000e+00	 3.749999999999999e-01	 9.968751656615387e+00
0	 8.250000000000000e+00	 4.375000000000000e-01	 9.969050159384613e+00
0	 8.250000000000000e+00	 4.999999999999999e-01	 9.969296379076926e+00
0	 8.250000000000000e+00	 5.625000000000000e-01	 9.969490315692310e+00
0	 8.250000000000000e+00	 6.249999999999999e-01	 9.969631969230768e+00
0	 8.312499999999998e+00	 0.000000000000000e+00	 9.959578556923073e+00
0	 8.312499999999998e+00	 6.250000000000000e-02	 9.960183059692309e+00
0	 8.312499999999998e+00	 1.250000000000000e-01	 9.960737153230761e+00
0	 8.312500000000000e+00	 1.875000000000001e-01	 9.961240837538464e+00
0	 8.312500000000000e+00	 2.500000000000001e-01	 9.961694112615376e+00
0	 8.312499999999998e+00	 3.125000000000000e-01	 9.962096978461537e+00
0	 8.312499999999998e+00	 3.749999999999999e-01	 9.962449435076920e+00
0	 8.312500000000000e+00	 4.374999999999999e-01	 9.962751482461533e+00
0	 8.312499999999998e+00	 4.999999999999999e-01	 9.963003120615380e+00
0	 8.312500000000002e+00	 5.625000000000001e-01	 9.963204349538465e+00
0	 8.312500000000000e+00	 6.249999999999999e-01	 9.963355169230761e+00
0	 8.374999999999998e+00	 0.000000000000000e+00	 9.953142658461536e+00
0	 8.374999999999998e+00	 6.250000000000000e-02	 9.953740509538459e+00
0	 8.374999999999996e+00	 1.250000000000000e-01	 9.954289825230770e+00
0	 8.374999999999996e+00	 1.875000000000000e-01	 9.954790605538452e+00
0	 8.375000000000000e+00	 2.500000000000000e-01	 9.955242850461536e+00
0	 8.375000000000000e+00	 3.125000000000000e-01	 9.955646559999996e+00
0	 8.374999999999998e+00	 3.750000000000000e-01	 9.956001734153844e+00
0	 8.375000000000000e+00	 4.375000000000000e-01	 9.956308372923072e+00
0	 8.374999999999998e+00	 4.999999999999999e-01	 9.956566476307689e+00
0	 8.375000000000000e+00	 5.625000000000000e-01	 9.956776044307698e+00
0	 8.374999999999998e+00	 6.250000000000001e-01	 9.956937076923076e+00
0	 8.437500000000000e+00	 0.000000000000000e+00	 9.946554999999998e+00
0	 8.437499999999996e+00	 6.249999999999998e-02	 9.947147246153836e+00
0	 8.437500000000002e+00	 1.250000000000000e-01	 9.947692830769229e+00
0	 8.437499999999998e+00	 1.875000000000000e-01	 9.948191753846146e+00
0	 8.437499999999996e+00	 2.499999999999999e-01	 9.948644015384605e+00
0	 8.437499999999998e+00	 3.125000000000000e-01	 9.949049615384611e+00
0	 8.437499999999998e+00	 3.750000000000000e-01	 9.949408553846155e+00
0	 8.437499999999998e+00	 4.375000000000000e-01	 9.949720830769232e+00
0	 8.437499999999998e+00	 4.999999999999999e-01	 9.949986446153838e+00
0	 8.437500000000002e+00	 5.625000000000001e-01	 9.950205400000000e+00
0	 8.437500000000000e+00	 6.250000000000000e-01	 9.950377692307690e+00
0	 8.500000000000000e+00	 0.000000000000000e+00	 9.939815581538461e+00
0	 8.499999999999998e+00	 6.249999999999999e-02	 9.940403269538459e+00
0	 8.499999999999998e+00	 1.250000000000000e-01	 9.940946169846145e+00
0	 8.499999999999998e+00	 1.875000000000001e-01	 9.941444282461537e+00
0	 8.499999999999998e+00	 2.500000000000001e-01	 9.941897607384609e+00
0	 8.500000000000002e+00	 3.125000000000001e-01	 9.942306144615381e+00
0	 8.500000000000000e+00	 3.749999999999999e-01	 9.942669894153841e+00
0	 8.500000000000002e+00	 4.375000000000000e-01	 9.942988855999996e+00
0	 8.499999999999998e+00	 4.999999999999998e-01	 9.943263030153842e+00
0	 8.499999999999998e+00	 5.624999999999999e-01	 9.943492416615387e+00
0	 8.500000000000000e+00	 6.250000000000001e-01	 9.943677015384610e+00
0	 8.562500000000000e+00	 0.000000000000000e+00	 9.932924403076917e+00
0	 8.562499999999998e+00	 6.250000000000000e-02	 9.933508579692299e+00
0	 8.562499999999998e+00	 1.250000000000000e-01	 9.934049842461533e+00
0	 8.562500000000000e+00	 1.875000000000000e-01	 9.934548191384616e+00
0	 8.562499999999998e+00	 2.500000000000000e-01	 9.935003626461535e+00
0	 8.562499999999998e+00	 3.125000000000001e-01	 9.935416147692308e+00
0	 8.562500000000000e+00	 3.750000000000000e-01	 9.935785755076919e+00
0	 8.562499999999998e+00	 4.375000000000000e-01	 9.936112448615383e+00
0	 8.562499999999998e+00	 4.999999999999999e-01	 9.936396228307686e+00
0	 8.562500000000000e+00	 5.625000000000000e-01	 9.936637094153847e+00
0	 8.562499999999998e+00	 6.249999999999999e-01	 9.936835046153849e+00
0	 8.624999999999998e+00	 0.000000000000000e+00	 9.925881464615381e+00
0	 8.624999999999998e+00	 6.249999999999999e-02	 9.926463176615384e+00
0	 8.625000000000000e+00	 1.250000000000000e-01	 9.927003848615382e+00
0	 8.625000000000000e+00	 1.875000000000001e-01	 9.927503480615380e+00
0	 8.624999999999996e+00	 2.500000000000000e-01	 9.927962072615385e+00
0	 8.624999999999996e+00	 3.124999999999999e-01	 9.928379624615381e+00
0	 8.625000000000000e+00	 3.749999999999999e-01	 9.928756136615386e+00
0	 8.624999999999998e+00	 4.375000000000000e-01	 9.929091608615389e+00
0	 8.625000000000000e+00	 4.999999999999999e-01	 9.929386040615391e+00
0	 8.624999999999998e+00	 5.625000000000000e-01	 9.929639432615382e+00
0	 8.624999999999998e+00	 6.250000000000000e-01	 9.929851784615384e+00
0	 8.687499999999998e+00	 0.000000000000000e+00	 9.918686766153852e+00
0	 8.687499999999998e+00	 6.250000000000000e-02	 9.919267060307693e+00
0	 8.687499999999998e+00	 1.250000000000000e-01	 9.919808188307687e+00
0	 8.687500000000000e+00	 1.875000000000000e-01	 9.920310150153844e+00
0	 8.687499999999998e+00	 2.499999999999999e-01	 9.920772945846151e+00
0	 8.687499999999998e+00	 3.125000000000000e-01	 9.921196575384618e+00
0	 8.687499999999998e+00	 3.750000000000000e-01	 9.921581038769229e+00
0	 8.687499999999998e+00	 4.375000000000000e-01	 9.921926335999997e+00
0	 8.687499999999996e+00	 4.999999999999999e-01	 9.922232467076929e+00
0	 8.687499999999998e+00	 5.625000000000000e-01	 9.922499431999999e+00
0	 8.687499999999998e+00	 6.250000000000000e-01	 9.922727230769233e+00
0	 8.750000000000000e+00	 0.000000000000000e+00	 9.911340307692306e+00
0	 8.750000000000002e+00	 6.250000000000000e-02	 9.911920230769224e+00
0	 8.749999999999998e+00	 1.250000000000000e-01	 9.912462861538458e+00
0	 8.750000000000000e+00	 1.875000000000000e-01	 9.912968199999993e+00
0	 8.750000000000002e+00	 2.500000000000000e-01	 9.913436246153834e+00
0	 8.750000000000000e+00	 3.125000000000000e-01	 9.913867000000000e+00
0	 8.750000000000000e+00	 3.750000000000000e-01	 9.914260461538454e+00
0	 8.750000000000000e+00	 4.374999999999999e-01	 9.914616630769235e+00
0	 8.750000000000002e+00	 5.000000000000000e-01	 9.914935507692304e+00
0	 8.750000000000000e+00	 5.624999999999999e-01	 9.915217092307696e+00
0	 8.750000000000000e+00	 6.250000000000000e-01	 9.915461384615380e+00
0	 8.125000000000000e+00	 6.250000000000000e-01	 9.981761692307689e+00
0	 8.125000000000000e+00	 6.875000000000000e-01	 9.983033569230768e+00
0	 8.125000000000000e+00	 7.500000000000002e-01	 9.984260676923078e+00
0	 8.125000000000002e+00	 8.125000000000002e-01	 9.985443015384611e+00
0	 8.125000000000000e+00	 8.750000000000002e-01	 9.986580584615382e+00
0	 8.125000000000000e+00	 9.375000000000002e-01	 9.987673384615384e+00
0	 8.125000000000000e+00	 1.000000000000000e+00	 9.988721415384607e+00
0	 8.125000000000000e+00	 1.062500000000000e+00	 9.989724676923078e+00
0	 8.125000000000002e+00	 1.125000000000001e+00	 9.990683169230763e+00
0	 8.125000000000000e+00	 1.187500000000000e+00	 9.991596892307694e+00
0	 8.125000000000000e+00	 1.250000000000000e+00	 9.992465846153841e+00
0	 8.187500000000002e+00	 6.250000000000000e-01	 9.975767476923082e+00
0	 8.187500000000000e+00	 6.875000000000001e-01	 9.977022077076921e+00
0	 8.187500000000000e+00	 7.500000000000001e-01	 9.978233486461537e+00
0	 8.187499999999998e+00	 8.125000000000002e-01	 9.979401705076917e+00
0	 8.187500000000002e+00	 8.750000000000003e-01	 9.980526732923082e+00
0	 8.187499999999998e+00	 9.375000000000003e-01	 9.981608569999992e+00
0	 8.187500000000000e+00	 1.000000000000000e+00	 9.982647216307697e+00
0	 8.187500000000000e+00	 1.062500000000000e+00	 9.983642671846155e+00
0	 8.187500000000000e+00	 1.125000000000000e+00	 9.984594936615373e+00
0	 8.187499999999998e+00	 1.187500000000000e+00	 9.985504010615385e+00
0	 8.187500000000002e+00	 1.250000000000000e+00	 9.986369893846152e+00
0	 8.250000000000000e+00	 6.249999999999999e-01	 9.969631969230768e+00
0	 8.250000000000002e+00	 6.875000000000001e-01	 9.970873412923073e+00
0	 8.250000000000002e+00	 7.500000000000002e-01	 9.972073244307692e+00
0	 8.250000000000002e+00	 8.125000000000001e-01	 9.973231463384611e+00
0	 8.250000000000000e+00	 8.750000000000003e-01	 9.974348070153834e+00
0	 8.250000000000002e+00	 9.375000000000003e-01	 9.975423064615381e+00
0	 8.250000000000000e+00	 1.000000000000000e+00	 9.976456446769232e+00
0	 8.250000000000002e+00	 1.062500000000000e+00	 9.977448216615382e+00
0	 8.250000000000000e+00	 1.125000000000000e+00	 9.978398374153846e+00
0	 8.250000000000000e+00	 1.187500000000001e+00	 9.979306919384612e+00
0	 8.250000000000000e+00	 1.250000000000000e+00	 9.980173852307693e+00
0	 8.312500000000000e+00	 6.249999999999999e-01	 9.963355169230761e+00
0	 8.312500000000000e+00	 6.875000000000000e-01	 9.964587576769228e+00
0	 8.312500000000000e+00	 7.500000000000000e-01	 9.965779950461535e+00
0	 8.312500000000000e+00	 8.125000000000002e-01	 9.966932290307689e+00
0	 8.312500000000000e+00	 8.750000000000002e-01	 9.968044596307690e+00
0	 8.312499999999998e+00	 9.375000000000002e-01	 9.969116868461533e+00
0	 8.312499999999998e+00	 1.000000000000000e+00	 9.970149106769227e+00
0	 8.312500000000000e+00	 1.062500000000000e+00	 9.971141311230767e+00
0	 8.312499999999998e+00	 1.125000000000000e+00	 9.972093481846148e+00
0	 8.312499999999998e+00	 1.187500000000000e+00	 9.973005618615380e+00
0	 8.312500000000000e+00	 1.250000000000000e+00	 9.973877721538457e+00
0	 8.374999999999998e+00	 6.250000000000001e-01	 9.956937076923076e+00
0	 8.375000000000000e+00	 6.875000000000000e-01	 9.958164568615381e+00
0	 8.374999999999998e+00	 7.500000000000000e-01	 9.959353604923075e+00
0	 8.375000000000000e+00	 8.125000000000001e-01	 9.960504185846151e+00
0	 8.375000000000000e+00	 8.750000000000003e-01	 9.961616311384610e+00
0	 8.374999999999998e+00	 9.375000000000000e-01	 9.962689981538455e+00
0	 8.375000000000002e+00	 1.000000000000000e+00	 9.963725196307692e+00
0	 8.374999999999998e+00	 1.062500000000000e+00	 9.964721955692312e+00
0	 8.375000000000000e+00	 1.125000000000000e+00	 9.965680259692309e+00
0	 8.374999999999998e+00	 1.187500000000000e+00	 9.966600108307691e+00
0	 8.374999999999998e+00	 1.250000000000000e+00	 9.967481501538462e+00
0	 8.437500000000000e+00	 6.250000000000000e-01	 9.950377692307690e+00
0	 8.437499999999996e+00	 6.875000000000000e-01	 9.951604388461528e+00
0	 8.437500000000000e+00	 7.500000000000001e-01	 9.952794207692301e+00
0	 8.437499999999998e+00	 8.125000000000002e-01	 9.953947149999996e+00
0	 8.437499999999998e+00	 8.750000000000003e-01	 9.955063215384616e+00
0	 8.437500000000000e+00	 9.375000000000002e-01	 9.956142403846151e+00
0	 8.437500000000000e+00	 1.000000000000000e+00	 9.957184715384606e+00
0	 8.437500000000000e+00	 1.062500000000000e+00	 9.958190149999993e+00
0	 8.437500000000000e+00	 1.125000000000000e+00	 9.959158707692307e+00
0	 8.437500000000000e+00	 1.187500000000001e+00	 9.960090388461534e+00
0	 8.437500000000000e+00	 1.250000000000000e+00	 9.960985192307692e+00
0	 8.500000000000000e+00	 6.250000000000001e-01	 9.943677015384610e+00
0	 8.499999999999998e+00	 6.874999999999999e-01	 9.944907036307690e+00
0	 8.500000000000000e+00	 7.500000000000003e-01	 9.946101758769228e+00
0	 8.499999999999998e+00	 8.125000000000000e-01	 9.947261182769228e+00
0	 8.499999999999998e+00	 8.750000000000001e-01	 9.948385308307692e+00
0	 8.500000000000000e+00	 9.375000000000003e-01	 9.949474135384619e+00
0	 8.499999999999998e+00	 1.000000000000000e+00	 9.950527663999996e+00
0	 8.499999999999998e+00	 1.062500000000000e+00	 9.951545894153845e+00
0	 8.499999999999998e+00	 1.125000000000000e+00	 9.952528825846148e+00
0	 8.499999999999996e+00	 1.187500000000000e+00	 9.953476459076914e+00
0	 8.500000000000000e+00	 1.250000000000000e+00	 9.954388793846153e+00
0	 8.562499999999998e+00	 6.249999999999999e-01	 9.936835046153849e+00
0	 8.562499999999998e+00	 6.875000000000000e-01	 9.938072512153848e+00
0	 8.562500000000000e+00	 7.500000000000002e-01	 9.939276258153846e+00
0	 8.562499999999998e+00	 8.125000000000000e-01	 9.940446284153850e+00
0	 8.562500000000000e+00	 8.750000000000002e-01	 9.941582590153846e+00
0	 8.562500000000000e+00	 9.375000000000004e-01	 9.942685176153843e+00
0	 8.562499999999998e+00	 1.000000000000000e+00	 9.943754042153845e+00
0	 8.562500000000000e+00	 1.062500000000001e+00	 9.944789188153846e+00
0	 8.562499999999998e+00	 1.125000000000000e+00	 9.945790614153843e+00
0	 8.562500000000000e+00	 1.187500000000000e+00	 9.946758320153842e+00
0	 8.562499999999998e+00	 1.250000000000000e+00	 9.947692306153845e+00
0	 8.624999999999998e+00	 6.250000000000000e-01	 9.929851784615384e+00
0	 8.624999999999998e+00	 6.875000000000000e-01	 9.931100815999992e+00
0	 8.624999999999996e+00	 7.500000000000000e-01	 9.932317705846152e+00
0	 8.624999999999998e+00	 8.125000000000001e-01	 9.933502454153846e+00
0	 8.625000000000000e+00	 8.750000000000003e-01	 9.934655060923070e+00
0	 8.624999999999996e+00	 9.375000000000002e-01	 9.935775526153847e+00
0	 8.624999999999998e+00	 1.000000000000001e+00	 9.936863849846162e+00
0	 8.624999999999998e+00	 1.062500000000000e+00	 9.937920031999994e+00
0	 8.624999999999998e+00	 1.125000000000000e+00	 9.938944072615383e+00
0	 8.624999999999998e+00	 1.187500000000000e+00	 9.939935971692300e+00
0	 8.624999999999998e+00	 1.250000000000000e+00	 9.940895729230764e+00
0	 8.687499999999998e+00	 6.250000000000000e-01	 9.922727230769233e+00
0	 8.687500000000000e+00	 6.875000000000002e-01	 9.923991947846154e+00
0	 8.687499999999998e+00	 7.500000000000001e-01	 9.925226101846151e+00
0	 8.687499999999996e+00	 8.125000000000001e-01	 9.926429692769233e+00
0	 8.687499999999998e+00	 8.750000000000002e-01	 9.927602720615388e+00
0	 8.687499999999998e+00	 9.375000000000002e-01	 9.928745185384621e+00
0	 8.687499999999998e+00	 1.000000000000000e+00	 9.929857087076916e+00
0	 8.687499999999998e+00	 1.062500000000000e+00	 9.930938425692309e+00
0	 8.687499999999996e+00	 1.125000000000000e+00	 9.931989201230770e+00
0	 8.687499999999996e+00	 1.187500000000000e+00	 9.933009413692306e+00
0	 8.687499999999998e+00	 1.250000000000000e+00	 9.933999063076921e+00
0	 8.750000000000000e+00	 6.250000000000000e-01	 9.915461384615380e+00
0	 8.750000000000000e+00	 6.875000000000000e-01	 9.916745907692309e+00
0	 8.750000000000000e+00	 7.500000000000002e-01	 9.918001446153838e+00
0	 8.750000000000004e+00	 8.125000000000002e-01	 9.919228000000004e+00
0	 8.750000000000000e+00	 8.750000000000002e-01	 9.920425569230765e+00
0	 8.750000000000002e+00	 9.375000000000002e-01	 9.921594153846154e+00
0	 8.750000000000000e+00	 1.000000000000000e+00	 9.922733753846156e+00
0	 8.750000000000000e+00	 1.062500000000000e+00	 9.923844369230771e+00
0	 8.750000000000002e+00	 1.125000000000001e+00	 9.924926000000003e+00
0	 8.750000000000000e+00	 1.187500000000000e+00	 9.925978646153844e+00
0	 8.750000000000000e+00	 1.250000000000000e+00	 9.927002307692305e+00
0	 8.125000000000000e+00	 1.250000000000000e+00	 9.992465846153841e+00
0	 8.125000000000000e+00	 1.312500000000000e+00	 9.994064984615370e+00
0	 8.125000000000000e+00	 1.375000000000000e+00	 9.995643261538463e+00
0	 8.125000000000002e+00	 1.437500000000000e+00	 9.997200676923072e+00
0	 8.125000000000000e+00	 1.500000000000000e+00	 9.998737230769231e+00
0	 8.125000000000000e+00	 1.562500000000000e+00	 1.000025292307692e+01
0	 8.125000000000000e+00	 1.625000000000000e+00	 1.000174775384615e+01
0	 8.125000000000000e+00	 1.687500000000000e+00	 1.000322172307692e+01
0	 8.125000000000002e+00	 1.750000000000001e+00	 1.000467483076922e+01
0	 8.125000000000000e+00	 1.812500000000000e+00	 1.000610707692307e+01
0	 8.125000000000000e+00	 1.875000000000000e+00	 1.000751846153846e+01
0	 8.187500000000002e+00	 1.250000000000000e+00	 9.986369893846152e+00
0	 8.187500000000000e+00	 1.312500000000000e+00	 9.987961809076920e+00
0	 8.187500000000000e+00	 1.375000000000000e+00	 9.989533287384610e+00
0	 8.187499999999998e+00	 1.437500000000000e+00	 9.991084328769221e+00
0	 8.187500000000002e+00	 1.500000000000000e+00	 9.992614933230765e+00
0	 8.187499999999998e+00	 1.562500000000000e+00	 9.994125100769228e+00
0	 8.187500000000000e+00	 1.625000000000000e+00	 9.995614831384618e+00
0	 8.187500000000000e+00	 1.687500000000000e+00	 9.997084125076919e+00
0	 8.187500000000000e+00	 1.750000000000000e+00	 9.998532981846150e+00
0	 8.187499999999998e+00	 1.812500000000000e+00	 9.999961401692307e+00
0	 8.187500000000002e+00	 1.875000000000000e+00	 1.000136938461538e+01
0	 8.250000000000000e+00	 1.250000000000000e+00	 9.980173852307693e+00
0	 8.250000000000002e+00	 1.312500000000000e+00	 9.981764030153844e+00
0	 8.250000000000002e+00	 1.375000000000000e+00	 9.983334195692308e+00
0	 8.250000000000002e+00	 1.437500000000000e+00	 9.984884348923075e+00
0	 8.250000000000000e+00	 1.500000000000000e+00	 9.986414489846144e+00
0	 8.250000000000002e+00	 1.562500000000000e+00	 9.987924618461536e+00
0	 8.250000000000000e+00	 1.625000000000000e+00	 9.989414734769234e+00
0	 8.250000000000002e+00	 1.687500000000000e+00	 9.990884838769231e+00
0	 8.250000000000000e+00	 1.750000000000001e+00	 9.992334930461531e+00
0	 8.250000000000000e+00	 1.812500000000001e+00	 9.993765009846150e+00
0	 8.250000000000000e+00	 1.875000000000000e+00	 9.995175076923072e+00
0	 8.312500000000000e+00	 1.250000000000000e+00	 9.973877721538457e+00
0	 8.312500000000000e+00	 1.312500000000000e+00	 9.975471647846152e+00
0	 8.312500000000000e+00	 1.375000000000000e+00	 9.977045986461535e+00
0	 8.312500000000000e+00	 1.437500000000000e+00	 9.978600737384618e+00
0	 8.312500000000000e+00	 1.500000000000000e+00	 9.980135900615384e+00
0	 8.312499999999998e+00	 1.562500000000000e+00	 9.981651476153843e+00
0	 8.312499999999998e+00	 1.625000000000000e+00	 9.983147463999993e+00
0	 8.312500000000000e+00	 1.687500000000000e+00	 9.984623864153843e+00
0	 8.312499999999998e+00	 1.750000000000000e+00	 9.986080676615373e+00
0	 8.312499999999998e+00	 1.812500000000000e+00	 9.987517901384612e+00
0	 8.312500000000000e+00	 1.875000000000000e+00	 9.988935538461536e+00
0	 8.374999999999998e+00	 1.250000000000000e+00	 9.967481501538462e+00
0	 8.375000000000000e+00	 1.312500000000000e+00	 9.969084662153847e+00
0	 8.374999999999998e+00	 1.375000000000000e+00	 9.970668659692308e+00
0	 8.375000000000000e+00	 1.437500000000000e+00	 9.972233494153841e+00
0	 8.375000000000000e+00	 1.500000000000000e+00	 9.973779165538453e+00
0	 8.374999999999998e+00	 1.562500000000000e+00	 9.975305673846149e+00
0	 8.375000000000002e+00	 1.625000000000001e+00	 9.976813019076918e+00
0	 8.374999999999998e+00	 1.687500000000000e+00	 9.978301201230765e+00
0	 8.375000000000000e+00	 1.750000000000001e+00	 9.979770220307692e+00
0	 8.374999999999998e+00	 1.812500000000000e+00	 9.981220076307693e+00
0	 8.374999999999998e+00	 1.875000000000000e+00	 9.982650769230769e+00
0	 8.437500000000000e+00	 1.250000000000000e+00	 9.960985192307692e+00
0	 8.437499999999996e+00	 1.312500000000000e+00	 9.962603073076917e+00
0	 8.437500000000000e+00	 1.375000000000000e+00	 9.964202215384615e+00
0	 8.437499999999998e+00	 1.437500000000000e+00	 9.965782619230765e+00
0	 8.437499999999998e+00	 1.500000000000000e+00	 9.967344284615390e+00
0	 8.437500000000000e+00	 1.562500000000000e+00	 9.968887211538458e+00
0	 8.437500000000000e+00	 1.625000000000000e+00	 9.970411400000000e+00
0	 8.437500000000000e+00	 1.687500000000000e+00	 9.971916849999994e+00
0	 8.437500000000000e+00	 1.750000000000000e+00	 9.973403561538461e+00
0	 8.437500000000000e+00	 1.812500000000000e+00	 9.974871534615380e+00
0	 8.437500000000000e+00	 1.875000000000000e+00	 9.976320769230774e+00
0	 8.500000000000000e+00	 1.250000000000000e+00	 9.954388793846153e+00
0	 8.499999999999998e+00	 1.312500000000000e+00	 9.956026880615383e+00
0	 8.500000000000000e+00	 1.375000000000000e+00	 9.957646653538458e+00
0	 8.499999999999998e+00	 1.437500000000000e+00	 9.959248112615382e+00
0	 8.499999999999998e+00	 1.500000000000000e+00	 9.960831257846147e+00
0	 8.500000000000000e+00	 1.562500000000000e+00	 9.962396089230769e+00
0	 8.499999999999998e+00	 1.625000000000000e+00	 9.963942606769226e+00
0	 8.499999999999998e+00	 1.687500000000000e+00	 9.965470810461536e+00
0	 8.499999999999998e+00	 1.750000000000000e+00	 9.966980700307685e+00
0	 8.499999999999996e+00	 1.812500000000000e+00	 9.968472276307683e+00
0	 8.500000000000000e+00	 1.875000000000000e+00	 9.969945538461532e+00
0	 8.562499999999998e+00	 1.250000000000000e+00	 9.947692306153845e+00
0	 8.562499999999998e+00	 1.312500000000000e+00	 9.949356084769228e+00
0	 8.562500000000000e+00	 1.375000000000000e+00	 9.951001974153844e+00
0	 8.562499999999998e+00	 1.437500000000000e+00	 9.952629974307694e+00
0	 8.562500000000000e+00	 1.500000000000001e+00	 9.954240085230765e+00
0	 8.562500000000000e+00	 1.562500000000000e+00	 9.955832306923075e+00
0	 8.562499999999998e+00	 1.625000000000000e+00	 9.957406639384615e+00
0	 8.562500000000000e+00	 1.687500000000000e+00	 9.958963082615380e+00
0	 8.562499999999998e+00	 1.750000000000000e+00	 9.960501636615385e+00
0	 8.562500000000000e+00	 1.812500000000000e+00	 9.962022301384621e+00
0	 8.562499999999998e+00	 1.875000000000000e+00	 9.963525076923080e+00
0	 8.624999999999998e+00	 1.250000000000000e+00	 9.940895729230764e+00
0	 8.624999999999998e+00	 1.312500000000000e+00	 9.942590685538454e+00
0	 8.624999999999996e+00	 1.375000000000000e+00	 9.944268177230759e+00
0	 8.624999999999998e+00	 1.437500000000000e+00	 9.945928204307689e+00
0	 8.625000000000000e+00	 1.500000000000000e+00	 9.947570766769228e+00
0	 8.624999999999996e+00	 1.562500000000000e+00	 9.949195864615383e+00
0	 8.624999999999998e+00	 1.625000000000001e+00	 9.950803497846152e+00
0	 8.624999999999998e+00	 1.687500000000000e+00	 9.952393666461534e+00
0	 8.624999999999998e+00	 1.750000000000000e+00	 9.953966370461533e+00
0	 8.624999999999998e+00	 1.812500000000001e+00	 9.955521609846143e+00
0	 8.624999999999998e+00	 1.875000000000000e+00	 9.957059384615384e+00
0	 8.687499999999998e+00	 1.250000000000000e+00	 9.933999063076921e+00
0	 8.687500000000000e+00	 1.312500000000000e+00	 9.935730682923069e+00
0	 8.687499999999998e+00	 1.375000000000000e+00	 9.937445262769224e+00
0	 8.687499999999996e+00	 1.437500000000000e+00	 9.939142802615383e+00
0	 8.687499999999998e+00	 1.500000000000000e+00	 9.940823302461538e+00
0	 8.687499999999998e+00	 1.562500000000000e+00	 9.942486762307697e+00
0	 8.687499999999998e+00	 1.625000000000000e+00	 9.944133182153848e+00
0	 8.687499999999998e+00	 1.687500000000000e+00	 9.945762561999997e+00
0	 8.687499999999996e+00	 1.750000000000000e+00	 9.947374901846153e+00
0	 8.687499999999996e+00	 1.812500000000000e+00	 9.948970201692308e+00
0	 8.687499999999998e+00	 1.875000000000000e+00	 9.950548461538462e+00
0	 8.750000000000000e+00	 1.250000000000000e+00	 9.927002307692305e+00
0	 8.750000000000000e+00	 1.312500000000000e+00	 9.928776076923079e+00
0	 8.750000000000000e+00	 1.375000000000000e+00	 9.930533230769221e+00
0	 8.750000000000004e+00	 1.437500000000000e+00	 9.932273769230774e+00
0	 8.750000000000000e+00	 1.500000000000000e+00	 9.933997692307685e+00
0	 8.750000000000002e+00	 1.562500000000000e+00	 9.935704999999999e+00
0	 8.750000000000000e+00	 1.625000000000000e+00	 9.937395692307689e+00
0	 8.750000000000000e+00	 1.687500000000000e+00	 9.939069769230764e+00
0	 8.750000000000002e+00	 1.750000000000001e+00	 9.940727230769227e+00
0	 8.750000000000000e+00	 1.812500000000000e+00	 9.942368076923076e+00
0	 8.750000000000000e+00	 1.875000000000000e+00	 9.943992307692307e+00
0	 8.125000000000000e+00	 1.875000000000000e+00	 1.000751846153846e+01
0	 8.125000000000000e+00	 1.937500000000000e+00	 1.000912186153845e+01
0	 8.125000000000000e+00	 2.000000000000000e+00	 1.001072867692308e+01
0	 8.125000000000002e+00	 2.062500000000000e+00	 1.001233890769230e+01
0	 8.125000000000000e+00	 2.125000000000000e+00	 1.001395255384615e+01
0	 8.125000000000000e+00	 2.187500000000000e+00	 1.001556961538461e+01
0	 8.125000000000000e+00	 2.250000000000000e+00	 1.001719009230768e+01
0	 8.125000000000000e+00	 2.312500000000000e+00	 1.001881398461538e+01
0	 8.125000000000002e+00	 2.375000000000001e+00	 1.002044129230769e+01
0	 8.125000000000000e+00	 2.437500000000001e+00	 1.002207201538461e+01
0	 8.125000000000000e+00	 2.500000000000000e+00	 1.002370615384615e+01
0	 8.187500000000002e+00	 1.875000000000000e+00	 1.000136938461538e+01
0	 8.187500000000000e+00	 1.937500000000000e+00	 1.000298670153846e+01
0	 8.187500000000000e+00	 2.000000000000000e+00	 1.000460689846153e+01
0	 8.187499999999998e+00	 2.062500000000000e+00	 1.000622997538460e+01
0	 8.187500000000002e+00	 2.125000000000001e+00	 1.000785593230769e+01
0	 8.187499999999998e+00	 2.187500000000000e+00	 1.000948476923076e+01
0	 8.187500000000000e+00	 2.250000000000000e+00	 1.001111648615384e+01
0	 8.187500000000000e+00	 2.312500000000000e+00	 1.001275108307691e+01
0	 8.187500000000000e+00	 2.375000000000000e+00	 1.001438856000000e+01
0	 8.187499999999998e+00	 2.437500000000000e+00	 1.001602891692307e+01
0	 8.187500000000002e+00	 2.500000000000000e+00	 1.001767215384615e+01
0	 8.250000000000000e+00	 1.875000000000000e+00	 9.995175076923072e+00
0	 8.250000000000002e+00	 1.937500000000000e+00	 9.996811480000005e+00
0	 8.250000000000002e+00	 2.000000000000000e+00	 9.998450227692310e+00
0	 8.250000000000002e+00	 2.062500000000000e+00	 1.000009132000000e+01
0	 8.250000000000000e+00	 2.125000000000000e+00	 1.000173475692307e+01
0	 8.250000000000002e+00	 2.187500000000001e+00	 1.000338053846154e+01
0	 8.250000000000000e+00	 2.250000000000000e+00	 1.000502866461538e+01
0	 8.250000000000002e+00	 2.312500000000000e+00	 1.000667913538461e+01
0	 8.250000000000000e+00	 2.375000000000000e+00	 1.000833195076923e+01
0	 8.250000000000000e+00	 2.437500000000000e+00	 1.000998711076922e+01
0	 8.250000000000000e+00	 2.500000000000000e+00	 1.001164461538462e+01
0	 8.312500000000000e+00	 1.875000000000000e+00	 9.988935538461536e+00
0	 8.312500000000000e+00	 1.937500000000000e+00	 9.990596196923070e+00
0	 8.312500000000000e+00	 2.000000000000000e+00	 9.992258664615385e+00
0	 8.312500000000000e+00	 2.062500000000000e+00	 9.993922941538457e+00
0	 8.312500000000000e+00	 2.125000000000001e+00	 9.995589027692303e+00
0	 8.312499999999998e+00	 2.187500000000000e+00	 9.997256923076918e+00
0	 8.312499999999998e+00	 2.250000000000000e+00	 9.998926627692301e+00
0	 8.312500000000000e+00	 2.312500000000000e+00	 1.000059814153846e+01
0	 8.312499999999998e+00	 2.375000000000000e+00	 1.000227146461538e+01
0	 8.312499999999998e+00	 2.437500000000000e+00	 1.000394659692306e+01
0	 8.312500000000000e+00	 2.500000000000000e+00	 1.000562353846154e+01
0	 8.374999999999998e+00	 1.875000000000000e+00	 9.982650769230769e+00
0	 8.375000000000000e+00	 1.937500000000000e+00	 9.984340852307689e+00
0	 8.374999999999998e+00	 2.000000000000000e+00	 9.986032209230771e+00
0	 8.375000000000000e+00	 2.062500000000000e+00	 9.987724839999998e+00
0	 8.375000000000000e+00	 2.125000000000000e+00	 9.989418744615381e+00
0	 8.374999999999998e+00	 2.187500000000000e+00	 9.991113923076913e+00
0	 8.375000000000002e+00	 2.250000000000000e+00	 9.992810375384607e+00
0	 8.374999999999998e+00	 2.312500000000000e+00	 9.994508101538454e+00
0	 8.375000000000000e+00	 2.375000000000000e+00	 9.996207101538463e+00
0	 8.374999999999998e+00	 2.437500000000000e+00	 9.997907375384614e+00
0	 8.374999999999998e+00	 2.500000000000000e+00	 9.999608923076925e+00
0	 8.437500000000000e+00	 1.875000000000000e+00	 9.976320769230774e+00
0	 8.437499999999996e+00	 1.937500000000000e+00	 9.978045446153835e+00
0	 8.437500000000000e+00	 2.000000000000000e+00	 9.979770861538455e+00
0	 8.437499999999998e+00	 2.062500000000000e+00	 9.981497015384608e+00
0	 8.437499999999998e+00	 2.125000000000000e+00	 9.983223907692306e+00
0	 8.437500000000000e+00	 2.187500000000000e+00	 9.984951538461534e+00
0	 8.437500000000000e+00	 2.250000000000000e+00	 9.986679907692304e+00
0	 8.437500000000000e+00	 2.312500000000001e+00	 9.988409015384608e+00
0	 8.437500000000000e+00	 2.375000000000000e+00	 9.990138861538458e+00
0	 8.437500000000000e+00	 2.437500000000000e+00	 9.991869446153842e+00
0	 8.437500000000000e+00	 2.500000000000000e+00	 9.993600769230763e+00
0	 8.500000000000000e+00	 1.875000000000000e+00	 9.969945538461532e+00
0	 8.499999999999998e+00	 1.937500000000000e+00	 9.971709978461540e+00
0	 8.500000000000000e+00	 2.000000000000000e+00	 9.973474621538454e+00
0	 8.499999999999998e+00	 2.062500000000000e+00	 9.975239467692303e+00
0	 8.499999999999998e+00	 2.125000000000000e+00	 9.977004516923074e+00
0	 8.500000000000000e+00	 2.187500000000000e+00	 9.978769769230777e+00
0	 8.499999999999998e+00	 2.250000000000000e+00	 9.980535224615377e+00
0	 8.499999999999998e+00	 2.312500000000000e+00	 9.982300883076920e+00
0	 8.499999999999998e+00	 2.375000000000001e+00	 9.984066744615372e+00
0	 8.499999999999996e+00	 2.437500000000000e+00	 9.985832809230766e+00
0	 8.500000000000000e+00	 2.500000000000000e+00	 9.987599076923068e+00
0	 8.562499999999998e+00	 1.875000000000000e+00	 9.963525076923080e+00
0	 8.562499999999998e+00	 1.937500000000000e+00	 9.965334449230770e+00
0	 8.562500000000000e+00	 2.000000000000001e+00	 9.967143489230773e+00
0	 8.562499999999998e+00	 2.062500000000000e+00	 9.968952196923077e+00
0	 8.562500000000000e+00	 2.125000000000001e+00	 9.970760572307684e+00
0	 8.562500000000000e+00	 2.187500000000000e+00	 9.972568615384608e+00
0	 8.562499999999998e+00	 2.250000000000000e+00	 9.974376326153843e+00
0	 8.562500000000000e+00	 2.312500000000001e+00	 9.976183704615387e+00
0	 8.562499999999998e+00	 2.375000000000000e+00	 9.977990750769230e+00
0	 8.562500000000000e+00	 2.437500000000000e+00	 9.979797464615382e+00
0	 8.562499999999998e+00	 2.500000000000000e+00	 9.981603846153849e+00
0	 8.624999999999998e+00	 1.875000000000000e+00	 9.957059384615384e+00
0	 8.624999999999998e+00	 1.937500000000000e+00	 9.958918858461534e+00
0	 8.624999999999996e+00	 2.000000000000000e+00	 9.960777464615379e+00
0	 8.624999999999998e+00	 2.062500000000000e+00	 9.962635203076918e+00
0	 8.625000000000000e+00	 2.125000000000000e+00	 9.964492073846147e+00
0	 8.624999999999996e+00	 2.187500000000000e+00	 9.966348076923069e+00
0	 8.624999999999998e+00	 2.250000000000000e+00	 9.968203212307690e+00
0	 8.624999999999998e+00	 2.312500000000000e+00	 9.970057479999992e+00
0	 8.624999999999998e+00	 2.375000000000000e+00	 9.971910879999994e+00
0	 8.624999999999998e+00	 2.437500000000001e+00	 9.973763412307683e+00
0	 8.624999999999998e+00	 2.500000000000000e+00	 9.975615076923070e+00
0	 8.687499999999998e+00	 1.875000000000000e+00	 9.950548461538462e+00
0	 8.687500000000000e+00	 1.937500000000000e+00	 9.952463206153855e+00
0	 8.687499999999998e+00	 2.000000000000000e+00	 9.954376547692309e+00
0	 8.687499999999996e+00	 2.062500000000000e+00	 9.956288486153841e+00
0	 8.687499999999998e+00	 2.125000000000000e+00	 9.958199021538464e+00
0	 8.687499999999998e+00	 2.187500000000000e+00	 9.960108153846157e+00
0	 8.687499999999998e+00	 2.250000000000000e+00	 9.962015883076917e+00
0	 8.687499999999998e+00	 2.312500000000000e+00	 9.963922209230766e+00
0	 8.687499999999996e+00	 2.375000000000000e+00	 9.965827132307691e+00
0	 8.687499999999996e+00	 2.437500000000000e+00	 9.967730652307676e+00
0	 8.687499999999998e+00	 2.500000000000000e+00	 9.969632769230763e+00
0	 8.750000000000000e+00	 1.875000000000000e+00	 9.943992307692307e+00
0	 8.750000000000000e+00	 1.937500000000000e+00	 9.945967492307689e+00
0	 8.750000000000000e+00	 2.000000000000000e+00	 9.947940738461538e+00
0	 8.750000000000004e+00	 2.062500000000000e+00	 9.949912046153838e+00
0	 8.750000000000000e+00	 2.125000000000000e+00	 9.951881415384619e+00
0	 8.750000000000002e+00	 2.187500000000000e+00	 9.953848846153846e+00
0	 8.750000000000000e+00	 2.250000000000000e+00	 9.955814338461529e+00
0	 8.750000000000000e+00	 2.312500000000000e+00	 9.957777892307689e+00
0	 8.750000000000002e+00	 2.375000000000001e+00	 9.959739507692303e+00
0	 8.750000000000000e+00	 2.437500000000001e+00	 9.961699184615391e+00
0	 8.750000000000000e+00	 2.500000000000000e+00	 9.963656923076920e+00
0	 8.125000000000000e+00	 2.500000000000000e+00	 1.002370615384615e+01
0	 8.125000000000000e+00	 2.562500000000000e+00	 1.002505190769231e+01
0	 8.125000000000002e+00	 2.625000000000000e+00	 1.002642055384616e+01
0	 8.125000000000000e+00	 2.687499999999999e+00	 1.002781209230769e+01
0	 8.125000000000000e+00	 2.750000000000000e+00	 1.002922652307692e+01
0	 8.125000000000000e+00	 2.812499999999999e+00	 1.003066384615384e+01
0	 8.125000000000000e+00	 2.874999999999999e+00	 1.003212406153845e+01
0	 8.125000000000000e+00	 2.937499999999998e+00	 1.003360716923077e+01
0	 8.125000000000000e+00	 2.999999999999998e+00	 1.003511316923077e+01
0	 8.125000000000000e+00	 3.062499999999998e+00	 1.003664206153847e+01
0	 8.125000000000000e+00	 3.125000000000000e+00	 1.003819384615385e+01
0	 8.187500000000002e+00	 2.500000000000000e+00	 1.001767215384615e+01
0	 8.187500000000000e+00	 2.562500000000000e+00	 1.001905219076922e+01
0	 8.187500000000000e+00	 2.624999999999999e+00	 1.002045390153846e+01
0	 8.187500000000000e+00	 2.687499999999999e+00	 1.002187728615385e+01
0	 8.187500000000000e+00	 2.750000000000000e+00	 1.002332234461539e+01
0	 8.187500000000000e+00	 2.812499999999999e+00	 1.002478907692308e+01
0	 8.187500000000002e+00	 2.875000000000000e+00	 1.002627748307692e+01
0	 8.187500000000002e+00	 2.937499999999999e+00	 1.002778756307692e+01
0	 8.187500000000002e+00	 2.999999999999999e+00	 1.002931931692308e+01
0	 8.187499999999998e+00	 3.062499999999997e+00	 1.003087274461537e+01
0	 8.187500000000002e+00	 3.125000000000000e+00	 1.003244784615384e+01
0	 8.250000000000000e+00	 2.500000000000000e+00	 1.001164461538462e+01
0	 8.250000000000000e+00	 2.562500000000000e+00	 1.001306367384615e+01
0	 8.250000000000002e+00	 2.625000000000000e+00	 1.001450318769230e+01
0	 8.250000000000000e+00	 2.687500000000000e+00	 1.001596315692307e+01
0	 8.249999999999998e+00	 2.749999999999999e+00	 1.001744358153845e+01
0	 8.250000000000000e+00	 2.812499999999999e+00	 1.001894446153847e+01
0	 8.249999999999998e+00	 2.874999999999999e+00	 1.002046579692307e+01
0	 8.250000000000004e+00	 2.937499999999999e+00	 1.002200758769231e+01
0	 8.249999999999998e+00	 2.999999999999998e+00	 1.002356983384615e+01
0	 8.250000000000000e+00	 3.062499999999999e+00	 1.002515253538461e+01
0	 8.250000000000000e+00	 3.125000000000000e+00	 1.002675569230770e+01
0	 8.312500000000000e+00	 2.500000000000000e+00	 1.000562353846154e+01
0	 8.312500000000000e+00	 2.562500000000000e+00	 1.000708635692307e+01
0	 8.312500000000002e+00	 2.625000000000000e+00	 1.000856841230770e+01
0	 8.312500000000000e+00	 2.687499999999999e+00	 1.001006970461538e+01
0	 8.312500000000000e+00	 2.749999999999999e+00	 1.001159023384615e+01
0	 8.312500000000000e+00	 2.812499999999999e+00	 1.001312999999999e+01
0	 8.312500000000002e+00	 2.874999999999999e+00	 1.001468900307692e+01
0	 8.312500000000000e+00	 2.937499999999999e+00	 1.001626724307691e+01
0	 8.312500000000000e+00	 2.999999999999999e+00	 1.001786472000000e+01
0	 8.312499999999998e+00	 3.062499999999998e+00	 1.001948143384615e+01
0	 8.312500000000000e+00	 3.125000000000000e+00	 1.002111738461538e+01
0	 8.374999999999998e+00	 2.500000000000000e+00	 9.999608923076925e+00
0	 8.374999999999998e+00	 2.562500000000000e+00	 1.000112023999999e+01
0	 8.375000000000000e+00	 2.625000000000000e+00	 1.000264957538462e+01
0	 8.374999999999998e+00	 2.687500000000000e+00	 1.000419692923076e+01
0	 8.374999999999998e+00	 2.750000000000000e+00	 1.000576230153846e+01
0	 8.375000000000000e+00	 2.812499999999999e+00	 1.000734569230769e+01
0	 8.374999999999998e+00	 2.874999999999999e+00	 1.000894710153845e+01
0	 8.374999999999998e+00	 2.937499999999998e+00	 1.001056652923077e+01
0	 8.375000000000000e+00	 2.999999999999999e+00	 1.001220397538462e+01
0	 8.374999999999998e+00	 3.062499999999998e+00	 1.001385944000000e+01
0	 8.374999999999998e+00	 3.125000000000000e+00	 1.001553292307693e+01
0	 8.437500000000000e+00	 2.500000000000000e+00	 9.993600769230763e+00
0	 8.437499999999998e+00	 2.562499999999999e+00	 9.995165323076922e+00
0	 8.437499999999998e+00	 2.625000000000000e+00	 9.996746676923074e+00
0	 8.437500000000000e+00	 2.687500000000000e+00	 9.998344830769229e+00
0	 8.437499999999998e+00	 2.749999999999999e+00	 9.999959784615378e+00
0	 8.437500000000000e+00	 2.812499999999999e+00	 1.000159153846154e+01
0	 8.437500000000002e+00	 2.874999999999999e+00	 1.000324009230769e+01
0	 8.437499999999998e+00	 2.937499999999998e+00	 1.000490544615385e+01
0	 8.437500000000000e+00	 2.999999999999998e+00	 1.000658760000000e+01
0	 8.437500000000000e+00	 3.062499999999998e+00	 1.000828655384614e+01
0	 8.437500000000000e+00	 3.125000000000000e+00	 1.001000230769231e+01
0	 8.500000000000000e+00	 2.500000000000000e+00	 9.987599076923068e+00
0	 8.500000000000000e+00	 2.562500000000000e+00	 9.989221606153841e+00
0	 8.499999999999998e+00	 2.625000000000000e+00	 9.990859716923072e+00
0	 8.500000000000000e+00	 2.687500000000000e+00	 9.992513409230764e+00
0	 8.500000000000002e+00	 2.750000000000000e+00	 9.994182683076918e+00
0	 8.500000000000002e+00	 2.812500000000000e+00	 9.995867538461543e+00
0	 8.499999999999998e+00	 2.874999999999999e+00	 9.997567975384611e+00
0	 8.500000000000000e+00	 2.937499999999999e+00	 9.999283993846152e+00
0	 8.499999999999998e+00	 2.999999999999999e+00	 1.000101559384615e+01
0	 8.500000000000000e+00	 3.062499999999998e+00	 1.000276277538462e+01
0	 8.500000000000000e+00	 3.125000000000000e+00	 1.000452553846154e+01
0	 8.562499999999998e+00	 2.500000000000000e+00	 9.981603846153849e+00
0	 8.562499999999998e+00	 2.562500000000000e+00	 9.983289089230761e+00
0	 8.562500000000000e+00	 2.625000000000000e+00	 9.984988695384605e+00
0	 8.562499999999998e+00	 2.687500000000000e+00	 9.986702664615379e+00
0	 8.562499999999998e+00	 2.749999999999999e+00	 9.988430996923071e+00
0	 8.562499999999998e+00	 2.812499999999999e+00	 9.990173692307685e+00
0	 8.562500000000000e+00	 2.874999999999999e+00	 9.991930750769228e+00
0	 8.562500000000000e+00	 2.937499999999998e+00	 9.993702172307687e+00
0	 8.562500000000000e+00	 2.999999999999998e+00	 9.995487956923075e+00
0	 8.562500000000000e+00	 3.062499999999998e+00	 9.997288104615382e+00
0	 8.562499999999998e+00	 3.125000000000000e+00	 9.999102615384608e+00
0	 8.624999999999998e+00	 2.500000000000000e+00	 9.975615076923070e+00
0	 8.625000000000000e+00	 2.562500000000001e+00	 9.977367772307689e+00
0	 8.625000000000000e+00	 2.625000000000000e+00	 9.979133612307688e+00
0	 8.625000000000000e+00	 2.687500000000000e+00	 9.980912596923069e+00
0	 8.625000000000000e+00	 2.749999999999999e+00	 9.982704726153841e+00
0	 8.624999999999998e+00	 2.812499999999999e+00	 9.984510000000006e+00
0	 8.625000000000000e+00	 2.874999999999999e+00	 9.986328418461527e+00
0	 8.624999999999996e+00	 2.937499999999998e+00	 9.988159981538457e+00
0	 8.625000000000000e+00	 2.999999999999998e+00	 9.990004689230769e+00
0	 8.624999999999998e+00	 3.062499999999998e+00	 9.991862541538456e+00
0	 8.624999999999998e+00	 3.125000000000000e+00	 9.993733538461536e+00
0	 8.687499999999998e+00	 2.500000000000000e+00	 9.969632769230763e+00
0	 8.687499999999998e+00	 2.562500000000000e+00	 9.971457655384608e+00
0	 8.687500000000000e+00	 2.625000000000000e+00	 9.973294467692300e+00
0	 8.687499999999998e+00	 2.687500000000000e+00	 9.975143206153842e+00
0	 8.687499999999996e+00	 2.749999999999999e+00	 9.977003870769231e+00
0	 8.687499999999998e+00	 2.812499999999999e+00	 9.978876461538457e+00
0	 8.687499999999998e+00	 2.874999999999999e+00	 9.980760978461539e+00
0	 8.687499999999998e+00	 2.937499999999998e+00	 9.982657421538450e+00
0	 8.687499999999998e+00	 2.999999999999998e+00	 9.984565790769231e+00
0	 8.687499999999998e+00	 3.062499999999998e+00	 9.986486086153841e+00
0	 8.687499999999998e+00	 3.125000000000000e+00	 9.988418307692303e+00
0	 8.750000000000000e+00	 2.500000000000000e+00	 9.963656923076920e+00
0	 8.750000000000000e+00	 2.562500000000000e+00	 9.965558738461553e+00
0	 8.750000000000002e+00	 2.625000000000000e+00	 9.967471261538464e+00
0	 8.750000000000000e+00	 2.687499999999999e+00	 9.969394492307684e+00
0	 8.750000000000000e+00	 2.750000000000000e+00	 9.971328430769226e+00
0	 8.750000000000000e+00	 2.812499999999999e+00	 9.973273076923078e+00
0	 8.750000000000000e+00	 2.874999999999999e+00	 9.975228430769228e+00
0	 8.750000000000000e+00	 2.937499999999998e+00	 9.977194492307692e+00
0	 8.750000000000000e+00	 2.999999999999998e+00	 9.979171261538458e+00
0	 8.750000000000000e+00	 3.062499999999998e+00	 9.981158738461541e+00
0	 8.750000000000000e+00	 3.125000000000000e+00	 9.983156923076923e+00
0	 8.125000000000000e+00	 3.125000000000000e+00	 1.003819384615385e+01
0	 8.125000000000000e+00	 3.187500000000000e+00	 1.003909184615383e+01
0	 8.125000000000002e+00	 3.250000000000000e+00	 1.004002492307692e+01
0	 8.125000000000000e+00	 3.312499999999999e+00	 1.004099307692308e+01
0	 8.125000000000000e+00	 3.374999999999999e+00	 1.004199630769230e+01
0	 8.125000000000000e+00	 3.437499999999999e+00	 1.004303461538460e+01
0	 8.125000000000000e+00	 3.499999999999999e+00	 1.004410800000000e+01
0	 8.125000000000000e+00	 3.562499999999998e+00	 1.004521646153845e+01
0	 8.125000000000000e+00	 3.624999999999999e+00	 1.004636000000000e+01
0	 8.125000000000000e+00	 3.687499999999998e+00	 1.004753861538460e+01
0	 8.125000000000000e+00	 3.750000000000000e+00	 1.004875230769230e+01
0	 8.187500000000002e+00	 3.125000000000000e+00	 1.003244784615384e+01
0	 8.187500000000000e+00	 3.187500000000000e+00	 1.003340549846154e+01
0	 8.187500000000000e+00	 3.250000000000000e+00	 1.003439660307692e+01
0	 8.187500000000000e+00	 3.312499999999999e+00	 1.003542116000000e+01
0	 8.187500000000000e+00	 3.374999999999999e+00	 1.003647916923077e+01
0	 8.187500000000000e+00	 3.437499999999999e+00	 1.003757063076922e+01
0	 8.187500000000002e+00	 3.500000000000000e+00	 1.003869554461538e+01
0	 8.187500000000002e+00	 3.562499999999999e+00	 1.003985391076923e+01
0	 8.187500000000002e+00	 3.625000000000000e+00	 1.004104572923078e+01
0	 8.187499999999998e+00	 3.687499999999997e+00	 1.004227099999998e+01
0	 8.187500000000002e+00	 3.750000000000000e+00	 1.004352972307693e+01
0	 8.250000000000000e+00	 3.125000000000000e+00	 1.002675569230770e+01
0	 8.250000000000000e+00	 3.187500000000000e+00	 1.002777571076923e+01
0	 8.250000000000002e+00	 3.250000000000000e+00	 1.002882755692307e+01
0	 8.250000000000000e+00	 3.312500000000000e+00	 1.002991123076923e+01
0	 8.249999999999998e+00	 3.374999999999999e+00	 1.003102673230769e+01
0	 8.250000000000000e+00	 3.437499999999999e+00	 1.003217406153846e+01
0	 8.249999999999998e+00	 3.499999999999997e+00	 1.003335321846154e+01
0	 8.250000000000004e+00	 3.562499999999999e+00	 1.003456420307692e+01
0	 8.249999999999998e+00	 3.624999999999998e+00	 1.003580701538461e+01
0	 8.250000000000000e+00	 3.687499999999999e+00	 1.003708165538463e+01
0	 8.250000000000000e+00	 3.750000000000000e+00	 1.003838812307692e+01
0	 8.312500000000000e+00	 3.125000000000000e+00	 1.002111738461538e+01
0	 8.312500000000000e+00	 3.187500000000000e+00	 1.002220248307692e+01
0	 8.312500000000002e+00	 3.250000000000000e+00	 1.002331778461539e+01
0	 8.312500000000000e+00	 3.312500000000000e+00	 1.002446328923077e+01
0	 8.312500000000000e+00	 3.374999999999999e+00	 1.002563899692308e+01
0	 8.312500000000000e+00	 3.437499999999999e+00	 1.002684490769230e+01
0	 8.312500000000002e+00	 3.499999999999998e+00	 1.002808102153847e+01
0	 8.312500000000000e+00	 3.562499999999998e+00	 1.002934733846152e+01
0	 8.312500000000000e+00	 3.624999999999998e+00	 1.003064385846154e+01
0	 8.312499999999998e+00	 3.687499999999998e+00	 1.003197058153846e+01
0	 8.312500000000000e+00	 3.750000000000000e+00	 1.003332750769230e+01
0	 8.374999999999998e+00	 3.125000000000000e+00	 1.001553292307693e+01
0	 8.374999999999998e+00	 3.187500000000000e+00	 1.001668581538462e+01
0	 8.375000000000000e+00	 3.250000000000000e+00	 1.001786728615385e+01
0	 8.374999999999998e+00	 3.312500000000000e+00	 1.001907733538461e+01
0	 8.374999999999998e+00	 3.374999999999999e+00	 1.002031596307692e+01
0	 8.375000000000000e+00	 3.437499999999999e+00	 1.002158316923077e+01
0	 8.374999999999998e+00	 3.499999999999998e+00	 1.002287895384615e+01
0	 8.374999999999998e+00	 3.562499999999998e+00	 1.002420331692307e+01
0	 8.375000000000000e+00	 3.624999999999999e+00	 1.002555625846153e+01
0	 8.374999999999998e+00	 3.687499999999998e+00	 1.002693777846153e+01
0	 8.374999999999998e+00	 3.750000000000000e+00	 1.002834787692307e+01
0	 8.437500000000000e+00	 3.125000000000000e+00	 1.001000230769231e+01
0	 8.437499999999998e+00	 3.187500000000000e+00	 1.001122570769230e+01
0	 8.437499999999998e+00	 3.250000000000000e+00	 1.001247606153847e+01
0	 8.437500000000000e+00	 3.312500000000000e+00	 1.001375336923076e+01
0	 8.437499999999998e+00	 3.374999999999998e+00	 1.001505763076923e+01
0	 8.437500000000000e+00	 3.437499999999999e+00	 1.001638884615384e+01
0	 8.437500000000002e+00	 3.499999999999999e+00	 1.001774701538460e+01
0	 8.437499999999998e+00	 3.562499999999999e+00	 1.001913213846153e+01
0	 8.437500000000000e+00	 3.624999999999998e+00	 1.002054421538462e+01
0	 8.437500000000000e+00	 3.687499999999999e+00	 1.002198324615384e+01
0	 8.437500000000000e+00	 3.750000000000000e+00	 1.002344923076923e+01
0	 8.500000000000000e+00	 3.125000000000000e+00	 1.000452553846154e+01
0	 8.500000000000000e+00	 3.187500000000000e+00	 1.000582216000001e+01
0	 8.499999999999998e+00	 3.249999999999999e+00	 1.000714411076922e+01
0	 8.500000000000000e+00	 3.312499999999999e+00	 1.000849139076923e+01
0	 8.500000000000002e+00	 3.375000000000000e+00	 1.000986400000000e+01
0	 8.500000000000002e+00	 3.437500000000000e+00	 1.001126193846154e+01
0	 8.499999999999998e+00	 3.499999999999999e+00	 1.001268520615385e+01
0	 8.500000000000000e+00	 3.562499999999999e+00	 1.001413380307691e+01
0	 8.499999999999998e+00	 3.624999999999999e+00	 1.001560772923076e+01
0	 8.500000000000000e+00	 3.687499999999998e+00	 1.001710698461539e+01
0	 8.500000000000000e+00	 3.750000000000000e+00	 1.001863156923076e+01
0	 8.562499999999998e+00	 3.125000000000000e+00	 9.999102615384608e+00
0	 8.562499999999998e+00	 3.187500000000000e+00	 1.000047517230770e+01
0	 8.562500000000000e+00	 3.250000000000000e+00	 1.000187143384615e+01
0	 8.562499999999998e+00	 3.312500000000000e+00	 1.000329140000000e+01
0	 8.562499999999998e+00	 3.374999999999999e+00	 1.000473507076923e+01
0	 8.562499999999998e+00	 3.437499999999999e+00	 1.000620244615384e+01
0	 8.562500000000000e+00	 3.499999999999999e+00	 1.000769352615384e+01
0	 8.562500000000000e+00	 3.562499999999999e+00	 1.000920831076922e+01
0	 8.562500000000000e+00	 3.624999999999998e+00	 1.001074680000000e+01
0	 8.562500000000000e+00	 3.687499999999999e+00	 1.001230899384615e+01
0	 8.562499999999998e+00	 3.750000000000000e+00	 1.001389489230769e+01
0	 8.624999999999998e+00	 3.125000000000000e+00	 9.993733538461536e+00
0	 8.625000000000000e+00	 3.187500000000001e+00	 9.995184744615383e+00
0	 8.625000000000000e+00	 3.250000000000000e+00	 9.996658030769224e+00
0	 8.625000000000000e+00	 3.312500000000000e+00	 9.998153396923064e+00
0	 8.625000000000000e+00	 3.374999999999999e+00	 9.999670843076920e+00
0	 8.624999999999998e+00	 3.437499999999999e+00	 1.000121036923077e+01
0	 8.625000000000000e+00	 3.499999999999998e+00	 1.000277197538461e+01
0	 8.624999999999996e+00	 3.562499999999998e+00	 1.000435566153845e+01
0	 8.625000000000000e+00	 3.624999999999998e+00	 1.000596142769231e+01
0	 8.624999999999998e+00	 3.687499999999998e+00	 1.000758927384615e+01
0	 8.624999999999998e+00	 3.750000000000000e+00	 1.000923920000000e+01
0	 8.687499999999998e+00	 3.125000000000000e+00	 9.988418307692303e+00
0	 8.687499999999998e+00	 3.187500000000000e+00	 9.989950876923073e+00
0	 8.687500000000000e+00	 3.250000000000000e+00	 9.991503901538458e+00
0	 8.687499999999998e+00	 3.312500000000000e+00	 9.993077381538452e+00
0	 8.687499999999996e+00	 3.374999999999999e+00	 9.994671316923064e+00
0	 8.687499999999998e+00	 3.437500000000000e+00	 9.996285707692298e+00
0	 8.687499999999998e+00	 3.499999999999998e+00	 9.997920553846143e+00
0	 8.687499999999998e+00	 3.562499999999998e+00	 9.999575855384606e+00
0	 8.687499999999998e+00	 3.624999999999998e+00	 1.000125161230769e+01
0	 8.687499999999998e+00	 3.687499999999997e+00	 1.000294782461538e+01
0	 8.687499999999998e+00	 3.750000000000000e+00	 1.000466449230768e+01
0	 8.750000000000000e+00	 3.125000000000000e+00	 9.983156923076923e+00
0	 8.750000000000000e+00	 3.187500000000000e+00	 9.984773569230759e+00
0	 8.750000000000002e+00	 3.250000000000000e+00	 9.986409046153835e+00
0	 8.750000000000000e+00	 3.312499999999999e+00	 9.988063353846153e+00
0	 8.750000000000000e+00	 3.374999999999999e+00	 9.989736492307689e+00
0	 8.750000000000000e+00	 3.437499999999999e+00	 9.991428461538451e+00
0	 8.750000000000000e+00	 3.499999999999999e+00	 9.993139261538461e+00
0	 8.750000000000000e+00	 3.562499999999998e+00	 9.994868892307693e+00
0	 8.750000000000000e+00	 3.624999999999999e+00	 9.996617353846148e+00
0	 8.750000000000000e+00	 3.687499999999998e+00	 9.998384646153829e+00
0	 8.750000000000000e+00	 3.750000000000000e+00	 1.000017076923076e+01
0	 8.125000000000000e+00	 3.750000000000000e+00	 1.004875230769230e+01
0	 8.125000000000000e+00	 3.812500000000000e+00	 1.004915487692308e+01
0	 8.125000000000002e+00	 3.875000000000000e+00	 1.004959520000000e+01
0	 8.125000000000000e+00	 3.937499999999999e+00	 1.005007327692308e+01
0	 8.125000000000000e+00	 4.000000000000000e+00	 1.005058910769231e+01
0	 8.125000000000000e+00	 4.062499999999999e+00	 1.005114269230770e+01
0	 8.125000000000000e+00	 4.124999999999999e+00	 1.005173403076923e+01
0	 8.125000000000000e+00	 4.187499999999998e+00	 1.005236312307693e+01
0	 8.125000000000000e+00	 4.249999999999998e+00	 1.005302996923078e+01
0	 8.125000000000000e+00	 4.312499999999998e+00	 1.005373456923078e+01
0	 8.125000000000000e+00	 4.375000000000000e+00	 1.005447692307693e+01
0	 8.187500000000002e+00	 3.750000000000000e+00	 1.004352972307693e+01
0	 8.187500000000000e+00	 3.812500000000000e+00	 1.004400462923077e+01
0	 8.187500000000000e+00	 3.875000000000000e+00	 1.004451580307692e+01
0	 8.187500000000000e+00	 3.937500000000000e+00	 1.004506324461539e+01
0	 8.187500000000000e+00	 3.999999999999999e+00	 1.004564695384616e+01
0	 8.187500000000000e+00	 4.062499999999999e+00	 1.004626693076924e+01
0	 8.187500000000002e+00	 4.125000000000000e+00	 1.004692317538461e+01
0	 8.187500000000002e+00	 4.187500000000000e+00	 1.004761568769231e+01
0	 8.187500000000002e+00	 4.250000000000000e+00	 1.004834446769231e+01
0	 8.187499999999998e+00	 4.312499999999997e+00	 1.004910951538462e+01
0	 8.187500000000002e+00	 4.375000000000000e+00	 1.004991083076924e+01
0	 8.250000000000000e+00	 3.750000000000000e+00	 1.003838812307692e+01
0	 8.250000000000000e+00	 3.812500000000000e+00	 1.003893678769231e+01
0	 8.250000000000002e+00	 3.875000000000000e+00	 1.003952023384615e+01
0	 8.250000000000000e+00	 3.937500000000000e+00	 1.004013846153846e+01
0	 8.249999999999998e+00	 3.999999999999999e+00	 1.004079147076923e+01
0	 8.250000000000000e+00	 4.062499999999999e+00	 1.004147926153846e+01
0	 8.249999999999998e+00	 4.124999999999997e+00	 1.004220183384617e+01
0	 8.250000000000004e+00	 4.187499999999998e+00	 1.004295918769231e+01
0	 8.249999999999998e+00	 4.249999999999998e+00	 1.004375132307692e+01
0	 8.250000000000000e+00	 4.312499999999998e+00	 1.004457824000002e+01
0	 8.250000000000000e+00	 4.375000000000000e+00	 1.004543993846153e+01
0	 8.312500000000000e+00	 3.750000000000000e+00	 1.003332750769230e+01
0	 8.312500000000000e+00	 3.812500000000000e+00	 1.003395135230769e+01
0	 8.312500000000002e+00	 3.875000000000000e+00	 1.003460849230768e+01
0	 8.312500000000000e+00	 3.937500000000000e+00	 1.003529892769231e+01
0	 8.312500000000000e+00	 3.999999999999999e+00	 1.003602265846154e+01
0	 8.312500000000000e+00	 4.062500000000000e+00	 1.003677968461538e+01
0	 8.312500000000002e+00	 4.124999999999998e+00	 1.003757000615385e+01
0	 8.312500000000000e+00	 4.187499999999999e+00	 1.003839362307692e+01
0	 8.312500000000000e+00	 4.249999999999998e+00	 1.003925053538460e+01
0	 8.312499999999998e+00	 4.312499999999997e+00	 1.004014074307694e+01
0	 8.312500000000000e+00	 4.375000000000000e+00	 1.004106424615385e+01
0	 8.374999999999998e+00	 3.750000000000000e+00	 1.002834787692307e+01
0	 8.374999999999998e+00	 3.812500000000000e+00	 1.002904832307691e+01
0	 8.375000000000000e+00	 3.875000000000000e+00	 1.002978057846153e+01
0	 8.374999999999998e+00	 3.937500000000000e+00	 1.003054464307691e+01
0	 8.374999999999998e+00	 3.999999999999999e+00	 1.003134051692308e+01
0	 8.375000000000000e+00	 4.062499999999999e+00	 1.003216820000000e+01
0	 8.374999999999998e+00	 4.124999999999998e+00	 1.003302769230769e+01
0	 8.374999999999998e+00	 4.187499999999999e+00	 1.003391899384615e+01
0	 8.375000000000000e+00	 4.249999999999998e+00	 1.003484210461538e+01
0	 8.374999999999998e+00	 4.312499999999998e+00	 1.003579702461538e+01
0	 8.374999999999998e+00	 4.375000000000000e+00	 1.003678375384617e+01
0	 8.437500000000000e+00	 3.750000000000000e+00	 1.002344923076923e+01
0	 8.437499999999998e+00	 3.812500000000000e+00	 1.002422770000000e+01
0	 8.437499999999998e+00	 3.875000000000000e+00	 1.002503649230769e+01
0	 8.437500000000000e+00	 3.937499999999999e+00	 1.002587560769231e+01
0	 8.437499999999998e+00	 3.999999999999998e+00	 1.002674504615384e+01
0	 8.437500000000000e+00	 4.062499999999999e+00	 1.002764480769231e+01
0	 8.437500000000002e+00	 4.125000000000000e+00	 1.002857489230768e+01
0	 8.437499999999998e+00	 4.187499999999998e+00	 1.002953530000000e+01
0	 8.437500000000000e+00	 4.249999999999998e+00	 1.003052603076922e+01
0	 8.437500000000000e+00	 4.312499999999998e+00	 1.003154708461537e+01
0	 8.437500000000000e+00	 4.375000000000000e+00	 1.003259846153847e+01
0	 8.500000000000000e+00	 3.750000000000000e+00	 1.001863156923076e+01
0	 8.500000000000000e+00	 3.812500000000000e+00	 1.001948948307693e+01
0	 8.499999999999998e+00	 3.874999999999999e+00	 1.002037623384614e+01
0	 8.500000000000000e+00	 3.937500000000000e+00	 1.002129182153846e+01
0	 8.500000000000002e+00	 4.000000000000000e+00	 1.002223624615384e+01
0	 8.500000000000002e+00	 4.062500000000000e+00	 1.002320950769232e+01
0	 8.499999999999998e+00	 4.124999999999999e+00	 1.002421160615384e+01
0	 8.500000000000000e+00	 4.187499999999998e+00	 1.002524254153846e+01
0	 8.499999999999998e+00	 4.249999999999999e+00	 1.002630231384615e+01
0	 8.500000000000000e+00	 4.312499999999997e+00	 1.002739092307692e+01
0	 8.500000000000000e+00	 4.375000000000000e+00	 1.002850836923077e+01
0	 8.562499999999998e+00	 3.750000000000000e+00	 1.001389489230769e+01
0	 8.562499999999998e+00	 3.812500000000000e+00	 1.001483367230770e+01
0	 8.562500000000000e+00	 3.875000000000000e+00	 1.001579980307692e+01
0	 8.562499999999998e+00	 3.937499999999999e+00	 1.001679328461538e+01
0	 8.562499999999998e+00	 3.999999999999999e+00	 1.001781411692308e+01
0	 8.562499999999998e+00	 4.062500000000000e+00	 1.001886230000000e+01
0	 8.562500000000000e+00	 4.124999999999999e+00	 1.001993783384615e+01
0	 8.562500000000000e+00	 4.187499999999999e+00	 1.002104071846155e+01
0	 8.562500000000000e+00	 4.249999999999998e+00	 1.002217095384615e+01
0	 8.562500000000000e+00	 4.312499999999998e+00	 1.002332854000001e+01
0	 8.562499999999998e+00	 4.375000000000000e+00	 1.002451347692308e+01
0	 8.624999999999998e+00	 3.750000000000000e+00	 1.000923920000000e+01
0	 8.625000000000000e+00	 3.812500000000000e+00	 1.001026026769231e+01
0	 8.625000000000000e+00	 3.875000000000000e+00	 1.001130719999999e+01
0	 8.625000000000000e+00	 3.937500000000000e+00	 1.001237999692307e+01
0	 8.625000000000000e+00	 3.999999999999999e+00	 1.001347865846154e+01
0	 8.624999999999998e+00	 4.062499999999998e+00	 1.001460318461539e+01
0	 8.625000000000000e+00	 4.124999999999999e+00	 1.001575357538462e+01
0	 8.624999999999996e+00	 4.187499999999998e+00	 1.001692983076923e+01
0	 8.625000000000000e+00	 4.249999999999998e+00	 1.001813195076924e+01
0	 8.624999999999998e+00	 4.312499999999998e+00	 1.001935993538461e+01
0	 8.624999999999998e+00	 4.375000000000000e+00	 1.002061378461539e+01
0	 8.687499999999998e+00	 3.750000000000000e+00	 1.000466449230768e+01
0	 8.687499999999998e+00	 3.812500000000000e+00	 1.000576926923076e+01
0	 8.687500000000000e+00	 3.875000000000000e+00	 1.000689842461538e+01
0	 8.687499999999998e+00	 3.937499999999999e+00	 1.000805195846154e+01
0	 8.687499999999996e+00	 3.999999999999999e+00	 1.000922987076922e+01
0	 8.687499999999998e+00	 4.062499999999998e+00	 1.001043216153846e+01
0	 8.687499999999998e+00	 4.124999999999998e+00	 1.001165883076922e+01
0	 8.687499999999998e+00	 4.187499999999998e+00	 1.001290987846154e+01
0	 8.687499999999998e+00	 4.249999999999998e+00	 1.001418530461538e+01
0	 8.687499999999998e+00	 4.312499999999998e+00	 1.001548510923077e+01
0	 8.687499999999998e+00	 4.375000000000000e+00	 1.001680929230769e+01
0	 8.750000000000000e+00	 3.750000000000000e+00	 1.000017076923076e+01
0	 8.750000000000000e+00	 3.812500000000000e+00	 1.000136067692310e+01
0	 8.750000000000002e+00	 3.875000000000000e+00	 1.000257347692308e+01
0	 8.750000000000000e+00	 3.937499999999999e+00	 1.000380916923076e+01
0	 8.750000000000000e+00	 4.000000000000000e+00	 1.000506775384616e+01
0	 8.750000000000000e+00	 4.062499999999999e+00	 1.000634923076923e+01
0	 8.750000000000000e+00	 4.124999999999999e+00	 1.000765360000000e+01
0	 8.750000000000000e+00	 4.187499999999998e+00	 1.000898086153845e+01
0	 8.750000000000000e+00	 4.249999999999998e+00	 1.001033101538461e+01
0	 8.750000000000000e+00	 4.312499999999998e+00	 1.001170406153847e+01
0	 8.750000000000000e+00	 4.375000000000000e+00	 1.001310000000000e+01
0	 8.125000000000000e+00	 4.375000000000000e+00	 1.005447692307693e+01
0	 8.125000000000000e+00	 4.437499999999999e+00	 1.005439710769232e+01
0	 8.125000000000002e+00	 4.500000000000001e+00	 1.005435181538462e+01
0	 8.125000000000000e+00	 4.562499999999999e+00	 1.005434104615386e+01
0	 8.125000000000000e+00	 4.625000000000000e+00	 1.005436480000000e+01
0	 8.125000000000000e+00	 4.687499999999999e+00	 1.005442307692307e+01
0	 8.125000000000000e+00	 4.749999999999999e+00	 1.005451587692308e+01
0	 8.125000000000000e+00	 4.812499999999998e+00	 1.005464320000000e+01
0	 8.125000000000000e+00	 4.874999999999998e+00	 1.005480504615385e+01
0	 8.125000000000000e+00	 4.937499999999998e+00	 1.005500141538461e+01
0	 8.125000000000000e+00	 5.000000000000000e+00	 1.005523230769231e+01
0	 8.187500000000002e+00	 4.375000000000000e+00	 1.004991083076924e+01
0	 8.187500000000000e+00	 4.437500000000000e+00	 1.004991249538460e+01
0	 8.187500000000000e+00	 4.499999999999999e+00	 1.004994745538461e+01
0	 8.187500000000000e+00	 4.562499999999999e+00	 1.005001571076923e+01
0	 8.187500000000000e+00	 4.625000000000000e+00	 1.005011726153847e+01
0	 8.187500000000000e+00	 4.687500000000001e+00	 1.005025210769231e+01
0	 8.187500000000002e+00	 4.749999999999999e+00	 1.005042024923078e+01
0	 8.187500000000002e+00	 4.812499999999999e+00	 1.005062168615385e+01
0	 8.187500000000002e+00	 4.875000000000000e+00	 1.005085641846155e+01
0	 8.187499999999998e+00	 4.937499999999997e+00	 1.005112444615384e+01
0	 8.187500000000002e+00	 4.999999999999999e+00	 1.005142576923078e+01
0	 8.250000000000000e+00	 4.375000000000000e+00	 1.004543993846153e+01
0	 8.250000000000000e+00	 4.437500000000000e+00	 1.004552271692308e+01
0	 8.250000000000002e+00	 4.500000000000001e+00	 1.004563756307692e+01
0	 8.250000000000000e+00	 4.562499999999999e+00	 1.004578447692308e+01
0	 8.249999999999998e+00	 4.624999999999998e+00	 1.004596345846154e+01
0	 8.250000000000000e+00	 4.687499999999997e+00	 1.004617450769232e+01
0	 8.249999999999998e+00	 4.749999999999998e+00	 1.004641762461539e+01
0	 8.250000000000004e+00	 4.812499999999999e+00	 1.004669280923078e+01
0	 8.249999999999998e+00	 4.874999999999998e+00	 1.004700006153847e+01
0	 8.250000000000000e+00	 4.937499999999998e+00	 1.004733938153846e+01
0	 8.250000000000000e+00	 5.000000000000000e+00	 1.004771076923079e+01
0	 8.312500000000000e+00	 4.375000000000000e+00	 1.004106424615385e+01
0	 8.312500000000000e+00	 4.437500000000000e+00	 1.004122777230769e+01
0	 8.312500000000002e+00	 4.500000000000000e+00	 1.004142213846154e+01
0	 8.312500000000000e+00	 4.562499999999999e+00	 1.004164734461538e+01
0	 8.312500000000000e+00	 4.625000000000000e+00	 1.004190339076924e+01
0	 8.312500000000000e+00	 4.687499999999999e+00	 1.004219027692307e+01
0	 8.312500000000002e+00	 4.749999999999998e+00	 1.004250800307692e+01
0	 8.312500000000000e+00	 4.812499999999998e+00	 1.004285656923078e+01
0	 8.312500000000000e+00	 4.874999999999998e+00	 1.004323597538463e+01
0	 8.312499999999998e+00	 4.937499999999997e+00	 1.004364622153846e+01
0	 8.312500000000000e+00	 4.999999999999999e+00	 1.004408730769231e+01
0	 8.374999999999998e+00	 4.375000000000000e+00	 1.003678375384617e+01
0	 8.374999999999998e+00	 4.437500000000000e+00	 1.003702766153847e+01
0	 8.375000000000000e+00	 4.500000000000000e+00	 1.003730118153846e+01
0	 8.374999999999998e+00	 4.562499999999999e+00	 1.003760431384616e+01
0	 8.374999999999998e+00	 4.624999999999999e+00	 1.003793705846154e+01
0	 8.375000000000000e+00	 4.687500000000000e+00	 1.003829941538462e+01
0	 8.374999999999998e+00	 4.749999999999998e+00	 1.003869138461539e+01
0	 8.374999999999998e+00	 4.812499999999999e+00	 1.003911296615385e+01
0	 8.375000000000000e+00	 4.874999999999998e+00	 1.003956416000000e+01
0	 8.374999999999998e+00	 4.937499999999997e+00	 1.004004496615383e+01
0	 8.374999999999998e+00	 5.000000000000000e+00	 1.004055538461539e+01
0	 8.437500000000000e+00	 4.375000000000000e+00	 1.003259846153847e+01
0	 8.437499999999998e+00	 4.437499999999999e+00	 1.003292238461538e+01
0	 8.437499999999998e+00	 4.499999999999999e+00	 1.003327469230770e+01
0	 8.437500000000000e+00	 4.562499999999999e+00	 1.003365538461538e+01
0	 8.437499999999998e+00	 4.624999999999998e+00	 1.003406446153846e+01
0	 8.437500000000000e+00	 4.687499999999999e+00	 1.003450192307692e+01
0	 8.437500000000002e+00	 4.750000000000000e+00	 1.003496776923078e+01
0	 8.437499999999998e+00	 4.812499999999998e+00	 1.003546200000000e+01
0	 8.437500000000000e+00	 4.874999999999998e+00	 1.003598461538462e+01
0	 8.437500000000000e+00	 4.937499999999999e+00	 1.003653561538462e+01
0	 8.437500000000000e+00	 5.000000000000000e+00	 1.003711500000000e+01
0	 8.500000000000000e+00	 4.375000000000000e+00	 1.002850836923077e+01
0	 8.500000000000000e+00	 4.437499999999999e+00	 1.002891194153846e+01
0	 8.499999999999998e+00	 4.499999999999998e+00	 1.002934267076922e+01
0	 8.500000000000000e+00	 4.562499999999999e+00	 1.002980055692307e+01
0	 8.500000000000002e+00	 4.625000000000001e+00	 1.003028560000000e+01
0	 8.500000000000002e+00	 4.687499999999999e+00	 1.003079780000000e+01
0	 8.499999999999998e+00	 4.749999999999998e+00	 1.003133715692308e+01
0	 8.500000000000000e+00	 4.812499999999999e+00	 1.003190367076924e+01
0	 8.499999999999998e+00	 4.874999999999998e+00	 1.003249734153848e+01
0	 8.500000000000000e+00	 4.937499999999999e+00	 1.003311816923077e+01
0	 8.500000000000000e+00	 5.000000000000001e+00	 1.003376615384616e+01
0	 8.562499999999998e+00	 4.375000000000000e+00	 1.002451347692308e+01
0	 8.562499999999998e+00	 4.437499999999999e+00	 1.002499633230770e+01
0	 8.562500000000000e+00	 4.500000000000000e+00	 1.002550511692306e+01
0	 8.562499999999998e+00	 4.562499999999999e+00	 1.002603983076923e+01
0	 8.562499999999998e+00	 4.625000000000000e+00	 1.002660047384615e+01
0	 8.562499999999998e+00	 4.687500000000000e+00	 1.002718704615384e+01
0	 8.562500000000000e+00	 4.749999999999999e+00	 1.002779954769230e+01
0	 8.562500000000000e+00	 4.812499999999999e+00	 1.002843797846155e+01
0	 8.562500000000000e+00	 4.874999999999998e+00	 1.002910233846153e+01
0	 8.562500000000000e+00	 4.937499999999999e+00	 1.002979262769232e+01
0	 8.562499999999998e+00	 4.999999999999999e+00	 1.003050884615386e+01
0	 8.624999999999998e+00	 4.375000000000000e+00	 1.002061378461539e+01
0	 8.625000000000000e+00	 4.437500000000001e+00	 1.002117555692307e+01
0	 8.625000000000000e+00	 4.499999999999999e+00	 1.002176203076922e+01
0	 8.625000000000000e+00	 4.562500000000000e+00	 1.002237320615384e+01
0	 8.625000000000000e+00	 4.624999999999999e+00	 1.002300908307692e+01
0	 8.624999999999998e+00	 4.687499999999998e+00	 1.002366966153847e+01
0	 8.625000000000000e+00	 4.749999999999999e+00	 1.002435494153846e+01
0	 8.624999999999996e+00	 4.812499999999998e+00	 1.002506492307693e+01
0	 8.625000000000000e+00	 4.874999999999999e+00	 1.002579960615384e+01
0	 8.624999999999998e+00	 4.937499999999998e+00	 1.002655899076922e+01
0	 8.624999999999998e+00	 5.000000000000000e+00	 1.002734307692308e+01
0	 8.687499999999998e+00	 4.375000000000000e+00	 1.001680929230769e+01
0	 8.687499999999998e+00	 4.437500000000000e+00	 1.001744961538460e+01
0	 8.687500000000000e+00	 4.500000000000000e+00	 1.001811341230769e+01
0	 8.687499999999998e+00	 4.562500000000000e+00	 1.001880068307691e+01
0	 8.687499999999996e+00	 4.624999999999999e+00	 1.001951142769230e+01
0	 8.687499999999998e+00	 4.687499999999999e+00	 1.002024564615385e+01
0	 8.687499999999998e+00	 4.749999999999999e+00	 1.002100333846154e+01
0	 8.687499999999998e+00	 4.812499999999998e+00	 1.002178450461538e+01
0	 8.687499999999998e+00	 4.874999999999999e+00	 1.002258914461539e+01
0	 8.687499999999998e+00	 4.937499999999998e+00	 1.002341725846155e+01
0	 8.687499999999998e+00	 5.000000000000000e+00	 1.002426884615385e+01
0	 8.750000000000000e+00	 4.375000000000000e+00	 1.001310000000000e+01
0	 8.750000000000000e+00	 4.437499999999999e+00	 1.001381850769231e+01
0	 8.750000000000002e+00	 4.500000000000001e+00	 1.001455926153845e+01
0	 8.750000000000000e+00	 4.562499999999999e+00	 1.001532226153846e+01
0	 8.750000000000000e+00	 4.625000000000000e+00	 1.001610750769230e+01
0	 8.750000000000000e+00	 4.687499999999999e+00	 1.001691500000000e+01
0	 8.750000000000000e+00	 4.749999999999999e+00	 1.001774473846154e+01
0	 8.750000000000000e+00	 4.812499999999998e+00	 1.001859672307693e+01
0	 8.750000000000000e+00	 4.874999999999998e+00	 1.001947095384616e+01
0	 8.750000000000000e+00	 4.937499999999998e+00	 1.002036743076922e+01
0	 8.750000000000000e+00	 5.000000000000000e+00	 1.002128615384616e+01
0	 8.125000000000000e+00	 5.000000000000000e+00	 1.005523230769231e+01
0	 8.125000000000000e+00	 5.062500000000000e+00	 1.005475844615386e+01
0	 8.125000000000002e+00	 5.125000000000001e+00	 1.005431163076923e+01
0	 8.125000000000000e+00	 5.187499999999999e+00	 1.005389186153845e+01
0	 8.125000000000000e+00	 5.249999999999999e+00	 1.005349913846154e+01
0	 8.125000000000000e+00	 5.312499999999999e+00	 1.005313346153846e+01
0	 8.125000000000000e+00	 5.374999999999998e+00	 1.005279483076922e+01
0	 8.125000000000000e+00	 5.437499999999998e+00	 1.005248324615384e+01
0	 8.125000000000000e+00	 5.499999999999998e+00	 1.005219870769231e+01
0	 8.125000000000000e+00	 5.562499999999998e+00	 1.005194121538460e+01
0	 8.125000000000000e+00	 5.625000000000000e+00	 1.005171076923076e+01
0	 8.187500000000002e+00	 4.999999999999999e+00	 1.005142576923078e+01
0	 8.187500000000000e+00	 5.062500000000000e+00	 1.005103104307693e+01
0	 8.187500000000000e+00	 5.125000000000000e+00	 1.005066255076923e+01
0	 8.187500000000000e+00	 5.187499999999999e+00	 1.005032029230770e+01
0	 8.187500000000000e+00	 5.249999999999998e+00	 1.005000426769231e+01
0	 8.187500000000000e+00	 5.312500000000000e+00	 1.004971447692308e+01
0	 8.187500000000002e+00	 5.374999999999999e+00	 1.004945091999999e+01
0	 8.187500000000002e+00	 5.437499999999999e+00	 1.004921359692307e+01
0	 8.187500000000002e+00	 5.499999999999999e+00	 1.004900250769230e+01
0	 8.187499999999998e+00	 5.562499999999996e+00	 1.004881765230768e+01
0	 8.187500000000002e+00	 5.625000000000000e+00	 1.004865903076923e+01
0	 8.250000000000000e+00	 5.000000000000000e+00	 1.004771076923079e+01
0	 8.250000000000000e+00	 5.062499999999999e+00	 1.004739401538462e+01
0	 8.250000000000002e+00	 5.125000000000001e+00	 1.004710268307692e+01
0	 8.250000000000000e+00	 5.187499999999998e+00	 1.004683677230769e+01
0	 8.249999999999998e+00	 5.249999999999999e+00	 1.004659628307693e+01
0	 8.250000000000000e+00	 5.312499999999999e+00	 1.004638121538461e+01
0	 8.249999999999998e+00	 5.374999999999999e+00	 1.004619156923078e+01
0	 8.250000000000004e+00	 5.437499999999999e+00	 1.004602734461539e+01
0	 8.249999999999998e+00	 5.499999999999998e+00	 1.004588854153846e+01
0	 8.250000000000000e+00	 5.562499999999999e+00	 1.004577515999998e+01
0	 8.250000000000000e+00	 5.625000000000000e+00	 1.004568720000000e+01
0	 8.312500000000000e+00	 4.999999999999999e+00	 1.004408730769231e+01
0	 8.312500000000000e+00	 5.062500000000001e+00	 1.004384736307692e+01
0	 8.312500000000002e+00	 5.125000000000000e+00	 1.004363202769231e+01
0	 8.312500000000000e+00	 5.187499999999999e+00	 1.004344130153847e+01
0	 8.312500000000000e+00	 5.250000000000000e+00	 1.004327518461538e+01
0	 8.312500000000000e+00	 5.312499999999999e+00	 1.004313367692307e+01
0	 8.312500000000002e+00	 5.374999999999998e+00	 1.004301677846153e+01
0	 8.312500000000000e+00	 5.437499999999999e+00	 1.004292448923076e+01
0	 8.312500000000000e+00	 5.499999999999998e+00	 1.004285680923076e+01
0	 8.312499999999998e+00	 5.562499999999997e+00	 1.004281373846152e+01
0	 8.312500000000000e+00	 5.625000000000000e+00	 1.004279527692305e+01
0	 8.374999999999998e+00	 5.000000000000000e+00	 1.004055538461539e+01
0	 8.374999999999998e+00	 5.062500000000000e+00	 1.004039108615384e+01
0	 8.375000000000000e+00	 5.125000000000000e+00	 1.004025058461538e+01
0	 8.374999999999998e+00	 5.187500000000000e+00	 1.004013388000000e+01
0	 8.374999999999998e+00	 5.249999999999999e+00	 1.004004097230769e+01
0	 8.375000000000000e+00	 5.312499999999999e+00	 1.003997186153847e+01
0	 8.374999999999998e+00	 5.374999999999998e+00	 1.003992654769231e+01
0	 8.374999999999998e+00	 5.437499999999999e+00	 1.003990503076924e+01
0	 8.375000000000000e+00	 5.499999999999999e+00	 1.003990731076923e+01
0	 8.374999999999998e+00	 5.562499999999998e+00	 1.003993338769231e+01
0	 8.374999999999998e+00	 5.625000000000000e+00	 1.003998326153844e+01
0	 8.437500000000000e+00	 5.000000000000000e+00	 1.003711500000000e+01
0	 8.437499999999998e+00	 5.062500000000000e+00	 1.003702518461539e+01
0	 8.437499999999998e+00	 5.124999999999999e+00	 1.003695835384616e+01
0	 8.437500000000000e+00	 5.187500000000000e+00	 1.003691450769231e+01
0	 8.437499999999998e+00	 5.249999999999998e+00	 1.003689364615385e+01
0	 8.437500000000000e+00	 5.312499999999999e+00	 1.003689576923077e+01
0	 8.437500000000002e+00	 5.375000000000000e+00	 1.003692087692307e+01
0	 8.437499999999998e+00	 5.437499999999998e+00	 1.003696896923077e+01
0	 8.437500000000000e+00	 5.499999999999998e+00	 1.003704004615384e+01
0	 8.437500000000000e+00	 5.562499999999999e+00	 1.003713410769231e+01
0	 8.437500000000000e+00	 5.625000000000000e+00	 1.003725115384613e+01
0	 8.500000000000000e+00	 5.000000000000001e+00	 1.003376615384616e+01
0	 8.500000000000000e+00	 5.062499999999999e+00	 1.003374965846154e+01
0	 8.499999999999998e+00	 5.125000000000000e+00	 1.003375533538462e+01
0	 8.500000000000000e+00	 5.187500000000000e+00	 1.003378318461539e+01
0	 8.500000000000002e+00	 5.250000000000001e+00	 1.003383320615384e+01
0	 8.500000000000002e+00	 5.312500000000001e+00	 1.003390540000001e+01
0	 8.499999999999998e+00	 5.374999999999999e+00	 1.003399976615385e+01
0	 8.500000000000000e+00	 5.437499999999999e+00	 1.003411630461538e+01
0	 8.499999999999998e+00	 5.499999999999998e+00	 1.003425501538461e+01
0	 8.500000000000000e+00	 5.562499999999998e+00	 1.003441589846154e+01
0	 8.500000000000000e+00	 5.625000000000000e+00	 1.003459895384615e+01
0	 8.562499999999998e+00	 4.999999999999999e+00	 1.003050884615386e+01
0	 8.562499999999998e+00	 5.062500000000000e+00	 1.003056450769230e+01
0	 8.562500000000000e+00	 5.125000000000000e+00	 1.003064152923076e+01
0	 8.562499999999998e+00	 5.187500000000000e+00	 1.003073991076922e+01
0	 8.562499999999998e+00	 5.250000000000000e+00	 1.003085965230769e+01
0	 8.562499999999998e+00	 5.312500000000000e+00	 1.003100075384616e+01
0	 8.562500000000000e+00	 5.374999999999999e+00	 1.003116321538461e+01
0	 8.562500000000000e+00	 5.437499999999998e+00	 1.003134703692306e+01
0	 8.562500000000000e+00	 5.499999999999998e+00	 1.003155221846152e+01
0	 8.562500000000000e+00	 5.562499999999999e+00	 1.003177875999998e+01
0	 8.562499999999998e+00	 5.625000000000000e+00	 1.003202666153846e+01
0	 8.624999999999998e+00	 5.000000000000000e+00	 1.002734307692308e+01
0	 8.625000000000000e+00	 5.062500000000002e+00	 1.002746973230770e+01
0	 8.625000000000000e+00	 5.124999999999999e+00	 1.002761693538462e+01
0	 8.625000000000000e+00	 5.187500000000000e+00	 1.002778468615386e+01
0	 8.625000000000000e+00	 5.249999999999998e+00	 1.002797298461539e+01
0	 8.624999999999998e+00	 5.312499999999999e+00	 1.002818183076924e+01
0	 8.625000000000000e+00	 5.374999999999998e+00	 1.002841122461538e+01
0	 8.624999999999996e+00	 5.437499999999998e+00	 1.002866116615384e+01
0	 8.625000000000000e+00	 5.499999999999999e+00	 1.002893165538463e+01
0	 8.624999999999998e+00	 5.562499999999998e+00	 1.002922269230768e+01
0	 8.624999999999998e+00	 5.625000000000000e+00	 1.002953427692308e+01
0	 8.687499999999998e+00	 5.000000000000000e+00	 1.002426884615385e+01
0	 8.687499999999998e+00	 5.062500000000000e+00	 1.002446533230769e+01
0	 8.687500000000000e+00	 5.125000000000001e+00	 1.002468155384615e+01
0	 8.687499999999998e+00	 5.187499999999999e+00	 1.002491751076922e+01
0	 8.687499999999996e+00	 5.249999999999999e+00	 1.002517320307692e+01
0	 8.687499999999998e+00	 5.312499999999998e+00	 1.002544863076923e+01
0	 8.687499999999998e+00	 5.374999999999997e+00	 1.002574379384615e+01
0	 8.687499999999998e+00	 5.437499999999998e+00	 1.002605869230770e+01
0	 8.687499999999998e+00	 5.499999999999999e+00	 1.002639332615385e+01
0	 8.687499999999998e+00	 5.562499999999998e+00	 1.002674769538460e+01
0	 8.687499999999998e+00	 5.625000000000000e+00	 1.002712179999998e+01
0	 8.750000000000000e+00	 5.000000000000000e+00	 1.002128615384616e+01
0	 8.750000000000000e+00	 5.062500000000000e+00	 1.002155130769233e+01
0	 8.750000000000002e+00	 5.125000000000001e+00	 1.002183538461539e+01
0	 8.750000000000000e+00	 5.187499999999999e+00	 1.002213838461537e+01
0	 8.750000000000000e+00	 5.249999999999999e+00	 1.002246030769230e+01
0	 8.750000000000000e+00	 5.312499999999999e+00	 1.002280115384615e+01
0	 8.750000000000000e+00	 5.374999999999998e+00	 1.002316092307692e+01
0	 8.750000000000000e+00	 5.437499999999998e+00	 1.002353961538461e+01
0	 8.750000000000000e+00	 5.499999999999998e+00	 1.002393723076924e+01
0	 8.750000000000000e+00	 5.562499999999998e+00	 1.002435376923076e+01
0	 8.750000000000000e+00	 5.625000000000000e+00	 1.002478923076923e+01
0	 8.125000000000000e+00	 5.625000000000000e+00	 1.005171076923076e+01
0	 8.125000000000000e+00	 5.687500000000000e+00	 1.005094607692307e+01
0	 8.125000000000002e+00	 5.750000000000000e+00	 1.005019938461537e+01
0	 8.125000000000000e+00	 5.812499999999999e+00	 1.004947069230770e+01
0	 8.125000000000000e+00	 5.874999999999999e+00	 1.004876000000000e+01
0	 8.125000000000000e+00	 5.937499999999999e+00	 1.004806730769230e+01
0	 8.125000000000000e+00	 5.999999999999998e+00	 1.004739261538463e+01
0	 8.125000000000000e+00	 6.062499999999998e+00	 1.004673592307692e+01
0	 8.125000000000000e+00	 6.124999999999998e+00	 1.004609723076924e+01
0	 8.125000000000000e+00	 6.187499999999998e+00	 1.004547653846154e+01
0	 8.125000000000000e+00	 6.250000000000000e+00	 1.004487384615385e+01
0	 8.187500000000002e+00	 5.625000000000000e+00	 1.004865903076923e+01
0	 8.187500000000000e+00	 5.687499999999999e+00	 1.004796839384615e+01
0	 8.187500000000000e+00	 5.749999999999999e+00	 1.004729532307692e+01
0	 8.187500000000000e+00	 5.812499999999998e+00	 1.004663981846154e+01
0	 8.187500000000000e+00	 5.875000000000000e+00	 1.004600188000000e+01
0	 8.187500000000000e+00	 5.937500000000001e+00	 1.004538150769230e+01
0	 8.187500000000002e+00	 5.999999999999999e+00	 1.004477870153847e+01
0	 8.187500000000002e+00	 6.062500000000000e+00	 1.004419346153845e+01
0	 8.187500000000002e+00	 6.125000000000000e+00	 1.004362578769231e+01
0	 8.187499999999998e+00	 6.187499999999996e+00	 1.004307568000000e+01
0	 8.187500000000002e+00	 6.250000000000000e+00	 1.004254313846153e+01
0	 8.250000000000000e+00	 5.625000000000000e+00	 1.004568720000000e+01
0	 8.250000000000000e+00	 5.687499999999999e+00	 1.004506870153846e+01
0	 8.250000000000002e+00	 5.750000000000002e+00	 1.004446733538460e+01
0	 8.250000000000000e+00	 5.812499999999999e+00	 1.004388310153845e+01
0	 8.249999999999998e+00	 5.874999999999998e+00	 1.004331600000000e+01
0	 8.250000000000000e+00	 5.937499999999999e+00	 1.004276603076922e+01
0	 8.249999999999998e+00	 5.999999999999998e+00	 1.004223319384615e+01
0	 8.250000000000004e+00	 6.062499999999999e+00	 1.004171748923077e+01
0	 8.249999999999998e+00	 6.124999999999998e+00	 1.004121891692307e+01
0	 8.250000000000000e+00	 6.187499999999998e+00	 1.004073747692308e+01
0	 8.250000000000000e+00	 6.250000000000000e+00	 1.004027316923078e+01
0	 8.312500000000000e+00	 5.625000000000000e+00	 1.004279527692305e+01
0	 8.312500000000000e+00	 5.687500000000000e+00	 1.004224699999999e+01
0	 8.312500000000002e+00	 5.749999999999999e+00	 1.004171542153844e+01
0	 8.312500000000000e+00	 5.812499999999999e+00	 1.004120054153846e+01
0	 8.312500000000000e+00	 5.875000000000000e+00	 1.004070236000000e+01
0	 8.312500000000000e+00	 5.937500000000000e+00	 1.004022087692307e+01
0	 8.312500000000002e+00	 5.999999999999998e+00	 1.003975609230769e+01
0	 8.312500000000000e+00	 6.062499999999998e+00	 1.003930800615385e+01
0	 8.312500000000000e+00	 6.124999999999997e+00	 1.003887661846153e+01
0	 8.312499999999998e+00	 6.187499999999997e+00	 1.003846192923080e+01
0	 8.312500000000000e+00	 6.250000000000000e+00	 1.003806393846154e+01
0	 8.374999999999998e+00	 5.625000000000000e+00	 1.003998326153844e+01
0	 8.374999999999998e+00	 5.687500000000000e+00	 1.003950328923076e+01
0	 8.375000000000000e+00	 5.750000000000000e+00	 1.003903958153846e+01
0	 8.374999999999998e+00	 5.812500000000000e+00	 1.003859213846154e+01
0	 8.374999999999998e+00	 5.874999999999999e+00	 1.003816095999999e+01
0	 8.375000000000000e+00	 5.937499999999999e+00	 1.003774604615385e+01
0	 8.374999999999998e+00	 5.999999999999997e+00	 1.003734739692308e+01
0	 8.374999999999998e+00	 6.062499999999998e+00	 1.003696501230770e+01
0	 8.375000000000000e+00	 6.124999999999999e+00	 1.003659889230770e+01
0	 8.374999999999998e+00	 6.187499999999998e+00	 1.003624903692309e+01
0	 8.374999999999998e+00	 6.250000000000000e+00	 1.003591544615385e+01
0	 8.437500000000000e+00	 5.625000000000000e+00	 1.003725115384613e+01
0	 8.437499999999998e+00	 5.687500000000000e+00	 1.003683756923077e+01
0	 8.437499999999998e+00	 5.750000000000000e+00	 1.003643981538461e+01
0	 8.437500000000000e+00	 5.812500000000000e+00	 1.003605789230769e+01
0	 8.437499999999998e+00	 5.874999999999998e+00	 1.003569180000001e+01
0	 8.437500000000000e+00	 5.937499999999998e+00	 1.003534153846154e+01
0	 8.437500000000002e+00	 6.000000000000000e+00	 1.003500710769230e+01
0	 8.437499999999998e+00	 6.062499999999998e+00	 1.003468850769232e+01
0	 8.437500000000000e+00	 6.124999999999998e+00	 1.003438573846155e+01
0	 8.437500000000000e+00	 6.187499999999999e+00	 1.003409880000000e+01
0	 8.437500000000000e+00	 6.250000000000000e+00	 1.003382769230771e+01
0	 8.500000000000000e+00	 5.625000000000000e+00	 1.003459895384615e+01
0	 8.500000000000000e+00	 5.687499999999999e+00	 1.003424983999999e+01
0	 8.499999999999998e+00	 5.750000000000000e+00	 1.003391612307691e+01
0	 8.500000000000000e+00	 5.812499999999999e+00	 1.003359780307690e+01
0	 8.500000000000002e+00	 5.875000000000001e+00	 1.003329488000000e+01
0	 8.500000000000002e+00	 5.937499999999999e+00	 1.003300735384615e+01
0	 8.499999999999998e+00	 5.999999999999998e+00	 1.003273522461539e+01
0	 8.500000000000000e+00	 6.062499999999999e+00	 1.003247849230770e+01
0	 8.499999999999998e+00	 6.124999999999998e+00	 1.003223715692308e+01
0	 8.500000000000000e+00	 6.187499999999998e+00	 1.003201121846153e+01
0	 8.500000000000000e+00	 6.250000000000000e+00	 1.003180067692308e+01
0	 8.562499999999998e+00	 5.625000000000000e+00	 1.003202666153846e+01
0	 8.562499999999998e+00	 5.687500000000000e+00	 1.003174010153845e+01
0	 8.562500000000000e+00	 5.750000000000000e+00	 1.003146850461537e+01
0	 8.562499999999998e+00	 5.812499999999999e+00	 1.003121187076923e+01
0	 8.562499999999998e+00	 5.874999999999999e+00	 1.003097020000000e+01
0	 8.562499999999998e+00	 5.937500000000001e+00	 1.003074349230770e+01
0	 8.562500000000000e+00	 5.999999999999999e+00	 1.003053174769231e+01
0	 8.562500000000000e+00	 6.062499999999999e+00	 1.003033496615385e+01
0	 8.562500000000000e+00	 6.124999999999999e+00	 1.003015314769230e+01
0	 8.562500000000000e+00	 6.187499999999999e+00	 1.002998629230770e+01
0	 8.562499999999998e+00	 6.250000000000000e+00	 1.002983440000002e+01
0	 8.624999999999998e+00	 5.625000000000000e+00	 1.002953427692308e+01
0	 8.625000000000000e+00	 5.687500000000000e+00	 1.002930835384615e+01
0	 8.625000000000000e+00	 5.750000000000000e+00	 1.002909696000000e+01
0	 8.625000000000000e+00	 5.812499999999999e+00	 1.002890009538461e+01
0	 8.625000000000000e+00	 5.875000000000000e+00	 1.002871776000000e+01
0	 8.624999999999998e+00	 5.937500000000000e+00	 1.002854995384615e+01
0	 8.625000000000000e+00	 5.999999999999998e+00	 1.002839667692308e+01
0	 8.624999999999996e+00	 6.062499999999998e+00	 1.002825792923077e+01
0	 8.625000000000000e+00	 6.124999999999999e+00	 1.002813371076923e+01
0	 8.624999999999998e+00	 6.187499999999998e+00	 1.002802402153848e+01
0	 8.624999999999998e+00	 6.250000000000000e+00	 1.002792886153846e+01
0	 8.687499999999998e+00	 5.625000000000000e+00	 1.002712179999998e+01
0	 8.687499999999998e+00	 5.687500000000000e+00	 1.002695459692307e+01
0	 8.687500000000000e+00	 5.750000000000000e+00	 1.002680148923076e+01
0	 8.687499999999998e+00	 5.812499999999999e+00	 1.002666247692307e+01
0	 8.687499999999996e+00	 5.875000000000000e+00	 1.002653756000000e+01
0	 8.687499999999998e+00	 5.937499999999999e+00	 1.002642673846153e+01
0	 8.687499999999998e+00	 5.999999999999998e+00	 1.002633001230769e+01
0	 8.687499999999998e+00	 6.062499999999998e+00	 1.002624738153847e+01
0	 8.687499999999998e+00	 6.124999999999998e+00	 1.002617884615385e+01
0	 8.687499999999998e+00	 6.187499999999997e+00	 1.002612440615386e+01
0	 8.687499999999998e+00	 6.250000000000000e+00	 1.002608406153847e+01
0	 8.750000000000000e+00	 5.625000000000000e+00	 1.002478923076923e+01
0	 8.750000000000000e+00	 5.687500000000000e+00	 1.002467883076924e+01
0	 8.750000000000002e+00	 5.750000000000000e+00	 1.002458209230769e+01
0	 8.750000000000000e+00	 5.812499999999999e+00	 1.002449901538463e+01
0	 8.750000000000000e+00	 5.874999999999999e+00	 1.002442960000000e+01
0	 8.750000000000000e+00	 5.937499999999999e+00	 1.002437384615384e+01
0	 8.750000000000000e+00	 5.999999999999998e+00	 1.002433175384617e+01
0	 8.750000000000000e+00	 6.062499999999998e+00	 1.002430332307693e+01
0	 8.750000000000000e+00	 6.124999999999998e+00	 1.002428855384616e+01
0	 8.750000000000000e+00	 6.187499999999998e+00	 1.002428744615386e+01
0	 8.750000000000000e+00	 6.250000000000000e+00	 1.002430000000000e+01
0	 8.125000000000000e+00	 6.250000000000000e+00	 1.004487384615385e+01
0	 8.125000000000000e+00	 6.312500000000000e+00	 1.004394278461539e+01
0	 8.125000000000002e+00	 6.375000000000000e+00	 1.004301975384615e+01
0	 8.125000000000000e+00	 6.437499999999999e+00	 1.004210475384615e+01
0	 8.125000000000000e+00	 6.499999999999999e+00	 1.004119778461539e+01
0	 8.125000000000000e+00	 6.562499999999998e+00	 1.004029884615384e+01
0	 8.125000000000000e+00	 6.624999999999998e+00	 1.003940793846153e+01
0	 8.125000000000000e+00	 6.687499999999998e+00	 1.003852506153846e+01
0	 8.125000000000000e+00	 6.749999999999998e+00	 1.003765021538461e+01
0	 8.125000000000000e+00	 6.812499999999998e+00	 1.003678339999999e+01
0	 8.125000000000000e+00	 6.875000000000000e+00	 1.003592461538461e+01
0	 8.187500000000002e+00	 6.250000000000000e+00	 1.004254313846153e+01
0	 8.187500000000000e+00	 6.312500000000000e+00	 1.004167694461538e+01
0	 8.187500000000000e+00	 6.374999999999999e+00	 1.004081877230768e+01
0	 8.187500000000000e+00	 6.437500000000000e+00	 1.003996862153847e+01
0	 8.187500000000000e+00	 6.499999999999997e+00	 1.003912649230769e+01
0	 8.187500000000000e+00	 6.562500000000000e+00	 1.003829238461538e+01
0	 8.187500000000002e+00	 6.624999999999999e+00	 1.003746629846154e+01
0	 8.187500000000002e+00	 6.687499999999999e+00	 1.003664823384616e+01
0	 8.187500000000002e+00	 6.749999999999999e+00	 1.003583819076922e+01
0	 8.187499999999998e+00	 6.812499999999996e+00	 1.003503616923076e+01
0	 8.187500000000002e+00	 6.875000000000001e+00	 1.003424216923077e+01
0	 8.250000000000000e+00	 6.250000000000000e+00	 1.004027316923078e+01
0	 8.250000000000000e+00	 6.312499999999999e+00	 1.003946971076925e+01
0	 8.250000000000002e+00	 6.375000000000000e+00	 1.003867426461539e+01
0	 8.250000000000000e+00	 6.437499999999998e+00	 1.003788683076923e+01
0	 8.249999999999998e+00	 6.499999999999996e+00	 1.003710740923077e+01
0	 8.250000000000000e+00	 6.562499999999998e+00	 1.003633599999999e+01
0	 8.249999999999998e+00	 6.624999999999996e+00	 1.003557260307692e+01
0	 8.250000000000004e+00	 6.687499999999999e+00	 1.003481721846154e+01
0	 8.249999999999998e+00	 6.749999999999997e+00	 1.003406984615384e+01
0	 8.250000000000000e+00	 6.812500000000000e+00	 1.003333048615382e+01
0	 8.250000000000000e+00	 6.875000000000000e+00	 1.003259913846152e+01
0	 8.312500000000000e+00	 6.250000000000000e+00	 1.003806393846154e+01
0	 8.312500000000000e+00	 6.312499999999999e+00	 1.003732108307694e+01
0	 8.312500000000002e+00	 6.375000000000000e+00	 1.003658623076923e+01
0	 8.312500000000000e+00	 6.437500000000000e+00	 1.003585938153845e+01
0	 8.312500000000000e+00	 6.499999999999998e+00	 1.003514053538462e+01
0	 8.312500000000000e+00	 6.562499999999999e+00	 1.003442969230768e+01
0	 8.312500000000002e+00	 6.624999999999999e+00	 1.003372685230768e+01
0	 8.312500000000000e+00	 6.687499999999998e+00	 1.003303201538459e+01
0	 8.312500000000000e+00	 6.749999999999998e+00	 1.003234518153846e+01
0	 8.312499999999998e+00	 6.812499999999997e+00	 1.003166635076922e+01
0	 8.312500000000000e+00	 6.874999999999999e+00	 1.003099552307691e+01
0	 8.374999999999998e+00	 6.250000000000000e+00	 1.003591544615385e+01
0	 8.374999999999998e+00	 6.312499999999999e+00	 1.003523106153847e+01
0	 8.375000000000000e+00	 6.375000000000000e+00	 1.003455467076924e+01
0	 8.374999999999998e+00	 6.437499999999999e+00	 1.003388627384615e+01
0	 8.374999999999998e+00	 6.499999999999997e+00	 1.003322587076924e+01
0	 8.375000000000000e+00	 6.562499999999999e+00	 1.003257346153845e+01
0	 8.374999999999998e+00	 6.624999999999998e+00	 1.003192904615383e+01
0	 8.374999999999998e+00	 6.687499999999998e+00	 1.003129262461537e+01
0	 8.375000000000000e+00	 6.749999999999998e+00	 1.003066419692306e+01
0	 8.374999999999998e+00	 6.812499999999998e+00	 1.003004376307692e+01
0	 8.374999999999998e+00	 6.875000000000001e+00	 1.002943132307690e+01
0	 8.437500000000000e+00	 6.250000000000000e+00	 1.003382769230771e+01
0	 8.437499999999998e+00	 6.312500000000000e+00	 1.003319964615387e+01
0	 8.437499999999998e+00	 6.375000000000000e+00	 1.003257958461537e+01
0	 8.437500000000000e+00	 6.437499999999999e+00	 1.003196750769231e+01
0	 8.437499999999998e+00	 6.499999999999997e+00	 1.003136341538461e+01
0	 8.437500000000000e+00	 6.562499999999999e+00	 1.003076730769232e+01
0	 8.437500000000002e+00	 6.625000000000000e+00	 1.003017918461538e+01
0	 8.437499999999998e+00	 6.687499999999999e+00	 1.002959904615385e+01
0	 8.437500000000000e+00	 6.749999999999999e+00	 1.002902689230768e+01
0	 8.437500000000000e+00	 6.812499999999998e+00	 1.002846272307690e+01
0	 8.437500000000000e+00	 6.875000000000000e+00	 1.002790653846153e+01
0	 8.500000000000000e+00	 6.250000000000000e+00	 1.003180067692308e+01
0	 8.500000000000000e+00	 6.312499999999999e+00	 1.003122683692308e+01
0	 8.499999999999998e+00	 6.374999999999997e+00	 1.003066097230768e+01
0	 8.500000000000000e+00	 6.437499999999999e+00	 1.003010308307691e+01
0	 8.500000000000002e+00	 6.500000000000000e+00	 1.002955316923077e+01
0	 8.500000000000002e+00	 6.562500000000001e+00	 1.002901123076922e+01
0	 8.499999999999998e+00	 6.624999999999998e+00	 1.002847726769231e+01
0	 8.500000000000000e+00	 6.687499999999999e+00	 1.002795127999999e+01
0	 8.499999999999998e+00	 6.749999999999999e+00	 1.002743326769228e+01
0	 8.500000000000000e+00	 6.812499999999998e+00	 1.002692323076922e+01
0	 8.500000000000000e+00	 6.875000000000000e+00	 1.002642116923074e+01
0	 8.562499999999998e+00	 6.250000000000000e+00	 1.002983440000002e+01
0	 8.562499999999998e+00	 6.312499999999999e+00	 1.002931263384614e+01
0	 8.562500000000000e+00	 6.375000000000001e+00	 1.002879883384615e+01
0	 8.562499999999998e+00	 6.437499999999999e+00	 1.002829299999999e+01
0	 8.562499999999998e+00	 6.500000000000000e+00	 1.002779513230769e+01
0	 8.562499999999998e+00	 6.562499999999999e+00	 1.002730523076924e+01
0	 8.562500000000000e+00	 6.624999999999999e+00	 1.002682329538461e+01
0	 8.562500000000000e+00	 6.687499999999999e+00	 1.002634932615386e+01
0	 8.562500000000000e+00	 6.749999999999998e+00	 1.002588332307691e+01
0	 8.562500000000000e+00	 6.812499999999999e+00	 1.002542528615385e+01
0	 8.562499999999998e+00	 6.875000000000000e+00	 1.002497521538462e+01
0	 8.624999999999998e+00	 6.250000000000000e+00	 1.002792886153846e+01
0	 8.625000000000000e+00	 6.312500000000001e+00	 1.002745703692308e+01
0	 8.625000000000000e+00	 6.374999999999999e+00	 1.002699316923077e+01
0	 8.625000000000000e+00	 6.437500000000000e+00	 1.002653725846154e+01
0	 8.625000000000000e+00	 6.499999999999999e+00	 1.002608930461539e+01
0	 8.624999999999998e+00	 6.562499999999999e+00	 1.002564930769230e+01
0	 8.625000000000000e+00	 6.624999999999998e+00	 1.002521726769231e+01
0	 8.624999999999996e+00	 6.687499999999998e+00	 1.002479318461538e+01
0	 8.625000000000000e+00	 6.749999999999998e+00	 1.002437705846152e+01
0	 8.624999999999998e+00	 6.812499999999998e+00	 1.002396888923075e+01
0	 8.624999999999998e+00	 6.875000000000000e+00	 1.002356867692308e+01
0	 8.687499999999998e+00	 6.250000000000000e+00	 1.002608406153847e+01
0	 8.687499999999998e+00	 6.312500000000000e+00	 1.002566004615386e+01
0	 8.687500000000000e+00	 6.375000000000000e+00	 1.002524397846155e+01
0	 8.687499999999998e+00	 6.437499999999999e+00	 1.002483585846153e+01
0	 8.687499999999996e+00	 6.499999999999998e+00	 1.002443568615385e+01
0	 8.687499999999998e+00	 6.562499999999998e+00	 1.002404346153846e+01
0	 8.687499999999998e+00	 6.624999999999998e+00	 1.002365918461538e+01
0	 8.687499999999998e+00	 6.687499999999998e+00	 1.002328285538462e+01
0	 8.687499999999998e+00	 6.749999999999999e+00	 1.002291447384614e+01
0	 8.687499999999998e+00	 6.812499999999997e+00	 1.002255404000002e+01
0	 8.687499999999998e+00	 6.875000000000000e+00	 1.002220155384616e+01
0	 8.750000000000000e+00	 6.250000000000000e+00	 1.002430000000000e+01
0	 8.750000000000000e+00	 6.312500000000000e+00	 1.002392166153848e+01
0	 8.750000000000002e+00	 6.375000000000000e+00	 1.002355126153848e+01
0	 8.750000000000000e+00	 6.437499999999999e+00	 1.002318879999999e+01
0	 8.750000000000000e+00	 6.499999999999999e+00	 1.002283427692308e+01
0	 8.750000000000000e+00	 6.562499999999998e+00	 1.002248769230769e+01
0	 8.750000000000000e+00	 6.624999999999998e+00	 1.002214904615385e+01
0	 8.750000000000000e+00	 6.687499999999998e+00	 1.002181833846154e+01
0	 8.750000000000000e+00	 6.749999999999998e+00	 1.002149556923078e+01
0	 8.750000000000000e+00	 6.812499999999998e+00	 1.002118073846153e+01
0	 8.750000000000000e+00	 6.875000000000000e+00	 1.002087384615384e+01
0	 8.125000000000000e+00	 6.875000000000000e+00	 1.003592461538461e+01
0	 8.125000000000000e+00	 6.937500000000000e+00	 1.003493659999999e+01
0	 8.125000000000002e+00	 7.000000000000000e+00	 1.003394701538459e+01
0	 8.125000000000000e+00	 7.062500000000000e+00	 1.003295586153846e+01
0	 8.125000000000000e+00	 7.125000000000000e+00	 1.003196313846153e+01
0	 8.125000000000000e+00	 7.187499999999998e+00	 1.003096884615384e+01
0	 8.125000000000000e+00	 7.249999999999998e+00	 1.002997298461538e+01
0	 8.125000000000000e+00	 7.312499999999998e+00	 1.002897555384614e+01
0	 8.125000000000000e+00	 7.374999999999998e+00	 1.002797655384615e+01
0	 8.125000000000000e+00	 7.437499999999998e+00	 1.002697598461538e+01
0	 8.125000000000000e+00	 7.500000000000000e+00	 1.002597384615385e+01
0	 8.187500000000002e+00	 6.875000000000001e+00	 1.003424216923077e+01
0	 8.187500000000000e+00	 6.937499999999999e+00	 1.003330901999998e+01
0	 8.187500000000000e+00	 6.999999999999999e+00	 1.003237456923078e+01
0	 8.187500000000000e+00	 7.062500000000000e+00	 1.003143881692307e+01
0	 8.187500000000000e+00	 7.124999999999998e+00	 1.003050176307693e+01
0	 8.187500000000000e+00	 7.187499999999999e+00	 1.002956340769230e+01
0	 8.187500000000002e+00	 7.250000000000000e+00	 1.002862375076923e+01
0	 8.187500000000002e+00	 7.312499999999999e+00	 1.002768279230769e+01
0	 8.187500000000002e+00	 7.374999999999999e+00	 1.002674053230768e+01
0	 8.187499999999998e+00	 7.437499999999996e+00	 1.002579697076923e+01
0	 8.187500000000002e+00	 7.500000000000000e+00	 1.002485210769230e+01
0	 8.250000000000000e+00	 6.875000000000000e+00	 1.003259913846152e+01
0	 8.250000000000000e+00	 6.937499999999999e+00	 1.003171887384615e+01
0	 8.250000000000002e+00	 7.000000000000001e+00	 1.003083757538460e+01
0	 8.250000000000000e+00	 7.062499999999999e+00	 1.002995524307691e+01
0	 8.249999999999998e+00	 7.124999999999998e+00	 1.002907187692306e+01
0	 8.250000000000000e+00	 7.187499999999999e+00	 1.002818747692306e+01
0	 8.249999999999998e+00	 7.249999999999996e+00	 1.002730204307693e+01
0	 8.250000000000004e+00	 7.312499999999998e+00	 1.002641557538461e+01
0	 8.249999999999998e+00	 7.374999999999997e+00	 1.002552807384614e+01
0	 8.250000000000000e+00	 7.437500000000000e+00	 1.002463953846154e+01
0	 8.250000000000000e+00	 7.499999999999999e+00	 1.002374996923075e+01
0	 8.312500000000000e+00	 6.874999999999999e+00	 1.003099552307691e+01
0	 8.312500000000000e+00	 6.937499999999999e+00	 1.003016616153846e+01
0	 8.312500000000002e+00	 7.000000000000000e+00	 1.002933603384615e+01
0	 8.312500000000000e+00	 7.062500000000000e+00	 1.002850513999999e+01
0	 8.312500000000000e+00	 7.124999999999999e+00	 1.002767348000000e+01
0	 8.312500000000000e+00	 7.187499999999999e+00	 1.002684105384615e+01
0	 8.312500000000002e+00	 7.250000000000000e+00	 1.002600786153845e+01
0	 8.312500000000000e+00	 7.312499999999999e+00	 1.002517390307691e+01
0	 8.312500000000000e+00	 7.374999999999997e+00	 1.002433917846153e+01
0	 8.312499999999998e+00	 7.437499999999998e+00	 1.002350368769229e+01
0	 8.312500000000000e+00	 7.500000000000000e+00	 1.002266743076925e+01
0	 8.374999999999998e+00	 6.875000000000001e+00	 1.002943132307690e+01
0	 8.374999999999998e+00	 6.937499999999999e+00	 1.002865088307691e+01
0	 8.375000000000000e+00	 7.000000000000001e+00	 1.002786994461539e+01
0	 8.374999999999998e+00	 7.062500000000000e+00	 1.002708850769229e+01
0	 8.374999999999998e+00	 7.124999999999999e+00	 1.002630657230768e+01
0	 8.375000000000000e+00	 7.187499999999999e+00	 1.002552413846152e+01
0	 8.374999999999998e+00	 7.249999999999997e+00	 1.002474120615384e+01
0	 8.374999999999998e+00	 7.312499999999998e+00	 1.002395777538460e+01
0	 8.375000000000000e+00	 7.374999999999999e+00	 1.002317384615387e+01
0	 8.374999999999998e+00	 7.437499999999998e+00	 1.002238941846154e+01
0	 8.374999999999998e+00	 7.500000000000000e+00	 1.002160449230770e+01
0	 8.437500000000000e+00	 6.875000000000000e+00	 1.002790653846153e+01
0	 8.437499999999998e+00	 6.937500000000000e+00	 1.002717303846154e+01
0	 8.437499999999998e+00	 7.000000000000000e+00	 1.002643930769229e+01
0	 8.437500000000000e+00	 7.062500000000000e+00	 1.002570534615384e+01
0	 8.437499999999998e+00	 7.124999999999997e+00	 1.002497115384615e+01
0	 8.437500000000000e+00	 7.187499999999999e+00	 1.002423673076923e+01
0	 8.437500000000002e+00	 7.249999999999999e+00	 1.002350207692308e+01
0	 8.437499999999998e+00	 7.312499999999998e+00	 1.002276719230769e+01
0	 8.437500000000000e+00	 7.374999999999997e+00	 1.002203207692309e+01
0	 8.437500000000000e+00	 7.437499999999998e+00	 1.002129673076923e+01
0	 8.437500000000000e+00	 7.500000000000000e+00	 1.002056115384617e+01
0	 8.500000000000000e+00	 6.875000000000000e+00	 1.002642116923074e+01
0	 8.500000000000000e+00	 6.937500000000000e+00	 1.002573262769230e+01
0	 8.499999999999998e+00	 6.999999999999998e+00	 1.002504412307692e+01
0	 8.500000000000000e+00	 7.062500000000000e+00	 1.002435565538460e+01
0	 8.500000000000002e+00	 7.125000000000000e+00	 1.002366722461539e+01
0	 8.500000000000002e+00	 7.187500000000000e+00	 1.002297883076923e+01
0	 8.499999999999998e+00	 7.249999999999998e+00	 1.002229047384615e+01
0	 8.500000000000000e+00	 7.312499999999999e+00	 1.002160215384617e+01
0	 8.499999999999998e+00	 7.374999999999999e+00	 1.002091387076925e+01
0	 8.500000000000000e+00	 7.437499999999998e+00	 1.002022562461538e+01
0	 8.500000000000000e+00	 7.499999999999999e+00	 1.001953741538462e+01
0	 8.562499999999998e+00	 6.875000000000000e+00	 1.002497521538462e+01
0	 8.562499999999998e+00	 6.937499999999999e+00	 1.002432965076922e+01
0	 8.562500000000000e+00	 7.000000000000001e+00	 1.002368439076922e+01
0	 8.562499999999998e+00	 7.062499999999999e+00	 1.002303943538460e+01
0	 8.562499999999998e+00	 7.124999999999999e+00	 1.002239478461538e+01
0	 8.562499999999998e+00	 7.187500000000000e+00	 1.002175043846152e+01
0	 8.562500000000000e+00	 7.249999999999999e+00	 1.002110639692307e+01
0	 8.562500000000000e+00	 7.312500000000000e+00	 1.002046266000000e+01
0	 8.562500000000000e+00	 7.374999999999998e+00	 1.001981922769230e+01
0	 8.562500000000000e+00	 7.437499999999999e+00	 1.001917609999999e+01
0	 8.562499999999998e+00	 7.499999999999998e+00	 1.001853327692308e+01
0	 8.624999999999998e+00	 6.875000000000000e+00	 1.002356867692308e+01
0	 8.625000000000000e+00	 6.937500000000001e+00	 1.002296410769230e+01
0	 8.625000000000000e+00	 6.999999999999998e+00	 1.002236011076922e+01
0	 8.625000000000000e+00	 7.062500000000000e+00	 1.002175668615384e+01
0	 8.625000000000000e+00	 7.125000000000000e+00	 1.002115383384616e+01
0	 8.624999999999998e+00	 7.187500000000000e+00	 1.002055155384616e+01
0	 8.625000000000000e+00	 7.250000000000000e+00	 1.001994984615384e+01
0	 8.624999999999996e+00	 7.312499999999999e+00	 1.001934871076922e+01
0	 8.625000000000000e+00	 7.374999999999998e+00	 1.001874814769230e+01
0	 8.624999999999998e+00	 7.437499999999998e+00	 1.001814815692307e+01
0	 8.624999999999998e+00	 7.500000000000000e+00	 1.001754873846154e+01
0	 8.687499999999998e+00	 6.875000000000000e+00	 1.002220155384616e+01
0	 8.687499999999998e+00	 6.937500000000001e+00	 1.002163599846152e+01
0	 8.687500000000000e+00	 7.000000000000001e+00	 1.002107128307692e+01
0	 8.687499999999998e+00	 7.062500000000000e+00	 1.002050740769230e+01
0	 8.687499999999996e+00	 7.124999999999999e+00	 1.001994437230768e+01
0	 8.687499999999998e+00	 7.187499999999998e+00	 1.001938217692307e+01
0	 8.687499999999998e+00	 7.249999999999999e+00	 1.001882082153845e+01
0	 8.687499999999998e+00	 7.312499999999998e+00	 1.001826030615385e+01
0	 8.687499999999998e+00	 7.374999999999998e+00	 1.001770063076922e+01
0	 8.687499999999998e+00	 7.437499999999998e+00	 1.001714179538464e+01
0	 8.687499999999998e+00	 7.500000000000000e+00	 1.001658380000000e+01
0	 8.750000000000000e+00	 6.875000000000000e+00	 1.002087384615384e+01
0	 8.750000000000000e+00	 6.937500000000000e+00	 1.002034532307693e+01
0	 8.750000000000002e+00	 7.000000000000000e+00	 1.001981790769229e+01
0	 8.750000000000000e+00	 7.062500000000000e+00	 1.001929160000000e+01
0	 8.750000000000000e+00	 7.125000000000000e+00	 1.001876640000000e+01
0	 8.750000000000000e+00	 7.187499999999998e+00	 1.001824230769231e+01
0	 8.750000000000000e+00	 7.249999999999998e+00	 1.001771932307693e+01
0	 8.750000000000000e+00	 7.312499999999998e+00	 1.001719744615384e+01
0	 8.750000000000000e+00	 7.374999999999998e+00	 1.001667667692306e+01
0	 8.750000000000000e+00	 7.437499999999998e+00	 1.001615701538461e+01
0	 8.750000000000000e+00	 7.500000000000000e+00	 1.001563846153845e+01
0	 8.125000000000000e+00	 7.500000000000000e+00	 1.002597384615385e+01
0	 8.125000000000000e+00	 7.562500000000000e+00	 1.002504963076924e+01
0	 8.125000000000002e+00	 7.625000000000000e+00	 1.002411267692309e+01
0	 8.125000000000000e+00	 7.687499999999999e+00	 1.002316298461538e+01
0	 8.125000000000000e+00	 7.750000000000000e+00	 1.002220055384615e+01
0	 8.125000000000000e+00	 7.812499999999999e+00	 1.002122538461537e+01
0	 8.125000000000000e+00	 7.874999999999998e+00	 1.002023747692307e+01
0	 8.125000000000000e+00	 7.937499999999997e+00	 1.001923683076922e+01
0	 8.125000000000000e+00	 7.999999999999998e+00	 1.001822344615383e+01
0	 8.125000000000000e+00	 8.062499999999996e+00	 1.001719732307691e+01
0	 8.125000000000000e+00	 8.125000000000000e+00	 1.001615846153845e+01
0	 8.187500000000002e+00	 7.500000000000000e+00	 1.002485210769230e+01
0	 8.187500000000000e+00	 7.562499999999999e+00	 1.002397228153845e+01
0	 8.187500000000000e+00	 7.624999999999998e+00	 1.002308042769231e+01
0	 8.187500000000000e+00	 7.687499999999998e+00	 1.002217654615384e+01
0	 8.187500000000000e+00	 7.750000000000000e+00	 1.002126063692307e+01
0	 8.187500000000000e+00	 7.812500000000000e+00	 1.002033269999998e+01
0	 8.187500000000002e+00	 7.874999999999999e+00	 1.001939273538461e+01
0	 8.187500000000002e+00	 7.937499999999998e+00	 1.001844074307690e+01
0	 8.187500000000002e+00	 8.000000000000000e+00	 1.001747672307692e+01
0	 8.187499999999998e+00	 8.062499999999995e+00	 1.001650067538461e+01
0	 8.187500000000002e+00	 8.125000000000000e+00	 1.001551260000001e+01
0	 8.250000000000000e+00	 7.499999999999999e+00	 1.002374996923075e+01
0	 8.250000000000000e+00	 7.562500000000001e+00	 1.002291293846154e+01
0	 8.250000000000002e+00	 7.625000000000001e+00	 1.002206459076923e+01
0	 8.250000000000000e+00	 7.687500000000001e+00	 1.002120492615384e+01
0	 8.249999999999998e+00	 7.749999999999998e+00	 1.002033394461539e+01
0	 8.250000000000000e+00	 7.812499999999998e+00	 1.001945164615385e+01
0	 8.249999999999998e+00	 7.874999999999996e+00	 1.001855803076924e+01
0	 8.250000000000004e+00	 7.937499999999998e+00	 1.001765309846153e+01
0	 8.249999999999998e+00	 7.999999999999999e+00	 1.001673684923075e+01
0	 8.250000000000000e+00	 8.062499999999998e+00	 1.001580928307690e+01
0	 8.250000000000000e+00	 8.125000000000000e+00	 1.001487040000002e+01
0	 8.312500000000000e+00	 7.500000000000000e+00	 1.002266743076925e+01
0	 8.312500000000000e+00	 7.562500000000001e+00	 1.002187160153845e+01
0	 8.312500000000002e+00	 7.625000000000001e+00	 1.002106516615384e+01
0	 8.312500000000000e+00	 7.687500000000000e+00	 1.002024812461537e+01
0	 8.312500000000000e+00	 7.749999999999999e+00	 1.001942047692307e+01
0	 8.312500000000000e+00	 7.812499999999999e+00	 1.001858222307694e+01
0	 8.312500000000002e+00	 7.874999999999998e+00	 1.001773336307692e+01
0	 8.312500000000000e+00	 7.937499999999998e+00	 1.001687389692307e+01
0	 8.312500000000000e+00	 7.999999999999998e+00	 1.001600382461540e+01
0	 8.312499999999998e+00	 8.062499999999996e+00	 1.001512314615385e+01
0	 8.312500000000000e+00	 8.125000000000000e+00	 1.001423186153844e+01
0	 8.374999999999998e+00	 7.500000000000000e+00	 1.002160449230770e+01
0	 8.374999999999998e+00	 7.562500000000000e+00	 1.002084827076922e+01
0	 8.375000000000000e+00	 7.625000000000000e+00	 1.002008215384616e+01
0	 8.374999999999998e+00	 7.687500000000000e+00	 1.001930614153845e+01
0	 8.374999999999998e+00	 7.749999999999998e+00	 1.001852023384615e+01
0	 8.375000000000000e+00	 7.812500000000000e+00	 1.001772443076923e+01
0	 8.374999999999998e+00	 7.874999999999998e+00	 1.001691873230769e+01
0	 8.374999999999998e+00	 7.937499999999999e+00	 1.001610313846152e+01
0	 8.375000000000000e+00	 7.999999999999997e+00	 1.001527764923077e+01
0	 8.374999999999998e+00	 8.062500000000000e+00	 1.001444226461538e+01
0	 8.374999999999998e+00	 8.125000000000000e+00	 1.001359698461540e+01
0	 8.437500000000000e+00	 7.500000000000000e+00	 1.002056115384617e+01
0	 8.437499999999998e+00	 7.562499999999999e+00	 1.001984294615384e+01
0	 8.437499999999998e+00	 7.624999999999999e+00	 1.001911555384614e+01
0	 8.437500000000000e+00	 7.687500000000000e+00	 1.001837897692308e+01
0	 8.437499999999998e+00	 7.749999999999996e+00	 1.001763321538461e+01
0	 8.437500000000000e+00	 7.812499999999999e+00	 1.001687826923078e+01
0	 8.437500000000002e+00	 7.875000000000000e+00	 1.001611413846154e+01
0	 8.437499999999998e+00	 7.937499999999999e+00	 1.001534082307692e+01
0	 8.437500000000000e+00	 7.999999999999998e+00	 1.001455832307693e+01
0	 8.437500000000000e+00	 8.062500000000000e+00	 1.001376663846155e+01
0	 8.437500000000000e+00	 8.125000000000000e+00	 1.001296576923077e+01
0	 8.500000000000000e+00	 7.499999999999999e+00	 1.001953741538462e+01
0	 8.500000000000000e+00	 7.562500000000000e+00	 1.001885562769230e+01
0	 8.499999999999998e+00	 7.624999999999998e+00	 1.001816536615384e+01
0	 8.500000000000000e+00	 7.687499999999998e+00	 1.001746663076923e+01
0	 8.500000000000002e+00	 7.750000000000001e+00	 1.001675942153846e+01
0	 8.500000000000002e+00	 7.812500000000000e+00	 1.001604373846154e+01
0	 8.499999999999998e+00	 7.874999999999998e+00	 1.001531958153847e+01
0	 8.500000000000000e+00	 7.937499999999999e+00	 1.001458695076922e+01
0	 8.499999999999998e+00	 8.000000000000000e+00	 1.001384584615386e+01
0	 8.500000000000000e+00	 8.062499999999998e+00	 1.001309626769231e+01
0	 8.500000000000000e+00	 8.125000000000000e+00	 1.001233821538460e+01
0	 8.562499999999998e+00	 7.499999999999998e+00	 1.001853327692308e+01
0	 8.562499999999998e+00	 7.562500000000000e+00	 1.001788631538465e+01
0	 8.562500000000000e+00	 7.624999999999999e+00	 1.001723159076924e+01
0	 8.562499999999998e+00	 7.687500000000000e+00	 1.001656910307692e+01
0	 8.562499999999998e+00	 7.749999999999998e+00	 1.001589885230770e+01
0	 8.562499999999998e+00	 7.812500000000000e+00	 1.001522083846154e+01
0	 8.562500000000000e+00	 7.874999999999999e+00	 1.001453506153847e+01
0	 8.562500000000000e+00	 7.937500000000000e+00	 1.001384152153845e+01
0	 8.562500000000000e+00	 7.999999999999998e+00	 1.001314021846153e+01
0	 8.562500000000000e+00	 8.062500000000000e+00	 1.001243115230769e+01
0	 8.562499999999998e+00	 8.125000000000000e+00	 1.001171432307693e+01
0	 8.624999999999998e+00	 7.500000000000000e+00	 1.001754873846154e+01
0	 8.625000000000000e+00	 7.562500000000001e+00	 1.001693500923077e+01
0	 8.625000000000000e+00	 7.625000000000000e+00	 1.001631422769231e+01
0	 8.625000000000000e+00	 7.687500000000001e+00	 1.001568639384616e+01
0	 8.625000000000000e+00	 7.749999999999999e+00	 1.001505150769231e+01
0	 8.624999999999998e+00	 7.812499999999998e+00	 1.001440956923079e+01
0	 8.625000000000000e+00	 7.875000000000000e+00	 1.001376057846155e+01
0	 8.624999999999996e+00	 7.937499999999998e+00	 1.001310453538462e+01
0	 8.625000000000000e+00	 7.999999999999998e+00	 1.001244143999999e+01
0	 8.624999999999998e+00	 8.062500000000000e+00	 1.001177129230770e+01
0	 8.624999999999998e+00	 8.125000000000000e+00	 1.001109409230769e+01
0	 8.687499999999998e+00	 7.500000000000000e+00	 1.001658380000000e+01
0	 8.687499999999998e+00	 7.562500000000001e+00	 1.001600170923076e+01
0	 8.687500000000000e+00	 7.624999999999999e+00	 1.001541327692306e+01
0	 8.687499999999998e+00	 7.687499999999999e+00	 1.001481850307692e+01
0	 8.687499999999996e+00	 7.750000000000000e+00	 1.001421738769231e+01
0	 8.687499999999998e+00	 7.812499999999999e+00	 1.001360993076923e+01
0	 8.687499999999998e+00	 7.874999999999998e+00	 1.001299613230769e+01
0	 8.687499999999998e+00	 7.937499999999998e+00	 1.001237599230769e+01
0	 8.687499999999998e+00	 7.999999999999998e+00	 1.001174951076922e+01
0	 8.687499999999998e+00	 8.062499999999998e+00	 1.001111668769232e+01
0	 8.687499999999998e+00	 8.125000000000000e+00	 1.001047752307693e+01
0	 8.750000000000000e+00	 7.500000000000000e+00	 1.001563846153845e+01
0	 8.750000000000000e+00	 7.562500000000000e+00	 1.001508641538462e+01
0	 8.750000000000002e+00	 7.625000000000000e+00	 1.001452873846156e+01
0	 8.750000000000000e+00	 7.687499999999999e+00	 1.001396543076923e+01
0	 8.750000000000000e+00	 7.750000000000000e+00	 1.001339649230770e+01
0	 8.750000000000000e+00	 7.812499999999999e+00	 1.001282192307691e+01
0	 8.750000000000000e+00	 7.874999999999998e+00	 1.001224172307693e+01
0	 8.750000000000000e+00	 7.937499999999997e+00	 1.001165589230770e+01
0	 8.750000000000000e+00	 7.999999999999998e+00	 1.001106443076924e+01
0	 8.750000000000000e+00	 8.062499999999996e+00	 1.001046733846154e+01
0	 8.750000000000000e+00	 8.125000000000000e+00	 1.000986461538463e+01
0	 8.125000000000000e+00	 8.125000000000000e+00	 1.001615846153845e+01
0	 8.125000000000000e+00	 8.187500000000000e+00	 1.001541119999998e+01
0	 8.125000000000002e+00	 8.250000000000002e+00	 1.001463956923073e+01
0	 8.125000000000000e+00	 8.312500000000000e+00	 1.001384356923077e+01
0	 8.125000000000000e+00	 8.374999999999998e+00	 1.001302319999999e+01
0	 8.125000000000000e+00	 8.437500000000000e+00	 1.001217846153847e+01
0	 8.125000000000000e+00	 8.500000000000000e+00	 1.001130935384614e+01
0	 8.125000000000000e+00	 8.562499999999998e+00	 1.001041587692307e+01
0	 8.125000000000000e+00	 8.625000000000000e+00	 1.000949803076922e+01
0	 8.125000000000000e+00	 8.687499999999998e+00	 1.000855581538458e+01
0	 8.125000000000000e+00	 8.750000000000000e+00	 1.000758923076924e+01
0	 8.187500000000002e+00	 8.125000000000000e+00	 1.001551260000001e+01
0	 8.187500000000000e+00	 8.187500000000002e+00	 1.001479948769231e+01
0	 8.187500000000000e+00	 8.250000000000000e+00	 1.001406302153846e+01
0	 8.187500000000000e+00	 8.312499999999998e+00	 1.001330320153845e+01
0	 8.187500000000000e+00	 8.374999999999998e+00	 1.001252002769230e+01
0	 8.187500000000000e+00	 8.437500000000000e+00	 1.001171349999999e+01
0	 8.187500000000002e+00	 8.500000000000002e+00	 1.001088361846154e+01
0	 8.187500000000002e+00	 8.562500000000000e+00	 1.001003038307693e+01
0	 8.187500000000002e+00	 8.625000000000002e+00	 1.000915379384617e+01
0	 8.187499999999998e+00	 8.687499999999996e+00	 1.000825385076923e+01
0	 8.187500000000002e+00	 8.750000000000002e+00	 1.000733055384614e+01
0	 8.250000000000000e+00	 8.125000000000000e+00	 1.001487040000002e+01
0	 8.250000000000000e+00	 8.187499999999998e+00	 1.001419016615386e+01
0	 8.250000000000002e+00	 8.250000000000000e+00	 1.001348759384615e+01
0	 8.250000000000000e+00	 8.312500000000000e+00	 1.001276268307692e+01
0	 8.249999999999998e+00	 8.374999999999998e+00	 1.001201543384615e+01
0	 8.250000000000000e+00	 8.437499999999998e+00	 1.001124584615384e+01
0	 8.249999999999998e+00	 8.499999999999996e+00	 1.001045391999999e+01
0	 8.250000000000004e+00	 8.562500000000002e+00	 1.000963965538462e+01
0	 8.249999999999998e+00	 8.624999999999998e+00	 1.000880305230770e+01
0	 8.250000000000000e+00	 8.687499999999998e+00	 1.000794411076924e+01
0	 8.250000000000000e+00	 8.750000000000000e+00	 1.000706283076919e+01
0	 8.312500000000000e+00	 8.125000000000000e+00	 1.001423186153844e+01
0	 8.312500000000000e+00	 8.187500000000000e+00	 1.001358323538462e+01
0	 8.312500000000002e+00	 8.250000000000002e+00	 1.001291328615386e+01
0	 8.312500000000000e+00	 8.312499999999998e+00	 1.001222201384616e+01
0	 8.312500000000000e+00	 8.374999999999998e+00	 1.001150941846154e+01
0	 8.312500000000000e+00	 8.437500000000000e+00	 1.001077549999999e+01
0	 8.312500000000002e+00	 8.499999999999998e+00	 1.001002025846153e+01
0	 8.312500000000000e+00	 8.562500000000000e+00	 1.000924369384614e+01
0	 8.312500000000000e+00	 8.625000000000000e+00	 1.000844580615384e+01
0	 8.312499999999998e+00	 8.687499999999996e+00	 1.000762659538462e+01
0	 8.312500000000000e+00	 8.750000000000000e+00	 1.000678606153847e+01
0	 8.374999999999998e+00	 8.125000000000000e+00	 1.001359698461540e+01
0	 8.374999999999998e+00	 8.187499999999998e+00	 1.001297869538460e+01
0	 8.375000000000000e+00	 8.250000000000002e+00	 1.001234009846154e+01
0	 8.374999999999998e+00	 8.312500000000000e+00	 1.001168119384615e+01
0	 8.374999999999998e+00	 8.374999999999998e+00	 1.001100198153846e+01
0	 8.375000000000000e+00	 8.437500000000000e+00	 1.001030246153845e+01
0	 8.374999999999998e+00	 8.499999999999998e+00	 1.000958263384614e+01
0	 8.374999999999998e+00	 8.562499999999998e+00	 1.000884249846154e+01
0	 8.375000000000000e+00	 8.624999999999998e+00	 1.000808205538463e+01
0	 8.374999999999998e+00	 8.687499999999996e+00	 1.000730130461537e+01
0	 8.374999999999998e+00	 8.749999999999998e+00	 1.000650024615382e+01
0	 8.437500000000000e+00	 8.125000000000000e+00	 1.001296576923077e+01
0	 8.437499999999998e+00	 8.187499999999998e+00	 1.001237654615383e+01
0	 8.437499999999998e+00	 8.249999999999998e+00	 1.001176803076923e+01
0	 8.437500000000000e+00	 8.312500000000000e+00	 1.001114022307691e+01
0	 8.437499999999998e+00	 8.374999999999998e+00	 1.001049312307692e+01
0	 8.437500000000000e+00	 8.437499999999998e+00	 1.000982673076922e+01
0	 8.437500000000002e+00	 8.500000000000002e+00	 1.000914104615383e+01
0	 8.437499999999998e+00	 8.562499999999998e+00	 1.000843606923077e+01
0	 8.437500000000000e+00	 8.624999999999998e+00	 1.000771180000001e+01
0	 8.437500000000000e+00	 8.687500000000000e+00	 1.000696823846152e+01
0	 8.437500000000000e+00	 8.750000000000000e+00	 1.000620538461538e+01
0	 8.500000000000000e+00	 8.125000000000000e+00	 1.001233821538460e+01
0	 8.500000000000000e+00	 8.187500000000000e+00	 1.001177678769230e+01
0	 8.499999999999998e+00	 8.249999999999998e+00	 1.001119708307693e+01
0	 8.500000000000000e+00	 8.312500000000000e+00	 1.001059910153846e+01
0	 8.500000000000002e+00	 8.375000000000002e+00	 1.000998284307693e+01
0	 8.500000000000002e+00	 8.437500000000002e+00	 1.000934830769231e+01
0	 8.499999999999998e+00	 8.499999999999998e+00	 1.000869549538461e+01
0	 8.500000000000000e+00	 8.562500000000000e+00	 1.000802440615385e+01
0	 8.499999999999998e+00	 8.624999999999998e+00	 1.000733503999999e+01
0	 8.500000000000000e+00	 8.687499999999998e+00	 1.000662739692306e+01
0	 8.500000000000000e+00	 8.750000000000000e+00	 1.000590147692306e+01
0	 8.562499999999998e+00	 8.125000000000000e+00	 1.001171432307693e+01
0	 8.562499999999998e+00	 8.187500000000000e+00	 1.001117942000000e+01
0	 8.562500000000000e+00	 8.250000000000000e+00	 1.001062725538459e+01
0	 8.562499999999998e+00	 8.312500000000000e+00	 1.001005782923077e+01
0	 8.562499999999998e+00	 8.374999999999998e+00	 1.000947114153845e+01
0	 8.562499999999998e+00	 8.437500000000000e+00	 1.000886719230769e+01
0	 8.562500000000000e+00	 8.500000000000000e+00	 1.000824598153845e+01
0	 8.562500000000000e+00	 8.562499999999998e+00	 1.000760750923078e+01
0	 8.562500000000000e+00	 8.624999999999998e+00	 1.000695177538459e+01
0	 8.562500000000000e+00	 8.687500000000000e+00	 1.000627877999999e+01
0	 8.562499999999998e+00	 8.750000000000000e+00	 1.000558852307692e+01
0	 8.624999999999998e+00	 8.125000000000000e+00	 1.001109409230769e+01
0	 8.625000000000000e+00	 8.187500000000002e+00	 1.001058444307692e+01
0	 8.625000000000000e+00	 8.250000000000000e+00	 1.001005854769231e+01
0	 8.625000000000000e+00	 8.312500000000000e+00	 1.000951640615386e+01
0	 8.625000000000000e+00	 8.375000000000002e+00	 1.000895801846155e+01
0	 8.624999999999998e+00	 8.437500000000000e+00	 1.000838338461540e+01
0	 8.625000000000000e+00	 8.500000000000000e+00	 1.000779250461539e+01
0	 8.624999999999996e+00	 8.562499999999996e+00	 1.000718537846154e+01
0	 8.625000000000000e+00	 8.624999999999998e+00	 1.000656200615383e+01
0	 8.624999999999998e+00	 8.687499999999998e+00	 1.000592238769231e+01
0	 8.624999999999998e+00	 8.750000000000002e+00	 1.000526652307692e+01
0	 8.687499999999998e+00	 8.125000000000000e+00	 1.001047752307693e+01
0	 8.687499999999998e+00	 8.187500000000000e+00	 1.000999185692308e+01
0	 8.687500000000000e+00	 8.250000000000002e+00	 1.000949096000000e+01
0	 8.687499999999998e+00	 8.312499999999998e+00	 1.000897483230769e+01
0	 8.687499999999996e+00	 8.374999999999998e+00	 1.000844347384617e+01
0	 8.687499999999998e+00	 8.437499999999998e+00	 1.000789688461539e+01
0	 8.687499999999998e+00	 8.499999999999998e+00	 1.000733506461538e+01
0	 8.687499999999998e+00	 8.562499999999998e+00	 1.000675801384614e+01
0	 8.687499999999998e+00	 8.624999999999998e+00	 1.000616573230767e+01
0	 8.687499999999998e+00	 8.687499999999998e+00	 1.000555822000000e+01
0	 8.687499999999998e+00	 8.750000000000000e+00	 1.000493547692309e+01
0	 8.750000000000000e+00	 8.125000000000000e+00	 1.000986461538463e+01
0	 8.750000000000000e+00	 8.187500000000000e+00	 1.000940166153846e+01
0	 8.750000000000002e+00	 8.250000000000002e+00	 1.000892449230770e+01
0	 8.750000000000000e+00	 8.312500000000000e+00	 1.000843310769231e+01
0	 8.750000000000000e+00	 8.374999999999998e+00	 1.000792750769231e+01
0	 8.750000000000000e+00	 8.437500000000000e+00	 1.000740769230769e+01
0	 8.750000000000000e+00	 8.500000000000000e+00	 1.000687366153846e+01
0	 8.750000000000000e+00	 8.562499999999998e+00	 1.000632541538461e+01
0	 8.750000000000000e+00	 8.625000000000000e+00	 1.000576295384615e+01
0	 8.750000000000000e+00	 8.687499999999998e+00	 1.000518627692305e+01
0	 8.750000000000000e+00	 8.750000000000000e+00	 1.000459538461538e+01
0	 8.125000000000000e+00	 8.750000000000000e+00	 1.000758923076924e+01
0	 8.125000000000000e+00	 8.812500000000000e+00	 1.000714344615385e+01
0	 8.125000000000002e+00	 8.875000000000002e+00	 1.000665870769232e+01
0	 8.125000000000000e+00	 8.937499999999998e+00	 1.000613501538461e+01
0	 8.125000000000000e+00	 9.000000000000000e+00	 1.000557236923078e+01
0	 8.125000000000000e+00	 9.062500000000000e+00	 1.000497076923075e+01
0	 8.125000000000000e+00	 9.124999999999998e+00	 1.000433021538459e+01
0	 8.125000000000000e+00	 9.187499999999998e+00	 1.000365070769230e+01
0	 8.125000000000000e+00	 9.249999999999998e+00	 1.000293224615383e+01
0	 8.125000000000000e+00	 9.312499999999998e+00	 1.000217483076922e+01
0	 8.125000000000000e+00	 9.375000000000000e+00	 1.000137846153846e+01
0	 8.187500000000002e+00	 8.750000000000002e+00	 1.000733055384614e+01
0	 8.187500000000000e+00	 8.812499999999998e+00	 1.000690453846154e+01
0	 8.187500000000000e+00	 8.875000000000000e+00	 1.000644118461538e+01
0	 8.187500000000000e+00	 8.937500000000000e+00	 1.000594049230769e+01
0	 8.187500000000000e+00	 9.000000000000000e+00	 1.000540246153846e+01
0	 8.187500000000000e+00	 9.062500000000000e+00	 1.000482709230769e+01
0	 8.187500000000002e+00	 9.125000000000000e+00	 1.000421438461540e+01
0	 8.187500000000002e+00	 9.187499999999998e+00	 1.000356433846155e+01
0	 8.187500000000002e+00	 9.250000000000000e+00	 1.000287695384616e+01
0	 8.187499999999998e+00	 9.312499999999996e+00	 1.000215223076922e+01
0	 8.187500000000002e+00	 9.375000000000000e+00	 1.000139016923078e+01
0	 8.250000000000000e+00	 8.750000000000000e+00	 1.000706283076919e+01
0	 8.250000000000000e+00	 8.812500000000000e+00	 1.000665604615385e+01
0	 8.250000000000002e+00	 8.875000000000004e+00	 1.000621353846153e+01
0	 8.250000000000000e+00	 8.937500000000000e+00	 1.000573530769231e+01
0	 8.249999999999998e+00	 8.999999999999998e+00	 1.000522135384616e+01
0	 8.250000000000000e+00	 9.062500000000000e+00	 1.000467167692308e+01
0	 8.249999999999998e+00	 9.124999999999998e+00	 1.000408627692308e+01
0	 8.250000000000004e+00	 9.187500000000002e+00	 1.000346515384616e+01
0	 8.249999999999998e+00	 9.249999999999996e+00	 1.000280830769230e+01
0	 8.250000000000000e+00	 9.312499999999998e+00	 1.000211573846152e+01
0	 8.250000000000000e+00	 9.375000000000000e+00	 1.000138744615387e+01
0	 8.312500000000000e+00	 8.750000000000000e+00	 1.000678606153847e+01
0	 8.312500000000000e+00	 8.812500000000000e+00	 1.000639796923077e+01
0	 8.312500000000002e+00	 8.875000000000002e+00	 1.000597576923079e+01
0	 8.312500000000000e+00	 8.937500000000000e+00	 1.000551946153847e+01
0	 8.312500000000000e+00	 9.000000000000000e+00	 1.000502904615384e+01
0	 8.312500000000000e+00	 9.062499999999998e+00	 1.000450452307693e+01
0	 8.312500000000002e+00	 9.124999999999998e+00	 1.000394589230769e+01
0	 8.312500000000000e+00	 9.187500000000002e+00	 1.000335315384617e+01
0	 8.312500000000000e+00	 9.249999999999998e+00	 1.000272630769231e+01
0	 8.312499999999998e+00	 9.312499999999998e+00	 1.000206535384616e+01
0	 8.312500000000000e+00	 9.375000000000002e+00	 1.000137029230769e+01
0	 8.374999999999998e+00	 8.749999999999998e+00	 1.000650024615382e+01
0	 8.374999999999998e+00	 8.812500000000000e+00	 1.000613030769230e+01
0	 8.375000000000000e+00	 8.875000000000002e+00	 1.000572787692309e+01
0	 8.374999999999998e+00	 8.937500000000000e+00	 1.000529295384615e+01
0	 8.374999999999998e+00	 8.999999999999998e+00	 1.000482553846154e+01
0	 8.375000000000000e+00	 9.062500000000000e+00	 1.000432563076924e+01
0	 8.374999999999998e+00	 9.124999999999998e+00	 1.000379323076924e+01
0	 8.374999999999998e+00	 9.187500000000000e+00	 1.000322833846153e+01
0	 8.375000000000000e+00	 9.249999999999998e+00	 1.000263095384616e+01
0	 8.374999999999998e+00	 9.312500000000000e+00	 1.000200107692310e+01
0	 8.374999999999998e+00	 9.375000000000002e+00	 1.000133870769232e+01
0	 8.437500000000000e+00	 8.750000000000000e+00	 1.000620538461538e+01
0	 8.437499999999998e+00	 8.812500000000000e+00	 1.000585306153848e+01
0	 8.437499999999998e+00	 8.875000000000000e+00	 1.000546986153845e+01
0	 8.437500000000000e+00	 8.937500000000000e+00	 1.000505578461539e+01
0	 8.437499999999998e+00	 8.999999999999998e+00	 1.000461083076922e+01
0	 8.437500000000000e+00	 9.062500000000000e+00	 1.000413499999999e+01
0	 8.437500000000002e+00	 9.125000000000002e+00	 1.000362829230768e+01
0	 8.437499999999998e+00	 9.187499999999998e+00	 1.000309070769230e+01
0	 8.437500000000000e+00	 9.249999999999998e+00	 1.000252224615386e+01
0	 8.437500000000000e+00	 9.312500000000000e+00	 1.000192290769230e+01
0	 8.437500000000000e+00	 9.375000000000002e+00	 1.000129269230770e+01
0	 8.500000000000000e+00	 8.750000000000000e+00	 1.000590147692306e+01
0	 8.500000000000000e+00	 8.812500000000000e+00	 1.000556623076923e+01
0	 8.499999999999998e+00	 8.874999999999996e+00	 1.000520172307692e+01
0	 8.500000000000000e+00	 8.937499999999998e+00	 1.000480795384614e+01
0	 8.500000000000002e+00	 9.000000000000004e+00	 1.000438492307692e+01
0	 8.500000000000002e+00	 9.062500000000002e+00	 1.000393263076923e+01
0	 8.499999999999998e+00	 9.124999999999998e+00	 1.000345107692307e+01
0	 8.500000000000000e+00	 9.187500000000000e+00	 1.000294026153846e+01
0	 8.499999999999998e+00	 9.249999999999998e+00	 1.000240018461539e+01
0	 8.500000000000000e+00	 9.312499999999998e+00	 1.000183084615386e+01
0	 8.500000000000000e+00	 9.375000000000000e+00	 1.000123224615385e+01
0	 8.562499999999998e+00	 8.750000000000000e+00	 1.000558852307692e+01
0	 8.562499999999998e+00	 8.812499999999998e+00	 1.000526981538463e+01
0	 8.562500000000000e+00	 8.875000000000002e+00	 1.000492346153845e+01
0	 8.562499999999998e+00	 8.937500000000002e+00	 1.000454946153848e+01
0	 8.562499999999998e+00	 8.999999999999998e+00	 1.000414781538462e+01
0	 8.562499999999998e+00	 9.062500000000000e+00	 1.000371852307693e+01
0	 8.562500000000000e+00	 9.125000000000000e+00	 1.000326158461536e+01
0	 8.562500000000000e+00	 9.187500000000000e+00	 1.000277700000001e+01
0	 8.562500000000000e+00	 9.249999999999998e+00	 1.000226476923076e+01
0	 8.562500000000000e+00	 9.312500000000000e+00	 1.000172489230771e+01
0	 8.562499999999998e+00	 9.375000000000000e+00	 1.000115736923076e+01
0	 8.624999999999998e+00	 8.750000000000002e+00	 1.000526652307692e+01
0	 8.625000000000000e+00	 8.812500000000002e+00	 1.000496381538460e+01
0	 8.625000000000000e+00	 8.875000000000000e+00	 1.000463507692307e+01
0	 8.625000000000000e+00	 8.937500000000002e+00	 1.000428030769230e+01
0	 8.625000000000000e+00	 8.999999999999998e+00	 1.000389950769231e+01
0	 8.624999999999998e+00	 9.062499999999998e+00	 1.000349267692309e+01
0	 8.625000000000000e+00	 9.125000000000000e+00	 1.000305981538461e+01
0	 8.624999999999996e+00	 9.187499999999998e+00	 1.000260092307694e+01
0	 8.625000000000000e+00	 9.250000000000000e+00	 1.000211600000003e+01
0	 8.624999999999998e+00	 9.312499999999998e+00	 1.000160504615385e+01
0	 8.624999999999998e+00	 9.375000000000000e+00	 1.000106806153847e+01
0	 8.687499999999998e+00	 8.750000000000000e+00	 1.000493547692309e+01
0	 8.687499999999998e+00	 8.812500000000000e+00	 1.000464823076923e+01
0	 8.687500000000000e+00	 8.875000000000002e+00	 1.000433656923076e+01
0	 8.687499999999998e+00	 8.937500000000000e+00	 1.000400049230770e+01
0	 8.687499999999996e+00	 9.000000000000000e+00	 1.000364000000001e+01
0	 8.687499999999998e+00	 9.062500000000000e+00	 1.000325509230769e+01
0	 8.687499999999998e+00	 9.125000000000000e+00	 1.000284576923075e+01
0	 8.687499999999998e+00	 9.187499999999998e+00	 1.000241203076925e+01
0	 8.687499999999998e+00	 9.249999999999998e+00	 1.000195387692310e+01
0	 8.687499999999998e+00	 9.312499999999996e+00	 1.000147130769231e+01
0	 8.687499999999998e+00	 9.375000000000000e+00	 1.000096432307693e+01
0	 8.750000000000000e+00	 8.750000000000000e+00	 1.000459538461538e+01
0	 8.750000000000000e+00	 8.812500000000000e+00	 1.000432306153846e+01
0	 8.750000000000002e+00	 8.875000000000002e+00	 1.000402793846156e+01
0	 8.750000000000000e+00	 8.937499999999998e+00	 1.000371001538461e+01
0	 8.750000000000000e+00	 9.000000000000000e+00	 1.000336929230770e+01
0	 8.750000000000000e+00	 9.062500000000000e+00	 1.000300576923075e+01
0	 8.750000000000000e+00	 9.124999999999998e+00	 1.000261944615383e+01
0	 8.750000000000000e+00	 9.187499999999998e+00	 1.000221032307691e+01
0	 8.750000000000000e+00	 9.249999999999998e+00	 1.000177840000001e+01
0	 8.750000000000000e+00	 9.312499999999998e+00	 1.000132367692306e+01
0	 8.750000000000000e+00	 9.375000000000000e+00	 1.000084615384615e+01
0	 8.125000000000000e+00	 9.375000000000000e+00	 1.000137846153846e+01
0	 8.124999999999998e+00	 9.437499999999998e+00	 1.000138067692310e+01
0	 8.125000000000000e+00	 9.500000000000000e+00	 1.000132824615385e+01
0	 8.124999999999998e+00	 9.562500000000000e+00	 1.000122116923077e+01
0	 8.125000000000000e+00	 9.625000000000000e+00	 1.000105944615384e+01
0	 8.125000000000000e+00	 9.687499999999998e+00	 1.000084307692309e+01
0	 8.125000000000000e+00	 9.749999999999998e+00	 1.000057206153845e+01
0	 8.125000000000000e+00	 9.812500000000000e+00	 1.000024639999999e+01
0	 8.125000000000002e+00	 9.875000000000000e+00	 9.999866092307656e+00
0	 8.125000000000000e+00	 9.937499999999998e+00	 9.999431138461560e+00
0	 8.125000000000000e+00	 1.000000000000000e+01	 9.998941538461537e+00
0	 8.187500000000002e+00	 9.375000000000000e+00	 1.000139016923078e+01
0	 8.187500000000000e+00	 9.437500000000002e+00	 1.000139474153847e+01
0	 8.187499999999998e+00	 9.500000000000000e+00	 1.000134691076925e+01
0	 8.187499999999998e+00	 9.562500000000000e+00	 1.000124667692309e+01
0	 8.187500000000000e+00	 9.625000000000000e+00	 1.000109404000002e+01
0	 8.187500000000002e+00	 9.687500000000000e+00	 1.000088900000002e+01
0	 8.187500000000002e+00	 9.749999999999998e+00	 1.000063155692307e+01
0	 8.187499999999998e+00	 9.812499999999998e+00	 1.000032171076922e+01
0	 8.187500000000000e+00	 9.874999999999998e+00	 9.999959461538499e+00
0	 8.187500000000000e+00	 9.937499999999996e+00	 9.999544809230812e+00
0	 8.187500000000000e+00	 1.000000000000000e+01	 9.999077753846150e+00
0	 8.250000000000000e+00	 9.375000000000000e+00	 1.000138744615387e+01
0	 8.249999999999998e+00	 9.437499999999998e+00	 1.000139370769231e+01
0	 8.250000000000000e+00	 9.500000000000000e+00	 1.000134980923077e+01
0	 8.250000000000000e+00	 9.562500000000000e+00	 1.000125575076925e+01
0	 8.250000000000000e+00	 9.625000000000002e+00	 1.000111153230769e+01
0	 8.250000000000004e+00	 9.687500000000002e+00	 1.000091715384613e+01
0	 8.250000000000000e+00	 9.750000000000000e+00	 1.000067261538463e+01
0	 8.250000000000004e+00	 9.812500000000002e+00	 1.000037791692307e+01
0	 8.250000000000000e+00	 9.874999999999996e+00	 1.000003305846155e+01
0	 8.250000000000002e+00	 9.937500000000000e+00	 9.999638040000006e+00
0	 8.250000000000000e+00	 1.000000000000000e+01	 9.999192861538450e+00
0	 8.312500000000000e+00	 9.375000000000002e+00	 1.000137029230769e+01
0	 8.312499999999998e+00	 9.437500000000000e+00	 1.000137757538461e+01
0	 8.312499999999998e+00	 9.499999999999996e+00	 1.000133694153845e+01
0	 8.312500000000000e+00	 9.562500000000000e+00	 1.000124839076925e+01
0	 8.312499999999998e+00	 9.624999999999998e+00	 1.000111192307691e+01
0	 8.312499999999998e+00	 9.687500000000000e+00	 1.000092753846157e+01
0	 8.312500000000000e+00	 9.749999999999996e+00	 1.000069523692306e+01
0	 8.312500000000000e+00	 9.812499999999996e+00	 1.000041501846155e+01
0	 8.312500000000000e+00	 9.875000000000000e+00	 1.000008688307686e+01
0	 8.312499999999998e+00	 9.937499999999998e+00	 9.999710830769201e+00
0	 8.312499999999998e+00	 1.000000000000000e+01	 9.999286861538462e+00
0	 8.374999999999998e+00	 9.375000000000002e+00	 1.000133870769232e+01
0	 8.374999999999998e+00	 9.437500000000000e+00	 1.000134634461538e+01
0	 8.375000000000002e+00	 9.500000000000004e+00	 1.000130830769232e+01
0	 8.374999999999998e+00	 9.562500000000000e+00	 1.000122459692310e+01
0	 8.374999999999998e+00	 9.624999999999998e+00	 1.000109521230768e+01
0	 8.375000000000000e+00	 9.687499999999998e+00	 1.000092015384615e+01
0	 8.375000000000000e+00	 9.750000000000000e+00	 1.000069942153850e+01
0	 8.375000000000000e+00	 9.812499999999996e+00	 1.000043301538465e+01
0	 8.375000000000000e+00	 9.874999999999998e+00	 1.000012093538461e+01
0	 8.374999999999998e+00	 9.937499999999996e+00	 9.999763181538484e+00
0	 8.374999999999998e+00	 1.000000000000000e+01	 9.999359753846175e+00
0	 8.437500000000000e+00	 9.375000000000002e+00	 1.000129269230770e+01
0	 8.437499999999998e+00	 9.437499999999998e+00	 1.000130001538461e+01
0	 8.437499999999998e+00	 9.499999999999998e+00	 1.000126390769231e+01
0	 8.437500000000000e+00	 9.562500000000000e+00	 1.000118436923078e+01
0	 8.437499999999998e+00	 9.624999999999998e+00	 1.000106139999999e+01
0	 8.437500000000000e+00	 9.687500000000000e+00	 1.000089500000001e+01
0	 8.437500000000000e+00	 9.750000000000000e+00	 1.000068516923077e+01
0	 8.437500000000000e+00	 9.812499999999998e+00	 1.000043190769233e+01
0	 8.437499999999998e+00	 9.874999999999998e+00	 1.000013521538460e+01
0	 8.437500000000000e+00	 9.937499999999998e+00	 9.999795092307693e+00
0	 8.437500000000000e+00	 1.000000000000000e+01	 9.999411538461572e+00
0	 8.500000000000000e+00	 9.375000000000000e+00	 1.000123224615385e+01
0	 8.499999999999998e+00	 9.437499999999998e+00	 1.000123858769231e+01
0	 8.500000000000000e+00	 9.500000000000000e+00	 1.000120374153846e+01
0	 8.500000000000000e+00	 9.562500000000000e+00	 1.000112770769232e+01
0	 8.499999999999998e+00	 9.625000000000000e+00	 1.000101048615383e+01
0	 8.500000000000000e+00	 9.687499999999998e+00	 1.000085207692309e+01
0	 8.500000000000002e+00	 9.749999999999998e+00	 1.000065247999999e+01
0	 8.499999999999998e+00	 9.812499999999996e+00	 1.000041169538458e+01
0	 8.499999999999998e+00	 9.874999999999998e+00	 1.000012972307689e+01
0	 8.500000000000000e+00	 9.937499999999998e+00	 9.999806563076945e+00
0	 8.500000000000000e+00	 9.999999999999998e+00	 9.999442215384645e+00
0	 8.562499999999998e+00	 9.375000000000000e+00	 1.000115736923076e+01
0	 8.562499999999998e+00	 9.437499999999998e+00	 1.000116206153846e+01
0	 8.562499999999998e+00	 9.499999999999998e+00	 1.000112780923079e+01
0	 8.562499999999998e+00	 9.562500000000002e+00	 1.000105461230770e+01
0	 8.562499999999998e+00	 9.624999999999998e+00	 1.000094247076925e+01
0	 8.562499999999998e+00	 9.687500000000000e+00	 1.000079138461539e+01
0	 8.562500000000002e+00	 9.750000000000000e+00	 1.000060135384613e+01
0	 8.562500000000000e+00	 9.812500000000000e+00	 1.000037237846152e+01
0	 8.562499999999998e+00	 9.874999999999998e+00	 1.000010445846153e+01
0	 8.562499999999998e+00	 9.937499999999998e+00	 9.999797593846154e+00
0	 8.562500000000000e+00	 1.000000000000000e+01	 9.999451784615450e+00
0	 8.624999999999998e+00	 9.375000000000000e+00	 1.000106806153847e+01
0	 8.625000000000000e+00	 9.437500000000002e+00	 1.000107043692309e+01
0	 8.624999999999996e+00	 9.500000000000000e+00	 1.000103611076924e+01
0	 8.624999999999998e+00	 9.562500000000002e+00	 1.000096508307695e+01
0	 8.624999999999996e+00	 9.624999999999998e+00	 1.000085735384616e+01
0	 8.624999999999998e+00	 9.687499999999998e+00	 1.000071292307691e+01
0	 8.624999999999998e+00	 9.750000000000000e+00	 1.000053179076929e+01
0	 8.625000000000000e+00	 9.812499999999998e+00	 1.000031395692308e+01
0	 8.624999999999998e+00	 9.874999999999998e+00	 1.000005942153846e+01
0	 8.624999999999998e+00	 9.937499999999998e+00	 9.999768184615407e+00
0	 8.624999999999998e+00	 1.000000000000000e+01	 9.999440246153833e+00
0	 8.687499999999998e+00	 9.375000000000000e+00	 1.000096432307693e+01
0	 8.687499999999996e+00	 9.437500000000000e+00	 1.000096371384617e+01
0	 8.687499999999998e+00	 9.499999999999998e+00	 1.000092864615386e+01
0	 8.687500000000000e+00	 9.562500000000000e+00	 1.000085912000001e+01
0	 8.687499999999998e+00	 9.624999999999998e+00	 1.000075513538466e+01
0	 8.687499999999996e+00	 9.687499999999996e+00	 1.000061669230769e+01
0	 8.687499999999998e+00	 9.749999999999998e+00	 1.000044379076921e+01
0	 8.687499999999998e+00	 9.812499999999998e+00	 1.000023643076923e+01
0	 8.687499999999996e+00	 9.874999999999996e+00	 9.999994612307750e+00
0	 8.687499999999998e+00	 9.937499999999998e+00	 9.999718335384610e+00
0	 8.687499999999998e+00	 1.000000000000000e+01	 9.999407599999982e+00
0	 8.750000000000000e+00	 9.375000000000000e+00	 1.000084615384615e+01
0	 8.750000000000000e+00	 9.437499999999998e+00	 1.000084189230770e+01
0	 8.750000000000000e+00	 9.500000000000000e+00	 1.000080541538463e+01
0	 8.749999999999998e+00	 9.562500000000000e+00	 1.000073672307694e+01
0	 8.750000000000000e+00	 9.625000000000000e+00	 1.000063581538463e+01
0	 8.750000000000000e+00	 9.687499999999998e+00	 1.000050269230771e+01
0	 8.750000000000000e+00	 9.749999999999998e+00	 1.000033735384616e+01
0	 8.750000000000000e+00	 9.812500000000000e+00	 1.000013980000004e+01
0	 8.750000000000002e+00	 9.875000000000000e+00	 9.999910030769229e+00
0	 8.750000000000000e+00	 9.937499999999998e+00	 9.999648046153840e+00
0	 8.750000000000000e+00	 1.000000000000000e+01	 9.999353846153864e+00
0	 8.750000000000000e+00	 0.000000000000000e+00	 9.911340307692306e+00
0	 8.750000000000002e+00	 6.250000000000000e-02	 9.911920230769224e+00
0	 8.749999999999998e+00	 1.250000000000000e-01	 9.912462861538458e+00
0	 8.750000000000000e+00	 1.875000000000000e-01	 9.912968199999993e+00
0	 8.750000000000002e+00	 2.500000000000000e-01	 9.913436246153834e+00
0	 8.750000000000000e+00	 3.125000000000000e-01	 9.913867000000000e+00
0	 8.750000000000000e+00	 3.750000000000000e-01	 9.914260461538454e+00
0	 8.750000000000000e+00	 4.374999999999999e-01	 9.914616630769235e+00
0	 8.750000000000002e+00	 5.000000000000000e-01	 9.914935507692304e+00
0	 8.750000000000000e+00	 5.624999999999999e-01	 9.915217092307696e+00
0	 8.750000000000000e+00	 6.250000000000000e-01	 9.915461384615380e+00
0	 8.812500000000002e+00	 0.000000000000000e+00	 9.904487449230768e+00
0	 8.812499999999998e+00	 6.249999999999999e-02	 9.905066625846150e+00
0	 8.812500000000000e+00	 1.250000000000000e-01	 9.905609442461536e+00
0	 8.812500000000000e+00	 1.875000000000000e-01	 9.906115899076923e+00
0	 8.812500000000000e+00	 2.500000000000000e-01	 9.906585995692303e+00
0	 8.812500000000000e+00	 3.125000000000001e-01	 9.907019732307692e+00
0	 8.812500000000000e+00	 3.749999999999999e-01	 9.907417108923077e+00
0	 8.812500000000002e+00	 4.374999999999999e-01	 9.907778125538458e+00
0	 8.812500000000002e+00	 5.000000000000000e-01	 9.908102782153847e+00
0	 8.812500000000000e+00	 5.625000000000000e-01	 9.908391078769228e+00
0	 8.812499999999998e+00	 6.250000000000000e-01	 9.908643015384616e+00
0	 8.875000000000000e+00	 0.000000000000000e+00	 9.897392627692307e+00
0	 8.875000000000004e+00	 6.250000000000000e-02	 9.897973155692304e+00
0	 8.875000000000000e+00	 1.250000000000000e-01	 9.898518255999999e+00
0	 8.874999999999998e+00	 1.875000000000000e-01	 9.899027928615389e+00
0	 8.875000000000000e+00	 2.500000000000001e-01	 9.899502173538458e+00
0	 8.875000000000002e+00	 3.125000000000000e-01	 9.899940990769231e+00
0	 8.875000000000002e+00	 3.749999999999999e-01	 9.900344380307693e+00
0	 8.875000000000000e+00	 4.375000000000000e-01	 9.900712342153845e+00
0	 8.875000000000000e+00	 4.999999999999999e-01	 9.901044876307694e+00
0	 8.874999999999998e+00	 5.625000000000000e-01	 9.901341982769230e+00
0	 8.874999999999998e+00	 6.249999999999999e-01	 9.901603661538463e+00
0	 8.937499999999998e+00	 0.000000000000000e+00	 9.890055843076924e+00
0	 8.937499999999998e+00	 6.250000000000000e-02	 9.890639820307694e+00
0	 8.937500000000000e+00	 1.250000000000000e-01	 9.891189302153842e+00
0	 8.937500000000000e+00	 1.875000000000001e-01	 9.891704288615383e+00
0	 8.937500000000004e+00	 2.500000000000001e-01	 9.892184779692302e+00
0	 8.937499999999998e+00	 3.125000000000000e-01	 9.892630775384614e+00
0	 8.937499999999996e+00	 3.749999999999999e-01	 9.893042275692306e+00
0	 8.937499999999998e+00	 4.374999999999999e-01	 9.893419280615380e+00
0	 8.937499999999996e+00	 4.999999999999999e-01	 9.893761790153841e+00
0	 8.937500000000002e+00	 5.625000000000001e-01	 9.894069804307691e+00
0	 8.937500000000000e+00	 6.249999999999999e-01	 9.894343323076917e+00
0	 9.000000000000000e+00	 0.000000000000000e+00	 9.882477095384617e+00
0	 8.999999999999998e+00	 6.250000000000000e-02	 9.883066619692315e+00
0	 8.999999999999998e+00	 1.250000000000000e-01	 9.883622580923078e+00
0	 8.999999999999998e+00	 1.875000000000000e-01	 9.884144979076918e+00
0	 9.000000000000000e+00	 2.500000000000000e-01	 9.884633814153847e+00
0	 8.999999999999998e+00	 3.125000000000000e-01	 9.885089086153840e+00
0	 8.999999999999998e+00	 3.750000000000000e-01	 9.885510795076918e+00
0	 9.000000000000002e+00	 4.375000000000000e-01	 9.885898940923070e+00
0	 9.000000000000000e+00	 4.999999999999999e-01	 9.886253523692300e+00
0	 9.000000000000000e+00	 5.625000000000000e-01	 9.886574543384608e+00
0	 9.000000000000000e+00	 6.250000000000001e-01	 9.886862000000001e+00
0	 9.062499999999998e+00	 0.000000000000000e+00	 9.874656384615387e+00
0	 9.062499999999998e+00	 6.249999999999998e-02	 9.875253553846148e+00
0	 9.062500000000000e+00	 1.250000000000000e-01	 9.875818092307687e+00
0	 9.062499999999998e+00	 1.875000000000000e-01	 9.876350000000000e+00
0	 9.062499999999996e+00	 2.499999999999999e-01	 9.876849276923071e+00
0	 9.062499999999998e+00	 3.125000000000000e-01	 9.877315923076923e+00
0	 9.062499999999998e+00	 3.750000000000000e-01	 9.877749938461539e+00
0	 9.062500000000000e+00	 4.375000000000000e-01	 9.878151323076921e+00
0	 9.062499999999998e+00	 4.999999999999999e-01	 9.878520076923067e+00
0	 9.062500000000002e+00	 5.625000000000001e-01	 9.878856199999996e+00
0	 9.062500000000000e+00	 6.250000000000000e-01	 9.879159692307688e+00
0	 9.124999999999998e+00	 0.000000000000000e+00	 9.866593710769237e+00
0	 9.124999999999998e+00	 6.249999999999999e-02	 9.867200622769225e+00
0	 9.124999999999998e+00	 1.250000000000000e-01	 9.867775836307702e+00
0	 9.124999999999998e+00	 1.875000000000001e-01	 9.868319351384612e+00
0	 9.124999999999998e+00	 2.500000000000001e-01	 9.868831167999996e+00
0	 9.125000000000000e+00	 3.125000000000001e-01	 9.869311286153843e+00
0	 9.124999999999998e+00	 3.749999999999999e-01	 9.869759705846150e+00
0	 9.125000000000000e+00	 4.375000000000000e-01	 9.870176427076920e+00
0	 9.124999999999998e+00	 4.999999999999998e-01	 9.870561449846150e+00
0	 9.124999999999998e+00	 5.624999999999999e-01	 9.870914774153844e+00
0	 9.124999999999998e+00	 6.250000000000001e-01	 9.871236400000001e+00
0	 9.187500000000000e+00	 0.000000000000000e+00	 9.858289073846155e+00
0	 9.187499999999998e+00	 6.250000000000000e-02	 9.858907826461543e+00
0	 9.187499999999998e+00	 1.250000000000000e-01	 9.859495812923079e+00
0	 9.187499999999998e+00	 1.875000000000000e-01	 9.860053033230768e+00
0	 9.187500000000000e+00	 2.500000000000000e-01	 9.860579487384616e+00
0	 9.187500000000000e+00	 3.125000000000001e-01	 9.861075175384613e+00
0	 9.187499999999998e+00	 3.750000000000000e-01	 9.861540097230767e+00
0	 9.187499999999998e+00	 4.375000000000000e-01	 9.861974252923076e+00
0	 9.187499999999998e+00	 4.999999999999999e-01	 9.862377642461535e+00
0	 9.187500000000000e+00	 5.625000000000000e-01	 9.862750265846151e+00
0	 9.187499999999998e+00	 6.249999999999999e-01	 9.863092123076930e+00
0	 9.249999999999998e+00	 0.000000000000000e+00	 9.849742473846156e+00
0	 9.249999999999996e+00	 6.249999999999999e-02	 9.850375164923078e+00
0	 9.250000000000000e+00	 1.250000000000000e-01	 9.850978022153848e+00
0	 9.250000000000000e+00	 1.875000000000001e-01	 9.851551045538459e+00
0	 9.249999999999996e+00	 2.500000000000000e-01	 9.852094235076924e+00
0	 9.249999999999996e+00	 3.124999999999999e-01	 9.852607590769228e+00
0	 9.249999999999998e+00	 3.749999999999999e-01	 9.853091112615379e+00
0	 9.249999999999998e+00	 4.375000000000000e-01	 9.853544800615376e+00
0	 9.249999999999996e+00	 4.999999999999999e-01	 9.853968654769226e+00
0	 9.249999999999998e+00	 5.625000000000000e-01	 9.854362675076915e+00
0	 9.249999999999998e+00	 6.250000000000000e-01	 9.854726861538456e+00
0	 9.312499999999998e+00	 0.000000000000000e+00	 9.840953910769231e+00
0	 9.312499999999998e+00	 6.250000000000000e-02	 9.841602638153846e+00
0	 9.312499999999998e+00	 1.250000000000000e-01	 9.842222463999992e+00
0	 9.312500000000000e+00	 1.875000000000000e-01	 9.842813388307698e+00
0	 9.312499999999996e+00	 2.499999999999999e-01	 9.843375411076922e+00
0	 9.312500000000000e+00	 3.125000000000000e-01	 9.843908532307694e+00
0	 9.312499999999996e+00	 3.750000000000000e-01	 9.844412751999997e+00
0	 9.312499999999998e+00	 4.375000000000000e-01	 9.844888070153837e+00
0	 9.312499999999996e+00	 4.999999999999999e-01	 9.845334486769227e+00
0	 9.312499999999996e+00	 5.625000000000000e-01	 9.845752001846162e+00
0	 9.312499999999998e+00	 6.250000000000000e-01	 9.846140615384613e+00
0	 9.375000000000000e+00	 0.000000000000000e+00	 9.831923384615386e+00
0	 9.375000000000000e+00	 6.250000000000000e-02	 9.832590246153844e+00
0	 9.375000000000000e+00	 1.250000000000000e-01	 9.833229138461530e+00
0	 9.375000000000000e+00	 1.875000000000000e-01	 9.833840061538467e+00
0	 9.375000000000000e+00	 2.500000000000000e-01	 9.834423015384617e+00
0	 9.375000000000000e+00	 3.125000000000000e-01	 9.834977999999998e+00
0	 9.375000000000000e+00	 3.750000000000000e-01	 9.835505015384609e+00
0	 9.375000000000000e+00	 4.374999999999999e-01	 9.836004061538455e+00
0	 9.375000000000000e+00	 5.000000000000000e-01	 9.836475138461541e+00
0	 9.375000000000000e+00	 5.624999999999999e-01	 9.836918246153846e+00
0	 9.375000000000000e+00	 6.250000000000000e-01	 9.837333384615382e+00
0	 8.750000000000000e+00	 6.250000000000000e-01	 9.915461384615380e+00
0	 8.750000000000000e+00	 6.875000000000000e-01	 9.916745907692309e+00
0	 8.750000000000000e+00	 7.500000000000002e-01	 9.918001446153838e+00
0	 8.750000000000004e+00	 8.125000000000002e-01	 9.919228000000004e+00
0	 8.750000000000000e+00	 8.750000000000002e-01	 9.920425569230765e+00
0	 8.750000000000002e+00	 9.375000000000002e-01	 9.921594153846154e+00
0	 8.750000000000000e+00	 1.000000000000000e+00	 9.922733753846156e+00
0	 8.750000000000000e+00	 1.062500000000000e+00	 9.923844369230771e+00
0	 8.750000000000002e+00	 1.125000000000001e+00	 9.924926000000003e+00
0	 8.750000000000000e+00	 1.187500000000000e+00	 9.925978646153844e+00
0	 8.750000000000000e+00	 1.250000000000000e+00	 9.927002307692305e+00
0	 8.812499999999998e+00	 6.250000000000000e-01	 9.908643015384616e+00
0	 8.812500000000000e+00	 6.875000000000001e-01	 9.909940484461533e+00
0	 8.812500000000000e+00	 7.500000000000001e-01	 9.911209522769230e+00
0	 8.812500000000000e+00	 8.125000000000002e-01	 9.912450130307697e+00
0	 8.812500000000004e+00	 8.750000000000003e-01	 9.913662307076923e+00
0	 8.812500000000002e+00	 9.375000000000003e-01	 9.914846053076914e+00
0	 8.812500000000002e+00	 1.000000000000000e+00	 9.916001368307695e+00
0	 8.812500000000002e+00	 1.062500000000000e+00	 9.917128252769226e+00
0	 8.812499999999998e+00	 1.125000000000000e+00	 9.918226706461532e+00
0	 8.812499999999998e+00	 1.187500000000000e+00	 9.919296729384612e+00
0	 8.812499999999998e+00	 1.250000000000000e+00	 9.920338321538463e+00
0	 8.874999999999998e+00	 6.249999999999999e-01	 9.901603661538463e+00
0	 8.875000000000000e+00	 6.875000000000001e-01	 9.902919045538461e+00
0	 8.875000000000004e+00	 7.500000000000002e-01	 9.904206552615381e+00
0	 8.875000000000000e+00	 8.125000000000001e-01	 9.905466182769230e+00
0	 8.875000000000000e+00	 8.750000000000003e-01	 9.906697935999997e+00
0	 8.875000000000000e+00	 9.375000000000003e-01	 9.907901812307699e+00
0	 8.875000000000000e+00	 1.000000000000000e+00	 9.909077811692301e+00
0	 8.875000000000000e+00	 1.062500000000000e+00	 9.910225934153846e+00
0	 8.875000000000000e+00	 1.125000000000000e+00	 9.911346179692313e+00
0	 8.875000000000000e+00	 1.187500000000001e+00	 9.912438548307691e+00
0	 8.874999999999998e+00	 1.250000000000000e+00	 9.913503039999989e+00
0	 8.937500000000000e+00	 6.249999999999999e-01	 9.894343323076917e+00
0	 8.937500000000000e+00	 6.875000000000000e-01	 9.895681590923083e+00
0	 8.937499999999998e+00	 7.500000000000000e-01	 9.896992535692306e+00
0	 8.937500000000000e+00	 8.125000000000002e-01	 9.898276157384611e+00
0	 8.937499999999998e+00	 8.750000000000002e-01	 9.899532455999999e+00
0	 8.937499999999998e+00	 9.375000000000002e-01	 9.900761431538456e+00
0	 8.937499999999998e+00	 1.000000000000000e+00	 9.901963083999998e+00
0	 8.937500000000000e+00	 1.062500000000000e+00	 9.903137413384618e+00
0	 8.937500000000000e+00	 1.125000000000000e+00	 9.904284419692308e+00
0	 8.937500000000000e+00	 1.187500000000000e+00	 9.905404102923072e+00
0	 8.937500000000000e+00	 1.250000000000000e+00	 9.906496463076927e+00
0	 9.000000000000000e+00	 6.250000000000001e-01	 9.886862000000001e+00
0	 9.000000000000000e+00	 6.875000000000000e-01	 9.888228120615377e+00
0	 8.999999999999996e+00	 7.500000000000000e-01	 9.889567471999998e+00
0	 9.000000000000000e+00	 8.125000000000001e-01	 9.890880054153847e+00
0	 8.999999999999998e+00	 8.750000000000003e-01	 9.892165867076924e+00
0	 8.999999999999996e+00	 9.375000000000000e-01	 9.893424910769230e+00
0	 9.000000000000000e+00	 1.000000000000000e+00	 9.894657185230770e+00
0	 9.000000000000000e+00	 1.062500000000000e+00	 9.895862690461538e+00
0	 9.000000000000000e+00	 1.125000000000000e+00	 9.897041426461538e+00
0	 9.000000000000000e+00	 1.187500000000000e+00	 9.898193393230768e+00
0	 9.000000000000000e+00	 1.250000000000000e+00	 9.899318590769226e+00
0	 9.062500000000000e+00	 6.250000000000000e-01	 9.879159692307688e+00
0	 9.062499999999998e+00	 6.875000000000000e-01	 9.880558634615381e+00
0	 9.062499999999998e+00	 7.500000000000001e-01	 9.881931361538458e+00
0	 9.062499999999998e+00	 8.125000000000002e-01	 9.883277873076924e+00
0	 9.062499999999998e+00	 8.750000000000003e-01	 9.884598169230772e+00
0	 9.062500000000000e+00	 9.375000000000002e-01	 9.885892249999999e+00
0	 9.062500000000000e+00	 1.000000000000000e+00	 9.887160115384617e+00
0	 9.062500000000002e+00	 1.062500000000000e+00	 9.888401765384618e+00
0	 9.062499999999998e+00	 1.125000000000000e+00	 9.889617199999998e+00
0	 9.062500000000000e+00	 1.187500000000001e+00	 9.890806419230772e+00
0	 9.062500000000000e+00	 1.250000000000000e+00	 9.891969423076922e+00
0	 9.124999999999998e+00	 6.250000000000001e-01	 9.871236400000001e+00
0	 9.124999999999998e+00	 6.874999999999999e-01	 9.872673132923076e+00
0	 9.124999999999998e+00	 7.500000000000003e-01	 9.874084204307692e+00
0	 9.124999999999996e+00	 8.125000000000000e-01	 9.875469614153847e+00
0	 9.124999999999998e+00	 8.750000000000001e-01	 9.876829362461544e+00
0	 9.124999999999998e+00	 9.375000000000003e-01	 9.878163449230772e+00
0	 9.124999999999998e+00	 1.000000000000000e+00	 9.879471874461542e+00
0	 9.124999999999998e+00	 1.062500000000000e+00	 9.880754638153849e+00
0	 9.124999999999998e+00	 1.125000000000000e+00	 9.882011740307695e+00
0	 9.124999999999996e+00	 1.187500000000000e+00	 9.883243180923071e+00
0	 9.124999999999998e+00	 1.250000000000000e+00	 9.884448960000000e+00
0	 9.187499999999998e+00	 6.249999999999999e-01	 9.863092123076930e+00
0	 9.187499999999998e+00	 6.875000000000000e-01	 9.864571615538463e+00
0	 9.187500000000000e+00	 7.500000000000002e-01	 9.866026000307688e+00
0	 9.187499999999996e+00	 8.125000000000000e-01	 9.867455277384613e+00
0	 9.187500000000000e+00	 8.750000000000002e-01	 9.868859446769228e+00
0	 9.187499999999998e+00	 9.375000000000004e-01	 9.870238508461540e+00
0	 9.187499999999998e+00	 1.000000000000000e+00	 9.871592462461534e+00
0	 9.187500000000000e+00	 1.062500000000001e+00	 9.872921308769227e+00
0	 9.187499999999996e+00	 1.125000000000000e+00	 9.874225047384613e+00
0	 9.187500000000000e+00	 1.187500000000000e+00	 9.875503678307693e+00
0	 9.187499999999998e+00	 1.250000000000000e+00	 9.876757201538462e+00
0	 9.249999999999998e+00	 6.250000000000000e-01	 9.854726861538456e+00
0	 9.249999999999996e+00	 6.875000000000000e-01	 9.856254082461529e+00
0	 9.249999999999996e+00	 7.500000000000000e-01	 9.857756749538465e+00
0	 9.249999999999998e+00	 8.125000000000001e-01	 9.859234862769229e+00
0	 9.250000000000000e+00	 8.750000000000003e-01	 9.860688422153846e+00
0	 9.249999999999998e+00	 9.375000000000002e-01	 9.862117427692313e+00
0	 9.249999999999998e+00	 1.000000000000001e+00	 9.863521879384612e+00
0	 9.249999999999996e+00	 1.062500000000000e+00	 9.864901777230768e+00
0	 9.249999999999996e+00	 1.125000000000000e+00	 9.866257121230765e+00
0	 9.249999999999998e+00	 1.187500000000000e+00	 9.867587911384618e+00
0	 9.249999999999998e+00	 1.250000000000000e+00	 9.868894147692302e+00
0	 9.312499999999998e+00	 6.250000000000000e-01	 9.846140615384613e+00
0	 9.312499999999998e+00	 6.875000000000002e-01	 9.847720533692307e+00
0	 9.312499999999996e+00	 7.500000000000001e-01	 9.849276451999993e+00
0	 9.312499999999998e+00	 8.125000000000001e-01	 9.850808370307696e+00
0	 9.312499999999998e+00	 8.750000000000002e-01	 9.852316288615388e+00
0	 9.312499999999998e+00	 9.375000000000002e-01	 9.853800206923076e+00
0	 9.312499999999998e+00	 1.000000000000000e+00	 9.855260125230767e+00
0	 9.312499999999996e+00	 1.062500000000000e+00	 9.856696043538456e+00
0	 9.312499999999996e+00	 1.125000000000000e+00	 9.858107961846150e+00
0	 9.312499999999998e+00	 1.187500000000000e+00	 9.859495880153844e+00
0	 9.312499999999998e+00	 1.250000000000000e+00	 9.860859798461535e+00
0	 9.375000000000000e+00	 6.250000000000000e-01	 9.837333384615382e+00
0	 9.375000000000000e+00	 6.875000000000000e-01	 9.838970969230767e+00
0	 9.375000000000000e+00	 7.500000000000002e-01	 9.840585107692306e+00
0	 9.375000000000002e+00	 8.125000000000002e-01	 9.842175799999994e+00
0	 9.375000000000002e+00	 8.750000000000002e-01	 9.843743046153852e+00
0	 9.375000000000002e+00	 9.375000000000002e-01	 9.845286846153844e+00
0	 9.375000000000000e+00	 1.000000000000000e+00	 9.846807199999997e+00
0	 9.375000000000000e+00	 1.062500000000000e+00	 9.848304107692309e+00
0	 9.375000000000002e+00	 1.125000000000001e+00	 9.849777569230760e+00
0	 9.375000000000000e+00	 1.187500000000000e+00	 9.851227584615380e+00
0	 9.375000000000000e+00	 1.250000000000000e+00	 9.852654153846155e+00
0	 8.750000000000000e+00	 1.250000000000000e+00	 9.927002307692305e+00
0	 8.750000000000000e+00	 1.312500000000000e+00	 9.928776076923079e+00
0	 8.750000000000000e+00	 1.375000000000000e+00	 9.930533230769221e+00
0	 8.750000000000004e+00	 1.437500000000000e+00	 9.932273769230774e+00
0	 8.750000000000000e+00	 1.500000000000000e+00	 9.933997692307685e+00
0	 8.750000000000002e+00	 1.562500000000000e+00	 9.935704999999999e+00
0	 8.750000000000000e+00	 1.625000000000000e+00	 9.937395692307689e+00
0	 8.750000000000000e+00	 1.687500000000000e+00	 9.939069769230764e+00
0	 8.750000000000002e+00	 1.750000000000001e+00	 9.940727230769227e+00
0	 8.750000000000000e+00	 1.812500000000000e+00	 9.942368076923076e+00
0	 8.750000000000000e+00	 1.875000000000000e+00	 9.943992307692307e+00
0	 8.812499999999998e+00	 1.250000000000000e+00	 9.920338321538463e+00
0	 8.812500000000000e+00	 1.312500000000000e+00	 9.922139306307692e+00
0	 8.812500000000000e+00	 1.375000000000000e+00	 9.923923823384614e+00
0	 8.812500000000000e+00	 1.437500000000000e+00	 9.925691872769233e+00
0	 8.812500000000004e+00	 1.500000000000000e+00	 9.927443454461532e+00
0	 8.812500000000002e+00	 1.562500000000000e+00	 9.929178568461534e+00
0	 8.812500000000002e+00	 1.625000000000000e+00	 9.930897214769221e+00
0	 8.812500000000002e+00	 1.687500000000000e+00	 9.932599393384606e+00
0	 8.812499999999998e+00	 1.750000000000000e+00	 9.934285104307683e+00
0	 8.812499999999998e+00	 1.812500000000000e+00	 9.935954347538459e+00
0	 8.812499999999998e+00	 1.875000000000000e+00	 9.937607123076928e+00
0	 8.874999999999998e+00	 1.250000000000000e+00	 9.913503039999989e+00
0	 8.875000000000000e+00	 1.312500000000000e+00	 9.915338440615386e+00
0	 8.875000000000004e+00	 1.375000000000000e+00	 9.917157521230767e+00
0	 8.875000000000000e+00	 1.437500000000000e+00	 9.918960281846154e+00
0	 8.875000000000000e+00	 1.500000000000000e+00	 9.920746722461535e+00
0	 8.875000000000000e+00	 1.562500000000000e+00	 9.922516843076917e+00
0	 8.875000000000000e+00	 1.625000000000000e+00	 9.924270643692301e+00
0	 8.875000000000000e+00	 1.687500000000000e+00	 9.926008124307698e+00
0	 8.875000000000000e+00	 1.750000000000001e+00	 9.927729284923076e+00
0	 8.875000000000000e+00	 1.812500000000001e+00	 9.929434125538458e+00
0	 8.874999999999998e+00	 1.875000000000000e+00	 9.931122646153844e+00
0	 8.937500000000000e+00	 1.250000000000000e+00	 9.906496463076927e+00
0	 8.937500000000000e+00	 1.312500000000000e+00	 9.908373479846158e+00
0	 8.937499999999998e+00	 1.375000000000000e+00	 9.910234324307694e+00
0	 8.937500000000000e+00	 1.437500000000000e+00	 9.912078996461538e+00
0	 8.937499999999998e+00	 1.500000000000000e+00	 9.913907496307694e+00
0	 8.937499999999998e+00	 1.562500000000000e+00	 9.915719823846155e+00
0	 8.937499999999998e+00	 1.625000000000000e+00	 9.917515979076915e+00
0	 8.937500000000000e+00	 1.687500000000000e+00	 9.919295962000005e+00
0	 8.937500000000000e+00	 1.750000000000000e+00	 9.921059772615385e+00
0	 8.937500000000000e+00	 1.812500000000000e+00	 9.922807410923077e+00
0	 8.937500000000000e+00	 1.875000000000000e+00	 9.924538876923080e+00
0	 9.000000000000000e+00	 1.250000000000000e+00	 9.899318590769226e+00
0	 9.000000000000000e+00	 1.312500000000000e+00	 9.901244423999996e+00
0	 8.999999999999996e+00	 1.375000000000000e+00	 9.903154232615380e+00
0	 9.000000000000000e+00	 1.437500000000000e+00	 9.905048016615378e+00
0	 8.999999999999998e+00	 1.500000000000000e+00	 9.906925775999996e+00
0	 8.999999999999996e+00	 1.562500000000000e+00	 9.908787510769226e+00
0	 9.000000000000000e+00	 1.625000000000001e+00	 9.910633220923074e+00
0	 9.000000000000000e+00	 1.687500000000000e+00	 9.912462906461537e+00
0	 9.000000000000000e+00	 1.750000000000001e+00	 9.914276567384615e+00
0	 9.000000000000000e+00	 1.812500000000000e+00	 9.916074203692304e+00
0	 9.000000000000000e+00	 1.875000000000000e+00	 9.917855815384611e+00
0	 9.062500000000000e+00	 1.250000000000000e+00	 9.891969423076922e+00
0	 9.062499999999998e+00	 1.312500000000000e+00	 9.893951273076921e+00
0	 9.062499999999998e+00	 1.375000000000000e+00	 9.895917246153848e+00
0	 9.062499999999998e+00	 1.437500000000000e+00	 9.897867342307693e+00
0	 9.062499999999998e+00	 1.500000000000000e+00	 9.899801561538469e+00
0	 9.062500000000000e+00	 1.562500000000000e+00	 9.901719903846150e+00
0	 9.062500000000000e+00	 1.625000000000000e+00	 9.903622369230762e+00
0	 9.062500000000002e+00	 1.687500000000000e+00	 9.905508957692311e+00
0	 9.062499999999998e+00	 1.750000000000000e+00	 9.907379669230773e+00
0	 9.062500000000000e+00	 1.812500000000000e+00	 9.909234503846150e+00
0	 9.062500000000000e+00	 1.875000000000000e+00	 9.911073461538464e+00
0	 9.124999999999998e+00	 1.250000000000000e+00	 9.884448960000000e+00
0	 9.124999999999998e+00	 1.312500000000000e+00	 9.886494027076925e+00
0	 9.124999999999998e+00	 1.375000000000000e+00	 9.888523364923079e+00
0	 9.124999999999996e+00	 1.437500000000000e+00	 9.890536973538461e+00
0	 9.124999999999998e+00	 1.500000000000000e+00	 9.892534852923076e+00
0	 9.124999999999998e+00	 1.562500000000000e+00	 9.894517003076922e+00
0	 9.124999999999998e+00	 1.625000000000000e+00	 9.896483423999996e+00
0	 9.124999999999998e+00	 1.687500000000000e+00	 9.898434115692313e+00
0	 9.124999999999998e+00	 1.750000000000000e+00	 9.900369078153846e+00
0	 9.124999999999996e+00	 1.812500000000000e+00	 9.902288311384613e+00
0	 9.124999999999998e+00	 1.875000000000000e+00	 9.904191815384621e+00
0	 9.187499999999998e+00	 1.250000000000000e+00	 9.876757201538462e+00
0	 9.187499999999998e+00	 1.312500000000000e+00	 9.878872686000006e+00
0	 9.187500000000000e+00	 1.375000000000000e+00	 9.880972588923074e+00
0	 9.187499999999996e+00	 1.437500000000000e+00	 9.883056910307683e+00
0	 9.187500000000000e+00	 1.500000000000001e+00	 9.885125650153844e+00
0	 9.187499999999998e+00	 1.562500000000000e+00	 9.887178808461542e+00
0	 9.187499999999998e+00	 1.625000000000000e+00	 9.889216385230766e+00
0	 9.187500000000000e+00	 1.687500000000000e+00	 9.891238380461534e+00
0	 9.187499999999996e+00	 1.750000000000000e+00	 9.893244794153848e+00
0	 9.187500000000000e+00	 1.812500000000000e+00	 9.895235626307702e+00
0	 9.187499999999998e+00	 1.875000000000000e+00	 9.897210876923086e+00
0	 9.249999999999998e+00	 1.250000000000000e+00	 9.868894147692302e+00
0	 9.249999999999996e+00	 1.312500000000000e+00	 9.871087249846141e+00
0	 9.249999999999996e+00	 1.375000000000000e+00	 9.873264918153847e+00
0	 9.249999999999998e+00	 1.437500000000000e+00	 9.875427152615385e+00
0	 9.250000000000000e+00	 1.500000000000000e+00	 9.877573953230765e+00
0	 9.249999999999998e+00	 1.562500000000000e+00	 9.879705319999998e+00
0	 9.249999999999998e+00	 1.625000000000001e+00	 9.881821252923068e+00
0	 9.249999999999996e+00	 1.687500000000000e+00	 9.883921752000001e+00
0	 9.249999999999996e+00	 1.750000000000000e+00	 9.886006817230763e+00
0	 9.249999999999998e+00	 1.812500000000001e+00	 9.888076448615385e+00
0	 9.249999999999998e+00	 1.875000000000000e+00	 9.890130646153844e+00
0	 9.312499999999998e+00	 1.250000000000000e+00	 9.860859798461535e+00
0	 9.312499999999998e+00	 1.312500000000000e+00	 9.863137718615381e+00
0	 9.312499999999996e+00	 1.375000000000000e+00	 9.865400352615383e+00
0	 9.312499999999998e+00	 1.437500000000000e+00	 9.867647700461534e+00
0	 9.312499999999998e+00	 1.500000000000000e+00	 9.869879762153850e+00
0	 9.312499999999998e+00	 1.562500000000000e+00	 9.872096537692304e+00
0	 9.312499999999998e+00	 1.625000000000000e+00	 9.874298027076920e+00
0	 9.312499999999996e+00	 1.687500000000000e+00	 9.876484230307687e+00
0	 9.312499999999996e+00	 1.750000000000000e+00	 9.878655147384610e+00
0	 9.312499999999998e+00	 1.812500000000000e+00	 9.880810778307691e+00
0	 9.312499999999998e+00	 1.875000000000000e+00	 9.882951123076930e+00
0	 9.375000000000000e+00	 1.250000000000000e+00	 9.852654153846155e+00
0	 9.375000000000000e+00	 1.312500000000000e+00	 9.855024092307687e+00
0	 9.375000000000000e+00	 1.375000000000000e+00	 9.857378892307697e+00
0	 9.375000000000002e+00	 1.437500000000000e+00	 9.859718553846154e+00
0	 9.375000000000002e+00	 1.500000000000000e+00	 9.862043076923074e+00
0	 9.375000000000002e+00	 1.562500000000000e+00	 9.864352461538459e+00
0	 9.375000000000000e+00	 1.625000000000000e+00	 9.866646707692309e+00
0	 9.375000000000000e+00	 1.687500000000000e+00	 9.868925815384616e+00
0	 9.375000000000002e+00	 1.750000000000001e+00	 9.871189784615375e+00
0	 9.375000000000000e+00	 1.812500000000000e+00	 9.873438615384609e+00
0	 9.375000000000000e+00	 1.875000000000000e+00	 9.875672307692309e+00
0	 8.750000000000000e+00	 1.875000000000000e+00	 9.943992307692307e+00
0	 8.750000000000000e+00	 1.937500000000000e+00	 9.945967492307689e+00
0	 8.750000000000000e+00	 2.000000000000000e+00	 9.947940738461538e+00
0	 8.750000000000004e+00	 2.062500000000000e+00	 9.949912046153838e+00
0	 8.750000000000000e+00	 2.125000000000000e+00	 9.951881415384619e+00
0	 8.750000000000002e+00	 2.187500000000000e+00	 9.953848846153846e+00
0	 8.750000000000000e+00	 2.250000000000000e+00	 9.955814338461529e+00
0	 8.750000000000000e+00	 2.312500000000000e+00	 9.957777892307689e+00
0	 8.750000000000002e+00	 2.375000000000001e+00	 9.959739507692303e+00
0	 8.750000000000000e+00	 2.437500000000001e+00	 9.961699184615391e+00
0	 8.750000000000000e+00	 2.500000000000000e+00	 9.963656923076920e+00
0	 8.812499999999998e+00	 1.875000000000000e+00	 9.937607123076928e+00
0	 8.812500000000000e+00	 1.937500000000000e+00	 9.939625461538453e+00
0	 8.812500000000000e+00	 2.000000000000000e+00	 9.941641473846156e+00
0	 8.812500000000000e+00	 2.062500000000000e+00	 9.943655159999992e+00
0	 8.812500000000004e+00	 2.125000000000001e+00	 9.945666519999993e+00
0	 8.812500000000002e+00	 2.187500000000000e+00	 9.947675553846146e+00
0	 8.812500000000002e+00	 2.250000000000000e+00	 9.949682261538458e+00
0	 8.812500000000002e+00	 2.312500000000000e+00	 9.951686643076922e+00
0	 8.812499999999998e+00	 2.375000000000000e+00	 9.953688698461535e+00
0	 8.812499999999998e+00	 2.437500000000000e+00	 9.955688427692307e+00
0	 8.812499999999998e+00	 2.500000000000000e+00	 9.957685830769229e+00
0	 8.874999999999998e+00	 1.875000000000000e+00	 9.931122646153844e+00
0	 8.875000000000000e+00	 1.937500000000000e+00	 9.933192064615387e+00
0	 8.875000000000004e+00	 2.000000000000000e+00	 9.935258769230767e+00
0	 8.875000000000000e+00	 2.062500000000000e+00	 9.937322760000008e+00
0	 8.875000000000000e+00	 2.125000000000000e+00	 9.939384036923075e+00
0	 8.875000000000000e+00	 2.187500000000001e+00	 9.941442600000004e+00
0	 8.875000000000000e+00	 2.250000000000000e+00	 9.943498449230761e+00
0	 8.875000000000000e+00	 2.312500000000000e+00	 9.945551584615380e+00
0	 8.875000000000000e+00	 2.375000000000000e+00	 9.947602006153849e+00
0	 8.875000000000000e+00	 2.437500000000000e+00	 9.949649713846146e+00
0	 8.874999999999998e+00	 2.500000000000000e+00	 9.951694707692297e+00
0	 8.937500000000000e+00	 1.875000000000000e+00	 9.924538876923080e+00
0	 8.937500000000000e+00	 1.937500000000000e+00	 9.926667301538460e+00
0	 8.937499999999998e+00	 2.000000000000000e+00	 9.928792624615385e+00
0	 8.937500000000000e+00	 2.062500000000000e+00	 9.930914846153847e+00
0	 8.937499999999998e+00	 2.125000000000001e+00	 9.933033966153841e+00
0	 8.937499999999998e+00	 2.187500000000000e+00	 9.935149984615382e+00
0	 8.937499999999998e+00	 2.250000000000000e+00	 9.937262901538466e+00
0	 8.937500000000000e+00	 2.312500000000000e+00	 9.939372716923074e+00
0	 8.937500000000000e+00	 2.375000000000000e+00	 9.941479430769235e+00
0	 8.937500000000000e+00	 2.437500000000000e+00	 9.943583043076915e+00
0	 8.937500000000000e+00	 2.500000000000000e+00	 9.945683553846155e+00
0	 9.000000000000000e+00	 1.875000000000000e+00	 9.917855815384611e+00
0	 9.000000000000000e+00	 1.937500000000000e+00	 9.920051172307682e+00
0	 8.999999999999996e+00	 2.000000000000000e+00	 9.922243040000001e+00
0	 9.000000000000000e+00	 2.062500000000000e+00	 9.924431418461541e+00
0	 8.999999999999998e+00	 2.125000000000000e+00	 9.926616307692308e+00
0	 8.999999999999996e+00	 2.187500000000000e+00	 9.928797707692306e+00
0	 9.000000000000000e+00	 2.250000000000000e+00	 9.930975618461540e+00
0	 9.000000000000000e+00	 2.312500000000000e+00	 9.933150039999992e+00
0	 9.000000000000000e+00	 2.375000000000000e+00	 9.935320972307686e+00
0	 9.000000000000000e+00	 2.437500000000000e+00	 9.937488415384614e+00
0	 9.000000000000000e+00	 2.500000000000000e+00	 9.939652369230764e+00
0	 9.062500000000000e+00	 1.875000000000000e+00	 9.911073461538464e+00
0	 9.062499999999998e+00	 1.937500000000000e+00	 9.913343676923080e+00
0	 9.062499999999998e+00	 2.000000000000000e+00	 9.915610015384612e+00
0	 9.062499999999998e+00	 2.062500000000000e+00	 9.917872476923080e+00
0	 9.062499999999998e+00	 2.125000000000000e+00	 9.920131061538459e+00
0	 9.062500000000000e+00	 2.187500000000000e+00	 9.922385769230766e+00
0	 9.062500000000000e+00	 2.250000000000000e+00	 9.924636600000007e+00
0	 9.062500000000002e+00	 2.312500000000001e+00	 9.926883553846153e+00
0	 9.062499999999998e+00	 2.375000000000000e+00	 9.929126630769225e+00
0	 9.062500000000000e+00	 2.437500000000000e+00	 9.931365830769224e+00
0	 9.062500000000000e+00	 2.500000000000000e+00	 9.933601153846155e+00
0	 9.124999999999998e+00	 1.875000000000000e+00	 9.904191815384621e+00
0	 9.124999999999998e+00	 1.937500000000000e+00	 9.906544815384615e+00
0	 9.124999999999998e+00	 2.000000000000000e+00	 9.908893550769228e+00
0	 9.124999999999996e+00	 2.062500000000000e+00	 9.911238021538463e+00
0	 9.124999999999998e+00	 2.125000000000000e+00	 9.913578227692311e+00
0	 9.124999999999998e+00	 2.187500000000000e+00	 9.915914169230774e+00
0	 9.124999999999998e+00	 2.250000000000000e+00	 9.918245846153845e+00
0	 9.124999999999998e+00	 2.312500000000000e+00	 9.920573258461541e+00
0	 9.124999999999998e+00	 2.375000000000001e+00	 9.922896406153846e+00
0	 9.124999999999996e+00	 2.437500000000000e+00	 9.925215289230767e+00
0	 9.124999999999998e+00	 2.500000000000000e+00	 9.927529907692319e+00
0	 9.187499999999998e+00	 1.875000000000000e+00	 9.897210876923086e+00
0	 9.187499999999998e+00	 1.937500000000000e+00	 9.899654587692311e+00
0	 9.187500000000000e+00	 2.000000000000001e+00	 9.902093646153851e+00
0	 9.187499999999996e+00	 2.062500000000000e+00	 9.904528052307693e+00
0	 9.187500000000000e+00	 2.125000000000001e+00	 9.906957806153837e+00
0	 9.187499999999998e+00	 2.187500000000000e+00	 9.909382907692304e+00
0	 9.187499999999998e+00	 2.250000000000000e+00	 9.911803356923079e+00
0	 9.187500000000000e+00	 2.312500000000001e+00	 9.914219153846149e+00
0	 9.187499999999996e+00	 2.375000000000000e+00	 9.916630298461534e+00
0	 9.187500000000000e+00	 2.437500000000000e+00	 9.919036790769226e+00
0	 9.187499999999998e+00	 2.500000000000000e+00	 9.921438630769234e+00
0	 9.249999999999998e+00	 1.875000000000000e+00	 9.890130646153844e+00
0	 9.249999999999996e+00	 1.937500000000000e+00	 9.892672993846148e+00
0	 9.249999999999996e+00	 2.000000000000000e+00	 9.895210301538464e+00
0	 9.249999999999998e+00	 2.062500000000000e+00	 9.897742569230772e+00
0	 9.250000000000000e+00	 2.125000000000000e+00	 9.900269796923070e+00
0	 9.249999999999998e+00	 2.187500000000000e+00	 9.902791984615392e+00
0	 9.249999999999998e+00	 2.250000000000000e+00	 9.905309132307689e+00
0	 9.249999999999996e+00	 2.312500000000000e+00	 9.907821239999995e+00
0	 9.249999999999996e+00	 2.375000000000000e+00	 9.910328307692305e+00
0	 9.249999999999998e+00	 2.437500000000001e+00	 9.912830335384614e+00
0	 9.249999999999998e+00	 2.500000000000000e+00	 9.915327323076925e+00
0	 9.312499999999998e+00	 1.875000000000000e+00	 9.882951123076930e+00
0	 9.312499999999998e+00	 1.937500000000000e+00	 9.885600033846158e+00
0	 9.312499999999996e+00	 2.000000000000000e+00	 9.888243516923071e+00
0	 9.312499999999998e+00	 2.062500000000000e+00	 9.890881572307691e+00
0	 9.312499999999998e+00	 2.125000000000000e+00	 9.893514200000002e+00
0	 9.312499999999998e+00	 2.187500000000000e+00	 9.896141399999998e+00
0	 9.312499999999998e+00	 2.250000000000000e+00	 9.898763172307689e+00
0	 9.312499999999996e+00	 2.312500000000000e+00	 9.901379516923067e+00
0	 9.312499999999996e+00	 2.375000000000000e+00	 9.903990433846152e+00
0	 9.312499999999998e+00	 2.437500000000000e+00	 9.906595923076912e+00
0	 9.312499999999998e+00	 2.500000000000000e+00	 9.909195984615383e+00
0	 9.375000000000000e+00	 1.875000000000000e+00	 9.875672307692309e+00
0	 9.375000000000000e+00	 1.937500000000000e+00	 9.878435707692303e+00
0	 9.375000000000000e+00	 2.000000000000000e+00	 9.881193292307696e+00
0	 9.375000000000002e+00	 2.062500000000000e+00	 9.883945061538457e+00
0	 9.375000000000002e+00	 2.125000000000000e+00	 9.886691015384622e+00
0	 9.375000000000002e+00	 2.187500000000000e+00	 9.889431153846155e+00
0	 9.375000000000000e+00	 2.250000000000000e+00	 9.892165476923076e+00
0	 9.375000000000000e+00	 2.312500000000000e+00	 9.894893984615383e+00
0	 9.375000000000002e+00	 2.375000000000001e+00	 9.897616676923084e+00
0	 9.375000000000000e+00	 2.437500000000001e+00	 9.900333553846147e+00
0	 9.375000000000000e+00	 2.500000000000000e+00	 9.903044615384617e+00
0	 8.750000000000000e+00	 2.500000000000000e+00	 9.963656923076920e+00
0	 8.750000000000000e+00	 2.562500000000000e+00	 9.965558738461553e+00
0	 8.750000000000002e+00	 2.625000000000000e+00	 9.967471261538464e+00
0	 8.750000000000000e+00	 2.687499999999999e+00	 9.969394492307684e+00
0	 8.750000000000000e+00	 2.750000000000000e+00	 9.971328430769226e+00
0	 8.750000000000000e+00	 2.812499999999999e+00	 9.973273076923078e+00
0	 8.750000000000000e+00	 2.874999999999999e+00	 9.975228430769228e+00
0	 8.750000000000000e+00	 2.937499999999998e+00	 9.977194492307692e+00
0	 8.750000000000000e+00	 2.999999999999998e+00	 9.979171261538458e+00
0	 8.750000000000000e+00	 3.062499999999998e+00	 9.981158738461541e+00
0	 8.750000000000000e+00	 3.125000000000000e+00	 9.983156923076923e+00
0	 8.812499999999998e+00	 2.500000000000000e+00	 9.957685830769229e+00
0	 8.812500000000000e+00	 2.562500000000000e+00	 9.959648201538453e+00
0	 8.812499999999998e+00	 2.624999999999999e+00	 9.961620523076915e+00
0	 8.812500000000000e+00	 2.687499999999999e+00	 9.963602795384615e+00
0	 8.812500000000000e+00	 2.750000000000000e+00	 9.965595018461539e+00
0	 8.812500000000002e+00	 2.812499999999999e+00	 9.967597192307684e+00
0	 8.812500000000004e+00	 2.875000000000000e+00	 9.969609316923080e+00
0	 8.812500000000002e+00	 2.937499999999999e+00	 9.971631392307687e+00
0	 8.812500000000002e+00	 2.999999999999999e+00	 9.973663418461538e+00
0	 8.812499999999996e+00	 3.062499999999997e+00	 9.975705395384606e+00
0	 8.812499999999998e+00	 3.125000000000000e+00	 9.977757323076922e+00
0	 8.874999999999998e+00	 2.500000000000000e+00	 9.951694707692297e+00
0	 8.875000000000000e+00	 2.562500000000000e+00	 9.953724547692310e+00
0	 8.875000000000004e+00	 2.625000000000000e+00	 9.955763581538458e+00
0	 8.875000000000002e+00	 2.687500000000000e+00	 9.957811809230765e+00
0	 8.874999999999998e+00	 2.749999999999999e+00	 9.959869230769224e+00
0	 8.874999999999998e+00	 2.812499999999999e+00	 9.961935846153841e+00
0	 8.874999999999996e+00	 2.874999999999999e+00	 9.964011655384617e+00
0	 8.875000000000002e+00	 2.937499999999999e+00	 9.966096658461538e+00
0	 8.875000000000000e+00	 2.999999999999998e+00	 9.968190855384615e+00
0	 8.875000000000004e+00	 3.062499999999999e+00	 9.970294246153847e+00
0	 8.874999999999998e+00	 3.125000000000000e+00	 9.972406830769231e+00
0	 8.937500000000000e+00	 2.500000000000000e+00	 9.945683553846155e+00
0	 8.937500000000000e+00	 2.562500000000000e+00	 9.947787776923070e+00
0	 8.937500000000002e+00	 2.625000000000000e+00	 9.949900436923080e+00
0	 8.937500000000000e+00	 2.687499999999999e+00	 9.952021533846150e+00
0	 8.937499999999998e+00	 2.749999999999999e+00	 9.954151067692301e+00
0	 8.937500000000000e+00	 2.812499999999999e+00	 9.956289038461541e+00
0	 8.937499999999998e+00	 2.874999999999999e+00	 9.958435446153846e+00
0	 8.937500000000000e+00	 2.937499999999999e+00	 9.960590290769225e+00
0	 8.937500000000000e+00	 2.999999999999999e+00	 9.962753572307690e+00
0	 8.937499999999998e+00	 3.062499999999998e+00	 9.964925290769234e+00
0	 8.937500000000000e+00	 3.125000000000000e+00	 9.967105446153841e+00
0	 9.000000000000000e+00	 2.500000000000000e+00	 9.939652369230764e+00
0	 9.000000000000000e+00	 2.562500000000000e+00	 9.941837889230777e+00
0	 9.000000000000000e+00	 2.625000000000000e+00	 9.944031089230773e+00
0	 9.000000000000000e+00	 2.687500000000000e+00	 9.946231969230768e+00
0	 8.999999999999998e+00	 2.750000000000000e+00	 9.948440529230769e+00
0	 9.000000000000000e+00	 2.812499999999999e+00	 9.950656769230768e+00
0	 8.999999999999996e+00	 2.874999999999999e+00	 9.952880689230762e+00
0	 8.999999999999998e+00	 2.937499999999998e+00	 9.955112289230767e+00
0	 9.000000000000000e+00	 2.999999999999999e+00	 9.957351569230774e+00
0	 9.000000000000000e+00	 3.062499999999998e+00	 9.959598529230771e+00
0	 9.000000000000000e+00	 3.125000000000000e+00	 9.961853169230761e+00
0	 9.062500000000000e+00	 2.500000000000000e+00	 9.933601153846155e+00
0	 9.062500000000000e+00	 2.562499999999999e+00	 9.935874884615384e+00
0	 9.062499999999998e+00	 2.625000000000000e+00	 9.938155538461537e+00
0	 9.062500000000000e+00	 2.687500000000000e+00	 9.940443115384618e+00
0	 9.062499999999998e+00	 2.749999999999999e+00	 9.942737615384612e+00
0	 9.062499999999998e+00	 2.812499999999999e+00	 9.945039038461539e+00
0	 9.062500000000002e+00	 2.874999999999999e+00	 9.947347384615382e+00
0	 9.062499999999998e+00	 2.937499999999998e+00	 9.949662653846156e+00
0	 9.062499999999998e+00	 2.999999999999998e+00	 9.951984846153840e+00
0	 9.062500000000002e+00	 3.062499999999998e+00	 9.954313961538453e+00
0	 9.062500000000000e+00	 3.125000000000000e+00	 9.956650000000002e+00
0	 9.124999999999998e+00	 2.500000000000000e+00	 9.927529907692319e+00
0	 9.124999999999998e+00	 2.562500000000000e+00	 9.929898763076917e+00
0	 9.124999999999996e+00	 2.625000000000000e+00	 9.932273784615386e+00
0	 9.124999999999998e+00	 2.687500000000000e+00	 9.934654972307692e+00
0	 9.125000000000002e+00	 2.750000000000000e+00	 9.937042326153851e+00
0	 9.125000000000000e+00	 2.812500000000000e+00	 9.939435846153851e+00
0	 9.124999999999998e+00	 2.874999999999999e+00	 9.941835532307689e+00
0	 9.125000000000000e+00	 2.937499999999999e+00	 9.944241384615383e+00
0	 9.125000000000000e+00	 2.999999999999999e+00	 9.946653403076926e+00
0	 9.124999999999998e+00	 3.062499999999998e+00	 9.949071587692318e+00
0	 9.124999999999998e+00	 3.125000000000000e+00	 9.951495938461534e+00
0	 9.187499999999998e+00	 2.500000000000000e+00	 9.921438630769234e+00
0	 9.187499999999998e+00	 2.562500000000000e+00	 9.923909524615384e+00
0	 9.187500000000000e+00	 2.625000000000000e+00	 9.926385827692306e+00
0	 9.187500000000000e+00	 2.687500000000000e+00	 9.928867539999997e+00
0	 9.187499999999998e+00	 2.749999999999999e+00	 9.931354661538455e+00
0	 9.187500000000000e+00	 2.812499999999999e+00	 9.933847192307692e+00
0	 9.187500000000000e+00	 2.874999999999999e+00	 9.936345132307695e+00
0	 9.187500000000000e+00	 2.937499999999998e+00	 9.938848481538468e+00
0	 9.187499999999998e+00	 2.999999999999998e+00	 9.941357240000000e+00
0	 9.187500000000000e+00	 3.062499999999998e+00	 9.943871407692306e+00
0	 9.187499999999998e+00	 3.125000000000000e+00	 9.946390984615380e+00
0	 9.249999999999998e+00	 2.500000000000000e+00	 9.915327323076925e+00
0	 9.250000000000000e+00	 2.562500000000001e+00	 9.917907169230762e+00
0	 9.249999999999998e+00	 2.625000000000000e+00	 9.920491667692302e+00
0	 9.250000000000000e+00	 2.687500000000000e+00	 9.923080818461543e+00
0	 9.249999999999998e+00	 2.749999999999999e+00	 9.925674621538462e+00
0	 9.249999999999998e+00	 2.812499999999999e+00	 9.928273076923078e+00
0	 9.249999999999998e+00	 2.874999999999999e+00	 9.930876184615379e+00
0	 9.249999999999998e+00	 2.937499999999998e+00	 9.933483944615379e+00
0	 9.250000000000000e+00	 2.999999999999998e+00	 9.936096356923073e+00
0	 9.249999999999998e+00	 3.062499999999998e+00	 9.938713421538461e+00
0	 9.249999999999998e+00	 3.125000000000000e+00	 9.941335138461536e+00
0	 9.312499999999998e+00	 2.500000000000000e+00	 9.909195984615383e+00
0	 9.312499999999998e+00	 2.562500000000000e+00	 9.911891696923076e+00
0	 9.312500000000000e+00	 2.625000000000000e+00	 9.914591304615385e+00
0	 9.312500000000000e+00	 2.687500000000000e+00	 9.917294807692317e+00
0	 9.312499999999998e+00	 2.749999999999999e+00	 9.920002206153850e+00
0	 9.312499999999998e+00	 2.812499999999999e+00	 9.922713500000000e+00
0	 9.312499999999998e+00	 2.874999999999999e+00	 9.925428689230777e+00
0	 9.312499999999998e+00	 2.937499999999998e+00	 9.928147773846149e+00
0	 9.312499999999998e+00	 2.999999999999998e+00	 9.930870753846161e+00
0	 9.312499999999998e+00	 3.062499999999998e+00	 9.933597629230768e+00
0	 9.312499999999998e+00	 3.125000000000000e+00	 9.936328400000004e+00
0	 9.375000000000000e+00	 2.500000000000000e+00	 9.903044615384617e+00
0	 9.375000000000000e+00	 2.562500000000000e+00	 9.905863107692314e+00
0	 9.375000000000002e+00	 2.625000000000000e+00	 9.908684738461542e+00
0	 9.374999999999998e+00	 2.687499999999999e+00	 9.911509507692308e+00
0	 9.375000000000002e+00	 2.750000000000000e+00	 9.914337415384614e+00
0	 9.375000000000000e+00	 2.812499999999999e+00	 9.917168461538457e+00
0	 9.375000000000000e+00	 2.874999999999999e+00	 9.920002646153847e+00
0	 9.375000000000000e+00	 2.937499999999998e+00	 9.922839969230772e+00
0	 9.375000000000000e+00	 2.999999999999998e+00	 9.925680430769225e+00
0	 9.375000000000000e+00	 3.062499999999998e+00	 9.928524030769243e+00
0	 9.375000000000000e+00	 3.125000000000000e+00	 9.931370769230764e+00
0	 8.750000000000000e+00	 3.125000000000000e+00	 9.983156923076923e+00
0	 8.750000000000000e+00	 3.187500000000000e+00	 9.984773569230759e+00
0	 8.750000000000002e+00	 3.250000000000000e+00	 9.986409046153835e+00
0	 8.750000000000000e+00	 3.312499999999999e+00	 9.988063353846153e+00
0	 8.750000000000000e+00	 3.374999999999999e+00	 9.989736492307689e+00
0	 8.750000000000000e+00	 3.437499999999999e+00	 9.991428461538451e+00
0	 8.750000000000000e+00	 3.499999999999999e+00	 9.993139261538461e+00
0	 8.750000000000000e+00	 3.562499999999998e+00	 9.994868892307693e+00
0	 8.750000000000000e+00	 3.624999999999999e+00	 9.996617353846148e+00
0	 8.750000000000000e+00	 3.687499999999998e+00	 9.998384646153829e+00
0	 8.750000000000000e+00	 3.750000000000000e+00	 1.000017076923076e+01
0	 8.812499999999998e+00	 3.125000000000000e+00	 9.977757323076922e+00
0	 8.812500000000000e+00	 3.187500000000000e+00	 9.979444633846157e+00
0	 8.812499999999998e+00	 3.250000000000000e+00	 9.981149944615384e+00
0	 8.812500000000000e+00	 3.312499999999999e+00	 9.982873255384614e+00
0	 8.812500000000000e+00	 3.374999999999999e+00	 9.984614566153844e+00
0	 8.812500000000002e+00	 3.437499999999999e+00	 9.986373876923068e+00
0	 8.812500000000004e+00	 3.500000000000000e+00	 9.988151187692299e+00
0	 8.812500000000002e+00	 3.562499999999999e+00	 9.989946498461540e+00
0	 8.812500000000002e+00	 3.625000000000000e+00	 9.991759809230770e+00
0	 8.812499999999996e+00	 3.687499999999997e+00	 9.993591119999985e+00
0	 8.812499999999998e+00	 3.750000000000000e+00	 9.995440430769232e+00
0	 8.874999999999998e+00	 3.125000000000000e+00	 9.972406830769231e+00
0	 8.875000000000000e+00	 3.187500000000000e+00	 9.974170104615387e+00
0	 8.875000000000004e+00	 3.250000000000000e+00	 9.975950547692308e+00
0	 8.875000000000002e+00	 3.312500000000000e+00	 9.977748159999997e+00
0	 8.874999999999998e+00	 3.374999999999999e+00	 9.979562941538456e+00
0	 8.874999999999998e+00	 3.437499999999999e+00	 9.981394892307694e+00
0	 8.874999999999996e+00	 3.499999999999997e+00	 9.983244012307694e+00
0	 8.875000000000002e+00	 3.562499999999999e+00	 9.985110301538453e+00
0	 8.875000000000000e+00	 3.624999999999998e+00	 9.986993759999990e+00
0	 8.875000000000004e+00	 3.687499999999999e+00	 9.988894387692303e+00
0	 8.874999999999998e+00	 3.750000000000000e+00	 9.990812184615374e+00
0	 8.937500000000000e+00	 3.125000000000000e+00	 9.967105446153841e+00
0	 8.937500000000000e+00	 3.187500000000000e+00	 9.968949981538461e+00
0	 8.937500000000002e+00	 3.250000000000000e+00	 9.970810855384622e+00
0	 8.937500000000000e+00	 3.312500000000000e+00	 9.972688067692300e+00
0	 8.937499999999998e+00	 3.374999999999999e+00	 9.974581618461542e+00
0	 8.937500000000000e+00	 3.437499999999999e+00	 9.976491507692307e+00
0	 8.937499999999998e+00	 3.499999999999998e+00	 9.978417735384610e+00
0	 8.937500000000000e+00	 3.562499999999998e+00	 9.980360301538450e+00
0	 8.937500000000000e+00	 3.624999999999998e+00	 9.982319206153839e+00
0	 8.937499999999998e+00	 3.687499999999998e+00	 9.984294449230765e+00
0	 8.937500000000000e+00	 3.750000000000000e+00	 9.986286030769234e+00
0	 9.000000000000000e+00	 3.125000000000000e+00	 9.961853169230761e+00
0	 9.000000000000000e+00	 3.187500000000000e+00	 9.963784264615377e+00
0	 9.000000000000000e+00	 3.250000000000000e+00	 9.965730867692310e+00
0	 9.000000000000000e+00	 3.312500000000000e+00	 9.967692978461534e+00
0	 8.999999999999998e+00	 3.374999999999999e+00	 9.969670596923066e+00
0	 9.000000000000000e+00	 3.437499999999999e+00	 9.971663723076922e+00
0	 8.999999999999996e+00	 3.499999999999998e+00	 9.973672356923064e+00
0	 8.999999999999998e+00	 3.562499999999998e+00	 9.975696498461524e+00
0	 9.000000000000000e+00	 3.624999999999999e+00	 9.977736147692312e+00
0	 9.000000000000000e+00	 3.687499999999998e+00	 9.979791304615372e+00
0	 9.000000000000000e+00	 3.750000000000000e+00	 9.981861969230769e+00
0	 9.062500000000000e+00	 3.125000000000000e+00	 9.956650000000002e+00
0	 9.062500000000000e+00	 3.187500000000000e+00	 9.958672953846147e+00
0	 9.062499999999998e+00	 3.250000000000000e+00	 9.960710584615388e+00
0	 9.062500000000000e+00	 3.312500000000000e+00	 9.962762892307691e+00
0	 9.062499999999998e+00	 3.374999999999998e+00	 9.964829876923075e+00
0	 9.062499999999998e+00	 3.437499999999999e+00	 9.966911538461538e+00
0	 9.062500000000002e+00	 3.499999999999999e+00	 9.969007876923076e+00
0	 9.062499999999998e+00	 3.562499999999999e+00	 9.971118892307683e+00
0	 9.062499999999998e+00	 3.624999999999998e+00	 9.973244584615376e+00
0	 9.062500000000002e+00	 3.687499999999999e+00	 9.975384953846159e+00
0	 9.062500000000000e+00	 3.750000000000000e+00	 9.977539999999996e+00
0	 9.124999999999998e+00	 3.125000000000000e+00	 9.951495938461534e+00
0	 9.124999999999998e+00	 3.187500000000000e+00	 9.953616049230771e+00
0	 9.124999999999996e+00	 3.249999999999999e+00	 9.955750006153844e+00
0	 9.124999999999998e+00	 3.312499999999999e+00	 9.957897809230767e+00
0	 9.125000000000002e+00	 3.375000000000000e+00	 9.960059458461538e+00
0	 9.125000000000000e+00	 3.437500000000000e+00	 9.962234953846158e+00
0	 9.124999999999998e+00	 3.499999999999999e+00	 9.964424295384607e+00
0	 9.125000000000000e+00	 3.562499999999999e+00	 9.966627483076918e+00
0	 9.125000000000000e+00	 3.624999999999999e+00	 9.968844516923070e+00
0	 9.124999999999998e+00	 3.687499999999998e+00	 9.971075396923082e+00
0	 9.124999999999998e+00	 3.750000000000000e+00	 9.973320123076924e+00
0	 9.187499999999998e+00	 3.125000000000000e+00	 9.946390984615380e+00
0	 9.187499999999998e+00	 3.187500000000000e+00	 9.948613550769240e+00
0	 9.187500000000000e+00	 3.250000000000000e+00	 9.950849132307690e+00
0	 9.187500000000000e+00	 3.312500000000000e+00	 9.953097729230770e+00
0	 9.187499999999998e+00	 3.374999999999999e+00	 9.955359341538456e+00
0	 9.187500000000000e+00	 3.437499999999999e+00	 9.957633969230759e+00
0	 9.187500000000000e+00	 3.499999999999999e+00	 9.959921612307689e+00
0	 9.187500000000000e+00	 3.562499999999999e+00	 9.962222270769228e+00
0	 9.187499999999998e+00	 3.624999999999998e+00	 9.964535944615386e+00
0	 9.187500000000000e+00	 3.687499999999999e+00	 9.966862633846148e+00
0	 9.187499999999998e+00	 3.750000000000000e+00	 9.969202338461539e+00
0	 9.249999999999998e+00	 3.125000000000000e+00	 9.941335138461536e+00
0	 9.250000000000000e+00	 3.187500000000001e+00	 9.943665458461533e+00
0	 9.249999999999998e+00	 3.250000000000000e+00	 9.946007963076923e+00
0	 9.250000000000000e+00	 3.312500000000000e+00	 9.948362652307690e+00
0	 9.249999999999998e+00	 3.374999999999999e+00	 9.950729526153847e+00
0	 9.249999999999998e+00	 3.437499999999999e+00	 9.953108584615386e+00
0	 9.249999999999998e+00	 3.499999999999998e+00	 9.955499827692300e+00
0	 9.249999999999998e+00	 3.562499999999998e+00	 9.957903255384606e+00
0	 9.250000000000000e+00	 3.624999999999998e+00	 9.960318867692308e+00
0	 9.249999999999998e+00	 3.687499999999998e+00	 9.962746664615375e+00
0	 9.249999999999998e+00	 3.750000000000000e+00	 9.965186646153851e+00
0	 9.312499999999998e+00	 3.125000000000000e+00	 9.936328400000004e+00
0	 9.312499999999998e+00	 3.187500000000000e+00	 9.938771772307689e+00
0	 9.312500000000000e+00	 3.250000000000000e+00	 9.941226498461535e+00
0	 9.312500000000000e+00	 3.312500000000000e+00	 9.943692578461539e+00
0	 9.312499999999998e+00	 3.374999999999999e+00	 9.946170012307693e+00
0	 9.312499999999998e+00	 3.437500000000000e+00	 9.948658800000002e+00
0	 9.312499999999998e+00	 3.499999999999998e+00	 9.951158941538466e+00
0	 9.312499999999998e+00	 3.562499999999998e+00	 9.953670436923073e+00
0	 9.312499999999998e+00	 3.624999999999998e+00	 9.956193286153848e+00
0	 9.312499999999998e+00	 3.687499999999997e+00	 9.958727489230759e+00
0	 9.312499999999998e+00	 3.750000000000000e+00	 9.961273046153833e+00
0	 9.375000000000000e+00	 3.125000000000000e+00	 9.931370769230764e+00
0	 9.375000000000000e+00	 3.187500000000000e+00	 9.933932492307681e+00
0	 9.375000000000002e+00	 3.250000000000000e+00	 9.936504738461529e+00
0	 9.374999999999998e+00	 3.312499999999999e+00	 9.939087507692321e+00
0	 9.375000000000002e+00	 3.374999999999999e+00	 9.941680799999997e+00
0	 9.375000000000000e+00	 3.437499999999999e+00	 9.944284615384603e+00
0	 9.375000000000000e+00	 3.499999999999999e+00	 9.946898953846146e+00
0	 9.375000000000000e+00	 3.562499999999998e+00	 9.949523815384612e+00
0	 9.375000000000000e+00	 3.624999999999999e+00	 9.952159200000004e+00
0	 9.375000000000000e+00	 3.687499999999998e+00	 9.954805107692300e+00
0	 9.375000000000000e+00	 3.750000000000000e+00	 9.957461538461533e+00
0	 8.750000000000000e+00	 3.750000000000000e+00	 1.000017076923076e+01
0	 8.750000000000000e+00	 3.812500000000000e+00	 1.000136067692310e+01
0	 8.750000000000002e+00	 3.875000000000000e+00	 1.000257347692308e+01
0	 8.750000000000000e+00	 3.937499999999999e+00	 1.000380916923076e+01
0	 8.750000000000000e+00	 4.000000000000000e+00	 1.000506775384616e+01
0	 8.750000000000000e+00	 4.062499999999999e+00	 1.000634923076923e+01
0	 8.750000000000000e+00	 4.124999999999999e+00	 1.000765360000000e+01
0	 8.750000000000000e+00	 4.187499999999998e+00	 1.000898086153845e+01
0	 8.750000000000000e+00	 4.249999999999998e+00	 1.001033101538461e+01
0	 8.750000000000000e+00	 4.312499999999998e+00	 1.001170406153847e+01
0	 8.750000000000000e+00	 4.375000000000000e+00	 1.001310000000000e+01
0	 8.812499999999998e+00	 3.750000000000000e+00	 9.995440430769232e+00
0	 8.812500000000000e+00	 3.812500000000000e+00	 9.996708026153835e+00
0	 8.812499999999998e+00	 3.875000000000000e+00	 9.997997673846147e+00
0	 8.812500000000000e+00	 3.937500000000000e+00	 9.999309373846149e+00
0	 8.812500000000000e+00	 3.999999999999999e+00	 1.000064312615384e+01
0	 8.812500000000002e+00	 4.062499999999999e+00	 1.000199893076921e+01
0	 8.812500000000004e+00	 4.125000000000000e+00	 1.000337678769230e+01
0	 8.812500000000002e+00	 4.187500000000000e+00	 1.000477669692307e+01
0	 8.812500000000002e+00	 4.250000000000000e+00	 1.000619865846154e+01
0	 8.812499999999996e+00	 4.312499999999997e+00	 1.000764267230768e+01
0	 8.812499999999998e+00	 4.375000000000000e+00	 1.000910873846153e+01
0	 8.874999999999998e+00	 3.750000000000000e+00	 9.990812184615374e+00
0	 8.875000000000000e+00	 3.812500000000000e+00	 9.992160267692315e+00
0	 8.875000000000004e+00	 3.875000000000000e+00	 9.993529563076921e+00
0	 8.875000000000002e+00	 3.937500000000000e+00	 9.994920070769222e+00
0	 8.874999999999998e+00	 3.999999999999999e+00	 9.996331790769220e+00
0	 8.874999999999998e+00	 4.062499999999999e+00	 9.997764723076916e+00
0	 8.874999999999996e+00	 4.124999999999997e+00	 9.999218867692313e+00
0	 8.875000000000002e+00	 4.187499999999998e+00	 1.000069422461538e+01
0	 8.875000000000000e+00	 4.249999999999998e+00	 1.000219079384615e+01
0	 8.875000000000004e+00	 4.312499999999998e+00	 1.000370857538462e+01
0	 8.874999999999998e+00	 4.375000000000000e+00	 1.000524756923075e+01
0	 8.937500000000000e+00	 3.750000000000000e+00	 9.986286030769234e+00
0	 8.937500000000000e+00	 3.812500000000000e+00	 9.987717401538454e+00
0	 8.937500000000002e+00	 3.875000000000000e+00	 9.989169144615374e+00
0	 8.937500000000000e+00	 3.937500000000000e+00	 9.990641259999991e+00
0	 8.937499999999998e+00	 3.999999999999999e+00	 9.992133747692300e+00
0	 8.937500000000000e+00	 4.062500000000000e+00	 9.993646607692295e+00
0	 8.937499999999998e+00	 4.124999999999998e+00	 9.995179840000002e+00
0	 8.937500000000000e+00	 4.187499999999999e+00	 9.996733444615376e+00
0	 8.937500000000000e+00	 4.249999999999998e+00	 9.998307421538453e+00
0	 8.937499999999998e+00	 4.312499999999997e+00	 9.999901770769233e+00
0	 8.937500000000000e+00	 4.375000000000000e+00	 1.000151649230768e+01
0	 9.000000000000000e+00	 3.750000000000000e+00	 9.981861969230769e+00
0	 9.000000000000000e+00	 3.812500000000000e+00	 9.983379427692311e+00
0	 9.000000000000000e+00	 3.875000000000000e+00	 9.984916418461538e+00
0	 9.000000000000000e+00	 3.937500000000000e+00	 9.986472941538448e+00
0	 8.999999999999998e+00	 3.999999999999999e+00	 9.988048996923069e+00
0	 9.000000000000000e+00	 4.062499999999999e+00	 9.989644584615386e+00
0	 8.999999999999996e+00	 4.124999999999998e+00	 9.991259704615379e+00
0	 8.999999999999998e+00	 4.187499999999999e+00	 9.992894356923069e+00
0	 9.000000000000000e+00	 4.249999999999998e+00	 9.994548541538451e+00
0	 9.000000000000000e+00	 4.312499999999998e+00	 9.996222258461533e+00
0	 9.000000000000000e+00	 4.375000000000000e+00	 9.997915507692303e+00
0	 9.062500000000000e+00	 3.750000000000000e+00	 9.977539999999996e+00
0	 9.062500000000000e+00	 3.812500000000000e+00	 9.979146346153840e+00
0	 9.062499999999998e+00	 3.875000000000000e+00	 9.980771384615371e+00
0	 9.062500000000000e+00	 3.937499999999999e+00	 9.982415115384615e+00
0	 9.062499999999998e+00	 3.999999999999998e+00	 9.984077538461534e+00
0	 9.062499999999998e+00	 4.062499999999999e+00	 9.985758653846140e+00
0	 9.062500000000002e+00	 4.125000000000000e+00	 9.987458461538459e+00
0	 9.062499999999998e+00	 4.187499999999998e+00	 9.989176961538458e+00
0	 9.062499999999998e+00	 4.249999999999998e+00	 9.990914153846141e+00
0	 9.062500000000002e+00	 4.312499999999998e+00	 9.992670038461526e+00
0	 9.062500000000000e+00	 4.375000000000000e+00	 9.994444615384600e+00
0	 9.124999999999998e+00	 3.750000000000000e+00	 9.973320123076924e+00
0	 9.124999999999998e+00	 3.812500000000000e+00	 9.975018156923070e+00
0	 9.124999999999996e+00	 3.874999999999999e+00	 9.976734043076929e+00
0	 9.124999999999998e+00	 3.937500000000000e+00	 9.978467781538463e+00
0	 9.125000000000002e+00	 4.000000000000000e+00	 9.980219372307685e+00
0	 9.125000000000000e+00	 4.062500000000000e+00	 9.981988815384620e+00
0	 9.124999999999998e+00	 4.124999999999999e+00	 9.983776110769229e+00
0	 9.125000000000000e+00	 4.187499999999998e+00	 9.985581258461533e+00
0	 9.125000000000000e+00	 4.249999999999999e+00	 9.987404258461538e+00
0	 9.124999999999998e+00	 4.312499999999997e+00	 9.989245110769239e+00
0	 9.124999999999998e+00	 4.375000000000000e+00	 9.991103815384601e+00
0	 9.187499999999998e+00	 3.750000000000000e+00	 9.969202338461539e+00
0	 9.187499999999998e+00	 3.812500000000000e+00	 9.970994859999994e+00
0	 9.187500000000000e+00	 3.875000000000000e+00	 9.972804393846147e+00
0	 9.187500000000000e+00	 3.937499999999999e+00	 9.974630939999994e+00
0	 9.187499999999998e+00	 3.999999999999999e+00	 9.976474498461540e+00
0	 9.187500000000000e+00	 4.062500000000000e+00	 9.978335069230766e+00
0	 9.187500000000000e+00	 4.124999999999999e+00	 9.980212652307689e+00
0	 9.187500000000000e+00	 4.187499999999999e+00	 9.982107247692309e+00
0	 9.187499999999998e+00	 4.249999999999998e+00	 9.984018855384615e+00
0	 9.187500000000000e+00	 4.312499999999998e+00	 9.985947475384616e+00
0	 9.187499999999998e+00	 4.375000000000000e+00	 9.987893107692299e+00
0	 9.249999999999998e+00	 3.750000000000000e+00	 9.965186646153851e+00
0	 9.250000000000000e+00	 3.812500000000000e+00	 9.967076455384623e+00
0	 9.249999999999998e+00	 3.875000000000000e+00	 9.968982436923074e+00
0	 9.250000000000000e+00	 3.937500000000000e+00	 9.970904590769235e+00
0	 9.249999999999998e+00	 3.999999999999999e+00	 9.972842916923071e+00
0	 9.249999999999998e+00	 4.062499999999998e+00	 9.974797415384618e+00
0	 9.249999999999998e+00	 4.124999999999999e+00	 9.976768086153843e+00
0	 9.249999999999998e+00	 4.187499999999998e+00	 9.978754929230753e+00
0	 9.250000000000000e+00	 4.249999999999998e+00	 9.980757944615384e+00
0	 9.249999999999998e+00	 4.312499999999998e+00	 9.982777132307691e+00
0	 9.249999999999998e+00	 4.375000000000000e+00	 9.984812492307697e+00
0	 9.312499999999998e+00	 3.750000000000000e+00	 9.961273046153833e+00
0	 9.312499999999998e+00	 3.812500000000000e+00	 9.963262943076909e+00
0	 9.312500000000000e+00	 3.875000000000000e+00	 9.965268172307690e+00
0	 9.312500000000000e+00	 3.937499999999999e+00	 9.967288733846150e+00
0	 9.312499999999998e+00	 3.999999999999999e+00	 9.969324627692298e+00
0	 9.312499999999998e+00	 4.062499999999998e+00	 9.971375853846155e+00
0	 9.312499999999998e+00	 4.124999999999998e+00	 9.973442412307698e+00
0	 9.312499999999998e+00	 4.187499999999998e+00	 9.975524303076931e+00
0	 9.312499999999998e+00	 4.249999999999998e+00	 9.977621526153843e+00
0	 9.312499999999998e+00	 4.312499999999998e+00	 9.979734081538469e+00
0	 9.312499999999998e+00	 4.375000000000000e+00	 9.981861969230767e+00
0	 9.375000000000000e+00	 3.750000000000000e+00	 9.957461538461533e+00
0	 9.375000000000000e+00	 3.812500000000000e+00	 9.959554323076921e+00
0	 9.375000000000002e+00	 3.875000000000000e+00	 9.961661600000001e+00
0	 9.374999999999998e+00	 3.937499999999999e+00	 9.963783369230763e+00
0	 9.375000000000002e+00	 4.000000000000000e+00	 9.965919630769223e+00
0	 9.375000000000000e+00	 4.062499999999999e+00	 9.968070384615388e+00
0	 9.375000000000000e+00	 4.124999999999999e+00	 9.970235630769221e+00
0	 9.375000000000000e+00	 4.187499999999998e+00	 9.972415369230770e+00
0	 9.375000000000000e+00	 4.249999999999998e+00	 9.974609599999996e+00
0	 9.375000000000000e+00	 4.312499999999998e+00	 9.976818323076925e+00
0	 9.375000000000000e+00	 4.375000000000000e+00	 9.979041538461532e+00
0	 8.750000000000000e+00	 4.375000000000000e+00	 1.001310000000000e+01
0	 8.750000000000000e+00	 4.437499999999999e+00	 1.001381850769231e+01
0	 8.750000000000002e+00	 4.500000000000001e+00	 1.001455926153845e+01
0	 8.750000000000000e+00	 4.562499999999999e+00	 1.001532226153846e+01
0	 8.750000000000000e+00	 4.625000000000000e+00	 1.001610750769230e+01
0	 8.750000000000000e+00	 4.687499999999999e+00	 1.001691500000000e+01
0	 8.750000000000000e+00	 4.749999999999999e+00	 1.001774473846154e+01
0	 8.750000000000000e+00	 4.812499999999998e+00	 1.001859672307693e+01
0	 8.750000000000000e+00	 4.874999999999998e+00	 1.001947095384616e+01
0	 8.750000000000000e+00	 4.937499999999998e+00	 1.002036743076922e+01
0	 8.750000000000000e+00	 5.000000000000000e+00	 1.002128615384616e+01
0	 8.812499999999998e+00	 4.375000000000000e+00	 1.000910873846153e+01
0	 8.812500000000000e+00	 4.437500000000000e+00	 1.000990250307691e+01
0	 8.812499999999998e+00	 4.499999999999999e+00	 1.001071789538461e+01
0	 8.812500000000000e+00	 4.562499999999999e+00	 1.001155491538461e+01
0	 8.812500000000000e+00	 4.625000000000000e+00	 1.001241356307692e+01
0	 8.812500000000002e+00	 4.687500000000001e+00	 1.001329383846153e+01
0	 8.812500000000004e+00	 4.749999999999999e+00	 1.001419574153847e+01
0	 8.812500000000002e+00	 4.812499999999999e+00	 1.001511927230769e+01
0	 8.812500000000002e+00	 4.875000000000000e+00	 1.001606443076923e+01
0	 8.812499999999996e+00	 4.937499999999997e+00	 1.001703121692307e+01
0	 8.812499999999998e+00	 4.999999999999999e+00	 1.001801963076922e+01
0	 8.874999999999998e+00	 4.375000000000000e+00	 1.000524756923075e+01
0	 8.875000000000000e+00	 4.437500000000000e+00	 1.000611732307693e+01
0	 8.875000000000004e+00	 4.500000000000001e+00	 1.000700808615384e+01
0	 8.875000000000002e+00	 4.562499999999999e+00	 1.000791985846154e+01
0	 8.874999999999998e+00	 4.624999999999998e+00	 1.000885263999999e+01
0	 8.874999999999998e+00	 4.687499999999997e+00	 1.000980643076923e+01
0	 8.874999999999996e+00	 4.749999999999998e+00	 1.001078123076923e+01
0	 8.875000000000002e+00	 4.812499999999999e+00	 1.001177703999999e+01
0	 8.875000000000000e+00	 4.874999999999998e+00	 1.001279385846155e+01
0	 8.875000000000004e+00	 4.937499999999998e+00	 1.001383168615385e+01
0	 8.874999999999998e+00	 5.000000000000000e+00	 1.001489052307691e+01
0	 8.937500000000000e+00	 4.375000000000000e+00	 1.000151649230768e+01
0	 8.937500000000000e+00	 4.437500000000000e+00	 1.000246296769231e+01
0	 8.937500000000002e+00	 4.500000000000000e+00	 1.000342983384615e+01
0	 8.937500000000000e+00	 4.562499999999999e+00	 1.000441709076922e+01
0	 8.937499999999998e+00	 4.625000000000000e+00	 1.000542473846154e+01
0	 8.937500000000000e+00	 4.687499999999999e+00	 1.000645277692307e+01
0	 8.937499999999998e+00	 4.749999999999998e+00	 1.000750120615385e+01
0	 8.937500000000000e+00	 4.812499999999998e+00	 1.000857002615384e+01
0	 8.937500000000000e+00	 4.874999999999998e+00	 1.000965923692309e+01
0	 8.937499999999998e+00	 4.937499999999997e+00	 1.001076883846154e+01
0	 8.937500000000000e+00	 4.999999999999999e+00	 1.001189883076924e+01
0	 9.000000000000000e+00	 4.375000000000000e+00	 9.997915507692303e+00
0	 9.000000000000000e+00	 4.437500000000000e+00	 9.998939436923074e+00
0	 9.000000000000000e+00	 4.500000000000000e+00	 9.999983138461527e+00
0	 9.000000000000000e+00	 4.562499999999999e+00	 1.000104661230768e+01
0	 8.999999999999998e+00	 4.624999999999999e+00	 1.000212985846154e+01
0	 9.000000000000000e+00	 4.687500000000000e+00	 1.000323287692308e+01
0	 8.999999999999996e+00	 4.749999999999998e+00	 1.000435566769230e+01
0	 8.999999999999998e+00	 4.812499999999999e+00	 1.000549823076923e+01
0	 9.000000000000000e+00	 4.874999999999998e+00	 1.000666056615385e+01
0	 9.000000000000000e+00	 4.937499999999997e+00	 1.000784267384614e+01
0	 9.000000000000000e+00	 5.000000000000000e+00	 1.000904455384615e+01
0	 9.062500000000000e+00	 4.375000000000000e+00	 9.994444615384600e+00
0	 9.062500000000000e+00	 4.437499999999999e+00	 9.995546730769217e+00
0	 9.062499999999998e+00	 4.499999999999999e+00	 9.996667999999998e+00
0	 9.062500000000000e+00	 4.562499999999999e+00	 9.997808423076913e+00
0	 9.062499999999998e+00	 4.624999999999998e+00	 9.998968000000005e+00
0	 9.062499999999998e+00	 4.687499999999999e+00	 1.000014673076923e+01
0	 9.062500000000002e+00	 4.750000000000000e+00	 1.000134461538462e+01
0	 9.062499999999998e+00	 4.812499999999998e+00	 1.000256165384615e+01
0	 9.062499999999998e+00	 4.874999999999998e+00	 1.000379784615383e+01
0	 9.062500000000002e+00	 4.937499999999999e+00	 1.000505319230769e+01
0	 9.062500000000000e+00	 5.000000000000000e+00	 1.000632769230770e+01
0	 9.124999999999998e+00	 4.375000000000000e+00	 9.991103815384601e+00
0	 9.124999999999998e+00	 4.437499999999999e+00	 9.992284849230762e+00
0	 9.124999999999996e+00	 4.499999999999998e+00	 9.993484418461529e+00
0	 9.124999999999998e+00	 4.562499999999999e+00	 9.994702523076915e+00
0	 9.125000000000002e+00	 4.625000000000001e+00	 9.995939163076926e+00
0	 9.125000000000000e+00	 4.687499999999999e+00	 9.997194338461531e+00
0	 9.124999999999998e+00	 4.749999999999998e+00	 9.998468049230762e+00
0	 9.125000000000000e+00	 4.812499999999999e+00	 9.999760295384617e+00
0	 9.125000000000000e+00	 4.874999999999998e+00	 1.000107107692308e+01
0	 9.124999999999998e+00	 4.937499999999999e+00	 1.000240039384615e+01
0	 9.124999999999998e+00	 5.000000000000001e+00	 1.000374824615386e+01
0	 9.187499999999998e+00	 4.375000000000000e+00	 9.987893107692299e+00
0	 9.187499999999998e+00	 4.437499999999999e+00	 9.989153792307693e+00
0	 9.187500000000000e+00	 4.500000000000000e+00	 9.990432393846138e+00
0	 9.187500000000000e+00	 4.562499999999999e+00	 9.991728912307687e+00
0	 9.187499999999998e+00	 4.625000000000000e+00	 9.993043347692302e+00
0	 9.187500000000000e+00	 4.687500000000000e+00	 9.994375699999996e+00
0	 9.187500000000000e+00	 4.749999999999999e+00	 9.995725969230769e+00
0	 9.187500000000000e+00	 4.812499999999999e+00	 9.997094155384627e+00
0	 9.187499999999998e+00	 4.874999999999998e+00	 9.998480258461525e+00
0	 9.187500000000000e+00	 4.937499999999999e+00	 9.999884278461531e+00
0	 9.187499999999998e+00	 4.999999999999999e+00	 1.000130621538462e+01
0	 9.249999999999998e+00	 4.375000000000000e+00	 9.984812492307697e+00
0	 9.250000000000000e+00	 4.437500000000001e+00	 9.986153559999995e+00
0	 9.249999999999998e+00	 4.499999999999999e+00	 9.987511926153854e+00
0	 9.250000000000000e+00	 4.562500000000000e+00	 9.988887590769234e+00
0	 9.249999999999998e+00	 4.624999999999999e+00	 9.990280553846155e+00
0	 9.249999999999998e+00	 4.687499999999998e+00	 9.991690815384615e+00
0	 9.249999999999998e+00	 4.749999999999999e+00	 9.993118375384610e+00
0	 9.249999999999998e+00	 4.812499999999998e+00	 9.994563233846151e+00
0	 9.250000000000000e+00	 4.874999999999999e+00	 9.996025390769226e+00
0	 9.249999999999998e+00	 4.937499999999998e+00	 9.997504846153843e+00
0	 9.249999999999998e+00	 5.000000000000000e+00	 9.999001600000000e+00
0	 9.312499999999998e+00	 4.375000000000000e+00	 9.981861969230767e+00
0	 9.312499999999998e+00	 4.437500000000000e+00	 9.983284152307686e+00
0	 9.312500000000000e+00	 4.500000000000000e+00	 9.984723015384613e+00
0	 9.312500000000000e+00	 4.562500000000000e+00	 9.986178558461537e+00
0	 9.312499999999998e+00	 4.624999999999999e+00	 9.987650781538450e+00
0	 9.312499999999998e+00	 4.687499999999999e+00	 9.989139684615377e+00
0	 9.312499999999998e+00	 4.749999999999999e+00	 9.990645267692306e+00
0	 9.312499999999998e+00	 4.812499999999998e+00	 9.992167530769235e+00
0	 9.312499999999998e+00	 4.874999999999999e+00	 9.993706473846160e+00
0	 9.312499999999998e+00	 4.937499999999998e+00	 9.995262096923074e+00
0	 9.312499999999998e+00	 5.000000000000000e+00	 9.996834400000008e+00
0	 9.375000000000000e+00	 4.375000000000000e+00	 9.979041538461532e+00
0	 9.375000000000000e+00	 4.437499999999999e+00	 9.980545569230761e+00
0	 9.375000000000002e+00	 4.500000000000001e+00	 9.982065661538448e+00
0	 9.374999999999998e+00	 4.562499999999999e+00	 9.983601815384620e+00
0	 9.375000000000002e+00	 4.625000000000000e+00	 9.985154030769230e+00
0	 9.375000000000000e+00	 4.687499999999999e+00	 9.986722307692290e+00
0	 9.375000000000000e+00	 4.749999999999999e+00	 9.988306646153839e+00
0	 9.375000000000000e+00	 4.812499999999998e+00	 9.989907046153837e+00
0	 9.375000000000000e+00	 4.874999999999998e+00	 9.991523507692291e+00
0	 9.375000000000000e+00	 4.937499999999998e+00	 9.993156030769228e+00
0	 9.375000000000000e+00	 5.000000000000000e+00	 9.994804615384613e+00
0	 8.750000000000000e+00	 5.000000000000000e+00	 1.002128615384616e+01
0	 8.750000000000000e+00	 5.062500000000000e+00	 1.002155130769233e+01
0	 8.750000000000002e+00	 5.125000000000001e+00	 1.002183538461539e+01
0	 8.750000000000000e+00	 5.187499999999999e+00	 1.002213838461537e+01
0	 8.750000000000000e+00	 5.249999999999999e+00	 1.002246030769230e+01
0	 8.750000000000000e+00	 5.312499999999999e+00	 1.002280115384615e+01
0	 8.750000000000000e+00	 5.374999999999998e+00	 1.002316092307692e+01
0	 8.750000000000000e+00	 5.437499999999998e+00	 1.002353961538461e+01
0	 8.750000000000000e+00	 5.499999999999998e+00	 1.002393723076924e+01
0	 8.750000000000000e+00	 5.562499999999998e+00	 1.002435376923076e+01
0	 8.750000000000000e+00	 5.625000000000000e+00	 1.002478923076923e+01
0	 8.812499999999998e+00	 4.999999999999999e+00	 1.001801963076922e+01
0	 8.812500000000000e+00	 5.062500000000000e+00	 1.001835507076923e+01
0	 8.812499999999998e+00	 5.125000000000000e+00	 1.001870904615384e+01
0	 8.812500000000000e+00	 5.187499999999999e+00	 1.001908155692308e+01
0	 8.812500000000000e+00	 5.249999999999998e+00	 1.001947260307693e+01
0	 8.812500000000002e+00	 5.312500000000000e+00	 1.001988218461538e+01
0	 8.812500000000004e+00	 5.374999999999999e+00	 1.002031030153846e+01
0	 8.812500000000002e+00	 5.437499999999999e+00	 1.002075695384616e+01
0	 8.812500000000002e+00	 5.499999999999999e+00	 1.002122214153847e+01
0	 8.812499999999996e+00	 5.562499999999996e+00	 1.002170586461538e+01
0	 8.812499999999998e+00	 5.625000000000000e+00	 1.002220812307692e+01
0	 8.874999999999998e+00	 5.000000000000000e+00	 1.001489052307691e+01
0	 8.875000000000000e+00	 5.062499999999999e+00	 1.001529487076923e+01
0	 8.875000000000004e+00	 5.125000000000001e+00	 1.001571736615384e+01
0	 8.875000000000002e+00	 5.187499999999998e+00	 1.001615800923077e+01
0	 8.874999999999998e+00	 5.249999999999999e+00	 1.001661680000000e+01
0	 8.874999999999998e+00	 5.312499999999999e+00	 1.001709373846154e+01
0	 8.874999999999996e+00	 5.374999999999999e+00	 1.001758882461539e+01
0	 8.875000000000002e+00	 5.437499999999999e+00	 1.001810205846154e+01
0	 8.875000000000000e+00	 5.499999999999998e+00	 1.001863344000000e+01
0	 8.875000000000004e+00	 5.562499999999999e+00	 1.001918296923077e+01
0	 8.874999999999998e+00	 5.625000000000000e+00	 1.001975064615385e+01
0	 8.937500000000000e+00	 4.999999999999999e+00	 1.001189883076924e+01
0	 8.937500000000000e+00	 5.062500000000001e+00	 1.001237070769231e+01
0	 8.937500000000002e+00	 5.125000000000000e+00	 1.001286034461538e+01
0	 8.937500000000000e+00	 5.187499999999999e+00	 1.001336774153846e+01
0	 8.937499999999998e+00	 5.250000000000000e+00	 1.001389289846154e+01
0	 8.937500000000000e+00	 5.312499999999999e+00	 1.001443581538462e+01
0	 8.937499999999998e+00	 5.374999999999998e+00	 1.001499649230769e+01
0	 8.937500000000000e+00	 5.437499999999999e+00	 1.001557492923077e+01
0	 8.937500000000000e+00	 5.499999999999998e+00	 1.001617112615384e+01
0	 8.937499999999998e+00	 5.562499999999997e+00	 1.001678508307692e+01
0	 8.937500000000000e+00	 5.625000000000000e+00	 1.001741680000000e+01
0	 9.000000000000000e+00	 5.000000000000000e+00	 1.000904455384615e+01
0	 9.000000000000000e+00	 5.062500000000000e+00	 1.000958258153845e+01
0	 9.000000000000000e+00	 5.125000000000000e+00	 1.001013798153845e+01
0	 9.000000000000000e+00	 5.187500000000000e+00	 1.001071075384616e+01
0	 8.999999999999998e+00	 5.249999999999999e+00	 1.001130089846153e+01
0	 9.000000000000000e+00	 5.312499999999999e+00	 1.001190841538462e+01
0	 8.999999999999996e+00	 5.374999999999998e+00	 1.001253330461539e+01
0	 8.999999999999998e+00	 5.437499999999999e+00	 1.001317556615385e+01
0	 9.000000000000000e+00	 5.499999999999999e+00	 1.001383520000001e+01
0	 9.000000000000000e+00	 5.562499999999998e+00	 1.001451220615384e+01
0	 9.000000000000000e+00	 5.625000000000000e+00	 1.001520658461537e+01
0	 9.062500000000000e+00	 5.000000000000000e+00	 1.000632769230770e+01
0	 9.062500000000000e+00	 5.062500000000000e+00	 1.000693049230769e+01
0	 9.062499999999998e+00	 5.124999999999999e+00	 1.000755027692307e+01
0	 9.062500000000000e+00	 5.187500000000000e+00	 1.000818704615384e+01
0	 9.062499999999998e+00	 5.249999999999998e+00	 1.000884080000000e+01
0	 9.062499999999998e+00	 5.312499999999999e+00	 1.000951153846153e+01
0	 9.062500000000002e+00	 5.375000000000000e+00	 1.001019926153847e+01
0	 9.062499999999998e+00	 5.437499999999998e+00	 1.001090396923077e+01
0	 9.062499999999998e+00	 5.499999999999998e+00	 1.001162566153846e+01
0	 9.062500000000002e+00	 5.562499999999999e+00	 1.001236433846154e+01
0	 9.062500000000000e+00	 5.625000000000000e+00	 1.001312000000000e+01
0	 9.124999999999998e+00	 5.000000000000001e+00	 1.000374824615386e+01
0	 9.124999999999998e+00	 5.062499999999999e+00	 1.000441444000000e+01
0	 9.124999999999996e+00	 5.125000000000000e+00	 1.000509723076923e+01
0	 9.124999999999998e+00	 5.187500000000000e+00	 1.000579661846154e+01
0	 9.125000000000002e+00	 5.250000000000001e+00	 1.000651260307692e+01
0	 9.125000000000000e+00	 5.312500000000001e+00	 1.000724518461539e+01
0	 9.124999999999998e+00	 5.374999999999999e+00	 1.000799436307693e+01
0	 9.125000000000000e+00	 5.437499999999999e+00	 1.000876013846154e+01
0	 9.125000000000000e+00	 5.499999999999998e+00	 1.000954251076923e+01
0	 9.124999999999998e+00	 5.562499999999998e+00	 1.001034148000000e+01
0	 9.124999999999998e+00	 5.625000000000000e+00	 1.001115704615385e+01
0	 9.187499999999998e+00	 4.999999999999999e+00	 1.000130621538462e+01
0	 9.187499999999998e+00	 5.062500000000000e+00	 1.000203442461537e+01
0	 9.187500000000000e+00	 5.125000000000000e+00	 1.000277884307691e+01
0	 9.187500000000000e+00	 5.187500000000000e+00	 1.000353947076922e+01
0	 9.187499999999998e+00	 5.250000000000000e+00	 1.000431630769230e+01
0	 9.187500000000000e+00	 5.312500000000000e+00	 1.000510935384615e+01
0	 9.187500000000000e+00	 5.374999999999999e+00	 1.000591860923077e+01
0	 9.187500000000000e+00	 5.437499999999998e+00	 1.000674407384614e+01
0	 9.187499999999998e+00	 5.499999999999998e+00	 1.000758574769231e+01
0	 9.187500000000000e+00	 5.562499999999999e+00	 1.000844363076923e+01
0	 9.187499999999998e+00	 5.625000000000000e+00	 1.000931772307693e+01
0	 9.249999999999998e+00	 5.000000000000000e+00	 9.999001600000000e+00
0	 9.250000000000000e+00	 5.062500000000002e+00	 9.999790446153852e+00
0	 9.249999999999998e+00	 5.124999999999999e+00	 1.000059511384617e+01
0	 9.250000000000000e+00	 5.187500000000000e+00	 1.000141560307694e+01
0	 9.249999999999998e+00	 5.249999999999998e+00	 1.000225191384615e+01
0	 9.249999999999998e+00	 5.312499999999999e+00	 1.000310404615385e+01
0	 9.249999999999998e+00	 5.374999999999998e+00	 1.000397200000001e+01
0	 9.249999999999998e+00	 5.437499999999998e+00	 1.000485577538461e+01
0	 9.250000000000000e+00	 5.499999999999999e+00	 1.000575537230770e+01
0	 9.249999999999998e+00	 5.562499999999998e+00	 1.000667079076923e+01
0	 9.249999999999998e+00	 5.625000000000000e+00	 1.000760203076924e+01
0	 9.312499999999998e+00	 5.000000000000000e+00	 9.996834400000008e+00
0	 9.312499999999998e+00	 5.062500000000000e+00	 9.997682504615398e+00
0	 9.312500000000000e+00	 5.125000000000001e+00	 9.998546043076928e+00
0	 9.312500000000000e+00	 5.187499999999999e+00	 9.999425015384610e+00
0	 9.312499999999998e+00	 5.249999999999999e+00	 1.000031942153845e+01
0	 9.312499999999998e+00	 5.312499999999998e+00	 1.000122926153846e+01
0	 9.312499999999998e+00	 5.374999999999997e+00	 1.000215453538461e+01
0	 9.312499999999998e+00	 5.437499999999998e+00	 1.000309524307693e+01
0	 9.312499999999998e+00	 5.499999999999999e+00	 1.000405138461540e+01
0	 9.312499999999998e+00	 5.562499999999998e+00	 1.000502296000000e+01
0	 9.312499999999998e+00	 5.625000000000000e+00	 1.000600996923077e+01
0	 9.375000000000000e+00	 5.000000000000000e+00	 9.994804615384613e+00
0	 9.375000000000000e+00	 5.062500000000000e+00	 9.995710600000010e+00
0	 9.375000000000002e+00	 5.125000000000001e+00	 9.996631630769235e+00
0	 9.374999999999998e+00	 5.187499999999999e+00	 9.997567707692298e+00
0	 9.375000000000002e+00	 5.249999999999999e+00	 9.998518830769230e+00
0	 9.375000000000000e+00	 5.312499999999999e+00	 9.999485000000000e+00
0	 9.375000000000000e+00	 5.374999999999998e+00	 1.000046621538461e+01
0	 9.375000000000000e+00	 5.437499999999998e+00	 1.000146247692308e+01
0	 9.375000000000000e+00	 5.499999999999998e+00	 1.000247378461539e+01
0	 9.375000000000000e+00	 5.562499999999998e+00	 1.000350013846153e+01
0	 9.375000000000000e+00	 5.625000000000000e+00	 1.000454153846154e+01
0	 8.750000000000000e+00	 5.625000000000000e+00	 1.002478923076923e+01
0	 8.750000000000000e+00	 5.687500000000000e+00	 1.002467883076924e+01
0	 8.750000000000002e+00	 5.750000000000000e+00	 1.002458209230769e+01
0	 8.750000000000000e+00	 5.812499999999999e+00	 1.002449901538463e+01
0	 8.750000000000000e+00	 5.874999999999999e+00	 1.002442960000000e+01
0	 8.750000000000000e+00	 5.937499999999999e+00	 1.002437384615384e+01
0	 8.750000000000000e+00	 5.999999999999998e+00	 1.002433175384617e+01
0	 8.750000000000000e+00	 6.062499999999998e+00	 1.002430332307693e+01
0	 8.750000000000000e+00	 6.124999999999998e+00	 1.002428855384616e+01
0	 8.750000000000000e+00	 6.187499999999998e+00	 1.002428744615386e+01
0	 8.750000000000000e+00	 6.250000000000000e+00	 1.002430000000000e+01
0	 8.812499999999998e+00	 5.625000000000000e+00	 1.002220812307692e+01
0	 8.812500000000000e+00	 5.687499999999999e+00	 1.002215928769231e+01
0	 8.812499999999998e+00	 5.749999999999999e+00	 1.002212396615385e+01
0	 8.812500000000000e+00	 5.812499999999998e+00	 1.002210215846153e+01
0	 8.812500000000000e+00	 5.875000000000000e+00	 1.002209386461539e+01
0	 8.812500000000002e+00	 5.937500000000001e+00	 1.002209908461538e+01
0	 8.812500000000004e+00	 5.999999999999999e+00	 1.002211781846155e+01
0	 8.812500000000002e+00	 6.062500000000000e+00	 1.002215006615384e+01
0	 8.812500000000002e+00	 6.125000000000000e+00	 1.002219582769230e+01
0	 8.812499999999996e+00	 6.187499999999996e+00	 1.002225510307692e+01
0	 8.812499999999998e+00	 6.250000000000000e+00	 1.002232789230769e+01
0	 8.874999999999998e+00	 5.625000000000000e+00	 1.001975064615385e+01
0	 8.875000000000000e+00	 5.687499999999999e+00	 1.001976068307693e+01
0	 8.875000000000004e+00	 5.750000000000002e+00	 1.001978408615384e+01
0	 8.875000000000002e+00	 5.812499999999999e+00	 1.001982085538462e+01
0	 8.874999999999998e+00	 5.874999999999998e+00	 1.001987099076923e+01
0	 8.874999999999998e+00	 5.937499999999999e+00	 1.001993449230770e+01
0	 8.874999999999996e+00	 5.999999999999998e+00	 1.002001136000000e+01
0	 8.875000000000002e+00	 6.062499999999999e+00	 1.002010159384615e+01
0	 8.875000000000000e+00	 6.124999999999998e+00	 1.002020519384614e+01
0	 8.875000000000004e+00	 6.187499999999998e+00	 1.002032216000000e+01
0	 8.874999999999998e+00	 6.250000000000000e+00	 1.002045249230770e+01
0	 8.937500000000000e+00	 5.625000000000000e+00	 1.001741680000000e+01
0	 8.937500000000000e+00	 5.687500000000000e+00	 1.001748301692308e+01
0	 8.937500000000002e+00	 5.749999999999999e+00	 1.001756245230769e+01
0	 8.937500000000000e+00	 5.812499999999999e+00	 1.001765510615385e+01
0	 8.937499999999998e+00	 5.875000000000000e+00	 1.001776097846155e+01
0	 8.937500000000000e+00	 5.937500000000000e+00	 1.001788006923077e+01
0	 8.937499999999998e+00	 5.999999999999998e+00	 1.001801237846154e+01
0	 8.937500000000000e+00	 6.062499999999998e+00	 1.001815790615385e+01
0	 8.937500000000000e+00	 6.124999999999997e+00	 1.001831665230769e+01
0	 8.937499999999998e+00	 6.187499999999997e+00	 1.001848861692309e+01
0	 8.937500000000000e+00	 6.250000000000000e+00	 1.001867379999998e+01
0	 9.000000000000000e+00	 5.625000000000000e+00	 1.001520658461537e+01
0	 9.000000000000000e+00	 5.687500000000000e+00	 1.001532628923076e+01
0	 9.000000000000000e+00	 5.750000000000000e+00	 1.001545906461540e+01
0	 9.000000000000000e+00	 5.812500000000000e+00	 1.001560491076923e+01
0	 8.999999999999998e+00	 5.874999999999999e+00	 1.001576382769230e+01
0	 9.000000000000000e+00	 5.937499999999999e+00	 1.001593581538462e+01
0	 8.999999999999996e+00	 5.999999999999997e+00	 1.001612087384616e+01
0	 8.999999999999998e+00	 6.062499999999998e+00	 1.001631900307692e+01
0	 9.000000000000000e+00	 6.124999999999999e+00	 1.001653020307693e+01
0	 9.000000000000000e+00	 6.187499999999998e+00	 1.001675447384615e+01
0	 9.000000000000000e+00	 6.250000000000000e+00	 1.001699181538463e+01
0	 9.062500000000000e+00	 5.625000000000000e+00	 1.001312000000000e+01
0	 9.062500000000000e+00	 5.687500000000000e+00	 1.001329050000001e+01
0	 9.062499999999998e+00	 5.750000000000000e+00	 1.001347392307692e+01
0	 9.062500000000000e+00	 5.812500000000000e+00	 1.001367026923077e+01
0	 9.062499999999998e+00	 5.874999999999998e+00	 1.001387953846155e+01
0	 9.062499999999998e+00	 5.937499999999998e+00	 1.001410173076924e+01
0	 9.062500000000002e+00	 6.000000000000000e+00	 1.001433684615385e+01
0	 9.062499999999998e+00	 6.062499999999998e+00	 1.001458488461538e+01
0	 9.062499999999998e+00	 6.124999999999998e+00	 1.001484584615386e+01
0	 9.062500000000002e+00	 6.187499999999999e+00	 1.001511973076925e+01
0	 9.062500000000000e+00	 6.250000000000000e+00	 1.001540653846156e+01
0	 9.124999999999998e+00	 5.625000000000000e+00	 1.001115704615385e+01
0	 9.124999999999998e+00	 5.687499999999999e+00	 1.001137564923077e+01
0	 9.124999999999996e+00	 5.750000000000000e+00	 1.001160702769231e+01
0	 9.124999999999998e+00	 5.812499999999999e+00	 1.001185118153845e+01
0	 9.125000000000002e+00	 5.875000000000001e+00	 1.001210811076924e+01
0	 9.125000000000000e+00	 5.937499999999999e+00	 1.001237781538462e+01
0	 9.124999999999998e+00	 5.999999999999998e+00	 1.001266029538461e+01
0	 9.125000000000000e+00	 6.062499999999999e+00	 1.001295555076925e+01
0	 9.125000000000000e+00	 6.124999999999998e+00	 1.001326358153845e+01
0	 9.124999999999998e+00	 6.187499999999998e+00	 1.001358438769231e+01
0	 9.124999999999998e+00	 6.250000000000000e+00	 1.001391796923078e+01
0	 9.187499999999998e+00	 5.625000000000000e+00	 1.000931772307693e+01
0	 9.187499999999998e+00	 5.687500000000000e+00	 1.000958173692307e+01
0	 9.187500000000000e+00	 5.750000000000000e+00	 1.000985837846154e+01
0	 9.187500000000000e+00	 5.812499999999999e+00	 1.001014764769232e+01
0	 9.187499999999998e+00	 5.874999999999999e+00	 1.001044954461539e+01
0	 9.187500000000000e+00	 5.937500000000001e+00	 1.001076406923078e+01
0	 9.187500000000000e+00	 5.999999999999999e+00	 1.001109122153847e+01
0	 9.187500000000000e+00	 6.062499999999999e+00	 1.001143100153847e+01
0	 9.187499999999998e+00	 6.124999999999999e+00	 1.001178340923079e+01
0	 9.187500000000000e+00	 6.187499999999999e+00	 1.001214844461539e+01
0	 9.187499999999998e+00	 6.250000000000000e+00	 1.001252610769231e+01
0	 9.249999999999998e+00	 5.625000000000000e+00	 1.000760203076924e+01
0	 9.250000000000000e+00	 5.687500000000000e+00	 1.000790876307693e+01
0	 9.249999999999998e+00	 5.750000000000000e+00	 1.000822797538462e+01
0	 9.250000000000000e+00	 5.812499999999999e+00	 1.000855966769231e+01
0	 9.249999999999998e+00	 5.875000000000000e+00	 1.000890384000001e+01
0	 9.249999999999998e+00	 5.937500000000000e+00	 1.000926049230769e+01
0	 9.249999999999998e+00	 5.999999999999998e+00	 1.000962962461539e+01
0	 9.249999999999998e+00	 6.062499999999998e+00	 1.001001123692308e+01
0	 9.250000000000000e+00	 6.124999999999999e+00	 1.001040532923077e+01
0	 9.249999999999998e+00	 6.187499999999998e+00	 1.001081190153846e+01
0	 9.249999999999998e+00	 6.250000000000000e+00	 1.001123095384617e+01
0	 9.312499999999998e+00	 5.625000000000000e+00	 1.000600996923077e+01
0	 9.312499999999998e+00	 5.687500000000000e+00	 1.000635672769232e+01
0	 9.312500000000000e+00	 5.750000000000000e+00	 1.000671581846154e+01
0	 9.312500000000000e+00	 5.812499999999999e+00	 1.000708724153846e+01
0	 9.312499999999998e+00	 5.875000000000000e+00	 1.000747099692308e+01
0	 9.312499999999998e+00	 5.937499999999999e+00	 1.000786708461539e+01
0	 9.312499999999998e+00	 5.999999999999998e+00	 1.000827550461539e+01
0	 9.312499999999998e+00	 6.062499999999998e+00	 1.000869625692310e+01
0	 9.312499999999998e+00	 6.124999999999998e+00	 1.000912934153846e+01
0	 9.312499999999998e+00	 6.187499999999997e+00	 1.000957475846154e+01
0	 9.312499999999998e+00	 6.250000000000000e+00	 1.001003250769230e+01
0	 9.375000000000000e+00	 5.625000000000000e+00	 1.000454153846154e+01
0	 9.375000000000000e+00	 5.687500000000000e+00	 1.000492563076924e+01
0	 9.375000000000002e+00	 5.750000000000000e+00	 1.000532190769230e+01
0	 9.374999999999998e+00	 5.812499999999999e+00	 1.000573036923079e+01
0	 9.375000000000002e+00	 5.874999999999999e+00	 1.000615101538462e+01
0	 9.375000000000000e+00	 5.937499999999999e+00	 1.000658384615385e+01
0	 9.375000000000000e+00	 5.999999999999998e+00	 1.000702886153848e+01
0	 9.375000000000000e+00	 6.062499999999998e+00	 1.000748606153846e+01
0	 9.375000000000000e+00	 6.124999999999998e+00	 1.000795544615385e+01
0	 9.375000000000000e+00	 6.187499999999998e+00	 1.000843701538463e+01
0	 9.375000000000000e+00	 6.250000000000000e+00	 1.000893076923078e+01
0	 8.750000000000000e+00	 6.250000000000000e+00	 1.002430000000000e+01
0	 8.750000000000000e+00	 6.312500000000000e+00	 1.002392166153848e+01
0	 8.750000000000002e+00	 6.375000000000000e+00	 1.002355126153848e+01
0	 8.750000000000000e+00	 6.437499999999999e+00	 1.002318879999999e+01
0	 8.750000000000000e+00	 6.499999999999999e+00	 1.002283427692308e+01
0	 8.750000000000000e+00	 6.562499999999998e+00	 1.002248769230769e+01
0	 8.750000000000000e+00	 6.624999999999998e+00	 1.002214904615385e+01
0	 8.750000000000000e+00	 6.687499999999998e+00	 1.002181833846154e+01
0	 8.750000000000000e+00	 6.749999999999998e+00	 1.002149556923078e+01
0	 8.750000000000000e+00	 6.812499999999998e+00	 1.002118073846153e+01
0	 8.750000000000000e+00	 6.875000000000000e+00	 1.002087384615384e+01
0	 8.812499999999998e+00	 6.250000000000000e+00	 1.002232789230769e+01
0	 8.812500000000000e+00	 6.312500000000000e+00	 1.002200222615384e+01
0	 8.812499999999998e+00	 6.374999999999999e+00	 1.002168448923076e+01
0	 8.812500000000000e+00	 6.437500000000000e+00	 1.002137468153846e+01
0	 8.812500000000000e+00	 6.499999999999997e+00	 1.002107280307693e+01
0	 8.812500000000002e+00	 6.562500000000000e+00	 1.002077885384615e+01
0	 8.812500000000004e+00	 6.624999999999999e+00	 1.002049283384615e+01
0	 8.812500000000002e+00	 6.687499999999999e+00	 1.002021474307693e+01
0	 8.812500000000002e+00	 6.749999999999999e+00	 1.001994458153848e+01
0	 8.812499999999996e+00	 6.812499999999996e+00	 1.001968234923076e+01
0	 8.812499999999998e+00	 6.875000000000001e+00	 1.001942804615384e+01
0	 8.874999999999998e+00	 6.250000000000000e+00	 1.002045249230770e+01
0	 8.875000000000000e+00	 6.312499999999999e+00	 1.002017605230769e+01
0	 8.875000000000004e+00	 6.375000000000000e+00	 1.001990753230770e+01
0	 8.875000000000002e+00	 6.437499999999998e+00	 1.001964693230769e+01
0	 8.874999999999998e+00	 6.499999999999996e+00	 1.001939425230769e+01
0	 8.874999999999998e+00	 6.562499999999998e+00	 1.001914949230769e+01
0	 8.874999999999996e+00	 6.624999999999996e+00	 1.001891265230770e+01
0	 8.875000000000002e+00	 6.687499999999999e+00	 1.001868373230770e+01
0	 8.875000000000000e+00	 6.749999999999997e+00	 1.001846273230769e+01
0	 8.875000000000004e+00	 6.812500000000000e+00	 1.001824965230769e+01
0	 8.874999999999998e+00	 6.875000000000000e+00	 1.001804449230770e+01
0	 8.937500000000000e+00	 6.250000000000000e+00	 1.001867379999998e+01
0	 8.937500000000000e+00	 6.312499999999999e+00	 1.001844314000001e+01
0	 8.937500000000002e+00	 6.375000000000000e+00	 1.001822039076923e+01
0	 8.937500000000000e+00	 6.437500000000000e+00	 1.001800555230769e+01
0	 8.937499999999998e+00	 6.499999999999998e+00	 1.001779862461539e+01
0	 8.937500000000000e+00	 6.562499999999999e+00	 1.001759960769231e+01
0	 8.937499999999998e+00	 6.624999999999999e+00	 1.001740850153845e+01
0	 8.937500000000000e+00	 6.687499999999998e+00	 1.001722530615384e+01
0	 8.937500000000000e+00	 6.749999999999998e+00	 1.001705002153847e+01
0	 8.937499999999998e+00	 6.812499999999997e+00	 1.001688264769230e+01
0	 8.937500000000000e+00	 6.874999999999999e+00	 1.001672318461539e+01
0	 9.000000000000000e+00	 6.250000000000000e+00	 1.001699181538463e+01
0	 9.000000000000000e+00	 6.312499999999999e+00	 1.001680348923077e+01
0	 9.000000000000000e+00	 6.375000000000000e+00	 1.001662306461539e+01
0	 9.000000000000000e+00	 6.437499999999999e+00	 1.001645054153846e+01
0	 8.999999999999998e+00	 6.499999999999997e+00	 1.001628592000000e+01
0	 9.000000000000000e+00	 6.562499999999999e+00	 1.001612920000000e+01
0	 8.999999999999996e+00	 6.624999999999998e+00	 1.001598038153847e+01
0	 8.999999999999998e+00	 6.687499999999998e+00	 1.001583946461539e+01
0	 9.000000000000000e+00	 6.749999999999998e+00	 1.001570644923077e+01
0	 9.000000000000000e+00	 6.812499999999998e+00	 1.001558133538461e+01
0	 9.000000000000000e+00	 6.875000000000001e+00	 1.001546412307690e+01
0	 9.062500000000000e+00	 6.250000000000000e+00	 1.001540653846156e+01
0	 9.062500000000000e+00	 6.312500000000000e+00	 1.001525710000000e+01
0	 9.062499999999998e+00	 6.375000000000000e+00	 1.001511555384614e+01
0	 9.062500000000000e+00	 6.437499999999999e+00	 1.001498190000001e+01
0	 9.062499999999998e+00	 6.499999999999997e+00	 1.001485613846155e+01
0	 9.062499999999998e+00	 6.562499999999999e+00	 1.001473826923079e+01
0	 9.062500000000002e+00	 6.625000000000000e+00	 1.001462829230770e+01
0	 9.062499999999998e+00	 6.687499999999999e+00	 1.001452620769231e+01
0	 9.062499999999998e+00	 6.749999999999999e+00	 1.001443201538461e+01
0	 9.062500000000002e+00	 6.812499999999998e+00	 1.001434571538462e+01
0	 9.062500000000000e+00	 6.875000000000000e+00	 1.001426730769231e+01
0	 9.124999999999998e+00	 6.250000000000000e+00	 1.001391796923078e+01
0	 9.124999999999998e+00	 6.312499999999999e+00	 1.001380397230769e+01
0	 9.124999999999996e+00	 6.374999999999997e+00	 1.001369785846153e+01
0	 9.124999999999998e+00	 6.437499999999999e+00	 1.001359962769231e+01
0	 9.125000000000002e+00	 6.500000000000000e+00	 1.001350928000001e+01
0	 9.125000000000000e+00	 6.562500000000001e+00	 1.001342681538462e+01
0	 9.124999999999998e+00	 6.624999999999998e+00	 1.001335223384616e+01
0	 9.125000000000000e+00	 6.687499999999999e+00	 1.001328553538463e+01
0	 9.125000000000000e+00	 6.749999999999999e+00	 1.001322671999999e+01
0	 9.124999999999998e+00	 6.812499999999998e+00	 1.001317578769231e+01
0	 9.124999999999998e+00	 6.875000000000000e+00	 1.001313273846152e+01
0	 9.187499999999998e+00	 6.250000000000000e+00	 1.001252610769231e+01
0	 9.187499999999998e+00	 6.312499999999999e+00	 1.001244410615384e+01
0	 9.187500000000000e+00	 6.375000000000001e+00	 1.001236997846155e+01
0	 9.187500000000000e+00	 6.437499999999999e+00	 1.001230372461538e+01
0	 9.187499999999998e+00	 6.500000000000000e+00	 1.001224534461538e+01
0	 9.187500000000000e+00	 6.562499999999999e+00	 1.001219483846153e+01
0	 9.187500000000000e+00	 6.624999999999999e+00	 1.001215220615386e+01
0	 9.187500000000000e+00	 6.687499999999999e+00	 1.001211744769232e+01
0	 9.187499999999998e+00	 6.749999999999998e+00	 1.001209056307693e+01
0	 9.187500000000000e+00	 6.812499999999999e+00	 1.001207155230769e+01
0	 9.187499999999998e+00	 6.875000000000000e+00	 1.001206041538463e+01
0	 9.249999999999998e+00	 6.250000000000000e+00	 1.001123095384617e+01
0	 9.250000000000000e+00	 6.312500000000001e+00	 1.001117750153847e+01
0	 9.249999999999998e+00	 6.374999999999999e+00	 1.001113191384617e+01
0	 9.250000000000000e+00	 6.437500000000000e+00	 1.001109419076924e+01
0	 9.249999999999998e+00	 6.499999999999999e+00	 1.001106433230770e+01
0	 9.249999999999998e+00	 6.562499999999999e+00	 1.001104233846155e+01
0	 9.249999999999998e+00	 6.624999999999998e+00	 1.001102820923077e+01
0	 9.249999999999998e+00	 6.687499999999998e+00	 1.001102194461539e+01
0	 9.250000000000000e+00	 6.749999999999998e+00	 1.001102354461537e+01
0	 9.249999999999998e+00	 6.812499999999998e+00	 1.001103300923078e+01
0	 9.249999999999998e+00	 6.875000000000000e+00	 1.001105033846155e+01
0	 9.312499999999998e+00	 6.250000000000000e+00	 1.001003250769230e+01
0	 9.312499999999998e+00	 6.312500000000000e+00	 1.001000415846155e+01
0	 9.312500000000000e+00	 6.375000000000000e+00	 1.000998366461538e+01
0	 9.312500000000000e+00	 6.437499999999999e+00	 1.000997102615384e+01
0	 9.312499999999998e+00	 6.499999999999998e+00	 1.000996624307692e+01
0	 9.312499999999998e+00	 6.562499999999998e+00	 1.000996931538461e+01
0	 9.312499999999998e+00	 6.624999999999998e+00	 1.000998024307692e+01
0	 9.312499999999998e+00	 6.687499999999998e+00	 1.000999902615386e+01
0	 9.312499999999998e+00	 6.749999999999999e+00	 1.001002566461537e+01
0	 9.312499999999998e+00	 6.812499999999997e+00	 1.001006015846155e+01
0	 9.312499999999998e+00	 6.875000000000000e+00	 1.001010250769230e+01
0	 9.375000000000000e+00	 6.250000000000000e+00	 1.000893076923078e+01
0	 9.375000000000000e+00	 6.312500000000000e+00	 1.000892407692308e+01
0	 9.375000000000002e+00	 6.375000000000000e+00	 1.000892523076924e+01
0	 9.374999999999998e+00	 6.437499999999999e+00	 1.000893423076923e+01
0	 9.375000000000002e+00	 6.499999999999999e+00	 1.000895107692308e+01
0	 9.375000000000000e+00	 6.562499999999998e+00	 1.000897576923077e+01
0	 9.375000000000000e+00	 6.624999999999998e+00	 1.000900830769230e+01
0	 9.375000000000000e+00	 6.687499999999998e+00	 1.000904869230768e+01
0	 9.375000000000000e+00	 6.749999999999998e+00	 1.000909692307692e+01
0	 9.375000000000000e+00	 6.812499999999998e+00	 1.000915299999999e+01
0	 9.375000000000000e+00	 6.875000000000000e+00	 1.000921692307692e+01
0	 8.750000000000000e+00	 6.875000000000000e+00	 1.002087384615384e+01
0	 8.750000000000000e+00	 6.937500000000000e+00	 1.002034532307693e+01
0	 8.750000000000002e+00	 7.000000000000000e+00	 1.001981790769229e+01
0	 8.750000000000000e+00	 7.062500000000000e+00	 1.001929160000000e+01
0	 8.750000000000000e+00	 7.125000000000000e+00	 1.001876640000000e+01
0	 8.750000000000000e+00	 7.187499999999998e+00	 1.001824230769231e+01
0	 8.750000000000000e+00	 7.249999999999998e+00	 1.001771932307693e+01
0	 8.750000000000000e+00	 7.312499999999998e+00	 1.001719744615384e+01
0	 8.750000000000000e+00	 7.374999999999998e+00	 1.001667667692306e+01
0	 8.750000000000000e+00	 7.437499999999998e+00	 1.001615701538461e+01
0	 8.750000000000000e+00	 7.500000000000000e+00	 1.001563846153845e+01
0	 8.812499999999998e+00	 6.875000000000001e+00	 1.001942804615384e+01
0	 8.812500000000000e+00	 6.937499999999999e+00	 1.001894365538461e+01
0	 8.812499999999998e+00	 6.999999999999999e+00	 1.001846061230770e+01
0	 8.812500000000000e+00	 7.062500000000000e+00	 1.001797891692308e+01
0	 8.812500000000000e+00	 7.124999999999998e+00	 1.001749856923077e+01
0	 8.812500000000002e+00	 7.187499999999999e+00	 1.001701956923076e+01
0	 8.812500000000004e+00	 7.250000000000000e+00	 1.001654191692308e+01
0	 8.812500000000002e+00	 7.312499999999999e+00	 1.001606561230769e+01
0	 8.812500000000002e+00	 7.374999999999999e+00	 1.001559065538461e+01
0	 8.812499999999996e+00	 7.437499999999996e+00	 1.001511704615383e+01
0	 8.812499999999998e+00	 7.500000000000000e+00	 1.001464478461538e+01
0	 8.874999999999998e+00	 6.875000000000000e+00	 1.001804449230770e+01
0	 8.875000000000000e+00	 6.937499999999999e+00	 1.001760087384615e+01
0	 8.875000000000004e+00	 7.000000000000001e+00	 1.001715884307691e+01
0	 8.875000000000002e+00	 7.062499999999999e+00	 1.001671839999999e+01
0	 8.874999999999998e+00	 7.124999999999998e+00	 1.001627954461537e+01
0	 8.874999999999998e+00	 7.187499999999999e+00	 1.001584227692306e+01
0	 8.874999999999996e+00	 7.249999999999996e+00	 1.001540659692308e+01
0	 8.875000000000002e+00	 7.312499999999998e+00	 1.001497250461538e+01
0	 8.875000000000000e+00	 7.374999999999997e+00	 1.001453999999998e+01
0	 8.875000000000004e+00	 7.437500000000000e+00	 1.001410908307692e+01
0	 8.874999999999998e+00	 7.499999999999999e+00	 1.001367975384613e+01
0	 8.937500000000000e+00	 6.874999999999999e+00	 1.001672318461539e+01
0	 8.937500000000000e+00	 6.937499999999999e+00	 1.001631697846156e+01
0	 8.937500000000002e+00	 7.000000000000000e+00	 1.001591260000001e+01
0	 8.937500000000000e+00	 7.062500000000000e+00	 1.001551004923076e+01
0	 8.937499999999998e+00	 7.124999999999999e+00	 1.001510932615385e+01
0	 8.937500000000000e+00	 7.187499999999999e+00	 1.001471043076922e+01
0	 8.937499999999998e+00	 7.250000000000000e+00	 1.001431336307690e+01
0	 8.937500000000000e+00	 7.312499999999999e+00	 1.001391812307690e+01
0	 8.937500000000000e+00	 7.374999999999997e+00	 1.001352471076922e+01
0	 8.937499999999998e+00	 7.437499999999998e+00	 1.001313312615382e+01
0	 8.937500000000000e+00	 7.500000000000000e+00	 1.001274336923077e+01
0	 9.000000000000000e+00	 6.875000000000001e+00	 1.001546412307690e+01
0	 9.000000000000000e+00	 6.937499999999999e+00	 1.001509196923077e+01
0	 9.000000000000000e+00	 7.000000000000001e+00	 1.001472188307693e+01
0	 9.000000000000000e+00	 7.062500000000000e+00	 1.001435386461537e+01
0	 8.999999999999998e+00	 7.124999999999999e+00	 1.001398791384616e+01
0	 9.000000000000000e+00	 7.187499999999999e+00	 1.001362403076921e+01
0	 8.999999999999996e+00	 7.249999999999997e+00	 1.001326221538461e+01
0	 8.999999999999998e+00	 7.312499999999998e+00	 1.001290246769228e+01
0	 9.000000000000000e+00	 7.374999999999999e+00	 1.001254478769230e+01
0	 9.000000000000000e+00	 7.437499999999998e+00	 1.001218917538459e+01
0	 9.000000000000000e+00	 7.500000000000000e+00	 1.001183563076921e+01
0	 9.062500000000000e+00	 6.875000000000000e+00	 1.001426730769231e+01
0	 9.062500000000000e+00	 6.937500000000000e+00	 1.001392584615384e+01
0	 9.062499999999998e+00	 7.000000000000000e+00	 1.001358669230769e+01
0	 9.062500000000000e+00	 7.062500000000000e+00	 1.001324984615383e+01
0	 9.062499999999998e+00	 7.124999999999997e+00	 1.001291530769232e+01
0	 9.062499999999998e+00	 7.187499999999999e+00	 1.001258307692308e+01
0	 9.062500000000002e+00	 7.249999999999999e+00	 1.001225315384614e+01
0	 9.062499999999998e+00	 7.312499999999998e+00	 1.001192553846152e+01
0	 9.062499999999998e+00	 7.374999999999997e+00	 1.001160023076925e+01
0	 9.062500000000002e+00	 7.437499999999998e+00	 1.001127723076920e+01
0	 9.062500000000000e+00	 7.500000000000000e+00	 1.001095653846152e+01
0	 9.124999999999998e+00	 6.875000000000000e+00	 1.001313273846152e+01
0	 9.124999999999998e+00	 6.937500000000000e+00	 1.001281860923077e+01
0	 9.124999999999996e+00	 6.999999999999998e+00	 1.001250702769232e+01
0	 9.124999999999998e+00	 7.062500000000000e+00	 1.001219799384615e+01
0	 9.125000000000002e+00	 7.125000000000000e+00	 1.001189150769231e+01
0	 9.125000000000000e+00	 7.187500000000000e+00	 1.001158756923076e+01
0	 9.124999999999998e+00	 7.249999999999998e+00	 1.001128617846153e+01
0	 9.125000000000000e+00	 7.312499999999999e+00	 1.001098733538461e+01
0	 9.125000000000000e+00	 7.374999999999999e+00	 1.001069104000000e+01
0	 9.124999999999998e+00	 7.437499999999998e+00	 1.001039729230766e+01
0	 9.124999999999998e+00	 7.499999999999999e+00	 1.001010609230768e+01
0	 9.187499999999998e+00	 6.875000000000000e+00	 1.001206041538463e+01
0	 9.187499999999998e+00	 6.937499999999999e+00	 1.001177025846154e+01
0	 9.187500000000000e+00	 7.000000000000001e+00	 1.001148288923075e+01
0	 9.187500000000000e+00	 7.062499999999999e+00	 1.001119830769230e+01
0	 9.187499999999998e+00	 7.124999999999999e+00	 1.001091651384614e+01
0	 9.187500000000000e+00	 7.187500000000000e+00	 1.001063750769229e+01
0	 9.187500000000000e+00	 7.249999999999999e+00	 1.001036128923077e+01
0	 9.187500000000000e+00	 7.312500000000000e+00	 1.001008785846154e+01
0	 9.187499999999998e+00	 7.374999999999998e+00	 1.000981721538460e+01
0	 9.187500000000000e+00	 7.437499999999999e+00	 1.000954935999998e+01
0	 9.187499999999998e+00	 7.499999999999998e+00	 1.000928429230769e+01
0	 9.249999999999998e+00	 6.875000000000000e+00	 1.001105033846155e+01
0	 9.250000000000000e+00	 6.937500000000001e+00	 1.001078079384617e+01
0	 9.249999999999998e+00	 6.999999999999998e+00	 1.001051427692308e+01
0	 9.250000000000000e+00	 7.062500000000000e+00	 1.001025078769231e+01
0	 9.249999999999998e+00	 7.125000000000000e+00	 1.000999032615385e+01
0	 9.249999999999998e+00	 7.187500000000000e+00	 1.000973289230770e+01
0	 9.249999999999998e+00	 7.250000000000000e+00	 1.000947848615383e+01
0	 9.249999999999998e+00	 7.312499999999999e+00	 1.000922710769228e+01
0	 9.250000000000000e+00	 7.374999999999998e+00	 1.000897875692306e+01
0	 9.249999999999998e+00	 7.437499999999998e+00	 1.000873343384615e+01
0	 9.249999999999998e+00	 7.500000000000000e+00	 1.000849113846152e+01
0	 9.312499999999998e+00	 6.875000000000000e+00	 1.001010250769230e+01
0	 9.312499999999998e+00	 6.937500000000001e+00	 1.000985021538462e+01
0	 9.312500000000000e+00	 7.000000000000001e+00	 1.000960119076922e+01
0	 9.312500000000000e+00	 7.062500000000000e+00	 1.000935543384615e+01
0	 9.312499999999998e+00	 7.124999999999999e+00	 1.000911294461538e+01
0	 9.312499999999998e+00	 7.187499999999998e+00	 1.000887372307691e+01
0	 9.312499999999998e+00	 7.249999999999999e+00	 1.000863776923076e+01
0	 9.312499999999998e+00	 7.312499999999998e+00	 1.000840508307692e+01
0	 9.312499999999998e+00	 7.374999999999998e+00	 1.000817566461536e+01
0	 9.312499999999998e+00	 7.437499999999998e+00	 1.000794951384614e+01
0	 9.312499999999998e+00	 7.500000000000000e+00	 1.000772663076924e+01
0	 9.375000000000000e+00	 6.875000000000000e+00	 1.000921692307692e+01
0	 9.375000000000000e+00	 6.937500000000000e+00	 1.000897852307693e+01
0	 9.375000000000002e+00	 7.000000000000000e+00	 1.000874363076920e+01
0	 9.374999999999998e+00	 7.062500000000000e+00	 1.000851224615386e+01
0	 9.375000000000002e+00	 7.125000000000000e+00	 1.000828436923075e+01
0	 9.375000000000000e+00	 7.187499999999998e+00	 1.000805999999999e+01
0	 9.375000000000000e+00	 7.249999999999998e+00	 1.000783913846153e+01
0	 9.375000000000000e+00	 7.312499999999998e+00	 1.000762178461537e+01
0	 9.375000000000000e+00	 7.374999999999998e+00	 1.000740793846152e+01
0	 9.375000000000000e+00	 7.437499999999998e+00	 1.000719759999998e+01
0	 9.375000000000000e+00	 7.500000000000000e+00	 1.000699076923076e+01
0	 8.750000000000000e+00	 7.500000000000000e+00	 1.001563846153845e+01
0	 8.750000000000000e+00	 7.562500000000000e+00	 1.001508641538462e+01
0	 8.750000000000002e+00	 7.625000000000000e+00	 1.001452873846156e+01
0	 8.750000000000000e+00	 7.687499999999999e+00	 1.001396543076923e+01
0	 8.750000000000000e+00	 7.750000000000000e+00	 1.001339649230770e+01
0	 8.750000000000000e+00	 7.812499999999999e+00	 1.001282192307691e+01
0	 8.750000000000000e+00	 7.874999999999998e+00	 1.001224172307693e+01
0	 8.750000000000000e+00	 7.937499999999997e+00	 1.001165589230770e+01
0	 8.750000000000000e+00	 7.999999999999998e+00	 1.001106443076924e+01
0	 8.750000000000000e+00	 8.062499999999996e+00	 1.001046733846154e+01
0	 8.750000000000000e+00	 8.125000000000000e+00	 1.000986461538463e+01
0	 8.812499999999998e+00	 7.500000000000000e+00	 1.001464478461538e+01
0	 8.812500000000000e+00	 7.562499999999999e+00	 1.001413002307693e+01
0	 8.812499999999998e+00	 7.624999999999998e+00	 1.001361009230770e+01
0	 8.812500000000000e+00	 7.687499999999998e+00	 1.001308499230768e+01
0	 8.812500000000000e+00	 7.750000000000000e+00	 1.001255472307691e+01
0	 8.812500000000002e+00	 7.812500000000000e+00	 1.001201928461538e+01
0	 8.812500000000004e+00	 7.874999999999999e+00	 1.001147867692309e+01
0	 8.812500000000002e+00	 7.937499999999998e+00	 1.001093290000000e+01
0	 8.812500000000002e+00	 8.000000000000000e+00	 1.001038195384617e+01
0	 8.812499999999996e+00	 8.062499999999995e+00	 1.000982583846156e+01
0	 8.812499999999998e+00	 8.125000000000000e+00	 1.000926455384616e+01
0	 8.874999999999998e+00	 7.499999999999999e+00	 1.001367975384613e+01
0	 8.875000000000000e+00	 7.562500000000001e+00	 1.001319958461538e+01
0	 8.875000000000004e+00	 7.625000000000001e+00	 1.001271470769230e+01
0	 8.875000000000002e+00	 7.687500000000001e+00	 1.001222512307690e+01
0	 8.874999999999998e+00	 7.749999999999998e+00	 1.001173083076922e+01
0	 8.874999999999998e+00	 7.812499999999998e+00	 1.001123183076923e+01
0	 8.874999999999996e+00	 7.874999999999996e+00	 1.001072812307693e+01
0	 8.875000000000002e+00	 7.937499999999998e+00	 1.001021970769232e+01
0	 8.875000000000000e+00	 7.999999999999999e+00	 1.000970658461539e+01
0	 8.875000000000004e+00	 8.062499999999998e+00	 1.000918875384614e+01
0	 8.874999999999998e+00	 8.125000000000000e+00	 1.000866621538462e+01
0	 8.937500000000000e+00	 7.500000000000000e+00	 1.001274336923077e+01
0	 8.937500000000000e+00	 7.562500000000001e+00	 1.001229509999998e+01
0	 8.937500000000002e+00	 7.625000000000001e+00	 1.001184258461537e+01
0	 8.937500000000000e+00	 7.687500000000000e+00	 1.001138582307692e+01
0	 8.937499999999998e+00	 7.749999999999999e+00	 1.001092481538461e+01
0	 8.937500000000000e+00	 7.812499999999999e+00	 1.001045956153846e+01
0	 8.937499999999998e+00	 7.874999999999998e+00	 1.000999006153847e+01
0	 8.937500000000000e+00	 7.937499999999998e+00	 1.000951631538462e+01
0	 8.937500000000000e+00	 7.999999999999998e+00	 1.000903832307694e+01
0	 8.937499999999998e+00	 8.062499999999996e+00	 1.000855608461539e+01
0	 8.937500000000000e+00	 8.125000000000000e+00	 1.000806960000001e+01
0	 9.000000000000000e+00	 7.500000000000000e+00	 1.001183563076921e+01
0	 9.000000000000000e+00	 7.562500000000000e+00	 1.001141656923074e+01
0	 9.000000000000000e+00	 7.625000000000000e+00	 1.001099372307691e+01
0	 9.000000000000000e+00	 7.687500000000000e+00	 1.001056709230769e+01
0	 8.999999999999998e+00	 7.749999999999998e+00	 1.001013667692306e+01
0	 9.000000000000000e+00	 7.812500000000000e+00	 1.000970247692308e+01
0	 8.999999999999996e+00	 7.874999999999998e+00	 1.000926449230769e+01
0	 8.999999999999998e+00	 7.937499999999999e+00	 1.000882272307691e+01
0	 9.000000000000000e+00	 7.999999999999997e+00	 1.000837716923079e+01
0	 9.000000000000000e+00	 8.062500000000000e+00	 1.000792783076924e+01
0	 9.000000000000000e+00	 8.125000000000000e+00	 1.000747470769233e+01
0	 9.062500000000000e+00	 7.500000000000000e+00	 1.001095653846152e+01
0	 9.062500000000000e+00	 7.562499999999999e+00	 1.001056399230766e+01
0	 9.062499999999998e+00	 7.624999999999999e+00	 1.001016812307691e+01
0	 9.062500000000000e+00	 7.687500000000000e+00	 1.000976893076921e+01
0	 9.062499999999998e+00	 7.749999999999996e+00	 1.000936641538461e+01
0	 9.062499999999998e+00	 7.812499999999999e+00	 1.000896057692308e+01
0	 9.062500000000002e+00	 7.875000000000000e+00	 1.000855141538462e+01
0	 9.062499999999998e+00	 7.937499999999999e+00	 1.000813893076923e+01
0	 9.062499999999998e+00	 7.999999999999998e+00	 1.000772312307693e+01
0	 9.062500000000002e+00	 8.062500000000000e+00	 1.000730399230771e+01
0	 9.062500000000000e+00	 8.125000000000000e+00	 1.000688153846155e+01
0	 9.124999999999998e+00	 7.499999999999999e+00	 1.001010609230768e+01
0	 9.124999999999998e+00	 7.562500000000000e+00	 1.000973736923073e+01
0	 9.124999999999996e+00	 7.624999999999998e+00	 1.000936578461536e+01
0	 9.124999999999998e+00	 7.687499999999998e+00	 1.000899133846152e+01
0	 9.125000000000002e+00	 7.750000000000001e+00	 1.000861403076921e+01
0	 9.125000000000000e+00	 7.812500000000000e+00	 1.000823386153847e+01
0	 9.124999999999998e+00	 7.874999999999998e+00	 1.000785083076923e+01
0	 9.125000000000000e+00	 7.937499999999999e+00	 1.000746493846154e+01
0	 9.125000000000000e+00	 8.000000000000000e+00	 1.000707618461541e+01
0	 9.124999999999998e+00	 8.062499999999998e+00	 1.000668456923077e+01
0	 9.124999999999998e+00	 8.125000000000000e+00	 1.000629009230769e+01
0	 9.187499999999998e+00	 7.499999999999998e+00	 1.000928429230769e+01
0	 9.187499999999998e+00	 7.562500000000000e+00	 1.000893669999999e+01
0	 9.187500000000000e+00	 7.624999999999999e+00	 1.000858670769230e+01
0	 9.187500000000000e+00	 7.687500000000000e+00	 1.000823431538459e+01
0	 9.187499999999998e+00	 7.749999999999998e+00	 1.000787952307691e+01
0	 9.187500000000000e+00	 7.812500000000000e+00	 1.000752233076922e+01
0	 9.187500000000000e+00	 7.874999999999999e+00	 1.000716273846155e+01
0	 9.187500000000000e+00	 7.937500000000000e+00	 1.000680074615385e+01
0	 9.187499999999998e+00	 7.999999999999998e+00	 1.000643635384617e+01
0	 9.187500000000000e+00	 8.062500000000000e+00	 1.000606956153847e+01
0	 9.187499999999998e+00	 8.125000000000000e+00	 1.000570036923077e+01
0	 9.249999999999998e+00	 7.500000000000000e+00	 1.000849113846152e+01
0	 9.250000000000000e+00	 7.562500000000001e+00	 1.000816198461537e+01
0	 9.249999999999998e+00	 7.625000000000000e+00	 1.000783089230768e+01
0	 9.250000000000000e+00	 7.687500000000001e+00	 1.000749786153846e+01
0	 9.249999999999998e+00	 7.749999999999999e+00	 1.000716289230770e+01
0	 9.249999999999998e+00	 7.812499999999998e+00	 1.000682598461539e+01
0	 9.249999999999998e+00	 7.875000000000000e+00	 1.000648713846153e+01
0	 9.249999999999998e+00	 7.937499999999998e+00	 1.000614635384616e+01
0	 9.250000000000000e+00	 7.999999999999998e+00	 1.000580363076923e+01
0	 9.249999999999998e+00	 8.062500000000000e+00	 1.000545896923078e+01
0	 9.249999999999998e+00	 8.125000000000000e+00	 1.000511236923078e+01
0	 9.312499999999998e+00	 7.500000000000000e+00	 1.000772663076924e+01
0	 9.312499999999998e+00	 7.562500000000001e+00	 1.000741322307691e+01
0	 9.312500000000000e+00	 7.624999999999999e+00	 1.000709833846151e+01
0	 9.312500000000000e+00	 7.687499999999999e+00	 1.000678197692307e+01
0	 9.312499999999998e+00	 7.750000000000000e+00	 1.000646413846152e+01
0	 9.312499999999998e+00	 7.812499999999999e+00	 1.000614482307692e+01
0	 9.312499999999998e+00	 7.874999999999998e+00	 1.000582403076922e+01
0	 9.312499999999998e+00	 7.937499999999998e+00	 1.000550176153847e+01
0	 9.312499999999998e+00	 7.999999999999998e+00	 1.000517801538460e+01
0	 9.312499999999998e+00	 8.062499999999998e+00	 1.000485279230769e+01
0	 9.312499999999998e+00	 8.125000000000000e+00	 1.000452609230769e+01
0	 9.375000000000000e+00	 7.500000000000000e+00	 1.000699076923076e+01
0	 9.375000000000000e+00	 7.562500000000000e+00	 1.000669041538459e+01
0	 9.375000000000002e+00	 7.625000000000000e+00	 1.000638904615385e+01
0	 9.374999999999998e+00	 7.687499999999999e+00	 1.000608666153845e+01
0	 9.375000000000002e+00	 7.750000000000000e+00	 1.000578326153847e+01
0	 9.375000000000000e+00	 7.812499999999999e+00	 1.000547884615383e+01
0	 9.375000000000000e+00	 7.874999999999998e+00	 1.000517341538461e+01
0	 9.375000000000000e+00	 7.937499999999997e+00	 1.000486696923076e+01
0	 9.375000000000000e+00	 7.999999999999998e+00	 1.000455950769231e+01
0	 9.375000000000000e+00	 8.062499999999996e+00	 1.000425103076923e+01
0	 9.375000000000000e+00	 8.125000000000000e+00	 1.000394153846154e+01
0	 8.750000000000000e+00	 8.125000000000000e+00	 1.000986461538463e+01
0	 8.750000000000000e+00	 8.187500000000000e+00	 1.000940166153846e+01
0	 8.750000000000002e+00	 8.250000000000002e+00	 1.000892449230770e+01
0	 8.750000000000000e+00	 8.312500000000000e+00	 1.000843310769231e+01
0	 8.750000000000000e+00	 8.374999999999998e+00	 1.000792750769231e+01
0	 8.750000000000000e+00	 8.437500000000000e+00	 1.000740769230769e+01
0	 8.750000000000000e+00	 8.500000000000000e+00	 1.000687366153846e+01
0	 8.750000000000000e+00	 8.562499999999998e+00	 1.000632541538461e+01
0	 8.750000000000000e+00	 8.625000000000000e+00	 1.000576295384615e+01
0	 8.750000000000000e+00	 8.687499999999998e+00	 1.000518627692305e+01
0	 8.750000000000000e+00	 8.750000000000000e+00	 1.000459538461538e+01
0	 8.812499999999998e+00	 8.125000000000000e+00	 1.000926455384616e+01
0	 8.812500000000000e+00	 8.187500000000002e+00	 1.000882998307694e+01
0	 8.812499999999998e+00	 8.250000000000000e+00	 1.000838212923078e+01
0	 8.812500000000000e+00	 8.312499999999998e+00	 1.000792099230770e+01
0	 8.812500000000000e+00	 8.374999999999998e+00	 1.000744657230770e+01
0	 8.812500000000002e+00	 8.437500000000000e+00	 1.000695886923076e+01
0	 8.812500000000004e+00	 8.500000000000002e+00	 1.000645788307693e+01
0	 8.812500000000002e+00	 8.562500000000000e+00	 1.000594361384616e+01
0	 8.812500000000002e+00	 8.625000000000002e+00	 1.000541606153847e+01
0	 8.812499999999996e+00	 8.687499999999996e+00	 1.000487522615384e+01
0	 8.812499999999998e+00	 8.750000000000002e+00	 1.000432110769229e+01
0	 8.874999999999998e+00	 8.125000000000000e+00	 1.000866621538462e+01
0	 8.875000000000000e+00	 8.187499999999998e+00	 1.000825869230770e+01
0	 8.875000000000004e+00	 8.250000000000000e+00	 1.000783881846154e+01
0	 8.875000000000002e+00	 8.312500000000000e+00	 1.000740659384615e+01
0	 8.874999999999998e+00	 8.374999999999998e+00	 1.000696201846153e+01
0	 8.874999999999998e+00	 8.437499999999998e+00	 1.000650509230770e+01
0	 8.874999999999996e+00	 8.499999999999996e+00	 1.000603581538463e+01
0	 8.875000000000002e+00	 8.562500000000002e+00	 1.000555418769230e+01
0	 8.875000000000000e+00	 8.624999999999998e+00	 1.000506020923076e+01
0	 8.875000000000004e+00	 8.687499999999998e+00	 1.000455388000000e+01
0	 8.874999999999998e+00	 8.750000000000000e+00	 1.000403519999995e+01
0	 8.937500000000000e+00	 8.125000000000000e+00	 1.000806960000001e+01
0	 8.937500000000000e+00	 8.187500000000000e+00	 1.000768778923078e+01
0	 8.937500000000002e+00	 8.250000000000002e+00	 1.000729456000002e+01
0	 8.937500000000000e+00	 8.312499999999998e+00	 1.000688991230772e+01
0	 8.937499999999998e+00	 8.374999999999998e+00	 1.000647384615384e+01
0	 8.937500000000000e+00	 8.437500000000000e+00	 1.000604636153847e+01
0	 8.937499999999998e+00	 8.499999999999998e+00	 1.000560745846152e+01
0	 8.937500000000000e+00	 8.562500000000000e+00	 1.000515713692308e+01
0	 8.937500000000000e+00	 8.625000000000000e+00	 1.000469539692306e+01
0	 8.937499999999998e+00	 8.687499999999996e+00	 1.000422223846154e+01
0	 8.937500000000000e+00	 8.750000000000000e+00	 1.000373766153846e+01
0	 9.000000000000000e+00	 8.125000000000000e+00	 1.000747470769233e+01
0	 9.000000000000000e+00	 8.187499999999998e+00	 1.000711727384614e+01
0	 9.000000000000000e+00	 8.250000000000002e+00	 1.000674935384617e+01
0	 9.000000000000000e+00	 8.312500000000000e+00	 1.000637094769230e+01
0	 8.999999999999998e+00	 8.374999999999998e+00	 1.000598205538462e+01
0	 9.000000000000000e+00	 8.437500000000000e+00	 1.000558267692308e+01
0	 8.999999999999996e+00	 8.499999999999998e+00	 1.000517281230769e+01
0	 8.999999999999998e+00	 8.562499999999998e+00	 1.000475246153846e+01
0	 9.000000000000000e+00	 8.624999999999998e+00	 1.000432162461539e+01
0	 9.000000000000000e+00	 8.687499999999996e+00	 1.000388030153845e+01
0	 9.000000000000000e+00	 8.749999999999998e+00	 1.000342849230766e+01
0	 9.062500000000000e+00	 8.125000000000000e+00	 1.000688153846155e+01
0	 9.062500000000000e+00	 8.187499999999998e+00	 1.000654714615384e+01
0	 9.062499999999998e+00	 8.249999999999998e+00	 1.000620320000000e+01
0	 9.062500000000000e+00	 8.312500000000000e+00	 1.000584970000000e+01
0	 9.062499999999998e+00	 8.374999999999998e+00	 1.000548664615385e+01
0	 9.062499999999998e+00	 8.437499999999998e+00	 1.000511403846154e+01
0	 9.062500000000002e+00	 8.500000000000002e+00	 1.000473187692308e+01
0	 9.062499999999998e+00	 8.562499999999998e+00	 1.000434016153846e+01
0	 9.062499999999998e+00	 8.624999999999998e+00	 1.000393889230771e+01
0	 9.062500000000002e+00	 8.687500000000000e+00	 1.000352806923075e+01
0	 9.062500000000000e+00	 8.750000000000000e+00	 1.000310769230769e+01
0	 9.124999999999998e+00	 8.125000000000000e+00	 1.000629009230769e+01
0	 9.124999999999998e+00	 8.187500000000000e+00	 1.000597740615385e+01
0	 9.124999999999996e+00	 8.249999999999998e+00	 1.000565609846154e+01
0	 9.124999999999998e+00	 8.312500000000000e+00	 1.000532616923078e+01
0	 9.125000000000002e+00	 8.375000000000002e+00	 1.000498761846155e+01
0	 9.125000000000000e+00	 8.437500000000002e+00	 1.000464044615386e+01
0	 9.124999999999998e+00	 8.499999999999998e+00	 1.000428465230769e+01
0	 9.125000000000000e+00	 8.562500000000000e+00	 1.000392023692310e+01
0	 9.125000000000000e+00	 8.624999999999998e+00	 1.000354720000001e+01
0	 9.124999999999998e+00	 8.687499999999998e+00	 1.000316554153845e+01
0	 9.124999999999998e+00	 8.750000000000000e+00	 1.000277526153847e+01
0	 9.187499999999998e+00	 8.125000000000000e+00	 1.000570036923077e+01
0	 9.187499999999998e+00	 8.187500000000000e+00	 1.000540805384615e+01
0	 9.187500000000000e+00	 8.250000000000000e+00	 1.000510804923076e+01
0	 9.187500000000000e+00	 8.312500000000000e+00	 1.000480035538461e+01
0	 9.187499999999998e+00	 8.374999999999998e+00	 1.000448497230770e+01
0	 9.187500000000000e+00	 8.437500000000000e+00	 1.000416190000000e+01
0	 9.187500000000000e+00	 8.500000000000000e+00	 1.000383113846153e+01
0	 9.187500000000000e+00	 8.562499999999998e+00	 1.000349268769231e+01
0	 9.187499999999998e+00	 8.624999999999998e+00	 1.000314654769231e+01
0	 9.187500000000000e+00	 8.687500000000000e+00	 1.000279271846152e+01
0	 9.187499999999998e+00	 8.750000000000000e+00	 1.000243120000000e+01
0	 9.249999999999998e+00	 8.125000000000000e+00	 1.000511236923078e+01
0	 9.250000000000000e+00	 8.187500000000002e+00	 1.000483908923079e+01
0	 9.249999999999998e+00	 8.250000000000000e+00	 1.000455905230771e+01
0	 9.250000000000000e+00	 8.312500000000000e+00	 1.000427225846155e+01
0	 9.249999999999998e+00	 8.375000000000002e+00	 1.000397870769232e+01
0	 9.249999999999998e+00	 8.437500000000000e+00	 1.000367840000001e+01
0	 9.249999999999998e+00	 8.500000000000000e+00	 1.000337133538463e+01
0	 9.249999999999998e+00	 8.562499999999996e+00	 1.000305751384617e+01
0	 9.250000000000000e+00	 8.624999999999998e+00	 1.000273693538462e+01
0	 9.249999999999998e+00	 8.687499999999998e+00	 1.000240960000000e+01
0	 9.249999999999998e+00	 8.750000000000002e+00	 1.000207550769231e+01
0	 9.312499999999998e+00	 8.125000000000000e+00	 1.000452609230769e+01
0	 9.312499999999998e+00	 8.187500000000000e+00	 1.000427051230770e+01
0	 9.312500000000000e+00	 8.250000000000002e+00	 1.000400910769232e+01
0	 9.312500000000000e+00	 8.312499999999998e+00	 1.000374187846155e+01
0	 9.312499999999998e+00	 8.374999999999998e+00	 1.000346882461539e+01
0	 9.312499999999998e+00	 8.437499999999998e+00	 1.000318994615386e+01
0	 9.312499999999998e+00	 8.499999999999998e+00	 1.000290524307693e+01
0	 9.312499999999998e+00	 8.562499999999998e+00	 1.000261471538463e+01
0	 9.312499999999998e+00	 8.624999999999998e+00	 1.000231836307692e+01
0	 9.312499999999998e+00	 8.687499999999998e+00	 1.000201618615387e+01
0	 9.312499999999998e+00	 8.750000000000000e+00	 1.000170818461540e+01
0	 9.375000000000000e+00	 8.125000000000000e+00	 1.000394153846154e+01
0	 9.375000000000000e+00	 8.187500000000000e+00	 1.000370232307692e+01
0	 9.375000000000002e+00	 8.250000000000002e+00	 1.000345821538460e+01
0	 9.374999999999998e+00	 8.312500000000000e+00	 1.000320921538462e+01
0	 9.375000000000002e+00	 8.374999999999998e+00	 1.000295532307693e+01
0	 9.375000000000000e+00	 8.437500000000000e+00	 1.000269653846154e+01
0	 9.375000000000000e+00	 8.500000000000000e+00	 1.000243286153846e+01
0	 9.375000000000000e+00	 8.562499999999998e+00	 1.000216429230770e+01
0	 9.375000000000000e+00	 8.625000000000000e+00	 1.000189083076923e+01
0	 9.375000000000000e+00	 8.687499999999998e+00	 1.000161247692307e+01
0	 9.375000000000000e+00	 8.750000000000000e+00	 1.000132923076924e+01
0	 8.750000000000000e+00	 8.750000000000000e+00	 1.000459538461538e+01
0	 8.750000000000000e+00	 8.812500000000000e+00	 1.000432306153846e+01
0	 8.750000000000002e+00	 8.875000000000002e+00	 1.000402793846156e+01
0	 8.750000000000000e+00	 8.937499999999998e+00	 1.000371001538461e+01
0	 8.750000000000000e+00	 9.000000000000000e+00	 1.000336929230770e+01
0	 8.750000000000000e+00	 9.062500000000000e+00	 1.000300576923075e+01
0	 8.750000000000000e+00	 9.124999999999998e+00	 1.000261944615383e+01
0	 8.750000000000000e+00	 9.187499999999998e+00	 1.000221032307691e+01
0	 8.750000000000000e+00	 9.249999999999998e+00	 1.000177840000001e+01
0	 8.750000000000000e+00	 9.312499999999998e+00	 1.000132367692306e+01
0	 8.750000000000000e+00	 9.375000000000000e+00	 1.000084615384615e+01
0	 8.812499999999998e+00	 8.750000000000002e+00	 1.000432110769229e+01
0	 8.812500000000000e+00	 8.812499999999998e+00	 1.000406923076923e+01
0	 8.812499999999998e+00	 8.875000000000000e+00	 1.000379583692306e+01
0	 8.812500000000000e+00	 8.937500000000000e+00	 1.000350092615386e+01
0	 8.812500000000000e+00	 9.000000000000000e+00	 1.000318449846153e+01
0	 8.812500000000002e+00	 9.062500000000000e+00	 1.000284655384614e+01
0	 8.812500000000004e+00	 9.125000000000000e+00	 1.000248709230770e+01
0	 8.812500000000002e+00	 9.187499999999998e+00	 1.000210611384616e+01
0	 8.812500000000002e+00	 9.250000000000000e+00	 1.000170361846154e+01
0	 8.812499999999996e+00	 9.312499999999996e+00	 1.000127960615384e+01
0	 8.812499999999998e+00	 9.375000000000000e+00	 1.000083407692310e+01
0	 8.874999999999998e+00	 8.750000000000000e+00	 1.000403519999995e+01
0	 8.875000000000000e+00	 8.812500000000000e+00	 1.000380331692308e+01
0	 8.875000000000004e+00	 8.875000000000004e+00	 1.000355119999999e+01
0	 8.875000000000002e+00	 8.937500000000000e+00	 1.000327884923076e+01
0	 8.874999999999998e+00	 8.999999999999998e+00	 1.000298626461538e+01
0	 8.874999999999998e+00	 9.062500000000000e+00	 1.000267344615385e+01
0	 8.874999999999996e+00	 9.124999999999998e+00	 1.000234039384615e+01
0	 8.875000000000002e+00	 9.187500000000002e+00	 1.000198710769230e+01
0	 8.875000000000000e+00	 9.249999999999996e+00	 1.000161358769229e+01
0	 8.875000000000004e+00	 9.312499999999998e+00	 1.000121983384613e+01
0	 8.874999999999998e+00	 9.375000000000000e+00	 1.000080584615385e+01
0	 8.937500000000000e+00	 8.750000000000000e+00	 1.000373766153846e+01
0	 8.937500000000000e+00	 8.812500000000000e+00	 1.000352532000000e+01
0	 8.937500000000002e+00	 8.875000000000002e+00	 1.000329402769230e+01
0	 8.937500000000000e+00	 8.937500000000000e+00	 1.000304378461538e+01
0	 8.937499999999998e+00	 9.000000000000000e+00	 1.000277459076924e+01
0	 8.937500000000000e+00	 9.062499999999998e+00	 1.000248644615385e+01
0	 8.937499999999998e+00	 9.124999999999998e+00	 1.000217935076923e+01
0	 8.937500000000000e+00	 9.187500000000002e+00	 1.000185330461538e+01
0	 8.937500000000000e+00	 9.249999999999998e+00	 1.000150830769232e+01
0	 8.937499999999998e+00	 9.312499999999998e+00	 1.000114436000000e+01
0	 8.937500000000000e+00	 9.375000000000002e+00	 1.000076146153845e+01
0	 9.000000000000000e+00	 8.749999999999998e+00	 1.000342849230766e+01
0	 9.000000000000000e+00	 8.812500000000000e+00	 1.000323524000002e+01
0	 9.000000000000000e+00	 8.875000000000002e+00	 1.000302432000000e+01
0	 9.000000000000000e+00	 8.937500000000000e+00	 1.000279573230768e+01
0	 8.999999999999998e+00	 8.999999999999998e+00	 1.000254947692305e+01
0	 9.000000000000000e+00	 9.062500000000000e+00	 1.000228555384615e+01
0	 8.999999999999996e+00	 9.124999999999998e+00	 1.000200396307693e+01
0	 8.999999999999998e+00	 9.187500000000000e+00	 1.000170470461537e+01
0	 9.000000000000000e+00	 9.249999999999998e+00	 1.000138777846153e+01
0	 9.000000000000000e+00	 9.312500000000000e+00	 1.000105318461538e+01
0	 9.000000000000000e+00	 9.375000000000002e+00	 1.000070092307693e+01
0	 9.062500000000000e+00	 8.750000000000000e+00	 1.000310769230769e+01
0	 9.062500000000000e+00	 8.812500000000000e+00	 1.000293307692308e+01
0	 9.062499999999998e+00	 8.875000000000000e+00	 1.000274207692306e+01
0	 9.062500000000000e+00	 8.937500000000000e+00	 1.000253469230769e+01
0	 9.062499999999998e+00	 8.999999999999998e+00	 1.000231092307691e+01
0	 9.062499999999998e+00	 9.062500000000000e+00	 1.000207076923077e+01
0	 9.062500000000002e+00	 9.125000000000002e+00	 1.000181423076923e+01
0	 9.062499999999998e+00	 9.187499999999998e+00	 1.000154130769230e+01
0	 9.062499999999998e+00	 9.249999999999998e+00	 1.000125199999999e+01
0	 9.062500000000002e+00	 9.312500000000000e+00	 1.000094630769229e+01
0	 9.062500000000000e+00	 9.375000000000002e+00	 1.000062423076923e+01
0	 9.124999999999998e+00	 8.750000000000000e+00	 1.000277526153847e+01
0	 9.124999999999998e+00	 8.812500000000000e+00	 1.000261883076921e+01
0	 9.124999999999996e+00	 8.874999999999996e+00	 1.000244729846154e+01
0	 9.124999999999998e+00	 8.937499999999998e+00	 1.000226066461537e+01
0	 9.125000000000002e+00	 9.000000000000004e+00	 1.000205892923078e+01
0	 9.125000000000000e+00	 9.062500000000002e+00	 1.000184209230767e+01
0	 9.124999999999998e+00	 9.124999999999998e+00	 1.000161015384614e+01
0	 9.125000000000000e+00	 9.187500000000000e+00	 1.000136311384615e+01
0	 9.125000000000000e+00	 9.249999999999998e+00	 1.000110097230768e+01
0	 9.124999999999998e+00	 9.312499999999998e+00	 1.000082372923077e+01
0	 9.124999999999998e+00	 9.375000000000000e+00	 1.000053138461538e+01
0	 9.187499999999998e+00	 8.750000000000000e+00	 1.000243120000000e+01
0	 9.187499999999998e+00	 8.812499999999998e+00	 1.000229250153846e+01
0	 9.187500000000000e+00	 8.875000000000002e+00	 1.000213998461541e+01
0	 9.187500000000000e+00	 8.937500000000002e+00	 1.000197364923077e+01
0	 9.187499999999998e+00	 8.999999999999998e+00	 1.000179349538461e+01
0	 9.187500000000000e+00	 9.062500000000000e+00	 1.000159952307692e+01
0	 9.187500000000000e+00	 9.125000000000000e+00	 1.000139173230765e+01
0	 9.187500000000000e+00	 9.187500000000000e+00	 1.000117012307692e+01
0	 9.187499999999998e+00	 9.249999999999998e+00	 1.000093469538461e+01
0	 9.187500000000000e+00	 9.312500000000000e+00	 1.000068544923077e+01
0	 9.187499999999998e+00	 9.375000000000000e+00	 1.000042238461538e+01
0	 9.249999999999998e+00	 8.750000000000002e+00	 1.000207550769231e+01
0	 9.250000000000000e+00	 8.812500000000002e+00	 1.000195408923077e+01
0	 9.249999999999998e+00	 8.875000000000000e+00	 1.000182013538459e+01
0	 9.250000000000000e+00	 8.937500000000002e+00	 1.000167364615385e+01
0	 9.249999999999998e+00	 8.999999999999998e+00	 1.000151462153845e+01
0	 9.249999999999998e+00	 9.062499999999998e+00	 1.000134306153846e+01
0	 9.249999999999998e+00	 9.125000000000000e+00	 1.000115896615382e+01
0	 9.249999999999998e+00	 9.187499999999998e+00	 1.000096233538461e+01
0	 9.250000000000000e+00	 9.250000000000000e+00	 1.000075316923075e+01
0	 9.249999999999998e+00	 9.312499999999998e+00	 1.000053146769232e+01
0	 9.249999999999998e+00	 9.375000000000000e+00	 1.000029723076924e+01
0	 9.312499999999998e+00	 8.750000000000000e+00	 1.000170818461540e+01
0	 9.312499999999998e+00	 8.812500000000000e+00	 1.000160359384614e+01
0	 9.312500000000000e+00	 8.875000000000002e+00	 1.000148775076923e+01
0	 9.312500000000000e+00	 8.937500000000000e+00	 1.000136065538460e+01
0	 9.312499999999998e+00	 9.000000000000000e+00	 1.000122230769231e+01
0	 9.312499999999998e+00	 9.062500000000000e+00	 1.000107270769230e+01
0	 9.312499999999998e+00	 9.125000000000000e+00	 1.000091185538461e+01
0	 9.312499999999998e+00	 9.187499999999998e+00	 1.000073975076924e+01
0	 9.312499999999998e+00	 9.249999999999998e+00	 1.000055639384614e+01
0	 9.312499999999998e+00	 9.312499999999996e+00	 1.000036178461539e+01
0	 9.312499999999998e+00	 9.375000000000000e+00	 1.000015592307692e+01
0	 9.375000000000000e+00	 8.750000000000000e+00	 1.000132923076924e+01
0	 9.375000000000000e+00	 8.812500000000000e+00	 1.000124101538463e+01
0	 9.375000000000002e+00	 8.875000000000002e+00	 1.000114283076925e+01
0	 9.374999999999998e+00	 8.937499999999998e+00	 1.000103467692307e+01
0	 9.375000000000002e+00	 9.000000000000000e+00	 1.000091655384616e+01
0	 9.375000000000000e+00	 9.062500000000000e+00	 1.000078846153845e+01
0	 9.375000000000000e+00	 9.124999999999998e+00	 1.000065039999998e+01
0	 9.375000000000000e+00	 9.187499999999998e+00	 1.000050236923075e+01
0	 9.375000000000000e+00	 9.249999999999998e+00	 1.000034436923077e+01
0	 9.375000000000000e+00	 9.312499999999998e+00	 1.000017639999997e+01
0	 9.375000000000000e+00	 9.375000000000000e+00	 9.999998461538450e+00
0	 8.750000000000000e+00	 9.375000000000000e+00	 1.000084615384615e+01
0	 8.750000000000000e+00	 9.437499999999998e+00	 1.000084189230770e+01
0	 8.750000000000000e+00	 9.500000000000000e+00	 1.000080541538463e+01
0	 8.749999999999998e+00	 9.562500000000000e+00	 1.000073672307694e+01
0	 8.750000000000000e+00	 9.625000000000000e+00	 1.000063581538463e+01
0	 8.750000000000000e+00	 9.687499999999998e+00	 1.000050269230771e+01
0	 8.750000000000000e+00	 9.749999999999998e+00	 1.000033735384616e+01
0	 8.750000000000000e+00	 9.812500000000000e+00	 1.000013980000004e+01
0	 8.750000000000002e+00	 9.875000000000000e+00	 9.999910030769229e+00
0	 8.750000000000000e+00	 9.937499999999998e+00	 9.999648046153840e+00
0	 8.750000000000000e+00	 1.000000000000000e+01	 9.999353846153864e+00
0	 8.812499999999998e+00	 9.375000000000000e+00	 1.000083407692310e+01
0	 8.812500000000000e+00	 9.437500000000002e+00	 1.000082917076925e+01
0	 8.812499999999998e+00	 9.500000000000000e+00	 1.000079454153847e+01
0	 8.812500000000000e+00	 9.562500000000000e+00	 1.000073018923077e+01
0	 8.812500000000000e+00	 9.625000000000000e+00	 1.000063611384620e+01
0	 8.812500000000002e+00	 9.687500000000000e+00	 1.000051231538462e+01
0	 8.812500000000002e+00	 9.749999999999998e+00	 1.000035879384616e+01
0	 8.812500000000000e+00	 9.812499999999998e+00	 1.000017554923078e+01
0	 8.812500000000000e+00	 9.874999999999998e+00	 9.999962581538503e+00
0	 8.812499999999998e+00	 9.937499999999996e+00	 9.999719890769292e+00
0	 8.812500000000002e+00	 1.000000000000000e+01	 9.999447476923068e+00
0	 8.874999999999998e+00	 9.375000000000000e+00	 1.000080584615385e+01
0	 8.874999999999996e+00	 9.437499999999998e+00	 1.000080100615384e+01
0	 8.875000000000000e+00	 9.500000000000000e+00	 1.000076893538461e+01
0	 8.875000000000002e+00	 9.562500000000000e+00	 1.000070963384619e+01
0	 8.875000000000000e+00	 9.625000000000002e+00	 1.000062310153848e+01
0	 8.875000000000000e+00	 9.687500000000002e+00	 1.000050933846156e+01
0	 8.875000000000000e+00	 9.750000000000000e+00	 1.000036834461540e+01
0	 8.875000000000000e+00	 9.812500000000002e+00	 1.000020012000005e+01
0	 8.875000000000000e+00	 9.874999999999996e+00	 1.000000466461539e+01
0	 8.875000000000002e+00	 9.937500000000000e+00	 9.999781978461566e+00
0	 8.875000000000000e+00	 1.000000000000000e+01	 9.999532061538495e+00
0	 8.937500000000000e+00	 9.375000000000002e+00	 1.000076146153845e+01
0	 8.937500000000000e+00	 9.437500000000000e+00	 1.000075739846153e+01
0	 8.937499999999998e+00	 9.499999999999996e+00	 1.000072859692308e+01
0	 8.937500000000000e+00	 9.562500000000000e+00	 1.000067505692311e+01
0	 8.937499999999996e+00	 9.624999999999998e+00	 1.000059677846155e+01
0	 8.937499999999998e+00	 9.687500000000000e+00	 1.000049376153848e+01
0	 8.937499999999998e+00	 9.749999999999996e+00	 1.000036600615387e+01
0	 8.937499999999998e+00	 9.812499999999996e+00	 1.000021351230766e+01
0	 8.937500000000000e+00	 9.875000000000000e+00	 1.000003628000001e+01
0	 8.937500000000000e+00	 9.937499999999998e+00	 9.999834309230755e+00
0	 8.937499999999998e+00	 1.000000000000000e+01	 9.999607600000074e+00
0	 9.000000000000000e+00	 9.375000000000002e+00	 1.000070092307693e+01
0	 8.999999999999998e+00	 9.437500000000000e+00	 1.000069834769231e+01
0	 9.000000000000002e+00	 9.500000000000004e+00	 1.000067352615385e+01
0	 9.000000000000000e+00	 9.562500000000000e+00	 1.000062645846155e+01
0	 8.999999999999998e+00	 9.624999999999998e+00	 1.000055714461539e+01
0	 9.000000000000000e+00	 9.687499999999998e+00	 1.000046558461539e+01
0	 8.999999999999998e+00	 9.750000000000000e+00	 1.000035177846157e+01
0	 8.999999999999998e+00	 9.812499999999996e+00	 1.000021572615384e+01
0	 9.000000000000000e+00	 9.874999999999998e+00	 1.000005742769230e+01
0	 8.999999999999998e+00	 9.937499999999996e+00	 9.999876883076999e+00
0	 9.000000000000000e+00	 1.000000000000000e+01	 9.999674092307703e+00
0	 9.062500000000000e+00	 9.375000000000002e+00	 1.000062423076923e+01
0	 9.062499999999998e+00	 9.437499999999998e+00	 1.000062385384614e+01
0	 9.062499999999996e+00	 9.499999999999998e+00	 1.000060372307691e+01
0	 9.062500000000000e+00	 9.562500000000000e+00	 1.000056383846152e+01
0	 9.062499999999998e+00	 9.624999999999998e+00	 1.000050420000000e+01
0	 9.062500000000000e+00	 9.687500000000000e+00	 1.000042480769234e+01
0	 9.062500000000000e+00	 9.750000000000000e+00	 1.000032566153848e+01
0	 9.062499999999998e+00	 9.812499999999998e+00	 1.000020676153848e+01
0	 9.062500000000000e+00	 9.874999999999998e+00	 1.000006810769235e+01
0	 9.062500000000000e+00	 9.937499999999998e+00	 9.999909700000069e+00
0	 9.062499999999998e+00	 1.000000000000000e+01	 9.999731538461631e+00
0	 9.124999999999998e+00	 9.375000000000000e+00	 1.000053138461538e+01
0	 9.124999999999998e+00	 9.437499999999998e+00	 1.000053391692306e+01
0	 9.125000000000000e+00	 9.500000000000000e+00	 1.000051918769231e+01
0	 9.125000000000000e+00	 9.562500000000000e+00	 1.000048719692307e+01
0	 9.125000000000000e+00	 9.625000000000000e+00	 1.000043794461539e+01
0	 9.124999999999998e+00	 9.687499999999998e+00	 1.000037143076925e+01
0	 9.125000000000000e+00	 9.749999999999998e+00	 1.000028765538462e+01
0	 9.124999999999996e+00	 9.812499999999996e+00	 1.000018661846155e+01
0	 9.124999999999998e+00	 9.874999999999998e+00	 1.000006831999999e+01
0	 9.125000000000000e+00	 9.937499999999998e+00	 9.999932760000075e+00
0	 9.124999999999998e+00	 9.999999999999998e+00	 9.999779938461600e+00
0	 9.187499999999998e+00	 9.375000000000000e+00	 1.000042238461538e+01
0	 9.187499999999998e+00	 9.437499999999998e+00	 1.000042853692305e+01
0	 9.187499999999998e+00	 9.499999999999998e+00	 1.000041992000000e+01
0	 9.187500000000000e+00	 9.562500000000002e+00	 1.000039653384617e+01
0	 9.187499999999998e+00	 9.624999999999998e+00	 1.000035837846154e+01
0	 9.187499999999998e+00	 9.687500000000000e+00	 1.000030545384617e+01
0	 9.187499999999998e+00	 9.750000000000000e+00	 1.000023775999999e+01
0	 9.187499999999998e+00	 9.812500000000000e+00	 1.000015529692311e+01
0	 9.187499999999998e+00	 9.874999999999998e+00	 1.000005806461534e+01
0	 9.187500000000000e+00	 9.937499999999998e+00	 9.999946063076948e+00
0	 9.187500000000000e+00	 1.000000000000000e+01	 9.999819292307739e+00
0	 9.249999999999998e+00	 9.375000000000000e+00	 1.000029723076924e+01
0	 9.250000000000000e+00	 9.437500000000002e+00	 1.000030771384615e+01
0	 9.250000000000000e+00	 9.500000000000000e+00	 1.000030592000000e+01
0	 9.249999999999998e+00	 9.562500000000002e+00	 1.000029184923077e+01
0	 9.249999999999996e+00	 9.624999999999998e+00	 1.000026550153845e+01
0	 9.250000000000000e+00	 9.687499999999998e+00	 1.000022687692308e+01
0	 9.249999999999998e+00	 9.750000000000000e+00	 1.000017597538464e+01
0	 9.249999999999998e+00	 9.812499999999998e+00	 1.000011279692310e+01
0	 9.249999999999998e+00	 9.874999999999998e+00	 1.000003734153842e+01
0	 9.250000000000000e+00	 9.937499999999998e+00	 9.999949609230768e+00
0	 9.249999999999998e+00	 1.000000000000000e+01	 9.999849600000017e+00
0	 9.312499999999998e+00	 9.375000000000000e+00	 1.000015592307692e+01
0	 9.312499999999998e+00	 9.437500000000000e+00	 1.000017144769231e+01
0	 9.312499999999998e+00	 9.499999999999998e+00	 1.000017718769233e+01
0	 9.312500000000000e+00	 9.562500000000000e+00	 1.000017314307694e+01
0	 9.312500000000000e+00	 9.624999999999998e+00	 1.000015931384619e+01
0	 9.312499999999995e+00	 9.687499999999996e+00	 1.000013569999999e+01
0	 9.312499999999998e+00	 9.749999999999998e+00	 1.000010230153847e+01
0	 9.312499999999998e+00	 9.812499999999998e+00	 1.000005911846155e+01
0	 9.312499999999996e+00	 9.874999999999996e+00	 1.000000615076929e+01
0	 9.312499999999998e+00	 9.937499999999998e+00	 9.999943398461518e+00
0	 9.312499999999998e+00	 1.000000000000000e+01	 9.999870861538483e+00
0	 9.375000000000000e+00	 9.375000000000000e+00	 9.999998461538450e+00
0	 9.375000000000000e+00	 9.437499999999998e+00	 1.000001973846151e+01
0	 9.374999999999998e+00	 9.500000000000000e+00	 1.000003372307691e+01
0	 9.374999999999998e+00	 9.562500000000000e+00	 1.000004041538462e+01
0	 9.375000000000002e+00	 9.625000000000000e+00	 1.000003981538463e+01
0	 9.375000000000000e+00	 9.687499999999998e+00	 1.000003192307693e+01
0	 9.375000000000000e+00	 9.749999999999998e+00	 1.000001673846154e+01
0	 9.375000000000000e+00	 9.812500000000000e+00	 9.999994261538514e+00
0	 9.375000000000002e+00	 9.875000000000000e+00	 9.999964492307708e+00
0	 9.375000000000000e+00	 9.937499999999998e+00	 9.999927430769247e+00
0	 9.375000000000000e+00	 1.000000000000000e+01	 9.999883076923107e+00
0	 9.375000000000000e+00	 0.000000000000000e+00	 9.831923384615386e+00
0	 9.375000000000000e+00	 6.250000000000000e-02	 9.832590246153844e+00
0	 9.375000000000000e+00	 1.250000000000000e-01	 9.833229138461530e+00
0	 9.375000000000000e+00	 1.875000000000000e-01	 9.833840061538467e+00
0	 9.375000000000000e+00	 2.500000000000000e-01	 9.834423015384617e+00
0	 9.375000000000000e+00	 3.125000000000000e-01	 9.834977999999998e+00
0	 9.375000000000000e+00	 3.750000000000000e-01	 9.835505015384609e+00
0	 9.375000000000000e+00	 4.374999999999999e-01	 9.836004061538455e+00
0	 9.375000000000000e+00	 5.000000000000000e-01	 9.836475138461541e+00
0	 9.375000000000000e+00	 5.624999999999999e-01	 9.836918246153846e+00
0	 9.375000000000000e+00	 6.250000000000000e-01	 9.837333384615382e+00
0	 9.437500000000002e+00	 0.000000000000000e+00	 9.823629098461538e+00
0	 9.437500000000000e+00	 6.250000000000000e-02	 9.824312465692303e+00
0	 9.437500000000000e+00	 1.250000000000000e-01	 9.824967632923071e+00
0	 9.437500000000000e+00	 1.875000000000000e-01	 9.825594600153849e+00
0	 9.437500000000000e+00	 2.500000000000001e-01	 9.826193367384619e+00
0	 9.437500000000000e+00	 3.125000000000001e-01	 9.826763934615377e+00
0	 9.437500000000000e+00	 3.750000000000000e-01	 9.827306301846146e+00
0	 9.437500000000002e+00	 4.375000000000000e-01	 9.827820469076919e+00
0	 9.437500000000002e+00	 5.000000000000000e-01	 9.828306436307688e+00
0	 9.437500000000002e+00	 5.625000000000000e-01	 9.828764203538459e+00
0	 9.437499999999998e+00	 6.250000000000001e-01	 9.829193770769230e+00
0	 9.500000000000000e+00	 0.000000000000000e+00	 9.814950178461540e+00
0	 9.500000000000004e+00	 6.249999999999999e-02	 9.815652875076932e+00
0	 9.500000000000000e+00	 1.250000000000000e-01	 9.816327140923073e+00
0	 9.500000000000000e+00	 1.875000000000001e-01	 9.816972975999999e+00
0	 9.500000000000000e+00	 2.500000000000001e-01	 9.817590380307692e+00
0	 9.500000000000000e+00	 3.124999999999999e-01	 9.818179353846151e+00
0	 9.500000000000000e+00	 3.750000000000000e-01	 9.818739896615384e+00
0	 9.499999999999998e+00	 4.375000000000000e-01	 9.819272008615382e+00
0	 9.500000000000000e+00	 4.999999999999999e-01	 9.819775689846148e+00
0	 9.500000000000000e+00	 5.625000000000000e-01	 9.820250940307686e+00
0	 9.500000000000000e+00	 6.249999999999999e-01	 9.820697759999998e+00
0	 9.562499999999998e+00	 0.000000000000000e+00	 9.805886624615388e+00
0	 9.562500000000002e+00	 6.250000000000000e-02	 9.806611474307690e+00
0	 9.562500000000000e+00	 1.250000000000000e-01	 9.807307662461540e+00
0	 9.562499999999998e+00	 1.875000000000000e-01	 9.807975189076920e+00
0	 9.562500000000000e+00	 2.500000000000001e-01	 9.808614054153846e+00
0	 9.562500000000000e+00	 3.125000000000000e-01	 9.809224257692309e+00
0	 9.562500000000000e+00	 3.750000000000001e-01	 9.809805799692304e+00
0	 9.562499999999998e+00	 4.374999999999999e-01	 9.810358680153847e+00
0	 9.562500000000002e+00	 5.000000000000000e-01	 9.810882899076921e+00
0	 9.562500000000000e+00	 5.624999999999999e-01	 9.811378456461537e+00
0	 9.562500000000000e+00	 6.249999999999999e-01	 9.811845352307685e+00
0	 9.625000000000000e+00	 0.000000000000000e+00	 9.796438436923076e+00
0	 9.624999999999998e+00	 6.250000000000000e-02	 9.797188263384621e+00
0	 9.625000000000002e+00	 1.250000000000000e-01	 9.797909197538459e+00
0	 9.624999999999998e+00	 1.875000000000000e-01	 9.798601239384618e+00
0	 9.624999999999998e+00	 2.500000000000001e-01	 9.799264388923083e+00
0	 9.625000000000000e+00	 3.125000000000001e-01	 9.799898646153848e+00
0	 9.625000000000000e+00	 3.749999999999999e-01	 9.800504011076917e+00
0	 9.624999999999998e+00	 4.374999999999999e-01	 9.801080483692317e+00
0	 9.625000000000002e+00	 4.999999999999999e-01	 9.801628063999992e+00
0	 9.625000000000000e+00	 5.624999999999999e-01	 9.802146752000008e+00
0	 9.624999999999998e+00	 6.250000000000001e-01	 9.802636547692305e+00
0	 9.687500000000000e+00	 0.000000000000000e+00	 9.786605615384621e+00
0	 9.687499999999996e+00	 6.249999999999999e-02	 9.787383242307701e+00
0	 9.687499999999998e+00	 1.250000000000000e-01	 9.788131746153844e+00
0	 9.687499999999998e+00	 1.875000000000000e-01	 9.788851126923079e+00
0	 9.687500000000000e+00	 2.500000000000001e-01	 9.789541384615381e+00
0	 9.687500000000000e+00	 3.125000000000000e-01	 9.790202519230768e+00
0	 9.687500000000002e+00	 3.750000000000001e-01	 9.790834530769237e+00
0	 9.687499999999998e+00	 4.374999999999999e-01	 9.791437419230773e+00
0	 9.687499999999998e+00	 4.999999999999999e-01	 9.792011184615385e+00
0	 9.687500000000000e+00	 5.625000000000000e-01	 9.792555826923081e+00
0	 9.687499999999998e+00	 6.250000000000000e-01	 9.793071346153841e+00
0	 9.749999999999998e+00	 0.000000000000000e+00	 9.776388160000002e+00
0	 9.749999999999996e+00	 6.249999999999999e-02	 9.777196411076917e+00
0	 9.749999999999998e+00	 1.250000000000000e-01	 9.777975308307681e+00
0	 9.749999999999996e+00	 1.875000000000000e-01	 9.778724851692306e+00
0	 9.749999999999998e+00	 2.500000000000000e-01	 9.779445041230758e+00
0	 9.749999999999998e+00	 3.125000000000000e-01	 9.780135876923076e+00
0	 9.750000000000000e+00	 3.750000000000000e-01	 9.780797358769226e+00
0	 9.750000000000000e+00	 4.375000000000001e-01	 9.781429486769238e+00
0	 9.750000000000000e+00	 5.000000000000000e-01	 9.782032260923078e+00
0	 9.749999999999998e+00	 5.625000000000000e-01	 9.782605681230770e+00
0	 9.749999999999998e+00	 6.250000000000000e-01	 9.783149747692308e+00
0	 9.812499999999998e+00	 0.000000000000000e+00	 9.765786070769233e+00
0	 9.812500000000000e+00	 6.250000000000001e-02	 9.766627769692303e+00
0	 9.812499999999998e+00	 1.250000000000000e-01	 9.767439883999998e+00
0	 9.812499999999996e+00	 1.875000000000000e-01	 9.768222413692296e+00
0	 9.812500000000000e+00	 2.500000000000000e-01	 9.768975358769232e+00
0	 9.812499999999998e+00	 3.124999999999999e-01	 9.769698719230782e+00
0	 9.812499999999998e+00	 3.750000000000000e-01	 9.770392495076923e+00
0	 9.812499999999998e+00	 4.375000000000000e-01	 9.771056686307688e+00
0	 9.812499999999998e+00	 4.999999999999999e-01	 9.771691292923068e+00
0	 9.812499999999998e+00	 5.624999999999999e-01	 9.772296314923079e+00
0	 9.812499999999998e+00	 6.250000000000000e-01	 9.772871752307694e+00
0	 9.874999999999998e+00	 0.000000000000000e+00	 9.754799347692300e+00
0	 9.874999999999998e+00	 6.250000000000000e-02	 9.755677318153843e+00
0	 9.874999999999996e+00	 1.250000000000000e-01	 9.756525473230756e+00
0	 9.875000000000000e+00	 1.875000000000000e-01	 9.757343812923084e+00
0	 9.875000000000000e+00	 2.500000000000000e-01	 9.758132337230769e+00
0	 9.874999999999998e+00	 3.125000000000001e-01	 9.758891046153835e+00
0	 9.875000000000000e+00	 3.750000000000001e-01	 9.759619939692300e+00
0	 9.875000000000000e+00	 4.375000000000001e-01	 9.760319017846156e+00
0	 9.875000000000000e+00	 5.000000000000000e-01	 9.760988280615386e+00
0	 9.874999999999998e+00	 5.624999999999999e-01	 9.761627727999997e+00
0	 9.874999999999996e+00	 6.250000000000000e-01	 9.762237359999986e+00
0	 9.937499999999998e+00	 0.000000000000000e+00	 9.743427990769234e+00
0	 9.937500000000000e+00	 6.250000000000000e-02	 9.744345056461537e+00
0	 9.937499999999996e+00	 1.250000000000000e-01	 9.745232075999983e+00
0	 9.937499999999998e+00	 1.875000000000000e-01	 9.746089049384620e+00
0	 9.937500000000000e+00	 2.500000000000001e-01	 9.746915976615391e+00
0	 9.937499999999998e+00	 3.125000000000000e-01	 9.747712857692305e+00
0	 9.937499999999998e+00	 3.750000000000000e-01	 9.748479692615387e+00
0	 9.937499999999998e+00	 4.375000000000000e-01	 9.749216481384607e+00
0	 9.937499999999996e+00	 4.999999999999999e-01	 9.749923224000009e+00
0	 9.937499999999998e+00	 5.625000000000000e-01	 9.750599920461539e+00
0	 9.937499999999998e+00	 6.250000000000000e-01	 9.751246570769226e+00
0	 1.000000000000000e+01	 0.000000000000000e+00	 9.731672000000001e+00
0	 1.000000000000000e+01	 6.250000000000000e-02	 9.732630984615382e+00
0	 1.000000000000000e+01	 1.250000000000000e-01	 9.733559692307706e+00
0	 1.000000000000000e+01	 1.875000000000000e-01	 9.734458123076951e+00
0	 1.000000000000000e+01	 2.500000000000000e-01	 9.735326276923061e+00
0	 1.000000000000000e+01	 3.125000000000000e-01	 9.736164153846151e+00
0	 1.000000000000000e+01	 3.750000000000000e-01	 9.736971753846145e+00
0	 1.000000000000000e+01	 4.375000000000000e-01	 9.737749076923077e+00
0	 1.000000000000000e+01	 5.000000000000000e-01	 9.738496123076915e+00
0	 1.000000000000000e+01	 5.624999999999999e-01	 9.739212892307682e+00
0	 1.000000000000000e+01	 6.250000000000000e-01	 9.739899384615383e+00
0	 9.375000000000000e+00	 6.250000000000000e-01	 9.837333384615382e+00
0	 9.375000000000000e+00	 6.875000000000000e-01	 9.838970969230767e+00
0	 9.375000000000000e+00	 7.500000000000002e-01	 9.840585107692306e+00
0	 9.375000000000002e+00	 8.125000000000002e-01	 9.842175799999994e+00
0	 9.375000000000002e+00	 8.750000000000002e-01	 9.843743046153852e+00
0	 9.375000000000002e+00	 9.375000000000002e-01	 9.845286846153844e+00
0	 9.375000000000000e+00	 1.000000000000000e+00	 9.846807199999997e+00
0	 9.375000000000000e+00	 1.062500000000000e+00	 9.848304107692309e+00
0	 9.375000000000002e+00	 1.125000000000001e+00	 9.849777569230760e+00
0	 9.375000000000000e+00	 1.187500000000000e+00	 9.851227584615380e+00
0	 9.375000000000000e+00	 1.250000000000000e+00	 9.852654153846155e+00
0	 9.437499999999998e+00	 6.250000000000001e-01	 9.829193770769230e+00
0	 9.437500000000000e+00	 6.875000000000000e-01	 9.830879803230774e+00
0	 9.437500000000002e+00	 7.500000000000003e-01	 9.832541687999994e+00
0	 9.437500000000000e+00	 8.125000000000001e-01	 9.834179425076929e+00
0	 9.437500000000002e+00	 8.750000000000002e-01	 9.835793014461537e+00
0	 9.437500000000000e+00	 9.375000000000002e-01	 9.837382456153847e+00
0	 9.437500000000000e+00	 1.000000000000000e+00	 9.838947750153842e+00
0	 9.437500000000002e+00	 1.062500000000001e+00	 9.840488896461533e+00
0	 9.437500000000000e+00	 1.125000000000000e+00	 9.842005895076928e+00
0	 9.437500000000004e+00	 1.187500000000001e+00	 9.843498746000005e+00
0	 9.437499999999998e+00	 1.250000000000000e+00	 9.844967449230770e+00
0	 9.500000000000000e+00	 6.249999999999999e-01	 9.820697759999998e+00
0	 9.500000000000002e+00	 6.875000000000001e-01	 9.822440366769230e+00
0	 9.499999999999998e+00	 7.500000000000001e-01	 9.824158124307688e+00
0	 9.500000000000000e+00	 8.125000000000001e-01	 9.825851032615377e+00
0	 9.499999999999998e+00	 8.750000000000000e-01	 9.827519091692306e+00
0	 9.499999999999996e+00	 9.375000000000004e-01	 9.829162301538462e+00
0	 9.500000000000000e+00	 1.000000000000000e+00	 9.830780662153842e+00
0	 9.500000000000000e+00	 1.062500000000000e+00	 9.832374173538460e+00
0	 9.500000000000000e+00	 1.125000000000000e+00	 9.833942835692314e+00
0	 9.500000000000002e+00	 1.187500000000001e+00	 9.835486648615381e+00
0	 9.500000000000000e+00	 1.250000000000000e+00	 9.837005612307692e+00
0	 9.562500000000000e+00	 6.249999999999999e-01	 9.811845352307685e+00
0	 9.562500000000002e+00	 6.875000000000001e-01	 9.813652659846152e+00
0	 9.562500000000002e+00	 7.500000000000002e-01	 9.815434416615386e+00
0	 9.562500000000000e+00	 8.125000000000003e-01	 9.817190622615383e+00
0	 9.562500000000000e+00	 8.750000000000002e-01	 9.818921277846155e+00
0	 9.562499999999998e+00	 9.375000000000002e-01	 9.820626382307692e+00
0	 9.562500000000000e+00	 1.000000000000001e+00	 9.822305936000003e+00
0	 9.562500000000002e+00	 1.062500000000000e+00	 9.823959938923077e+00
0	 9.562499999999998e+00	 1.125000000000000e+00	 9.825588391076918e+00
0	 9.562500000000000e+00	 1.187500000000001e+00	 9.827191292461542e+00
0	 9.562500000000000e+00	 1.250000000000000e+00	 9.828768643076922e+00
0	 9.624999999999998e+00	 6.250000000000001e-01	 9.802636547692305e+00
0	 9.624999999999998e+00	 6.875000000000000e-01	 9.804516682461539e+00
0	 9.624999999999998e+00	 7.500000000000002e-01	 9.806370564923066e+00
0	 9.625000000000000e+00	 8.125000000000002e-01	 9.808198195076923e+00
0	 9.625000000000002e+00	 8.750000000000001e-01	 9.809999572923079e+00
0	 9.625000000000000e+00	 9.375000000000004e-01	 9.811774698461539e+00
0	 9.624999999999998e+00	 1.000000000000000e+00	 9.813523571692304e+00
0	 9.625000000000000e+00	 1.062500000000000e+00	 9.815246192615385e+00
0	 9.625000000000000e+00	 1.125000000000001e+00	 9.816942561230768e+00
0	 9.624999999999996e+00	 1.187500000000000e+00	 9.818612677538457e+00
0	 9.624999999999998e+00	 1.250000000000000e+00	 9.820256541538464e+00
0	 9.687499999999998e+00	 6.250000000000000e-01	 9.793071346153841e+00
0	 9.687499999999998e+00	 6.875000000000001e-01	 9.795032434615385e+00
0	 9.687499999999998e+00	 7.500000000000002e-01	 9.796966569230769e+00
0	 9.687500000000000e+00	 8.125000000000002e-01	 9.798873749999988e+00
0	 9.687500000000000e+00	 8.750000000000002e-01	 9.800753976923078e+00
0	 9.687499999999998e+00	 9.375000000000002e-01	 9.802607250000007e+00
0	 9.687499999999998e+00	 1.000000000000000e+00	 9.804433569230758e+00
0	 9.687499999999998e+00	 1.062500000000000e+00	 9.806232934615378e+00
0	 9.687499999999998e+00	 1.125000000000000e+00	 9.808005346153848e+00
0	 9.687499999999998e+00	 1.187500000000000e+00	 9.809750803846153e+00
0	 9.687499999999998e+00	 1.250000000000000e+00	 9.811469307692310e+00
0	 9.749999999999998e+00	 6.250000000000000e-01	 9.783149747692308e+00
0	 9.749999999999998e+00	 6.875000000000001e-01	 9.785199916307688e+00
0	 9.749999999999998e+00	 7.500000000000001e-01	 9.787222429538453e+00
0	 9.750000000000000e+00	 8.125000000000002e-01	 9.789217287384620e+00
0	 9.749999999999996e+00	 8.750000000000002e-01	 9.791184489846160e+00
0	 9.749999999999998e+00	 9.375000000000003e-01	 9.793124036923073e+00
0	 9.750000000000000e+00	 1.000000000000000e+00	 9.795035928615388e+00
0	 9.750000000000002e+00	 1.062500000000001e+00	 9.796920164923081e+00
0	 9.750000000000000e+00	 1.125000000000000e+00	 9.798776745846151e+00
0	 9.750000000000000e+00	 1.187500000000000e+00	 9.800605671384609e+00
0	 9.749999999999998e+00	 1.250000000000000e+00	 9.802406941538461e+00
0	 9.812499999999998e+00	 6.250000000000000e-01	 9.772871752307694e+00
0	 9.812500000000000e+00	 6.875000000000002e-01	 9.775019127538469e+00
0	 9.812499999999996e+00	 7.500000000000000e-01	 9.777138145846152e+00
0	 9.812500000000000e+00	 8.125000000000002e-01	 9.779228807230766e+00
0	 9.812499999999998e+00	 8.750000000000002e-01	 9.781291111692308e+00
0	 9.812500000000000e+00	 9.375000000000003e-01	 9.783325059230771e+00
0	 9.812499999999998e+00	 1.000000000000001e+00	 9.785330649846140e+00
0	 9.812499999999998e+00	 1.062500000000000e+00	 9.787307883538455e+00
0	 9.812500000000002e+00	 1.125000000000001e+00	 9.789256760307692e+00
0	 9.812500000000000e+00	 1.187500000000000e+00	 9.791177280153834e+00
0	 9.812499999999998e+00	 1.250000000000000e+00	 9.793069443076918e+00
0	 9.874999999999996e+00	 6.250000000000000e-01	 9.762237359999986e+00
0	 9.875000000000000e+00	 6.875000000000001e-01	 9.764490068307696e+00
0	 9.875000000000000e+00	 7.500000000000001e-01	 9.766713718153849e+00
0	 9.875000000000000e+00	 8.125000000000001e-01	 9.768908309538460e+00
0	 9.874999999999998e+00	 8.750000000000002e-01	 9.771073842461533e+00
0	 9.874999999999998e+00	 9.375000000000002e-01	 9.773210316923070e+00
0	 9.874999999999998e+00	 1.000000000000000e+00	 9.775317732923078e+00
0	 9.875000000000000e+00	 1.062500000000000e+00	 9.777396090461536e+00
0	 9.875000000000000e+00	 1.125000000000001e+00	 9.779445389538466e+00
0	 9.874999999999998e+00	 1.187500000000000e+00	 9.781465630153853e+00
0	 9.874999999999996e+00	 1.250000000000000e+00	 9.783456812307683e+00
0	 9.937499999999998e+00	 6.250000000000000e-01	 9.751246570769226e+00
0	 9.937499999999998e+00	 6.875000000000002e-01	 9.753612738615399e+00
0	 9.937499999999998e+00	 7.500000000000002e-01	 9.755949146461550e+00
0	 9.937500000000000e+00	 8.125000000000003e-01	 9.758255794307688e+00
0	 9.937499999999998e+00	 8.750000000000002e-01	 9.760532682153841e+00
0	 9.937499999999998e+00	 9.375000000000002e-01	 9.762779809999998e+00
0	 9.937499999999998e+00	 1.000000000000000e+00	 9.764997177846160e+00
0	 9.937499999999998e+00	 1.062500000000000e+00	 9.767184785692310e+00
0	 9.937499999999998e+00	 1.125000000000000e+00	 9.769342633538471e+00
0	 9.937499999999998e+00	 1.187500000000000e+00	 9.771470721384624e+00
0	 9.937499999999998e+00	 1.250000000000000e+00	 9.773569049230780e+00
0	 1.000000000000000e+01	 6.250000000000000e-01	 9.739899384615383e+00
0	 1.000000000000000e+01	 6.875000000000000e-01	 9.742387138461535e+00
0	 1.000000000000000e+01	 7.500000000000002e-01	 9.744844430769231e+00
0	 1.000000000000000e+01	 8.125000000000002e-01	 9.747271261538447e+00
0	 1.000000000000000e+01	 8.750000000000002e-01	 9.749667630769229e+00
0	 1.000000000000000e+01	 9.375000000000002e-01	 9.752033538461543e+00
0	 1.000000000000000e+01	 1.000000000000000e+00	 9.754368984615379e+00
0	 1.000000000000000e+01	 1.062500000000000e+00	 9.756673969230775e+00
0	 1.000000000000000e+01	 1.125000000000000e+00	 9.758948492307706e+00
0	 1.000000000000000e+01	 1.187500000000000e+00	 9.761192553846161e+00
0	 1.000000000000000e+01	 1.250000000000000e+00	 9.763406153846159e+00
0	 9.375000000000000e+00	 1.250000000000000e+00	 9.852654153846155e+00
0	 9.375000000000000e+00	 1.312500000000000e+00	 9.855024092307687e+00
0	 9.375000000000000e+00	 1.375000000000000e+00	 9.857378892307697e+00
0	 9.375000000000002e+00	 1.437500000000000e+00	 9.859718553846154e+00
0	 9.375000000000002e+00	 1.500000000000000e+00	 9.862043076923074e+00
0	 9.375000000000002e+00	 1.562500000000000e+00	 9.864352461538459e+00
0	 9.375000000000000e+00	 1.625000000000000e+00	 9.866646707692309e+00
0	 9.375000000000000e+00	 1.687500000000000e+00	 9.868925815384616e+00
0	 9.375000000000002e+00	 1.750000000000001e+00	 9.871189784615375e+00
0	 9.375000000000000e+00	 1.812500000000000e+00	 9.873438615384609e+00
0	 9.375000000000000e+00	 1.875000000000000e+00	 9.875672307692309e+00
0	 9.437499999999998e+00	 1.250000000000000e+00	 9.844967449230770e+00
0	 9.437500000000000e+00	 1.312500000000000e+00	 9.847410648923077e+00
0	 9.437500000000002e+00	 1.375000000000000e+00	 9.849838211692301e+00
0	 9.437500000000000e+00	 1.437500000000000e+00	 9.852250137538466e+00
0	 9.437500000000002e+00	 1.500000000000000e+00	 9.854646426461546e+00
0	 9.437500000000000e+00	 1.562500000000000e+00	 9.857027078461536e+00
0	 9.437500000000000e+00	 1.625000000000000e+00	 9.859392093538453e+00
0	 9.437500000000002e+00	 1.687500000000001e+00	 9.861741471692302e+00
0	 9.437500000000000e+00	 1.750000000000000e+00	 9.864075212923071e+00
0	 9.437500000000004e+00	 1.812500000000001e+00	 9.866393317230775e+00
0	 9.437499999999998e+00	 1.875000000000000e+00	 9.868695784615376e+00
0	 9.500000000000000e+00	 1.250000000000000e+00	 9.837005612307692e+00
0	 9.500000000000002e+00	 1.312500000000000e+00	 9.839533389538461e+00
0	 9.499999999999998e+00	 1.375000000000000e+00	 9.842045031384611e+00
0	 9.500000000000000e+00	 1.437500000000000e+00	 9.844540537846154e+00
0	 9.499999999999998e+00	 1.500000000000000e+00	 9.847019908923075e+00
0	 9.499999999999996e+00	 1.562500000000000e+00	 9.849483144615380e+00
0	 9.500000000000000e+00	 1.625000000000000e+00	 9.851930244923073e+00
0	 9.500000000000000e+00	 1.687500000000000e+00	 9.854361209846154e+00
0	 9.500000000000000e+00	 1.750000000000001e+00	 9.856776039384618e+00
0	 9.500000000000002e+00	 1.812500000000001e+00	 9.859174733538456e+00
0	 9.500000000000000e+00	 1.875000000000000e+00	 9.861557292307690e+00
0	 9.562500000000000e+00	 1.250000000000000e+00	 9.828768643076922e+00
0	 9.562500000000002e+00	 1.312500000000000e+00	 9.831392314153849e+00
0	 9.562500000000002e+00	 1.375000000000000e+00	 9.833999351384612e+00
0	 9.562500000000000e+00	 1.437500000000000e+00	 9.836589754769227e+00
0	 9.562500000000000e+00	 1.500000000000000e+00	 9.839163524307688e+00
0	 9.562499999999998e+00	 1.562500000000000e+00	 9.841720660000004e+00
0	 9.562500000000000e+00	 1.625000000000001e+00	 9.844261161846150e+00
0	 9.562500000000002e+00	 1.687500000000000e+00	 9.846785029846151e+00
0	 9.562499999999998e+00	 1.750000000000001e+00	 9.849292263999994e+00
0	 9.562500000000000e+00	 1.812500000000001e+00	 9.851782864307689e+00
0	 9.562500000000000e+00	 1.875000000000000e+00	 9.854256830769225e+00
0	 9.624999999999998e+00	 1.250000000000000e+00	 9.820256541538464e+00
0	 9.624999999999998e+00	 1.312500000000000e+00	 9.822987422769227e+00
0	 9.624999999999998e+00	 1.375000000000000e+00	 9.825701171692300e+00
0	 9.625000000000000e+00	 1.437500000000000e+00	 9.828397788307690e+00
0	 9.625000000000002e+00	 1.500000000000000e+00	 9.831077272615380e+00
0	 9.625000000000000e+00	 1.562500000000000e+00	 9.833739624615387e+00
0	 9.624999999999998e+00	 1.625000000000000e+00	 9.836384844307695e+00
0	 9.625000000000000e+00	 1.687500000000000e+00	 9.839012931692313e+00
0	 9.625000000000000e+00	 1.750000000000001e+00	 9.841623886769227e+00
0	 9.624999999999996e+00	 1.812500000000000e+00	 9.844217709538455e+00
0	 9.624999999999998e+00	 1.875000000000000e+00	 9.846794400000000e+00
0	 9.687499999999998e+00	 1.250000000000000e+00	 9.811469307692310e+00
0	 9.687499999999998e+00	 1.312500000000000e+00	 9.814318715384614e+00
0	 9.687499999999998e+00	 1.375000000000000e+00	 9.817150492307698e+00
0	 9.687500000000000e+00	 1.437500000000000e+00	 9.819964638461535e+00
0	 9.687500000000000e+00	 1.500000000000000e+00	 9.822761153846155e+00
0	 9.687499999999998e+00	 1.562500000000000e+00	 9.825540038461526e+00
0	 9.687499999999998e+00	 1.625000000000000e+00	 9.828301292307692e+00
0	 9.687499999999998e+00	 1.687500000000001e+00	 9.831044915384606e+00
0	 9.687499999999998e+00	 1.750000000000000e+00	 9.833770907692308e+00
0	 9.687499999999998e+00	 1.812500000000000e+00	 9.836479269230770e+00
0	 9.687499999999998e+00	 1.875000000000000e+00	 9.839170000000001e+00
0	 9.749999999999998e+00	 1.250000000000000e+00	 9.802406941538461e+00
0	 9.749999999999998e+00	 1.312500000000000e+00	 9.805386192000002e+00
0	 9.749999999999998e+00	 1.375000000000000e+00	 9.808347313230762e+00
0	 9.750000000000000e+00	 1.437500000000000e+00	 9.811290305230784e+00
0	 9.749999999999996e+00	 1.500000000000000e+00	 9.814215168000008e+00
0	 9.749999999999998e+00	 1.562500000000000e+00	 9.817121901538453e+00
0	 9.750000000000000e+00	 1.625000000000000e+00	 9.820010505846151e+00
0	 9.750000000000002e+00	 1.687500000000001e+00	 9.822880980923070e+00
0	 9.750000000000000e+00	 1.750000000000000e+00	 9.825733326769223e+00
0	 9.750000000000000e+00	 1.812500000000001e+00	 9.828567543384597e+00
0	 9.749999999999998e+00	 1.875000000000000e+00	 9.831383630769233e+00
0	 9.812499999999998e+00	 1.250000000000000e+00	 9.793069443076918e+00
0	 9.812500000000000e+00	 1.312500000000000e+00	 9.796189852615386e+00
0	 9.812499999999996e+00	 1.375000000000000e+00	 9.799291634461540e+00
0	 9.812500000000000e+00	 1.437500000000001e+00	 9.802374788615383e+00
0	 9.812499999999998e+00	 1.500000000000000e+00	 9.805439315076919e+00
0	 9.812500000000000e+00	 1.562500000000000e+00	 9.808485213846161e+00
0	 9.812499999999998e+00	 1.625000000000000e+00	 9.811512484923073e+00
0	 9.812499999999998e+00	 1.687500000000000e+00	 9.814521128307705e+00
0	 9.812500000000002e+00	 1.750000000000001e+00	 9.817511143999999e+00
0	 9.812500000000000e+00	 1.812500000000000e+00	 9.820482532000003e+00
0	 9.812499999999998e+00	 1.875000000000000e+00	 9.823435292307689e+00
0	 9.874999999999996e+00	 1.250000000000000e+00	 9.783456812307683e+00
0	 9.875000000000000e+00	 1.312500000000000e+00	 9.786729697230761e+00
0	 9.875000000000000e+00	 1.375000000000000e+00	 9.789983456000002e+00
0	 9.875000000000000e+00	 1.437500000000000e+00	 9.793218088615387e+00
0	 9.874999999999998e+00	 1.500000000000000e+00	 9.796433595076921e+00
0	 9.874999999999998e+00	 1.562500000000000e+00	 9.799629975384622e+00
0	 9.874999999999998e+00	 1.625000000000000e+00	 9.802807229538470e+00
0	 9.875000000000000e+00	 1.687500000000000e+00	 9.805965357538460e+00
0	 9.875000000000000e+00	 1.750000000000000e+00	 9.809104359384611e+00
0	 9.874999999999998e+00	 1.812500000000000e+00	 9.812224235076910e+00
0	 9.874999999999996e+00	 1.875000000000000e+00	 9.815324984615383e+00
0	 9.937499999999998e+00	 1.250000000000000e+00	 9.773569049230780e+00
0	 9.937499999999998e+00	 1.312500000000000e+00	 9.777005725846163e+00
0	 9.937499999999998e+00	 1.375000000000000e+00	 9.780422777846162e+00
0	 9.937500000000000e+00	 1.437500000000000e+00	 9.783820205230766e+00
0	 9.937499999999998e+00	 1.500000000000000e+00	 9.787198007999992e+00
0	 9.937499999999998e+00	 1.562500000000000e+00	 9.790556186153838e+00
0	 9.937499999999998e+00	 1.625000000000000e+00	 9.793894739692316e+00
0	 9.937499999999998e+00	 1.687500000000000e+00	 9.797213668615388e+00
0	 9.937499999999998e+00	 1.750000000000000e+00	 9.800512972923089e+00
0	 9.937499999999998e+00	 1.812500000000001e+00	 9.803792652615403e+00
0	 9.937499999999998e+00	 1.875000000000000e+00	 9.807052707692325e+00
0	 1.000000000000000e+01	 1.250000000000000e+00	 9.763406153846159e+00
0	 1.000000000000000e+01	 1.312500000000000e+00	 9.767017938461535e+00
0	 1.000000000000000e+01	 1.375000000000000e+00	 9.770609599999995e+00
0	 1.000000000000000e+01	 1.437500000000000e+00	 9.774181138461538e+00
0	 1.000000000000000e+01	 1.500000000000000e+00	 9.777732553846157e+00
0	 1.000000000000000e+01	 1.562500000000000e+00	 9.781263846153861e+00
0	 1.000000000000000e+01	 1.625000000000000e+00	 9.784775015384616e+00
0	 1.000000000000000e+01	 1.687500000000000e+00	 9.788266061538467e+00
0	 1.000000000000000e+01	 1.750000000000000e+00	 9.791736984615399e+00
0	 1.000000000000000e+01	 1.812500000000000e+00	 9.795187784615390e+00
0	 1.000000000000000e+01	 1.875000000000000e+00	 9.798618461538467e+00
0	 9.375000000000000e+00	 1.875000000000000e+00	 9.875672307692309e+00
0	 9.375000000000000e+00	 1.937500000000000e+00	 9.878435707692303e+00
0	 9.375000000000000e+00	 2.000000000000000e+00	 9.881193292307696e+00
0	 9.375000000000002e+00	 2.062500000000000e+00	 9.883945061538457e+00
0	 9.375000000000002e+00	 2.125000000000000e+00	 9.886691015384622e+00
0	 9.375000000000002e+00	 2.187500000000000e+00	 9.889431153846155e+00
0	 9.375000000000000e+00	 2.250000000000000e+00	 9.892165476923076e+00
0	 9.375000000000000e+00	 2.312500000000000e+00	 9.894893984615383e+00
0	 9.375000000000002e+00	 2.375000000000001e+00	 9.897616676923084e+00
0	 9.375000000000000e+00	 2.437500000000001e+00	 9.900333553846147e+00
0	 9.375000000000000e+00	 2.500000000000000e+00	 9.903044615384617e+00
0	 9.437499999999998e+00	 1.875000000000000e+00	 9.868695784615376e+00
0	 9.437500000000000e+00	 1.937500000000000e+00	 9.871549738461548e+00
0	 9.437500000000002e+00	 2.000000000000000e+00	 9.874397572307680e+00
0	 9.437500000000000e+00	 2.062500000000000e+00	 9.877239286153856e+00
0	 9.437500000000002e+00	 2.125000000000000e+00	 9.880074879999999e+00
0	 9.437500000000000e+00	 2.187500000000000e+00	 9.882904353846151e+00
0	 9.437500000000000e+00	 2.250000000000001e+00	 9.885727707692304e+00
0	 9.437500000000002e+00	 2.312500000000001e+00	 9.888544941538461e+00
0	 9.437500000000000e+00	 2.375000000000001e+00	 9.891356055384623e+00
0	 9.437500000000004e+00	 2.437500000000000e+00	 9.894161049230780e+00
0	 9.437499999999998e+00	 2.500000000000000e+00	 9.896959923076929e+00
0	 9.500000000000000e+00	 1.875000000000000e+00	 9.861557292307690e+00
0	 9.500000000000002e+00	 1.937500000000000e+00	 9.864514227692304e+00
0	 9.499999999999998e+00	 2.000000000000000e+00	 9.867464738461534e+00
0	 9.500000000000000e+00	 2.062500000000000e+00	 9.870408824615385e+00
0	 9.499999999999998e+00	 2.125000000000000e+00	 9.873346486153846e+00
0	 9.499999999999996e+00	 2.187500000000000e+00	 9.876277723076925e+00
0	 9.500000000000000e+00	 2.250000000000000e+00	 9.879202535384614e+00
0	 9.500000000000000e+00	 2.312500000000001e+00	 9.882120923076929e+00
0	 9.500000000000000e+00	 2.375000000000001e+00	 9.885032886153851e+00
0	 9.500000000000002e+00	 2.437500000000001e+00	 9.887938424615387e+00
0	 9.500000000000000e+00	 2.500000000000000e+00	 9.890837538461534e+00
0	 9.562500000000000e+00	 1.875000000000000e+00	 9.854256830769225e+00
0	 9.562500000000002e+00	 1.937500000000000e+00	 9.857329175384615e+00
0	 9.562500000000002e+00	 2.000000000000000e+00	 9.860394790769231e+00
0	 9.562500000000000e+00	 2.062500000000000e+00	 9.863453676923067e+00
0	 9.562500000000000e+00	 2.125000000000000e+00	 9.866505833846157e+00
0	 9.562499999999998e+00	 2.187500000000000e+00	 9.869551261538462e+00
0	 9.562500000000000e+00	 2.250000000000000e+00	 9.872589959999999e+00
0	 9.562500000000002e+00	 2.312500000000000e+00	 9.875621929230771e+00
0	 9.562499999999998e+00	 2.375000000000000e+00	 9.878647169230758e+00
0	 9.562500000000000e+00	 2.437500000000000e+00	 9.881665680000005e+00
0	 9.562500000000000e+00	 2.500000000000000e+00	 9.884677461538461e+00
0	 9.624999999999998e+00	 1.875000000000000e+00	 9.846794400000000e+00
0	 9.624999999999998e+00	 1.937500000000000e+00	 9.849994581538470e+00
0	 9.624999999999998e+00	 2.000000000000000e+00	 9.853187729230761e+00
0	 9.625000000000000e+00	 2.062500000000000e+00	 9.856373843076923e+00
0	 9.625000000000002e+00	 2.125000000000000e+00	 9.859552923076924e+00
0	 9.625000000000000e+00	 2.187500000000001e+00	 9.862724969230772e+00
0	 9.624999999999998e+00	 2.250000000000000e+00	 9.865889981538457e+00
0	 9.625000000000000e+00	 2.312500000000000e+00	 9.869047960000000e+00
0	 9.625000000000000e+00	 2.375000000000001e+00	 9.872198904615393e+00
0	 9.624999999999996e+00	 2.437500000000000e+00	 9.875342815384609e+00
0	 9.624999999999998e+00	 2.500000000000000e+00	 9.878479692307700e+00
0	 9.687499999999998e+00	 1.875000000000000e+00	 9.839170000000001e+00
0	 9.687499999999998e+00	 1.937500000000000e+00	 9.842510446153838e+00
0	 9.687499999999998e+00	 2.000000000000000e+00	 9.845843553846153e+00
0	 9.687500000000000e+00	 2.062500000000000e+00	 9.849169323076922e+00
0	 9.687500000000000e+00	 2.125000000000000e+00	 9.852487753846155e+00
0	 9.687499999999998e+00	 2.187500000000000e+00	 9.855798846153855e+00
0	 9.687499999999998e+00	 2.250000000000001e+00	 9.859102600000007e+00
0	 9.687499999999998e+00	 2.312500000000000e+00	 9.862399015384618e+00
0	 9.687499999999998e+00	 2.375000000000000e+00	 9.865688092307687e+00
0	 9.687499999999998e+00	 2.437500000000000e+00	 9.868969830769226e+00
0	 9.687499999999998e+00	 2.500000000000000e+00	 9.872244230769237e+00
0	 9.749999999999998e+00	 1.875000000000000e+00	 9.831383630769233e+00
0	 9.749999999999998e+00	 1.937500000000000e+00	 9.834876769230766e+00
0	 9.749999999999998e+00	 2.000000000000000e+00	 9.838362264615379e+00
0	 9.750000000000000e+00	 2.062500000000000e+00	 9.841840116923084e+00
0	 9.749999999999996e+00	 2.125000000000000e+00	 9.845310326153843e+00
0	 9.749999999999998e+00	 2.187500000000000e+00	 9.848772892307679e+00
0	 9.750000000000000e+00	 2.250000000000000e+00	 9.852227815384619e+00
0	 9.750000000000002e+00	 2.312500000000001e+00	 9.855675095384610e+00
0	 9.750000000000000e+00	 2.375000000000000e+00	 9.859114732307692e+00
0	 9.750000000000000e+00	 2.437500000000000e+00	 9.862546726153845e+00
0	 9.749999999999998e+00	 2.500000000000000e+00	 9.865971076923083e+00
0	 9.812499999999998e+00	 1.875000000000000e+00	 9.823435292307689e+00
0	 9.812500000000000e+00	 1.937500000000000e+00	 9.827093550769240e+00
0	 9.812499999999996e+00	 2.000000000000000e+00	 9.830743861538464e+00
0	 9.812500000000000e+00	 2.062500000000000e+00	 9.834386224615393e+00
0	 9.812499999999998e+00	 2.125000000000000e+00	 9.838020640000005e+00
0	 9.812500000000000e+00	 2.187500000000000e+00	 9.841647107692316e+00
0	 9.812499999999998e+00	 2.250000000000001e+00	 9.845265627692299e+00
0	 9.812499999999998e+00	 2.312500000000000e+00	 9.848876200000010e+00
0	 9.812500000000002e+00	 2.375000000000001e+00	 9.852478824615385e+00
0	 9.812500000000000e+00	 2.437500000000000e+00	 9.856073501538459e+00
0	 9.812499999999998e+00	 2.500000000000000e+00	 9.859660230769229e+00
0	 9.874999999999996e+00	 1.875000000000000e+00	 9.815324984615383e+00
0	 9.875000000000000e+00	 1.937500000000000e+00	 9.819160790769235e+00
0	 9.875000000000000e+00	 2.000000000000000e+00	 9.822988344615389e+00
0	 9.875000000000000e+00	 2.062500000000000e+00	 9.826807646153851e+00
0	 9.874999999999998e+00	 2.125000000000000e+00	 9.830618695384603e+00
0	 9.874999999999998e+00	 2.187500000000000e+00	 9.834421492307705e+00
0	 9.874999999999998e+00	 2.250000000000000e+00	 9.838216036923066e+00
0	 9.875000000000000e+00	 2.312500000000000e+00	 9.842002329230773e+00
0	 9.875000000000000e+00	 2.375000000000001e+00	 9.845780369230770e+00
0	 9.874999999999998e+00	 2.437500000000000e+00	 9.849550156923073e+00
0	 9.874999999999996e+00	 2.500000000000000e+00	 9.853311692307685e+00
0	 9.937499999999998e+00	 1.875000000000000e+00	 9.807052707692325e+00
0	 9.937499999999998e+00	 1.937500000000000e+00	 9.811078489230777e+00
0	 9.937499999999998e+00	 2.000000000000000e+00	 9.815095713846169e+00
0	 9.937500000000000e+00	 2.062500000000000e+00	 9.819104381538459e+00
0	 9.937499999999998e+00	 2.125000000000000e+00	 9.823104492307689e+00
0	 9.937499999999998e+00	 2.187500000000000e+00	 9.827096046153841e+00
0	 9.937499999999998e+00	 2.250000000000000e+00	 9.831079043076929e+00
0	 9.937499999999998e+00	 2.312500000000000e+00	 9.835053483076917e+00
0	 9.937499999999998e+00	 2.375000000000000e+00	 9.839019366153847e+00
0	 9.937499999999998e+00	 2.437500000000001e+00	 9.842976692307706e+00
0	 9.937499999999998e+00	 2.500000000000000e+00	 9.846925461538449e+00
0	 1.000000000000000e+01	 1.875000000000000e+00	 9.798618461538467e+00
0	 1.000000000000000e+01	 1.937500000000000e+00	 9.802846646153851e+00
0	 1.000000000000000e+01	 2.000000000000000e+00	 9.807065969230779e+00
0	 1.000000000000000e+01	 2.062500000000000e+00	 9.811276430769224e+00
0	 1.000000000000000e+01	 2.125000000000000e+00	 9.815478030769222e+00
0	 1.000000000000000e+01	 2.187500000000000e+00	 9.819670769230775e+00
0	 1.000000000000000e+01	 2.250000000000000e+00	 9.823854646153828e+00
0	 1.000000000000000e+01	 2.312500000000000e+00	 9.828029661538466e+00
0	 1.000000000000000e+01	 2.375000000000000e+00	 9.832195815384630e+00
0	 1.000000000000000e+01	 2.437500000000000e+00	 9.836353107692316e+00
0	 1.000000000000000e+01	 2.500000000000000e+00	 9.840501538461540e+00
0	 9.375000000000000e+00	 2.500000000000000e+00	 9.903044615384617e+00
0	 9.375000000000000e+00	 2.562500000000000e+00	 9.905863107692314e+00
0	 9.375000000000002e+00	 2.625000000000000e+00	 9.908684738461542e+00
0	 9.374999999999998e+00	 2.687499999999999e+00	 9.911509507692308e+00
0	 9.375000000000002e+00	 2.750000000000000e+00	 9.914337415384614e+00
0	 9.375000000000000e+00	 2.812499999999999e+00	 9.917168461538457e+00
0	 9.375000000000000e+00	 2.874999999999999e+00	 9.920002646153847e+00
0	 9.375000000000000e+00	 2.937499999999998e+00	 9.922839969230772e+00
0	 9.375000000000000e+00	 2.999999999999998e+00	 9.925680430769225e+00
0	 9.375000000000000e+00	 3.062499999999998e+00	 9.928524030769243e+00
0	 9.375000000000000e+00	 3.125000000000000e+00	 9.931370769230764e+00
0	 9.437499999999998e+00	 2.500000000000000e+00	 9.896959923076929e+00
0	 9.437500000000000e+00	 2.562500000000000e+00	 9.899877295384616e+00
0	 9.437500000000000e+00	 2.625000000000000e+00	 9.902797695384606e+00
0	 9.437500000000002e+00	 2.687500000000000e+00	 9.905721123076917e+00
0	 9.437500000000000e+00	 2.750000000000000e+00	 9.908647578461538e+00
0	 9.437499999999998e+00	 2.812500000000000e+00	 9.911577061538463e+00
0	 9.437500000000000e+00	 2.874999999999998e+00	 9.914509572307693e+00
0	 9.437500000000000e+00	 2.937499999999999e+00	 9.917445110769236e+00
0	 9.437500000000002e+00	 2.999999999999998e+00	 9.920383676923080e+00
0	 9.437500000000000e+00	 3.062499999999998e+00	 9.923325270769224e+00
0	 9.437499999999998e+00	 3.125000000000000e+00	 9.926269892307689e+00
0	 9.500000000000000e+00	 2.500000000000000e+00	 9.890837538461534e+00
0	 9.500000000000002e+00	 2.562500000000000e+00	 9.893865076923085e+00
0	 9.500000000000000e+00	 2.625000000000000e+00	 9.896895532307690e+00
0	 9.499999999999998e+00	 2.687500000000000e+00	 9.899928904615386e+00
0	 9.500000000000000e+00	 2.750000000000000e+00	 9.902965193846153e+00
0	 9.499999999999998e+00	 2.812499999999998e+00	 9.906004399999997e+00
0	 9.500000000000000e+00	 2.874999999999999e+00	 9.909046523076924e+00
0	 9.500000000000000e+00	 2.937499999999999e+00	 9.912091563076926e+00
0	 9.500000000000002e+00	 2.999999999999998e+00	 9.915139520000000e+00
0	 9.500000000000000e+00	 3.062499999999998e+00	 9.918190393846162e+00
0	 9.500000000000000e+00	 3.125000000000000e+00	 9.921244184615386e+00
0	 9.562500000000000e+00	 2.500000000000000e+00	 9.884677461538461e+00
0	 9.562500000000000e+00	 2.562500000000000e+00	 9.887826452307694e+00
0	 9.562500000000000e+00	 2.625000000000000e+00	 9.890978249230770e+00
0	 9.562499999999998e+00	 2.687500000000000e+00	 9.894132852307692e+00
0	 9.562500000000002e+00	 2.750000000000000e+00	 9.897290261538469e+00
0	 9.562500000000002e+00	 2.812499999999999e+00	 9.900450476923066e+00
0	 9.562500000000000e+00	 2.874999999999999e+00	 9.903613498461537e+00
0	 9.562500000000000e+00	 2.937499999999998e+00	 9.906779326153849e+00
0	 9.562500000000002e+00	 2.999999999999998e+00	 9.909947960000004e+00
0	 9.562499999999998e+00	 3.062499999999998e+00	 9.913119399999992e+00
0	 9.562500000000000e+00	 3.125000000000000e+00	 9.916293646153848e+00
0	 9.624999999999998e+00	 2.500000000000000e+00	 9.878479692307700e+00
0	 9.624999999999998e+00	 2.562500000000000e+00	 9.881761421538458e+00
0	 9.625000000000000e+00	 2.625000000000000e+00	 9.885045846153847e+00
0	 9.625000000000000e+00	 2.687500000000000e+00	 9.888332966153852e+00
0	 9.624999999999996e+00	 2.749999999999999e+00	 9.891622781538461e+00
0	 9.624999999999998e+00	 2.812500000000000e+00	 9.894915292307690e+00
0	 9.625000000000000e+00	 2.874999999999999e+00	 9.898210498461538e+00
0	 9.625000000000000e+00	 2.937499999999999e+00	 9.901508400000004e+00
0	 9.625000000000000e+00	 2.999999999999999e+00	 9.904808996923077e+00
0	 9.625000000000000e+00	 3.062499999999998e+00	 9.908112289230766e+00
0	 9.624999999999998e+00	 3.125000000000000e+00	 9.911418276923079e+00
0	 9.687499999999998e+00	 2.500000000000000e+00	 9.872244230769237e+00
0	 9.687500000000000e+00	 2.562500000000000e+00	 9.875669984615381e+00
0	 9.687499999999998e+00	 2.625000000000000e+00	 9.879098323076933e+00
0	 9.687500000000000e+00	 2.687500000000000e+00	 9.882529246153855e+00
0	 9.687499999999998e+00	 2.749999999999999e+00	 9.885962753846155e+00
0	 9.687500000000000e+00	 2.812499999999999e+00	 9.889398846153846e+00
0	 9.687500000000000e+00	 2.874999999999999e+00	 9.892837523076910e+00
0	 9.687499999999998e+00	 2.937499999999998e+00	 9.896278784615383e+00
0	 9.687499999999998e+00	 2.999999999999998e+00	 9.899722630769237e+00
0	 9.687499999999998e+00	 3.062499999999998e+00	 9.903169061538462e+00
0	 9.687499999999998e+00	 3.125000000000000e+00	 9.906618076923078e+00
0	 9.749999999999998e+00	 2.500000000000000e+00	 9.865971076923083e+00
0	 9.749999999999996e+00	 2.562500000000000e+00	 9.869552141538465e+00
0	 9.749999999999998e+00	 2.624999999999999e+00	 9.873135679999992e+00
0	 9.749999999999996e+00	 2.687499999999999e+00	 9.876721692307681e+00
0	 9.750000000000000e+00	 2.749999999999999e+00	 9.880310178461535e+00
0	 9.749999999999998e+00	 2.812499999999999e+00	 9.883901138461543e+00
0	 9.749999999999998e+00	 2.874999999999999e+00	 9.887494572307700e+00
0	 9.749999999999998e+00	 2.937499999999998e+00	 9.891090480000006e+00
0	 9.749999999999998e+00	 2.999999999999998e+00	 9.894688861538453e+00
0	 9.749999999999996e+00	 3.062499999999998e+00	 9.898289716923081e+00
0	 9.749999999999998e+00	 3.125000000000000e+00	 9.901893046153852e+00
0	 9.812499999999998e+00	 2.500000000000000e+00	 9.859660230769229e+00
0	 9.812499999999998e+00	 2.562500000000000e+00	 9.863407892307698e+00
0	 9.812500000000002e+00	 2.625000000000000e+00	 9.867157916923087e+00
0	 9.812499999999998e+00	 2.687500000000000e+00	 9.870910304615387e+00
0	 9.812499999999996e+00	 2.749999999999999e+00	 9.874665055384623e+00
0	 9.812499999999998e+00	 2.812499999999999e+00	 9.878422169230777e+00
0	 9.812499999999998e+00	 2.874999999999998e+00	 9.882181646153848e+00
0	 9.812499999999998e+00	 2.937499999999998e+00	 9.885943486153852e+00
0	 9.812499999999998e+00	 2.999999999999998e+00	 9.889707689230773e+00
0	 9.812499999999998e+00	 3.062499999999998e+00	 9.893474255384616e+00
0	 9.812499999999998e+00	 3.125000000000000e+00	 9.897243184615386e+00
0	 9.874999999999996e+00	 2.500000000000000e+00	 9.853311692307685e+00
0	 9.874999999999998e+00	 2.562500000000000e+00	 9.857237236923071e+00
0	 9.875000000000000e+00	 2.625000000000000e+00	 9.861165033846152e+00
0	 9.874999999999998e+00	 2.687499999999999e+00	 9.865095083076927e+00
0	 9.875000000000000e+00	 2.749999999999999e+00	 9.869027384615402e+00
0	 9.874999999999996e+00	 2.812499999999998e+00	 9.872961938461547e+00
0	 9.874999999999998e+00	 2.874999999999999e+00	 9.876898744615382e+00
0	 9.874999999999998e+00	 2.937499999999998e+00	 9.880837803076933e+00
0	 9.874999999999996e+00	 2.999999999999998e+00	 9.884779113846157e+00
0	 9.874999999999998e+00	 3.062499999999998e+00	 9.888722676923067e+00
0	 9.874999999999996e+00	 3.125000000000000e+00	 9.892668492307685e+00
0	 9.937499999999998e+00	 2.500000000000000e+00	 9.846925461538449e+00
0	 9.937499999999998e+00	 2.562500000000000e+00	 9.851040175384620e+00
0	 9.937499999999998e+00	 2.625000000000000e+00	 9.855157030769220e+00
0	 9.937499999999998e+00	 2.687499999999999e+00	 9.859276027692312e+00
0	 9.937499999999998e+00	 2.750000000000000e+00	 9.863397166153844e+00
0	 9.937499999999996e+00	 2.812499999999999e+00	 9.867520446153838e+00
0	 9.937499999999998e+00	 2.874999999999999e+00	 9.871645867692298e+00
0	 9.937499999999998e+00	 2.937499999999998e+00	 9.875773430769234e+00
0	 9.937499999999998e+00	 2.999999999999998e+00	 9.879903135384625e+00
0	 9.937499999999998e+00	 3.062499999999998e+00	 9.884034981538456e+00
0	 9.937499999999998e+00	 3.125000000000000e+00	 9.888168969230769e+00
0	 1.000000000000000e+01	 2.500000000000000e+00	 9.840501538461540e+00
0	 1.000000000000000e+01	 2.562500000000000e+00	 9.844816707692315e+00
0	 1.000000000000000e+01	 2.625000000000000e+00	 9.849133907692323e+00
0	 1.000000000000000e+01	 2.687499999999999e+00	 9.853453138461552e+00
0	 1.000000000000000e+01	 2.750000000000000e+00	 9.857774399999993e+00
0	 1.000000000000000e+01	 2.812499999999999e+00	 9.862097692307694e+00
0	 9.999999999999998e+00	 2.874999999999999e+00	 9.866423015384623e+00
0	 1.000000000000000e+01	 2.937499999999999e+00	 9.870750369230771e+00
0	 1.000000000000000e+01	 2.999999999999998e+00	 9.875079753846162e+00
0	 1.000000000000000e+01	 3.062499999999998e+00	 9.879411169230780e+00
0	 1.000000000000000e+01	 3.125000000000000e+00	 9.883744615384618e+00
0	 9.375000000000000e+00	 3.125000000000000e+00	 9.931370769230764e+00
0	 9.375000000000000e+00	 3.187500000000000e+00	 9.933932492307681e+00
0	 9.375000000000002e+00	 3.250000000000000e+00	 9.936504738461529e+00
0	 9.374999999999998e+00	 3.312499999999999e+00	 9.939087507692321e+00
0	 9.375000000000002e+00	 3.374999999999999e+00	 9.941680799999997e+00
0	 9.375000000000000e+00	 3.437499999999999e+00	 9.944284615384603e+00
0	 9.375000000000000e+00	 3.499999999999999e+00	 9.946898953846146e+00
0	 9.375000000000000e+00	 3.562499999999998e+00	 9.949523815384612e+00
0	 9.375000000000000e+00	 3.624999999999999e+00	 9.952159200000004e+00
0	 9.375000000000000e+00	 3.687499999999998e+00	 9.954805107692300e+00
0	 9.375000000000000e+00	 3.750000000000000e+00	 9.957461538461533e+00
0	 9.437499999999998e+00	 3.125000000000000e+00	 9.926269892307689e+00
0	 9.437500000000000e+00	 3.187500000000000e+00	 9.928930321538465e+00
0	 9.437500000000000e+00	 3.249999999999999e+00	 9.931601329230773e+00
0	 9.437500000000002e+00	 3.312500000000000e+00	 9.934282915384614e+00
0	 9.437500000000000e+00	 3.375000000000000e+00	 9.936975080000000e+00
0	 9.437499999999998e+00	 3.437499999999998e+00	 9.939677823076924e+00
0	 9.437500000000000e+00	 3.499999999999998e+00	 9.942391144615391e+00
0	 9.437500000000000e+00	 3.562499999999998e+00	 9.945115044615386e+00
0	 9.437500000000002e+00	 3.624999999999999e+00	 9.947849523076927e+00
0	 9.437500000000000e+00	 3.687499999999998e+00	 9.950594579999994e+00
0	 9.437499999999998e+00	 3.750000000000000e+00	 9.953350215384608e+00
0	 9.500000000000000e+00	 3.125000000000000e+00	 9.921244184615386e+00
0	 9.500000000000002e+00	 3.187499999999999e+00	 9.924011569230766e+00
0	 9.500000000000000e+00	 3.250000000000000e+00	 9.926789587692307e+00
0	 9.499999999999998e+00	 3.312500000000000e+00	 9.929578240000001e+00
0	 9.500000000000000e+00	 3.374999999999999e+00	 9.932377526153839e+00
0	 9.499999999999998e+00	 3.437499999999999e+00	 9.935187446153847e+00
0	 9.500000000000000e+00	 3.499999999999999e+00	 9.938008000000002e+00
0	 9.500000000000000e+00	 3.562499999999998e+00	 9.940839187692310e+00
0	 9.500000000000002e+00	 3.624999999999998e+00	 9.943681009230765e+00
0	 9.500000000000000e+00	 3.687499999999998e+00	 9.946533464615365e+00
0	 9.500000000000000e+00	 3.750000000000000e+00	 9.949396553846144e+00
0	 9.562500000000000e+00	 3.125000000000000e+00	 9.916293646153848e+00
0	 9.562500000000000e+00	 3.187500000000000e+00	 9.919176235384620e+00
0	 9.562500000000000e+00	 3.249999999999999e+00	 9.922069513846157e+00
0	 9.562499999999998e+00	 3.312499999999999e+00	 9.924973481538458e+00
0	 9.562500000000002e+00	 3.375000000000000e+00	 9.927888138461539e+00
0	 9.562500000000002e+00	 3.437499999999999e+00	 9.930813484615385e+00
0	 9.562500000000000e+00	 3.499999999999999e+00	 9.933749519999992e+00
0	 9.562500000000000e+00	 3.562499999999999e+00	 9.936696244615383e+00
0	 9.562500000000002e+00	 3.624999999999998e+00	 9.939653658461532e+00
0	 9.562499999999998e+00	 3.687499999999998e+00	 9.942621761538465e+00
0	 9.562500000000000e+00	 3.750000000000000e+00	 9.945600553846141e+00
0	 9.624999999999998e+00	 3.125000000000000e+00	 9.911418276923079e+00
0	 9.624999999999998e+00	 3.187500000000000e+00	 9.914424319999997e+00
0	 9.625000000000000e+00	 3.250000000000000e+00	 9.917441107692303e+00
0	 9.625000000000000e+00	 3.312500000000000e+00	 9.920468640000005e+00
0	 9.624999999999996e+00	 3.374999999999999e+00	 9.923506916923074e+00
0	 9.624999999999998e+00	 3.437499999999999e+00	 9.926555938461538e+00
0	 9.625000000000000e+00	 3.499999999999999e+00	 9.929615704615383e+00
0	 9.625000000000000e+00	 3.562499999999999e+00	 9.932686215384608e+00
0	 9.625000000000000e+00	 3.624999999999999e+00	 9.935767470769234e+00
0	 9.625000000000000e+00	 3.687499999999998e+00	 9.938859470769220e+00
0	 9.624999999999998e+00	 3.750000000000000e+00	 9.941962215384605e+00
0	 9.687499999999998e+00	 3.125000000000000e+00	 9.906618076923078e+00
0	 9.687500000000000e+00	 3.187500000000000e+00	 9.909755823076932e+00
0	 9.687499999999998e+00	 3.250000000000000e+00	 9.912904369230770e+00
0	 9.687500000000000e+00	 3.312500000000000e+00	 9.916063715384615e+00
0	 9.687499999999998e+00	 3.374999999999998e+00	 9.919233861538457e+00
0	 9.687500000000000e+00	 3.437499999999999e+00	 9.922414807692297e+00
0	 9.687500000000000e+00	 3.499999999999999e+00	 9.925606553846157e+00
0	 9.687499999999998e+00	 3.562499999999998e+00	 9.928809099999992e+00
0	 9.687499999999998e+00	 3.624999999999998e+00	 9.932022446153848e+00
0	 9.687499999999998e+00	 3.687499999999997e+00	 9.935246592307685e+00
0	 9.687499999999998e+00	 3.750000000000000e+00	 9.938481538461545e+00
0	 9.749999999999998e+00	 3.125000000000000e+00	 9.901893046153852e+00
0	 9.749999999999996e+00	 3.187500000000000e+00	 9.905170744615393e+00
0	 9.749999999999998e+00	 3.249999999999999e+00	 9.908459298461535e+00
0	 9.749999999999996e+00	 3.312499999999999e+00	 9.911758707692311e+00
0	 9.750000000000000e+00	 3.374999999999999e+00	 9.915068972307690e+00
0	 9.749999999999998e+00	 3.437499999999999e+00	 9.918390092307687e+00
0	 9.749999999999998e+00	 3.499999999999999e+00	 9.921722067692308e+00
0	 9.749999999999998e+00	 3.562499999999999e+00	 9.925064898461542e+00
0	 9.749999999999998e+00	 3.624999999999998e+00	 9.928418584615379e+00
0	 9.749999999999996e+00	 3.687499999999997e+00	 9.931783126153844e+00
0	 9.749999999999998e+00	 3.750000000000000e+00	 9.935158523076918e+00
0	 9.812499999999998e+00	 3.125000000000000e+00	 9.897243184615386e+00
0	 9.812499999999998e+00	 3.187500000000000e+00	 9.900669084615398e+00
0	 9.812500000000002e+00	 3.250000000000000e+00	 9.904105895384617e+00
0	 9.812499999999998e+00	 3.312500000000000e+00	 9.907553616923085e+00
0	 9.812499999999996e+00	 3.374999999999999e+00	 9.911012249230765e+00
0	 9.812499999999998e+00	 3.437499999999999e+00	 9.914481792307701e+00
0	 9.812499999999998e+00	 3.499999999999999e+00	 9.917962246153849e+00
0	 9.812499999999998e+00	 3.562499999999998e+00	 9.921453610769234e+00
0	 9.812499999999998e+00	 3.624999999999997e+00	 9.924955886153851e+00
0	 9.812499999999998e+00	 3.687499999999998e+00	 9.928469072307690e+00
0	 9.812499999999998e+00	 3.750000000000000e+00	 9.931993169230777e+00
0	 9.874999999999996e+00	 3.125000000000000e+00	 9.892668492307685e+00
0	 9.874999999999998e+00	 3.187500000000000e+00	 9.896250843076922e+00
0	 9.875000000000000e+00	 3.250000000000000e+00	 9.899844160000002e+00
0	 9.874999999999998e+00	 3.312499999999999e+00	 9.903448443076922e+00
0	 9.875000000000000e+00	 3.375000000000000e+00	 9.907063692307709e+00
0	 9.874999999999996e+00	 3.437499999999998e+00	 9.910689907692314e+00
0	 9.874999999999998e+00	 3.499999999999999e+00	 9.914327089230769e+00
0	 9.874999999999998e+00	 3.562499999999998e+00	 9.917975236923082e+00
0	 9.874999999999996e+00	 3.624999999999998e+00	 9.921634350769217e+00
0	 9.874999999999998e+00	 3.687499999999997e+00	 9.925304430769222e+00
0	 9.874999999999996e+00	 3.750000000000000e+00	 9.928985476923069e+00
0	 9.937499999999998e+00	 3.125000000000000e+00	 9.888168969230769e+00
0	 9.937499999999998e+00	 3.187500000000000e+00	 9.891916019999993e+00
0	 9.937499999999998e+00	 3.250000000000000e+00	 9.895674092307683e+00
0	 9.937499999999998e+00	 3.312499999999999e+00	 9.899443186153839e+00
0	 9.937499999999998e+00	 3.375000000000000e+00	 9.903223301538462e+00
0	 9.937499999999996e+00	 3.437499999999999e+00	 9.907014438461541e+00
0	 9.937499999999998e+00	 3.499999999999999e+00	 9.910816596923064e+00
0	 9.937499999999998e+00	 3.562499999999999e+00	 9.914629776923082e+00
0	 9.937499999999998e+00	 3.624999999999998e+00	 9.918453978461537e+00
0	 9.937499999999998e+00	 3.687499999999998e+00	 9.922289201538467e+00
0	 9.937499999999998e+00	 3.750000000000000e+00	 9.926135446153850e+00
0	 1.000000000000000e+01	 3.125000000000000e+00	 9.883744615384618e+00
0	 1.000000000000000e+01	 3.187500000000000e+00	 9.887664615384596e+00
0	 1.000000000000000e+01	 3.250000000000000e+00	 9.891595692307702e+00
0	 1.000000000000000e+01	 3.312499999999999e+00	 9.895537846153866e+00
0	 1.000000000000000e+01	 3.374999999999999e+00	 9.899491076923084e+00
0	 1.000000000000000e+01	 3.437499999999999e+00	 9.903455384615384e+00
0	 9.999999999999998e+00	 3.499999999999999e+00	 9.907430769230757e+00
0	 1.000000000000000e+01	 3.562499999999999e+00	 9.911417230769239e+00
0	 1.000000000000000e+01	 3.624999999999998e+00	 9.915414769230773e+00
0	 1.000000000000000e+01	 3.687499999999998e+00	 9.919423384615365e+00
0	 1.000000000000000e+01	 3.750000000000000e+00	 9.923443076923075e+00
0	 9.375000000000000e+00	 3.750000000000000e+00	 9.957461538461533e+00
0	 9.375000000000000e+00	 3.812500000000000e+00	 9.959554323076921e+00
0	 9.375000000000002e+00	 3.875000000000000e+00	 9.961661600000001e+00
0	 9.374999999999998e+00	 3.937499999999999e+00	 9.963783369230763e+00
0	 9.375000000000002e+00	 4.000000000000000e+00	 9.965919630769223e+00
0	 9.375000000000000e+00	 4.062499999999999e+00	 9.968070384615388e+00
0	 9.375000000000000e+00	 4.124999999999999e+00	 9.970235630769221e+00
0	 9.375000000000000e+00	 4.187499999999998e+00	 9.972415369230770e+00
0	 9.375000000000000e+00	 4.249999999999998e+00	 9.974609599999996e+00
0	 9.375000000000000e+00	 4.312499999999998e+00	 9.976818323076925e+00
0	 9.375000000000000e+00	 4.375000000000000e+00	 9.979041538461532e+00
0	 9.437499999999998e+00	 3.750000000000000e+00	 9.953350215384608e+00
0	 9.437500000000000e+00	 3.812500000000000e+00	 9.955532170769228e+00
0	 9.437500000000000e+00	 3.874999999999999e+00	 9.957728849230758e+00
0	 9.437500000000002e+00	 3.937499999999999e+00	 9.959940250769215e+00
0	 9.437500000000000e+00	 4.000000000000000e+00	 9.962166375384610e+00
0	 9.437499999999998e+00	 4.062499999999998e+00	 9.964407223076915e+00
0	 9.437500000000000e+00	 4.124999999999999e+00	 9.966662793846151e+00
0	 9.437500000000000e+00	 4.187499999999999e+00	 9.968933087692305e+00
0	 9.437500000000002e+00	 4.249999999999999e+00	 9.971218104615380e+00
0	 9.437500000000000e+00	 4.312499999999998e+00	 9.973517844615383e+00
0	 9.437499999999998e+00	 4.375000000000000e+00	 9.975832307692308e+00
0	 9.500000000000000e+00	 3.750000000000000e+00	 9.949396553846144e+00
0	 9.500000000000002e+00	 3.812500000000000e+00	 9.951672375384620e+00
0	 9.500000000000000e+00	 3.875000000000000e+00	 9.953963150769233e+00
0	 9.499999999999998e+00	 3.937499999999999e+00	 9.956268879999996e+00
0	 9.500000000000000e+00	 3.999999999999999e+00	 9.958589563076924e+00
0	 9.499999999999998e+00	 4.062499999999999e+00	 9.960925199999998e+00
0	 9.500000000000000e+00	 4.125000000000000e+00	 9.963275790769234e+00
0	 9.500000000000000e+00	 4.187499999999997e+00	 9.965641335384607e+00
0	 9.500000000000002e+00	 4.249999999999997e+00	 9.968021833846153e+00
0	 9.500000000000000e+00	 4.312499999999998e+00	 9.970417286153827e+00
0	 9.500000000000000e+00	 4.375000000000000e+00	 9.972827692307696e+00
0	 9.562500000000000e+00	 3.750000000000000e+00	 9.945600553846141e+00
0	 9.562500000000000e+00	 3.812500000000000e+00	 9.947974936923075e+00
0	 9.562500000000000e+00	 3.875000000000000e+00	 9.950364504615374e+00
0	 9.562499999999998e+00	 3.937499999999998e+00	 9.952769256923064e+00
0	 9.562500000000002e+00	 4.000000000000000e+00	 9.955189193846145e+00
0	 9.562500000000002e+00	 4.062499999999999e+00	 9.957624315384612e+00
0	 9.562500000000000e+00	 4.124999999999999e+00	 9.960074621538457e+00
0	 9.562500000000000e+00	 4.187499999999999e+00	 9.962540112307689e+00
0	 9.562500000000002e+00	 4.249999999999998e+00	 9.965020787692307e+00
0	 9.562499999999998e+00	 4.312499999999998e+00	 9.967516647692305e+00
0	 9.562500000000000e+00	 4.374999999999999e+00	 9.970027692307681e+00
0	 9.624999999999998e+00	 3.750000000000000e+00	 9.941962215384605e+00
0	 9.624999999999998e+00	 3.812499999999999e+00	 9.944439855384614e+00
0	 9.625000000000000e+00	 3.875000000000000e+00	 9.946932910769226e+00
0	 9.625000000000000e+00	 3.937500000000000e+00	 9.949441381538458e+00
0	 9.624999999999996e+00	 3.999999999999999e+00	 9.951965267692296e+00
0	 9.624999999999998e+00	 4.062499999999999e+00	 9.954504569230762e+00
0	 9.625000000000000e+00	 4.124999999999999e+00	 9.957059286153845e+00
0	 9.625000000000000e+00	 4.187499999999998e+00	 9.959629418461537e+00
0	 9.625000000000000e+00	 4.249999999999998e+00	 9.962214966153841e+00
0	 9.625000000000000e+00	 4.312499999999998e+00	 9.964815929230774e+00
0	 9.624999999999998e+00	 4.375000000000001e+00	 9.967432307692318e+00
0	 9.687499999999998e+00	 3.750000000000000e+00	 9.938481538461545e+00
0	 9.687500000000000e+00	 3.812500000000000e+00	 9.941067130769239e+00
0	 9.687499999999998e+00	 3.875000000000000e+00	 9.943668369230771e+00
0	 9.687500000000000e+00	 3.937499999999999e+00	 9.946285253846156e+00
0	 9.687499999999998e+00	 3.999999999999999e+00	 9.948917784615386e+00
0	 9.687500000000000e+00	 4.062499999999999e+00	 9.951565961538464e+00
0	 9.687500000000000e+00	 4.124999999999998e+00	 9.954229784615375e+00
0	 9.687499999999998e+00	 4.187499999999998e+00	 9.956909253846151e+00
0	 9.687499999999998e+00	 4.249999999999998e+00	 9.959604369230764e+00
0	 9.687499999999998e+00	 4.312499999999996e+00	 9.962315130769220e+00
0	 9.687499999999998e+00	 4.375000000000000e+00	 9.965041538461536e+00
0	 9.749999999999998e+00	 3.750000000000000e+00	 9.935158523076918e+00
0	 9.749999999999996e+00	 3.812500000000000e+00	 9.937856763076933e+00
0	 9.749999999999998e+00	 3.874999999999999e+00	 9.940570879999999e+00
0	 9.749999999999996e+00	 3.937499999999999e+00	 9.943300873846145e+00
0	 9.750000000000000e+00	 3.999999999999999e+00	 9.946046744615376e+00
0	 9.749999999999998e+00	 4.062499999999999e+00	 9.948808492307684e+00
0	 9.749999999999998e+00	 4.124999999999998e+00	 9.951586116923067e+00
0	 9.749999999999998e+00	 4.187499999999998e+00	 9.954379618461530e+00
0	 9.749999999999998e+00	 4.249999999999998e+00	 9.957188996923074e+00
0	 9.749999999999996e+00	 4.312499999999997e+00	 9.960014252307703e+00
0	 9.749999999999998e+00	 4.375000000000000e+00	 9.962855384615377e+00
0	 9.812499999999998e+00	 3.750000000000000e+00	 9.931993169230777e+00
0	 9.812499999999998e+00	 3.812500000000000e+00	 9.934808752307696e+00
0	 9.812500000000002e+00	 3.875000000000000e+00	 9.937640443076925e+00
0	 9.812499999999998e+00	 3.937499999999999e+00	 9.940488241538459e+00
0	 9.812499999999996e+00	 3.999999999999998e+00	 9.943352147692304e+00
0	 9.812499999999998e+00	 4.062499999999998e+00	 9.946232161538466e+00
0	 9.812499999999998e+00	 4.124999999999999e+00	 9.949128283076908e+00
0	 9.812499999999998e+00	 4.187499999999998e+00	 9.952040512307681e+00
0	 9.812499999999998e+00	 4.249999999999997e+00	 9.954968849230760e+00
0	 9.812499999999998e+00	 4.312499999999998e+00	 9.957913293846140e+00
0	 9.812499999999998e+00	 4.375000000000000e+00	 9.960873846153850e+00
0	 9.874999999999996e+00	 3.750000000000000e+00	 9.928985476923069e+00
0	 9.874999999999998e+00	 3.812500000000000e+00	 9.931923098461539e+00
0	 9.875000000000000e+00	 3.875000000000000e+00	 9.934877058461538e+00
0	 9.874999999999998e+00	 3.937499999999999e+00	 9.937847356923072e+00
0	 9.875000000000000e+00	 3.999999999999999e+00	 9.940833993846159e+00
0	 9.874999999999996e+00	 4.062499999999998e+00	 9.943836969230778e+00
0	 9.874999999999998e+00	 4.124999999999998e+00	 9.946856283076919e+00
0	 9.874999999999998e+00	 4.187499999999998e+00	 9.949891935384610e+00
0	 9.874999999999996e+00	 4.249999999999998e+00	 9.952943926153839e+00
0	 9.874999999999998e+00	 4.312499999999998e+00	 9.956012255384620e+00
0	 9.874999999999996e+00	 4.375000000000000e+00	 9.959096923076913e+00
0	 9.937499999999998e+00	 3.750000000000000e+00	 9.926135446153850e+00
0	 9.937499999999998e+00	 3.812500000000000e+00	 9.929199801538457e+00
0	 9.937499999999998e+00	 3.875000000000000e+00	 9.932280726153857e+00
0	 9.937499999999998e+00	 3.937499999999999e+00	 9.935378219999992e+00
0	 9.937499999999998e+00	 3.999999999999999e+00	 9.938492283076904e+00
0	 9.937499999999996e+00	 4.062499999999999e+00	 9.941622915384606e+00
0	 9.937499999999998e+00	 4.124999999999999e+00	 9.944770116923056e+00
0	 9.937499999999998e+00	 4.187499999999999e+00	 9.947933887692319e+00
0	 9.937499999999998e+00	 4.249999999999998e+00	 9.951114227692308e+00
0	 9.937499999999998e+00	 4.312499999999998e+00	 9.954311136923069e+00
0	 9.937499999999998e+00	 4.375000000000000e+00	 9.957524615384596e+00
0	 1.000000000000000e+01	 3.750000000000000e+00	 9.923443076923075e+00
0	 1.000000000000000e+01	 3.812500000000000e+00	 9.926638861538470e+00
0	 1.000000000000000e+01	 3.874999999999999e+00	 9.929851446153846e+00
0	 1.000000000000000e+01	 3.937500000000000e+00	 9.933080830769232e+00
0	 1.000000000000000e+01	 4.000000000000000e+00	 9.936327015384615e+00
0	 1.000000000000000e+01	 4.062499999999999e+00	 9.939589999999994e+00
0	 9.999999999999998e+00	 4.124999999999999e+00	 9.942869784615377e+00
0	 1.000000000000000e+01	 4.187499999999999e+00	 9.946166369230765e+00
0	 1.000000000000000e+01	 4.249999999999998e+00	 9.949479753846159e+00
0	 1.000000000000000e+01	 4.312499999999998e+00	 9.952809938461533e+00
0	 1.000000000000000e+01	 4.375000000000000e+00	 9.956156923076904e+00
0	 9.375000000000000e+00	 4.375000000000000e+00	 9.979041538461532e+00
0	 9.375000000000000e+00	 4.437499999999999e+00	 9.980545569230761e+00
0	 9.375000000000002e+00	 4.500000000000001e+00	 9.982065661538448e+00
0	 9.374999999999998e+00	 4.562499999999999e+00	 9.983601815384620e+00
0	 9.375000000000002e+00	 4.625000000000000e+00	 9.985154030769230e+00
0	 9.375000000000000e+00	 4.687499999999999e+00	 9.986722307692290e+00
0	 9.375000000000000e+00	 4.749999999999999e+00	 9.988306646153839e+00
0	 9.375000000000000e+00	 4.812499999999998e+00	 9.989907046153837e+00
0	 9.375000000000000e+00	 4.874999999999998e+00	 9.991523507692291e+00
0	 9.375000000000000e+00	 4.937499999999998e+00	 9.993156030769228e+00
0	 9.375000000000000e+00	 5.000000000000000e+00	 9.994804615384613e+00
0	 9.437499999999998e+00	 4.375000000000000e+00	 9.975832307692308e+00
0	 9.437500000000000e+00	 4.437500000000000e+00	 9.977412153846137e+00
0	 9.437500000000000e+00	 4.499999999999998e+00	 9.979008412307683e+00
0	 9.437500000000002e+00	 4.562500000000000e+00	 9.980621083076912e+00
0	 9.437500000000000e+00	 4.624999999999999e+00	 9.982250166153847e+00
0	 9.437499999999998e+00	 4.687500000000000e+00	 9.983895661538458e+00
0	 9.437500000000000e+00	 4.749999999999998e+00	 9.985557569230771e+00
0	 9.437500000000000e+00	 4.812499999999999e+00	 9.987235889230762e+00
0	 9.437500000000002e+00	 4.874999999999999e+00	 9.988930621538465e+00
0	 9.437500000000000e+00	 4.937499999999996e+00	 9.990641766153837e+00
0	 9.437499999999998e+00	 4.999999999999999e+00	 9.992369323076908e+00
0	 9.500000000000000e+00	 4.375000000000000e+00	 9.972827692307696e+00
0	 9.500000000000002e+00	 4.437499999999999e+00	 9.974484172307690e+00
0	 9.500000000000000e+00	 4.500000000000001e+00	 9.976157415384609e+00
0	 9.499999999999998e+00	 4.562500000000000e+00	 9.977847421538467e+00
0	 9.500000000000000e+00	 4.624999999999999e+00	 9.979554190769228e+00
0	 9.499999999999998e+00	 4.687499999999999e+00	 9.981277723076916e+00
0	 9.500000000000000e+00	 4.750000000000000e+00	 9.983018018461539e+00
0	 9.500000000000000e+00	 4.812499999999998e+00	 9.984775076923089e+00
0	 9.500000000000002e+00	 4.874999999999998e+00	 9.986548898461532e+00
0	 9.500000000000000e+00	 4.937499999999998e+00	 9.988339483076921e+00
0	 9.500000000000000e+00	 5.000000000000000e+00	 9.990146830769225e+00
0	 9.562500000000000e+00	 4.374999999999999e+00	 9.970027692307681e+00
0	 9.562500000000000e+00	 4.437500000000001e+00	 9.971761624615395e+00
0	 9.562500000000000e+00	 4.499999999999999e+00	 9.973512670769223e+00
0	 9.562499999999998e+00	 4.562499999999998e+00	 9.975280830769226e+00
0	 9.562500000000002e+00	 4.625000000000000e+00	 9.977066104615385e+00
0	 9.562500000000002e+00	 4.687499999999999e+00	 9.978868492307686e+00
0	 9.562500000000000e+00	 4.749999999999999e+00	 9.980687993846150e+00
0	 9.562500000000000e+00	 4.812499999999999e+00	 9.982524609230769e+00
0	 9.562500000000002e+00	 4.874999999999999e+00	 9.984378338461545e+00
0	 9.562499999999998e+00	 4.937499999999997e+00	 9.986249181538460e+00
0	 9.562500000000000e+00	 4.999999999999999e+00	 9.988137138461543e+00
0	 9.624999999999998e+00	 4.375000000000001e+00	 9.967432307692318e+00
0	 9.624999999999998e+00	 4.437499999999999e+00	 9.969244510769222e+00
0	 9.625000000000000e+00	 4.500000000000000e+00	 9.971074178461530e+00
0	 9.625000000000000e+00	 4.562499999999999e+00	 9.972921310769230e+00
0	 9.624999999999996e+00	 4.624999999999999e+00	 9.974785907692302e+00
0	 9.624999999999998e+00	 4.687499999999998e+00	 9.976667969230775e+00
0	 9.625000000000000e+00	 4.749999999999999e+00	 9.978567495384619e+00
0	 9.625000000000000e+00	 4.812499999999998e+00	 9.980484486153852e+00
0	 9.625000000000000e+00	 4.874999999999997e+00	 9.982418941538466e+00
0	 9.625000000000000e+00	 4.937499999999999e+00	 9.984370861538457e+00
0	 9.624999999999998e+00	 5.000000000000001e+00	 9.986340246153855e+00
0	 9.687499999999998e+00	 4.375000000000000e+00	 9.965041538461536e+00
0	 9.687500000000000e+00	 4.437500000000001e+00	 9.966932830769217e+00
0	 9.687499999999998e+00	 4.500000000000000e+00	 9.968841938461539e+00
0	 9.687500000000000e+00	 4.562499999999999e+00	 9.970768861538465e+00
0	 9.687499999999998e+00	 4.624999999999999e+00	 9.972713599999992e+00
0	 9.687500000000000e+00	 4.687499999999999e+00	 9.974676153846151e+00
0	 9.687500000000000e+00	 4.749999999999999e+00	 9.976656523076940e+00
0	 9.687499999999998e+00	 4.812499999999998e+00	 9.978654707692311e+00
0	 9.687499999999998e+00	 4.874999999999998e+00	 9.980670707692315e+00
0	 9.687499999999998e+00	 4.937499999999997e+00	 9.982704523076929e+00
0	 9.687499999999998e+00	 5.000000000000000e+00	 9.984756153846138e+00
0	 9.749999999999998e+00	 4.375000000000000e+00	 9.962855384615377e+00
0	 9.749999999999996e+00	 4.437500000000000e+00	 9.964826584615386e+00
0	 9.749999999999998e+00	 4.499999999999999e+00	 9.966815950769224e+00
0	 9.749999999999996e+00	 4.562499999999999e+00	 9.968823483076907e+00
0	 9.750000000000000e+00	 4.624999999999999e+00	 9.970849181538455e+00
0	 9.749999999999998e+00	 4.687499999999998e+00	 9.972893046153853e+00
0	 9.749999999999998e+00	 4.749999999999998e+00	 9.974955076923077e+00
0	 9.749999999999998e+00	 4.812499999999998e+00	 9.977035273846168e+00
0	 9.749999999999998e+00	 4.874999999999998e+00	 9.979133636923079e+00
0	 9.749999999999996e+00	 4.937499999999998e+00	 9.981250166153842e+00
0	 9.749999999999998e+00	 5.000000000000000e+00	 9.983384861538468e+00
0	 9.812499999999998e+00	 4.375000000000000e+00	 9.960873846153850e+00
0	 9.812499999999998e+00	 4.437500000000000e+00	 9.962925772307695e+00
0	 9.812500000000002e+00	 4.500000000000000e+00	 9.964996215384625e+00
0	 9.812499999999998e+00	 4.562499999999999e+00	 9.967085175384614e+00
0	 9.812499999999996e+00	 4.624999999999998e+00	 9.969192652307699e+00
0	 9.812499999999998e+00	 4.687499999999999e+00	 9.971318646153854e+00
0	 9.812499999999998e+00	 4.749999999999998e+00	 9.973463156923074e+00
0	 9.812499999999998e+00	 4.812499999999998e+00	 9.975626184615395e+00
0	 9.812499999999998e+00	 4.874999999999997e+00	 9.977807729230772e+00
0	 9.812499999999998e+00	 4.937499999999998e+00	 9.980007790769232e+00
0	 9.812499999999998e+00	 5.000000000000000e+00	 9.982226369230773e+00
0	 9.874999999999996e+00	 4.375000000000000e+00	 9.959096923076913e+00
0	 9.874999999999998e+00	 4.437500000000000e+00	 9.961230393846133e+00
0	 9.875000000000000e+00	 4.500000000000000e+00	 9.963382732307680e+00
0	 9.874999999999998e+00	 4.562499999999999e+00	 9.965553938461539e+00
0	 9.875000000000000e+00	 4.624999999999999e+00	 9.967744012307701e+00
0	 9.874999999999996e+00	 4.687499999999997e+00	 9.969952953846168e+00
0	 9.874999999999998e+00	 4.749999999999998e+00	 9.972180763076928e+00
0	 9.874999999999998e+00	 4.812499999999998e+00	 9.974427440000015e+00
0	 9.874999999999996e+00	 4.874999999999998e+00	 9.976692984615386e+00
0	 9.874999999999998e+00	 4.937499999999997e+00	 9.978977396923076e+00
0	 9.874999999999996e+00	 5.000000000000000e+00	 9.981280676923078e+00
0	 9.937499999999998e+00	 4.375000000000000e+00	 9.957524615384596e+00
0	 9.937499999999998e+00	 4.437500000000000e+00	 9.959740449230729e+00
0	 9.937499999999998e+00	 4.500000000000000e+00	 9.961975501538463e+00
0	 9.937499999999998e+00	 4.562499999999999e+00	 9.964229772307675e+00
0	 9.937499999999998e+00	 4.625000000000000e+00	 9.966503261538445e+00
0	 9.937499999999996e+00	 4.687499999999999e+00	 9.968795969230772e+00
0	 9.937499999999998e+00	 4.749999999999999e+00	 9.971107895384616e+00
0	 9.937499999999998e+00	 4.812499999999998e+00	 9.973439039999999e+00
0	 9.937499999999998e+00	 4.874999999999998e+00	 9.975789403076931e+00
0	 9.937499999999998e+00	 4.937499999999998e+00	 9.978158984615408e+00
0	 9.937499999999998e+00	 5.000000000000000e+00	 9.980547784615407e+00
0	 1.000000000000000e+01	 4.375000000000000e+00	 9.956156923076904e+00
0	 1.000000000000000e+01	 4.437500000000000e+00	 9.958455938461505e+00
0	 1.000000000000000e+01	 4.500000000000000e+00	 9.960774523076910e+00
0	 1.000000000000000e+01	 4.562499999999999e+00	 9.963112676923094e+00
0	 1.000000000000000e+01	 4.625000000000000e+00	 9.965470400000001e+00
0	 1.000000000000000e+01	 4.687499999999999e+00	 9.967847692307672e+00
0	 9.999999999999998e+00	 4.749999999999998e+00	 9.970244553846152e+00
0	 1.000000000000000e+01	 4.812499999999999e+00	 9.972660984615382e+00
0	 1.000000000000000e+01	 4.874999999999998e+00	 9.975096984615391e+00
0	 1.000000000000000e+01	 4.937499999999998e+00	 9.977552553846138e+00
0	 1.000000000000000e+01	 5.000000000000000e+00	 9.980027692307704e+00
0	 9.375000000000000e+00	 5.000000000000000e+00	 9.994804615384613e+00
0	 9.375000000000000e+00	 5.062500000000000e+00	 9.995710600000010e+00
0	 9.375000000000002e+00	 5.125000000000001e+00	 9.996631630769235e+00
0	 9.374999999999998e+00	 5.187499999999999e+00	 9.997567707692298e+00
0	 9.375000000000002e+00	 5.249999999999999e+00	 9.998518830769230e+00
0	 9.375000000000000e+00	 5.312499999999999e+00	 9.999485000000000e+00
0	 9.375000000000000e+00	 5.374999999999998e+00	 1.000046621538461e+01
0	 9.375000000000000e+00	 5.437499999999998e+00	 1.000146247692308e+01
0	 9.375000000000000e+00	 5.499999999999998e+00	 1.000247378461539e+01
0	 9.375000000000000e+00	 5.562499999999998e+00	 1.000350013846153e+01
0	 9.375000000000000e+00	 5.625000000000000e+00	 1.000454153846154e+01
0	 9.437499999999998e+00	 4.999999999999999e+00	 9.992369323076908e+00
0	 9.437500000000000e+00	 5.062499999999999e+00	 9.993334152307693e+00
0	 9.437500000000000e+00	 5.124999999999999e+00	 9.994314387692304e+00
0	 9.437500000000002e+00	 5.187500000000000e+00	 9.995310029230769e+00
0	 9.437500000000000e+00	 5.249999999999999e+00	 9.996321076923071e+00
0	 9.437499999999998e+00	 5.312499999999997e+00	 9.997347530769233e+00
0	 9.437500000000000e+00	 5.374999999999998e+00	 9.998389390769226e+00
0	 9.437500000000000e+00	 5.437499999999998e+00	 9.999446656923071e+00
0	 9.437500000000002e+00	 5.499999999999999e+00	 1.000051932923076e+01
0	 9.437500000000000e+00	 5.562499999999997e+00	 1.000160740769230e+01
0	 9.437499999999998e+00	 5.625000000000000e+00	 1.000271089230769e+01
0	 9.500000000000000e+00	 5.000000000000000e+00	 9.990146830769225e+00
0	 9.500000000000002e+00	 5.062500000000000e+00	 9.991168264615386e+00
0	 9.500000000000000e+00	 5.125000000000000e+00	 9.992205464615372e+00
0	 9.499999999999998e+00	 5.187499999999999e+00	 9.993258430769217e+00
0	 9.500000000000000e+00	 5.249999999999999e+00	 9.994327163076923e+00
0	 9.499999999999998e+00	 5.312499999999998e+00	 9.995411661538462e+00
0	 9.500000000000000e+00	 5.374999999999998e+00	 9.996511926153852e+00
0	 9.500000000000000e+00	 5.437499999999998e+00	 9.997627956923070e+00
0	 9.500000000000002e+00	 5.499999999999997e+00	 9.998759753846144e+00
0	 9.500000000000000e+00	 5.562499999999999e+00	 9.999907316923073e+00
0	 9.500000000000000e+00	 5.625000000000000e+00	 1.000107064615385e+01
0	 9.562500000000000e+00	 4.999999999999999e+00	 9.988137138461543e+00
0	 9.562500000000000e+00	 5.062500000000000e+00	 9.989212936923085e+00
0	 9.562500000000000e+00	 5.124999999999999e+00	 9.990304861538460e+00
0	 9.562499999999998e+00	 5.187499999999999e+00	 9.991412912307691e+00
0	 9.562500000000002e+00	 5.250000000000000e+00	 9.992537089230780e+00
0	 9.562500000000002e+00	 5.312499999999998e+00	 9.993677392307685e+00
0	 9.562500000000000e+00	 5.374999999999998e+00	 9.994833821538464e+00
0	 9.562500000000000e+00	 5.437500000000000e+00	 9.996006376923077e+00
0	 9.562500000000002e+00	 5.499999999999999e+00	 9.997195058461539e+00
0	 9.562499999999998e+00	 5.562499999999998e+00	 9.998399866153841e+00
0	 9.562500000000000e+00	 5.624999999999999e+00	 9.999620799999990e+00
0	 9.624999999999998e+00	 5.000000000000001e+00	 9.986340246153855e+00
0	 9.624999999999998e+00	 5.062500000000000e+00	 9.987468169230764e+00
0	 9.625000000000000e+00	 5.125000000000000e+00	 9.988612578461536e+00
0	 9.625000000000000e+00	 5.187499999999999e+00	 9.989773473846157e+00
0	 9.624999999999996e+00	 5.249999999999998e+00	 9.990950855384607e+00
0	 9.624999999999998e+00	 5.312499999999999e+00	 9.992144723076919e+00
0	 9.625000000000000e+00	 5.374999999999999e+00	 9.993355076923077e+00
0	 9.625000000000000e+00	 5.437499999999998e+00	 9.994581916923064e+00
0	 9.625000000000000e+00	 5.499999999999999e+00	 9.995825243076924e+00
0	 9.625000000000000e+00	 5.562499999999997e+00	 9.997085055384620e+00
0	 9.624999999999998e+00	 5.625000000000001e+00	 9.998361353846143e+00
0	 9.687499999999998e+00	 5.000000000000000e+00	 9.984756153846138e+00
0	 9.687500000000000e+00	 5.062500000000001e+00	 9.985933961538468e+00
0	 9.687499999999998e+00	 5.125000000000000e+00	 9.987128615384622e+00
0	 9.687500000000000e+00	 5.187500000000000e+00	 9.988340115384620e+00
0	 9.687499999999998e+00	 5.249999999999998e+00	 9.989568461538459e+00
0	 9.687500000000000e+00	 5.312499999999999e+00	 9.990813653846146e+00
0	 9.687500000000000e+00	 5.374999999999998e+00	 9.992075692307694e+00
0	 9.687499999999998e+00	 5.437499999999999e+00	 9.993354576923075e+00
0	 9.687499999999998e+00	 5.499999999999999e+00	 9.994650307692302e+00
0	 9.687499999999998e+00	 5.562499999999997e+00	 9.995962884615377e+00
0	 9.687499999999998e+00	 5.625000000000001e+00	 9.997292307692305e+00
0	 9.749999999999998e+00	 5.000000000000000e+00	 9.983384861538468e+00
0	 9.749999999999996e+00	 5.062500000000000e+00	 9.984610313846147e+00
0	 9.749999999999998e+00	 5.124999999999998e+00	 9.985852972307701e+00
0	 9.749999999999996e+00	 5.187499999999999e+00	 9.987112836923078e+00
0	 9.750000000000000e+00	 5.249999999999999e+00	 9.988389907692309e+00
0	 9.749999999999998e+00	 5.312499999999998e+00	 9.989684184615388e+00
0	 9.749999999999998e+00	 5.374999999999998e+00	 9.990995667692319e+00
0	 9.749999999999998e+00	 5.437499999999998e+00	 9.992324356923071e+00
0	 9.749999999999998e+00	 5.499999999999998e+00	 9.993670252307679e+00
0	 9.749999999999996e+00	 5.562499999999997e+00	 9.995033353846150e+00
0	 9.749999999999998e+00	 5.625000000000000e+00	 9.996413661538440e+00
0	 9.812499999999998e+00	 5.000000000000000e+00	 9.982226369230773e+00
0	 9.812499999999998e+00	 5.062500000000000e+00	 9.983497226153853e+00
0	 9.812500000000002e+00	 5.124999999999999e+00	 9.984785649230792e+00
0	 9.812499999999998e+00	 5.187499999999999e+00	 9.986091638461541e+00
0	 9.812499999999996e+00	 5.249999999999999e+00	 9.987415193846154e+00
0	 9.812499999999998e+00	 5.312499999999999e+00	 9.988756315384611e+00
0	 9.812499999999998e+00	 5.374999999999998e+00	 9.990115003076916e+00
0	 9.812499999999998e+00	 5.437499999999998e+00	 9.991491256923069e+00
0	 9.812499999999998e+00	 5.499999999999997e+00	 9.992885076923072e+00
0	 9.812499999999998e+00	 5.562499999999998e+00	 9.994296463076905e+00
0	 9.812499999999998e+00	 5.625000000000000e+00	 9.995725415384609e+00
0	 9.874999999999996e+00	 5.000000000000000e+00	 9.981280676923078e+00
0	 9.874999999999998e+00	 5.062500000000000e+00	 9.982594698461540e+00
0	 9.875000000000000e+00	 5.125000000000001e+00	 9.983926646153833e+00
0	 9.874999999999998e+00	 5.187499999999998e+00	 9.985276520000006e+00
0	 9.875000000000000e+00	 5.249999999999999e+00	 9.986644320000016e+00
0	 9.874999999999996e+00	 5.312499999999998e+00	 9.988030046153851e+00
0	 9.874999999999998e+00	 5.374999999999998e+00	 9.989433698461534e+00
0	 9.874999999999998e+00	 5.437499999999998e+00	 9.990855276923075e+00
0	 9.874999999999996e+00	 5.499999999999998e+00	 9.992294781538460e+00
0	 9.874999999999998e+00	 5.562499999999998e+00	 9.993752212307694e+00
0	 9.874999999999996e+00	 5.625000000000000e+00	 9.995227569230765e+00
0	 9.937499999999998e+00	 5.000000000000000e+00	 9.980547784615407e+00
0	 9.937499999999998e+00	 5.062500000000000e+00	 9.981902730769233e+00
0	 9.937499999999998e+00	 5.124999999999999e+00	 9.983275963076931e+00
0	 9.937499999999998e+00	 5.187499999999999e+00	 9.984667481538466e+00
0	 9.937499999999998e+00	 5.249999999999999e+00	 9.986077286153847e+00
0	 9.937499999999996e+00	 5.312499999999999e+00	 9.987505376923083e+00
0	 9.937499999999998e+00	 5.374999999999998e+00	 9.988951753846150e+00
0	 9.937499999999998e+00	 5.437499999999998e+00	 9.990416416923084e+00
0	 9.937499999999998e+00	 5.499999999999998e+00	 9.991899366153831e+00
0	 9.937499999999998e+00	 5.562499999999998e+00	 9.993400601538450e+00
0	 9.937499999999998e+00	 5.625000000000000e+00	 9.994920123076909e+00
0	 1.000000000000000e+01	 5.000000000000000e+00	 9.980027692307704e+00
0	 1.000000000000000e+01	 5.062500000000000e+00	 9.981421323076933e+00
0	 1.000000000000000e+01	 5.125000000000000e+00	 9.982833600000017e+00
0	 1.000000000000000e+01	 5.187499999999999e+00	 9.984264523076924e+00
0	 1.000000000000000e+01	 5.249999999999999e+00	 9.985714092307690e+00
0	 1.000000000000000e+01	 5.312499999999999e+00	 9.987182307692319e+00
0	 9.999999999999998e+00	 5.374999999999998e+00	 9.988669169230770e+00
0	 1.000000000000000e+01	 5.437499999999999e+00	 9.990174676923083e+00
0	 1.000000000000000e+01	 5.499999999999998e+00	 9.991698830769227e+00
0	 1.000000000000000e+01	 5.562499999999998e+00	 9.993241630769219e+00
0	 1.000000000000000e+01	 5.625000000000000e+00	 9.994803076923070e+00
0	 9.375000000000000e+00	 5.625000000000000e+00	 1.000454153846154e+01
0	 9.375000000000000e+00	 5.687500000000000e+00	 1.000492563076924e+01
0	 9.375000000000002e+00	 5.750000000000000e+00	 1.000532190769230e+01
0	 9.374999999999998e+00	 5.812499999999999e+00	 1.000573036923079e+01
0	 9.375000000000002e+00	 5.874999999999999e+00	 1.000615101538462e+01
0	 9.375000000000000e+00	 5.937499999999999e+00	 1.000658384615385e+01
0	 9.375000000000000e+00	 5.999999999999998e+00	 1.000702886153848e+01
0	 9.375000000000000e+00	 6.062499999999998e+00	 1.000748606153846e+01
0	 9.375000000000000e+00	 6.124999999999998e+00	 1.000795544615385e+01
0	 9.375000000000000e+00	 6.187499999999998e+00	 1.000843701538463e+01
0	 9.375000000000000e+00	 6.250000000000000e+00	 1.000893076923078e+01
0	 9.437499999999998e+00	 5.625000000000000e+00	 1.000271089230769e+01
0	 9.437500000000000e+00	 5.687500000000000e+00	 1.000313874615385e+01
0	 9.437500000000000e+00	 5.750000000000001e+00	 1.000357906153847e+01
0	 9.437500000000002e+00	 5.812500000000000e+00	 1.000403183846153e+01
0	 9.437500000000000e+00	 5.875000000000000e+00	 1.000449707692309e+01
0	 9.437499999999998e+00	 5.937499999999998e+00	 1.000497477692309e+01
0	 9.437500000000000e+00	 5.999999999999996e+00	 1.000546493846154e+01
0	 9.437500000000000e+00	 6.062499999999999e+00	 1.000596756153847e+01
0	 9.437500000000002e+00	 6.124999999999998e+00	 1.000648264615385e+01
0	 9.437500000000000e+00	 6.187499999999999e+00	 1.000701019230770e+01
0	 9.437499999999998e+00	 6.250000000000000e+00	 1.000755020000001e+01
0	 9.500000000000000e+00	 5.625000000000000e+00	 1.000107064615385e+01
0	 9.500000000000002e+00	 5.687500000000001e+00	 1.000153763076922e+01
0	 9.500000000000000e+00	 5.750000000000001e+00	 1.000201735384616e+01
0	 9.499999999999998e+00	 5.812499999999999e+00	 1.000250981538462e+01
0	 9.500000000000000e+00	 5.875000000000000e+00	 1.000301501538462e+01
0	 9.499999999999998e+00	 5.937499999999998e+00	 1.000353295384616e+01
0	 9.500000000000000e+00	 6.000000000000000e+00	 1.000406363076924e+01
0	 9.500000000000000e+00	 6.062499999999997e+00	 1.000460704615385e+01
0	 9.500000000000002e+00	 6.124999999999998e+00	 1.000516319999999e+01
0	 9.500000000000000e+00	 6.187499999999998e+00	 1.000573209230769e+01
0	 9.500000000000000e+00	 6.250000000000000e+00	 1.000631372307695e+01
0	 9.562500000000000e+00	 5.624999999999999e+00	 9.999620799999990e+00
0	 9.562500000000000e+00	 5.687500000000000e+00	 1.000012228461538e+01
0	 9.562500000000000e+00	 5.750000000000000e+00	 1.000063678461538e+01
0	 9.562499999999998e+00	 5.812499999999998e+00	 1.000116430000000e+01
0	 9.562500000000002e+00	 5.874999999999999e+00	 1.000170483076923e+01
0	 9.562500000000002e+00	 5.937499999999998e+00	 1.000225837692308e+01
0	 9.562500000000000e+00	 5.999999999999999e+00	 1.000282493846154e+01
0	 9.562500000000000e+00	 6.062499999999999e+00	 1.000340451538462e+01
0	 9.562500000000002e+00	 6.124999999999998e+00	 1.000399710769232e+01
0	 9.562499999999998e+00	 6.187499999999998e+00	 1.000460271538461e+01
0	 9.562500000000000e+00	 6.249999999999999e+00	 1.000522133846155e+01
0	 9.624999999999998e+00	 5.625000000000001e+00	 9.998361353846143e+00
0	 9.624999999999998e+00	 5.687500000000000e+00	 9.998892707692301e+00
0	 9.625000000000000e+00	 5.750000000000001e+00	 9.999437353846147e+00
0	 9.625000000000000e+00	 5.812499999999999e+00	 9.999995292307695e+00
0	 9.624999999999996e+00	 5.874999999999999e+00	 1.000056652307692e+01
0	 9.624999999999998e+00	 5.937499999999998e+00	 1.000115104615384e+01
0	 9.625000000000000e+00	 5.999999999999999e+00	 1.000174886153846e+01
0	 9.625000000000000e+00	 6.062499999999999e+00	 1.000235996923078e+01
0	 9.625000000000000e+00	 6.124999999999999e+00	 1.000298436923078e+01
0	 9.625000000000000e+00	 6.187499999999998e+00	 1.000362206153846e+01
0	 9.624999999999998e+00	 6.250000000000000e+00	 1.000427304615384e+01
0	 9.687499999999998e+00	 5.625000000000001e+00	 9.997292307692305e+00
0	 9.687500000000000e+00	 5.687500000000001e+00	 9.997848899999996e+00
0	 9.687499999999998e+00	 5.750000000000000e+00	 9.998419061538460e+00
0	 9.687500000000000e+00	 5.812500000000000e+00	 9.999002792307687e+00
0	 9.687499999999998e+00	 5.874999999999999e+00	 9.999600092307690e+00
0	 9.687500000000000e+00	 5.937499999999999e+00	 1.000021096153846e+01
0	 9.687500000000000e+00	 5.999999999999998e+00	 1.000083540000001e+01
0	 9.687499999999998e+00	 6.062499999999997e+00	 1.000147340769232e+01
0	 9.687499999999998e+00	 6.124999999999998e+00	 1.000212498461540e+01
0	 9.687499999999998e+00	 6.187499999999997e+00	 1.000279013076922e+01
0	 9.687499999999998e+00	 6.250000000000000e+00	 1.000346884615384e+01
0	 9.749999999999998e+00	 5.625000000000000e+00	 9.996413661538440e+00
0	 9.749999999999996e+00	 5.687500000000000e+00	 9.996990861538444e+00
0	 9.749999999999998e+00	 5.749999999999998e+00	 9.997581907692300e+00
0	 9.749999999999996e+00	 5.812499999999999e+00	 9.998186799999985e+00
0	 9.750000000000000e+00	 5.874999999999999e+00	 9.998805538461541e+00
0	 9.749999999999998e+00	 5.937499999999999e+00	 9.999438123076919e+00
0	 9.749999999999998e+00	 5.999999999999999e+00	 1.000008455384615e+01
0	 9.749999999999998e+00	 6.062499999999999e+00	 1.000074483076924e+01
0	 9.749999999999998e+00	 6.124999999999998e+00	 1.000141895384616e+01
0	 9.749999999999996e+00	 6.187499999999997e+00	 1.000210692307694e+01
0	 9.749999999999998e+00	 6.250000000000000e+00	 1.000280873846154e+01
0	 9.812499999999998e+00	 5.625000000000000e+00	 9.995725415384609e+00
0	 9.812499999999998e+00	 5.687499999999999e+00	 9.996318592307681e+00
0	 9.812500000000002e+00	 5.750000000000000e+00	 9.996925892307690e+00
0	 9.812499999999998e+00	 5.812499999999999e+00	 9.997547315384613e+00
0	 9.812499999999996e+00	 5.874999999999999e+00	 9.998182861538464e+00
0	 9.812499999999998e+00	 5.937499999999998e+00	 9.998832530769240e+00
0	 9.812499999999998e+00	 5.999999999999999e+00	 9.999496323076926e+00
0	 9.812499999999998e+00	 6.062499999999998e+00	 1.000017423846154e+01
0	 9.812499999999998e+00	 6.124999999999997e+00	 1.000086627692308e+01
0	 9.812499999999998e+00	 6.187499999999998e+00	 1.000157243846155e+01
0	 9.812499999999998e+00	 6.250000000000000e+00	 1.000229272307693e+01
0	 9.874999999999996e+00	 5.625000000000000e+00	 9.995227569230765e+00
0	 9.874999999999998e+00	 5.687500000000000e+00	 9.995832092307689e+00
0	 9.875000000000000e+00	 5.750000000000000e+00	 9.996451015384594e+00
0	 9.874999999999998e+00	 5.812499999999999e+00	 9.997084338461541e+00
0	 9.875000000000000e+00	 5.874999999999999e+00	 9.997732061538468e+00
0	 9.874999999999996e+00	 5.937499999999998e+00	 9.998394184615380e+00
0	 9.874999999999998e+00	 5.999999999999999e+00	 9.999070707692297e+00
0	 9.874999999999998e+00	 6.062499999999998e+00	 9.999761630769223e+00
0	 9.874999999999996e+00	 6.124999999999998e+00	 1.000046695384617e+01
0	 9.874999999999998e+00	 6.187499999999997e+00	 1.000118667692308e+01
0	 9.874999999999996e+00	 6.250000000000000e+00	 1.000192080000001e+01
0	 9.937499999999998e+00	 5.625000000000000e+00	 9.994920123076909e+00
0	 9.937499999999998e+00	 5.687500000000001e+00	 9.995531361538447e+00
0	 9.937499999999998e+00	 5.749999999999999e+00	 9.996157276923082e+00
0	 9.937499999999998e+00	 5.812499999999999e+00	 9.996797869230765e+00
0	 9.937499999999998e+00	 5.875000000000000e+00	 9.997453138461516e+00
0	 9.937499999999996e+00	 5.937500000000000e+00	 9.998123084615367e+00
0	 9.937499999999998e+00	 5.999999999999999e+00	 9.998807707692311e+00
0	 9.937499999999998e+00	 6.062499999999998e+00	 9.999507007692319e+00
0	 9.937499999999998e+00	 6.124999999999998e+00	 1.000022098461539e+01
0	 9.937499999999998e+00	 6.187499999999998e+00	 1.000094963846153e+01
0	 9.937499999999998e+00	 6.250000000000000e+00	 1.000169296923077e+01
0	 1.000000000000000e+01	 5.625000000000000e+00	 9.994803076923070e+00
0	 1.000000000000000e+01	 5.687499999999999e+00	 9.995416399999979e+00
0	 1.000000000000000e+01	 5.749999999999999e+00	 9.996044676923065e+00
0	 1.000000000000000e+01	 5.812499999999999e+00	 9.996687907692314e+00
0	 1.000000000000000e+01	 5.874999999999999e+00	 9.997346092307705e+00
0	 1.000000000000000e+01	 5.937499999999998e+00	 9.998019230769232e+00
0	 9.999999999999998e+00	 5.999999999999998e+00	 9.998707323076918e+00
0	 1.000000000000000e+01	 6.062499999999999e+00	 9.999410369230777e+00
0	 1.000000000000000e+01	 6.124999999999998e+00	 1.000012836923078e+01
0	 1.000000000000000e+01	 6.187499999999998e+00	 1.000086132307693e+01
0	 1.000000000000000e+01	 6.250000000000000e+00	 1.000160923076924e+01
0	 9.375000000000000e+00	 6.250000000000000e+00	 1.000893076923078e+01
0	 9.375000000000000e+00	 6.312500000000000e+00	 1.000892407692308e+01
0	 9.375000000000002e+00	 6.375000000000000e+00	 1.000892523076924e+01
0	 9.374999999999998e+00	 6.437499999999999e+00	 1.000893423076923e+01
0	 9.375000000000002e+00	 6.499999999999999e+00	 1.000895107692308e+01
0	 9.375000000000000e+00	 6.562499999999998e+00	 1.000897576923077e+01
0	 9.375000000000000e+00	 6.624999999999998e+00	 1.000900830769230e+01
0	 9.375000000000000e+00	 6.687499999999998e+00	 1.000904869230768e+01
0	 9.375000000000000e+00	 6.749999999999998e+00	 1.000909692307692e+01
0	 9.375000000000000e+00	 6.812499999999998e+00	 1.000915299999999e+01
0	 9.375000000000000e+00	 6.875000000000000e+00	 1.000921692307692e+01
0	 9.437499999999998e+00	 6.250000000000000e+00	 1.000755020000001e+01
0	 9.437500000000000e+00	 6.312500000000001e+00	 1.000757473230770e+01
0	 9.437500000000000e+00	 6.374999999999999e+00	 1.000760736000001e+01
0	 9.437500000000002e+00	 6.437500000000000e+00	 1.000764808307692e+01
0	 9.437500000000000e+00	 6.500000000000000e+00	 1.000769690153846e+01
0	 9.437499999999998e+00	 6.562500000000000e+00	 1.000775381538462e+01
0	 9.437500000000000e+00	 6.624999999999999e+00	 1.000781882461539e+01
0	 9.437500000000000e+00	 6.687499999999999e+00	 1.000789192923077e+01
0	 9.437500000000002e+00	 6.749999999999999e+00	 1.000797312923076e+01
0	 9.437500000000000e+00	 6.812499999999998e+00	 1.000806242461539e+01
0	 9.437499999999998e+00	 6.875000000000001e+00	 1.000815981538461e+01
0	 9.500000000000000e+00	 6.250000000000000e+00	 1.000631372307695e+01
0	 9.500000000000002e+00	 6.312499999999998e+00	 1.000636355692308e+01
0	 9.500000000000000e+00	 6.375000000000001e+00	 1.000642173538462e+01
0	 9.499999999999998e+00	 6.437499999999999e+00	 1.000648825846154e+01
0	 9.500000000000000e+00	 6.499999999999998e+00	 1.000656312615384e+01
0	 9.499999999999998e+00	 6.562499999999998e+00	 1.000664633846154e+01
0	 9.500000000000000e+00	 6.625000000000000e+00	 1.000673789538462e+01
0	 9.500000000000000e+00	 6.687499999999998e+00	 1.000683779692308e+01
0	 9.500000000000002e+00	 6.749999999999999e+00	 1.000694604307692e+01
0	 9.500000000000000e+00	 6.812499999999999e+00	 1.000706263384614e+01
0	 9.500000000000000e+00	 6.874999999999999e+00	 1.000718756923074e+01
0	 9.562500000000000e+00	 6.249999999999999e+00	 1.000522133846155e+01
0	 9.562500000000000e+00	 6.312500000000000e+00	 1.000529055076925e+01
0	 9.562500000000000e+00	 6.374999999999999e+00	 1.000536835692307e+01
0	 9.562499999999998e+00	 6.437499999999999e+00	 1.000545475692309e+01
0	 9.562500000000002e+00	 6.500000000000001e+00	 1.000554975076923e+01
0	 9.562500000000002e+00	 6.562499999999999e+00	 1.000565333846152e+01
0	 9.562500000000000e+00	 6.625000000000000e+00	 1.000576551999999e+01
0	 9.562500000000000e+00	 6.687499999999999e+00	 1.000588629538462e+01
0	 9.562500000000002e+00	 6.749999999999999e+00	 1.000601566461537e+01
0	 9.562499999999998e+00	 6.812499999999997e+00	 1.000615362769231e+01
0	 9.562500000000000e+00	 6.874999999999999e+00	 1.000630018461537e+01
0	 9.624999999999998e+00	 6.250000000000000e+00	 1.000427304615384e+01
0	 9.624999999999998e+00	 6.312499999999998e+00	 1.000435571384616e+01
0	 9.625000000000000e+00	 6.375000000000000e+00	 1.000444722461539e+01
0	 9.625000000000000e+00	 6.437500000000001e+00	 1.000454757846154e+01
0	 9.624999999999996e+00	 6.499999999999997e+00	 1.000465677538461e+01
0	 9.624999999999998e+00	 6.562499999999998e+00	 1.000477481538463e+01
0	 9.625000000000000e+00	 6.624999999999999e+00	 1.000490169846152e+01
0	 9.625000000000000e+00	 6.687499999999999e+00	 1.000503742461538e+01
0	 9.625000000000000e+00	 6.749999999999999e+00	 1.000518199384616e+01
0	 9.625000000000000e+00	 6.812499999999998e+00	 1.000533540615385e+01
0	 9.624999999999998e+00	 6.875000000000001e+00	 1.000549766153845e+01
0	 9.687499999999998e+00	 6.250000000000000e+00	 1.000346884615384e+01
0	 9.687500000000000e+00	 6.312500000000000e+00	 1.000355904615385e+01
0	 9.687499999999998e+00	 6.375000000000000e+00	 1.000365833846156e+01
0	 9.687500000000000e+00	 6.437500000000001e+00	 1.000376672307693e+01
0	 9.687499999999998e+00	 6.499999999999998e+00	 1.000388419999999e+01
0	 9.687500000000000e+00	 6.562499999999998e+00	 1.000401076923077e+01
0	 9.687500000000000e+00	 6.624999999999998e+00	 1.000414643076923e+01
0	 9.687499999999998e+00	 6.687499999999998e+00	 1.000429118461538e+01
0	 9.687499999999998e+00	 6.749999999999998e+00	 1.000444503076923e+01
0	 9.687499999999998e+00	 6.812499999999998e+00	 1.000460796923078e+01
0	 9.687499999999998e+00	 6.875000000000001e+00	 1.000478000000001e+01
0	 9.749999999999998e+00	 6.250000000000000e+00	 1.000280873846154e+01
0	 9.749999999999996e+00	 6.312500000000000e+00	 1.000290054769230e+01
0	 9.749999999999998e+00	 6.374999999999998e+00	 1.000300169846153e+01
0	 9.749999999999996e+00	 6.437499999999998e+00	 1.000311219076924e+01
0	 9.750000000000000e+00	 6.500000000000000e+00	 1.000323202461538e+01
0	 9.749999999999998e+00	 6.562499999999998e+00	 1.000336120000000e+01
0	 9.749999999999998e+00	 6.624999999999999e+00	 1.000349971692306e+01
0	 9.749999999999998e+00	 6.687499999999999e+00	 1.000364757538463e+01
0	 9.749999999999998e+00	 6.749999999999997e+00	 1.000380477538460e+01
0	 9.749999999999996e+00	 6.812499999999998e+00	 1.000397131692307e+01
0	 9.749999999999998e+00	 6.875000000000000e+00	 1.000414719999998e+01
0	 9.812499999999998e+00	 6.250000000000000e+00	 1.000229272307693e+01
0	 9.812499999999998e+00	 6.312500000000000e+00	 1.000238021846155e+01
0	 9.812500000000002e+00	 6.374999999999999e+00	 1.000247730461539e+01
0	 9.812499999999998e+00	 6.437499999999999e+00	 1.000258398153846e+01
0	 9.812499999999996e+00	 6.499999999999997e+00	 1.000270024923078e+01
0	 9.812499999999998e+00	 6.562499999999999e+00	 1.000282610769231e+01
0	 9.812499999999998e+00	 6.624999999999998e+00	 1.000296155692307e+01
0	 9.812499999999998e+00	 6.687499999999997e+00	 1.000310659692308e+01
0	 9.812499999999998e+00	 6.749999999999996e+00	 1.000326122769231e+01
0	 9.812499999999998e+00	 6.812499999999998e+00	 1.000342544923075e+01
0	 9.812499999999998e+00	 6.874999999999999e+00	 1.000359926153845e+01
0	 9.874999999999996e+00	 6.250000000000000e+00	 1.000192080000001e+01
0	 9.874999999999998e+00	 6.312500000000000e+00	 1.000199805846154e+01
0	 9.875000000000000e+00	 6.375000000000001e+00	 1.000208515692307e+01
0	 9.874999999999998e+00	 6.437499999999998e+00	 1.000218209538462e+01
0	 9.875000000000000e+00	 6.500000000000000e+00	 1.000228887384616e+01
0	 9.874999999999996e+00	 6.562499999999998e+00	 1.000240549230769e+01
0	 9.874999999999998e+00	 6.624999999999998e+00	 1.000253195076923e+01
0	 9.874999999999998e+00	 6.687499999999997e+00	 1.000266824923077e+01
0	 9.874999999999996e+00	 6.749999999999998e+00	 1.000281438769229e+01
0	 9.874999999999998e+00	 6.812499999999998e+00	 1.000297036615382e+01
0	 9.874999999999996e+00	 6.875000000000000e+00	 1.000313618461536e+01
0	 9.937499999999998e+00	 6.250000000000000e+00	 1.000169296923077e+01
0	 9.937499999999998e+00	 6.312500000000001e+00	 1.000175406769231e+01
0	 9.937499999999998e+00	 6.374999999999999e+00	 1.000182525538462e+01
0	 9.937499999999998e+00	 6.437499999999999e+00	 1.000190653230769e+01
0	 9.937499999999998e+00	 6.500000000000000e+00	 1.000199789846152e+01
0	 9.937499999999996e+00	 6.562499999999999e+00	 1.000209935384614e+01
0	 9.937499999999998e+00	 6.625000000000000e+00	 1.000221089846152e+01
0	 9.937499999999998e+00	 6.687499999999998e+00	 1.000233253230769e+01
0	 9.937499999999998e+00	 6.749999999999999e+00	 1.000246425538462e+01
0	 9.937499999999998e+00	 6.812499999999998e+00	 1.000260606769232e+01
0	 9.937499999999998e+00	 6.875000000000000e+00	 1.000275796923077e+01
0	 1.000000000000000e+01	 6.250000000000000e+00	 1.000160923076924e+01
0	 1.000000000000000e+01	 6.312500000000001e+00	 1.000164824615385e+01
0	 1.000000000000000e+01	 6.374999999999999e+00	 1.000169760000000e+01
0	 1.000000000000000e+01	 6.437499999999999e+00	 1.000175729230769e+01
0	 1.000000000000000e+01	 6.499999999999999e+00	 1.000182732307694e+01
0	 1.000000000000000e+01	 6.562499999999999e+00	 1.000190769230769e+01
0	 9.999999999999998e+00	 6.624999999999998e+00	 1.000199839999998e+01
0	 1.000000000000000e+01	 6.687499999999999e+00	 1.000209944615384e+01
0	 1.000000000000000e+01	 6.749999999999998e+00	 1.000221083076923e+01
0	 1.000000000000000e+01	 6.812499999999998e+00	 1.000233255384614e+01
0	 1.000000000000000e+01	 6.875000000000000e+00	 1.000246461538460e+01
0	 9.375000000000000e+00	 6.875000000000000e+00	 1.000921692307692e+01
0	 9.375000000000000e+00	 6.937500000000000e+00	 1.000897852307693e+01
0	 9.375000000000002e+00	 7.000000000000000e+00	 1.000874363076920e+01
0	 9.374999999999998e+00	 7.062500000000000e+00	 1.000851224615386e+01
0	 9.375000000000002e+00	 7.125000000000000e+00	 1.000828436923075e+01
0	 9.375000000000000e+00	 7.187499999999998e+00	 1.000805999999999e+01
0	 9.375000000000000e+00	 7.249999999999998e+00	 1.000783913846153e+01
0	 9.375000000000000e+00	 7.312499999999998e+00	 1.000762178461537e+01
0	 9.375000000000000e+00	 7.374999999999998e+00	 1.000740793846152e+01
0	 9.375000000000000e+00	 7.437499999999998e+00	 1.000719759999998e+01
0	 9.375000000000000e+00	 7.500000000000000e+00	 1.000699076923076e+01
0	 9.437499999999998e+00	 6.875000000000001e+00	 1.000815981538461e+01
0	 9.437500000000000e+00	 6.937499999999998e+00	 1.000794720461536e+01
0	 9.437500000000000e+00	 7.000000000000001e+00	 1.000773817538462e+01
0	 9.437500000000002e+00	 7.062500000000001e+00	 1.000753272769230e+01
0	 9.437500000000000e+00	 7.124999999999999e+00	 1.000733086153846e+01
0	 9.437499999999998e+00	 7.187499999999998e+00	 1.000713257692307e+01
0	 9.437500000000000e+00	 7.249999999999998e+00	 1.000693787384615e+01
0	 9.437500000000000e+00	 7.312499999999998e+00	 1.000674675230768e+01
0	 9.437500000000002e+00	 7.374999999999999e+00	 1.000655921230768e+01
0	 9.437500000000000e+00	 7.437499999999999e+00	 1.000637525384613e+01
0	 9.437499999999998e+00	 7.500000000000001e+00	 1.000619487692306e+01
0	 9.500000000000000e+00	 6.874999999999999e+00	 1.000718756923074e+01
0	 9.500000000000002e+00	 6.937500000000000e+00	 1.000699465230769e+01
0	 9.500000000000000e+00	 7.000000000000000e+00	 1.000680539076923e+01
0	 9.499999999999998e+00	 7.062500000000000e+00	 1.000661978461538e+01
0	 9.500000000000000e+00	 7.124999999999998e+00	 1.000643783384616e+01
0	 9.499999999999998e+00	 7.187499999999999e+00	 1.000625953846153e+01
0	 9.500000000000000e+00	 7.250000000000000e+00	 1.000608489846153e+01
0	 9.500000000000000e+00	 7.312499999999998e+00	 1.000591391384615e+01
0	 9.500000000000002e+00	 7.374999999999999e+00	 1.000574658461538e+01
0	 9.500000000000000e+00	 7.437499999999998e+00	 1.000558291076923e+01
0	 9.500000000000000e+00	 7.499999999999999e+00	 1.000542289230769e+01
0	 9.562500000000000e+00	 6.874999999999999e+00	 1.000630018461537e+01
0	 9.562500000000000e+00	 6.937500000000001e+00	 1.000612086615384e+01
0	 9.562500000000000e+00	 7.000000000000000e+00	 1.000594527692305e+01
0	 9.562499999999998e+00	 7.062499999999998e+00	 1.000577341692306e+01
0	 9.562500000000002e+00	 7.125000000000000e+00	 1.000560528615383e+01
0	 9.562500000000002e+00	 7.187499999999999e+00	 1.000544088461538e+01
0	 9.562500000000000e+00	 7.250000000000000e+00	 1.000528021230767e+01
0	 9.562500000000000e+00	 7.312500000000001e+00	 1.000512326923075e+01
0	 9.562500000000002e+00	 7.374999999999999e+00	 1.000497005538460e+01
0	 9.562499999999998e+00	 7.437499999999998e+00	 1.000482057076922e+01
0	 9.562500000000000e+00	 7.499999999999999e+00	 1.000467481538463e+01
0	 9.624999999999998e+00	 6.875000000000001e+00	 1.000549766153845e+01
0	 9.624999999999998e+00	 6.937499999999999e+00	 1.000532584615382e+01
0	 9.625000000000000e+00	 7.000000000000001e+00	 1.000515783384615e+01
0	 9.625000000000000e+00	 7.062500000000000e+00	 1.000499362461538e+01
0	 9.624999999999996e+00	 7.124999999999997e+00	 1.000483321846153e+01
0	 9.624999999999998e+00	 7.187499999999996e+00	 1.000467661538461e+01
0	 9.625000000000000e+00	 7.249999999999999e+00	 1.000452381538461e+01
0	 9.625000000000000e+00	 7.312499999999998e+00	 1.000437481846153e+01
0	 9.625000000000000e+00	 7.374999999999999e+00	 1.000422962461538e+01
0	 9.625000000000000e+00	 7.437499999999997e+00	 1.000408823384616e+01
0	 9.624999999999998e+00	 7.500000000000001e+00	 1.000395064615385e+01
0	 9.687499999999998e+00	 6.875000000000001e+00	 1.000478000000001e+01
0	 9.687500000000000e+00	 6.937500000000001e+00	 1.000460959230769e+01
0	 9.687499999999998e+00	 6.999999999999998e+00	 1.000444306153845e+01
0	 9.687500000000000e+00	 7.062500000000000e+00	 1.000428040769231e+01
0	 9.687499999999998e+00	 7.124999999999998e+00	 1.000412163076922e+01
0	 9.687500000000000e+00	 7.187499999999999e+00	 1.000396673076922e+01
0	 9.687500000000000e+00	 7.249999999999998e+00	 1.000381570769230e+01
0	 9.687499999999998e+00	 7.312499999999997e+00	 1.000366856153845e+01
0	 9.687499999999998e+00	 7.374999999999998e+00	 1.000352529230768e+01
0	 9.687499999999998e+00	 7.437499999999997e+00	 1.000338590000000e+01
0	 9.687499999999998e+00	 7.500000000000000e+00	 1.000325038461536e+01
0	 9.749999999999998e+00	 6.875000000000000e+00	 1.000414719999998e+01
0	 9.749999999999996e+00	 6.937499999999999e+00	 1.000397210461539e+01
0	 9.749999999999998e+00	 6.999999999999997e+00	 1.000380096000000e+01
0	 9.749999999999996e+00	 7.062500000000000e+00	 1.000363376615384e+01
0	 9.750000000000000e+00	 7.125000000000000e+00	 1.000347052307692e+01
0	 9.749999999999998e+00	 7.187499999999998e+00	 1.000331123076923e+01
0	 9.749999999999998e+00	 7.249999999999998e+00	 1.000315588923077e+01
0	 9.749999999999998e+00	 7.312499999999998e+00	 1.000300449846153e+01
0	 9.749999999999998e+00	 7.374999999999997e+00	 1.000285705846154e+01
0	 9.749999999999996e+00	 7.437499999999997e+00	 1.000271356923075e+01
0	 9.749999999999998e+00	 7.500000000000001e+00	 1.000257403076924e+01
0	 9.812499999999998e+00	 6.874999999999999e+00	 1.000359926153845e+01
0	 9.812499999999998e+00	 6.937499999999999e+00	 1.000341338307693e+01
0	 9.812500000000002e+00	 7.000000000000000e+00	 1.000323152923076e+01
0	 9.812499999999998e+00	 7.062499999999999e+00	 1.000305370000000e+01
0	 9.812499999999996e+00	 7.124999999999997e+00	 1.000287989538461e+01
0	 9.812499999999998e+00	 7.187499999999998e+00	 1.000271011538462e+01
0	 9.812499999999998e+00	 7.249999999999998e+00	 1.000254435999999e+01
0	 9.812499999999998e+00	 7.312499999999997e+00	 1.000238262923076e+01
0	 9.812499999999998e+00	 7.374999999999997e+00	 1.000222492307693e+01
0	 9.812499999999998e+00	 7.437499999999998e+00	 1.000207124153845e+01
0	 9.812499999999998e+00	 7.500000000000000e+00	 1.000192158461537e+01
0	 9.874999999999996e+00	 6.875000000000000e+00	 1.000313618461536e+01
0	 9.874999999999998e+00	 6.937499999999999e+00	 1.000293342769230e+01
0	 9.875000000000000e+00	 7.000000000000000e+00	 1.000273476923077e+01
0	 9.874999999999998e+00	 7.062499999999999e+00	 1.000254020923077e+01
0	 9.875000000000000e+00	 7.124999999999999e+00	 1.000234974769232e+01
0	 9.874999999999996e+00	 7.187499999999996e+00	 1.000216338461538e+01
0	 9.874999999999998e+00	 7.249999999999998e+00	 1.000198111999999e+01
0	 9.874999999999998e+00	 7.312499999999998e+00	 1.000180295384614e+01
0	 9.874999999999996e+00	 7.374999999999999e+00	 1.000162888615386e+01
0	 9.874999999999998e+00	 7.437499999999997e+00	 1.000145891692307e+01
0	 9.874999999999996e+00	 7.500000000000000e+00	 1.000129304615383e+01
0	 9.937499999999998e+00	 6.875000000000000e+00	 1.000275796923077e+01
0	 9.937499999999998e+00	 6.937500000000000e+00	 1.000253223846153e+01
0	 9.937499999999998e+00	 7.000000000000000e+00	 1.000231067999999e+01
0	 9.937499999999998e+00	 7.062499999999999e+00	 1.000209329384615e+01
0	 9.937499999999998e+00	 7.125000000000000e+00	 1.000188007999998e+01
0	 9.937499999999996e+00	 7.187499999999999e+00	 1.000167103846153e+01
0	 9.937499999999998e+00	 7.249999999999998e+00	 1.000146616923076e+01
0	 9.937499999999998e+00	 7.312499999999999e+00	 1.000126547230768e+01
0	 9.937499999999998e+00	 7.374999999999999e+00	 1.000106894769229e+01
0	 9.937499999999998e+00	 7.437499999999998e+00	 1.000087659538462e+01
0	 9.937499999999998e+00	 7.500000000000000e+00	 1.000068841538460e+01
0	 1.000000000000000e+01	 6.875000000000000e+00	 1.000246461538460e+01
0	 1.000000000000000e+01	 6.937500000000000e+00	 1.000220981538460e+01
0	 1.000000000000000e+01	 6.999999999999999e+00	 1.000195926153844e+01
0	 1.000000000000000e+01	 7.062499999999999e+00	 1.000171295384616e+01
0	 1.000000000000000e+01	 7.125000000000000e+00	 1.000147089230768e+01
0	 1.000000000000000e+01	 7.187499999999998e+00	 1.000123307692307e+01
0	 9.999999999999998e+00	 7.249999999999999e+00	 1.000099950769232e+01
0	 1.000000000000000e+01	 7.312499999999999e+00	 1.000077018461537e+01
0	 1.000000000000000e+01	 7.374999999999998e+00	 1.000054510769233e+01
0	 1.000000000000000e+01	 7.437499999999998e+00	 1.000032427692305e+01
0	 1.000000000000000e+01	 7.500000000000000e+00	 1.000010769230769e+01
0	 9.375000000000000e+00	 7.500000000000000e+00	 1.000699076923076e+01
0	 9.375000000000000e+00	 7.562500000000000e+00	 1.000669041538459e+01
0	 9.375000000000002e+00	 7.625000000000000e+00	 1.000638904615385e+01
0	 9.374999999999998e+00	 7.687499999999999e+00	 1.000608666153845e+01
0	 9.375000000000002e+00	 7.750000000000000e+00	 1.000578326153847e+01
0	 9.375000000000000e+00	 7.812499999999999e+00	 1.000547884615383e+01
0	 9.375000000000000e+00	 7.874999999999998e+00	 1.000517341538461e+01
0	 9.375000000000000e+00	 7.937499999999997e+00	 1.000486696923076e+01
0	 9.375000000000000e+00	 7.999999999999998e+00	 1.000455950769231e+01
0	 9.375000000000000e+00	 8.062499999999996e+00	 1.000425103076923e+01
0	 9.375000000000000e+00	 8.125000000000000e+00	 1.000394153846154e+01
0	 9.437499999999998e+00	 7.500000000000001e+00	 1.000619487692306e+01
0	 9.437500000000000e+00	 7.562500000000000e+00	 1.000591859692306e+01
0	 9.437500000000000e+00	 7.624999999999998e+00	 1.000564129230770e+01
0	 9.437500000000002e+00	 7.687500000000000e+00	 1.000536296307691e+01
0	 9.437500000000000e+00	 7.750000000000001e+00	 1.000508360923075e+01
0	 9.437499999999998e+00	 7.812500000000000e+00	 1.000480323076923e+01
0	 9.437500000000000e+00	 7.874999999999999e+00	 1.000452182769230e+01
0	 9.437500000000000e+00	 7.937499999999997e+00	 1.000423940000001e+01
0	 9.437500000000002e+00	 7.999999999999999e+00	 1.000395594769231e+01
0	 9.437500000000000e+00	 8.062499999999998e+00	 1.000367147076923e+01
0	 9.437499999999998e+00	 8.124999999999998e+00	 1.000338596923076e+01
0	 9.500000000000000e+00	 7.499999999999999e+00	 1.000542289230769e+01
0	 9.500000000000002e+00	 7.562500000000000e+00	 1.000516579692305e+01
0	 9.500000000000000e+00	 7.625000000000000e+00	 1.000490766769230e+01
0	 9.499999999999998e+00	 7.687499999999999e+00	 1.000464850461536e+01
0	 9.500000000000000e+00	 7.749999999999999e+00	 1.000438830769230e+01
0	 9.499999999999998e+00	 7.812499999999999e+00	 1.000412707692308e+01
0	 9.500000000000000e+00	 7.874999999999998e+00	 1.000386481230768e+01
0	 9.500000000000000e+00	 7.937499999999998e+00	 1.000360151384614e+01
0	 9.500000000000002e+00	 7.999999999999999e+00	 1.000333718153845e+01
0	 9.500000000000000e+00	 8.062499999999998e+00	 1.000307181538461e+01
0	 9.500000000000000e+00	 8.125000000000000e+00	 1.000280541538460e+01
0	 9.562500000000000e+00	 7.499999999999999e+00	 1.000467481538463e+01
0	 9.562500000000000e+00	 7.562500000000000e+00	 1.000443201538460e+01
0	 9.562500000000000e+00	 7.624999999999999e+00	 1.000418817230768e+01
0	 9.562499999999998e+00	 7.687499999999999e+00	 1.000394328615384e+01
0	 9.562500000000002e+00	 7.749999999999999e+00	 1.000369735692306e+01
0	 9.562500000000002e+00	 7.812500000000000e+00	 1.000345038461537e+01
0	 9.562500000000000e+00	 7.875000000000000e+00	 1.000320236923076e+01
0	 9.562500000000000e+00	 7.937499999999999e+00	 1.000295331076922e+01
0	 9.562500000000002e+00	 7.999999999999999e+00	 1.000270320923077e+01
0	 9.562499999999998e+00	 8.062499999999998e+00	 1.000245206461537e+01
0	 9.562500000000000e+00	 8.124999999999998e+00	 1.000219987692304e+01
0	 9.624999999999998e+00	 7.500000000000001e+00	 1.000395064615385e+01
0	 9.624999999999998e+00	 7.562499999999999e+00	 1.000371725230768e+01
0	 9.625000000000000e+00	 7.624999999999999e+00	 1.000348280615385e+01
0	 9.625000000000000e+00	 7.687499999999999e+00	 1.000324730769229e+01
0	 9.624999999999996e+00	 7.749999999999998e+00	 1.000301075692305e+01
0	 9.624999999999998e+00	 7.812499999999998e+00	 1.000277315384615e+01
0	 9.625000000000000e+00	 7.874999999999999e+00	 1.000253449846153e+01
0	 9.625000000000000e+00	 7.937499999999999e+00	 1.000229479076923e+01
0	 9.625000000000000e+00	 8.000000000000000e+00	 1.000205403076922e+01
0	 9.625000000000000e+00	 8.062499999999998e+00	 1.000181221846153e+01
0	 9.624999999999998e+00	 8.125000000000000e+00	 1.000156935384613e+01
0	 9.687499999999998e+00	 7.500000000000000e+00	 1.000325038461536e+01
0	 9.687500000000000e+00	 7.562500000000001e+00	 1.000302150769230e+01
0	 9.687499999999998e+00	 7.624999999999999e+00	 1.000279156923077e+01
0	 9.687500000000000e+00	 7.687500000000000e+00	 1.000256056923078e+01
0	 9.687499999999998e+00	 7.749999999999997e+00	 1.000232850769229e+01
0	 9.687500000000000e+00	 7.812499999999999e+00	 1.000209538461538e+01
0	 9.687500000000000e+00	 7.874999999999999e+00	 1.000186119999999e+01
0	 9.687499999999998e+00	 7.937499999999999e+00	 1.000162595384616e+01
0	 9.687499999999998e+00	 7.999999999999998e+00	 1.000138964615383e+01
0	 9.687499999999998e+00	 8.062499999999998e+00	 1.000115227692306e+01
0	 9.687499999999998e+00	 8.125000000000000e+00	 1.000091384615384e+01
0	 9.749999999999998e+00	 7.500000000000001e+00	 1.000257403076924e+01
0	 9.749999999999996e+00	 7.562500000000000e+00	 1.000234478153846e+01
0	 9.749999999999998e+00	 7.624999999999998e+00	 1.000211446153844e+01
0	 9.749999999999996e+00	 7.687499999999999e+00	 1.000188307076922e+01
0	 9.750000000000000e+00	 7.750000000000000e+00	 1.000165060923077e+01
0	 9.749999999999998e+00	 7.812499999999999e+00	 1.000141707692306e+01
0	 9.749999999999998e+00	 7.874999999999999e+00	 1.000118247384617e+01
0	 9.749999999999998e+00	 7.937499999999998e+00	 1.000094679999999e+01
0	 9.749999999999998e+00	 7.999999999999997e+00	 1.000071005538462e+01
0	 9.749999999999996e+00	 8.062499999999998e+00	 1.000047224000000e+01
0	 9.749999999999998e+00	 8.125000000000000e+00	 1.000023335384613e+01
0	 9.812499999999998e+00	 7.500000000000000e+00	 1.000192158461537e+01
0	 9.812499999999998e+00	 7.562500000000000e+00	 1.000168707384615e+01
0	 9.812500000000002e+00	 7.625000000000000e+00	 1.000145148307692e+01
0	 9.812499999999998e+00	 7.687499999999998e+00	 1.000121481230769e+01
0	 9.812499999999996e+00	 7.749999999999997e+00	 1.000097706153846e+01
0	 9.812499999999998e+00	 7.812499999999999e+00	 1.000073823076924e+01
0	 9.812499999999998e+00	 7.874999999999998e+00	 1.000049831999999e+01
0	 9.812499999999998e+00	 7.937499999999998e+00	 1.000025732923078e+01
0	 9.812499999999998e+00	 7.999999999999996e+00	 1.000001525846154e+01
0	 9.812499999999998e+00	 8.062499999999996e+00	 9.999772107692305e+00
0	 9.812499999999998e+00	 8.125000000000000e+00	 9.999527876923089e+00
0	 9.874999999999996e+00	 7.500000000000000e+00	 1.000129304615383e+01
0	 9.874999999999998e+00	 7.562499999999999e+00	 1.000104838461536e+01
0	 9.875000000000000e+00	 7.625000000000001e+00	 1.000080263384615e+01
0	 9.874999999999998e+00	 7.687499999999998e+00	 1.000055579384614e+01
0	 9.875000000000000e+00	 7.749999999999999e+00	 1.000030786461540e+01
0	 9.874999999999996e+00	 7.812499999999997e+00	 1.000005884615385e+01
0	 9.874999999999998e+00	 7.874999999999998e+00	 9.999808738461526e+00
0	 9.874999999999998e+00	 7.937499999999998e+00	 9.999557541538467e+00
0	 9.874999999999996e+00	 7.999999999999999e+00	 9.999305255384606e+00
0	 9.874999999999998e+00	 8.062499999999998e+00	 9.999051880000007e+00
0	 9.874999999999996e+00	 8.125000000000000e+00	 9.998797415384608e+00
0	 9.937499999999998e+00	 7.500000000000000e+00	 1.000068841538460e+01
0	 9.937499999999998e+00	 7.562500000000001e+00	 1.000042871384613e+01
0	 9.937499999999998e+00	 7.624999999999999e+00	 1.000016791384613e+01
0	 9.937499999999998e+00	 7.687499999999999e+00	 9.999906015384612e+00
0	 9.937499999999998e+00	 7.750000000000000e+00	 9.999643018461519e+00
0	 9.937499999999996e+00	 7.812499999999999e+00	 9.999378923076918e+00
0	 9.937499999999998e+00	 7.874999999999999e+00	 9.999113729230736e+00
0	 9.937499999999998e+00	 7.937499999999999e+00	 9.998847436923093e+00
0	 9.937499999999998e+00	 7.999999999999999e+00	 9.998580046153835e+00
0	 9.937499999999998e+00	 8.062499999999998e+00	 9.998311556923078e+00
0	 9.937499999999998e+00	 8.125000000000000e+00	 9.998041969230773e+00
0	 1.000000000000000e+01	 7.500000000000000e+00	 1.000010769230769e+01
0	 1.000000000000000e+01	 7.562500000000001e+00	 9.999828061538468e+00
0	 1.000000000000000e+01	 7.624999999999999e+00	 9.999547323076918e+00
0	 1.000000000000000e+01	 7.687499999999999e+00	 9.999265476923082e+00
0	 1.000000000000000e+01	 7.750000000000000e+00	 9.998982523076924e+00
0	 1.000000000000000e+01	 7.812499999999998e+00	 9.998698461538455e+00
0	 9.999999999999998e+00	 7.874999999999999e+00	 9.998413292307680e+00
0	 1.000000000000000e+01	 7.937499999999998e+00	 9.998127015384599e+00
0	 1.000000000000000e+01	 7.999999999999998e+00	 9.997839630769231e+00
0	 1.000000000000000e+01	 8.062499999999996e+00	 9.997551138461505e+00
0	 1.000000000000000e+01	 8.125000000000000e+00	 9.997261538461533e+00
0	 9.375000000000000e+00	 8.125000000000000e+00	 1.000394153846154e+01
0	 9.375000000000000e+00	 8.187500000000000e+00	 1.000370232307692e+01
0	 9.375000000000002e+00	 8.250000000000002e+00	 1.000345821538460e+01
0	 9.374999999999998e+00	 8.312500000000000e+00	 1.000320921538462e+01
0	 9.375000000000002e+00	 8.374999999999998e+00	 1.000295532307693e+01
0	 9.375000000000000e+00	 8.437500000000000e+00	 1.000269653846154e+01
0	 9.375000000000000e+00	 8.500000000000000e+00	 1.000243286153846e+01
0	 9.375000000000000e+00	 8.562499999999998e+00	 1.000216429230770e+01
0	 9.375000000000000e+00	 8.625000000000000e+00	 1.000189083076923e+01
0	 9.375000000000000e+00	 8.687499999999998e+00	 1.000161247692307e+01
0	 9.375000000000000e+00	 8.750000000000000e+00	 1.000132923076924e+01
0	 9.437499999999998e+00	 8.124999999999998e+00	 1.000338596923076e+01
0	 9.437500000000000e+00	 8.187500000000000e+00	 1.000317138769231e+01
0	 9.437500000000000e+00	 8.250000000000000e+00	 1.000295195999998e+01
0	 9.437500000000002e+00	 8.312500000000000e+00	 1.000272768615384e+01
0	 9.437500000000000e+00	 8.374999999999998e+00	 1.000249856615385e+01
0	 9.437499999999998e+00	 8.437499999999998e+00	 1.000226460000000e+01
0	 9.437500000000000e+00	 8.499999999999998e+00	 1.000202578769231e+01
0	 9.437500000000000e+00	 8.562499999999998e+00	 1.000178212923077e+01
0	 9.437500000000002e+00	 8.625000000000000e+00	 1.000153362461539e+01
0	 9.437500000000000e+00	 8.687499999999996e+00	 1.000128027384616e+01
0	 9.437499999999998e+00	 8.750000000000000e+00	 1.000102207692308e+01
0	 9.500000000000000e+00	 8.125000000000000e+00	 1.000280541538460e+01
0	 9.500000000000002e+00	 8.187500000000000e+00	 1.000261355076923e+01
0	 9.500000000000000e+00	 8.249999999999998e+00	 1.000241688615385e+01
0	 9.499999999999998e+00	 8.312500000000002e+00	 1.000221542153847e+01
0	 9.500000000000000e+00	 8.375000000000002e+00	 1.000200915692308e+01
0	 9.499999999999998e+00	 8.437500000000000e+00	 1.000179809230770e+01
0	 9.500000000000000e+00	 8.500000000000000e+00	 1.000158222769231e+01
0	 9.500000000000000e+00	 8.562499999999998e+00	 1.000136156307691e+01
0	 9.500000000000002e+00	 8.624999999999998e+00	 1.000113609846155e+01
0	 9.500000000000000e+00	 8.687499999999998e+00	 1.000090583384615e+01
0	 9.500000000000000e+00	 8.750000000000000e+00	 1.000067076923079e+01
0	 9.562500000000000e+00	 8.124999999999998e+00	 1.000219987692304e+01
0	 9.562500000000000e+00	 8.187500000000000e+00	 1.000202881230769e+01
0	 9.562500000000000e+00	 8.250000000000000e+00	 1.000185299384614e+01
0	 9.562499999999998e+00	 8.312499999999998e+00	 1.000167242153847e+01
0	 9.562500000000002e+00	 8.375000000000000e+00	 1.000148709538461e+01
0	 9.562500000000002e+00	 8.437499999999998e+00	 1.000129701538461e+01
0	 9.562500000000000e+00	 8.500000000000000e+00	 1.000110218153845e+01
0	 9.562500000000000e+00	 8.562499999999998e+00	 1.000090259384615e+01
0	 9.562500000000002e+00	 8.624999999999998e+00	 1.000069825230770e+01
0	 9.562499999999998e+00	 8.687499999999996e+00	 1.000048915692308e+01
0	 9.562500000000000e+00	 8.749999999999998e+00	 1.000027530769233e+01
0	 9.624999999999998e+00	 8.125000000000000e+00	 1.000156935384613e+01
0	 9.624999999999998e+00	 8.187499999999998e+00	 1.000141717230769e+01
0	 9.625000000000000e+00	 8.250000000000000e+00	 1.000126028307691e+01
0	 9.625000000000000e+00	 8.312500000000000e+00	 1.000109868615385e+01
0	 9.624999999999996e+00	 8.374999999999996e+00	 1.000093238153845e+01
0	 9.624999999999998e+00	 8.437499999999996e+00	 1.000076136923077e+01
0	 9.625000000000000e+00	 8.499999999999998e+00	 1.000058564923077e+01
0	 9.625000000000000e+00	 8.562499999999998e+00	 1.000040522153848e+01
0	 9.625000000000000e+00	 8.624999999999998e+00	 1.000022008615384e+01
0	 9.625000000000000e+00	 8.687499999999998e+00	 1.000003024307692e+01
0	 9.624999999999998e+00	 8.750000000000000e+00	 9.999835692307695e+00
0	 9.687499999999998e+00	 8.125000000000000e+00	 1.000091384615384e+01
0	 9.687500000000000e+00	 8.187500000000002e+00	 1.000077863076920e+01
0	 9.687499999999998e+00	 8.250000000000000e+00	 1.000063875384618e+01
0	 9.687500000000000e+00	 8.312500000000000e+00	 1.000049421538462e+01
0	 9.687499999999998e+00	 8.374999999999998e+00	 1.000034501538462e+01
0	 9.687500000000000e+00	 8.437500000000000e+00	 1.000019115384617e+01
0	 9.687500000000000e+00	 8.500000000000000e+00	 1.000003263076923e+01
0	 9.687499999999998e+00	 8.562499999999998e+00	 9.999869446153832e+00
0	 9.687499999999998e+00	 8.624999999999998e+00	 9.999701600000027e+00
0	 9.687499999999998e+00	 8.687499999999996e+00	 9.999529092307672e+00
0	 9.687499999999998e+00	 8.750000000000000e+00	 9.999351923076929e+00
0	 9.749999999999998e+00	 8.125000000000000e+00	 1.000023335384613e+01
0	 9.749999999999996e+00	 8.187500000000000e+00	 1.000011318769231e+01
0	 9.749999999999998e+00	 8.249999999999998e+00	 9.999988406153838e+00
0	 9.749999999999996e+00	 8.312499999999998e+00	 9.999859009230772e+00
0	 9.750000000000000e+00	 8.375000000000000e+00	 9.999724996923076e+00
0	 9.749999999999998e+00	 8.437500000000000e+00	 9.999586369230773e+00
0	 9.749999999999998e+00	 8.499999999999998e+00	 9.999443126153853e+00
0	 9.749999999999998e+00	 8.562499999999998e+00	 9.999295267692307e+00
0	 9.749999999999998e+00	 8.624999999999998e+00	 9.999142793846158e+00
0	 9.749999999999996e+00	 8.687499999999998e+00	 9.998985704615382e+00
0	 9.749999999999998e+00	 8.750000000000000e+00	 9.998824000000020e+00
0	 9.812499999999998e+00	 8.125000000000000e+00	 9.999527876923089e+00
0	 9.812499999999998e+00	 8.187499999999998e+00	 9.999420843076917e+00
0	 9.812500000000002e+00	 8.250000000000002e+00	 9.999309239999992e+00
0	 9.812499999999998e+00	 8.312500000000000e+00	 9.999193067692300e+00
0	 9.812499999999996e+00	 8.374999999999998e+00	 9.999072326153845e+00
0	 9.812499999999998e+00	 8.437500000000000e+00	 9.998947015384623e+00
0	 9.812499999999998e+00	 8.500000000000000e+00	 9.998817135384620e+00
0	 9.812499999999998e+00	 8.562499999999998e+00	 9.998682686153867e+00
0	 9.812499999999998e+00	 8.624999999999996e+00	 9.998543667692328e+00
0	 9.812499999999998e+00	 8.687499999999998e+00	 9.998400080000016e+00
0	 9.812499999999998e+00	 8.750000000000000e+00	 9.998251923076937e+00
0	 9.874999999999996e+00	 8.125000000000000e+00	 9.998797415384608e+00
0	 9.874999999999998e+00	 8.187500000000000e+00	 9.998701596923059e+00
0	 9.875000000000000e+00	 8.250000000000000e+00	 9.998601255384607e+00
0	 9.874999999999998e+00	 8.312499999999998e+00	 9.998496390769242e+00
0	 9.875000000000000e+00	 8.375000000000000e+00	 9.998387003076948e+00
0	 9.874999999999996e+00	 8.437499999999996e+00	 9.998273092307720e+00
0	 9.874999999999998e+00	 8.499999999999998e+00	 9.998154658461539e+00
0	 9.874999999999998e+00	 8.562499999999998e+00	 9.998031701538462e+00
0	 9.874999999999996e+00	 8.624999999999998e+00	 9.997904221538469e+00
0	 9.874999999999998e+00	 8.687499999999996e+00	 9.997772218461538e+00
0	 9.874999999999996e+00	 8.750000000000000e+00	 9.997635692307700e+00
0	 9.937499999999998e+00	 8.125000000000000e+00	 9.998041969230773e+00
0	 9.937499999999998e+00	 8.187500000000000e+00	 9.997955449230755e+00
0	 9.937499999999998e+00	 8.249999999999998e+00	 9.997864452307720e+00
0	 9.937499999999998e+00	 8.312500000000000e+00	 9.997768978461519e+00
0	 9.937499999999998e+00	 8.375000000000000e+00	 9.997669027692302e+00
0	 9.937499999999996e+00	 8.437500000000000e+00	 9.997564599999997e+00
0	 9.937499999999998e+00	 8.500000000000000e+00	 9.997455695384609e+00
0	 9.937499999999998e+00	 8.562499999999998e+00	 9.997342313846161e+00
0	 9.937499999999998e+00	 8.624999999999998e+00	 9.997224455384625e+00
0	 9.937499999999998e+00	 8.687499999999998e+00	 9.997102119999985e+00
0	 9.937499999999998e+00	 8.750000000000000e+00	 9.996975307692296e+00
0	 1.000000000000000e+01	 8.125000000000000e+00	 9.997261538461533e+00
0	 1.000000000000000e+01	 8.187500000000000e+00	 9.997182399999971e+00
0	 1.000000000000000e+01	 8.250000000000000e+00	 9.997098830769229e+00
0	 1.000000000000000e+01	 8.312499999999998e+00	 9.997010830769236e+00
0	 1.000000000000000e+01	 8.374999999999998e+00	 9.996918399999990e+00
0	 1.000000000000000e+01	 8.437500000000000e+00	 9.996821538461548e+00
0	 9.999999999999998e+00	 8.500000000000000e+00	 9.996720246153849e+00
0	 1.000000000000000e+01	 8.562500000000000e+00	 9.996614523076921e+00
0	 1.000000000000000e+01	 8.624999999999998e+00	 9.996504369230779e+00
0	 1.000000000000000e+01	 8.687499999999998e+00	 9.996389784615365e+00
0	 1.000000000000000e+01	 8.750000000000000e+00	 9.996270769230765e+00
0	 9.375000000000000e+00	 8.750000000000000e+00	 1.000132923076924e+01
0	 9.375000000000000e+00	 8.812500000000000e+00	 1.000124101538463e+01
0	 9.375000000000002e+00	 8.875000000000002e+00	 1.000114283076925e+01
0	 9.374999999999998e+00	 8.937499999999998e+00	 1.000103467692307e+01
0	 9.375000000000002e+00	 9.000000000000000e+00	 1.000091655384616e+01
0	 9.375000000000000e+00	 9.062500000000000e+00	 1.000078846153845e+01
0	 9.375000000000000e+00	 9.124999999999998e+00	 1.000065039999998e+01
0	 9.375000000000000e+00	 9.187499999999998e+00	 1.000050236923075e+01
0	 9.375000000000000e+00	 9.249999999999998e+00	 1.000034436923077e+01
0	 9.375000000000000e+00	 9.312499999999998e+00	 1.000017639999997e+01
0	 9.375000000000000e+00	 9.375000000000000e+00	 9.999998461538450e+00
0	 9.437499999999998e+00	 8.750000000000000e+00	 1.000102207692308e+01
0	 9.437500000000000e+00	 8.812500000000000e+00	 1.000095257384615e+01
0	 9.437500000000000e+00	 8.874999999999998e+00	 1.000087369230769e+01
0	 9.437500000000002e+00	 8.937500000000002e+00	 1.000078543230769e+01
0	 9.437500000000000e+00	 8.999999999999996e+00	 1.000068779384615e+01
0	 9.437499999999998e+00	 9.062499999999998e+00	 1.000058077692308e+01
0	 9.437500000000000e+00	 9.124999999999998e+00	 1.000046438153846e+01
0	 9.437500000000000e+00	 9.187500000000000e+00	 1.000033860769230e+01
0	 9.437500000000002e+00	 9.249999999999998e+00	 1.000020345538460e+01
0	 9.437500000000000e+00	 9.312499999999998e+00	 1.000005892461535e+01
0	 9.437499999999998e+00	 9.375000000000000e+00	 9.999905015384602e+00
0	 9.500000000000000e+00	 8.750000000000000e+00	 1.000067076923079e+01
0	 9.500000000000002e+00	 8.812500000000000e+00	 1.000062284307691e+01
0	 9.500000000000000e+00	 8.875000000000000e+00	 1.000056612923078e+01
0	 9.499999999999998e+00	 8.937500000000000e+00	 1.000050062769230e+01
0	 9.500000000000000e+00	 9.000000000000000e+00	 1.000042633846153e+01
0	 9.499999999999998e+00	 9.062499999999998e+00	 1.000034326153847e+01
0	 9.500000000000000e+00	 9.124999999999998e+00	 1.000025139692308e+01
0	 9.500000000000000e+00	 9.187499999999996e+00	 1.000015074461539e+01
0	 9.500000000000002e+00	 9.249999999999998e+00	 1.000004130461538e+01
0	 9.500000000000000e+00	 9.312500000000002e+00	 9.999923076923050e+00
0	 9.500000000000000e+00	 9.374999999999998e+00	 9.999796061538449e+00
0	 9.562500000000000e+00	 8.749999999999998e+00	 1.000027530769233e+01
0	 9.562500000000000e+00	 8.812500000000000e+00	 1.000025182307694e+01
0	 9.562500000000000e+00	 8.875000000000000e+00	 1.000022014153847e+01
0	 9.562499999999998e+00	 8.937499999999996e+00	 1.000018026307693e+01
0	 9.562500000000002e+00	 9.000000000000000e+00	 1.000013218769230e+01
0	 9.562500000000002e+00	 9.062500000000000e+00	 1.000007591538461e+01
0	 9.562500000000000e+00	 9.125000000000000e+00	 1.000001144615382e+01
0	 9.562500000000000e+00	 9.187500000000000e+00	 9.999938779999999e+00
0	 9.562500000000002e+00	 9.250000000000000e+00	 9.999857916923066e+00
0	 9.562499999999998e+00	 9.312500000000000e+00	 9.999768856923058e+00
0	 9.562500000000000e+00	 9.374999999999998e+00	 9.999671599999978e+00
0	 9.624999999999998e+00	 8.750000000000000e+00	 9.999835692307695e+00
0	 9.624999999999998e+00	 8.812499999999998e+00	 9.999839513846140e+00
0	 9.625000000000000e+00	 8.875000000000000e+00	 9.999835729230766e+00
0	 9.625000000000000e+00	 8.937500000000000e+00	 9.999824338461559e+00
0	 9.624999999999996e+00	 8.999999999999998e+00	 9.999805341538453e+00
0	 9.624999999999998e+00	 9.062499999999998e+00	 9.999778738461538e+00
0	 9.625000000000000e+00	 9.125000000000000e+00	 9.999744529230753e+00
0	 9.625000000000000e+00	 9.187499999999998e+00	 9.999702713846156e+00
0	 9.625000000000000e+00	 9.250000000000000e+00	 9.999653292307691e+00
0	 9.625000000000000e+00	 9.312500000000000e+00	 9.999596264615370e+00
0	 9.624999999999998e+00	 9.375000000000002e+00	 9.999531630769230e+00
0	 9.687499999999998e+00	 8.750000000000000e+00	 9.999351923076929e+00
0	 9.687500000000000e+00	 8.812500000000002e+00	 9.999385915384643e+00
0	 9.687499999999998e+00	 8.874999999999998e+00	 9.999412892307706e+00
0	 9.687500000000000e+00	 8.937500000000000e+00	 9.999432853846161e+00
0	 9.687499999999998e+00	 8.999999999999998e+00	 9.999445800000004e+00
0	 9.687500000000000e+00	 9.062500000000000e+00	 9.999451730769236e+00
0	 9.687500000000000e+00	 9.124999999999998e+00	 9.999450646153845e+00
0	 9.687499999999998e+00	 9.187500000000000e+00	 9.999442546153842e+00
0	 9.687499999999998e+00	 9.250000000000000e+00	 9.999427430769225e+00
0	 9.687499999999998e+00	 9.312499999999996e+00	 9.999405299999998e+00
0	 9.687499999999998e+00	 9.375000000000000e+00	 9.999376153846123e+00
0	 9.749999999999998e+00	 8.750000000000000e+00	 9.998824000000020e+00
0	 9.749999999999996e+00	 8.812500000000000e+00	 9.998891027692302e+00
0	 9.749999999999998e+00	 8.874999999999998e+00	 9.998951630769225e+00
0	 9.749999999999996e+00	 8.937499999999998e+00	 9.999005809230761e+00
0	 9.750000000000000e+00	 9.000000000000000e+00	 9.999053563076913e+00
0	 9.749999999999998e+00	 9.062500000000000e+00	 9.999094892307697e+00
0	 9.749999999999998e+00	 9.125000000000000e+00	 9.999129796923077e+00
0	 9.749999999999998e+00	 9.187499999999998e+00	 9.999158276923058e+00
0	 9.749999999999998e+00	 9.249999999999998e+00	 9.999180332307677e+00
0	 9.749999999999996e+00	 9.312499999999998e+00	 9.999195963076902e+00
0	 9.749999999999998e+00	 9.375000000000000e+00	 9.999205169230748e+00
0	 9.812499999999998e+00	 8.750000000000000e+00	 9.998251923076937e+00
0	 9.812499999999998e+00	 8.812500000000000e+00	 9.998354850769255e+00
0	 9.812500000000002e+00	 8.875000000000002e+00	 9.998451944615399e+00
0	 9.812499999999998e+00	 8.937499999999998e+00	 9.998543204615398e+00
0	 9.812499999999996e+00	 8.999999999999996e+00	 9.998628630769254e+00
0	 9.812499999999998e+00	 9.062499999999998e+00	 9.998708223076921e+00
0	 9.812499999999998e+00	 9.124999999999998e+00	 9.998781981538455e+00
0	 9.812499999999998e+00	 9.187499999999996e+00	 9.998849906153838e+00
0	 9.812499999999998e+00	 9.249999999999996e+00	 9.998911996923084e+00
0	 9.812499999999998e+00	 9.312499999999998e+00	 9.998968253846163e+00
0	 9.812499999999998e+00	 9.375000000000000e+00	 9.999018676923038e+00
0	 9.874999999999996e+00	 8.750000000000000e+00	 9.997635692307700e+00
0	 9.874999999999998e+00	 8.812500000000000e+00	 9.997777384615384e+00
0	 9.875000000000000e+00	 8.875000000000002e+00	 9.997913833846169e+00
0	 9.874999999999998e+00	 8.937500000000000e+00	 9.998045039999990e+00
0	 9.875000000000000e+00	 9.000000000000000e+00	 9.998171003076942e+00
0	 9.874999999999996e+00	 9.062499999999998e+00	 9.998291723076962e+00
0	 9.874999999999998e+00	 9.124999999999998e+00	 9.998407199999999e+00
0	 9.874999999999998e+00	 9.187499999999998e+00	 9.998517433846168e+00
0	 9.874999999999996e+00	 9.249999999999998e+00	 9.998622424615387e+00
0	 9.874999999999998e+00	 9.312499999999996e+00	 9.998722172307691e+00
0	 9.874999999999996e+00	 9.375000000000000e+00	 9.998816676923081e+00
0	 9.937499999999998e+00	 8.750000000000000e+00	 9.996975307692296e+00
0	 9.937499999999998e+00	 8.812500000000000e+00	 9.997158629230780e+00
0	 9.937499999999998e+00	 8.875000000000000e+00	 9.997337298461529e+00
0	 9.937499999999998e+00	 8.937500000000000e+00	 9.997511315384621e+00
0	 9.937499999999998e+00	 9.000000000000000e+00	 9.997680679999988e+00
0	 9.937499999999996e+00	 9.062499999999998e+00	 9.997845392307692e+00
0	 9.937499999999998e+00	 9.125000000000000e+00	 9.998005452307691e+00
0	 9.937499999999998e+00	 9.187499999999998e+00	 9.998160860000011e+00
0	 9.937499999999998e+00	 9.250000000000000e+00	 9.998311615384623e+00
0	 9.937499999999998e+00	 9.312499999999998e+00	 9.998457718461541e+00
0	 9.937499999999998e+00	 9.375000000000000e+00	 9.998599169230754e+00
0	 1.000000000000000e+01	 8.750000000000000e+00	 9.996270769230765e+00
0	 1.000000000000000e+01	 8.812500000000002e+00	 9.996498584615372e+00
0	 1.000000000000000e+01	 8.875000000000000e+00	 9.996722338461568e+00
0	 1.000000000000000e+01	 8.937499999999998e+00	 9.996942030769251e+00
0	 1.000000000000000e+01	 9.000000000000000e+00	 9.997157661538491e+00
0	 1.000000000000000e+01	 9.062499999999998e+00	 9.997369230769243e+00
0	 9.999999999999998e+00	 9.124999999999998e+00	 9.997576738461518e+00
0	 1.000000000000000e+01	 9.187500000000000e+00	 9.997780184615364e+00
0	 1.000000000000000e+01	 9.249999999999998e+00	 9.997979569230784e+00
0	 1.000000000000000e+01	 9.312499999999998e+00	 9.998174892307700e+00
0	 1.000000000000000e+01	 9.375000000000000e+00	 9.998366153846156e+00
0	 9.375000000000000e+00	 9.375000000000000e+00	 9.999998461538450e+00
0	 9.375000000000000e+00	 9.437499999999998e+00	 1.000001973846151e+01
0	 9.374999999999998e+00	 9.500000000000000e+00	 1.000003372307691e+01
0	 9.374999999999998e+00	 9.562500000000000e+00	 1.000004041538462e+01
0	 9.375000000000002e+00	 9.625000000000000e+00	 1.000003981538463e+01
0	 9.375000000000000e+00	 9.687499999999998e+00	 1.000003192307693e+01
0	 9.375000000000000e+00	 9.749999999999998e+00	 1.000001673846154e+01
0	 9.375000000000000e+00	 9.812500000000000e+00	 9.999994261538514e+00
0	 9.375000000000002e+00	 9.875000000000000e+00	 9.999964492307708e+00
0	 9.375000000000000e+00	 9.937499999999998e+00	 9.999927430769247e+00
0	 9.375000000000000e+00	 1.000000000000000e+01	 9.999883076923107e+00
0	 9.437499999999998e+00	 9.375000000000000e+00	 9.999905015384602e+00
0	 9.437500000000002e+00	 9.437500000000000e+00	 9.999928026153839e+00
0	 9.437500000000002e+00	 9.500000000000000e+00	 9.999945193846139e+00
0	 9.437500000000002e+00	 9.562500000000000e+00	 9.999956518461529e+00
0	 9.437500000000000e+00	 9.624999999999998e+00	 9.999962000000021e+00
0	 9.437500000000002e+00	 9.687500000000004e+00	 9.999961638461551e+00
0	 9.437500000000000e+00	 9.750000000000000e+00	 9.999955433846139e+00
0	 9.437500000000000e+00	 9.812499999999998e+00	 9.999943386153877e+00
0	 9.437500000000000e+00	 9.874999999999998e+00	 9.999925495384636e+00
0	 9.437500000000004e+00	 9.937500000000000e+00	 9.999901761538460e+00
0	 9.437500000000002e+00	 1.000000000000000e+01	 9.999872184615358e+00
0	 9.500000000000000e+00	 9.374999999999998e+00	 9.999796061538449e+00
0	 9.500000000000000e+00	 9.437500000000002e+00	 9.999823993846142e+00
0	 9.500000000000002e+00	 9.500000000000000e+00	 9.999847532307694e+00
0	 9.500000000000000e+00	 9.562500000000000e+00	 9.999866676923059e+00
0	 9.499999999999998e+00	 9.624999999999998e+00	 9.999881427692321e+00
0	 9.499999999999998e+00	 9.687499999999996e+00	 9.999891784615393e+00
0	 9.500000000000002e+00	 9.750000000000002e+00	 9.999897747692302e+00
0	 9.500000000000002e+00	 9.812500000000002e+00	 9.999899316923100e+00
0	 9.500000000000004e+00	 9.875000000000000e+00	 9.999896492307691e+00
0	 9.500000000000000e+00	 9.937499999999996e+00	 9.999889273846197e+00
0	 9.500000000000000e+00	 1.000000000000000e+01	 9.999877661538441e+00
0	 9.562500000000000e+00	 9.374999999999998e+00	 9.999671599999978e+00
0	 9.562500000000000e+00	 9.437500000000000e+00	 9.999707641538429e+00
0	 9.562499999999998e+00	 9.500000000000002e+00	 9.999740738461522e+00
0	 9.562500000000002e+00	 9.562500000000002e+00	 9.999770890769213e+00
0	 9.562500000000000e+00	 9.625000000000002e+00	 9.999798098461541e+00
0	 9.562500000000000e+00	 9.687499999999998e+00	 9.999822361538474e+00
0	 9.562500000000002e+00	 9.750000000000002e+00	 9.999843679999998e+00
0	 9.562500000000000e+00	 9.812500000000000e+00	 9.999862053846183e+00
0	 9.562499999999998e+00	 9.874999999999996e+00	 9.999877483076931e+00
0	 9.562500000000000e+00	 9.937499999999996e+00	 9.999889967692326e+00
0	 9.562499999999998e+00	 9.999999999999998e+00	 9.999899507692293e+00
0	 9.624999999999998e+00	 9.375000000000002e+00	 9.999531630769230e+00
0	 9.624999999999998e+00	 9.437500000000000e+00	 9.999578969230747e+00
0	 9.624999999999998e+00	 9.499999999999998e+00	 9.999624812307687e+00
0	 9.625000000000002e+00	 9.562500000000000e+00	 9.999669159999973e+00
0	 9.625000000000000e+00	 9.625000000000000e+00	 9.999712012307683e+00
0	 9.625000000000000e+00	 9.687500000000002e+00	 9.999753369230769e+00
0	 9.624999999999998e+00	 9.750000000000000e+00	 9.999793230769198e+00
0	 9.625000000000000e+00	 9.812499999999998e+00	 9.999831596923061e+00
0	 9.624999999999998e+00	 9.874999999999996e+00	 9.999868467692306e+00
0	 9.625000000000000e+00	 9.937500000000000e+00	 9.999903843076948e+00
0	 9.625000000000000e+00	 1.000000000000000e+01	 9.999937723076965e+00
0	 9.687499999999998e+00	 9.375000000000000e+00	 9.999376153846123e+00
0	 9.687500000000000e+00	 9.437500000000002e+00	 9.999437976923078e+00
0	 9.687499999999996e+00	 9.499999999999998e+00	 9.999499753846116e+00
0	 9.687499999999996e+00	 9.562499999999998e+00	 9.999561484615400e+00
0	 9.687500000000002e+00	 9.625000000000000e+00	 9.999623169230761e+00
0	 9.687499999999998e+00	 9.687499999999998e+00	 9.999684807692306e+00
0	 9.687500000000000e+00	 9.749999999999998e+00	 9.999746399999999e+00
0	 9.687499999999998e+00	 9.812499999999998e+00	 9.999807946153883e+00
0	 9.687499999999996e+00	 9.874999999999996e+00	 9.999869446153866e+00
0	 9.687499999999998e+00	 9.937499999999996e+00	 9.999930899999995e+00
0	 9.687500000000000e+00	 1.000000000000000e+01	 9.999992307692366e+00
0	 9.749999999999998e+00	 9.375000000000000e+00	 9.999205169230748e+00
0	 9.750000000000000e+00	 9.437500000000000e+00	 9.999284664615352e+00
0	 9.750000000000002e+00	 9.500000000000002e+00	 9.999365563076923e+00
0	 9.749999999999996e+00	 9.562500000000000e+00	 9.999447864615371e+00
0	 9.749999999999998e+00	 9.624999999999996e+00	 9.999531569230744e+00
0	 9.750000000000000e+00	 9.687500000000000e+00	 9.999616676923088e+00
0	 9.750000000000000e+00	 9.749999999999998e+00	 9.999703187692292e+00
0	 9.750000000000000e+00	 9.812500000000000e+00	 9.999791101538463e+00
0	 9.749999999999998e+00	 9.875000000000000e+00	 9.999880418461537e+00
0	 9.750000000000000e+00	 9.937499999999998e+00	 9.999971138461531e+00
0	 9.749999999999998e+00	 1.000000000000000e+01	 1.000006326153842e+01
0	 9.812499999999998e+00	 9.375000000000000e+00	 9.999018676923038e+00
0	 9.812499999999996e+00	 9.437499999999998e+00	 9.999119032307684e+00
0	 9.812500000000000e+00	 9.500000000000002e+00	 9.999222239999991e+00
0	 9.812499999999998e+00	 9.562499999999998e+00	 9.999328299999966e+00
0	 9.812499999999996e+00	 9.624999999999998e+00	 9.999437212307670e+00
0	 9.812499999999998e+00	 9.687499999999998e+00	 9.999548976923052e+00
0	 9.812500000000000e+00	 9.750000000000002e+00	 9.999663593846137e+00
0	 9.812499999999996e+00	 9.812499999999996e+00	 9.999781063076902e+00
0	 9.812500000000000e+00	 9.874999999999996e+00	 9.999901384615338e+00
0	 9.812499999999998e+00	 9.937500000000000e+00	 1.000002455846151e+01
0	 9.812499999999998e+00	 1.000000000000000e+01	 1.000015058461542e+01
0	 9.874999999999996e+00	 9.375000000000000e+00	 9.998816676923081e+00
0	 9.874999999999996e+00	 9.437499999999998e+00	 9.998941080000005e+00
0	 9.874999999999998e+00	 9.500000000000000e+00	 9.999069784615395e+00
0	 9.875000000000000e+00	 9.562500000000000e+00	 9.999202790769207e+00
0	 9.874999999999998e+00	 9.624999999999998e+00	 9.999340098461538e+00
0	 9.874999999999998e+00	 9.687499999999998e+00	 9.999481707692278e+00
0	 9.874999999999998e+00	 9.750000000000000e+00	 9.999627618461467e+00
0	 9.874999999999998e+00	 9.812499999999998e+00	 9.999777830769235e+00
0	 9.874999999999996e+00	 9.874999999999996e+00	 9.999932344615345e+00
0	 9.874999999999998e+00	 9.937499999999998e+00	 1.000009116000003e+01
0	 9.874999999999998e+00	 1.000000000000000e+01	 1.000025427692305e+01
0	 9.937499999999998e+00	 9.375000000000000e+00	 9.998599169230754e+00
0	 9.937500000000000e+00	 9.437500000000000e+00	 9.998750807692309e+00
0	 9.937499999999996e+00	 9.500000000000000e+00	 9.998908196923086e+00
0	 9.937499999999998e+00	 9.562500000000000e+00	 9.999071336923071e+00
0	 9.937500000000000e+00	 9.625000000000000e+00	 9.999240227692313e+00
0	 9.937499999999996e+00	 9.687499999999998e+00	 9.999414869230741e+00
0	 9.937499999999998e+00	 9.750000000000000e+00	 9.999595261538424e+00
0	 9.937499999999996e+00	 9.812500000000000e+00	 9.999781404615351e+00
0	 9.937499999999998e+00	 9.874999999999998e+00	 9.999973298461542e+00
0	 9.937499999999998e+00	 9.937499999999998e+00	 1.000017094307686e+01
0	 9.937499999999998e+00	 1.000000000000000e+01	 1.000037433846154e+01
0	 1.000000000000000e+01	 9.375000000000000e+00	 9.998366153846156e+00
0	 1.000000000000000e+01	 9.437500000000002e+00	 9.998548215384632e+00
0	 1.000000000000000e+01	 9.500000000000000e+00	 9.998737476923045e+00
0	 9.999999999999998e+00	 9.562499999999998e+00	 9.998933938461519e+00
0	 1.000000000000000e+01	 9.625000000000000e+00	 9.999137599999997e+00
0	 1.000000000000000e+01	 9.687500000000000e+00	 9.999348461538464e+00
0	 1.000000000000000e+01	 9.749999999999998e+00	 9.999566523076911e+00
0	 1.000000000000000e+01	 9.812499999999998e+00	 9.999791784615336e+00
0	 1.000000000000000e+01	 9.874999999999998e+00	 1.000002424615383e+01
0	 1.000000000000000e+01	 9.937499999999998e+00	 1.000026390769234e+01
0	 1.000000000000000e+01	 1.000000000000000e+01	 1.000051076923073e+01
1	 0.000000000000000e+00	 2.000000000000000e+00	-1.488802646153846e+01
1	 3.548246397489054e-02	 1.999685223916798e+00	-1.374153938159744e+01
1	 7.120968178146665e-02	 1.998731893282386e+00	-1.263483873200745e+01
1	 1.071668957949588e-01	 1.997126750222366e+00	-1.156885133911550e+01
1	 1.433386661626860e-01	 1.994856893813928e+00	-1.054438167307093e+01
1	 1.797088758238814e-01	 1.991909817228721e+00	-9.562103552186155e+00
1	 2.162607376804590e-01	 1.988273445321150e+00	-8.622552071970516e+00
1	 2.529768039953392e-01	 1.983936172532344e+00	-7.726115821466637e+00
1	 2.898389780871680e-01	 1.978886900971149e+00	-6.873029451302119e+00
1	 3.268285283815027e-01	 1.973115078524969e+00	-6.063366659176364e+00
1	 3.639261048688338e-01	 1.966610736845282e+00	-5.297033659269310e+00
1	 0.000000000000000e+00	 1.993750000000000e+00	-1.507643260015371e+01
1	 3.537158127256500e-02	 1.993436207592045e+00	-1.391079820379440e+01
1	 7.098715152144358e-02	 1.992485856115827e+00	-1.278711896308953e+01
1	 1.068319992394523e-01	 1.990885729127804e+00	-1.170652153764588e+01
1	 1.428907328234585e-01	 1.988622966020549e+00	-1.067001023623090e+01
1	 1.791472855785187e-01	 1.985685099049550e+00	-9.678457963916294e+00
1	 2.155849228662364e-01	 1.982060090804042e+00	-8.732597357733477e+00
1	 2.521862514737188e-01	 1.977736371992524e+00	-7.833012176153503e+00
1	 2.889332312717482e-01	 1.972702879404751e+00	-6.980129009927907e+00
1	 3.258071892220600e-01	 1.966949093903479e+00	-6.174209383554736e+00
1	 3.627888357839317e-01	 1.960465078291276e+00	-5.415342317832490e+00
1	 0.000000000000000e+00	 1.987500000000000e+00	-1.526744218673544e+01
1	 3.526069857059851e-02	 1.987187191267293e+00	-1.408218626003251e+01
1	 7.076462126208509e-02	 1.986239818949267e+00	-1.294106724666412e+01
1	 1.064971026848612e-01	 1.984644708033241e+00	-1.184541262613650e+01
1	 1.424427994853410e-01	 1.982389038227170e+00	-1.079642753429326e+01
1	 1.785856953344031e-01	 1.979460380870380e+00	-9.795184950218234e+00
1	 2.149091080533394e-01	 1.975846736286935e+00	-8.842616035342052e+00
1	 2.513956989534424e-01	 1.971536571452704e+00	-7.939500692768271e+00
1	 2.880274844576302e-01	 1.966518857838353e+00	-7.086458417480712e+00
1	 3.247858500638147e-01	 1.960783109281990e+00	-6.283939510260143e+00
1	 3.616515667000589e-01	 1.954319419737269e+00	-5.532216729762271e+00
1	 0.000000000000000e+00	 1.981250000000000e+00	-1.546107985959430e+01
1	 3.514981586899107e-02	 1.980938174942540e+00	-1.425572370079381e+01
1	 7.054209100339122e-02	 1.979993781782708e+00	-1.309669936871925e+01
1	 1.061622061311854e-01	 1.978403686938679e+00	-1.198553615875295e+01
1	 1.419948661483333e-01	 1.976155110433792e+00	-1.092364103162812e+01
1	 1.780241050915345e-01	 1.973235662691210e+00	-9.912288037035363e+00
1	 2.142332932417680e-01	 1.969633381769827e+00	-8.952607852984947e+00
1	 2.506051464345102e-01	 1.965336770912883e+00	-8.045577511645030e+00
1	 2.871217376448141e-01	 1.960334836271955e+00	-7.192010385464288e+00
1	 3.237645109067664e-01	 1.954617124660500e+00	-6.392546509976477e+00
1	 3.605142976172153e-01	 1.948173761183263e+00	-5.647643321745747e+00
1	 0.000000000000000e+00	 1.975000000000000e+00	-1.565737056891822e+01
1	 3.503893316774269e-02	 1.974689158617787e+00	-1.443143093162949e+01
1	 7.031956074536193e-02	 1.973747744616148e+00	-1.325403131506523e+01
1	 1.058273095784249e-01	 1.972162665844117e+00	-1.212690383591616e+01
1	 1.415469328124355e-01	 1.969921182640412e+00	-1.105165828709091e+01
1	 1.774625148499129e-01	 1.967010944512039e+00	-1.002977079494366e+01
1	 2.135574784315221e-01	 1.963420027252718e+00	-9.062572555663017e+00
1	 2.498145939169221e-01	 1.959136970373063e+00	-8.151238724261070e+00
1	 2.862159908332995e-01	 1.954150814705557e+00	-7.296777533123142e+00
1	 3.227431717509153e-01	 1.948451140039011e+00	-6.500019720105236e+00
1	 3.593770285354012e-01	 1.942028102629256e+00	-5.761608348655898e+00
1	 0.000000000000000e+00	 1.968750000000000e+00	-1.585633958172252e+01
1	 3.492805046685335e-02	 1.968440142293034e+00	-1.460932861720899e+01
1	 7.009703048799722e-02	 1.967501707449589e+00	-1.341307927450672e+01
1	 1.054924130265796e-01	 1.965921644749554e+00	-1.226952750662369e+01
1	 1.410989994776476e-01	 1.963687254847034e+00	-1.118048695552253e+01
1	 1.769009246095383e-01	 1.960786226332869e+00	-1.014763683985960e+01
1	 2.128816636226017e-01	 1.957206672735610e+00	-9.172509885139592e+00
1	 2.490240414006783e-01	 1.952937169833243e+00	-8.256480372461940e+00
1	 2.853102440230868e-01	 1.947966793139160e+00	-7.400752385977558e+00
1	 3.217218325962616e-01	 1.942285155417521e+00	-6.606348342649370e+00
1	 3.582397594546164e-01	 1.935882444075250e+00	-5.874097890824350e+00
1	 0.000000000000000e+00	 1.962500000000000e+00	-1.605801248689535e+01
1	 3.481716776632306e-02	 1.962191125968281e+00	-1.478943768544523e+01
1	 6.987450023129713e-02	 1.961255670283030e+00	-1.357385964207537e+01
1	 1.051575164756497e-01	 1.959680623654992e+00	-1.241341917081559e+01
1	 1.406510661439696e-01	 1.957453327053655e+00	-1.131013478927800e+01
1	 1.763393343704109e-01	 1.954561508153698e+00	-1.026588983376205e+01
1	 2.122058488150070e-01	 1.950993318218502e+00	-9.282419579887984e+00
1	 2.482334888857786e-01	 1.946737369293422e+00	-8.361298447670709e+00
1	 2.844044972141758e-01	 1.941782771572761e+00	-7.503927374331947e+00
1	 3.207004934428048e-01	 1.936119170796031e+00	-6.711521442058176e+00
1	 3.571024903748611e-01	 1.929736785521244e+00	-5.985097851262043e+00
1	 0.000000000000000e+00	 1.956250000000000e+00	-1.626241520033917e+01
1	 3.470628506615182e-02	 1.955942109643528e+00	-1.497177933170097e+01
1	 6.965196997526162e-02	 1.955009633116471e+00	-1.373638902232362e+01
1	 1.048226199256351e-01	 1.953439602560430e+00	-1.255859098178604e+01
1	 1.402031328114014e-01	 1.951219399260276e+00	-1.144060963978352e+01
1	 1.757777441325304e-01	 1.948336789974528e+00	-1.038453348542862e+01
1	 2.115300340087377e-01	 1.944779963701394e+00	-9.392301375039537e+00
1	 2.474429363722231e-01	 1.940537568753602e+00	-8.465688890082559e+00
1	 2.834987504065667e-01	 1.935598750006363e+00	-7.606294831752971e+00
1	 3.196791542905453e-01	 1.929953186174542e+00	-6.815527943029254e+00
1	 3.559652212961348e-01	 1.923591126967237e+00	-6.094593952826635e+00
1	 0.000000000000000e+00	 1.950000000000000e+00	-1.646957397021141e+01
1	 3.459540236633964e-02	 1.949693093318776e+00	-1.515637502307413e+01
1	 6.942943971989068e-02	 1.948763595949911e+00	-1.390068423268281e+01
1	 1.044877233765358e-01	 1.947198581465867e+00	-1.270505524864010e+01
1	 1.397551994799432e-01	 1.944985471466898e+00	-1.157191945912506e+01
1	 1.752161538958970e-01	 1.942112071795358e+00	-1.050357155118523e+01
1	 2.108542192037939e-01	 1.938566609184286e+00	-9.502155002329392e+00
1	 2.466523838600118e-01	 1.934337768213782e+00	-8.569647587843949e+00
1	 2.825930036002593e-01	 1.929414728439965e+00	-7.707846993519872e+00
1	 3.186578151394830e-01	 1.923787201553052e+00	-6.918356628269106e+00
1	 3.548279522184382e-01	 1.917445468413230e+00	-6.202571735335552e+00
1	 0.000000000000000e+00	 1.943750000000000e+00	-1.667951538226620e+01
1	 3.448451966688649e-02	 1.943444076994023e+00	-1.534324650276627e+01
1	 6.920690946518437e-02	 1.942517558783352e+00	-1.406676230688554e+01
1	 1.041528268283517e-01	 1.940957560371305e+00	-1.285282443879996e+01
1	 1.393072661495947e-01	 1.938751543673519e+00	-1.170407230166572e+01
1	 1.746545636605105e-01	 1.935887353616187e+00	-1.062300783567049e+01
1	 2.101784044001758e-01	 1.932353254667179e+00	-9.611980190042878e+00
1	 2.458618313491447e-01	 1.928137967673962e+00	-8.673170376215856e+00
1	 2.816872567952537e-01	 1.923230706873567e+00	-7.808575995044070e+00
1	 3.176364759896179e-01	 1.917621216931563e+00	-7.019996136210402e+00
1	 3.536906831417708e-01	 1.911299809859224e+00	-6.309016552623006e+00
1	 0.000000000000000e+00	 1.937500000000000e+00	-1.689226636529947e+01
1	 3.437363696779240e-02	 1.937195060669269e+00	-1.553241579453662e+01
1	 6.898437921114264e-02	 1.936271521616793e+00	-1.423464049845450e+01
1	 1.038179302810830e-01	 1.934716539276743e+00	-1.300191118055718e+01
1	 1.388593328203562e-01	 1.932517615880140e+00	-1.183707632569635e+01
1	 1.740929734263712e-01	 1.929662635437017e+00	-1.074284619261545e+01
1	 2.095025895978831e-01	 1.926139900150071e+00	-9.721776662959083e+00
1	 2.450712788396217e-01	 1.921938167134141e+00	-8.776253036720554e+00
1	 2.807815099915498e-01	 1.917046685307169e+00	-7.908473870258478e+00
1	 3.166151368409499e-01	 1.911455232310073e+00	-7.120434958685054e+00
1	 3.525534140661327e-01	 1.905154151305217e+00	-6.413913569540445e+00
1	 3.639261048688338e-01	 1.966610736845282e+00	-5.297033659269310e+00
1	 4.011117796603632e-01	 1.959364520390886e+00	-4.593224498326341e+00
1	 4.383650475798750e-01	 1.951367732047175e+00	-3.972316426412836e+00
1	 4.756648279341188e-01	 1.942612378518484e+00	-3.435667708117685e+00
1	 5.129895120862494e-01	 1.933091197605625e+00	-2.984366843142367e+00
1	 5.503169922963288e-01	 1.922797693007436e+00	-2.619218653510681e+00
1	 5.876246930177277e-01	 1.911726167940638e+00	-2.340731256942509e+00
1	 6.248896046085050e-01	 1.899871757390207e+00	-2.149104049808651e+00
1	 6.620883194013223e-01	 1.887230458802351e+00	-2.044216821050691e+00
1	 6.991970700596118e-01	 1.873799161033412e+00	-2.025620115108695e+00
1	 7.361917701316998e-01	 1.859575671370661e+00	-2.092526957216000e+00
1	 3.627888357839317e-01	 1.960465078291276e+00	-5.415342317832490e+00
1	 3.998583053430279e-01	 1.953241506263059e+00	-4.718443590605519e+00
1	 4.369951568016142e-01	 1.945269707882764e+00	-4.107152702842092e+00
1	 4.741783753436062e-01	 1.936541714833776e+00	-3.582761033901517e+00
1	 5.113864198591492e-01	 1.927050287611280e+00	-3.146279280626763e+00
1	 5.485972516949918e-01	 1.916788950215059e+00	-2.798423455872877e+00
1	 5.857883658530870e-01	 1.905752023664278e+00	-2.539601824470736e+00
1	 6.229368245966250e-01	 1.893934658147091e+00	-2.369902902586381e+00
1	 6.600192934072273e-01	 1.881332863617687e+00	-2.289084644101136e+00
1	 6.970120792212526e-01	 1.867943538654731e+00	-2.296564933957338e+00
1	 7.338911708571875e-01	 1.853764497397723e+00	-2.391413503351180e+00
1	 3.616515667000589e-01	 1.954319419737269e+00	-5.532216729762271e+00
1	 3.986048310265217e-01	 1.947118492135233e+00	-4.842521676102521e+00
1	 4.356252660239821e-01	 1.939171683718353e+00	-4.241159229365620e+00
1	 4.726919227535217e-01	 1.930471051149068e+00	-3.729353662597709e+00
1	 5.097833276322755e-01	 1.921009377616935e+00	-3.308037600744008e+00
1	 5.468775110936797e-01	 1.910780207422680e+00	-2.977837929849183e+00
1	 5.839520386882702e-01	 1.899777879387919e+00	-2.739062695158565e+00
1	 6.209840445843680e-01	 1.887997558903976e+00	-2.591689116637954e+00
1	 6.579502674125541e-01	 1.875435268433023e+00	-2.535352847787814e+00
1	 6.948270883821142e-01	 1.862087916276050e+00	-2.569338599605984e+00
1	 7.315905715816960e-01	 1.847953323424784e+00	-2.692572246112746e+00
1	 3.605142976172153e-01	 1.948173761183263e+00	-5.647643321745747e+00
1	 3.973513567108449e-01	 1.940995478007405e+00	-4.965447956644883e+00
1	 4.342553752469785e-01	 1.933073659553942e+00	-4.374328153459731e+00
1	 4.712054701638647e-01	 1.924400387464360e+00	-3.875440855747114e+00
1	 5.081802354056282e-01	 1.914968467622590e+00	-3.469640344969508e+00
1	 5.451577704923927e-01	 1.904771464630302e+00	-3.157464059713146e+00
1	 5.821157115232770e-01	 1.893803735111559e+00	-2.939119455471026e+00
1	 6.190312645717330e-01	 1.882060459660859e+00	-2.814472036076653e+00
1	 6.558812414173023e-01	 1.869537673248358e+00	-2.783034684924891e+00
1	 6.926420975421966e-01	 1.856232293897368e+00	-2.843958419754062e+00
1	 7.292899723052247e-01	 1.842142149451846e+00	-2.996024688940298e+00
1	 3.593770285354012e-01	 1.942028102629256e+00	-5.761608348655898e+00
1	 3.960978823959972e-01	 1.934872463879578e+00	-5.087211497374487e+00
1	 4.328854844706035e-01	 1.926975635389531e+00	-4.506651523201841e+00
1	 4.697190175746352e-01	 1.918329723779651e+00	-4.021017814910162e+00
1	 5.065771431792077e-01	 1.908927557628246e+00	-3.631086036316248e+00
1	 5.434380298911307e-01	 1.898762721837923e+00	-3.337303854855660e+00
1	 5.802793843581076e-01	 1.887829590835200e+00	-3.139777762588078e+00
1	 6.170784845587208e-01	 1.876123360417745e+00	-3.038261123295553e+00
1	 6.538122154214719e-01	 1.863640078063693e+00	-3.032143576083638e+00
1	 6.904571067014997e-01	 1.850376671518687e+00	-3.120441921185821e+00
1	 7.269893730277742e-01	 1.836330975478908e+00	-3.301792607468819e+00
1	 3.582397594546164e-01	 1.935882444075250e+00	-5.874097890824350e+00
1	 3.948444080819787e-01	 1.928749449751751e+00	-5.207801224577768e+00
1	 4.315155936948574e-01	 1.920877611225119e+00	-4.638121285692195e+00
1	 4.682325649858336e-01	 1.912259060094943e+00	-4.166079680714711e+00
1	 5.049740509530132e-01	 1.902886647633901e+00	-3.792373179041864e+00
1	 5.417182892898940e-01	 1.892753979045545e+00	-3.517359350183759e+00
1	 5.784430571927620e-01	 1.881855446558840e+00	-3.341043345526721e+00
1	 6.151257045453307e-01	 1.870186261174629e+00	-3.263065960845211e+00
1	 6.517431894250629e-01	 1.857742482879029e+00	-3.282693112255590e+00
1	 6.882721158600237e-01	 1.844521049140006e+00	-3.398806853247963e+00
1	 7.246887737493445e-01	 1.830519801505970e+00	-3.609898053849435e+00
1	 3.571024903748611e-01	 1.929736785521244e+00	-5.985097851262043e+00
1	 3.935909337687896e-01	 1.922626435623924e+00	-5.327205923474747e+00
1	 4.301457029197397e-01	 1.914779587060709e+00	-4.768729285446526e+00
1	 4.667461123974596e-01	 1.906188396410234e+00	-4.310621531885761e+00
1	 5.033709587270454e-01	 1.896845737639556e+00	-3.953500258349969e+00
1	 5.399985486886825e-01	 1.886745236253167e+00	-3.697632606526847e+00
1	 5.766067300272399e-01	 1.875881302282481e+00	-3.542922006285203e+00
1	 6.131729245315634e-01	 1.864249161931514e+00	-3.488896253346940e+00
1	 6.496741634280755e-01	 1.851844887694365e+00	-3.534697057565615e+00
1	 6.860871250177683e-01	 1.838665426761325e+00	-3.679071191393523e+00
1	 7.223881744699350e-01	 1.824708627533032e+00	-3.920363361152496e+00
1	 3.559652212961348e-01	 1.923591126967237e+00	-6.094593952826635e+00
1	 3.923374594564296e-01	 1.916503421496097e+00	-5.445414235965544e+00
1	 4.287758121452508e-01	 1.908681562896297e+00	-4.898467262757086e+00
1	 4.652596598095134e-01	 1.900117732725527e+00	-4.454638384256630e+00
1	 5.017678665013041e-01	 1.890804827645212e+00	-4.114465740085700e+00
1	 5.382788080874960e-01	 1.880736493460788e+00	-3.878125711050751e+00
1	 5.747704028615418e-01	 1.869907158006121e+00	-3.745419621008672e+00
1	 6.112201445174184e-01	 1.858312062688398e+00	-3.715761829442748e+00
1	 6.476051374305094e-01	 1.845947292509701e+00	-3.788169352038172e+00
1	 6.839021341747334e-01	 1.832809804382643e+00	-3.961253140793876e+00
1	 7.200875751895462e-01	 1.818897453560094e+00	-4.233211147855040e+00
1	 3.548279522184382e-01	 1.917445468413230e+00	-6.202571735335552e+00
1	 3.910839851448988e-01	 1.910380407368270e+00	-5.562414658333482e+00
1	 4.274059213713904e-01	 1.902583538731887e+00	-5.027326852022369e+00
1	 4.637732072219948e-01	 1.894047069040818e+00	-4.598125189760945e+00
1	 5.001647742757892e-01	 1.884763917650866e+00	-4.275268070425547e+00
1	 5.365590674863345e-01	 1.874727750668410e+00	-4.058840777679930e+00
1	 5.729340756956677e-01	 1.863933013729762e+00	-3.948542141177526e+00
1	 6.092673645028958e-01	 1.852374963445282e+00	-3.943672643782965e+00
1	 6.455361114323646e-01	 1.840049697325036e+00	-4.043124114416096e+00
1	 6.817171433309196e-01	 1.826954182003962e+00	-4.245371140020007e+00
1	 7.177869759081776e-01	 1.813086279587156e+00	-4.548464322414542e+00
1	 3.536906831417708e-01	 1.911299809859224e+00	-6.309016552623006e+00
1	 3.898305108341973e-01	 1.904257393240444e+00	-5.678195538904245e+00
1	 4.260360305981588e-01	 1.896485514567475e+00	-5.155299580044665e+00
1	 4.622867546349038e-01	 1.887976405356110e+00	-4.741076835405531e+00
1	 4.985616820505008e-01	 1.878723007656522e+00	-4.435905675561148e+00
1	 5.348393268851983e-01	 1.868719007876031e+00	-4.239779947527545e+00
1	 5.710977485296169e-01	 1.857958869453402e+00	-4.152295594818550e+00
1	 6.073145844879960e-01	 1.846437864202167e+00	-4.172638779051928e+00
1	 6.434670854336413e-01	 1.834152102140371e+00	-4.299575645033618e+00
1	 6.795321524863265e-01	 1.821098559625280e+00	-4.531443864795110e+00
1	 7.154863766258298e-01	 1.807275105614218e+00	-4.866146087931273e+00
1	 3.525534140661327e-01	 1.905154151305217e+00	-6.413913569540445e+00
1	 3.885770365243251e-01	 1.898134379112617e+00	-5.792745075659142e+00
1	 4.246661398255557e-01	 1.890387490403064e+00	-5.282376864294716e+00
1	 4.608003020482406e-01	 1.881905741671401e+00	-4.883488142223098e+00
1	 4.969585898254388e-01	 1.872682097662176e+00	-4.596376961376946e+00
1	 5.331195862840871e-01	 1.862710265083652e+00	-4.420945389334014e+00
1	 5.692614213633899e-01	 1.851984725177042e+00	-4.356686087739503e+00
1	 6.053618044727185e-01	 1.840500764959051e+00	-4.402670448033328e+00
1	 6.413980594343396e-01	 1.828254506955707e+00	-4.557538428745653e+00
1	 6.773471616409540e-01	 1.815242937246599e+00	-4.819490231819402e+00
1	 7.131857773425027e-01	 1.801463931641279e+00	-5.186279946900278e+00
1	 7.361917701316998e-01	 1.859575671370661e+00	-2.092526957216000e+00
1	 7.730470878096263e-01	 1.844559129488828e+00	-2.218377648242609e+00
1	 8.097393400361760e-01	 1.828748896797731e+00	-2.376348488780495e+00
1	 8.462437464084783e-01	 1.812145676572882e+00	-2.564869986756451e+00
1	 8.825353893621116e-01	 1.794751175796618e+00	-2.782214003290236e+00
1	 9.185892638379058e-01	 1.776568119974871e+00	-3.026496771206643e+00
1	 9.543803282885299e-01	 1.757600265062279e+00	-3.295682817745987e+00
1	 9.898835568318245e-01	 1.737852406372564e+00	-3.587589792827520e+00
1	 1.025073992345847e+00	 1.717330384365551e+00	-3.899894196754247e+00
1	 1.059926800289803e+00	 1.696041087217984e+00	-4.230137993588966e+00
1	 1.094417323025598e+00	 1.673992450102209e+00	-4.575736088660266e+00
1	 7.338911708571875e-01	 1.853764497397723e+00	-2.391413503351180e+00
1	 7.706313156687551e-01	 1.838794882209806e+00	-2.541427502989169e+00
1	 8.072089046080732e-01	 1.823034056496289e+00	-2.718302790740622e+00
1	 8.435992347110247e-01	 1.806482721334942e+00	-2.920563376407119e+00
1	 8.797774662805719e-01	 1.789142578373786e+00	-3.146595971457182e+00
1	 9.157186723983504e-01	 1.771016344601540e+00	-3.394653027618308e+00
1	 9.513978897718606e-01	 1.752107764235487e+00	-3.662856567657043e+00
1	 9.867901707248212e-01	 1.732421617603992e+00	-3.949202807062186e+00
1	 1.021870636126293e+00	 1.711963726915440e+00	-4.251567558751343e+00
1	 1.056614529043419e+00	 1.690740958821022e+00	-4.567712406174390e+00
1	 1.090997268893221e+00	 1.668761223695673e+00	-4.895291623372684e+00
1	 7.315905715816960e-01	 1.847953323424784e+00	-2.692572246112746e+00
1	 7.682155435267284e-01	 1.833030634930785e+00	-2.866363341146377e+00
1	 8.046784691786866e-01	 1.817319216194845e+00	-3.061723816621695e+00
1	 8.409547230122076e-01	 1.800819766097002e+00	-3.277271569077271e+00
1	 8.770195431976389e-01	 1.783533980950953e+00	-3.511508633366673e+00
1	 9.128480809574211e-01	 1.765464569228210e+00	-3.762824241567090e+00
1	 9.484154512538872e-01	 1.746615263408696e+00	-4.029498561653234e+00
1	 9.836967846166342e-01	 1.726990828835419e+00	-4.309707112002534e+00
1	 1.018667279905727e+00	 1.706597069465328e+00	-4.601525842074872e+00
1	 1.053302257796245e+00	 1.685440830424061e+00	-4.902936863782468e+00
1	 1.087577214760330e+00	 1.663529997289136e+00	-5.211834812206199e+00
1	 7.292899723052247e-01	 1.842142149451846e+00	-2.996024688940298e+00
1	 7.657997713835463e-01	 1.827266387651764e+00	-3.193203011139244e+00
1	 8.021480337480160e-01	 1.811604375893402e+00	-3.406625447093247e+00
1	 8.383102113120278e-01	 1.795156810859063e+00	-3.635004168582276e+00
1	 8.742616201133120e-01	 1.777925383528119e+00	-3.876957011357923e+00
1	 9.099774895151178e-01	 1.759912793854879e+00	-4.131010554607658e+00
1	 9.454330127346090e-01	 1.741122762581905e+00	-4.395603767344727e+00
1	 9.806033985072634e-01	 1.721560040066847e+00	-4.669092215131810e+00
1	 1.015463923684147e+00	 1.701230412015217e+00	-4.949752815696423e+00
1	 1.049989986548281e+00	 1.680140702027100e+00	-5.235789127091639e+00
1	 1.084157160626922e+00	 1.658298770882600e+00	-5.525337147155522e+00
1	 7.269893730277742e-01	 1.836330975478908e+00	-3.301792607468819e+00
1	 7.633839992392083e-01	 1.821502140372742e+00	-3.521964587322180e+00
1	 7.996175983160623e-01	 1.805889535591960e+00	-3.753021738529499e+00
1	 8.356656996104844e-01	 1.789493855621123e+00	-3.993770900304807e+00
1	 8.715036970275918e-01	 1.772316786105285e+00	-4.242946191344169e+00
1	 9.071068980714402e-01	 1.754361018481548e+00	-4.499212110086583e+00
1	 9.424505742140267e-01	 1.735630261755113e+00	-4.761167088640473e+00
1	 9.775100123967078e-01	 1.716129251298274e+00	-5.027347491116668e+00
1	 1.012260567461555e+00	 1.695863754565105e+00	-5.296232043131691e+00
1	 1.046677715299527e+00	 1.674840573630139e+00	-5.566246675269927e+00
1	 1.080737106492998e+00	 1.653067544476064e+00	-5.835769759354453e+00
1	 7.246887737493445e-01	 1.830519801505970e+00	-3.609898053849435e+00
1	 7.609682270937146e-01	 1.815737893093720e+00	-3.852666373565268e+00
1	 7.970871628828241e-01	 1.800174695290516e+00	-4.100926925798230e+00
1	 8.330211879075777e-01	 1.783830900383183e+00	-4.353581613124295e+00
1	 8.687457739404782e-01	 1.766708188682452e+00	-4.609481323821694e+00
1	 9.042363066263885e-01	 1.748809243108218e+00	-4.867429053170730e+00
1	 9.394681356921403e-01	 1.730137760928321e+00	-5.126183364737335e+00
1	 9.744166262849687e-01	 1.710698462529702e+00	-5.384462179698789e+00
1	 1.009057211237951e+00	 1.690497097114994e+00	-5.640946879178807e+00
1	 1.043365444049983e+00	 1.669540445233178e+00	-5.894286701506678e+00
1	 1.077317052358558e+00	 1.647836318069528e+00	-6.143103413348332e+00
1	 7.223881744699350e-01	 1.824708627533032e+00	-3.920363361152497e+00
1	 7.585524549470657e-01	 1.809973645814698e+00	-4.185326906909000e+00
1	 7.945567274483027e-01	 1.794459854989073e+00	-4.450355425103190e+00
1	 8.303766762033079e-01	 1.778167945145243e+00	-4.714446281383887e+00
1	 8.659878508519709e-01	 1.761099591259620e+00	-4.976567624898093e+00
1	 9.013657151799630e-01	 1.743257467734887e+00	-5.235661530876233e+00
1	 9.364856971689494e-01	 1.724645260101530e+00	-5.490647369089283e+00
1	 9.713232401720455e-01	 1.705267673761129e+00	-5.740425383546870e+00
1	 1.005853855013334e+00	 1.685130439664883e+00	-5.983880466595648e+00
1	 1.040053172799649e+00	 1.664240316836217e+00	-6.219886108458506e+00
1	 1.073896998223602e+00	 1.642605091662992e+00	-6.447308501256350e+00
1	 7.200875751895462e-01	 1.818897453560094e+00	-4.233211147855040e+00
1	 7.561366827992609e-01	 1.804209398535677e+00	-4.519964961288951e+00
1	 7.920262920124976e-01	 1.788745014687630e+00	-4.801321836880821e+00
1	 8.277321644976752e-01	 1.772504989907304e+00	-5.076375006894138e+00
1	 8.632299277620704e-01	 1.755490993836786e+00	-5.344210377340612e+00
1	 8.984951237321637e-01	 1.737705692361556e+00	-5.603909692098048e+00
1	 9.335032586444538e-01	 1.719152759274738e+00	-5.854553808357472e+00
1	 9.682298540579383e-01	 1.699836884992557e+00	-6.095226066066211e+00
1	 1.002650498787703e+00	 1.679763782214771e+00	-6.325015732711781e+00
1	 1.036740901548524e+00	 1.658940188439256e+00	-6.543021503608618e+00
1	 1.070476944088131e+00	 1.637373865256455e+00	-6.748355036822360e+00
1	 7.177869759081776e-01	 1.813086279587156e+00	-4.548464322414544e+00
1	 7.537209106503007e-01	 1.798445151256655e+00	-4.856599551332181e+00
1	 7.894958565754087e-01	 1.783030174386187e+00	-5.153840948752627e+00
1	 8.250876527906786e-01	 1.766842034669364e+00	-5.439378020976200e+00
1	 8.604720046707760e-01	 1.749882396413953e+00	-5.712414931644162e+00
1	 8.956245322829900e-01	 1.732153916988226e+00	-5.972173687639937e+00
1	 9.305208201186541e-01	 1.713660258447946e+00	-6.217897321339765e+00
1	 9.651364679426471e-01	 1.694406096223985e+00	-6.448853049167522e+00
1	 9.994471425610608e-01	 1.674397124764660e+00	-6.664335385976518e+00
1	 1.033428630296610e+00	 1.653640060042294e+00	-6.863669194536090e+00
1	 1.067056889952143e+00	 1.632142638849919e+00	-7.046212649351077e+00
1	 7.154863766258298e-01	 1.807275105614218e+00	-4.866146087931273e+00
1	 7.513051385001849e-01	 1.792680903977633e+00	-5.195249936227058e+00
1	 7.869654211370359e-01	 1.777315334084744e+00	-5.507927738534620e+00
1	 8.224431410823191e-01	 1.761179079431424e+00	-5.803465686543642e+00
1	 8.577140815780885e-01	 1.744273798991120e+00	-6.081186707120365e+00
1	 8.927539408324424e-01	 1.726602141614896e+00	-6.340453670245369e+00
1	 9.275383815915500e-01	 1.708167757621155e+00	-6.580672477879572e+00
1	 9.620430818261717e-01	 1.688975307455412e+00	-6.801295010991844e+00
1	 9.962437863334054e-01	 1.669030467314548e+00	-7.001821912439960e+00
1	 1.030116359043906e+00	 1.648339931645333e+00	-7.181805184094458e+00
1	 1.063636835815639e+00	 1.626911412443383e+00	-7.340850577527545e+00
1	 7.131857773425027e-01	 1.801463931641279e+00	-5.186279946900277e+00
1	 7.488893663489132e-01	 1.786916656698612e+00	-5.535935623667471e+00
1	 7.844349856973795e-01	 1.771600493783301e+00	-5.863597377305024e+00
1	 8.197986293725965e-01	 1.755516124193484e+00	-6.168648500225079e+00
1	 8.549561584840074e-01	 1.738665201568287e+00	-6.450531193007548e+00
1	 8.898833493805206e-01	 1.721050366241565e+00	-6.708749794628661e+00
1	 9.245559430631417e-01	 1.702675256794363e+00	-6.942873777753841e+00
1	 9.589496957085124e-01	 1.683544518686839e+00	-7.152540483591801e+00
1	 9.930404301047372e-01	 1.663663809864437e+00	-7.337457572165571e+00
1	 1.026804087790411e+00	 1.643039803248372e+00	-7.497405165496726e+00
1	 1.060216781678620e+00	 1.621680186036846e+00	-7.632237663116835e+00
1	 1.094417323025598e+00	 1.673992450102209e+00	-4.575736088660266e+00
1	 1.128521986140153e+00	 1.651192887841636e+00	-4.892444393946931e+00
1	 1.162215753401898e+00	 1.627652993340450e+00	-5.139664279596738e+00
1	 1.195474823913349e+00	 1.603383805471852e+00	-5.320428118303606e+00
1	 1.228275791281850e+00	 1.578397373432715e+00	-5.438032454021593e+00
1	 1.260595696849128e+00	 1.552706739074786e+00	-5.496026349986373e+00
1	 1.292412081961584e+00	 1.526325915889082e+00	-5.498198272737105e+00
1	 1.323703039036798e+00	 1.499269864705394e+00	-5.448561584284534e+00
1	 1.354447261186396e+00	 1.471554466189197e+00	-5.351338727081234e+00
1	 1.384624090162071e+00	 1.443196490238191e+00	-5.210944198234415e+00
1	 1.414213562400000e+00	 1.414213562400000e+00	-5.031966420317280e+00
1	 1.090997268893221e+00	 1.668761223695673e+00	-4.895291623372684e+00
1	 1.124995354933050e+00	 1.646032910066529e+00	-5.179507724041788e+00
1	 1.158583829169950e+00	 1.622566577735001e+00	-5.397326282767622e+00
1	 1.191738965084242e+00	 1.598373231077814e+00	-5.551654480914355e+00
1	 1.224437429428254e+00	 1.573464881638100e+00	-5.645651013633447e+00
1	 1.256656335289518e+00	 1.547854530511819e+00	-5.682714928925767e+00
1	 1.288373294197733e+00	 1.521556147397831e+00	-5.666473073664966e+00
1	 1.319566467031675e+00	 1.494584646373332e+00	-5.600766215693356e+00
1	 1.350214613486996e+00	 1.466955858476719e+00	-5.489633923001084e+00
1	 1.380297139872417e+00	 1.438686501199762e+00	-5.337298292210265e+00
1	 1.409794145010250e+00	 1.409794145010250e+00	-5.148146628952715e+00
1	 1.087577214760330e+00	 1.663529997289136e+00	-5.211834812206199e+00
1	 1.121468723725712e+00	 1.640872932291425e+00	-5.463911344910914e+00
1	 1.154951904938007e+00	 1.617480162129572e+00	-5.652699747318835e+00
1	 1.188003106255344e+00	 1.593362656683821e+00	-5.780981401363029e+00
1	 1.220599067575028e+00	 1.568532389843565e+00	-5.851776494514112e+00
1	 1.252716973730402e+00	 1.543002321948978e+00	-5.868333351757984e+00
1	 1.284334506434459e+00	 1.516786378906760e+00	-5.834116445749003e+00
1	 1.315429895027169e+00	 1.489899428041515e+00	-5.752793151205570e+00
1	 1.345981965788215e+00	 1.462357250764562e+00	-5.628219320904430e+00
1	 1.375970189583342e+00	 1.434176512161740e+00	-5.464423771256217e+00
1	 1.405374727621000e+00	 1.405374727621000e+00	-5.265591775273613e+00
1	 1.084157160626922e+00	 1.658298770882600e+00	-5.525337147155523e+00
1	 1.117942092518139e+00	 1.635712954516328e+00	-5.745630085804815e+00
1	 1.151319980706071e+00	 1.612393746524164e+00	-5.905763015156998e+00
1	 1.184267247426654e+00	 1.588352082289873e+00	-6.008390903856856e+00
1	 1.216760705722173e+00	 1.563599898049109e+00	-6.056394766581475e+00
1	 1.248777612171779e+00	 1.538150113386261e+00	-6.052871490823426e+00
1	 1.280295718671760e+00	 1.512016610415869e+00	-6.001122413322459e+00
1	 1.311293323023281e+00	 1.485214209709943e+00	-5.904640709156991e+00
1	 1.341749318090052e+00	 1.457758643052724e+00	-5.767097667182278e+00
1	 1.371643239294847e+00	 1.429666523124121e+00	-5.592327935546282e+00
1	 1.400955310232250e+00	 1.400955310232250e+00	-5.384313830298531e+00
1	 1.080737106492998e+00	 1.653067544476064e+00	-5.835769759354453e+00
1	 1.114415461310331e+00	 1.630552976741235e+00	-6.024638457356919e+00
1	 1.147688056474141e+00	 1.607307330918774e+00	-6.156494154035263e+00
1	 1.180531388598173e+00	 1.583341507895969e+00	-6.233864785061675e+00
1	 1.212922343869688e+00	 1.558667406254733e+00	-6.259491520892044e+00
1	 1.244838250613649e+00	 1.533297904823669e+00	-6.236319090264155e+00
1	 1.276256930909635e+00	 1.507246841925156e+00	-6.167484925077152e+00
1	 1.307156751020010e+00	 1.480528991378615e+00	-6.056307186596427e+00
1	 1.337516670392510e+00	 1.453160035341206e+00	-5.906271742990128e+00
1	 1.367316289006931e+00	 1.425156534086907e+00	-5.721018177661312e+00
1	 1.396535892844000e+00	 1.396535892844000e+00	-5.504324916577676e+00
1	 1.077317052358558e+00	 1.647836318069528e+00	-6.143103413348332e+00
1	 1.110888830102287e+00	 1.625392998966146e+00	-6.300910646526423e+00
1	 1.144056132242217e+00	 1.602220915313404e+00	-6.404870953202472e+00
1	 1.176795529769900e+00	 1.578330933502110e+00	-6.457384610489716e+00
1	 1.209083982017575e+00	 1.553734914460437e+00	-6.461052266801103e+00
1	 1.240898889056013e+00	 1.528445696261201e+00	-6.418665763989181e+00
1	 1.272218143148087e+00	 1.502477073434624e+00	-6.333197852862932e+00
1	 1.303020179017357e+00	 1.475843773047533e+00	-6.207790858947755e+00
1	 1.333284022695586e+00	 1.448561427630009e+00	-6.045744364799703e+00
1	 1.362989338719596e+00	 1.420646545050099e+00	-5.850501984056815e+00
1	 1.392116475456250e+00	 1.392116475456250e+00	-5.625637310598626e+00
1	 1.073896998223602e+00	 1.642605091662992e+00	-6.447308501256350e+00
1	 1.107362198894008e+00	 1.620233021191064e+00	-6.574420511443924e+00
1	 1.140424208010300e+00	 1.597134499708055e+00	-6.650870918967686e+00
1	 1.173059670941835e+00	 1.573320359108296e+00	-6.678931710819112e+00
1	 1.205245620165832e+00	 1.548802422666220e+00	-6.661062329069948e+00
1	 1.236959527498870e+00	 1.523593487698859e+00	-6.599900993600617e+00
1	 1.268179355387114e+00	 1.497707304944271e+00	-6.498254990464050e+00
1	 1.298883607015322e+00	 1.471158554716695e+00	-6.359089979665835e+00
1	 1.329051374999280e+00	 1.443962819919131e+00	-6.185518384961364e+00
1	 1.358662388432839e+00	 1.416136556013695e+00	-5.980786936556587e+00
1	 1.387697058069000e+00	 1.387697058069000e+00	-5.748263445237230e+00
1	 1.070476944088131e+00	 1.637373865256455e+00	-6.748355036822360e+00
1	 1.103835567685493e+00	 1.615073043415986e+00	-6.845141576158636e+00
1	 1.136792283778389e+00	 1.592048084102726e+00	-6.894471270180854e+00
1	 1.169323812113979e+00	 1.568309784714527e+00	-6.898487178142340e+00
1	 1.201407258314461e+00	 1.543869930872084e+00	-6.859506844917055e+00
1	 1.233020165942221e+00	 1.518741279136640e+00	-6.780014126280168e+00
1	 1.264140567626718e+00	 1.492937536454099e+00	-6.662650052352032e+00
1	 1.294747035013904e+00	 1.466473336386102e+00	-6.510202779885526e+00
1	 1.324818727303593e+00	 1.439364212208572e+00	-6.325596692277268e+00
1	 1.354335438146663e+00	 1.411626566977697e+00	-6.111880713877292e+00
1	 1.383277640682250e+00	 1.383277640682250e+00	-5.872215912256106e+00
1	 1.067056889952143e+00	 1.632142638849919e+00	-7.046212649351077e+00
1	 1.100308936476744e+00	 1.609913065640914e+00	-7.113047025284652e+00
1	 1.133160359546484e+00	 1.586961668497416e+00	-7.135648933626044e+00
1	 1.165587953286331e+00	 1.563299210320802e+00	-7.116031862142951e+00
1	 1.197568896463460e+00	 1.538937439078027e+00	-7.056370761012123e+00
1	 1.229080804386065e+00	 1.513889070574546e+00	-6.958994372634955e+00
1	 1.260101779866896e+00	 1.488167767964106e+00	-6.826376672414842e+00
1	 1.290610463013103e+00	 1.461788118055754e+00	-6.661127468063829e+00
1	 1.320586079608525e+00	 1.434765604498333e+00	-6.465982212585486e+00
1	 1.350008487861067e+00	 1.407116577942103e+00	-6.243791093180222e+00
1	 1.378858223296000e+00	 1.378858223296000e+00	-5.997507464850639e+00
1	 1.063636835815639e+00	 1.626911412443383e+00	-7.340850577527545e+00
1	 1.096782305267759e+00	 1.604753087865845e+00	-7.378109698543902e+00
1	 1.129528435314585e+00	 1.581875252892126e+00	-7.374380539325631e+00
1	 1.161852094458891e+00	 1.558288635927123e+00	-7.331546366198192e+00
1	 1.193730534612830e+00	 1.534004947284049e+00	-7.251638830413020e+00
1	 1.225141442830401e+00	 1.509036862012577e+00	-7.136830804501772e+00
1	 1.256062992107650e+00	 1.483397999474292e+00	-6.989428402661092e+00
1	 1.286473891012920e+00	 1.457102899725650e+00	-6.811862229615489e+00
1	 1.316353431914077e+00	 1.430166996788415e+00	-6.606677909355403e+00
1	 1.345681537576050e+00	 1.402606588906915e+00	-6.376525951654781e+00
1	 1.374438805910250e+00	 1.374438805910250e+00	-6.124151020244453e+00
1	 1.060216781678620e+00	 1.621680186036846e+00	-7.632237663116835e+00
1	 1.093255674058538e+00	 1.599593110090781e+00	-7.640302085202973e+00
1	 1.125896511082692e+00	 1.576788837286856e+00	-7.610642415754081e+00
1	 1.158116235631660e+00	 1.553278061533488e+00	-7.545011043406300e+00
1	 1.189892172762570e+00	 1.529072455490151e+00	-7.445295609443035e+00
1	 1.221202081275231e+00	 1.504184653450733e+00	-7.313512352708861e+00
1	 1.252024204348980e+00	 1.478628230984658e+00	-7.151798711899537e+00
1	 1.282337319013354e+00	 1.452417681395792e+00	-6.962405226541035e+00
1	 1.312120784220246e+00	 1.425568389078816e+00	-6.747686784294803e+00
1	 1.341354587291613e+00	 1.398096599872131e+00	-6.510093268131473e+00
1	 1.370019388525000e+00	 1.370019388525000e+00	-6.252159662335181e+00
1	 1.414213562400000e+00	 1.414213562400000e+00	-5.031966420317280e+00
1	 1.443196475494775e+00	 1.384624112627405e+00	-4.807355997178949e+00
1	 1.471554407389304e+00	 1.354447350854096e+00	-4.529425419855699e+00
1	 1.499269732816743e+00	 1.323703240303628e+00	-4.202083963224384e+00
1	 1.526325682186112e+00	 1.292412438818763e+00	-3.829432635676316e+00
1	 1.552706375163437e+00	 1.260596252818672e+00	-3.415746389757764e+00
1	 1.578396851274028e+00	 1.228276589354776e+00	-2.965455472125939e+00
1	 1.603383097404348e+00	 1.195475906489922e+00	-2.483126042485788e+00
1	 1.627652072101263e+00	 1.162217162234145e+00	-1.973440196327773e+00
1	 1.651191726586391e+00	 1.128523762276803e+00	-1.441175530021616e+00
1	 1.673991022423631e+00	 1.094419506759631e+00	-8.911843891037348e-01
1	 1.409794145010250e+00	 1.409794145010250e+00	-5.148146628952715e+00
1	 1.438686486502420e+00	 1.380297162267547e+00	-4.916489198333307e+00
1	 1.466955799860576e+00	 1.350214702874484e+00	-4.630670627469415e+00
1	 1.494584514896834e+00	 1.319566667669546e+00	-4.294591299534379e+00
1	 1.521555914425182e+00	 1.288373649939733e+00	-3.912345499173974e+00
1	 1.547854167737693e+00	 1.256656889521658e+00	-3.488203658174468e+00
1	 1.573464361111159e+00	 1.224438225007201e+00	-3.026593729673092e+00
1	 1.598372525223021e+00	 1.191740044277763e+00	-2.532081820439554e+00
1	 1.622565659374686e+00	 1.158585233599595e+00	-2.009352216002432e+00
1	 1.646031752440206e+00	 1.124997125519274e+00	-1.463186937214716e+00
1	 1.668759800478591e+00	 1.090999445803085e+00	-8.984449692259683e-01
1	 1.405374727621000e+00	 1.405374727621000e+00	-5.265591775273613e+00
1	 1.434176497510469e+00	 1.375970211908267e+00	-5.026898987682372e+00
1	 1.462357192332168e+00	 1.345982054895492e+00	-4.733200450353492e+00
1	 1.489899296977169e+00	 1.315430095036082e+00	-4.388387642775618e+00
1	 1.516786146664433e+00	 1.284334861061279e+00	-3.996548123228274e+00
1	 1.543001960312075e+00	 1.252717526225137e+00	-3.561947809458048e+00
1	 1.568531870948370e+00	 1.220599860659997e+00	-3.089012377077914e+00
1	 1.593361953041738e+00	 1.188004182065813e+00	-2.582307905085668e+00
1	 1.617479246648130e+00	 1.154953304965052e+00	-2.046520903226369e+00
1	 1.640871778294027e+00	 1.121470488761509e+00	-1.486437859836888e+00
1	 1.663528578533550e+00	 1.087579384846024e+00	-9.069244512681680e-01
1	 1.400955310232250e+00	 1.400955310232250e+00	-5.384313830298531e+00
1	 1.429666508518924e+00	 1.371643261549568e+00	-5.138597446501584e+00
1	 1.457758584804081e+00	 1.341749406917118e+00	-4.837027045749132e+00
1	 1.485214079057749e+00	 1.311293522403235e+00	-4.483485191750646e+00
1	 1.512016378903863e+00	 1.280296072183401e+00	-4.082052713774014e+00
1	 1.538149752886581e+00	 1.248778162929109e+00	-3.636991022309405e+00
1	 1.563599380785660e+00	 1.216761496313164e+00	-3.152723531593244e+00
1	 1.588351380860502e+00	 1.184268319854071e+00	-2.633816318252702e+00
1	 1.612392833921593e+00	 1.151321376330515e+00	-2.084958150751348e+00
1	 1.635711804147851e+00	 1.117943852003509e+00	-1.510940028317167e+00
1	 1.658297356588509e+00	 1.084159323888447e+00	-9.166343705791073e-01
1	 1.396535892844000e+00	 1.396535892844000e+00	-5.504324916577676e+00
1	 1.425156519527784e+00	 1.367316311191449e+00	-5.251596808993962e+00
1	 1.453159977276312e+00	 1.337516758939363e+00	-4.942162724786961e+00
1	 1.480528861138574e+00	 1.307156949771005e+00	-4.579896299677455e+00
1	 1.507246611143473e+00	 1.276257283306099e+00	-4.168871631251315e+00
1	 1.533297545461212e+00	 1.244838799633575e+00	-3.713345629590393e+00
1	 1.558666890623029e+00	 1.212923131966702e+00	-3.217739463855076e+00
1	 1.583340808679309e+00	 1.180532457642538e+00	-2.686619233944406e+00
1	 1.607306421195077e+00	 1.147689447695984e+00	-2.124676001870200e+00
1	 1.630551830001681e+00	 1.114417215245273e+00	-1.536705321570926e+00
1	 1.653066134643469e+00	 1.080739262930355e+00	-9.275864085245653e-01
1	 1.392116475456250e+00	 1.392116475456250e+00	-5.625637310598626e+00
1	 1.420646530537048e+00	 1.362989360833908e+00	-5.365909464717531e+00
1	 1.448561369748864e+00	 1.333284110962227e+00	-5.048619954929149e+00
1	 1.475843643219643e+00	 1.303020377139393e+00	-4.677633476640164e+00
1	 1.502476843383263e+00	 1.272218494429372e+00	-4.257017393058289e+00
1	 1.528445338035967e+00	 1.240899436338534e+00	-3.791024120770349e+00
1	 1.553734400460479e+00	 1.209084767620611e+00	-3.284072600316640e+00
1	 1.578330236498161e+00	 1.176796595431214e+00	-2.740728980754906e+00
1	 1.602220008468580e+00	 1.144057519061460e+00	-2.165686652806485e+00
1	 1.625391855855515e+00	 1.110890578486802e+00	-1.563745769356977e+00
1	 1.647834912698428e+00	 1.077319201971746e+00	-9.397923948050781e-01
1	 1.387697058069000e+00	 1.387697058069000e+00	-5.748263445237230e+00
1	 1.416136541546718e+00	 1.358662410476948e+00	-5.481547961059076e+00
1	 1.443962762221735e+00	 1.329051462985710e+00	-5.156411362459223e+00
1	 1.471158425300958e+00	 1.298883804508399e+00	-4.776709392087050e+00
1	 1.497707075623232e+00	 1.268179705553221e+00	-4.346502676050406e+00
1	 1.523593130610847e+00	 1.236960073043986e+00	-3.870039144420316e+00
1	 1.548801910298009e+00	 1.205246403274891e+00	-3.351735525730230e+00
1	 1.573319664317057e+00	 1.173060733220097e+00	-2.796158044330623e+00
1	 1.597133595742103e+00	 1.140425590426941e+00	-2.208002455149597e+00
1	 1.620231881709355e+00	 1.107363941728096e+00	-1.592073554679305e+00
1	 1.642603690753387e+00	 1.073899141012621e+00	-9.532643098179674e-01
1	 1.383277640682250e+00	 1.383277640682250e+00	-5.872215912256106e+00
1	 1.411626552556792e+00	 1.354335460120568e+00	-5.598525005755310e+00
1	 1.439364154694927e+00	 1.324818815009812e+00	-5.265549735018960e+00
1	 1.466473207382516e+00	 1.294747231878022e+00	-4.877136877376334e+00
1	 1.492937307863381e+00	 1.264140916677645e+00	-4.437340319087623e+00
1	 1.518740923185851e+00	 1.233020709749931e+00	-3.950403510754399e+00
1	 1.543869420135618e+00	 1.201408038929541e+00	-3.420740985675506e+00
1	 1.568309092135999e+00	 1.169324871009189e+00	-2.852919069878802e+00
1	 1.592047183015646e+00	 1.136793661792429e+00	-2.251635918336691e+00
1	 1.615071907563200e+00	 1.103837304969154e+00	-1.621701016235266e+00
1	 1.637372468808346e+00	 1.070479080052981e+00	-9.680142870646035e-01
1	 1.378858223296000e+00	 1.378858223296000e+00	-5.997507464850639e+00
1	 1.407116563567272e+00	 1.350008509764767e+00	-5.716853469462735e+00
1	 1.434765547168438e+00	 1.320586167034532e+00	-5.376048024194205e+00
1	 1.461787989464320e+00	 1.290610659248263e+00	-4.978928928370715e+00
1	 1.488167540103710e+00	 1.260102127802645e+00	-4.529543325630694e+00
1	 1.513888715760981e+00	 1.229081346456370e+00	-4.032130194220070e+00
1	 1.538936929973307e+00	 1.197569674584562e+00	-3.491101889136965e+00
1	 1.563298519954986e+00	 1.165589008798489e+00	-2.911024864724756e+00
1	 1.586960770289208e+00	 1.133161733157924e+00	-2.296599712182281e+00
1	 1.609911933417050e+00	 1.100310668209978e+00	-1.652640650910622e+00
1	 1.632141246863306e+00	 1.067059019092824e+00	-9.840546156040437e-01
1	 1.374438805910250e+00	 1.374438805910250e+00	-6.124151020244453e+00
1	 1.402606574578157e+00	 1.345681559409546e+00	-5.836546388377000e+00
1	 1.430166939642269e+00	 1.316353519059872e+00	-5.487919348150745e+00
1	 1.457102771546368e+00	 1.286474086619120e+00	-5.082098708082363e+00
1	 1.483397772344218e+00	 1.256063338928221e+00	-4.623124866387409e+00
1	 1.509036508336235e+00	 1.225141983163301e+00	-4.115232336138870e+00
1	 1.534004439811075e+00	 1.193731310239954e+00	-3.562831311131062e+00
1	 1.558287947774017e+00	 1.161853146587998e+00	-2.970488400918217e+00
1	 1.581874357562791e+00	 1.129529804523424e+00	-2.342906669456696e+00
1	 1.604751959270904e+00	 1.096784031450565e+00	-1.684905116322692e+00
1	 1.626910024918265e+00	 1.063638958132152e+00	-1.001397742553937e+00
1	 1.370019388525000e+00	 1.370019388525000e+00	-6.252159662335181e+00
1	 1.398096585589446e+00	 1.341354609054905e+00	-5.957616966902503e+00
1	 1.425568332116420e+00	 1.312120871085830e+00	-5.601176994321150e+00
1	 1.452417553628661e+00	 1.282337513990595e+00	-5.186659549368777e+00
1	 1.478628004584906e+00	 1.252024550054371e+00	-4.718098282010294e+00
1	 1.504184300911613e+00	 1.221202619870727e+00	-4.199723247397685e+00
1	 1.529071949648923e+00	 1.189892945895716e+00	-3.635942495384068e+00
1	 1.553277375593093e+00	 1.158117284377715e+00	-3.031322817890084e+00
1	 1.576787944836393e+00	 1.125897875888931e+00	-2.390569788514325e+00
1	 1.599591985124763e+00	 1.093257394690918e+00	-1.718507233412889e+00
1	 1.621678802973224e+00	 1.060218897170963e+00	-1.020056275639818e+00
1	 1.673991022423631e+00	 1.094419506759631e+00	-8.911843891037347e-01
1	 1.696039945799453e+00	 1.059928536339529e+00	-3.886022523376723e-01
1	 1.717329518392415e+00	 1.025075277784627e+00	 9.412192860978691e-03
1	 1.737851804833332e+00	 9.898843893540328e-01	 3.101166274654172e-01
1	 1.757599916777820e+00	 9.543807062084536e-01	 5.209919477476254e-01
1	 1.776568013627593e+00	 9.185891860866670e-01	 6.497069967925078e-01
1	 1.794751299959490e+00	 8.825348554826673e-01	 7.040830639227589e-01
1	 1.812146019738171e+00	 8.462427565487523e-01	 6.920583892783301e-01
1	 1.828749447405341e+00	 8.097378949403903e-01	 6.216529042683052e-01
1	 1.844559875954101e+00	 7.730451888079130e-01	 5.009334300105055e-01
1	 1.859576602111558e+00	 7.361894191280726e-01	 3.379795453666598e-01
1	 1.668759800478591e+00	 1.090999445803085e+00	-8.984449692259684e-01
1	 1.690739820969426e+00	 1.056616259667989e+00	-4.067614780877650e-01
1	 1.711962863648469e+00	 1.021871917548076e+00	-1.802295073390758e-02
1	 1.732421017944570e+00	 9.867910006453980e-01	 2.747437341192560e-01
1	 1.752107417039417e+00	 9.513982665107845e-01	 4.787338896545495e-01
1	 1.771016238586598e+00	 9.157185948900840e-01	 6.013309773678106e-01
1	 1.789142702148648e+00	 8.797769340695007e-01	 6.500723058119866e-01
1	 1.806483063427840e+00	 8.435982479446105e-01	 6.326147016368585e-01
1	 1.823034605383249e+00	 8.072074640282118e-01	 5.567003768260521e-01
1	 1.838795626342375e+00	 7.706294226014222e-01	 4.301232079455506e-01
1	 1.853765425230055e+00	 7.338888272004465e-01	 2.606956332716218e-01
1	 1.663528578533550e+00	 1.087579384846024e+00	-9.069244512681680e-01
1	 1.685439696139397e+00	 1.053303982995660e+00	-4.254957553221483e-01
1	 1.706596208904524e+00	 1.018668557310514e+00	-4.538214428330689e-02
1	 1.726990231055807e+00	 9.836976119355788e-01	 2.401036689414371e-01
1	 1.746614917301015e+00	 9.484158268118109e-01	 4.378701401510526e-01
1	 1.765464463545603e+00	 9.128480036921273e-01	 5.550140795976266e-01
1	 1.783534104337806e+00	 8.770190126549408e-01	 5.987875543788052e-01
1	 1.800820107117509e+00	 8.409537393391047e-01	 5.765647301382195e-01
1	 1.817319763361157e+00	 8.046770331147493e-01	 4.958088691368385e-01
1	 1.833031376730649e+00	 7.682136563937756e-01	 3.640396941876254e-01
1	 1.847954248348551e+00	 7.315882352718411e-01	 1.888013185630382e-01
1	 1.658297356588509e+00	 1.084159323888447e+00	-9.166343705791073e-01
1	 1.680139571309369e+00	 1.049991706322540e+00	-4.448105261676900e-01
1	 1.701229554160579e+00	 1.015465197071938e+00	-7.266466901646990e-02
1	 1.721559444167045e+00	 9.806042232245757e-01	 2.062033672146615e-01
1	 1.741122417562612e+00	 9.454333871115330e-01	 3.984138945865622e-01
1	 1.759912688504608e+00	 9.099774124927966e-01	 5.107757904372627e-01
1	 1.777925506526964e+00	 8.742610912389874e-01	 5.502546077928010e-01
1	 1.795157150807178e+00	 8.383092307322364e-01	 5.239405919685649e-01
1	 1.811604921339065e+00	 8.021466022000032e-01	 4.390168135624412e-01
1	 1.827267127118924e+00	 7.657978901849736e-01	 3.027276209897387e-01
1	 1.842143071467048e+00	 7.292876433422564e-01	 1.223476068916799e-01
1	 1.653066134643469e+00	 1.080739262930355e+00	-9.275864085245658e-01
1	 1.674839446479340e+00	 1.046679429648631e+00	-4.647113016389460e-01
1	 1.695862899416634e+00	 1.012261836832350e+00	-9.986979706426335e-02
1	 1.716128657278283e+00	 9.775108345123884e-01	 1.730498520100117e-01
1	 1.735629917824209e+00	 9.424509474099509e-01	 3.603785153402345e-01
1	 1.754360913463612e+00	 9.071068212920916e-01	 4.686358435123261e-01
1	 1.772316908716122e+00	 8.715031698216406e-01	 5.044995907826618e-01
1	 1.789494194496846e+00	 8.356647221240047e-01	 4.747748108606997e-01
1	 1.805890079316973e+00	 7.996161712839736e-01	 3.863631289502987e-01
1	 1.821502877507198e+00	 7.633821239750158e-01	 2.462322868360389e-01
1	 1.836331894585545e+00	 7.269870514116921e-01	 6.138614954961813e-02
1	 1.647834912698428e+00	 1.077319201971746e+00	-9.397923948050781e-01
1	 1.669539321649312e+00	 1.043367152973931e+00	-4.852036627315864e-01
1	 1.690496244672689e+00	 1.009058476591749e+00	-1.269967913147876e-01
1	 1.710697870389520e+00	 9.744174457990173e-01	 1.406502355804157e-01
1	 1.730137418085807e+00	 9.394685077070648e-01	 3.237775344722034e-01
1	 1.748809138422616e+00	 9.042362300900125e-01	 4.286142230341363e-01
1	 1.766708310905280e+00	 8.687452484029002e-01	 4.615489598196602e-01
1	 1.783831238186515e+00	 8.330202135144096e-01	 4.291003235472510e-01
1	 1.800175237294881e+00	 7.970857403666602e-01	 3.378872283554927e-01
1	 1.815738627895473e+00	 7.609663577639029e-01	 1.945995654296295e-01
1	 1.830520717704041e+00	 7.246864594801485e-01	 5.969253718507039e-03
1	 1.642603690753387e+00	 1.073899141012621e+00	-9.532643098179674e-01
1	 1.664239196819284e+00	 1.040054876298442e+00	-5.062932615367357e-01
1	 1.685129589928743e+00	 1.005855116350135e+00	-1.540449052661875e-01
1	 1.705267083500758e+00	 9.713240570844621e-01	 1.090117207807273e-01
1	 1.724644918347405e+00	 9.364860680028740e-01	 2.886246564255267e-01
1	 1.743257363381621e+00	 9.013656388865600e-01	 3.907311677899430e-01
1	 1.761099713094437e+00	 8.659873269827660e-01	 4.214295084001934e-01
1	 1.778168281876184e+00	 8.303757049034514e-01	 3.869504863370762e-01
1	 1.794460395272789e+00	 7.945553094480629e-01	 2.936290269102910e-01
1	 1.809974378283747e+00	 7.585505915516340e-01	 1.478759148520941e-01
1	 1.824709540822537e+00	 7.223858675476253e-01	-4.385010708632436e-02
1	 1.637372468808346e+00	 1.070479080052981e+00	-9.680142870646037e-01
1	 1.658939071989255e+00	 1.036742599622162e+00	-5.279858223767193e-01
1	 1.679762935184797e+00	 1.002651756107509e+00	-1.810133828766417e-01
1	 1.699836296611995e+00	 9.682306683687231e-01	 7.814160251505770e-02
1	 1.719152418609002e+00	 9.335036282973788e-01	 2.549337607798965e-01
1	 1.737705588340626e+00	 8.984950476817326e-01	 3.550071752096338e-01
1	 1.755491115283595e+00	 8.632294055612384e-01	 3.841683724295513e-01
1	 1.772505325565852e+00	 8.277311962911299e-01	 3.483590818177767e-01
1	 1.788745553250697e+00	 7.920248785281819e-01	 2.536289498445720e-01
1	 1.804210128672021e+00	 7.561348253382099e-01	 1.061083868986229e-01
1	 1.818898363941034e+00	 7.200852756141226e-01	-8.801828237155795e-02
1	 1.632141246863306e+00	 1.067059019092824e+00	-9.840546156040439e-01
1	 1.653638947159227e+00	 1.033430322945092e+00	-5.502871429625922e-01
1	 1.674396280440852e+00	 9.994483958638704e-01	-2.079014584114864e-01
1	 1.694405509723233e+00	 9.651372796517999e-01	 4.804726921190783e-02
1	 1.713659918870599e+00	 9.305211885905795e-01	 2.227189050583098e-01
1	 1.732153813299630e+00	 8.956244564755317e-01	 3.214630055106469e-01
1	 1.749882517472753e+00	 8.604714841383178e-01	 3.497930357092561e-01
1	 1.766842369255521e+00	 8.250866876774454e-01	 3.133603256870704e-01
1	 1.783030711228606e+00	 7.894944476070176e-01	 2.179279406604445e-01
1	 1.798445879060295e+00	 7.537190591236298e-01	 6.934463659265927e-02
1	 1.813087187059531e+00	 7.177846836796408e-01	-1.264809338168747e-01
1	 1.626910024918265e+00	 1.063638958132152e+00	-1.001397742553937e+00
1	 1.648338822329199e+00	 1.030118046267232e+00	-5.732030955739854e-01
1	 1.669029625696906e+00	 9.962450356192187e-01	-2.347083562873841e-01
1	 1.688974722834470e+00	 9.620438909336927e-01	 1.873620432778600e-02
1	 1.708167419132196e+00	 9.275387488824757e-01	 1.919943275879021e-01
1	 1.726602038258635e+00	 8.927538652679567e-01	 2.901196859228483e-01
1	 1.744273919661911e+00	 8.577135627140031e-01	 3.183313355302348e-01
1	 1.761179412945190e+00	 8.224421790623976e-01	 2.819888737159905e-01
1	 1.777315869206514e+00	 7.869640166845692e-01	 1.865674694646143e-01
1	 1.792681629448570e+00	 7.513032929078942e-01	 3.763293188410438e-02
1	 1.807276010178027e+00	 7.154840917441793e-01	-1.591830242166411e-01
1	 1.621678802973224e+00	 1.060218897170963e+00	-1.020056275639817e+00
1	 1.643038697499171e+00	 1.026805769588582e+00	-5.967396282619070e-01
1	 1.663662970952962e+00	 9.930416753735546e-01	-2.614332909134733e-01
1	 1.683543935945708e+00	 9.589505022144016e-01	-9.784012120079066e-03
1	 1.702674919393794e+00	 9.245563091730674e-01	 1.627744504161466e-01
1	 1.721050263217639e+00	 8.898832740590078e-01	 2.609985149951828e-01
1	 1.738665321851069e+00	 8.549556412882954e-01	 2.898114683742705e-01
1	 1.755516456634858e+00	 8.197976704459866e-01	 2.542798288468329e-01
1	 1.771601027184422e+00	 7.844335857608370e-01	 1.595895414619972e-01
1	 1.786917379836844e+00	 7.488875266910032e-01	 1.102216353521979e-02
1	 1.801464833296524e+00	 7.131834998077383e-01	-1.860688062075690e-01
1	 1.859576602111558e+00	 7.361894191280726e-01	 3.379795453666598e-01
1	 1.873799908764660e+00	 6.991951815542734e-01	 1.813848536729702e-01
1	 1.887231044781073e+00	 6.620868399551338e-01	 7.247822028360144e-02
1	 1.899872202380815e+00	 6.248884817900889e-01	 8.369388985473028e-03
1	 1.911726492223089e+00	 5.876238754558704e-01	-1.390367014677514e-02
1	 1.922797916386281e+00	 5.503164297277902e-01	 2.639145350206318e-03
1	 1.933091339419748e+00	 5.129891553989844e-01	 5.493377805763075e-02
1	 1.942612457651407e+00	 4.756646292059358e-01	 1.398854426624400e-01
1	 1.951367766937804e+00	 4.383649601125787e-01	 2.543817103874099e-01
1	 1.959364529044608e+00	 4.011117580094508e-01	 3.953051799994964e-01
1	 1.966610736845282e+00	 3.639261048688338e-01	 5.595456757955704e-01
1	 1.853765425230055e+00	 7.338888272004465e-01	 2.606956332716218e-01
1	 1.867944284049319e+00	 6.970101966174933e-01	 1.211025814493369e-01
1	 1.881333447765224e+00	 6.600178185843083e-01	 2.694505932010728e-02
1	 1.893935101747104e+00	 6.229357052870169e-01	-2.438166743622347e-02
1	 1.905752346933347e+00	 5.857875508461104e-01	-3.555570738656927e-02
1	 1.916789172895843e+00	 5.485966908844795e-01	-9.315725974270161e-03
1	 1.927050428982234e+00	 5.113860642865320e-01	 5.155172522262597e-02
1	 1.936541793719408e+00	 4.741781772364490e-01	 1.442246596645590e-01
1	 1.945269742664360e+00	 4.369950696076533e-01	 2.658578194365758e-01
1	 1.953241514889738e+00	 3.998582837597746e-01	 4.135944885452651e-01
1	 1.960465078291276e+00	 3.627888357839317e-01	 5.845778988544856e-01
1	 1.847954248348551e+00	 7.315882352718411e-01	 1.888013185630382e-01
1	 1.862088659333977e+00	 6.948252116799342e-01	 6.551700309523219e-02
1	 1.875435850749376e+00	 6.579487972129046e-01	-1.459118050337094e-02
1	 1.887998001113393e+00	 6.209829287835666e-01	-5.384111694521287e-02
1	 1.899778201643604e+00	 5.839512262361745e-01	-5.462567985054773e-02
1	 1.910780429405406e+00	 5.468769520411941e-01	-1.940100711194215e-02
1	 1.921009518544720e+00	 5.097829731743058e-01	 4.932512906374190e-02
1	 1.930471129787410e+00	 4.726917252673900e-01	 1.490047889399888e-01
1	 1.939171718390916e+00	 4.356251791033565e-01	 2.770611046534361e-01
1	 1.947118500734868e+00	 3.986048095109275e-01	 4.308992327045446e-01
1	 1.954319419737269e+00	 3.616515667000589e-01	 6.079169650006189e-01
1	 1.842143071467048e+00	 7.292876433422564e-01	 1.223476068916799e-01
1	 1.856233034618636e+00	 6.926402267415954e-01	 1.467256681547432e-02
1	 1.869538253733528e+00	 6.558797758409218e-01	-5.209267343637830e-02
1	 1.882060900479682e+00	 6.190301522797395e-01	-7.997780868869020e-02
1	 1.893804056353863e+00	 5.821149016260621e-01	-7.108915159539067e-02
1	 1.904771685914969e+00	 5.451572131979338e-01	-2.759900478095337e-02
1	 1.914968608107206e+00	 5.081798820623064e-01	 4.826492450174627e-02
1	 1.924400465855411e+00	 4.712052732987584e-01	 1.542300031598008e-01
1	 1.933073694117472e+00	 4.342552885996881e-01	 2.879889841088451e-01
1	 1.940995486579999e+00	 3.973513352629099e-01	 4.472100948332844e-01
1	 1.948173761183262e+00	 3.605142976172154e-01	 6.295468506670727e-01
1	 1.836331894585545e+00	 7.269870514116921e-01	 6.138614954961813e-02
1	 1.850377409903294e+00	 6.904552418024777e-01	-3.138571654947472e-02
1	 1.863640656717680e+00	 6.538107544683607e-01	-8.552111492137754e-02
1	 1.876123799845970e+00	 6.170773757755347e-01	-1.027601974991632e-01
1	 1.887829911064120e+00	 5.802785770157733e-01	-8.492137736196587e-02
1	 1.898762942424532e+00	 5.434374743546986e-01	-3.389180173379774e-02
1	 1.908927697669692e+00	 5.065767909505332e-01	 4.838218487416024e-02
1	 1.918329801923412e+00	 4.697188213305547e-01	 1.599045278137077e-01
1	 1.926975669844028e+00	 4.328853980966485e-01	 2.986388431909850e-01
1	 1.934872472425129e+00	 3.960978610157211e-01	 4.625176393425178e-01
1	 1.942028102629256e+00	 3.593770285354013e-01	 6.494513294569352e-01
1	 1.830520717704041e+00	 7.246864594801485e-01	 5.969253718507039e-03
1	 1.844521785187952e+00	 6.882702568625806e-01	-7.261226459279235e-02
1	 1.857743059701832e+00	 6.517417330952210e-01	-1.148377139936376e-01
1	 1.870186699212259e+00	 6.151245992709521e-01	-1.221563376354870e-01
1	 1.881855765774378e+00	 5.784422524053084e-01	-9.609729766555128e-02
1	 1.892754198934095e+00	 5.417177355114887e-01	-3.826125320230939e-02
1	 1.902886787232178e+00	 5.049736998389867e-01	 4.968812413235574e-02
1	 1.912259137991414e+00	 4.682323693627786e-01	 1.660326420484361e-01
1	 1.920877645570584e+00	 4.315155075942375e-01	 3.090080340866193e-01
1	 1.928749458270260e+00	 3.948443867693620e-01	 4.768123108262931e-01
1	 1.935882444075250e+00	 3.582397594546164e-01	 6.676139689237626e-01
1	 1.824709540822537e+00	 7.223858675476253e-01	-4.385010708632442e-02
1	 1.838666160472611e+00	 6.860852719219046e-01	-1.089609142399168e-01
1	 1.851845462685985e+00	 6.496727117215029e-01	-1.400031855358890e-01
1	 1.864249598578548e+00	 6.131718227659925e-01	-1.381338764043007e-01
1	 1.875881620484636e+00	 5.766059277946672e-01	-1.045915337922418e-01
1	 1.886745455443657e+00	 5.399979966683036e-01	-4.068898327472392e-02
1	 1.896845876794664e+00	 5.033706087276666e-01	 5.219409908061740e-02
1	 1.906188474059415e+00	 4.667459173954303e-01	 1.726186795221594e-01
1	 1.914779621297140e+00	 4.301456170924553e-01	 3.190938752524044e-01
1	 1.922626444115390e+00	 3.935909125238318e-01	 4.900844321536669e-01
1	 1.929736785521244e+00	 3.571024903748611e-01	 6.840181272905188e-01
1	 1.818898363941034e+00	 7.200852756141226e-01	-8.801828237155801e-02
1	 1.832810535757269e+00	 6.839002869804489e-01	-1.403849124727010e-01
1	 1.845947865670136e+00	 6.476036903472060e-01	-1.609777423845176e-01
1	 1.858312497944836e+00	 6.112190462606550e-01	-1.506600476591940e-01
1	 1.869907475194894e+00	 5.747696031838500e-01	-1.103783826994391e-01
1	 1.880736711953221e+00	 5.382782578251437e-01	-4.115638120328252e-02
1	 1.890804966357150e+00	 5.017675176165729e-01	 5.591161165814768e-02
1	 1.900117810127416e+00	 4.652594654285095e-01	 1.796670292752737e-01
1	 1.908681597023696e+00	 4.287757265913015e-01	 3.288936508760492e-01
1	 1.916503429960519e+00	 3.923374382791309e-01	 5.023242025242811e-01
1	 1.923591126967237e+00	 3.559652212961348e-01	 6.986469501056515e-01
1	 1.813087187059531e+00	 7.177846836796408e-01	-1.264809338168747e-01
1	 1.826954911041928e+00	 6.817153020382143e-01	-1.668369068751851e-01
1	 1.840050268654289e+00	 6.455346689723306e-01	-1.777210872839417e-01
1	 1.852375397311125e+00	 6.092662697549400e-01	-1.597016651748530e-01
1	 1.863933329905151e+00	 5.729332785728564e-01	-1.134318118182773e-01
1	 1.874727968462783e+00	 5.365585189820092e-01	-3.964459764083716e-02
1	 1.884764055919636e+00	 5.001644265057056e-01	 6.085231126494761e-02
1	 1.894047146195418e+00	 4.637730134620164e-01	 1.871821366179400e-01
1	 1.902583572750251e+00	 4.274058360907767e-01	 3.384046103271533e-01
1	 1.910380415805650e+00	 3.910839640352594e-01	 5.135216954864510e-01
1	 1.917445468413230e+00	 3.548279522184382e-01	 7.114833668348375e-01
1	 1.807276010178027e+00	 7.154840917441793e-01	-1.591830242166410e-01
1	 1.821099286326586e+00	 6.795303170952003e-01	-1.882689359969779e-01
1	 1.834152671638440e+00	 6.434656475968767e-01	-1.901924046857803e-01
1	 1.846438296677414e+00	 6.073134932488476e-01	-1.652251158933795e-01
1	 1.857959184615409e+00	 5.710969539616865e-01	-1.137254537557711e-01
1	 1.868719224972346e+00	 5.348387801388995e-01	-3.613454080484846e-02
1	 1.878723145482122e+00	 4.985613353950650e-01	 6.702799713256347e-02
1	 1.887976482263419e+00	 4.622865614959512e-01	 1.951685040347367e-01
1	 1.896485548476808e+00	 4.260359455908804e-01	 3.476239675974270e-01
1	 1.904257401650780e+00	 3.898304897922170e-01	 5.236668569170644e-01
1	 1.911299809859224e+00	 3.536906831417708e-01	 7.225100873869911e-01
1	 1.801464833296524e+00	 7.131834998077383e-01	-1.860688062075689e-01
1	 1.815243661611244e+00	 6.773453321514069e-01	-2.046324195301154e-01
1	 1.828255074622592e+00	 6.413966262208440e-01	-1.983503523892887e-01
1	 1.840501196043703e+00	 6.053607167423776e-01	-1.671963530398917e-01
1	 1.851985039325666e+00	 5.692606293503404e-01	-1.112326008944237e-01
1	 1.862710481481908e+00	 5.331190412958150e-01	-3.060687256713029e-02
1	 1.872682235044608e+00	 4.969582442846507e-01	 7.445062074073316e-02
1	 1.881905818331420e+00	 4.608001095303135e-01	 2.036306921068428e-01
1	 1.890387524203362e+00	 4.246660550916125e-01	 3.565489007300752e-01
1	 1.898134387495910e+00	 3.885770155500037e-01	 5.327495029623392e-01
1	 1.905154151305217e+00	 3.525534140661327e-01	 7.317095985730052e-01
1	 1.966610736845282e+00	 3.639261048688338e-01	 5.595456757955704e-01
1	 1.973115078524969e+00	 3.268285283815016e-01	 7.407072687332629e-01
1	 1.978886900971149e+00	 2.898389780871670e-01	 9.345379532916214e-01
1	 1.983936172532344e+00	 2.529768039953384e-01	 1.141114756251972e+00
1	 1.988273445321150e+00	 2.162607376804582e-01	 1.360461319130457e+00
1	 1.991909817228721e+00	 1.797088758238808e-01	 1.592549913643368e+00
1	 1.994856893813928e+00	 1.433386661626854e-01	 1.837303613437795e+00
1	 1.997126750222366e+00	 1.071668957949584e-01	 2.094598600998745e+00
1	 1.998731893282386e+00	 7.120968178146636e-02	 2.364266588879217e+00
1	 1.999685223916798e+00	 3.548246397489040e-02	 2.646097334805388e+00
1	 2.000000000000000e+00	 0.000000000000000e+00	 2.939841230769230e+00
1	 1.960465078291276e+00	 3.627888357839317e-01	 5.845778988544856e-01
1	 1.966949093903480e+00	 3.258071892220590e-01	 7.645715672194002e-01
1	 1.972702879404751e+00	 2.889332312717472e-01	 9.581518789868280e-01
1	 1.977736371992524e+00	 2.521862514737179e-01	 1.165220042619766e+00
1	 1.982060090804042e+00	 2.155849228662357e-01	 1.385628023541398e+00
1	 1.985685099049551e+00	 1.791472855785181e-01	 1.619181032894078e+00
1	 1.988622966020549e+00	 1.428907328234580e-01	 1.865640128964339e+00
1	 1.990885729127804e+00	 1.068319992394520e-01	 2.124724909955253e+00
1	 1.992485856115827e+00	 7.098715152144330e-02	 2.396116277353658e+00
1	 1.993436207592045e+00	 3.537158127256485e-02	 2.679459249854439e+00
1	 1.993750000000000e+00	 0.000000000000000e+00	 2.974365808647693e+00
1	 1.954319419737269e+00	 3.616515667000589e-01	 6.079169650006189e-01
1	 1.960783109281990e+00	 3.247858500638137e-01	 7.872186421394888e-01
1	 1.966518857838353e+00	 2.880274844576293e-01	 9.810265023136076e-01
1	 1.971536571452704e+00	 2.513956989534414e-01	 1.189065126610281e+00
1	 1.975846736286935e+00	 2.149091080533387e-01	 1.411014015545795e+00
1	 1.979460380870381e+00	 1.785856953344024e-01	 1.646510552861629e+00
1	 1.982389038227170e+00	 1.424427994853404e-01	 1.895153038220097e+00
1	 1.984644708033242e+00	 1.064971026848608e-01	 2.156503767251193e+00
1	 1.986239818949267e+00	 7.076462126208481e-02	 2.430092138299763e+00
1	 1.987187191267293e+00	 3.526069857059837e-02	 2.715417766246851e+00
1	 1.987500000000000e+00	 0.000000000000000e+00	 3.011953584907928e+00
1	 1.948173761183262e+00	 3.605142976172154e-01	 6.295468506670727e-01
1	 1.954617124660500e+00	 3.237645109067654e-01	 8.086369740276333e-01
1	 1.960334836271955e+00	 2.871217376448130e-01	 1.003154826719637e+00
1	 1.965336770912883e+00	 2.506051464345092e-01	 1.212647545740505e+00
1	 1.969633381769826e+00	 2.142332932417672e-01	 1.436621370420682e+00
1	 1.973235662691210e+00	 1.780241050915338e-01	 1.674545083016617e+00
1	 1.976155110433792e+00	 1.419948661483328e-01	 1.925853474268840e+00
1	 1.978403686938679e+00	 1.061622061311850e-01	 2.189950812145436e+00
1	 1.979993781782708e+00	 7.054209100339093e-02	 2.466214293223771e+00
1	 1.980938174942540e+00	 3.514981586899093e-02	 2.753997457497163e+00
1	 1.981250000000000e+00	 0.000000000000000e+00	 3.052633548809347e+00
1	 1.942028102629256e+00	 3.593770285354013e-01	 6.494513294569352e-01
1	 1.948451140039011e+00	 3.227431717509143e-01	 8.288148976019190e-01
1	 1.954150814705558e+00	 2.862159908332985e-01	 1.024529767088602e+00
1	 1.959136970373063e+00	 2.498145939169212e-01	 1.235964806356794e+00
1	 1.963420027252718e+00	 2.135574784315213e-01	 1.462452189712368e+00
1	 1.967010944512039e+00	 1.774625148499122e-01	 1.703291316493887e+00
1	 1.969921182640413e+00	 1.415469328124350e-01	 1.957752711099286e+00
1	 1.972162665844117e+00	 1.058273095784245e-01	 2.225081881862172e+00
1	 1.973747744616148e+00	 7.031956074536165e-02	 2.504503118334386e+00
1	 1.974689158617787e+00	 3.503893316774255e-02	 2.795223208176809e+00
1	 1.975000000000000e+00	 0.000000000000000e+00	 3.096435056563836e+00
1	 1.935882444075250e+00	 3.582397594546164e-01	 6.676139689237626e-01
1	 1.942285155417521e+00	 3.217218325962605e-01	 8.477405994498181e-01
1	 1.947966793139159e+00	 2.853102440230859e-01	 1.045144148334446e+00
1	 1.952937169833243e+00	 2.490240414006774e-01	 1.259014383140004e+00
1	 1.957206672735611e+00	 2.128816636226010e-01	 1.488508601653481e+00
1	 1.960786226332869e+00	 1.769009246095377e-01	 1.732756031420405e+00
1	 1.963687254847034e+00	 1.410989994776471e-01	 1.990862165861772e+00
1	 1.965921644749555e+00	 1.054924130265792e-01	 2.261913014733021e+00
1	 1.967501707449590e+00	 7.009703048799697e-02	 2.544979248585829e+00
1	 1.968440142293034e+00	 3.492805046685321e-02	 2.839120218851836e+00
1	 1.968750000000000e+00	 0.000000000000000e+00	 3.143387837160331e+00
1	 1.929736785521244e+00	 3.571024903748611e-01	 6.840181272905188e-01
1	 1.936119170796032e+00	 3.207004934428038e-01	 8.654021156694526e-01
1	 1.941782771572762e+00	 2.844044972141749e-01	 1.064990703968771e+00
1	 1.946737369293422e+00	 2.482334888857778e-01	 1.281793718601338e+00
1	 1.950993318218503e+00	 2.122058488150062e-01	 1.514792761587896e+00
1	 1.954561508153698e+00	 1.763393343704102e-01	 1.762946092268713e+00
1	 1.957453327053656e+00	 1.406510661439691e-01	 2.025193401148079e+00
1	 1.959680623654992e+00	 1.051575164756493e-01	 2.300460453399657e+00
1	 1.961255670283030e+00	 6.987450023129683e-02	 2.587663581797761e+00
1	 1.962191125968281e+00	 3.481716776632292e-02	 2.885714011114234e+00
1	 1.962500000000000e+00	 0.000000000000000e+00	 3.193521998300830e+00
1	 1.923591126967237e+00	 3.559652212961348e-01	 6.986469501056515e-01
1	 1.929953186174542e+00	 3.196791542905442e-01	 8.817873294655988e-01
1	 1.935598750006363e+00	 2.834987504065657e-01	 1.084062074640641e+00
1	 1.940537568753602e+00	 2.474429363722223e-01	 1.304300222568447e+00
1	 1.944779963701394e+00	 2.115300340087370e-01	 1.541306852403855e+00
1	 1.948336789974529e+00	 1.757777441325298e-01	 1.793868451236197e+00
1	 1.951219399260276e+00	 1.402031328114009e-01	 2.060758127314709e+00
1	 1.953439602560430e+00	 1.048226199256347e-01	 2.340740648077279e+00
1	 1.955009633116471e+00	 6.965196997526132e-02	 2.632577282854618e+00
1	 1.955942109643528e+00	 3.470628506615169e-02	 2.935030432710533e+00
1	 1.956250000000000e+00	 0.000000000000000e+00	 3.246868032450078e+00
1	 1.917445468413230e+00	 3.548279522184382e-01	 7.114833668348375e-01
1	 1.923787201553052e+00	 3.186578151394820e-01	 8.968839686994688e-01
1	 1.929414728439965e+00	 2.825930036002583e-01	 1.102350806648502e+00
1	 1.934337768213782e+00	 2.466523838600109e-01	 1.326531271661655e+00
1	 1.938566609184287e+00	 2.108542192037932e-01	 1.568053084975245e+00
1	 1.942112071795358e+00	 1.752161538958963e-01	 1.825530149651023e+00
1	 1.944985471466898e+00	 1.397551994799426e-01	 2.097568204850876e+00
1	 1.947198581465868e+00	 1.044877233765354e-01	 2.382770259881190e+00
1	 1.948763595949912e+00	 6.942943971989041e-02	 2.679741787985293e+00
1	 1.949693093318775e+00	 3.459540236633950e-02	 2.987095662768398e+00
1	 1.950000000000000e+00	 0.000000000000000e+00	 3.303456823001641e+00
1	 1.911299809859224e+00	 3.536906831417708e-01	 7.225100873869911e-01
1	 1.917621216931563e+00	 3.176364759896169e-01	 9.106796033912606e-01
1	 1.923230706873567e+00	 2.816872567952527e-01	 1.119849350423226e+00
1	 1.928137967673962e+00	 2.458618313491438e-01	 1.348484208760023e+00
1	 1.932353254667179e+00	 2.101784044001750e-01	 1.595033698611759e+00
1	 1.935887353616187e+00	 1.746545636605099e-01	 1.857938319405009e+00
1	 1.938751543673519e+00	 1.393072661495942e-01	 2.135635646792254e+00
1	 1.940957560371305e+00	 1.041528268283514e-01	 2.426566164217564e+00
1	 1.942517558783353e+00	 6.920690946518410e-02	 2.729178809125810e+00
1	 1.943444076994023e+00	 3.448451966688636e-02	 3.041936217124444e+00
1	 1.943750000000000e+00	 0.000000000000000e+00	 3.363319650562933e+00
1	 1.905154151305217e+00	 3.525534140661327e-01	 7.317095985730052e-01
1	 1.911455232310073e+00	 3.166151368409488e-01	 9.231616431742623e-01
1	 1.917046685307169e+00	 2.807815099915488e-01	 1.136550058981894e+00
1	 1.921938167134141e+00	 2.450712788396208e-01	 1.370156342457236e+00
1	 1.926139900150070e+00	 2.095025895978823e-01	 1.622250961517284e+00
1	 1.929662635437016e+00	 1.740929734263706e-01	 1.891100184414375e+00
1	 1.932517615880140e+00	 1.388593328203557e-01	 2.174972621181377e+00
1	 1.934716539276743e+00	 1.038179302810827e-01	 2.472145454239688e+00
1	 1.936271521616793e+00	 6.898437921114235e-02	 2.780910338366057e+00
1	 1.937195060669269e+00	 3.437363696779226e-02	 3.099578953754817e+00
1	 1.937500000000000e+00	 0.000000000000000e+00	 3.426488199361888e+00
1	 0.000000000000000e+00	 1.937500000000000e+00	-1.689226636529947e+01
1	 3.437363696779240e-02	 1.937195060669269e+00	-1.553241579453662e+01
1	 6.898437921114264e-02	 1.936271521616793e+00	-1.423464049845450e+01
1	 1.038179302810830e-01	 1.934716539276743e+00	-1.300191118055718e+01
1	 1.388593328203562e-01	 1.932517615880140e+00	-1.183707632569635e+01
1	 1.740929734263712e-01	 1.929662635437017e+00	-1.074284619261545e+01
1	 2.095025895978831e-01	 1.926139900150071e+00	-9.721776662959083e+00
1	 2.450712788396217e-01	 1.921938167134141e+00	-8.776253036720554e+00
1	 2.807815099915498e-01	 1.917046685307169e+00	-7.908473870258478e+00
1	 3.166151368409499e-01	 1.911455232310073e+00	-7.120434958685054e+00
1	 3.525534140661327e-01	 1.905154151305217e+00	-6.413913569540445e+00
1	 0.000000000000000e+00	 1.931250000000000e+00	-1.706424699085529e+01
1	 3.426275426878808e-02	 1.930946044344516e+00	-1.569581541922699e+01
1	 6.876184895726706e-02	 1.930025484450234e+00	-1.439398247212758e+01
1	 1.034830337340431e-01	 1.928475518182180e+00	-1.316184611217092e+01
1	 1.384113994913951e-01	 1.926283688086761e+00	-1.200237190611572e+01
1	 1.735313831925436e-01	 1.923437917257845e+00	-1.091837609117201e+01
1	 2.088267747959218e-01	 1.919926545632962e+00	-9.912508501539136e+00
1	 2.442807263304348e-01	 1.915738366594321e+00	-8.987235450965404e+00
1	 2.798757631881713e-01	 1.910862663740771e+00	-8.144822673576170e+00
1	 3.155937976925812e-01	 1.905289247688583e+00	-7.387318431165488e+00
1	 3.514161449907519e-01	 1.899008492751211e+00	-6.716536900489340e+00
1	 0.000000000000000e+00	 1.925000000000000e+00	-1.723702917556236e+01
1	 3.415187156960422e-02	 1.924697028019764e+00	-1.585988536503116e+01
1	 6.853931870305917e-02	 1.923779447283674e+00	-1.455389324981572e+01
1	 1.031481371865456e-01	 1.922234497087618e+00	-1.332227884873449e+01
1	 1.379634661618791e-01	 1.920049760293383e+00	-1.216812556662509e+01
1	 1.729697929580925e-01	 1.917213199078676e+00	-1.109435633034512e+01
1	 2.081509599932978e-01	 1.913713191115854e+00	-1.010371558876760e+01
1	 2.434901738205758e-01	 1.909538566054500e+00	-9.198751278394262e+00
1	 2.789700163841421e-01	 1.904678642174373e+00	-8.381796862980496e+00
1	 3.145724585436140e-01	 1.899123263067094e+00	-7.654953561783358e+00
1	 3.502788759148565e-01	 1.892862834197204e+00	-7.020072886614991e+00
1	 0.000000000000000e+00	 1.918750000000000e+00	-1.741062075224590e+01
1	 3.404098887024084e-02	 1.918448011695011e+00	-1.602463218231780e+01
1	 6.831678844851900e-02	 1.917533410117115e+00	-1.471437838986410e+01
1	 1.028132406385904e-01	 1.915993475993055e+00	-1.348321425479126e+01
1	 1.375155328318082e-01	 1.913815832500004e+00	-1.233434178357689e+01
1	 1.724082027230179e-01	 1.910988480899505e+00	-1.127079131085808e+01
1	 2.074751451900110e-01	 1.907499836598746e+00	-1.029540256876924e+01
1	 2.426996213100447e-01	 1.903338765514681e+00	-9.410805731515055e+00
1	 2.780642695794620e-01	 1.898494620607976e+00	-8.619402549738009e+00
1	 3.135511193940482e-01	 1.892957278445604e+00	-7.923347695734209e+00
1	 3.491416068384464e-01	 1.886717175643198e+00	-7.324530446373887e+00
1	 0.000000000000000e+00	 1.912500000000000e+00	-1.758502965612092e+01
1	 3.393010617069794e-02	 1.912198995370258e+00	-1.619006250708161e+01
1	 6.809425819364653e-02	 1.911287372950556e+00	-1.487544352327600e+01
1	 1.024783440901776e-01	 1.909752454898493e+00	-1.364465725847340e+01
1	 1.370675995011824e-01	 1.907581904706625e+00	-1.250102509183886e+01
1	 1.718466124873197e-01	 1.904763762720335e+00	-1.144768549096011e+01
1	 2.067993303860614e-01	 1.901286482081638e+00	-1.048757414637616e+01
1	 2.419090687988414e-01	 1.897138964974860e+00	-9.623404090973317e+00
1	 2.771585227741308e-01	 1.892310599041578e+00	-8.857645925001087e+00
1	 3.125297802438837e-01	 1.886791293824114e+00	-8.192508274229189e+00
1	 3.480043377615215e-01	 1.880571517089191e+00	-7.629918614803887e+00
1	 0.000000000000000e+00	 1.906250000000000e+00	-1.776026392647109e+01
1	 3.381922347097552e-02	 1.905949979045505e+00	-1.635618306234656e+01
1	 6.787172793844175e-02	 1.905041335783996e+00	-1.503709435490398e+01
1	 1.021434475413071e-01	 1.903511433803931e+00	-1.380661285254470e+01
1	 1.366196661700015e-01	 1.901347976913246e+00	-1.266818008575193e+01
1	 1.712850222509980e-01	 1.898539044541164e+00	-1.162504338736898e+01
1	 2.061235155814491e-01	 1.895073127564530e+00	-1.068023508812328e+01
1	 2.411185162869663e-01	 1.890939164435040e+00	-9.836551706668960e+00
1	 2.762527759681488e-01	 1.886126577475180e+00	-9.096533261117280e+00
1	 3.115084410931207e-01	 1.880625309202625e+00	-8.462442836069011e+00
1	 3.468670686840821e-01	 1.874425858535185e+00	-7.936246545434904e+00
1	 0.000000000000000e+00	 1.900000000000000e+00	-1.793633170836013e+01
1	 3.370834077107357e-02	 1.899700962720753e+00	-1.652300065959754e+01
1	 6.764919768290469e-02	 1.898795298617437e+00	-1.519933666466433e+01
1	 1.018085509919790e-01	 1.897270412709369e+00	-1.396908609546269e+01
1	 1.361717328382658e-01	 1.895114049119868e+00	-1.283581142010899e+01
1	 1.707234320140529e-01	 1.892314326361993e+00	-1.180286957623328e+01
1	 2.054477007761739e-01	 1.888859773047423e+00	-1.087339022326302e+01
1	 2.403279637744189e-01	 1.884739363895219e+00	-1.005025399889532e+01
1	 2.753470291615159e-01	 1.879942555908782e+00	-9.336070912965344e+00
1	 3.104871019417592e-01	 1.874459324581135e+00	-8.733159019249340e+00
1	 3.457297996061280e-01	 1.868280199981179e+00	-8.243523512238118e+00
1	 0.000000000000000e+00	 1.893750000000000e+00	-1.811324125437721e+01
1	 3.359745807099208e-02	 1.893451946396000e+00	-1.669052220024001e+01
1	 6.742666742703532e-02	 1.892549261450878e+00	-1.536217630877603e+01
1	 1.014736544421932e-01	 1.891029391614806e+00	-1.413208211246362e+01
1	 1.357237995059751e-01	 1.888880121326489e+00	-1.300392381115264e+01
1	 1.701618417764842e-01	 1.886089608182823e+00	-1.198116869411259e+01
1	 2.047718859702360e-01	 1.882646418530315e+00	-1.106704444480045e+01
1	 2.395374112611994e-01	 1.878539563355399e+00	-1.026451645950043e+01
1	 2.744412823542322e-01	 1.873758534342384e+00	-9.576265319316610e+00
1	 3.094657627897989e-01	 1.868293339959646e+00	-9.004664562597215e+00
1	 3.445925305276593e-01	 1.862134541427172e+00	-8.551758911613419e+00
1	 0.000000000000000e+00	 1.887500000000000e+00	-1.829100092641747e+01
1	 3.348657537073110e-02	 1.887202930071247e+00	-1.685875467708875e+01
1	 6.720413717083368e-02	 1.886303224284319e+00	-1.552561922102387e+01
1	 1.011387578919497e-01	 1.884788370520244e+00	-1.429560609666744e+01
1	 1.352758661731295e-01	 1.882646193533110e+00	-1.317252203759154e+01
1	 1.696002515382920e-01	 1.879864890003653e+00	-1.215994543897797e+01
1	 2.040960711636354e-01	 1.876433064013206e+00	-1.126120271054833e+01
1	 2.387468587473079e-01	 1.872339762815579e+00	-1.047934465307249e+01
1	 2.735355355462977e-01	 1.867574512775986e+00	-9.817123004224118e+00
1	 3.084444236372402e-01	 1.862127355338156e+00	-9.276967307440732e+00
1	 3.434552614486758e-01	 1.855988882873165e+00	-8.860962264416086e+00
1	 0.000000000000000e+00	 1.881250000000000e+00	-1.846961919749753e+01
1	 3.337569267029056e-02	 1.880953913746494e+00	-1.702770517588677e+01
1	 6.698160691429972e-02	 1.880057187117760e+00	-1.568967141404670e+01
1	 1.008038613412486e-01	 1.878547349425681e+00	-1.445966331020586e+01
1	 1.348279328397289e-01	 1.876412265739731e+00	-1.334161094163957e+01
1	 1.690386612994762e-01	 1.873640171824482e+00	-1.233920457123185e+01
1	 2.034202563563720e-01	 1.870219709496099e+00	-1.145587004420445e+01
1	 2.379563062327442e-01	 1.866139962275758e+00	-1.069474421814749e+01
1	 2.726297887377122e-01	 1.861390491209588e+00	-1.005865057843960e+01
1	 3.074230844840827e-01	 1.855961370716666e+00	-9.550075199311879e+00
1	 3.423179923691778e-01	 1.849843224319159e+00	-9.171143218024612e+00
1	 0.000000000000000e+00	 1.875000000000000e+00	-1.864910465360785e+01
1	 3.326480996967050e-02	 1.874704897421741e+00	-1.719738087685303e+01
1	 6.675907665743346e-02	 1.873811149951200e+00	-1.585433898065235e+01
1	 1.004689647900899e-01	 1.872306328331119e+00	-1.462425908537210e+01
1	 1.343799995057734e-01	 1.870178337946352e+00	-1.351119543007308e+01
1	 1.684770710600369e-01	 1.867415453645311e+00	-1.251895091474902e+01
1	 2.027444415484457e-01	 1.864006354978990e+00	-1.165105153644890e+01
1	 2.371657537175085e-01	 1.859940161735938e+00	-1.091072086844192e+01
1	 2.717240419284757e-01	 1.855206469643190e+00	-1.030085474085775e+01
1	 3.064017453303267e-01	 1.849795386095177e+00	-9.823996289682889e+00
1	 3.411807232891650e-01	 1.843697565765152e+00	-9.482311548449157e+00
1	 3.525534140661327e-01	 1.905154151305217e+00	-6.413913569540445e+00
1	 3.885770365243251e-01	 1.898134379112617e+00	-5.792745075659142e+00
1	 4.246661398255557e-01	 1.890387490403064e+00	-5.282376864294716e+00
1	 4.608003020482406e-01	 1.881905741671401e+00	-4.883488142223098e+00
1	 4.969585898254388e-01	 1.872682097662176e+00	-4.596376961376946e+00
1	 5.331195862840871e-01	 1.862710265083652e+00	-4.420945389334014e+00
1	 5.692614213633899e-01	 1.851984725177042e+00	-4.356686087739503e+00
1	 6.053618044727185e-01	 1.840500764959051e+00	-4.402670448033328e+00
1	 6.413980594343396e-01	 1.828254506955707e+00	-4.557538428745653e+00
1	 6.773471616409540e-01	 1.815242937246599e+00	-4.819490231819402e+00
1	 7.131857773425027e-01	 1.801463931641279e+00	-5.186279946900278e+00
1	 3.514161449907519e-01	 1.899008492751211e+00	-6.716536900489340e+00
1	 3.873235622146577e-01	 1.892011364984790e+00	-6.133023134826589e+00
1	 4.232962490531004e-01	 1.884289466238654e+00	-5.655015407237967e+00
1	 4.593138494616631e-01	 1.875835077986693e+00	-5.283123787534692e+00
1	 4.953554976003954e-01	 1.866641187667831e+00	-5.017595062879237e+00
1	 5.313998456829224e-01	 1.856701522291275e+00	-4.858298757973065e+00
1	 5.674250941970324e-01	 1.846010580900682e+00	-4.804714502057061e+00
1	 6.034090244572280e-01	 1.834563665715935e+00	-4.855920884265770e+00
1	 6.393290334347377e-01	 1.822356911771042e+00	-5.010585933936068e+00
1	 6.751621707951894e-01	 1.809387314867918e+00	-5.266959355919091e+00
1	 7.108851780586859e-01	 1.795652757668342e+00	-5.622866642763971e+00
1	 3.502788759148565e-01	 1.892862834197204e+00	-7.020072886614991e+00
1	 3.860700879045711e-01	 1.885888350856963e+00	-6.474143822966868e+00
1	 4.219263582803120e-01	 1.878191442074242e+00	-6.028391966182165e+00
1	 4.578273968748290e-01	 1.869764414301985e+00	-5.683357838318149e+00
1	 4.937524053751625e-01	 1.860600277673486e+00	-5.439236623243305e+00
1	 5.296801050816254e-01	 1.850692779498896e+00	-5.295865039985303e+00
1	 5.655887670305898e-01	 1.840036436624323e+00	-5.252709501556721e+00
1	 6.014562444416898e-01	 1.828626566472820e+00	-5.308855692940418e+00
1	 6.372600074351145e-01	 1.816459316586377e+00	-5.462999697146613e+00
1	 6.729771799494191e-01	 1.803531692489236e+00	-5.713440791950814e+00
1	 7.085845787748687e-01	 1.789841583695404e+00	-6.058076032084940e+00
1	 3.491416068384464e-01	 1.886717175643198e+00	-7.324530446373887e+00
1	 3.848166135940653e-01	 1.879765336729136e+00	-6.816115374240923e+00
1	 4.205564675071902e-01	 1.872093417909832e+00	-6.402513753011211e+00
1	 4.563409442877383e-01	 1.863693750617277e+00	-6.084196142184750e+00
1	 4.921493131497401e-01	 1.854559367679141e+00	-5.861305780504044e+00
1	 5.279603644801963e-01	 1.844684036706518e+00	-5.733646315957766e+00
1	 5.637524398640622e-01	 1.834062292347963e+00	-5.700670759709396e+00
1	 5.995034644261034e-01	 1.822689467229704e+00	-5.761471789749059e+00
1	 6.351909814354697e-01	 1.810561721401713e+00	-5.914773525458981e+00
1	 6.707921891036436e-01	 1.797676070110554e+00	-6.158924888239651e+00
1	 7.062839794910519e-01	 1.784030409722465e+00	-6.491894655841469e+00
1	 3.480043377615215e-01	 1.880571517089191e+00	-7.629918614803887e+00
1	 3.835631392831401e-01	 1.873642322601309e+00	-7.158946130445678e+00
1	 4.191865767337355e-01	 1.865995393745421e+00	-6.777388073882072e+00
1	 4.548544917003914e-01	 1.857623086932569e+00	-6.485644623185052e+00
1	 4.905462209241286e-01	 1.848518457684797e+00	-6.283806726788487e+00
1	 5.262406238786349e-01	 1.838675293914140e+00	-6.171644693674746e+00
1	 5.619161126974493e-01	 1.828088148071603e+00	-6.148597945717970e+00
1	 5.975506844104691e-01	 1.816752367986589e+00	-6.213766050065656e+00
1	 6.331219554358037e-01	 1.804664126217049e+00	-6.365901145001708e+00
1	 6.686071982578626e-01	 1.791820447731873e+00	-6.603401866944907e+00
1	 7.039833802072347e-01	 1.778219235749527e+00	-6.924308879077069e+00
1	 3.468670686840821e-01	 1.874425858535185e+00	-7.936246545434904e+00
1	 3.823096649717956e-01	 1.867519308473482e+00	-7.502644542778762e+00
1	 4.178166859599476e-01	 1.859897369581010e+00	-7.153022330769927e+00
1	 4.533680391127878e-01	 1.851552423247860e+00	-6.887709283062185e+00
1	 4.889431286983275e-01	 1.842477547690452e+00	-6.706743709202359e+00
1	 5.245208832769414e-01	 1.832666551121761e+00	-6.609862308563471e+00
1	 5.600797855307517e-01	 1.822114003795244e+00	-6.596490724446639e+00
1	 5.955979043947863e-01	 1.810815268743473e+00	-6.665735308285454e+00
1	 6.310529294361162e-01	 1.798766531032385e+00	-6.816376199622987e+00
1	 6.664222074120766e-01	 1.785964825353192e+00	-7.046861821991997e+00
1	 7.016827809234180e-01	 1.772408061776589e+00	-7.355304888015984e+00
1	 3.457297996061280e-01	 1.868280199981179e+00	-8.243523512238118e+00
1	 3.810561906600319e-01	 1.861396294345655e+00	-7.847219173637756e+00
1	 4.164467951858264e-01	 1.853799345416598e+00	-7.529424023044547e+00
1	 4.518815865249279e-01	 1.845481759563152e+00	-7.290396202529538e+00
1	 4.873400364723369e-01	 1.836436637696107e+00	-7.130121030734173e+00
1	 5.228011426751156e-01	 1.826657808329383e+00	-7.048301324149104e+00
1	 5.582434583639688e-01	 1.816139859518884e+00	-7.044348756350094e+00
1	 5.936451243790557e-01	 1.804878169500358e+00	-7.117376357151026e+00
1	 6.289839034364069e-01	 1.792868935847720e+00	-7.266192249537452e+00
1	 6.642372165662850e-01	 1.780109202974510e+00	-7.489294716963279e+00
1	 6.993821816396011e-01	 1.766596887803651e+00	-7.784868687122362e+00
1	 3.445925305276593e-01	 1.862134541427172e+00	-8.551758911613419e+00
1	 3.798027163478487e-01	 1.855273280217828e+00	-8.192678698455071e+00
1	 4.150769044113722e-01	 1.847701321252188e+00	-7.906600749077148e+00
1	 4.503951339368114e-01	 1.839411095878444e+00	-7.693711542573921e+00
1	 4.857369442461569e-01	 1.830395727701762e+00	-7.553943051177757e+00
1	 5.210814020731577e-01	 1.820649065537004e+00	-7.486963932517980e+00
1	 5.564071311971012e-01	 1.810165715242525e+00	-7.492171697400612e+00
1	 5.916923443632770e-01	 1.798941070257242e+00	-7.568685947064921e+00
1	 6.269148774366765e-01	 1.786971340663055e+00	-7.715342769946003e+00
1	 6.620522257204879e-01	 1.774253580595829e+00	-7.930690382947096e+00
1	 6.970815823557841e-01	 1.760785713830713e+00	-8.212986096100808e+00
1	 3.434552614486758e-01	 1.855988882873165e+00	-8.860962264416086e+00
1	 3.785492420352463e-01	 1.849150266090002e+00	-8.539031907569617e+00
1	 4.137070136365847e-01	 1.841603297087777e+00	-8.284560207879800e+00
1	 4.489086813484385e-01	 1.833340432193735e+00	-8.097661545784582e+00
1	 4.841338520197875e-01	 1.824354817707417e+00	-7.978214188072531e+00
1	 5.193616614710673e-01	 1.814640322744626e+00	-7.925852354790965e+00
1	 5.545708040301484e-01	 1.804191570966166e+00	-7.939959199013772e+00
1	 5.897395643474503e-01	 1.793003971014127e+00	-8.019660785388638e+00
1	 6.248458514369243e-01	 1.781073745478391e+00	-8.163821149628527e+00
1	 6.598672348746856e-01	 1.768397958217148e+00	-8.371038516344179e+00
1	 6.947809830719671e-01	 1.754974539857775e+00	-8.639642746837442e+00
1	 3.423179923691778e-01	 1.849843224319159e+00	-9.171143218024612e+00
1	 3.772957677222246e-01	 1.843027251962175e+00	-8.886287708135306e+00
1	 4.123371228614642e-01	 1.835505272923366e+00	-8.663310200776710e+00
1	 4.474222287598091e-01	 1.827269768509027e+00	-8.502252537708806e+00
1	 4.825307597932286e-01	 1.818313907713072e+00	-8.402938917662652e+00
1	 5.176419208688450e-01	 1.808631579952248e+00	-8.364968841605187e+00
1	 5.527344768631105e-01	 1.798217426689806e+00	-8.387710907972675e+00
1	 5.877867843315755e-01	 1.787066871771011e+00	-8.470297535727719e+00
1	 6.227768254371510e-01	 1.775176150293727e+00	-8.611620689507959e+00
1	 6.576822440288778e-01	 1.762542335838467e+00	-8.810328676630471e+00
1	 6.924803837881501e-01	 1.749163365884837e+00	-9.064824080279811e+00
1	 3.411807232891650e-01	 1.843697565765152e+00	-9.482311548449157e+00
1	 3.760422934087836e-01	 1.836904237834347e+00	-9.234455126068328e+00
1	 4.109672320860102e-01	 1.829407248758954e+00	-9.042858633110047e+00
1	 4.459357761709229e-01	 1.821199104824319e+00	-8.907490928234525e+00
1	 4.809276675664804e-01	 1.812272997718727e+00	-8.828121775875635e+00
1	 5.159221802664901e-01	 1.802622837159869e+00	-8.804315673606370e+00
1	 5.508981496959874e-01	 1.792243282413446e+00	-8.835426466351144e+00
1	 5.858340043156527e-01	 1.781129772527895e+00	-8.920592817202465e+00
1	 6.207077994373560e-01	 1.769278555109062e+00	-9.058734601186480e+00
1	 6.554972531830644e-01	 1.756686713459785e+00	-9.248550284074787e+00
1	 6.901797845043331e-01	 1.743352191911899e+00	-9.488515343255058e+00
1	 7.131857773425027e-01	 1.801463931641279e+00	-5.186279946900277e+00
1	 7.488893663489132e-01	 1.786916656698612e+00	-5.535935623667471e+00
1	 7.844349856973795e-01	 1.771600493783301e+00	-5.863597377305024e+00
1	 8.197986293725965e-01	 1.755516124193484e+00	-6.168648500225079e+00
1	 8.549561584840074e-01	 1.738665201568287e+00	-6.450531193007548e+00
1	 8.898833493805206e-01	 1.721050366241565e+00	-6.708749794628661e+00
1	 9.245559430631417e-01	 1.702675256794363e+00	-6.942873777753841e+00
1	 9.589496957085124e-01	 1.683544518686839e+00	-7.152540483591801e+00
1	 9.930404301047372e-01	 1.663663809864437e+00	-7.337457572165571e+00
1	 1.026804087790411e+00	 1.643039803248372e+00	-7.497405165496726e+00
1	 1.060216781678620e+00	 1.621680186036846e+00	-7.632237663116835e+00
1	 7.108851780586859e-01	 1.795652757668342e+00	-5.622866642763971e+00
1	 7.464735941970667e-01	 1.781152409419593e+00	-5.950115830808213e+00
1	 7.819045502570909e-01	 1.765885653481868e+00	-6.257366629316312e+00
1	 8.171541176622141e-01	 1.749853168955566e+00	-6.544013973568298e+00
1	 8.521982353892681e-01	 1.733056604145493e+00	-6.809504122057970e+00
1	 8.870127579279732e-01	 1.715498590868295e+00	-7.053337704698419e+00
1	 9.215735045341693e-01	 1.697182755967659e+00	-7.275072572662940e+00
1	 9.558563095903816e-01	 1.678113729918387e+00	-7.474326426366152e+00
1	 9.898370738757203e-01	 1.658297152414483e+00	-7.650779199187169e+00
1	 1.023491816536721e+00	 1.637739674851611e+00	-7.804175175893607e+00
1	 1.056796727541590e+00	 1.616448959630558e+00	-7.934324826332245e+00
1	 7.085845787748687e-01	 1.789841583695404e+00	-6.058076032084942e+00
1	 7.440578220452246e-01	 1.775388162140578e+00	-6.362971837010753e+00
1	 7.793741148168220e-01	 1.760170813180453e+00	-6.649878233004533e+00
1	 8.145096059518752e-01	 1.744190213717692e+00	-6.918201831786495e+00
1	 8.494403122946071e-01	 1.727448006722776e+00	-7.167392950316081e+00
1	 8.841421664755474e-01	 1.709946815495148e+00	-7.396948476265638e+00
1	 9.185910660053735e-01	 1.691690255141133e+00	-7.606414571843836e+00
1	 9.527629234724913e-01	 1.672682941150175e+00	-7.795389194486245e+00
1	 9.866337176470187e-01	 1.652930494964844e+00	-7.963524413770346e+00
1	 1.020179545283431e+00	 1.632439546455249e+00	-8.110528504979172e+00
1	 1.053376673405054e+00	 1.611217733224764e+00	-8.236167801037926e+00
1	 7.062839794910519e-01	 1.784030409722465e+00	-6.491894655841469e+00
1	 7.416420498933872e-01	 1.769623914861568e+00	-6.774490702200967e+00
1	 7.768436793765719e-01	 1.754455972879059e+00	-7.041119898647028e+00
1	 8.118650942415803e-01	 1.738527258479861e+00	-7.291200567240459e+00
1	 8.466823892000240e-01	 1.721839409300138e+00	-7.524187083963521e+00
1	 8.812715750232440e-01	 1.704395040122122e+00	-7.739572560746256e+00
1	 9.156086274767538e-01	 1.686197754314781e+00	-7.936891402700470e+00
1	 9.496695373548419e-01	 1.667252152382205e+00	-8.115721721099614e+00
1	 9.834303614186323e-01	 1.647563837515521e+00	-8.275687583221160e+00
1	 1.016867274030541e+00	 1.627139418059288e+00	-8.416461080950111e+00
1	 1.049956619269014e+00	 1.605986506819464e+00	-8.537764201027954e+00
1	 7.039833802072347e-01	 1.778219235749527e+00	-6.924308879077069e+00
1	 7.392262777415548e-01	 1.763859667582564e+00	-7.184659317153291e+00
1	 7.743132439363415e-01	 1.748741132577684e+00	-7.431079175870857e+00
1	 8.092205825313286e-01	 1.732864303242074e+00	-7.662998521864234e+00
1	 8.439244661055184e-01	 1.716230811877577e+00	-7.879875790700726e+00
1	 8.784009835710626e-01	 1.698843264749218e+00	-8.081200284738088e+00
1	 9.126261889483098e-01	 1.680705253488607e+00	-8.266494583191344e+00
1	 9.465761512374326e-01	 1.661821363614474e+00	-8.435316846976580e+00
1	 9.802270051905606e-01	 1.642197180066512e+00	-8.587263001215582e+00
1	 1.013555002778051e+00	 1.621839289663725e+00	-8.721968778776935e+00
1	 1.046536565133467e+00	 1.600755280414659e+00	-8.839111608904133e+00
1	 7.016827809234180e-01	 1.772408061776589e+00	-7.355304888015985e+00
1	 7.368105055897272e-01	 1.758095420303563e+00	-7.593464400717941e+00
1	 7.717828084961303e-01	 1.743026292276328e+00	-7.819743451019777e+00
1	 8.065760708211206e-01	 1.727201348004331e+00	-8.033583884699254e+00
1	 8.411665430110908e-01	 1.710622214455094e+00	-8.234448197476674e+00
1	 8.755303921190034e-01	 1.693291489376437e+00	-8.421821847974634e+00
1	 9.096437504200431e-01	 1.675212752662609e+00	-8.595215520034698e+00
1	 9.434827651202642e-01	 1.656390574846985e+00	-8.754167318996004e+00
1	 9.770236489628047e-01	 1.636830522617819e+00	-8.898244886592806e+00
1	 1.010242731525961e+00	 1.616539161268563e+00	-9.027047419331232e+00
1	 1.043116510998416e+00	 1.595524054010350e+00	-9.140207575564856e+00
1	 6.993821816396011e-01	 1.766596887803651e+00	-7.784868687122360e+00
1	 7.343947334379046e-01	 1.752331173024568e+00	-8.000892496993215e+00
1	 7.692523730559384e-01	 1.737311451974992e+00	-8.207099944468425e+00
1	 8.039315591109566e-01	 1.721538392766631e+00	-8.402944689379510e+00
1	 8.384086199167412e-01	 1.705013617032689e+00	-8.587893288173792e+00
1	 8.726598006670659e-01	 1.687739714003778e+00	-8.761427321238610e+00
1	 9.066613118919522e-01	 1.669720251836787e+00	-8.923045506879697e+00
1	 9.403893790033364e-01	 1.650959786079735e+00	-9.072265788600919e+00
1	 9.738202927353634e-01	 1.631463865169441e+00	-9.208627382123870e+00
1	 1.006930460274270e+00	 1.611239032873802e+00	-9.331692768496200e+00
1	 1.039696456863860e+00	 1.590292827606534e+00	-9.441049619683289e+00
1	 6.970815823557841e-01	 1.760785713830713e+00	-8.212986096100808e+00
1	 7.319789612860867e-01	 1.746566925745578e+00	-8.406929972441672e+00
1	 7.667219376157656e-01	 1.731596611673673e+00	-8.593135707883235e+00
1	 8.012870474008360e-01	 1.715875437528975e+00	-8.771068811567353e+00
1	 8.356506968224694e-01	 1.699405019610362e+00	-8.940199901247309e+00
1	 8.697892092152505e-01	 1.682187938631241e+00	-9.100006644233867e+00
1	 9.036788733640375e-01	 1.664227751011141e+00	-9.249975722439846e+00
1	 9.372959928866493e-01	 1.645528997312727e+00	-9.389604810223707e+00
1	 9.706169365082372e-01	 1.626097207721378e+00	-9.518404553256824e+00
1	 1.003618189022979e+00	 1.605938904479439e+00	-9.635900536259051e+00
1	 1.036276402729798e+00	 1.585061601203213e+00	-9.741635227175973e+00
1	 6.947809830719671e-01	 1.754974539857775e+00	-8.639642746837440e+00
1	 7.295631891342734e-01	 1.740802678466592e+00	-8.811563012949225e+00
1	 7.641915021756124e-01	 1.725881771372376e+00	-8.977837621429765e+00
1	 7.986425356907589e-01	 1.710212482291362e+00	-9.137943966337641e+00
1	 8.328927737282755e-01	 1.693796422188113e+00	-9.291356727317391e+00
1	 8.669186177635574e-01	 1.676636163258826e+00	-9.437549623415345e+00
1	 9.006964348362991e-01	 1.658735250185671e+00	-9.575997228590644e+00
1	 9.342026067702029e-01	 1.640098208545959e+00	-9.706176839679962e+00
1	 9.674135802814262e-01	 1.620730550273630e+00	-9.827570386836266e+00
1	 1.000305917772088e+00	 1.600638776085477e+00	-9.939666375785725e+00
1	 1.032856348596230e+00	 1.579830374800387e+00	-1.004196185066026e+01
1	 6.924803837881501e-01	 1.749163365884837e+00	-9.064824080279811e+00
1	 7.271474169824653e-01	 1.735038431187612e+00	-9.214777620825590e+00
1	 7.616610667354786e-01	 1.720166931071097e+00	-9.361192390923572e+00
1	 7.959980239807256e-01	 1.704549527053794e+00	-9.503557705510651e+00
1	 8.301348506341594e-01	 1.688187824765942e+00	-9.641352306713417e+00
1	 8.640480263119861e-01	 1.671084387886532e+00	-9.774045929775605e+00
1	 8.977139963087371e-01	 1.653242749360379e+00	-9.901100968428313e+00
1	 9.311092206539970e-01	 1.634667419779432e+00	-1.002197423253029e+01
1	 9.642102240549305e-01	 1.615363892826198e+00	-1.013611878979789e+01
1	 9.969936465215971e-01	 1.595338647691914e+00	-1.024298588247676e+01
1	 1.029436294463158e+00	 1.574599148398056e+00	-1.034202690890112e+01
1	 6.901797845043331e-01	 1.743352191911899e+00	-9.488515343255060e+00
1	 7.247316448306619e-01	 1.729274183908636e+00	-9.616559611744531e+00
1	 7.591306312953636e-01	 1.714452090769837e+00	-9.743186544924317e+00
1	 7.933535122707360e-01	 1.698886571816269e+00	-9.867897414930900e+00
1	 8.273769275401210e-01	 1.682579227343848e+00	-9.990175026969318e+00
1	 8.611774348605369e-01	 1.665532612514361e+00	-1.010948509658720e+01
1	 8.947315577813513e-01	 1.647750248535261e+00	-1.022527776429066e+01
1	 9.280158345380317e-01	 1.629236631013145e+00	-1.033698924240963e+01
1	 9.610068678287497e-01	 1.609997235379079e+00	-1.044404358783633e+01
1	 9.936813752715054e-01	 1.590038519298751e+00	-1.054585459300487e+01
1	 1.026016240330579e+00	 1.569367921996219e+00	-1.064182778624739e+01
1	 1.060216781678620e+00	 1.621680186036846e+00	-7.632237663116835e+00
1	 1.093255674058538e+00	 1.599593110090781e+00	-7.640302085202973e+00
1	 1.125896511082692e+00	 1.576788837286856e+00	-7.610642415754081e+00
1	 1.158116235631660e+00	 1.553278061533488e+00	-7.545011043406300e+00
1	 1.189892172762570e+00	 1.529072455490151e+00	-7.445295609443035e+00
1	 1.221202081275231e+00	 1.504184653450733e+00	-7.313512352708861e+00
1	 1.252024204348980e+00	 1.478628230984658e+00	-7.151798711899537e+00
1	 1.282337319013354e+00	 1.452417681395792e+00	-6.962405226541035e+00
1	 1.312120784220246e+00	 1.425568389078816e+00	-6.747686784294803e+00
1	 1.341354587291613e+00	 1.398096599872131e+00	-6.510093268131473e+00
1	 1.370019388525000e+00	 1.370019388525000e+00	-6.252159662335181e+00
1	 1.056796727541590e+00	 1.616448959630558e+00	-7.934324826332246e+00
1	 1.089729042849495e+00	 1.594433132316016e+00	-7.933960030917710e+00
1	 1.122264586851141e+00	 1.571702421681933e+00	-7.894884430169207e+00
1	 1.154380376804909e+00	 1.548267487140250e+00	-7.818838295030497e+00
1	 1.186053810912905e+00	 1.524139963696702e+00	-7.707700435929331e+00
1	 1.217262719720745e+00	 1.499332444889387e+00	-7.563481632659029e+00
1	 1.247985416591056e+00	 1.473858462495574e+00	-7.388317305077479e+00
1	 1.278200747014574e+00	 1.447732463066532e+00	-7.184459465254167e+00
1	 1.307888136527215e+00	 1.420969781369867e+00	-6.954267998154272e+00
1	 1.337027637007963e+00	 1.393586610838047e+00	-6.700201323996880e+00
1	 1.365599971140500e+00	 1.365599971140500e+00	-6.424806500990599e+00
1	 1.053376673405054e+00	 1.611217733224764e+00	-8.236167801037926e+00
1	 1.086202411641042e+00	 1.589273154541840e+00	-8.227396427007697e+00
1	 1.118632662620264e+00	 1.566616006077686e+00	-8.178921600213181e+00
1	 1.150644517978908e+00	 1.543256912747764e+00	-8.092471409712813e+00
1	 1.182215449064057e+00	 1.519207471904069e+00	-7.969915785738689e+00
1	 1.213323358167131e+00	 1.494480236328914e+00	-7.813260014861328e+00
1	 1.243946628834052e+00	 1.469088694007407e+00	-7.624637479342499e+00
1	 1.274064175016748e+00	 1.443047244738227e+00	-7.406301660623503e+00
1	 1.303655488835164e+00	 1.416371173661898e+00	-7.160617453487062e+00
1	 1.332700686725308e+00	 1.389076621804958e+00	-6.890051843623989e+00
1	 1.361180553757000e+00	 1.361180553757000e+00	-6.597164007048633e+00
1	 1.049956619269014e+00	 1.605986506819464e+00	-8.537764201027954e+00
1	 1.082675780433178e+00	 1.584113176768255e+00	-8.520609108493669e+00
1	 1.115000738390063e+00	 1.561529590474115e+00	-8.462751924150085e+00
1	 1.146908659153659e+00	 1.538246338356029e+00	-8.365908490349907e+00
1	 1.178377087216025e+00	 1.514274980112254e+00	-8.231939807307743e+00
1	 1.209383996614389e+00	 1.489628027769314e+00	-8.062845633865548e+00
1	 1.239907841077965e+00	 1.464318925520160e+00	-7.860757295747557e+00
1	 1.269927603019876e+00	 1.438362026410875e+00	-7.627929740563999e+00
1	 1.299422841144092e+00	 1.411772565954908e+00	-7.366732885551360e+00
1	 1.328373736443648e+00	 1.384566632772864e+00	-7.079642310371356e+00
1	 1.356761136374500e+00	 1.356761136374500e+00	-6.769229353154009e+00
1	 1.046536565133467e+00	 1.600755280414659e+00	-8.839111608904133e+00
1	 1.079149149225904e+00	 1.578953198995258e+00	-8.813595882095996e+00
1	 1.111368814160538e+00	 1.556443174871219e+00	-8.746373374077610e+00
1	 1.143172800329161e+00	 1.533235763965045e+00	-8.639147615039938e+00
1	 1.174538725368810e+00	 1.509342488321254e+00	-8.493770624869601e+00
1	 1.205444635062520e+00	 1.484775819210586e+00	-8.312236599836373e+00
1	 1.235869053322797e+00	 1.459549157033830e+00	-8.096674789999636e+00
1	 1.265791031023958e+00	 1.433676808084478e+00	-7.849341605904469e+00
1	 1.295190193454000e+00	 1.407173958248898e+00	-7.572612000000984e+00
1	 1.324046786162983e+00	 1.380056643741765e+00	-7.268970174700232e+00
1	 1.352341718993000e+00	 1.352341718993000e+00	-6.940999674992693e+00
1	 1.043116510998416e+00	 1.595524054010350e+00	-9.140207575564856e+00
1	 1.075622518019221e+00	 1.573793221222852e+00	-9.106354525770916e+00
1	 1.107736889931687e+00	 1.551356759268998e+00	-9.029783895497951e+00
1	 1.139436941505414e+00	 1.528225189574812e+00	-8.912186836675598e+00
1	 1.170700363522412e+00	 1.504409996531072e+00	-8.755406338057259e+00
1	 1.201505273511524e+00	 1.479923610652731e+00	-8.561430998153874e+00
1	 1.231830265568548e+00	 1.454779388548419e+00	-8.332387972044765e+00
1	 1.261654459028994e+00	 1.428991589759036e+00	-8.070535129943652e+00
1	 1.290957545764888e+00	 1.402575350543867e+00	-7.778252472399819e+00
1	 1.319719835883313e+00	 1.375546654711661e+00	-7.458032853635530e+00
1	 1.347922301612500e+00	 1.347922301612500e+00	-7.112472070685779e+00
1	 1.039696456863860e+00	 1.590292827606534e+00	-9.441049619683289e+00
1	 1.072095886813127e+00	 1.568633243451036e+00	-9.398882788236980e+00
1	 1.104104965703512e+00	 1.546270343667452e+00	-9.312981406880365e+00
1	 1.135701082682418e+00	 1.523214615185331e+00	-9.185024182529821e+00
1	 1.166862001676831e+00	 1.499477504741707e+00	-9.016845021498868e+00
1	 1.197565911961400e+00	 1.475071402095749e+00	-8.810426889005825e+00
1	 1.227791477815217e+00	 1.450009620063927e+00	-8.567894825643837e+00
1	 1.257517887034985e+00	 1.424306371434547e+00	-8.291508157997315e+00
1	 1.286724898076755e+00	 1.397976742839816e+00	-7.983651947727121e+00
1	 1.315392885604638e+00	 1.371036665682552e+00	-7.646827730215291e+00
1	 1.343502884233000e+00	 1.343502884233000e+00	-7.283643600171769e+00
1	 1.036276402729798e+00	 1.585061601203213e+00	-9.741635227175973e+00
1	 1.068569255607623e+00	 1.563473265679809e+00	-9.691178388492956e+00
1	 1.100473041476013e+00	 1.541183928066582e+00	-9.595963799215216e+00
1	 1.131965223860172e+00	 1.518204040796600e+00	-9.457657653832937e+00
1	 1.163023639832066e+00	 1.494545012953159e+00	-9.278084724405106e+00
1	 1.193626550412150e+00	 1.470219193539639e+00	-9.059222306971723e+00
1	 1.223752690062804e+00	 1.445239851580352e+00	-8.803193307940802e+00
1	 1.253381315041929e+00	 1.419621153111012e+00	-8.512258506936513e+00
1	 1.282492250389601e+00	 1.393378135136744e+00	-8.188808039872896e+00
1	 1.311065935326957e+00	 1.366526676654437e+00	-7.835352152930371e+00
1	 1.339083466854500e+00	 1.339083466854500e+00	-7.454511284576496e+00
1	 1.032856348596230e+00	 1.579830374800387e+00	-1.004196185066026e+01
1	 1.065042624402709e+00	 1.558313287909173e+00	-9.983239015325619e+00
1	 1.096841117249189e+00	 1.536097512466387e+00	-9.878728935558964e+00
1	 1.128229365038678e+00	 1.513193466408620e+00	-9.730085225341544e+00
1	 1.159185277988119e+00	 1.489612521165428e+00	-9.539123470148356e+00
1	 1.189687188863772e+00	 1.465366984984402e+00	-9.307815260599224e+00
1	 1.219713902311310e+00	 1.440470083097696e+00	-9.038281349022066e+00
1	 1.249244743049828e+00	 1.414935934788431e+00	-8.732783964716871e+00
1	 1.278259602703428e+00	 1.388779527434652e+00	-8.393718331122871e+00
1	 1.306738985050272e+00	 1.362016687627318e+00	-8.023603435152374e+00
1	 1.334664049477000e+00	 1.334664049477000e+00	-7.625072105570501e+00
1	 1.029436294463158e+00	 1.574599148398056e+00	-1.034202690890112e+01
1	 1.061515993198384e+00	 1.553153310139126e+00	-1.027506232680815e+01
1	 1.093209193023039e+00	 1.531011096866867e+00	-1.016127465057019e+01
1	 1.124493506217935e+00	 1.508182892021392e+00	-1.000230484489859e+01
1	 1.155346916144988e+00	 1.484680029378513e+00	-9.799959255833615e+00
1	 1.185747827316266e+00	 1.460514776430038e+00	-9.556203731971303e+00
1	 1.215675114560733e+00	 1.435700314615959e+00	-9.273156851466654e+00
1	 1.245108171058681e+00	 1.410250716466804e+00	-8.953082289897910e+00
1	 1.274026955018234e+00	 1.384180919733540e+00	-8.598380371633667e+00
1	 1.302412034774581e+00	 1.357506698601193e+00	-8.211578854550103e+00
1	 1.330244632100500e+00	 1.330244632100500e+00	-7.795323004713639e+00
1	 1.026016240330579e+00	 1.569367921996219e+00	-1.064182778624739e+01
1	 1.057989361994650e+00	 1.547993332369669e+00	-1.056664594978784e+01
1	 1.089577268797566e+00	 1.525924681268023e+00	-1.044359875003620e+01
1	 1.120757647397943e+00	 1.503172317634914e+00	-1.027431443298508e+01
1	 1.151508554302674e+00	 1.479747537592415e+00	-1.006059005186050e+01
1	 1.181808465769633e+00	 1.455662567876546e+00	-9.804385676265564e+00
1	 1.211636326811076e+00	 1.430930546135140e+00	-9.507817689888205e+00
1	 1.240971599068487e+00	 1.405565498146131e+00	-9.173151211153279e+00
1	 1.269794307334019e+00	 1.379582312033407e+00	-8.802791678897528e+00
1	 1.298085084499885e+00	 1.352996709576064e+00	-8.399275652494669e+00
1	 1.325825214725000e+00	 1.325825214725000e+00	-7.965260882786523e+00
1	 1.370019388525000e+00	 1.370019388525000e+00	-6.252159662335181e+00
1	 1.398096585589446e+00	 1.341354609054905e+00	-5.957616966902503e+00
1	 1.425568332116420e+00	 1.312120871085830e+00	-5.601176994321150e+00
1	 1.452417553628661e+00	 1.282337513990595e+00	-5.186659549368777e+00
1	 1.478628004584906e+00	 1.252024550054371e+00	-4.718098282010294e+00
1	 1.504184300911613e+00	 1.221202619870727e+00	-4.199723247397685e+00
1	 1.529071949648923e+00	 1.189892945895716e+00	-3.635942495384068e+00
1	 1.553277375593093e+00	 1.158117284377715e+00	-3.031322817890084e+00
1	 1.576787944836393e+00	 1.125897875888931e+00	-2.390569788514325e+00
1	 1.599591985124763e+00	 1.093257394690918e+00	-1.718507233412889e+00
1	 1.621678802973224e+00	 1.060218897170963e+00	-1.020056275639818e+00
1	 1.365599971140500e+00	 1.365599971140500e+00	-6.424806500990599e+00
1	 1.393586596601436e+00	 1.337027658701051e+00	-6.110608359739731e+00
1	 1.420969724591221e+00	 1.307888223112588e+00	-5.735203521057347e+00
1	 1.447732335711554e+00	 1.278200941362857e+00	-5.302402069873386e+00
1	 1.473858236826143e+00	 1.247985761181269e+00	-4.816224722081744e+00
1	 1.499332093487490e+00	 1.217263256578835e+00	-4.280885477489639e+00
1	 1.524139459487219e+00	 1.186054581552073e+00	-3.700773319061873e+00
1	 1.548266803412567e+00	 1.154381422167912e+00	-3.080433085895503e+00
1	 1.571701532110343e+00	 1.122265947254778e+00	-2.424545653289544e+00
1	 1.594432010978920e+00	 1.089730757931447e+00	-1.737907557789439e+00
1	 1.616447581028431e+00	 1.056798836209764e+00	-1.025410208154467e+00
1	 1.361180553757000e+00	 1.361180553757000e+00	-6.597164007048633e+00
1	 1.389076607614420e+00	 1.332700708348192e+00	-6.263330515696956e+00
1	 1.416371117067001e+00	 1.303655575140325e+00	-5.868985749095239e+00
1	 1.443047117795401e+00	 1.274064368736072e+00	-5.417930019582569e+00
1	 1.469088469068298e+00	 1.243946972309086e+00	-4.914171044042909e+00
1	 1.494479886064240e+00	 1.213323893287816e+00	-4.361906690073719e+00
1	 1.519206969326333e+00	 1.182216217209247e+00	-3.765506785285255e+00
1	 1.543256231232791e+00	 1.150645559958859e+00	-3.129494116263779e+00
1	 1.566615119384968e+00	 1.118634018621301e+00	-2.458524749529793e+00
1	 1.589272036833667e+00	 1.086204121172567e+00	-1.757367811226027e+00
1	 1.611216359084132e+00	 1.053378775249060e+00	-1.030884865233902e+00
1	 1.356761136374500e+00	 1.356761136374500e+00	-6.769229353154009e+00
1	 1.384566618628399e+00	 1.328373757996328e+00	-6.415780803793860e+00
1	 1.411772509543761e+00	 1.299422927169042e+00	-6.002521291150003e+00
1	 1.438361899880202e+00	 1.269927796110241e+00	-5.533241301711973e+00
1	 1.464318701311373e+00	 1.239908183437820e+00	-5.011935487780567e+00
1	 1.489627678641863e+00	 1.209384529997670e+00	-4.442785507126946e+00
1	 1.514274479166263e+00	 1.178377852867237e+00	-3.830141942676654e+00
1	 1.538245659053768e+00	 1.146909697750558e+00	-3.178505427843354e+00
1	 1.561528706660269e+00	 1.115002089988499e+00	-2.492507108810736e+00
1	 1.584112062689004e+00	 1.082677484414277e+00	-1.776888579346381e+00
1	 1.605985137140328e+00	 1.049958714288850e+00	-1.036481426594599e+00
1	 1.352341718993000e+00	 1.352341718993000e+00	-6.940999674992693e+00
1	 1.380056629643373e+00	 1.324046807645458e+00	-6.567956558658264e+00
1	 1.407173902021500e+00	 1.295190279198739e+00	-6.135807728730390e+00
1	 1.433676681965957e+00	 1.265791223485365e+00	-5.648333792068312e+00
1	 1.459548933555365e+00	 1.235869394567474e+00	-5.109516270173321e+00
1	 1.484775471220358e+00	 1.205445166708397e+00	-4.523520532613154e+00
1	 1.509341989007010e+00	 1.174539488526045e+00	-3.894677827422251e+00
1	 1.533235086875494e+00	 1.143173835543008e+00	-3.227466533193220e+00
1	 1.556442293936246e+00	 1.111370161356373e+00	-2.526492763120871e+00
1	 1.578952088544930e+00	 1.079150847656576e+00	-1.796470455429399e+00
1	 1.600753915197019e+00	 1.046538653329136e+00	-1.042201087374049e+00
1	 1.347922301612500e+00	 1.347922301612500e+00	-7.112472070685779e+00
1	 1.375546640659343e+00	 1.319719857295584e+00	-6.719855079962323e+00
1	 1.402575294500219e+00	 1.290957631229414e+00	-6.268842611627296e+00
1	 1.428991464052666e+00	 1.261654650861442e+00	-5.763205338600082e+00
1	 1.454779165800276e+00	 1.231830605698046e+00	-5.206911584714702e+00
1	 1.479923263799726e+00	 1.201505803419996e+00	-4.604110352187344e+00
1	 1.504409498848573e+00	 1.170701124185669e+00	-3.959113463067906e+00
1	 1.528224514697972e+00	 1.139437973336209e+00	-3.276376938479597e+00
1	 1.551355881212897e+00	 1.107738232724922e+00	-2.560481744868235e+00
1	 1.573792114401447e+00	 1.075624210899465e+00	-1.816114040534687e+00
1	 1.595522693254205e+00	 1.043118592369916e+00	-1.048045058383778e+00
1	 1.343502884233000e+00	 1.343502884233000e+00	-7.283643600171769e+00
1	 1.371036651676306e+00	 1.315392906946705e+00	-6.871473631847508e+00
1	 1.397976686979918e+00	 1.286724983261070e+00	-6.401623457392013e+00
1	 1.424306246140329e+00	 1.257518078238474e+00	-5.877853760939211e+00
1	 1.450009398046105e+00	 1.227791816829536e+00	-5.304119601128377e+00
1	 1.475071056379967e+00	 1.197566440132467e+00	-4.684553532894844e+00
1	 1.499477008690954e+00	 1.166862759846110e+00	-4.023447860311526e+00
1	 1.523213942521201e+00	 1.135702111130161e+00	-3.325236143371018e+00
1	 1.546269468490224e+00	 1.104106304094146e+00	-2.594474086887181e+00
1	 1.568632140258553e+00	 1.072097574142944e+00	-1.835819943630609e+00
1	 1.590291471311885e+00	 1.039698531411190e+00	-1.054014566366960e+00
1	 1.339083466854500e+00	 1.339083466854500e+00	-7.454511284576496e+00
1	 1.366526662694265e+00	 1.311065956598820e+00	-7.022809442338372e+00
1	 1.393378079460596e+00	 1.282492335293705e+00	-6.534147750804263e+00
1	 1.419621028228947e+00	 1.253381505616459e+00	-5.992276849933972e+00
1	 1.445239630292853e+00	 1.223753027961944e+00	-5.401138464975936e+00
1	 1.470218848961080e+00	 1.193627076845812e+00	-4.764848622864055e+00
1	 1.494544518534152e+00	 1.163024395507368e+00	-4.087680016790841e+00
1	 1.518203370345182e+00	 1.131966248924865e+00	-3.374043640930786e+00
1	 1.541183055768226e+00	 1.100474375464046e+00	-2.628469822445620e+00
1	 1.563472166116249e+00	 1.068570937387014e+00	-1.855588781724587e+00
1	 1.585060249370059e+00	 1.036278470452960e+00	-1.060110854261475e+00
1	 1.334664049477000e+00	 1.334664049477000e+00	-7.625072105570501e+00
1	 1.362016673713218e+00	 1.306739006251930e+00	-7.173859702744537e+00
1	 1.388779471942253e+00	 1.278259687327320e+00	-6.666412943329516e+00
1	 1.414935810318518e+00	 1.249244932995399e+00	-6.106472367172335e+00
1	 1.440469862540519e+00	 1.219714239095272e+00	-5.497966297256836e+00
1	 1.465366641543066e+00	 1.189687713560029e+00	-4.844994150993205e+00
1	 1.489612028378166e+00	 1.159186031169442e+00	-4.151808916867410e+00
1	 1.513192798169912e+00	 1.128230386720319e+00	-3.422798917508084e+00
1	 1.536096643046904e+00	 1.096842446834621e+00	-2.662468985252091e+00
1	 1.558312191974536e+00	 1.065044300631673e+00	-1.875421179996524e+00
1	 1.579829027428729e+00	 1.032858409495223e+00	-1.066335181467880e+00
1	 1.330244632100500e+00	 1.330244632100500e+00	-7.795323004713639e+00
1	 1.357506684733167e+00	 1.302412055906035e+00	-7.324621567050869e+00
1	 1.384180864424891e+00	 1.274027039361914e+00	-6.798416452565776e+00
1	 1.410250592409043e+00	 1.245108360375293e+00	-6.220438044495788e+00
1	 1.435700094789103e+00	 1.215675450229517e+00	-5.594601194000488e+00
1	 1.460514434125925e+00	 1.185748350275119e+00	-4.924988626631031e+00
1	 1.484679538222998e+00	 1.155347666832334e+00	-4.215833531405746e+00
1	 1.508182225995395e+00	 1.124494524516524e+00	-3.471501452625878e+00
1	 1.531010230326257e+00	 1.093210518205871e+00	-2.696471609462946e+00
1	 1.553152217833411e+00	 1.061517663876921e+00	-1.895317771934071e+00
1	 1.574597805487893e+00	 1.029438348537982e+00	-1.072688824122988e+00
1	 1.325825214725000e+00	 1.325825214725000e+00	-7.965260882786523e+00
1	 1.352996695754110e+00	 1.298085105561135e+00	-7.475092151295289e+00
1	 1.379582256908508e+00	 1.269794391397488e+00	-6.930155661678921e+00
1	 1.405565374500521e+00	 1.240971787756141e+00	-6.334171583504035e+00
1	 1.430930327038606e+00	 1.211636661364681e+00	-5.691041225850062e+00
1	 1.455662226709656e+00	 1.181808986991081e+00	-5.004830539251016e+00
1	 1.479747048068645e+00	 1.151509302496042e+00	-4.279752817548582e+00
1	 1.503171653821628e+00	 1.120758662313480e+00	-3.520150718867604e+00
1	 1.525923817606285e+00	 1.089578589577797e+00	-2.730477729690195e+00
1	 1.547992243692877e+00	 1.057991027122760e+00	-1.915279199471678e+00
1	 1.569366583547552e+00	 1.026018287581235e+00	-1.079173075378765e+00
1	 1.621678802973224e+00	 1.060218897170963e+00	-1.020056275639817e+00
1	 1.643038697499171e+00	 1.026805769588582e+00	-5.967396282619070e-01
1	 1.663662970952962e+00	 9.930416753735546e-01	-2.614332909134733e-01
1	 1.683543935945708e+00	 9.589505022144016e-01	-9.784012120079066e-03
1	 1.702674919393794e+00	 9.245563091730674e-01	 1.627744504161466e-01
1	 1.721050263217639e+00	 8.898832740590078e-01	 2.609985149951828e-01
1	 1.738665321851069e+00	 8.549556412882954e-01	 2.898114683742705e-01
1	 1.755516456634858e+00	 8.197976704459866e-01	 2.542798288468329e-01
1	 1.771601027184422e+00	 7.844335857608370e-01	 1.595895414619972e-01
1	 1.786917379836844e+00	 7.488875266910032e-01	 1.102216353521979e-02
1	 1.801464833296524e+00	 7.131834998077383e-01	-1.860688062075690e-01
1	 1.616447581028431e+00	 1.056798836209764e+00	-1.025410208154468e+00
1	 1.637738572669342e+00	 1.023493492909737e+00	-6.083473565357953e-01
1	 1.658296316209174e+00	 9.898383151275415e-01	-2.779851081320815e-01
1	 1.678113149057066e+00	 9.558571134946388e-01	-3.007239782396232e-02
1	 1.697182419655479e+00	 9.215738694630954e-01	 1.398515243041271e-01
1	 1.715498488176705e+00	 8.870126828494326e-01	 2.364347843557871e-01
1	 1.733056724040265e+00	 8.521977198619295e-01	 2.644900878892331e-01
1	 1.749853500324548e+00	 8.171531618289158e-01	 2.289715949363993e-01
1	 1.765886185162340e+00	 7.819031548364729e-01	 1.349516249054810e-01
1	 1.781153130225121e+00	 7.464717604735365e-01	-1.240265375369165e-02
1	 1.795653656415021e+00	 7.108829078708078e-01	-2.078523989068984e-01
1	 1.611216359084132e+00	 1.053378775249060e+00	-1.030884865233902e+00
1	 1.632438447839913e+00	 1.020181216231292e+00	-6.198659483301285e-01
1	 1.652929661465701e+00	 9.866349548818438e-01	-2.942308149373648e-01
1	 1.672682362168664e+00	 9.527637247751165e-01	-4.983104543678263e-02
1	 1.691689919917341e+00	 9.185914297532998e-01	 1.176881472393492e-01
1	 1.709946713135892e+00	 8.841420916399797e-01	 2.128661170229941e-01
1	 1.727448126229540e+00	 8.494397984356415e-01	 2.404045006098516e-01
1	 1.744190544014282e+00	 8.145086532118886e-01	 2.051446062393846e-01
1	 1.760171343140277e+00	 7.793727239121280e-01	 1.120446300894765e-01
1	 1.775388880613402e+00	 7.440559942560749e-01	-3.384314811674138e-02
1	 1.789842479533517e+00	 7.085823159338770e-01	-2.273950432153108e-01
1	 1.605985137140328e+00	 1.049958714288850e+00	-1.036481426594599e+00
1	 1.627138323010885e+00	 1.016868939553246e+00	-6.312945326020907e-01
1	 1.647563006722544e+00	 9.834315946364609e-01	-3.101674200203807e-01
1	 1.667251575280503e+00	 9.496703360558348e-01	-6.905477836303409e-02
1	 1.686197420179379e+00	 9.156089900436800e-01	 9.629174152671405e-02
1	 1.704394938095203e+00	 8.812715004306492e-01	 1.903022367437196e-01
1	 1.721839528418892e+00	 8.466818770094315e-01	 2.175667826922195e-01
1	 1.738527587704060e+00	 8.118641445949052e-01	 1.828133374654526e-01
1	 1.754456501118234e+00	 7.768422929878025e-01	 9.088547155917792e-02
1	 1.769624631001689e+00	 7.416402280386184e-01	-5.327992877586973e-02
1	 1.784031302652014e+00	 7.062817239969467e-01	-2.446748406142426e-01
1	 1.600753915197019e+00	 1.046538653329136e+00	-1.042201087374048e+00
1	 1.621838198182256e+00	 1.013556662875601e+00	-6.426322269227605e-01
1	 1.642196351979701e+00	 9.802282343913935e-01	-3.257918929700145e-01
1	 1.661820788392583e+00	 9.465769473367940e-01	-8.773835233935146e-02
1	 1.680704920441593e+00	 9.126265503342368e-01	 7.566982649471643e-02
1	 1.698843163054634e+00	 8.784009092214403e-01	 1.687529943726820e-01
1	 1.716230930608323e+00	 8.439239555832997e-01	 1.959891681506764e-01
1	 1.732864631393882e+00	 8.092196359779653e-01	 1.619924525361575e-01
1	 1.748741659096209e+00	 7.743118620634961e-01	 7.149128496494850e-02
1	 1.763860381389980e+00	 7.392244618211662e-01	-7.069335147879308e-02
1	 1.778220125770510e+00	 7.039811320600161e-01	-2.596696063299773e-01
1	 1.595522693254205e+00	 1.043118592369916e+00	-1.048045058383778e+00
1	 1.616538073354026e+00	 1.010244386198355e+00	-6.538781372903597e-01
1	 1.636829697237174e+00	 9.770248741466409e-01	-3.411011636321510e-01
1	 1.656390001504903e+00	 9.434835586179937e-01	-1.058764543250790e-01
1	 1.675212420703984e+00	 9.096441106249700e-01	 5.583002008599569e-02
1	 1.693291388014188e+00	 8.755303180123534e-01	 1.482283699561212e-01
1	 1.710622332797832e+00	 8.411660341572456e-01	 1.756840514456425e-01
1	 1.727201675083747e+00	 8.065751273610690e-01	 1.426968076867720e-01
1	 1.743026817074204e+00	 7.717814311392094e-01	 5.387943068698986e-02
1	 1.758096131778276e+00	 7.368086956037191e-01	-8.606351434369297e-02
1	 1.772408948889007e+00	 7.016805401230853e-01	-2.723568646409529e-01
1	 1.590291471311885e+00	 1.039698531411190e+00	-1.054014566366960e+00
1	 1.611237948526197e+00	 1.006932109521509e+00	-6.650313579399245e-01
1	 1.631463042494961e+00	 9.738215139022035e-01	-3.560921214558564e-01
1	 1.650959214617464e+00	 9.403901698994342e-01	-1.234637013711840e-01
1	 1.669719920966551e+00	 9.066616709158792e-01	 3.678004047925154e-02
1	 1.687739612973864e+00	 8.726597268033888e-01	 1.287384748566847e-01
1	 1.705013734987417e+00	 8.384081127312690e-01	 1.566639901225553e-01
1	 1.721538718773656e+00	 8.039306187442163e-01	 1.249414546293547e-01
1	 1.737311975052219e+00	 7.692510002149416e-01	 3.806749753155270e-02
1	 1.752331882166577e+00	 7.343929293862765e-01	-9.937025362188312e-02
1	 1.766597772007503e+00	 6.993799481861548e-01	-2.827138440924256e-01
1	 1.585060249370059e+00	 1.036278470452960e+00	-1.060110854261475e+00
1	 1.605937823698768e+00	 1.003619832845063e+00	-6.760909711492106e-01
1	 1.626096387753065e+00	 9.706181536580815e-01	-3.707616148268431e-01
1	 1.645528427730266e+00	 9.372967811811151e-01	-1.404946394665680e-01
1	 1.664227421229294e+00	 9.036792312069650e-01	 1.852770774336931e-02
1	 1.682187837933662e+00	 8.697891355945460e-01	 1.102935539203472e-01
1	 1.699405137177082e+00	 8.356501913053704e-01	 1.389417075030105e-01
1	 1.715875762463608e+00	 8.012861101274074e-01	 1.087416437784127e-01
1	 1.731597133030253e+00	 7.667205692906938e-01	 2.407330650034711e-02
1	 1.746567632554883e+00	 7.319771631688392e-01	-1.105931393765761e-01
1	 1.760786595126000e+00	 6.970793562492242e-01	-2.907174726163831e-01
1	 1.579829027428729e+00	 1.032858409495223e+00	-1.066335181467880e+00
1	 1.600637698871738e+00	 1.000307556169017e+00	-6.870560470406958e-01
1	 1.620729733011483e+00	 9.674147934142743e-01	-3.851064503875927e-01
1	 1.640097640843308e+00	 9.342033924630365e-01	-1.569637423616232e-01
1	 1.658734921492214e+00	 9.006967914982271e-01	 1.080945524247312e-03
1	 1.676636062893582e+00	 8.669185443858255e-01	 9.290398768641206e-02
1	 1.693796539366823e+00	 8.328922698795498e-01	 1.225300954294233e-01
1	 1.710212806153604e+00	 7.986416015106422e-01	 9.411282754071537e-02
1	 1.725882291008306e+00	 7.641901383664648e-01	 1.191491463484851e-02
1	 1.740803382943193e+00	 7.295613969514065e-01	-1.197114710757986e-01
1	 1.754975418244497e+00	 6.947787643122938e-01	-2.963443725545079e-01
1	 1.574597805487893e+00	 1.029438348537982e+00	-1.072688824122988e+00
1	 1.595337574045109e+00	 9.969952794933700e-01	-6.979256433796635e-01
1	 1.615363078270216e+00	 9.642114331707826e-01	-3.991233923438853e-01
1	 1.634666853956591e+00	 9.311100037451990e-01	-1.728654103681426e-01
1	 1.653242421755309e+00	 8.977143517896652e-01	-1.555221723452760e-02
1	 1.671084287853624e+00	 8.640479531772268e-01	 7.658029464151850e-02
1	 1.688187941556642e+00	 8.301343484538068e-01	 1.074422170643682e-01
1	 1.704549849843644e+00	 7.959970928939208e-01	 8.107066367061666e-02
1	 1.720167448986378e+00	 7.616597074422550e-01	 1.610618937199937e-03
1	 1.735039133331508e+00	 7.271456307339783e-01	-1.267042730974529e-01
1	 1.749164241362994e+00	 6.924781723753630e-01	-2.995708555819294e-01
1	 1.569366583547552e+00	 1.026018287581235e+00	-1.079173075378766e+00
1	 1.590037449218878e+00	 9.936830028181231e-01	-7.086988053683577e-01
1	 1.609996423529265e+00	 9.610080729276055e-01	-4.128091617576930e-01
1	 1.629236067070115e+00	 9.280166150276019e-01	-1.881939691354967e-01
1	 1.647749922018581e+00	 8.947319120812796e-01	-3.136364453686979e-02
1	 1.665532512813788e+00	 8.611773619687502e-01	 6.133313351882297e-02
1	 1.682579343746540e+00	 8.273764270281421e-01	 9.369130974592577e-02
1	 1.698886893533727e+00	 7.933525842772428e-01	 6.963101869252530e-02
1	 1.714452606964470e+00	 7.591292765180646e-01	-6.821039630417802e-03
1	 1.729274883719828e+00	 7.247298645165553e-01	-1.315502901444783e-01
1	 1.743353064481490e+00	 6.901775804384324e-01	-3.003729175294412e-01
1	 1.801464833296524e+00	 7.131834998077383e-01	-1.860688062075689e-01
1	 1.815243661611244e+00	 6.773453321514069e-01	-2.046324195301154e-01
1	 1.828255074622592e+00	 6.413966262208440e-01	-1.983503523892887e-01
1	 1.840501196043703e+00	 6.053607167423776e-01	-1.671963530398917e-01
1	 1.851985039325666e+00	 5.692606293503404e-01	-1.112326008944237e-01
1	 1.862710481481908e+00	 5.331190412958150e-01	-3.060687256713029e-02
1	 1.872682235044608e+00	 4.969582442846507e-01	 7.445062074073316e-02
1	 1.881905818331420e+00	 4.608001095303135e-01	 2.036306921068428e-01
1	 1.890387524203362e+00	 4.246660550916125e-01	 3.565489007300752e-01
1	 1.898134387495910e+00	 3.885770155500037e-01	 5.327495029623392e-01
1	 1.905154151305217e+00	 3.525534140661327e-01	 7.317095985730052e-01
1	 1.795653656415021e+00	 7.108829078708078e-01	-2.078523989068986e-01
1	 1.809388036895903e+00	 6.751603472072213e-01	-2.137888747753807e-01
1	 1.822357477606744e+00	 6.393276048445118e-01	-1.964831534847845e-01
1	 1.834564095409992e+00	 6.034079402356949e-01	-1.558974433595351e-01
1	 1.846010894035924e+00	 5.674243047388637e-01	-9.207753960862602e-02
1	 1.856701737991471e+00	 5.313993024526770e-01	-5.150203831849443e-03
1	 1.866641324607093e+00	 4.953551531742550e-01	 1.046797700288365e-01
1	 1.875835154399422e+00	 4.593136575647614e-01	 2.371327728884439e-01
1	 1.884289499929918e+00	 4.232961645924926e-01	 3.918578496083981e-01
1	 1.892011373341040e+00	 3.873235413079956e-01	 5.684363881961774e-01
1	 1.899008492751211e+00	 3.514161449907519e-01	 7.663859971387266e-01
1	 1.789842479533517e+00	 7.085823159338770e-01	-2.273950432153107e-01
1	 1.803532412180562e+00	 6.729753622630307e-01	-2.206915532105448e-01
1	 1.816459880590896e+00	 6.372585834681578e-01	-1.923577319232979e-01
1	 1.828626994776280e+00	 6.014551637289641e-01	-1.423441459010815e-01
1	 1.840036748746182e+00	 5.655879801273019e-01	-7.068008653757213e-02
1	 1.850692994501034e+00	 5.296795636094068e-01	 2.252883609343437e-02
1	 1.860600414169580e+00	 4.937520620636699e-01	 1.371033978066606e-01
1	 1.869764490467423e+00	 4.578272055989529e-01	 2.727937348825827e-01
1	 1.878191475656474e+00	 4.219262740930394e-01	 4.292825594148152e-01
1	 1.885888359186171e+00	 3.860700670655682e-01	 6.061885856613439e-01
1	 1.892862834197204e+00	 3.502788759148565e-01	 8.030701374104462e-01
1	 1.784031302652014e+00	 7.062817239969467e-01	-2.446748406142426e-01
1	 1.797676787465220e+00	 6.707903773188341e-01	-2.253184309578474e-01
1	 1.810562283575048e+00	 6.351895620917827e-01	-1.859520203822780e-01
1	 1.822689894142569e+00	 5.995023872221852e-01	-1.265144308163467e-01
1	 1.834062603456439e+00	 5.637516555156550e-01	-4.701832905775050e-02
1	 1.844684251010596e+00	 5.279598247660042e-01	 5.245196419124426e-02
1	 1.854559503732065e+00	 4.921489709528953e-01	 1.717429484896332e-01
1	 1.863693826535425e+00	 4.563407536328880e-01	 3.106346746485684e-01
1	 1.872093451383030e+00	 4.205563835932531e-01	 4.688437053378150e-01
1	 1.879765345031301e+00	 3.848165928227212e-01	 6.460262775623434e-01
1	 1.886717175643198e+00	 3.491416068384464e-01	 8.417816390142944e-01
1	 1.778220125770510e+00	 7.039811320600161e-01	-2.596696063299774e-01
1	 1.791821162749879e+00	 6.686053923746326e-01	-2.276471962457032e-01
1	 1.804664686559200e+00	 6.331205407153857e-01	-1.772436630774462e-01
1	 1.816752793508858e+00	 5.975496107153585e-01	-1.083859802852823e-01
1	 1.828088458166697e+00	 5.619153309039231e-01	-2.107006810613965e-02
1	 1.838675507520159e+00	 5.262400859224697e-01	 8.464118132621234e-02
1	 1.848518593294551e+00	 4.905458798419312e-01	 2.086201468123235e-01
1	 1.857623162603426e+00	 4.548543016665665e-01	 3.506769645177167e-01
1	 1.865995427109586e+00	 4.191864930931336e-01	 5.105622328297564e-01
1	 1.873642330876431e+00	 3.835631185794552e-01	 6.879699099233247e-01
1	 1.880571517089191e+00	 3.480043377615216e-01	 8.825403780420884e-01
1	 1.772408948889007e+00	 7.016805401230853e-01	-2.723568646409529e-01
1	 1.785965538034537e+00	 6.664204074304255e-01	-2.276552446891307e-01
1	 1.798767089543353e+00	 6.310515193389675e-01	-1.662100110339145e-01
1	 1.810815692875146e+00	 5.955968342084834e-01	-8.793618379512669e-02
1	 1.822114312876955e+00	 5.600790062921064e-01	 7.187186515523636e-03
1	 1.832666764029722e+00	 5.245203470788028e-01	 1.191187768988843e-01
1	 1.842477682857037e+00	 4.889427887307778e-01	 2.477570024238307e-01
1	 1.851552498671427e+00	 4.533678496999886e-01	 3.929422571141824e-01
1	 1.859897402836142e+00	 4.178166025926809e-01	 5.544593620374176e-01
1	 1.867519316721562e+00	 3.823096443357698e-01	 7.320401969129862e-01
1	 1.874425858535185e+00	 3.468670686840821e-01	 9.253664912556541e-01
1	 1.766597772007503e+00	 6.993799481861548e-01	-2.827138440924254e-01
1	 1.780109913319195e+00	 6.642354224862130e-01	-2.253196744770311e-01
1	 1.792869492527504e+00	 6.289824979625276e-01	-1.528281172639782e-01
1	 1.804878592241436e+00	 5.936440577015606e-01	-6.514213332638885e-02
1	 1.816140167587212e+00	 5.582426816802042e-01	 3.777622092914434e-02
1	 1.826658020539285e+00	 5.228006082350036e-01	 1.559073335913762e-01
1	 1.836436772419524e+00	 4.873396976194351e-01	 2.891758145738729e-01
1	 1.845481834739428e+00	 4.518813977331541e-01	 4.374524899650461e-01
1	 1.853799378562698e+00	 4.164467120918952e-01	 6.005565923200268e-01
1	 1.861396302566692e+00	 3.810561700916651e-01	 7.782581252548397e-01
1	 1.868280199981178e+00	 3.457297996061280e-01	 9.702803803741809e-01
1	 1.760786595126000e+00	 6.970793562492242e-01	-2.907174726163834e-01
1	 1.774254288603854e+00	 6.620504375419951e-01	-2.206172814641734e-01
1	 1.786971895511656e+00	 6.269134765860667e-01	-1.370747318494056e-01
1	 1.798941491607725e+00	 5.916912811945895e-01	-3.998061844347767e-02
1	 1.810166022297470e+00	 5.564063570682174e-01	 7.072012206350853e-02
1	 1.820649277048847e+00	 5.210808693910723e-01	 1.950297322069950e-01
1	 1.830395861982010e+00	 4.857366065079028e-01	 3.328991768916859e-01
1	 1.839411170807430e+00	 4.503949457660634e-01	 4.842298902016787e-01
1	 1.847701354289253e+00	 4.150768215907761e-01	 6.488757068566834e-01
1	 1.855273288411822e+00	 3.798026958471411e-01	 8.266449587248283e-01
1	 1.862134541427172e+00	 3.445925305276593e-01	 1.017302716446456e+00
1	 1.754975418244497e+00	 6.947787643122938e-01	-2.963443725545079e-01
1	 1.768398663888512e+00	 6.598654525977722e-01	-2.135245541656527e-01
1	 1.781074298495809e+00	 6.248444552095839e-01	-1.189262969260348e-01
1	 1.793004390974013e+00	 5.897385046875702e-01	-1.242812128783688e-02
1	 1.804191877007728e+00	 5.545700324561452e-01	 1.060422826345203e-01
1	 1.814640533558410e+00	 5.193611305470088e-01	 2.365091566060309e-01
1	 1.824354951544496e+00	 4.841335153961810e-01	 3.789499822598476e-01
1	 1.833340506875431e+00	 4.489084937987159e-01	 5.332969793545190e-01
1	 1.841603330015809e+00	 4.137069310893240e-01	 6.994387773454038e-01
1	 1.849150274256952e+00	 3.785492216021978e-01	 8.772222427382859e-01
1	 1.855988882873165e+00	 3.434552614486758e-01	 1.066454444309945e+00
1	 1.749164241362994e+00	 6.924781723753630e-01	-2.995708555819296e-01
1	 1.762543039173171e+00	 6.576804676535434e-01	-2.040176686515894e-01
1	 1.775176701479960e+00	 6.227754338330798e-01	-9.835894156839875e-02
1	 1.787067290340302e+00	 5.877857281805030e-01	 1.753918852876857e-02
1	 1.798217731717986e+00	 5.527337078439883e-01	 1.437664062247257e-01
1	 1.808631790067973e+00	 5.176413917028130e-01	 2.803690987399233e-01
1	 1.818314041106981e+00	 4.825304242842698e-01	 4.273514277852666e-01
1	 1.827269842943432e+00	 4.474220418311121e-01	 5.846765782434200e-01
1	 1.835505305742365e+00	 4.123370405875387e-01	 7.522681687957732e-01
1	 1.843027260102082e+00	 3.772957473568351e-01	 9.300118090282971e-01
1	 1.849843224319159e+00	 3.423179923691778e-01	 1.117756787138799e+00
1	 1.743353064481490e+00	 6.901775804384324e-01	-3.003729175294412e-01
1	 1.756687414457829e+00	 6.554954827093094e-01	-1.920724833396994e-01
1	 1.769279104464112e+00	 6.207064124565539e-01	-7.534847657201993e-02
1	 1.781130189706590e+00	 5.858329516733874e-01	 4.994545913306836e-02
1	 1.792243586428243e+00	 5.508973832317460e-01	 1.839165124644230e-01
1	 1.802623046577536e+00	 5.159216528584849e-01	 3.266333637861090e-01
1	 1.812273130669467e+00	 4.809273331721693e-01	 4.781270198695932e-01
1	 1.821199179011433e+00	 4.459355898632516e-01	 6.383918119657986e-01
1	 1.829407281468920e+00	 4.109671500854201e-01	 8.073865444174686e-01
1	 1.836904245947212e+00	 3.760422731110533e-01	 9.850357804177281e-01
1	 1.843697565765152e+00	 3.411807232891650e-01	 1.171231251082788e+00
1	 1.905154151305217e+00	 3.525534140661327e-01	 7.317095985730052e-01
1	 1.911455232310073e+00	 3.166151368409488e-01	 9.231616431742623e-01
1	 1.917046685307169e+00	 2.807815099915488e-01	 1.136550058981894e+00
1	 1.921938167134141e+00	 2.450712788396208e-01	 1.370156342457236e+00
1	 1.926139900150070e+00	 2.095025895978823e-01	 1.622250961517284e+00
1	 1.929662635437016e+00	 1.740929734263706e-01	 1.891100184414375e+00
1	 1.932517615880140e+00	 1.388593328203557e-01	 2.174972621181377e+00
1	 1.934716539276743e+00	 1.038179302810827e-01	 2.472145454239688e+00
1	 1.936271521616793e+00	 6.898437921114235e-02	 2.780910338366057e+00
1	 1.937195060669269e+00	 3.437363696779226e-02	 3.099578953754817e+00
1	 1.937500000000000e+00	 0.000000000000000e+00	 3.426488199361888e+00
1	 1.899008492751211e+00	 3.514161449907519e-01	 7.663859971387266e-01
1	 1.905289247688583e+00	 3.155937976925802e-01	 9.593690244603831e-01
1	 1.910862663740772e+00	 2.798757631881704e-01	 1.174416988179945e+00
1	 1.915738366594321e+00	 2.442807263304339e-01	 1.409855236879262e+00
1	 1.919926545632962e+00	 2.088267747959210e-01	 1.663995615878731e+00
1	 1.923437917257845e+00	 1.735313831925430e-01	 1.935143244887360e+00
1	 1.926283688086761e+00	 1.384113994913946e-01	 2.221603022578137e+00
1	 1.928475518182181e+00	 1.034830337340428e-01	 2.521685834138581e+00
1	 1.930025484450234e+00	 6.876184895726677e-02	 2.833714441377496e+00
1	 1.930946044344517e+00	 3.426275426878794e-02	 3.156029038450903e+00
1	 1.931250000000000e+00	 0.000000000000000e+00	 3.486992459672194e+00
1	 1.892862834197204e+00	 3.502788759148565e-01	 8.030701374104462e-01
1	 1.899123263067094e+00	 3.145724585436130e-01	 9.974458737715798e-01
1	 1.904678642174373e+00	 2.789700163841411e-01	 1.214018231985898e+00
1	 1.909538566054501e+00	 2.434901738205749e-01	 1.451156574736580e+00
1	 1.913713191115855e+00	 2.081509599932970e-01	 1.707214274778205e+00
1	 1.917213199078675e+00	 1.729697929580919e-01	 1.980535441315240e+00
1	 1.920049760293382e+00	 1.379634661618786e-01	 2.269461387717707e+00
1	 1.922234497087618e+00	 1.031481371865452e-01	 2.572336816074258e+00
1	 1.923779447283674e+00	 6.853931870305892e-02	 2.887515697545313e+00
1	 1.924697028019764e+00	 3.415187156960408e-02	 3.213366830903145e+00
1	 1.925000000000000e+00	 0.000000000000000e+00	 3.548279064999193e+00
1	 1.886717175643198e+00	 3.491416068384464e-01	 8.417816390142944e-01
1	 1.892957278445604e+00	 3.135511193940471e-01	 1.037410459525276e+00
1	 1.898494620607975e+00	 2.780642695794609e-01	 1.255370738099721e+00
1	 1.903338765514681e+00	 2.426996213100439e-01	 1.494076015085758e+00
1	 1.907499836598747e+00	 2.074751451900103e-01	 1.751921342169025e+00
1	 1.910988480899505e+00	 1.724082027230172e-01	 2.027289957437145e+00
1	 1.913815832500004e+00	 1.375155328318078e-01	 2.318559716245980e+00
1	 1.915993475993055e+00	 1.028132406385900e-01	 2.624109252835600e+00
1	 1.917533410117115e+00	 6.831678844851873e-02	 2.942323851037435e+00
1	 1.918448011695011e+00	 3.404098887024071e-02	 3.271601005780567e+00
1	 1.918750000000000e+00	 0.000000000000000e+00	 3.610355660408777e+00
1	 1.880571517089191e+00	 3.480043377615216e-01	 8.825403780420884e-01
1	 1.886791293824115e+00	 3.125297802438828e-01	 1.079281288941755e+00
1	 1.892310599041578e+00	 2.771585227741298e-01	 1.298491675759922e+00
1	 1.897138964974860e+00	 2.419090687988407e-01	 1.538629421676858e+00
1	 1.901286482081638e+00	 2.067993303860606e-01	 1.798131410291448e+00
1	 1.904763762720334e+00	 1.718466124873191e-01	 2.075420149328672e+00
1	 1.907581904706625e+00	 1.370675995011818e-01	 2.368910164666982e+00
1	 1.909752454898493e+00	 1.024783440901772e-01	 2.677014139078032e+00
1	 1.911287372950556e+00	 6.809425819364626e-02	 2.998148773396692e+00
1	 1.912198995370258e+00	 3.393010617069781e-02	 3.330740351146623e+00
1	 1.912500000000000e+00	 0.000000000000000e+00	 3.673229990902340e+00
1	 1.874425858535185e+00	 3.468670686840821e-01	 9.253664912556541e-01
1	 1.880625309202625e+00	 3.115084410931198e-01	 1.123077111958898e+00
1	 1.886126577475179e+00	 2.762527759681478e-01	 1.343398439375310e+00
1	 1.890939164435040e+00	 2.411185162869654e-01	 1.584832866309122e+00
1	 1.895073127564530e+00	 2.061235155814483e-01	 1.845859262759377e+00
1	 1.898539044541164e+00	 1.712850222509974e-01	 2.124939548227100e+00
1	 1.901347976913246e+00	 1.366196661700011e-01	 2.420525048914306e+00
1	 1.903511433803931e+00	 1.021434475413067e-01	 2.731062613649180e+00
1	 1.905041335783997e+00	 6.787172793844150e-02	 3.055000465628662e+00
1	 1.905949979045505e+00	 3.381922347097539e-02	 3.390793770318134e+00
1	 1.906250000000000e+00	 0.000000000000000e+00	 3.736909903055141e+00
1	 1.868280199981178e+00	 3.457297996061280e-01	 9.702803803741809e-01
1	 1.874459324581136e+00	 3.104871019417581e-01	 1.168816925224289e+00
1	 1.879942555908781e+00	 2.753470291615150e-01	 1.390108652228527e+00
1	 1.884739363895220e+00	 2.403279637744180e-01	 1.632702632252894e+00
1	 1.888859773047423e+00	 2.054477007761732e-01	 1.895119877707990e+00
1	 1.892314326361993e+00	 1.707234320140522e-01	 2.175861863412284e+00
1	 1.895114049119867e+00	 1.361717328382653e-01	 2.473416846973331e+00
1	 1.897270412709368e+00	 1.018085509919786e-01	 2.786265961960540e+00
1	 1.898795298617437e+00	 6.764919768290442e-02	 3.112889060331178e+00
1	 1.899700962720753e+00	 3.370834077107342e-02	 3.451770283760787e+00
1	 1.900000000000000e+00	 0.000000000000000e+00	 3.801403346686869e+00
1	 1.862134541427172e+00	 3.445925305276593e-01	 1.017302716446456e+00
1	 1.868293339959646e+00	 3.094657627897979e-01	 1.216519976166295e+00
1	 1.873758534342384e+00	 2.744412823542313e-01	 1.438640170252787e+00
1	 1.878539563355399e+00	 2.395374112611985e-01	 1.682255217739129e+00
1	 1.882646418530315e+00	 2.047718859702354e-01	 1.945928431003594e+00
1	 1.886089608182823e+00	 1.701618417764836e-01	 2.228200985144716e+00
1	 1.888880121326489e+00	 1.357237995059746e-01	 2.527598201555321e+00
1	 1.891029391614806e+00	 1.014736544421928e-01	 2.842635618405874e+00
1	 1.892549261450878e+00	 6.742666742703507e-02	 3.171824823865795e+00
1	 1.893451946396000e+00	 3.359745807099196e-02	 3.513679031022344e+00
1	 1.893750000000000e+00	 0.000000000000000e+00	 3.866718376565323e+00
1	 1.855988882873165e+00	 3.434552614486758e-01	 1.066454444309945e+00
1	 1.862127355338156e+00	 3.084444236372391e-01	 1.266205767146107e+00
1	 1.867574512775986e+00	 2.735355355462967e-01	 1.489011085883701e+00
1	 1.872339762815579e+00	 2.387468587473070e-01	 1.733507339518386e+00
1	 1.876433064013207e+00	 2.040960711636347e-01	 1.998300299517384e+00
1	 1.879864890003653e+00	 1.696002515382913e-01	 2.281970987661844e+00
1	 1.882646193533110e+00	 1.352758661731290e-01	 2.583081922824706e+00
1	 1.884788370520244e+00	 1.011387578919494e-01	 2.900183168827946e+00
1	 1.886303224284319e+00	 6.720413717083339e-02	 3.231818158572360e+00
1	 1.887202930071247e+00	 3.348657537073094e-02	 3.576529272704310e+00
1	 1.887500000000000e+00	 0.000000000000000e+00	 3.932863154144026e+00
1	 1.849843224319159e+00	 3.423179923691778e-01	 1.117756787138799e+00
1	 1.855961370716666e+00	 3.074230844840817e-01	 1.317894059692480e+00
1	 1.861390491209588e+00	 2.726297887377112e-01	 1.541239731987911e+00
1	 1.866139962275759e+00	 2.379563062327434e-01	 1.786475936490772e+00
1	 1.870219709496099e+00	 2.034202563563712e-01	 2.052251064464348e+00
1	 1.873640171824482e+00	 1.690386612994756e-01	 2.337186132234176e+00
1	 1.876412265739731e+00	 1.348279328397284e-01	 2.639880991180643e+00
1	 1.878547349425681e+00	 1.008038613412482e-01	 2.958920353034221e+00
1	 1.880057187117760e+00	 6.698160691429945e-02	 3.292879605027797e+00
1	 1.880953913746494e+00	 3.337569267029043e-02	 3.640330392472542e+00
1	 1.881250000000000e+00	 0.000000000000000e+00	 3.999845949334364e+00
1	 1.843697565765152e+00	 3.411807232891650e-01	 1.171231251082788e+00
1	 1.849795386095177e+00	 3.064017453303257e-01	 1.371604878821182e+00
1	 1.855206469643190e+00	 2.717240419284748e-01	 1.595344685870298e+00
1	 1.859940161735938e+00	 2.371657537175077e-01	 1.841178173408374e+00
1	 1.864006354978990e+00	 2.027444415484450e-01	 2.107796514809000e+00
1	 1.867415453645311e+00	 1.684770710600363e-01	 2.393860870282525e+00
1	 1.870178337946352e+00	 1.343799995057729e-01	 2.698008560094359e+00
1	 1.872306328331119e+00	 1.004689647900895e-01	 3.018859067362964e+00
1	 1.873811149951200e+00	 6.675907665743318e-02	 3.355019844350128e+00
1	 1.874704897421741e+00	 3.326480996967037e-02	 3.705091899108592e+00
1	 1.875000000000000e+00	 0.000000000000000e+00	 4.067675142313287e+00
1	 0.000000000000000e+00	 1.875000000000000e+00	-1.864910465360785e+01
1	 3.326480996967050e-02	 1.874704897421741e+00	-1.719738087685303e+01
1	 6.675907665743346e-02	 1.873811149951200e+00	-1.585433898065235e+01
1	 1.004689647900899e-01	 1.872306328331119e+00	-1.462425908537210e+01
1	 1.343799995057734e-01	 1.870178337946352e+00	-1.351119543007308e+01
1	 1.684770710600369e-01	 1.867415453645311e+00	-1.251895091474902e+01
1	 2.027444415484457e-01	 1.864006354978990e+00	-1.165105153644890e+01
1	 2.371657537175085e-01	 1.859940161735938e+00	-1.091072086844192e+01
1	 2.717240419284757e-01	 1.855206469643190e+00	-1.030085474085775e+01
1	 3.064017453303267e-01	 1.849795386095177e+00	-9.823996289682889e+00
1	 3.411807232891650e-01	 1.843697565765152e+00	-9.482311548449157e+00
1	 0.000000000000000e+00	 1.868750000000000e+00	-1.886540831528285e+01
1	 3.315392726905046e-02	 1.868455881096990e+00	-1.746105542334326e+01
1	 6.653654640056721e-02	 1.867565112784650e+00	-1.616071767843116e+01
1	 1.001340682389311e-01	 1.866065307236577e+00	-1.496852973469915e+01
1	 1.339320661718179e-01	 1.863944410153010e+00	-1.388841183474424e+01
1	 1.679154808205977e-01	 1.861190735466199e+00	-1.292404539871417e+01
1	 2.020686267405195e-01	 1.857793000461968e+00	-1.207884850155799e+01
1	 2.363752012022729e-01	 1.853740361196235e+00	-1.135595138087895e+01
1	 2.708182951192394e-01	 1.849022448076945e+00	-1.075817212678526e+01
1	 3.053804061765708e-01	 1.843629401473883e+00	-1.028799271327927e+01
1	 3.400434542091522e-01	 1.837551907211388e+00	-9.947535537934920e+00
1	 0.000000000000000e+00	 1.862500000000000e+00	-1.908207804690544e+01
1	 3.304304456860992e-02	 1.862206864772245e+00	-1.772518643000319e+01
1	 6.631401614403326e-02	 1.861319075618118e+00	-1.646761120271778e+01
1	 9.979917168823002e-02	 1.859824286142078e+00	-1.531334077213970e+01
1	 1.334841328384173e-01	 1.857710482359744e+00	-1.426616065006762e+01
1	 1.673538905817819e-01	 1.854966017287206e+00	-1.332963009321236e+01
1	 2.013928119332561e-01	 1.851579645945115e+00	-1.250705862579548e+01
1	 2.355846486877092e-01	 1.847540560656765e+00	-1.180148258027490e+01
1	 2.699125483106539e-01	 1.842838426511008e+00	-1.121564180052864e+01
1	 3.043590670234134e-01	 1.837463416852979e+00	-1.075195665967106e+01
1	 3.389061851296540e-01	 1.831406248658110e+00	-1.041250555163964e+01
1	 0.000000000000000e+00	 1.856250000000000e+00	-1.929911754615204e+01
1	 3.293216186834892e-02	 1.855957848447503e+00	-1.798977850754090e+01
1	 6.609148588783161e-02	 1.855073038451605e+00	-1.677502475377862e+01
1	 9.946427513798656e-02	 1.853583265047620e+00	-1.565869765615812e+01
1	 1.330361995055717e-01	 1.851476554566552e+00	-1.464444725392718e+01
1	 1.667923003435897e-01	 1.848741299108329e+00	-1.373570994986382e+01
1	 2.007169971266555e-01	 1.845366291428433e+00	-1.293568608248469e+01
1	 2.347940961738178e-01	 1.841340760117528e+00	-1.224731750387084e+01
1	 2.690068015027193e-01	 1.836654404945377e+00	-1.167326530034767e+01
1	 3.033377278708546e-01	 1.831297432232467e+00	-1.121588780080534e+01
1	 3.377689160506706e-01	 1.825260590105317e+00	-1.087721902415112e+01
1	 0.000000000000000e+00	 1.850000000000000e+00	-1.951653056066780e+01
1	 3.282127916826744e-02	 1.849708832122766e+00	-1.825483632897166e+01
1	 6.586895563196224e-02	 1.848827001285110e+00	-1.708296360215422e+01
1	 9.912937858820077e-02	 1.847342243953204e+00	-1.600460591898181e+01
1	 1.325882661732810e-01	 1.845242626773435e+00	-1.502327709688093e+01
1	 1.662307101060210e-01	 1.842516580929570e+00	-1.414228998720239e+01
1	 2.000411823207176e-01	 1.839152936911922e+00	-1.336473510134527e+01
1	 2.340035436605982e-01	 1.835140959578525e+00	-1.269345922995156e+01
1	 2.681010546954355e-01	 1.830470383380053e+00	-1.213104418528993e+01
1	 3.023163887188944e-01	 1.825131447612345e+00	-1.167978580419584e+01
1	 3.366316469722018e-01	 1.819114931553009e+00	-1.134167335538931e+01
1	 0.000000000000000e+00	 1.843750000000000e+00	-1.973432088891313e+01
1	 3.271039646836550e-02	 1.843459815798034e+00	-1.852036463067330e+01
1	 6.564642537642516e-02	 1.842580964118634e+00	-1.739143308985026e+01
1	 9.879448203887262e-02	 1.841101222858830e+00	-1.635107116785165e+01
1	 1.321403328415453e-01	 1.839008698980392e+00	-1.540265570339285e+01
1	 1.656691198690758e-01	 1.836291862750929e+00	-1.454937529180991e+01
1	 1.993653675154424e-01	 1.832939582395581e+00	-1.379420996944888e+01
1	 2.332129911480509e-01	 1.828941159039756e+00	-1.313991087854141e+01
1	 2.671953078888027e-01	 1.824286361815036e+00	-1.258898003554228e+01
1	 3.012950495675327e-01	 1.818965462992614e+00	-1.214365033284798e+01
1	 3.354943778942477e-01	 1.812969273001186e+00	-1.180586591001901e+01
1	 0.000000000000000e+00	 1.837500000000000e+00	-1.995249238102818e+01
1	 3.259951376864308e-02	 1.837210799473307e+00	-1.878636821346408e+01
1	 6.542389512122038e-02	 1.836334926952176e+00	-1.770043863155235e+01
1	 9.845958549000217e-02	 1.834860201764497e+00	-1.669809908629723e+01
1	 1.316923995103645e-01	 1.832774771187425e+00	-1.578258867308944e+01
1	 1.651075296327542e-01	 1.830067144572405e+00	-1.495697101947356e+01
1	 1.986895527108301e-01	 1.826726227879411e+00	-1.422411503219461e+01
1	 2.324224386361756e-01	 1.822741358501219e+00	-1.358667561211394e+01
1	 2.662895610828208e-01	 1.818102340250326e+00	-1.304707445279087e+01
1	 3.002737104167698e-01	 1.812799478373273e+00	-1.260748104518250e+01
1	 3.343571088168084e-01	 1.806823614449849e+00	-1.226979401684991e+01
1	 0.000000000000000e+00	 1.831250000000000e+00	-2.017104893971486e+01
1	 3.248863106910016e-02	 1.830961783148583e+00	-1.905285194370316e+01
1	 6.520136486634792e-02	 1.830088889785737e+00	-1.800998571586697e+01
1	 9.812468894158934e-02	 1.828619180670207e+00	-1.704569543543901e+01
1	 1.312444661797386e-01	 1.826540843394533e+00	-1.616308168204310e+01
1	 1.645459393970560e-01	 1.823842426393999e+00	-1.536508239636637e+01
1	 1.980137379068805e-01	 1.820512873363410e+00	-1.465445469430487e+01
1	 2.316318861249724e-01	 1.816541557962917e+00	-1.403375663631640e+01
1	 2.653838142774897e-01	 1.811918318685923e+00	-1.350532906058785e+01
1	 2.992523712666053e-01	 1.806633493754324e+00	-1.307127759495658e+01
1	 3.332198397398836e-01	 1.800677955898998e+00	-1.273345496822509e+01
1	 0.000000000000000e+00	 1.825000000000000e+00	-2.038999452113683e+01
1	 3.237774836973679e-02	 1.824712766823865e+00	-1.931982075441097e+01
1	 6.497883461180776e-02	 1.823842852619316e+00	-1.832007990658688e+01
1	 9.778979239363414e-02	 1.822378159575957e+00	-1.739386605531696e+01
1	 1.307965328496677e-01	 1.820306915601714e+00	-1.654414048407988e+01
1	 1.639843491619814e-01	 1.817617708215711e+00	-1.577371472025309e+01
1	 1.973379231035937e-01	 1.814299518847581e+00	-1.508523342083986e+01
1	 2.308413336144414e-01	 1.810341757424848e+00	-1.448115720070917e+01
1	 2.644780674728095e-01	 1.805734297121827e+00	-1.396374550472571e+01
1	 2.982310321170395e-01	 1.800467509135765e+00	-1.353503963118457e+01
1	 3.320825706634735e-01	 1.794532297348631e+00	-1.319684601939626e+01
1	 0.000000000000000e+00	 1.818750000000000e+00	-2.060933313583773e+01
1	 3.226686567055295e-02	 1.818463750499151e+00	-1.958727964641684e+01
1	 6.475630435759988e-02	 1.817596815452913e+00	-1.863072684398326e+01
1	 9.745489584613659e-02	 1.816137138481750e+00	-1.774261686624668e+01
1	 1.303485995201517e-01	 1.814072987808971e+00	-1.692577091211696e+01
1	 1.634227589275303e-01	 1.811392990037540e+00	-1.618287336171974e+01
1	 1.966621083009697e-01	 1.808086164331922e+00	-1.551645573823614e+01
1	 2.300507811045823e-01	 1.804141956887012e+00	-1.492888059952007e+01
1	 2.635723206687802e-01	 1.799550275558037e+00	-1.442232545361980e+01
1	 2.972096929680723e-01	 1.794301524517597e+00	-1.399876679805630e+01
1	 3.309453015875781e-01	 1.788386638798750e+00	-1.365996438788689e+01
1	 0.000000000000000e+00	 1.812500000000000e+00	-2.082906884967899e+01
1	 3.215598297154861e-02	 1.812214734174441e+00	-1.985523368952645e+01
1	 6.453377410372427e-02	 1.811350778286528e+00	-1.894193224612377e+01
1	 9.711999929909672e-02	 1.809896117387584e+00	-1.809195387020273e+01
1	 1.299006661911906e-01	 1.807839060016302e+00	-1.730797887952497e+01
1	 1.628611686937027e-01	 1.805168271859486e+00	-1.659256376542946e+01
1	 1.959862934990084e-01	 1.801872809816433e+00	-1.594812623536319e+01
1	 2.292602285953954e-01	 1.797942156349410e+00	-1.537693017241425e+01
1	 2.626665738654017e-01	 1.793366253994554e+00	-1.488107059869790e+01
1	 2.961883538197036e-01	 1.788135539899820e+00	-1.446245873485382e+01
1	 3.298080325121973e-01	 1.782240980249354e+00	-1.412280725284121e+01
1	 3.411807232891650e-01	 1.843697565765152e+00	-9.482311548449157e+00
1	 3.760422934087836e-01	 1.836904237834347e+00	-9.234455126068328e+00
1	 4.109672320860102e-01	 1.829407248758954e+00	-9.042858633110047e+00
1	 4.459357761709229e-01	 1.821199104824319e+00	-8.907490928234525e+00
1	 4.809276675664804e-01	 1.812272997718727e+00	-8.828121775875635e+00
1	 5.159221802664901e-01	 1.802622837159869e+00	-8.804315673606370e+00
1	 5.508981496959874e-01	 1.792243282413446e+00	-8.835426466351144e+00
1	 5.858340043156527e-01	 1.781129772527895e+00	-8.920592817202465e+00
1	 6.207077994373560e-01	 1.769278555109062e+00	-9.058734601186480e+00
1	 6.554972531830644e-01	 1.756686713459785e+00	-9.248550284074787e+00
1	 6.901797845043331e-01	 1.743352191911899e+00	-9.488515343255058e+00
1	 3.400434542091522e-01	 1.837551907211388e+00	-9.947535537934920e+00
1	 3.747888190953449e-01	 1.830781223706806e+00	-9.697592098588288e+00
1	 4.095973413105659e-01	 1.823309224594859e+00	-9.503276454032209e+00
1	 4.444493235820585e-01	 1.815128441139940e+00	-9.364561911320632e+00
1	 4.793245753397701e-01	 1.806232087724712e+00	-9.281225106932949e+00
1	 5.142024396641954e-01	 1.796614094367805e+00	-9.252839900190297e+00
1	 5.490618225289512e-01	 1.786269138137370e+00	-9.278772043712740e+00
1	 5.838812242998481e-01	 1.775192673285019e+00	-9.358174699863323e+00
1	 6.186387734377163e-01	 1.763380959924576e+00	-9.489984868754451e+00
1	 6.533122623374487e-01	 1.750831091081206e+00	-9.672920789199084e+00
1	 6.878791852207612e-01	 1.737541017938971e+00	-9.905480368969735e+00
1	 3.389061851296540e-01	 1.831406248658110e+00	-1.041250555163964e+01
1	 3.735353447823303e-01	 1.824658209579837e+00	-1.016044804703601e+01
1	 4.082274505354737e-01	 1.817211200431391e+00	-9.963382937293654e+00
1	 4.429628709934931e-01	 1.809057777456219e+00	-9.821287973707131e+00
1	 4.777214831133256e-01	 1.800191177731354e+00	-9.733946668291715e+00
1	 5.124826990621523e-01	 1.790605351576369e+00	-9.700942253484708e+00
1	 5.472254953621729e-01	 1.780294993861863e+00	-9.721652409056192e+00
1	 5.819284442843287e-01	 1.769255574042621e+00	-9.795244824358207e+00
1	 6.165697474384090e-01	 1.757483364740447e+00	-9.920673660719316e+00
1	 6.511272714922334e-01	 1.744975468702831e+00	-1.009667697464808e+01
1	 6.855785859376787e-01	 1.731729843966064e+00	-1.032177515755774e+01
1	 3.377689160506706e-01	 1.825260590105317e+00	-1.087721902415112e+01
1	 3.722818704697395e-01	 1.818535195453438e+00	-1.062302013278416e+01
1	 4.068575597607331e-01	 1.811113176268553e+00	-1.042317493806873e+01
1	 4.414764184052267e-01	 1.802987113773156e+00	-1.027766563134548e+01
1	 4.761183908871466e-01	 1.794150267738654e+00	-1.018628260369092e+01
1	 5.107629584603612e-01	 1.784596608785562e+00	-1.014861847214181e+01
1	 5.453891681956532e-01	 1.774320849586926e+00	-1.016406286326852e+01
1	 5.799756642690940e-01	 1.763318474800700e+00	-1.023179802141105e+01
1	 6.145007214394339e-01	 1.751585769556675e+00	-1.035079530560844e+01
1	 6.489422806474183e-01	 1.739119846324661e+00	-1.051981263517038e+01
1	 6.832779866550860e-01	 1.725918669993177e+00	-1.073739293894486e+01
1	 3.366316469722018e-01	 1.819114931553009e+00	-1.134167335538931e+01
1	 3.710283961575729e-01	 1.812412181327611e+00	-1.108530547884524e+01
1	 4.054876689863449e-01	 1.805015152106344e+00	-1.088264926903419e+01
1	 4.399899658172595e-01	 1.796916450090752e+00	-1.073369135310548e+01
1	 4.745152986612334e-01	 1.788109357746613e+00	-1.063822900475819e+01
1	 5.090432178588219e-01	 1.778587865995384e+00	-1.059586423722796e+01
1	 5.435528410293914e-01	 1.768346705312556e+00	-1.060599864373539e+01
1	 5.780228842541444e-01	 1.757381375559260e+00	-1.066782905189047e+01
1	 6.124316954407908e-01	 1.745688174373260e+00	-1.078034405530763e+01
1	 6.467572898030038e-01	 1.733264223946696e+00	-1.094232148165990e+01
1	 6.809773873729831e-01	 1.720107496020311e+00	-1.115232685156955e+01
1	 3.354943778942477e-01	 1.812969273001186e+00	-1.180586591001901e+01
1	 3.697749218458301e-01	 1.806289167202354e+00	-1.154730116922183e+01
1	 4.041177782123087e-01	 1.798917127944764e+00	-1.134180269964879e+01
1	 4.385035132295913e-01	 1.790845786409005e+00	-1.118936155997718e+01
1	 4.729122064355858e-01	 1.782068447755230e+00	-1.108978191012619e+01
1	 5.073234772575347e-01	 1.772579123205833e+00	-1.104267517124768e+01
1	 5.417165138633878e-01	 1.762372561038756e+00	-1.104745492326446e+01
1	 5.760701042394794e-01	 1.751444276318296e+00	-1.110333260562609e+01
1	 6.103626694424802e-01	 1.739790579190203e+00	-1.120931408376208e+01
1	 6.445722989589900e-01	 1.727408601568936e+00	-1.136419713973457e+01
1	 6.786767880913700e-01	 1.714296322047465e+00	-1.156656994083191e+01
1	 3.343571088168084e-01	 1.806823614449849e+00	-1.226979401684991e+01
1	 3.685214475345115e-01	 1.800166153077670e+00	-1.200900424824316e+01
1	 4.027478874386242e-01	 1.792819103783813e+00	-1.180063195541833e+01
1	 4.370170606422223e-01	 1.784775122727918e+00	-1.164467262425664e+01
1	 4.713091142102037e-01	 1.776027537764505e+00	-1.154093730453144e+01
1	 5.056037366564993e-01	 1.766570380416912e+00	-1.148904683714803e+01
1	 5.398801866976425e-01	 1.756398416765523e+00	-1.148842680898737e+01
1	 5.741173242250993e-01	 1.745507177077811e+00	-1.153830330020042e+01
1	 6.082936434445017e-01	 1.733892984007502e+00	-1.163769948565104e+01
1	 6.423873081153761e-01	 1.721552979191380e+00	-1.178543314828609e+01
1	 6.763761888102465e-01	 1.708485148074641e+00	-1.198011515751193e+01
1	 3.332198397398836e-01	 1.800677955898998e+00	-1.273345496822509e+01
1	 3.672679732236167e-01	 1.794043138953557e+00	-1.247041171988793e+01
1	 4.013779966652921e-01	 1.786721079623492e+00	-1.225913371714561e+01
1	 4.355306080551524e-01	 1.778704459047488e+00	-1.209962086871477e+01
1	 4.697060219850872e-01	 1.769986627774439e+00	-1.199169111789450e+01
1	 5.038839960557157e-01	 1.760561637628618e+00	-1.193497473730153e+01
1	 5.380438595321555e-01	 1.750424272492860e+00	-1.192890934123890e+01
1	 5.721645442110040e-01	 1.739570077837804e+00	-1.197273567971564e+01
1	 6.062246174468552e-01	 1.727995388825158e+00	-1.206549427503494e+01
1	 6.402023172721628e-01	 1.715697356814028e+00	-1.220602295799989e+01
1	 6.740755895296129e-01	 1.702673974101836e+00	-1.239295535615448e+01
1	 3.320825706634735e-01	 1.794532297348631e+00	-1.319684601939626e+01
1	 3.660144989131459e-01	 1.787920124830015e+00	-1.293152054709355e+01
1	 4.000081058923117e-01	 1.780623055463799e+00	-1.271730462016517e+01
1	 4.340441554683817e-01	 1.772633795367717e+00	-1.255420256574977e+01
1	 4.681029297602363e-01	 1.763945717785030e+00	-1.244203922438157e+01
1	 5.021642554551839e-01	 1.754552894840953e+00	-1.238045431246974e+01
1	 5.362075323669266e-01	 1.744450128220765e+00	-1.236889749241330e+01
1	 5.702117641971940e-01	 1.733632978598276e+00	-1.240662421353590e+01
1	 6.041555914495410e-01	 1.722097793643172e+00	-1.249269238397532e+01
1	 6.380173264293501e-01	 1.709841734436881e+00	-1.262595992984469e+01
1	 6.717749902494689e-01	 1.696862800129052e+00	-1.280508329342130e+01
1	 3.309453015875781e-01	 1.788386638798750e+00	-1.365996438788689e+01
1	 3.647610246030992e-01	 1.781797110707044e+00	-1.339232765105070e+01
1	 3.986382151196835e-01	 1.774525031304736e+00	-1.317514125356134e+01
1	 4.325577028819100e-01	 1.766563131688604e+00	-1.300841393652114e+01
1	 4.664998375356511e-01	 1.757904807796280e+00	-1.289197744144617e+01
1	 5.004445148549043e-01	 1.748544152053917e+00	-1.282548094074406e+01
1	 5.343712052019559e-01	 1.738475983949239e+00	-1.280838616579664e+01
1	 5.682589841836686e-01	 1.727695879359226e+00	-1.283996329500259e+01
1	 6.020865654525590e-01	 1.716200198461543e+00	-1.291928766112524e+01
1	 6.358323355869375e-01	 1.703986112059939e+00	-1.304523733353116e+01
1	 6.694743909698143e-01	 1.691051626156288e+00	-1.321649162640948e+01
1	 3.298080325121973e-01	 1.782240980249354e+00	-1.412280725284121e+01
1	 3.635075502934763e-01	 1.775674096584645e+00	-1.385282991048383e+01
1	 3.972683243474071e-01	 1.768427007146301e+00	-1.363264015937200e+01
1	 4.310712502957372e-01	 1.760492468010148e+00	-1.346225115006644e+01
1	 4.648967453113315e-01	 1.751863897808187e+00	-1.334150152885165e+01
1	 4.987247742548762e-01	 1.742535409267508e+00	-1.327004993646551e+01
1	 5.325348780372434e-01	 1.732501839678281e+00	-1.324737019437578e+01
1	 5.663062041704281e-01	 1.721758780120654e+00	-1.327274724012432e+01
1	 6.000175394559092e-01	 1.710302603280270e+00	-1.334527387029184e+01
1	 6.336473447449253e-01	 1.698130489683200e+00	-1.346384834593850e+01
1	 6.671737916906499e-01	 1.685240452183546e+00	-1.362717291093492e+01
1	 6.901797845043331e-01	 1.743352191911899e+00	-9.488515343255060e+00
1	 7.247316448306619e-01	 1.729274183908636e+00	-9.616559611744531e+00
1	 7.591306312953636e-01	 1.714452090769837e+00	-9.743186544924317e+00
1	 7.933535122707360e-01	 1.698886571816269e+00	-9.867897414930900e+00
1	 8.273769275401210e-01	 1.682579227343848e+00	-9.990175026969318e+00
1	 8.611774348605369e-01	 1.665532612514361e+00	-1.010948509658720e+01
1	 8.947315577813513e-01	 1.647750248535261e+00	-1.022527776429066e+01
1	 9.280158345380317e-01	 1.629236631013145e+00	-1.033698924240963e+01
1	 9.610068678287497e-01	 1.609997235379079e+00	-1.044404358783633e+01
1	 9.936813752715054e-01	 1.590038519298751e+00	-1.054585459300487e+01
1	 1.026016240330579e+00	 1.569367921996219e+00	-1.064182778624739e+01
1	 6.878791852207612e-01	 1.737541017938971e+00	-9.905480368969737e+00
1	 7.223158726791483e-01	 1.723509936629577e+00	-1.002105362323540e+01
1	 7.566001958555753e-01	 1.708737250468417e+00	-1.013632155387430e+01
1	 7.907090005610981e-01	 1.693223616578518e+00	-1.025079693605355e+01
1	 8.246190044464506e-01	 1.676970629921480e+00	-1.036396987154115e+01
1	 8.583068434094616e-01	 1.659980837141881e+00	-1.047530904298607e+01
1	 8.917491192543356e-01	 1.642257747709816e+00	-1.058426312540981e+01
1	 9.249224484224225e-01	 1.623805842246526e+00	-1.069026235106639e+01
1	 9.578035116029011e-01	 1.604630577931640e+00	-1.079272022241340e+01
1	 9.903691040217116e-01	 1.584738390905293e+00	-1.089103536652267e+01
1	 1.022596186198255e+00	 1.564136695594130e+00	-1.098459352286151e+01
1	 6.855785859376787e-01	 1.731729843966064e+00	-1.032177515755774e+01
1	 7.199001005282104e-01	 1.717745689350349e+00	-1.042489644057412e+01
1	 7.540697604164183e-01	 1.703022410166654e+00	-1.052883263001595e+01
1	 7.880644888521199e-01	 1.687560661340274e+00	-1.063310804911497e+01
1	 8.218610813534380e-01	 1.671362032498485e+00	-1.073722012142375e+01
1	 8.554362519590126e-01	 1.654429061768660e+00	-1.084064050159001e+01
1	 8.887666807278841e-01	 1.636765246883538e+00	-1.094281638329524e+01
1	 9.218290623072853e-01	 1.618375053479001e+00	-1.104317198176927e+01
1	 9.546001553774011e-01	 1.599263920483244e+00	-1.114111018674744e+01
1	 9.870568327721125e-01	 1.579438262510845e+00	-1.123601438016133e+01
1	 1.019176132065940e+00	 1.558905469191040e+00	-1.132725041129533e+01
1	 6.832779866550860e-01	 1.725918669993177e+00	-1.073739293894486e+01
1	 7.174843283778478e-01	 1.711981442070950e+00	-1.082808148604054e+01
1	 7.515393249778939e-01	 1.697307569864550e+00	-1.092071347099633e+01
1	 7.854199771438017e-01	 1.681897706101535e+00	-1.101482481059820e+01
1	 8.191031582610834e-01	 1.665753435074863e+00	-1.110992027565967e+01
1	 8.525656605091895e-01	 1.648877286394700e+00	-1.120547449777422e+01
1	 8.857842422019967e-01	 1.631272746056426e+00	-1.130093317326711e+01
1	 9.187356761926200e-01	 1.612944264710570e+00	-1.139571446302317e+01
1	 9.513967991522503e-01	 1.593897263033889e+00	-1.148921058517888e+01
1	 9.837445615227091e-01	 1.574138134115408e+00	-1.158078959594184e+01
1	 1.015756077933636e+00	 1.553674242786951e+00	-1.166979735207199e+01
1	 6.809773873729831e-01	 1.720107496020311e+00	-1.115232685156955e+01
1	 7.150685562280603e-01	 1.706217194791381e+00	-1.123060209302589e+01
1	 7.490088895400016e-01	 1.691592729562104e+00	-1.131195768929529e+01
1	 7.827754654361430e-01	 1.676234750862302e+00	-1.139594119666840e+01
1	 8.163452351693864e-01	 1.660144837650613e+00	-1.148206475895423e+01
1	 8.496950690599924e-01	 1.643325511019999e+00	-1.156980598968879e+01
1	 8.828018036766733e-01	 1.625780245228481e+00	-1.165860907166341e+01
1	 9.156422900784257e-01	 1.607513475941233e+00	-1.174788607371820e+01
1	 9.481934429274476e-01	 1.588530605583575e+00	-1.183701848291744e+01
1	 9.804322902735002e-01	 1.568838005718982e+00	-1.192535894834504e+01
1	 1.012336023801343e+00	 1.548443016381862e+00	-1.201223323085672e+01
1	 6.786767880913700e-01	 1.714296322047465e+00	-1.156656994083191e+01
1	 7.126527840788484e-01	 1.700452947511643e+00	-1.163245150452688e+01
1	 7.464784541027416e-01	 1.685877889259318e+00	-1.170255881078255e+01
1	 7.801309537291443e-01	 1.670571795622575e+00	-1.177645110181179e+01
1	 8.135873120783472e-01	 1.654536240225737e+00	-1.185364792041554e+01
1	 8.468244776114211e-01	 1.637773735644558e+00	-1.193362986712001e+01
1	 8.798193651519139e-01	 1.620287744399703e+00	-1.201583959484029e+01
1	 9.125489039647033e-01	 1.602082687170990e+00	-1.209968304228875e+01
1	 9.449900867029940e-01	 1.583163948132304e+00	-1.218453090537953e+01
1	 9.771200190244870e-01	 1.563537877321566e+00	-1.226972034384447e+01
1	 1.008915969669060e+00	 1.543211789975772e+00	-1.235455691820519e+01
1	 6.763761888102465e-01	 1.708485148074641e+00	-1.198011515751193e+01
1	 7.102370119302122e-01	 1.694688700231734e+00	-1.203362287160838e+01
1	 7.439480186661138e-01	 1.680163048956188e+00	-1.209251027324437e+01
1	 7.774864420228054e-01	 1.664908840382354e+00	-1.215634833744618e+01
1	 8.108293889879660e-01	 1.648927642800234e+00	-1.222466403226876e+01
1	 8.439538861634761e-01	 1.632221960268377e+00	-1.229694095032762e+01
1	 8.768369266277182e-01	 1.614795243570092e+00	-1.237262019815202e+01
1	 9.094555178514526e-01	 1.596651898399842e+00	-1.245110154585535e+01
1	 9.417867304788894e-01	 1.577797290680074e+00	-1.253174483751065e+01
1	 9.738077477756689e-01	 1.558237748923161e+00	-1.261387166043051e+01
1	 1.005495915536788e+00	 1.537980563568683e+00	-1.269676726930649e+01
1	 6.740755895296129e-01	 1.702673974101836e+00	-1.239295535615448e+01
1	 7.078212397821509e-01	 1.688924452951656e+00	-1.243410925183423e+01
1	 7.414175832301181e-01	 1.674448208652717e+00	-1.248180542488031e+01
1	 7.748419303171262e-01	 1.659245885141639e+00	-1.253562663050387e+01
1	 8.080714658982426e-01	 1.643319045374103e+00	-1.259510728854432e+01
1	 8.410832947161568e-01	 1.626670184891456e+00	-1.265973398885770e+01
1	 8.738544881040869e-01	 1.609302742739647e+00	-1.272894627490978e+01
1	 9.063621317386739e-01	 1.591221109627787e+00	-1.280213770934913e+01
1	 9.385833742551332e-01	 1.572430633226886e+00	-1.287865722309524e+01
1	 9.704954765270456e-01	 1.552937620523766e+00	-1.295781074712401e+01
1	 1.002075861404526e+00	 1.532749337160594e+00	-1.303886312372081e+01
1	 6.717749902494689e-01	 1.696862800129052e+00	-1.280508329342130e+01
1	 7.054054676346654e-01	 1.683160205671407e+00	-1.283390360766654e+01
1	 7.388871477947546e-01	 1.668733368348905e+00	-1.287043752276953e+01
1	 7.721974186121067e-01	 1.653582929900429e+00	-1.291427962198470e+01
1	 8.053135428091769e-01	 1.637710447947345e+00	-1.296497180373856e+01
1	 8.382127032694637e-01	 1.621118409513795e+00	-1.302200366033274e+01
1	 8.708720495810195e-01	 1.603810241908370e+00	-1.308481315531942e+01
1	 9.032687456263666e-01	 1.585790320854827e+00	-1.315278760461791e+01
1	 9.353800180317260e-01	 1.567063975772741e+00	-1.322526496405182e+01
1	 9.671832052786176e-01	 1.547637492123382e+00	-1.330153542348059e+01
1	 9.986558072722751e-01	 1.527518110751505e+00	-1.338084330511201e+01
1	 6.694743909698143e-01	 1.691051626156288e+00	-1.321649162640948e+01
1	 7.029896954877551e-01	 1.677395958390988e+00	-1.323299880483152e+01
1	 7.363567123600233e-01	 1.663018528044751e+00	-1.325839973130507e+01
1	 7.695529069077470e-01	 1.647919974658726e+00	-1.329230086547929e+01
1	 8.025556197207688e-01	 1.632101850519960e+00	-1.333425161144778e+01
1	 8.353421118233962e-01	 1.615566634135393e+00	-1.338374456921522e+01
1	 8.678896110585161e-01	 1.598317741076259e+00	-1.344021610539732e+01
1	 9.001753595145310e-01	 1.580359532080960e+00	-1.350304724951451e+01
1	 9.321766618086674e-01	 1.561697318317637e+00	-1.357156491971367e+01
1	 9.638709340303847e-01	 1.542337363722008e+00	-1.364504347908356e+01
1	 9.952357531400349e-01	 1.522286884341415e+00	-1.372270662097412e+01
1	 6.671737916906499e-01	 1.685240452183546e+00	-1.362717291093492e+01
1	 7.005739233414201e-01	 1.671631711110399e+00	-1.363138761065160e+01
1	 7.338262769259241e-01	 1.657303687740254e+00	-1.364568512059554e+01
1	 7.669083952040473e-01	 1.642257019416528e+00	-1.366968382566254e+01
1	 7.997976966330189e-01	 1.626493253091949e+00	-1.370294066297280e+01
1	 8.324715203779550e-01	 1.610014858756251e+00	-1.374495124554658e+01
1	 8.649071725365766e-01	 1.592825240243314e+00	-1.379515032586347e+01
1	 8.970819734031671e-01	 1.574928743306188e+00	-1.385291260696544e+01
1	 9.289733055859576e-01	 1.556330660861575e+00	-1.391755390609414e+01
1	 9.605586627823469e-01	 1.537037235319645e+00	-1.398833267302836e+01
1	 9.918156990078052e-01	 1.517055657930326e+00	-1.406445186235337e+01
1	 1.026016240330579e+00	 1.569367921996219e+00	-1.064182778624739e+01
1	 1.057989361994650e+00	 1.547993332369669e+00	-1.056664594978784e+01
1	 1.089577268797566e+00	 1.525924681268023e+00	-1.044359875003620e+01
1	 1.120757647397943e+00	 1.503172317634914e+00	-1.027431443298508e+01
1	 1.151508554302674e+00	 1.479747537592415e+00	-1.006059005186050e+01
1	 1.181808465769633e+00	 1.455662567876546e+00	-9.804385676265564e+00
1	 1.211636326811076e+00	 1.430930546135140e+00	-9.507817689888205e+00
1	 1.240971599068487e+00	 1.405565498146131e+00	-9.173151211153279e+00
1	 1.269794307334019e+00	 1.379582312033407e+00	-8.802791678897528e+00
1	 1.298085084499885e+00	 1.352996709576064e+00	-8.399275652494669e+00
1	 1.325825214725000e+00	 1.325825214725000e+00	-7.965260882786523e+00
1	 1.022596186198255e+00	 1.564136695594130e+00	-1.098459352286151e+01
1	 1.054462730791121e+00	 1.542833354600007e+00	-1.090110681701364e+01
1	 1.085945344572255e+00	 1.520838265669017e+00	-1.076838635708621e+01
1	 1.117021788578076e+00	 1.498161743248312e+00	-1.058805709972450e+01
1	 1.147670192460452e+00	 1.474815045806225e+00	-1.036191745856358e+01
1	 1.177869104223064e+00	 1.450810359322990e+00	-1.009193356930382e+01
1	 1.207597539061459e+00	 1.426160777654281e+00	-9.780232619486709e+00
1	 1.236835027078316e+00	 1.400880279825436e+00	-9.429095276829946e+00
1	 1.265561659649815e+00	 1.374983704333264e+00	-9.040947257872599e+00
1	 1.293758134225192e+00	 1.348486720550931e+00	-8.618350086234292e+00
1	 1.321405797349500e+00	 1.321405797349500e+00	-8.163991096922345e+00
1	 1.019176132065940e+00	 1.558905469191040e+00	-1.132725041129533e+01
1	 1.050936099587412e+00	 1.537673376829346e+00	-1.123545677310501e+01
1	 1.082313420346593e+00	 1.515751850069011e+00	-1.109305247937243e+01
1	 1.113285929757706e+00	 1.493151168860709e+00	-1.090165917128417e+01
1	 1.143831830617597e+00	 1.469882554019036e+00	-1.066307661843494e+01
1	 1.173929742675749e+00	 1.445958150768435e+00	-1.037927704005286e+01
1	 1.203558751311006e+00	 1.421391009172421e+00	-1.005239846695925e+01
1	 1.232698455087238e+00	 1.396195061503740e+00	-9.684737177597160e+00
1	 1.261329011964651e+00	 1.370385096632121e+00	-9.278739249551386e+00
1	 1.289431183949509e+00	 1.343976731524799e+00	-8.836991275739091e+00
1	 1.316986379973000e+00	 1.316986379973000e+00	-8.362210301786744e+00
1	 1.015756077933636e+00	 1.553674242786951e+00	-1.166979735207199e+01
1	 1.047409468383523e+00	 1.532513399057684e+00	-1.156969469774720e+01
1	 1.078681496120580e+00	 1.510665434468004e+00	-1.141759588977572e+01
1	 1.109550070936834e+00	 1.488140594472108e+00	-1.121511922751070e+01
1	 1.139993468774107e+00	 1.464950062230846e+00	-1.096406583201175e+01
1	 1.169990381127689e+00	 1.441105942212880e+00	-1.066641402364132e+01
1	 1.199519963559716e+00	 1.416621240689562e+00	-1.032431271632514e+01
1	 1.228561883095251e+00	 1.391509843181044e+00	-9.940073861284594e+00
1	 1.257096364278528e+00	 1.365786488929978e+00	-9.516163981335326e+00
1	 1.285104233672836e+00	 1.339466742497667e+00	-9.055194844805388e+00
1	 1.312566962595500e+00	 1.312566962595500e+00	-8.559913335670794e+00
1	 1.012336023801343e+00	 1.548443016381862e+00	-1.201223323085672e+01
1	 1.043882837179454e+00	 1.527353421285021e+00	-1.190381945548605e+01
1	 1.075049571894217e+00	 1.505579018865997e+00	-1.174201534459452e+01
1	 1.105814212115461e+00	 1.483130020082505e+00	-1.152843582905946e+01
1	 1.136155106929983e+00	 1.460017570441656e+00	-1.126488337686522e+01
1	 1.166051019578884e+00	 1.436253733656324e+00	-1.095334242729391e+01
1	 1.195481175807588e+00	 1.411851472205702e+00	-1.059597281760368e+01
1	 1.224425311102357e+00	 1.386824624857349e+00	-1.019510223447628e+01
1	 1.252863716591447e+00	 1.361187881226836e+00	-9.753217730996475e+00
1	 1.280777283395173e+00	 1.334956753469534e+00	-9.272956358091641e+00
1	 1.308147545217000e+00	 1.308147545217000e+00	-8.757094967112879e+00
1	 1.008915969669060e+00	 1.543211789975772e+00	-1.235455691820519e+01
1	 1.040356205975206e+00	 1.522193443511359e+00	-1.223782989547163e+01
1	 1.071417647667503e+00	 1.500492603262991e+00	-1.206630958326341e+01
1	 1.102078353293585e+00	 1.478119445691903e+00	-1.184160751706912e+01
1	 1.132316745085227e+00	 1.455085078651467e+00	-1.156552750721190e+01
1	 1.162111658029334e+00	 1.431401525098769e+00	-1.124006012985895e+01
1	 1.191442388054624e+00	 1.407081703720842e+00	-1.086737618623842e+01
1	 1.220288739108554e+00	 1.382139406532654e+00	-1.044981916181171e+01
1	 1.248631068903406e+00	 1.356589273522693e+00	-9.989896725835727e+00
1	 1.276450333116521e+00	 1.330446764440402e+00	-9.490271320116237e+00
1	 1.303728127837500e+00	 1.303728127837500e+00	-8.953749893716283e+00
1	 1.005495915536788e+00	 1.537980563568683e+00	-1.269676726930649e+01
1	 1.036829574770778e+00	 1.517033465736698e+00	-1.257172485119578e+01
1	 1.067785723440438e+00	 1.495406187658984e+00	-1.239047732806632e+01
1	 1.098342494471207e+00	 1.473108871300301e+00	-1.215463281283014e+01
1	 1.128478383239836e+00	 1.450152586860278e+00	-1.186599645351587e+01
1	 1.158172296479038e+00	 1.426549316540213e+00	-1.152656498132552e+01
1	 1.187403600300823e+00	 1.402311935234983e+00	-1.113852020250868e+01
1	 1.216152167113843e+00	 1.377454188206958e+00	-1.070422146527225e+01
1	 1.244398421214406e+00	 1.351990665817550e+00	-1.022619714182493e+01
1	 1.272123382836879e+00	 1.325936775410270e+00	-9.707135174234331e+00
1	 1.299308710457000e+00	 1.299308710457000e+00	-9.149872740942788e+00
1	 1.002075861404526e+00	 1.532749337160594e+00	-1.303886312372081e+01
1	 1.033302943566170e+00	 1.511873487961036e+00	-1.290550314022556e+01
1	 1.064153799213022e+00	 1.490319772053978e+00	-1.271451728384405e+01
1	 1.094606635648326e+00	 1.468098296907699e+00	-1.246751021744567e+01
1	 1.124640021393811e+00	 1.445220095068088e+00	-1.216628842208404e+01
1	 1.154232934927997e+00	 1.421697107980658e+00	-1.181285480233085e+01
1	 1.183364812546185e+00	 1.397542166748123e+00	-1.140940221092981e+01
1	 1.212015595118223e+00	 1.372768969880262e+00	-1.095830592345350e+01
1	 1.240165773524446e+00	 1.347392058111406e+00	-1.046211510273067e+01
1	 1.267796432556247e+00	 1.321426786379137e+00	-9.923543301594362e+00
1	 1.294889293075500e+00	 1.294889293075500e+00	-9.345458060881731e+00
1	 9.986558072722751e-01	 1.527518110751505e+00	-1.338084330511201e+01
1	 1.029776312361383e+00	 1.506713510184374e+00	-1.323916356393029e+01
1	 1.060521874985256e+00	 1.485233356447971e+00	-1.303842813769548e+01
1	 1.090870776824944e+00	 1.463087722514097e+00	-1.278023821148604e+01
1	 1.120801659547154e+00	 1.440287603274899e+00	-1.246640159465198e+01
1	 1.150293573376211e+00	 1.416844899420103e+00	-1.209892738365816e+01
1	 1.179326024790711e+00	 1.392772398260263e+00	-1.168001951964058e+01
1	 1.207879023121696e+00	 1.368083751552567e+00	-1.121206927082227e+01
1	 1.235933125833528e+00	 1.342793450404263e+00	-1.069764667922056e+01
1	 1.263469482274626e+00	 1.316916797347005e+00	-1.013949102007296e+01
1	 1.290469875693000e+00	 1.290469875693000e+00	-9.540500330993567e+00
1	 9.952357531400349e-01	 1.522286884341415e+00	-1.372270662097412e+01
1	 1.026249681156415e+00	 1.501553532406712e+00	-1.357270490720325e+01
1	 1.056889950757139e+00	 1.480146940840965e+00	-1.336220855867276e+01
1	 1.087134918001060e+00	 1.458077148119495e+00	-1.309281525463596e+01
1	 1.116963297699862e+00	 1.435355111480709e+00	-1.276633412796193e+01
1	 1.146354211823679e+00	 1.411992690858547e+00	-1.238478048572314e+01
1	 1.175287237034399e+00	 1.388002629771404e+00	-1.195036939977833e+01
1	 1.203742451124260e+00	 1.363398533223871e+00	-1.146550819695802e+01
1	 1.231700478141650e+00	 1.338194842696121e+00	-1.093278788795068e+01
1	 1.259142531992014e+00	 1.312406808313873e+00	-1.035497358318756e+01
1	 1.286050458309500e+00	 1.286050458309500e+00	-9.734993952827283e+00
1	 9.918156990078052e-01	 1.517055657930326e+00	-1.406445186235337e+01
1	 1.022723049951268e+00	 1.496393554628050e+00	-1.390612593817769e+01
1	 1.053258026528671e+00	 1.475060525232958e+00	-1.368585719747008e+01
1	 1.083399059176674e+00	 1.453066573723892e+00	-1.340523978533444e+01
1	 1.113124935851936e+00	 1.430422619685520e+00	-1.306608415333199e+01
1	 1.142414850270402e+00	 1.407140482295992e+00	-1.267041183805091e+01
1	 1.171248449277251e+00	 1.383232861281543e+00	-1.222044908484081e+01
1	 1.199605879125917e+00	 1.358713314894176e+00	-1.171861934577956e+01
1	 1.227467830448813e+00	 1.333596234986977e+00	-1.116753469063434e+01
1	 1.254815581708413e+00	 1.307896819279740e+00	-1.056998617898693e+01
1	 1.281631040925000e+00	 1.281631040925000e+00	-9.928933250712227e+00
1	 1.325825214725000e+00	 1.325825214725000e+00	-7.965260882786523e+00
1	 1.352996695754110e+00	 1.298085105561135e+00	-7.475092151295289e+00
1	 1.379582256908508e+00	 1.269794391397488e+00	-6.930155661678921e+00
1	 1.405565374500521e+00	 1.240971787756141e+00	-6.334171583504035e+00
1	 1.430930327038606e+00	 1.211636661364681e+00	-5.691041225850062e+00
1	 1.455662226709656e+00	 1.181808986991081e+00	-5.004830539251016e+00
1	 1.479747048068645e+00	 1.151509302496042e+00	-4.279752817548582e+00
1	 1.503171653821628e+00	 1.120758662313480e+00	-3.520150718867604e+00
1	 1.525923817606285e+00	 1.089578589577797e+00	-2.730477729690195e+00
1	 1.547992243692877e+00	 1.057991027122760e+00	-1.915279199471678e+00
1	 1.569366583547552e+00	 1.026018287581235e+00	-1.079173075378765e+00
1	 1.321405797349500e+00	 1.321405797349500e+00	-8.163991096922345e+00
1	 1.348486706775051e+00	 1.293758155216238e+00	-7.651602380982923e+00
1	 1.374983649392115e+00	 1.265561743433072e+00	-7.084988826206796e+00
1	 1.400880156591978e+00	 1.236835215137011e+00	-6.467891203494234e+00
1	 1.426160559288068e+00	 1.207597872499885e+00	-5.804228736659613e+00
1	 1.450810019293324e+00	 1.177869623707107e+00	-5.098082567149590e+00
1	 1.474814557914201e+00	 1.147670938159842e+00	-4.353678433751226e+00
1	 1.498161081647737e+00	 1.117022800110561e+00	-3.575368686487767e+00
1	 1.520837404886151e+00	 1.085946660949885e+00	-2.767613758540665e+00
1	 1.542832269552138e+00	 1.054464390368804e+00	-1.934963223377546e+00
1	 1.564135361606958e+00	 1.022598226624741e+00	-1.082036566286781e+00
1	 1.316986379973000e+00	 1.316986379973000e+00	-8.362210301786744e+00
1	 1.343976717794992e+00	 1.289431204870351e+00	-7.827549993513014e+00
1	 1.370385041874721e+00	 1.261329095467697e+00	-7.239211640608154e+00
1	 1.396194938682435e+00	 1.232698642516974e+00	-6.600956703589222e+00
1	 1.421390791536530e+00	 1.203559083634253e+00	-5.916722398933871e+00
1	 1.445957811875991e+00	 1.173930260422388e+00	-5.190605126329933e+00
1	 1.469882067758759e+00	 1.143832573823008e+00	-4.426843126044453e+00
1	 1.493150509472846e+00	 1.113286937907139e+00	-3.629798485600441e+00
1	 1.515750992165016e+00	 1.082314732321622e+00	-2.803938619458342e+00
1	 1.537672295410399e+00	 1.050937753614668e+00	-1.953817348623427e+00
1	 1.558904139665364e+00	 1.019178165668258e+00	-1.084055708995991e+00
1	 1.312566962595500e+00	 1.312566962595500e+00	-8.559913335670794e+00
1	 1.339466728813933e+00	 1.285104254523474e+00	-8.002929305885109e+00
1	 1.365786434356328e+00	 1.257096447501362e+00	-7.392817939731469e+00
1	 1.391509720771891e+00	 1.228562069896028e+00	-6.733361476518569e+00
1	 1.416621023783992e+00	 1.199520294767784e+00	-6.028515204103162e+00
1	 1.441105604457658e+00	 1.169990897136923e+00	-5.282390848422380e+00
1	 1.464949577602315e+00	 1.139994209485541e+00	-4.499239208329599e+00
1	 1.488139937296955e+00	 1.109551075703216e+00	-3.683432154908732e+00
1	 1.510664579442883e+00	 1.078682803693009e+00	-2.839444118828873e+00
1	 1.532512321267659e+00	 1.047411116860351e+00	-1.971833192395751e+00
1	 1.553672917722771e+00	 1.015758104711785e+00	-1.085221974737741e+00
1	 1.308147545217000e+00	 1.308147545217000e+00	-8.757094967112879e+00
1	 1.334956739831874e+00	 1.280777304175607e+00	-8.177734558301466e+00
1	 1.361187826836934e+00	 1.252863799534069e+00	-7.545801475112341e+00
1	 1.386824502860348e+00	 1.224425497274175e+00	-6.865098825724614e+00
1	 1.411851256030454e+00	 1.195481505900478e+00	-6.139600048887415e+00
1	 1.436253397038326e+00	 1.166051533850713e+00	-5.373432265485010e+00
1	 1.460017087444871e+00	 1.136155845147440e+00	-4.570858890641717e+00
1	 1.483129365120064e+00	 1.105815213498790e+00	-3.736261625530931e+00
1	 1.505578166719750e+00	 1.075050875064045e+00	-2.874121952313442e+00
1	 1.527352347123920e+00	 1.043884480105856e+00	-1.989002258599472e+00
1	 1.548441695779177e+00	 1.012338043755323e+00	-1.085526719489438e+00
1	 1.303728127837500e+00	 1.303728127837500e+00	-8.953749893716283e+00
1	 1.330446750848815e+00	 1.276450353826751e+00	-8.351959912865397e+00
1	 1.356589219316541e+00	 1.248631151565816e+00	-7.698155913561477e+00
1	 1.382139284947804e+00	 1.220288924651413e+00	-6.996161963848850e+00
1	 1.407081488275916e+00	 1.191442717032335e+00	-6.249969733690916e+00
1	 1.431401189617994e+00	 1.162112170563758e+00	-5.463721808315483e+00
1	 1.455084597286428e+00	 1.132317480808704e+00	-4.641694277389203e+00
1	 1.478118792942172e+00	 1.102079351293862e+00	-3.788278719176501e+00
1	 1.500491753995615e+00	 1.071418946434730e+00	-2.907963702972070e+00
1	 1.522192372979181e+00	 1.040357843351181e+00	-2.005315935938303e+00
1	 1.543210473834584e+00	 1.008917982798871e+00	-1.084961182021649e+00
1	 1.299308710457000e+00	 1.299308710457000e+00	-9.149872740942788e+00
1	 1.325936761864756e+00	 1.272123403476904e+00	-8.525599452253017e+00
1	 1.351990611795148e+00	 1.244398503596605e+00	-7.849874835723730e+00
1	 1.377454067034261e+00	 1.216152352027743e+00	-7.126544011187617e+00
1	 1.402311720520379e+00	 1.187403928163356e+00	-6.359616960964134e+00
1	 1.426548982196661e+00	 1.158172807276057e+00	-5.553251804729147e+00
1	 1.450152107126984e+00	 1.128479116469336e+00	-4.711737365557423e+00
1	 1.473108220763282e+00	 1.098343489088433e+00	-3.839475146285789e+00
1	 1.495405341270481e+00	 1.067787017805064e+00	-2.940960839348429e+00
1	 1.517032398833442e+00	 1.036831206596325e+00	-2.020765495955472e+00
1	 1.537979251888990e+00	 1.005497921842430e+00	-1.083516481904352e+00
1	 1.294889293075500e+00	 1.294889293075500e+00	-9.345458060881731e+00
1	 1.321426772879696e+00	 1.267796453126069e+00	-8.698647178357913e+00
1	 1.347392004272755e+00	 1.240165855626433e+00	-8.000951734607666e+00
1	 1.372768849119717e+00	 1.212015779403165e+00	-7.256237994116583e+00
1	 1.397541952763841e+00	 1.183365139293539e+00	-6.468534333532542e+00
1	 1.421696774774329e+00	 1.154233443987611e+00	-5.642014477801620e+00
1	 1.445219616966541e+00	 1.124640752129334e+00	-4.780980042875527e+00
1	 1.468097648583390e+00	 1.094607626882501e+00	-3.889842504130891e+00
1	 1.490318928544347e+00	 1.064155089175048e+00	-2.973104713515885e+00
1	 1.511872424686703e+00	 1.033304569841291e+00	-2.035342091034269e+00
1	 1.532748029942396e+00	 1.002077860886000e+00	-1.081183617473025e+00
1	 1.290469875693000e+00	 1.290469875693000e+00	-9.540500330993567e+00
1	 1.316916783893638e+00	 1.263469502774242e+00	-8.871097010907803e+00
1	 1.342793396749361e+00	 1.235933207655303e+00	-8.151380014084985e+00
1	 1.368083631204174e+00	 1.207879206777679e+00	-7.385236843482219e+00
1	 1.392772185006303e+00	 1.179326350422886e+00	-6.576714352890147e+00
1	 1.416844567350997e+00	 1.150294080698420e+00	-5.730001944075317e+00
1	 1.440287126805097e+00	 1.120802387788698e+00	-4.849414085945861e+00
1	 1.463087076402499e+00	 1.090871764676067e+00	-3.939372274878309e+00
1	 1.485232515817213e+00	 1.060523160544681e+00	-3.004386559083028e+00
1	 1.506712450538963e+00	 1.029777933086076e+00	-2.049036752357918e+00
1	 1.527516807994802e+00	 9.986577999295800e-01	-1.077953463752621e+00
1	 1.286050458309500e+00	 1.286050458309500e+00	-9.734993952827283e+00
1	 1.312406794906578e+00	 1.259142552421427e+00	-9.042942786052764e+00
1	 1.338194789224968e+00	 1.231700559683215e+00	-8.301152987358979e+00
1	 1.363398413287630e+00	 1.203742634151284e+00	-7.513533392960344e+00
1	 1.388002417247765e+00	 1.175287561551396e+00	-6.684149417458937e+00
1	 1.411992359926664e+00	 1.146354717408483e+00	-5.817206211728886e+00
1	 1.435354636642654e+00	 1.116964023447428e+00	-4.917031158334094e+00
1	 1.458076504220608e+00	 1.087135902469131e+00	-3.988055823610600e+00
1	 1.480146103089079e+00	 1.056891231913963e+00	-3.034797489158083e+00
1	 1.501552476390224e+00	 1.026251296330682e+00	-2.061840387826719e+00
1	 1.522285586046209e+00	 9.952377389731709e-01	-1.073816770338831e+00
1	 1.281631040925000e+00	 1.281631040925000e+00	-9.928933250712227e+00
1	 1.307896805918519e+00	 1.254815602067621e+00	-9.214178254924208e+00
1	 1.333596181699575e+00	 1.227467911710166e+00	-8.450263875401250e+00
1	 1.358713195370086e+00	 1.199606061523981e+00	-7.641120377381220e+00
1	 1.383232649488227e+00	 1.171248772679068e+00	-6.790831820811432e+00
1	 1.407140152501332e+00	 1.142415354117801e+00	-5.903619178709009e+00
1	 1.430422146479210e+00	 1.113125659105525e+00	-4.983822808620588e+00
1	 1.453065932037716e+00	 1.083400040261693e+00	-4.035884396308210e+00
1	 1.475059690359945e+00	 1.053259303282895e+00	-3.064328494271617e+00
1	 1.496392502240485e+00	 1.022724659575108e+00	-2.073743779932794e+00
1	 1.517054364096615e+00	 9.918176780167720e-01	-1.068764159235638e+00
1	 1.569366583547552e+00	 1.026018287581235e+00	-1.079173075378766e+00
1	 1.590037449218878e+00	 9.936830028181231e-01	-7.086988053683577e-01
1	 1.609996423529265e+00	 9.610080729276055e-01	-4.128091617576930e-01
1	 1.629236067070115e+00	 9.280166150276019e-01	-1.881939691354967e-01
1	 1.647749922018581e+00	 8.947319120812796e-01	-3.136364453686979e-02
1	 1.665532512813788e+00	 8.611773619687502e-01	 6.133313351882297e-02
1	 1.682579343746540e+00	 8.273764270281421e-01	 9.369130974592577e-02
1	 1.698886893533727e+00	 7.933525842772428e-01	 6.963101869252530e-02
1	 1.714452606964470e+00	 7.591292765180646e-01	-6.821039630417802e-03
1	 1.729274883719828e+00	 7.247298645165553e-01	-1.315502901444783e-01
1	 1.743353064481490e+00	 6.901775804384324e-01	-3.003729175294412e-01
1	 1.564135361606958e+00	 1.022598226624741e+00	-1.082036566286781e+00
1	 1.584737324392353e+00	 9.903707261431735e-01	-7.127582881276081e-01
1	 1.604629768787992e+00	 9.578047126847606e-01	-4.174559654324053e-01
1	 1.623805280183306e+00	 9.249232263103612e-01	-1.928745381148219e-01
1	 1.642257422281525e+00	 8.917494723732641e-01	-3.558126630858349e-02
1	 1.659980737773643e+00	 8.583067707606478e-01	 5.801687255503452e-02
1	 1.676970745936163e+00	 8.246185056028449e-01	 9.165534296814548e-02
1	 1.693223937223586e+00	 7.907080756609164e-01	 6.919389312013191e-02
1	 1.708737764942401e+00	 7.565988455942003e-01	-5.401795457268266e-03
1	 1.723510634108066e+00	 7.223140982994222e-01	-1.280785271955784e-01
1	 1.737541887599997e+00	 6.878769885017468e-01	-2.947139608434448e-01
1	 1.558904139665364e+00	 1.019178165668258e+00	-1.084055708995991e+00
1	 1.579437199564838e+00	 9.870584494684195e-01	-7.158659465325129e-01
1	 1.599263114045761e+00	 9.546013524422645e-01	-4.210397612833037e-01
1	 1.618374493295591e+00	 9.218298375935918e-01	-1.963774442194554e-01
1	 1.636764922543636e+00	 8.887670326658130e-01	-3.850334025670366e-02
1	 1.654428962732758e+00	 8.554361795531712e-01	 5.611702755906112e-02
1	 1.671362148125159e+00	 8.218605841782054e-01	 9.115939271432816e-02
1	 1.687560980912949e+00	 7.880635670452496e-01	 7.042286311424850e-02
1	 1.703022922919990e+00	 7.540684146709679e-01	-2.188154323323754e-03
1	 1.717746384496133e+00	 7.198983320828647e-01	-1.226821009614971e-01
1	 1.731730710718524e+00	 6.855763965655506e-01	-2.869983674205807e-01
1	 1.553672917722771e+00	 1.015758104711785e+00	-1.085221974737741e+00
1	 1.574137074736334e+00	 9.837461727938606e-01	-7.180121661966897e-01
1	 1.593896459302572e+00	 9.513979922001172e-01	-4.235498118590086e-01
1	 1.612943706406970e+00	 9.187364488772942e-01	-1.986907918663299e-01
1	 1.631272422804912e+00	 8.857845929589255e-01	-4.011678004132579e-02
1	 1.648877187691133e+00	 8.525655883463208e-01	 5.564790576097134e-02
1	 1.665753550313527e+00	 8.191026627542239e-01	 9.221901470487626e-02
1	 1.681898024601819e+00	 7.854190584302433e-01	 7.333475792084321e-02
1	 1.697308080897237e+00	 7.515379837483676e-01	 2.838008990960317e-03
1	 1.711982134884031e+00	 7.174825658668823e-01	-1.153415704013285e-01
1	 1.725919533837072e+00	 6.832758046298444e-01	-2.772053631548250e-01
1	 1.548441695779177e+00	 1.012338043755323e+00	-1.085526719489438e+00
1	 1.568836949906841e+00	 9.804338961194966e-01	-7.191872028097747e-01
1	 1.588529804558424e+00	 9.481946319583187e-01	-4.249752346073981e-01
1	 1.607512919517443e+00	 9.156430601614683e-01	-1.998025247213411e-01
1	 1.625779923065357e+00	 8.828021532526026e-01	-4.040832248013593e-02
1	 1.643325412648767e+00	 8.496949971400962e-01	 5.662400773179277e-02
1	 1.660144952501270e+00	 8.163447413309004e-01	 9.484997487264568e-02
1	 1.676235068290195e+00	 7.827745498158964e-01	 7.794663420811010e-02
1	 1.691593238874142e+00	 7.490075528263997e-01	 9.695064640494078e-03
1	 1.706217885271758e+00	 7.150667996514753e-01	-1.060372317574150e-01
1	 1.720108356955641e+00	 6.809752126946278e-01	-2.653138932090535e-01
1	 1.543210473834584e+00	 1.008917982798871e+00	-1.084961182021650e+00
1	 1.563536825076358e+00	 9.771216194453277e-01	-7.193811799350609e-01
1	 1.583163149813318e+00	 9.449912717168687e-01	-4.253049994163456e-01
1	 1.602082132627010e+00	 9.125496714461142e-01	-1.997004229745505e-01
1	 1.620287423324968e+00	 8.798197135468434e-01	-3.936452455100237e-02
1	 1.637773637605662e+00	 8.468244059344978e-01	 5.906003066048782e-02
1	 1.654536354688384e+00	 8.135868199082344e-01	 9.906825292580423e-02
1	 1.670572111978076e+00	 7.801300412022090e-01	 8.427577992107893e-02
1	 1.685878396850706e+00	 7.464771219050641e-01	 1.840163186701260e-02
1	 1.700453635659316e+00	 7.126510334366440e-01	-9.474911410257292e-02
1	 1.714297180074230e+00	 6.786746207599009e-01	-2.513026172568724e-01
1	 1.537979251888990e+00	 1.005497921842430e+00	-1.083516481904353e+00
1	 1.558236700244886e+00	 9.738093427713543e-01	-7.185840867625498e-01
1	 1.577796495067255e+00	 9.417879114757677e-01	-4.245279261041139e-01
1	 1.596651345735672e+00	 9.094562827312317e-01	-1.983721005601957e-01
1	 1.614794923583745e+00	 8.768372738416480e-01	-3.697176033356486e-02
1	 1.632221862561816e+00	 8.439538147295252e-01	 6.297087169771820e-02
1	 1.648927756874871e+00	 8.108288984862264e-01	 1.048900459835480e-01
1	 1.664909155665464e+00	 7.774855325891817e-01	 9.233971821489795e-02
1	 1.680163554826929e+00	 7.439466909843606e-01	 2.897658323521379e-02
1	 1.694689386046702e+00	 7.102352672223878e-01	-8.145697479635738e-02
1	 1.708486003192840e+00	 6.763740288256638e-01	-2.351499046273768e-01
1	 1.532748029942396e+00	 1.002077860886000e+00	-1.081183617473025e+00
1	 1.552936575412424e+00	 9.704970660975756e-01	-7.167857758158790e-01
1	 1.572429840320234e+00	 9.385845512350158e-01	-4.226326818585142e-01
1	 1.591220558843427e+00	 9.063628940168208e-01	-1.958050023193629e-01
1	 1.609302423841690e+00	 8.738548341370168e-01	-3.321621788805706e-02
1	 1.626670087517230e+00	 8.410832235251786e-01	 6.837163136829272e-02
1	 1.643319159060732e+00	 8.080709770648762e-01	 1.123317722861119e-01
1	 1.659246199352357e+00	 7.748410239768142e-01	 1.021562114686421e-01
1	 1.674448712802809e+00	 7.414162600642894e-01	 4.143904895572148e-02
1	 1.688925136433920e+00	 7.078195010087072e-01	-6.614029484832695e-02
1	 1.702674826311470e+00	 6.740734368919163e-01	-2.168338293504584e-01
1	 1.527516807994802e+00	 9.986577999295800e-01	-1.077953463752622e+00
1	 1.547636450578973e+00	 9.671847894239922e-01	-7.139759606121037e-01
1	 1.567063185572254e+00	 9.353811909946125e-01	-4.196077786233214e-01
1	 1.585789771950277e+00	 9.032695053028816e-01	-1.919864011047325e-01
1	 1.603809924098801e+00	 8.708723944329497e-01	-2.808389607005335e-02
1	 1.621118312471904e+00	 8.382126323214582e-01	 7.527761705345837e-02
1	 1.637710561245965e+00	 8.053130556441837e-01	 1.214100749811309e-01
1	 1.653583243038756e+00	 7.721965153651066e-01	 1.137432653816530e-01
1	 1.668733870778348e+00	 7.388858291448502e-01	 5.580842129680130e-02
1	 1.683160886820968e+00	 7.054037347956018e-01	-4.877827418601499e-02
1	 1.696863649430121e+00	 6.717728449586589e-01	-1.963321651003089e-01
1	 1.522285586046209e+00	 9.952377389731709e-01	-1.073816770338831e+00
1	 1.542336325744532e+00	 9.638725127506039e-01	-7.101442132733413e-01
1	 1.561696530823317e+00	 9.321778307545576e-01	-4.154415704308587e-01
1	 1.580358985056221e+00	 9.001761165894142e-01	-1.869033948253032e-01
1	 1.598317424355079e+00	 8.678899547294465e-01	-2.156060127953596e-02
1	 1.615566537425837e+00	 8.353420411183635e-01	 8.370434654521208e-02
1	 1.632101963430571e+00	 8.025551342241491e-01	 1.321418259880192e-01
1	 1.647920286724661e+00	 7.695520067540585e-01	 1.271191331542376e-01
1	 1.663019028753545e+00	 7.363553982260431e-01	 7.210435908705515e-02
1	 1.677396637207845e+00	 7.029879685830718e-01	-2.934982682538467e-02
1	 1.691052472548792e+00	 6.694722530258906e-01	-1.736223800346834e-01
1	 1.517054364096615e+00	 9.918176780167720e-01	-1.068764159235639e+00
1	 1.537036200909102e+00	 9.605602360774108e-01	-7.052799620889350e-01
1	 1.556329876073421e+00	 9.289744705148516e-01	-4.101222506794113e-01
1	 1.574928198161258e+00	 8.970827278764183e-01	-1.805429034302111e-01
1	 1.592824924610523e+00	 8.649075150265073e-01	-1.363194414266444e-02
1	 1.610014762379030e+00	 8.324714499158946e-01	 9.366755167406327e-02
1	 1.626493365614551e+00	 7.997972128047723e-01	 1.445441299422991e-01
1	 1.642257330410071e+00	 7.669074981436702e-01	 1.423023197549917e-01
1	 1.657304186728400e+00	 7.338249673078682e-01	 9.034679231132237e-02
1	 1.671632387594552e+00	 7.005722023711173e-01	-7.833575941264881e-03
1	 1.685241295667484e+00	 6.671716610936124e-01	-1.486816315273707e-01
1	 1.743353064481490e+00	 6.901775804384324e-01	-3.003729175294412e-01
1	 1.756687414457829e+00	 6.554954827093094e-01	-1.920724833396994e-01
1	 1.769279104464112e+00	 6.207064124565539e-01	-7.534847657201993e-02
1	 1.781130189706590e+00	 5.858329516733874e-01	 4.994545913306836e-02
1	 1.792243586428243e+00	 5.508973832317460e-01	 1.839165124644230e-01
1	 1.802623046577536e+00	 5.159216528584849e-01	 3.266333637861090e-01
1	 1.812273130669467e+00	 4.809273331721693e-01	 4.781270198695932e-01
1	 1.821199179011433e+00	 4.459355898632516e-01	 6.383918119657986e-01
1	 1.829407281468920e+00	 4.109671500854201e-01	 8.073865444174686e-01
1	 1.836904245947212e+00	 3.760422731110533e-01	 9.850357804177281e-01
1	 1.843697565765152e+00	 3.411807232891650e-01	 1.171231251082788e+00
1	 1.737541887599997e+00	 6.878769885017468e-01	-2.947139608434448e-01
1	 1.750831789742590e+00	 6.533104977652728e-01	-1.754601648098857e-01
1	 1.763381507448442e+00	 6.186373910801837e-01	-4.863112444714535e-02
1	 1.775193089073118e+00	 5.838801751663907e-01	 8.593421779575039e-02
1	 1.786269441138785e+00	 5.490610586195905e-01	 2.283598092582891e-01
1	 1.796614303087412e+00	 5.142019140142168e-01	 3.787330147431970e-01
1	 1.806232220232282e+00	 4.793242420601067e-01	 5.371053151155720e-01
1	 1.815128515079764e+00	 4.444491378954126e-01	 7.034931657924006e-01
1	 1.823309257195791e+00	 4.095972595833111e-01	 8.778790033160070e-01
1	 1.830781231792628e+00	 3.747887988652737e-01	 1.060212387582429e+00
1	 1.837551907211388e+00	 3.400434542091521e-01	 1.250411266822589e+00
1	 1.731730710718524e+00	 6.855763965655506e-01	-2.869983674205807e-01
1	 1.744976165027555e+00	 6.511255128216368e-01	-1.568188129512107e-01
1	 1.757483910433130e+00	 6.165683697041459e-01	-1.991616068237878e-02
1	 1.769255988440124e+00	 5.819273986596787e-01	 1.238854536827422e-01
1	 1.780295295849896e+00	 5.472247340076932e-01	 2.747268484168297e-01
1	 1.790605559597918e+00	 5.124821751702006e-01	 4.327141912211013e-01
1	 1.800191309795755e+00	 4.777211509483100e-01	 5.979195611302042e-01
1	 1.809057851148753e+00	 4.429626859278728e-01	 7.703816668515011e-01
1	 1.817211232923290e+00	 4.082273690815539e-01	 9.501067107286836e-01
1	 1.824658217638615e+00	 3.735353246199181e-01	 1.137069386869558e+00
1	 1.831406248658110e+00	 3.389061851296541e-01	 1.331214001468801e+00
1	 1.725919533837072e+00	 6.832758046298444e-01	-2.772053631548250e-01
1	 1.739120540312725e+00	 6.489405278784007e-01	-1.361279324795974e-01
1	 1.751586313418175e+00	 6.144993483284400e-01	 1.081659261594181e-02
1	 1.763318887807609e+00	 5.799746221532517e-01	 1.638189897950040e-01
1	 1.774321150561575e+00	 5.453884093960540e-01	 3.230370616801589e-01
1	 1.784596816109052e+00	 5.107624363264360e-01	 4.885958985275030e-01
1	 1.794150399359887e+00	 4.761180598367787e-01	 6.605883028704788e-01
1	 1.802987187218400e+00	 4.414762339606319e-01	 8.390753671353718e-01
1	 1.811113208651419e+00	 4.068574785801490e-01	 1.024087194418571e+00
1	 1.818535203485174e+00	 3.722818503749865e-01	 1.215623751937477e+00
1	 1.825260590105317e+00	 3.377689160506706e-01	 1.413655846122270e+00
1	 1.720108356955641e+00	 6.809752126946278e-01	-2.653138932090535e-01
1	 1.733264915598100e+00	 6.467555429355658e-01	-1.133667511476872e-01
1	 1.745688716403577e+00	 6.124303269530665e-01	 4.358758601569268e-02
1	 1.757381787175572e+00	 5.780218456471092e-01	 2.057549170118527e-01
1	 1.768347005273823e+00	 5.435520847846732e-01	 3.733101433794520e-01
1	 1.778588072620814e+00	 5.090426974829235e-01	 5.463973987985834e-01
1	 1.788109488924676e+00	 4.745149687255130e-01	 7.251303359009317e-01
1	 1.796916523288705e+00	 4.399897819936903e-01	 9.095925625821651e-01
1	 1.805015184380177e+00	 4.054875880790960e-01	 1.099838219010445e+00
1	 1.812412189332304e+00	 3.710283761304790e-01	 1.295892685818320e+00
1	 1.819114931553009e+00	 3.366316469722019e-01	 1.497753413385218e+00
1	 1.714297180074230e+00	 6.786746207599009e-01	-2.513026172568724e-01
1	 1.727409290883679e+00	 6.445705579931307e-01	-8.851421505059887e-02
1	 1.739791119389336e+00	 6.103613055780249e-01	 7.841754738054907e-02
1	 1.751444686544013e+00	 5.760690691412519e-01	 2.497135986312979e-01
1	 1.762372859986640e+00	 5.417157601735506e-01	 4.255660548876631e-01
1	 1.772579329133205e+00	 5.073229586396628e-01	 6.061382153520211e-01
1	 1.782068578490124e+00	 4.729118776145131e-01	 7.915647106412005e-01
1	 1.790845859359669e+00	 4.385033300270478e-01	 9.819517972105567e-01
1	 1.798917160109564e+00	 4.041176975783948e-01	 1.177377790005358e+00
1	 1.806289175180005e+00	 3.697749018863954e-01	 1.377893624805737e+00
1	 1.812969273001186e+00	 3.354943778942477e-01	 1.583523541115545e+00
1	 1.708486003192840e+00	 6.763740288256638e-01	-2.351499046273768e-01
1	 1.721553666169463e+00	 6.423855730510962e-01	-6.154898383580076e-02
1	 1.733893522375452e+00	 6.082922842033156e-01	 1.153274865859026e-01
1	 1.745507585912933e+00	 5.741162926356795e-01	 2.957156750029863e-01
1	 1.756398714700024e+00	 5.398794355626859e-01	 4.798250291610273e-01
1	 1.766570585646224e+00	 5.056032197966541e-01	 6.678381371288642e-01
1	 1.776027668056231e+00	 4.713087865037789e-01	 8.599107367003153e-01
1	 1.784775195431290e+00	 4.370168780607043e-01	 1.056171867338803e+00
1	 1.792819135839580e+00	 4.027478070780458e-01	 1.256724157877203e+00
1	 1.800166161028278e+00	 3.685214276427358e-01	 1.461644242421861e+00
1	 1.806823614449849e+00	 3.343571088168084e-01	 1.670983296257666e+00
1	 1.702674826311470e+00	 6.740734368919163e-01	-2.168338293504584e-01
1	 1.715698041455451e+00	 6.402005881094620e-01	-3.244942581494148e-02
1	 1.727995925361925e+00	 6.062232628289387e-01	 1.543387003313479e-01
1	 1.739570485282330e+00	 5.721635161303921e-01	 3.437820682560757e-01
1	 1.750424569413979e+00	 5.380431109520797e-01	 5.361075753736111e-01
1	 1.760561842159872e+00	 5.038834809538972e-01	 7.315172232263432e-01
1	 1.769986757622995e+00	 4.697056953933101e-01	 9.301879872997333e-01
1	 1.778704531503571e+00	 4.355304260946600e-01	 1.132271825890207e+00
1	 1.786721111570225e+00	 4.013779165780489e-01	 1.337895822253099e+00
1	 1.794043146877121e+00	 3.672679533995000e-01	 1.547162453465622e+00
1	 1.800677955898998e+00	 3.332198397398836e-01	 1.760149978751860e+00
1	 1.696863649430121e+00	 6.717728449586589e-01	-1.963321651003087e-01
1	 1.709842416741644e+00	 6.380156031682285e-01	-1.193612975216363e-03
1	 1.722098328348754e+00	 6.041542414548937e-01	 1.954727770520555e-01
1	 1.733633384652206e+00	 5.702107396253893e-01	 3.939339871241936e-01
1	 1.744450424128501e+00	 5.362067863417315e-01	 5.944344836470471e-01
1	 1.754553098674148e+00	 5.021637421113924e-01	 7.971958075238459e-01
1	 1.763945847190417e+00	 4.681026042831070e-01	 1.002416303787228e+00
1	 1.772633867576508e+00	 4.340439741289147e-01	 1.210270986787044e+00
1	 1.780623087301499e+00	 4.000080260784040e-01	 1.420911536179752e+00
1	 1.787920132726537e+00	 3.660144791566884e-01	 1.634466418144199e+00
1	 1.794532297348631e+00	 3.320825706634735e-01	 1.851041125523957e+00
1	 1.691052472548792e+00	 6.694722530258906e-01	-1.736223800346834e-01
1	 1.703986792028041e+00	 6.358306182273951e-01	 3.224068411211012e-02
1	 1.716200731335942e+00	 6.020852200811811e-01	 2.387516019314029e-01
1	 1.727696284022561e+00	 5.682579631206716e-01	 4.461929318699311e-01
1	 1.738476278843592e+00	 5.343704617316417e-01	 6.548268298778315e-01
1	 1.748544355189053e+00	 5.004440032691392e-01	 8.648945034042518e-01
1	 1.757904936758497e+00	 4.664995131731694e-01	 1.076615800243879e+00
1	 1.766563203650105e+00	 4.325575221634686e-01	 1.290188929435056e+00
1	 1.774525063033403e+00	 3.986381355791110e-01	 1.505790310477748e+00
1	 1.781797118576523e+00	 3.647610049143007e-01	 1.723574546289598e+00
1	 1.788386638798750e+00	 3.309453015875781e-01	 1.943674514557181e+00
1	 1.685241295667484e+00	 6.671716610936124e-01	-1.486816315273705e-01
1	 1.698131167314643e+00	 6.336456332869620e-01	 6.787600148854156e-02
1	 1.710303134323485e+00	 6.000161987078005e-01	 2.841973620173412e-01
1	 1.721759183393393e+00	 5.663051866162384e-01	 5.005806993112067e-01
1	 1.732502133559252e+00	 5.325341371218100e-01	 7.173059806644527e-01
1	 1.742535611704586e+00	 4.987242644271380e-01	 9.346342085729694e-01
1	 1.751864026327236e+00	 4.648964220634975e-01	 1.152806868186396e+00
1	 1.760492539724360e+00	 4.310710701983215e-01	 1.372045503300775e+00
1	 1.768427038765936e+00	 3.972682450801699e-01	 1.592551418185856e+00
1	 1.775674104427080e+00	 3.635075306723370e-01	 1.814505501662614e+00
1	 1.782240980249354e+00	 3.298080325121973e-01	 2.038068169048369e+00
1	 1.843697565765152e+00	 3.411807232891650e-01	 1.171231251082788e+00
1	 1.849795386095177e+00	 3.064017453303257e-01	 1.371604878821182e+00
1	 1.855206469643190e+00	 2.717240419284748e-01	 1.595344685870298e+00
1	 1.859940161735938e+00	 2.371657537175077e-01	 1.841178173408374e+00
1	 1.864006354978990e+00	 2.027444415484450e-01	 2.107796514809000e+00
1	 1.867415453645311e+00	 1.684770710600363e-01	 2.393860870282525e+00
1	 1.870178337946352e+00	 1.343799995057729e-01	 2.698008560094359e+00
1	 1.872306328331119e+00	 1.004689647900895e-01	 3.018859067362964e+00
1	 1.873811149951200e+00	 6.675907665743318e-02	 3.355019844350128e+00
1	 1.874704897421741e+00	 3.326480996967037e-02	 3.705091899108592e+00
1	 1.875000000000000e+00	 0.000000000000000e+00	 4.067675142313287e+00
1	 1.837551907211388e+00	 3.400434542091521e-01	 1.250411266822589e+00
1	 1.843629401473883e+00	 3.053804061765698e-01	 1.456160170736235e+00
1	 1.849022448076946e+00	 2.708182951192385e-01	 1.683789052894238e+00
1	 1.853740361196235e+00	 2.363752012022720e-01	 1.932039167663755e+00
1	 1.857793000461968e+00	 2.020686267405188e-01	 2.199619688216867e+00
1	 1.861190735466200e+00	 1.679154808205971e-01	 2.485213782674415e+00
1	 1.863944410153010e+00	 1.339320661718174e-01	 2.787484541254567e+00
1	 1.866065307236578e+00	 1.001340682389307e-01	 3.105080727256463e+00
1	 1.867565112784650e+00	 6.653654640056693e-02	 3.436642327553782e+00
1	 1.868455881096991e+00	 3.315392726905032e-02	 3.780805881148984e+00
1	 1.868750000000000e+00	 0.000000000000000e+00	 4.136209567213658e+00
1	 1.831406248658110e+00	 3.389061851296541e-01	 1.331214001468801e+00
1	 1.837463416852980e+00	 3.043590670234124e-01	 1.542390167143844e+00
1	 1.842838426511008e+00	 2.699125483106529e-01	 1.773951276348707e+00
1	 1.847540560656765e+00	 2.355846486877083e-01	 2.024652427129206e+00
1	 1.851579645945116e+00	 2.013928119332554e-01	 2.293220900010300e+00
1	 1.854966017287206e+00	 1.673538905817813e-01	 2.578361994696013e+00
1	 1.857710482359744e+00	 1.334841328384168e-01	 2.878764710174405e+00
1	 1.859824286142078e+00	 9.979917168822966e-02	 3.193107242892412e+00
1	 1.861319075618118e+00	 6.631401614403298e-02	 3.520062280443736e+00
1	 1.862206864772244e+00	 3.304304456860979e-02	 3.858302071012663e+00
1	 1.862500000000000e+00	 0.000000000000000e+00	 4.206503251604349e+00
1	 1.825260590105317e+00	 3.377689160506706e-01	 1.413655846122270e+00
1	 1.831297432232467e+00	 3.033377278708536e-01	 1.630311784251613e+00
1	 1.836654404945377e+00	 2.690068015027183e-01	 1.865848708319340e+00
1	 1.841340760117528e+00	 2.347940961738169e-01	 2.119035651453580e+00
1	 1.845366291428434e+00	 2.007169971266547e-01	 2.388618110173019e+00
1	 1.848741299108329e+00	 1.667923003435891e-01	 2.673323640686792e+00
1	 1.851476554566553e+00	 1.330361995055712e-01	 2.971867290972279e+00
1	 1.853583265047620e+00	 9.946427513798620e-02	 3.282956845136380e+00
1	 1.855073038451605e+00	 6.609148588783131e-02	 3.605297859278760e+00
1	 1.855957848447503e+00	 3.293216186834879e-02	 3.937598470798093e+00
1	 1.856250000000000e+00	 0.000000000000000e+00	 4.278573965782507e+00
1	 1.819114931553009e+00	 3.366316469722019e-01	 1.497753413385218e+00
1	 1.825131447612345e+00	 3.023163887188934e-01	 1.719942166864592e+00
1	 1.830470383380053e+00	 2.681010546954347e-01	 1.959498935379375e+00
1	 1.835140959578525e+00	 2.340035436605974e-01	 2.215206779470145e+00
1	 1.839152936911922e+00	 2.000411823207168e-01	 2.485829521391210e+00
1	 1.842516580929570e+00	 1.662307101060204e-01	 2.770117100044898e+00
1	 1.845242626773435e+00	 1.325882661732805e-01	 3.066810754038442e+00
1	 1.847342243953204e+00	 9.912937858820041e-02	 3.374648011216897e+00
1	 1.848827001285110e+00	 6.586895563196196e-02	 3.692367465672515e+00
1	 1.849708832122766e+00	 3.282127916826732e-02	 4.018713325875326e+00
1	 1.850000000000000e+00	 0.000000000000000e+00	 4.352439720184401e+00
1	 1.812969273001186e+00	 3.354943778942477e-01	 1.583523541115545e+00
1	 1.818965462992614e+00	 3.012950495675318e-01	 1.811298692259788e+00
1	 1.824286361815036e+00	 2.671953078888017e-01	 2.054919782564092e+00
1	 1.828941159039756e+00	 2.332129911480501e-01	 2.313183993250570e+00
1	 1.832939582395581e+00	 1.993653675154417e-01	 2.584873583167141e+00
1	 1.836291862750929e+00	 1.656691198690752e-01	 2.868761001380617e+00
1	 1.839008698980393e+00	 1.321403328415448e-01	 3.163613820209067e+00
1	 1.841101222858829e+00	 9.879448203887230e-02	 3.468199468901192e+00
1	 1.842580964118634e+00	 6.564642537642491e-02	 3.781289750751903e+00
1	 1.843459815798034e+00	 3.271039646836537e-02	 4.101665129009228e+00
1	 1.843750000000000e+00	 0.000000000000000e+00	 4.428118769455486e+00
1	 1.806823614449849e+00	 3.343571088168084e-01	 1.670983296257666e+00
1	 1.812799478373274e+00	 3.002737104167688e-01	 1.904398974139764e+00
1	 1.818102340250326e+00	 2.662895610828198e-01	 2.152129317426276e+00
1	 1.822741358501220e+00	 2.324224386361748e-01	 2.412985722241703e+00
1	 1.826726227879411e+00	 1.986895527108294e-01	 2.685768996016695e+00
1	 1.830067144572405e+00	 1.651075296327535e-01	 2.969274226754707e+00
1	 1.832774771187425e+00	 1.316923995103640e-01	 3.262295465025559e+00
1	 1.834860201764497e+00	 9.845958549000178e-02	 3.563630200755999e+00
1	 1.836334926952176e+00	 6.542389512122014e-02	 3.872083619400686e+00
1	 1.837210799473306e+00	 3.259951376864294e-02	 4.186472624566785e+00
1	 1.837500000000000e+00	 0.000000000000000e+00	 4.505629616603687e+00
1	 1.800677955898998e+00	 3.332198397398836e-01	 1.760149978751860e+00
1	 1.806633493754324e+00	 2.992523712666044e-01	 1.999260866667196e+00
1	 1.811918318685923e+00	 2.653838142774887e-01	 2.251145854174738e+00
1	 1.816541557962917e+00	 2.316318861249716e-01	 2.514630647486884e+00
1	 1.820512873363411e+00	 1.980137379068798e-01	 2.788534715752936e+00
1	 1.823842426393999e+00	 1.645459393970554e-01	 3.071675916003473e+00
1	 1.826540843394532e+00	 1.312444661797381e-01	 3.362874923081099e+00
1	 1.828619180670206e+00	 9.812468894158895e-02	 3.660959448495640e+00
1	 1.830088889785737e+00	 6.520136486634764e-02	 3.964768234589679e+00
1	 1.830961783148584e+00	 3.248863106910004e-02	 4.273154812810774e+00
1	 1.831250000000000e+00	 0.000000000000000e+00	 4.584991017237674e+00
1	 1.794532297348631e+00	 3.320825706634735e-01	 1.851041125523957e+00
1	 1.800467509135765e+00	 2.982310321170384e-01	 2.095902468582392e+00
1	 1.805734297121827e+00	 2.644780674728086e-01	 2.351987957897856e+00
1	 1.810341757424848e+00	 2.308413336144405e-01	 2.618137705934207e+00
1	 1.814299518847581e+00	 1.973379231035930e-01	 2.893189957857535e+00
1	 1.817617708215711e+00	 1.639843491619808e-01	 3.175985471152762e+00
1	 1.820306915601714e+00	 1.307965328496672e-01	 3.465371692456362e+00
1	 1.822378159575957e+00	 9.778979239363375e-02	 3.760206717419599e+00
1	 1.823842852619315e+00	 6.497883461180748e-02	 4.059363021796164e+00
1	 1.824712766823865e+00	 3.237774836973666e-02	 4.361730954281451e+00
1	 1.825000000000000e+00	 0.000000000000000e+00	 4.666221983892221e+00
1	 1.788386638798750e+00	 3.309453015875781e-01	 1.943674514557181e+00
1	 1.794301524517597e+00	 2.972096929680713e-01	 2.194342127405598e+00
1	 1.799550275558037e+00	 2.635723206687793e-01	 2.454674448874258e+00
1	 1.804141956887012e+00	 2.300507811045815e-01	 2.723526094833437e+00
1	 1.808086164331922e+00	 1.966621083009689e-01	 2.999754201942550e+00
1	 1.811392990037540e+00	 1.634227589275297e-01	 3.282222560922887e+00
1	 1.814072987808971e+00	 1.303485995201512e-01	 3.569805539246891e+00
1	 1.816137138481749e+00	 9.745489584613623e-02	 3.861391780941350e+00
1	 1.817596815452913e+00	 6.475630435759960e-02	 4.155887673514177e+00
1	 1.818463750499151e+00	 3.226686567055281e-02	 4.452220574268758e+00
1	 1.818750000000000e+00	 0.000000000000000e+00	 4.749341790442656e+00
1	 1.782240980249354e+00	 3.298080325121973e-01	 2.038068169048369e+00
1	 1.788135539899820e+00	 2.961883538197025e-01	 2.294598443726319e+00
1	 1.793366253994555e+00	 2.626665738654008e-01	 2.559224406972683e+00
1	 1.797942156349410e+00	 2.292602285953946e-01	 2.830815276224030e+00
1	 1.801872809816433e+00	 1.959862934990077e-01	 3.108247196304290e+00
1	 1.805168271859486e+00	 1.628611686937021e-01	 3.390407125326850e+00
1	 1.807839060016302e+00	 1.299006661911901e-01	 3.676196502183975e+00
1	 1.809896117387584e+00	 9.711999929909637e-02	 3.964534685211081e+00
1	 1.811350778286529e+00	 6.453377410372400e-02	 4.254362153858331e+00
1	 1.812214734174441e+00	 3.215598297154848e-02	 4.544643467376855e+00
1	 1.812500000000000e+00	 0.000000000000000e+00	 4.834369976610804e+00
1	 0.000000000000000e+00	 1.812500000000000e+00	-2.082906884967899e+01
1	 3.215598297154861e-02	 1.812214734174441e+00	-1.985523368952645e+01
1	 6.453377410372427e-02	 1.811350778286528e+00	-1.894193224612377e+01
1	 9.711999929909672e-02	 1.809896117387584e+00	-1.809195387020273e+01
1	 1.299006661911906e-01	 1.807839060016302e+00	-1.730797887952497e+01
1	 1.628611686937027e-01	 1.805168271859486e+00	-1.659256376542946e+01
1	 1.959862934990084e-01	 1.801872809816433e+00	-1.594812623536319e+01
1	 2.292602285953954e-01	 1.797942156349410e+00	-1.537693017241425e+01
1	 2.626665738654017e-01	 1.793366253994554e+00	-1.488107059869790e+01
1	 2.961883538197036e-01	 1.788135539899820e+00	-1.446245873485382e+01
1	 3.298080325121973e-01	 1.782240980249354e+00	-1.412280725284121e+01
1	 0.000000000000000e+00	 1.806250000000000e+00	-2.107767511258616e+01
1	 3.204510027254429e-02	 1.805965717849732e+00	-2.013007445941378e+01
1	 6.431124384984871e-02	 1.805104741120145e+00	-1.924135833572960e+01
1	 9.678510275205680e-02	 1.803655096293418e+00	-1.841424600632742e+01
1	 1.294527328622295e-01	 1.801605132223633e+00	-1.765135124294596e+01
1	 1.622995784598750e-01	 1.798943553681433e+00	-1.695516794456875e+01
1	 1.953104786970471e-01	 1.795659455300944e+00	-1.632805559589595e+01
1	 2.284696760862085e-01	 1.791742355811808e+00	-1.577222464259864e+01
1	 2.617608270620233e-01	 1.787182232431072e+00	-1.528972186763701e+01
1	 2.951670146713349e-01	 1.781969555282042e+00	-1.488241585819306e+01
1	 3.286707634368164e-01	 1.776095321699958e+00	-1.455198265757468e+01
1	 0.000000000000000e+00	 1.800000000000000e+00	-2.132642609547715e+01
1	 3.193421757336043e-02	 1.799716701525018e+00	-2.040513367847016e+01
1	 6.408871359564081e-02	 1.798858703953742e+00	-1.954106517361740e+01
1	 9.645020620455930e-02	 1.797414075199211e+00	-1.873686941766380e+01
1	 1.290047995327136e-01	 1.795371204430890e+00	-1.799509330885071e+01
1	 1.617379882254240e-01	 1.792718835503262e+00	-1.731816784259876e+01
1	 1.946346638944231e-01	 1.789446100785285e+00	-1.670839398756754e+01
1	 2.276791235763495e-01	 1.785542555273973e+00	-1.616792847827400e+01
1	 2.608550802579940e-01	 1.780998210867283e+00	-1.569876960597922e+01
1	 2.941456755223676e-01	 1.775803570663875e+00	-1.530274309467671e+01
1	 3.275334943609211e-01	 1.769949663150077e+00	-1.498148815369601e+01
1	 0.000000000000000e+00	 1.793750000000000e+00	-2.157532331110427e+01
1	 3.182333487399705e-02	 1.793467685200299e+00	-2.068041363013701e+01
1	 6.386618334110064e-02	 1.792612666787321e+00	-1.984105569443847e+01
1	 9.611530965660409e-02	 1.791173054104961e+00	-1.905982756701983e+01
1	 1.285568662026426e-01	 1.789137276638072e+00	-1.833920894172542e+01
1	 1.611763979903493e-01	 1.786494117324974e+00	-1.768156759595488e+01
1	 1.939588490911363e-01	 1.783232746269455e+00	-1.708914568596605e+01
1	 2.268885710658184e-01	 1.779342754735904e+00	-1.656404595852327e+01
1	 2.599493334533138e-01	 1.774814189303187e+00	-1.610821795800488e+01
1	 2.931243363728019e-01	 1.769637586045316e+00	-1.572344431308440e+01
1	 3.263962252845110e-01	 1.763804004599711e+00	-1.541132719163845e+01
1	 0.000000000000000e+00	 1.787500000000000e+00	-2.182436829337708e+01
1	 3.171245217445415e-02	 1.787218668875576e+00	-2.095591662979142e+01
1	 6.364365308622817e-02	 1.786366629620882e+00	-2.014133287388916e+01
1	 9.578041310819126e-02	 1.784932033010671e+00	-1.938312396563427e+01
1	 1.281089328720167e-01	 1.782903348845179e+00	-1.868370206010641e+01
1	 1.606148077546512e-01	 1.780269399146568e+00	-1.804537139892497e+01
1	 1.932830342871867e-01	 1.777019391753456e+00	-1.747031502647801e+01
1	 2.260980185546151e-01	 1.773142954197601e+00	-1.696058142227638e+01
1	 2.590435866479827e-01	 1.768630167738783e+00	-1.651807112595669e+01
1	 2.921029972226374e-01	 1.763471601426366e+00	-1.614452343630416e+01
1	 3.252589562075862e-01	 1.757658346048858e+00	-1.584150327009351e+01
1	 0.000000000000000e+00	 1.781250000000000e+00	-2.207356259773398e+01
1	 3.160156947473173e-02	 1.780969652550849e+00	-2.123164502530745e+01
1	 6.342112283102339e-02	 1.780120592454423e+00	-2.044189972942900e+01
1	 9.544551655932076e-02	 1.778691011916338e+00	-1.970676217402675e+01
1	 1.276609995408359e-01	 1.776669421052212e+00	-1.902857663752622e+01
1	 1.600532175183295e-01	 1.774044680968043e+00	-1.840958350466398e+01
1	 1.926072194825743e-01	 1.770806037237285e+00	-1.785190640533697e+01
1	 2.253074660427400e-01	 1.766943153659065e+00	-1.735753926936104e+01
1	 2.581378398420008e-01	 1.762446146174073e+00	-1.692833337105557e+01
1	 2.910816580718744e-01	 1.757305616807026e+00	-1.656598444228199e+01
1	 3.241216871301468e-01	 1.751512687497521e+00	-1.627201993685653e+01
1	 0.000000000000000e+00	 1.775000000000000e+00	-2.232290780152090e+01
1	 3.149068677482978e-02	 1.774720636226117e+00	-2.150760119762769e+01
1	 6.319859257548632e-02	 1.773874555287947e+00	-2.074275932101760e+01
1	 9.511062000999265e-02	 1.772449990821964e+00	-2.003074580286466e+01
1	 1.272130662091002e-01	 1.770435493259169e+00	-1.937383670348266e+01
1	 1.594916272813843e-01	 1.767819962789402e+00	-1.877420822623047e+01
1	 1.919314046772992e-01	 1.764592682720944e+00	-1.823392428069580e+01
1	 2.245169135301926e-01	 1.760743353120295e+00	-1.775492396157398e+01
1	 2.572320930353679e-01	 1.756262124609056e+00	-1.733900901454028e+01
1	 2.900603189205128e-01	 1.751139632187296e+00	-1.698783136499212e+01
1	 3.229844180521927e-01	 1.745367028945699e+00	-1.670288078969242e+01
1	 0.000000000000000e+00	 1.768750000000000e+00	-2.257240550437835e+01
1	 3.137980407474829e-02	 1.768471619901379e+00	-2.178378756134770e+01
1	 6.297606231961697e-02	 1.767628518121452e+00	-2.104391475186445e+01
1	 9.477572346020685e-02	 1.766208969727548e+00	-2.035507851384988e+01
1	 1.267651328768095e-01	 1.764201565466053e+00	-1.971948634442794e+01
1	 1.589300370438156e-01	 1.761595244610643e+00	-1.913924993764483e+01
1	 1.912555898713613e-01	 1.758379328204433e+00	-1.861637317372004e+01
1	 2.237263610169731e-01	 1.754543552581292e+00	-1.815274002377609e+01
1	 2.563263462280841e-01	 1.750078103043732e+00	-1.775010243872651e+01
1	 2.890389797685526e-01	 1.744973647567173e+00	-1.741006829542506e+01
1	 3.218471489737239e-01	 1.739221370393391e+00	-1.713408947721736e+01
1	 0.000000000000000e+00	 1.762500000000000e+00	-2.282205732863657e+01
1	 3.126892137448729e-02	 1.762222603576638e+00	-2.206020656531219e+01
1	 6.275353206341532e-02	 1.761382480954939e+00	-2.134536916919650e+01
1	 9.444082690996339e-02	 1.759967948633090e+00	-2.067976402062322e+01
1	 1.263171995439639e-01	 1.757967637672861e+00	-2.006552970477755e+01
1	 1.583684468056234e-01	 1.755370526431767e+00	-1.950471307497054e+01
1	 1.905797750647606e-01	 1.752165973687751e+00	-1.899925766970482e+01
1	 2.229358085030816e-01	 1.748343752042056e+00	-1.855099204501110e+01
1	 2.554205994201496e-01	 1.743894081478102e+00	-1.816161808809109e+01
1	 2.880176406159938e-01	 1.738807662946661e+00	-1.783269938260013e+01
1	 3.207098798947405e-01	 1.733075711840598e+00	-1.756564969980116e+01
1	 0.000000000000000e+00	 1.756250000000000e+00	-2.307186491971986e+01
1	 3.115803867404677e-02	 1.755973587251892e+00	-2.233686069322555e+01
1	 6.253100180688136e-02	 1.755136443788408e+00	-2.164712576504114e+01
1	 9.410593035926229e-02	 1.753726927538590e+00	-2.100480608968878e+01
1	 1.258692662105633e-01	 1.751733709879594e+00	-2.041197098794308e+01
1	 1.578068565668077e-01	 1.749145808252772e+00	-1.987060213741749e+01
1	 1.899039602574973e-01	 1.745952619170899e+00	-1.938258241921691e+01
1	 2.221452559885179e-01	 1.742143951502586e+00	-1.894968467964698e+01
1	 2.545148526115641e-01	 1.737710059912164e+00	-1.857356047037698e+01
1	 2.869963014628363e-01	 1.732641678325757e+00	-1.825572883459742e+01
1	 3.195726108152424e-01	 1.726930053287320e+00	-1.799756521048812e+01
1	 0.000000000000000e+00	 1.750000000000000e+00	-2.332182994655859e+01
1	 3.104715597342671e-02	 1.749724570927141e+00	-2.261375246427331e+01
1	 6.230847155001509e-02	 1.748890406621857e+00	-2.194918777702592e+01
1	 9.377103380810355e-02	 1.747485906444048e+00	-2.133020854135755e+01
1	 1.254213328766078e-01	 1.745499782086253e+00	-2.075881445738412e+01
1	 1.572452663273684e-01	 1.742921090073661e+00	-2.023692168847062e+01
1	 1.892281454495710e-01	 1.739739264653876e+00	-1.976635213925963e+01
1	 2.213547034732822e-01	 1.735944150962882e+00	-1.934882264854246e+01
1	 2.536091058023277e-01	 1.731526038345919e+00	-1.898593415772361e+01
1	 2.859749623090804e-01	 1.726475693704463e+00	-1.867916091961232e+01
1	 3.184353417352296e-01	 1.720784394733555e+00	-1.842983981593713e+01
1	 3.298080325121973e-01	 1.782240980249354e+00	-1.412280725284121e+01
1	 3.635075502934763e-01	 1.775674096584645e+00	-1.385282991048383e+01
1	 3.972683243474071e-01	 1.768427007146301e+00	-1.363264015937200e+01
1	 4.310712502957372e-01	 1.760492468010148e+00	-1.346225115006644e+01
1	 4.648967453113315e-01	 1.751863897808187e+00	-1.334150152885165e+01
1	 4.987247742548762e-01	 1.742535409267508e+00	-1.327004993646551e+01
1	 5.325348780372434e-01	 1.732501839678281e+00	-1.324737019437578e+01
1	 5.663062041704281e-01	 1.721758780120654e+00	-1.327274724012432e+01
1	 6.000175394559092e-01	 1.710302603280270e+00	-1.334527387029184e+01
1	 6.336473447449253e-01	 1.698130489683200e+00	-1.346384834593850e+01
1	 6.671737916906499e-01	 1.685240452183546e+00	-1.362717291093492e+01
1	 3.286707634368164e-01	 1.776095321699958e+00	-1.455198265757468e+01
1	 3.622540759838536e-01	 1.769551082462246e+00	-1.429097752660025e+01
1	 3.958984335751309e-01	 1.762328982987867e+00	-1.407765540397762e+01
1	 4.295847977095646e-01	 1.754421804331694e+00	-1.391202109114244e+01
1	 4.632936530870120e-01	 1.745822987820095e+00	-1.379391226932341e+01
1	 4.970050336548485e-01	 1.736526666481100e+00	-1.372299426990886e+01
1	 5.306985508725309e-01	 1.726527695407323e+00	-1.369875550459801e+01
1	 5.643534241571876e-01	 1.715821680882082e+00	-1.372050361404095e+01
1	 5.979485134592594e-01	 1.704405008098998e+00	-1.378736239080762e+01
1	 6.314623539029133e-01	 1.692274867306463e+00	-1.389826952896468e+01
1	 6.648731924114853e-01	 1.679429278210803e+00	-1.405197524827424e+01
1	 3.275334943609211e-01	 1.769949663150077e+00	-1.498148815369601e+01
1	 3.610006016738068e-01	 1.763428068339275e+00	-1.472937983508310e+01
1	 3.945285428025027e-01	 1.756230958828804e+00	-1.452283597864179e+01
1	 4.280983451230930e-01	 1.748351140652581e+00	-1.436185295069621e+01
1	 4.616905608624268e-01	 1.739782077831344e+00	-1.424626741250082e+01
1	 4.952852930545687e-01	 1.730517923694064e+00	-1.417575136342750e+01
1	 5.288622237075602e-01	 1.720553551135797e+00	-1.414980781607667e+01
1	 5.624006441436623e-01	 1.709884581643032e+00	-1.416776715918177e+01
1	 5.958794874622775e-01	 1.698507412917368e+00	-1.422878426143156e+01
1	 6.292773630605006e-01	 1.686419244929521e+00	-1.433183636589675e+01
1	 6.625725931318310e-01	 1.673618104238039e+00	-1.447572182066744e+01
1	 3.263962252845110e-01	 1.763804004599711e+00	-1.541132719163845e+01
1	 3.597471273633360e-01	 1.757305054215733e+00	-1.516803949822290e+01
1	 3.931586520295223e-01	 1.750132934669112e+00	-1.496818361155411e+01
1	 4.266118925363221e-01	 1.742280476972809e+00	-1.481174737596043e+01
1	 4.600874686375758e-01	 1.733741167841936e+00	-1.469856637722874e+01
1	 4.935655524540370e-01	 1.724509180906399e+00	-1.462831925981148e+01
1	 5.270258965423315e-01	 1.714579406863702e+00	-1.460052364799015e+01
1	 5.604478641298521e-01	 1.703947482403503e+00	-1.461453272402859e+01
1	 5.938104614649634e-01	 1.692609817735382e+00	-1.466953251370017e+01
1	 6.270923722176877e-01	 1.680563622552373e+00	-1.476453992629004e+01
1	 6.602719938516871e-01	 1.667806930265256e+00	-1.489840159224633e+01
1	 3.252589562075862e-01	 1.757658346048858e+00	-1.584150327009351e+01
1	 3.584936530524413e-01	 1.751182040091620e+00	-1.560695921554473e+01
1	 3.917887612561901e-01	 1.744034910508791e+00	-1.541370005507497e+01
1	 4.251254399492523e-01	 1.736209813292380e+00	-1.526170502321997e+01
1	 4.584843764124596e-01	 1.727700257851870e+00	-1.515080857422406e+01
1	 4.918458118532534e-01	 1.718500438118105e+00	-1.508069597447674e+01
1	 5.251895693768442e-01	 1.708605262591038e+00	-1.505089947083473e+01
1	 5.584950841157571e-01	 1.698010383163497e+00	-1.506079508501377e+01
1	 5.917414354673169e-01	 1.686712222553038e+00	-1.510960008168872e+01
1	 6.249073813744745e-01	 1.674708000175022e+00	-1.519637115479827e+01
1	 6.579713945710531e-01	 1.661995756292451e+00	-1.532000337279473e+01
1	 3.241216871301468e-01	 1.751512687497521e+00	-1.627201993685653e+01
1	 3.572401787411226e-01	 1.745059025966935e+00	-1.604614172446193e+01
1	 3.904188704825058e-01	 1.737936886347840e+00	-1.585938708615902e+01
1	 4.236389873618831e-01	 1.730139149611291e+00	-1.571172655797054e+01
1	 4.568812841870775e-01	 1.721659347861145e+00	-1.560299340593318e+01
1	 4.901260712522179e-01	 1.712491695329183e+00	-1.553287949498574e+01
1	 5.233532422110990e-01	 1.702631118317806e+00	-1.550093170556902e+01
1	 5.565423041013771e-01	 1.692073283923012e+00	-1.550654894525642e+01
1	 5.896724094693384e-01	 1.680814627370338e+00	-1.554897980030185e+01
1	 6.227223905308609e-01	 1.668852377797466e+00	-1.562732086898275e+01
1	 6.556707952899299e-01	 1.656184582319626e+00	-1.574051581504076e+01
1	 3.229844180521927e-01	 1.745367028945699e+00	-1.670288078969242e+01
1	 3.559867044293799e-01	 1.738936011841680e+00	-1.648558980094301e+01
1	 3.890489797084694e-01	 1.731838862186260e+00	-1.630524650678859e+01
1	 4.221525347742150e-01	 1.724068485929546e+00	-1.616181265508123e+01
1	 4.552781919614298e-01	 1.715618437869762e+00	-1.605512026638596e+01
1	 4.884063306509307e-01	 1.706482952539633e+00	-1.598486778055684e+01
1	 5.215169150450955e-01	 1.696656974044005e+00	-1.595061672274314e+01
1	 5.545895240867121e-01	 1.686136184682049e+00	-1.595178893327202e+01
1	 5.876033834710276e-01	 1.674917032187280e+00	-1.598766440352686e+01
1	 6.205373996868467e-01	 1.662996755419705e+00	-1.605737975707468e+01
1	 6.533701960083167e-01	 1.650373408346781e+00	-1.615992741189192e+01
1	 3.218471489737239e-01	 1.739221370393391e+00	-1.713408947721736e+01
1	 3.547332301172131e-01	 1.732812997715852e+00	-1.692530626019255e+01
1	 3.876790889340812e-01	 1.725740838024051e+00	-1.675128014441558e+01
1	 4.206660821862478e-01	 1.717997822247141e+00	-1.661196399895990e+01
1	 4.536750997355165e-01	 1.709577527877720e+00	-1.650718854104765e+01
1	 4.866865900493915e-01	 1.700474209749454e+00	-1.643665876156317e+01
1	 5.196805878788336e-01	 1.690682829769635e+00	-1.639995084160719e+01
1	 5.526367440717622e-01	 1.680199085440607e+00	-1.639650960165346e+01
1	 5.855343574723847e-01	 1.669019437003865e+00	-1.642564652265142e+01
1	 6.183524088424323e-01	 1.657141133041740e+00	-1.648653837569010e+01
1	 6.510695967262137e-01	 1.644562234373914e+00	-1.657822649361114e+01
1	 3.207098798947405e-01	 1.733075711840598e+00	-1.756564969980116e+01
1	 3.534797558046224e-01	 1.726689983589454e+00	-1.736529395734730e+01
1	 3.863091981593408e-01	 1.719642813861213e+00	-1.719748985241350e+01
1	 4.191796295979814e-01	 1.711927158564079e+00	-1.706218128372210e+01
1	 4.520720075093375e-01	 1.703536617885021e+00	-1.695919760666642e+01
1	 4.849668494476004e-01	 1.694465466958647e+00	-1.688825033902182e+01
1	 5.178442607123139e-01	 1.684708685494698e+00	-1.684893032920250e+01
1	 5.506839640565276e-01	 1.674261986198687e+00	-1.684070542572605e+01
1	 5.834653314734094e-01	 1.663121841820093e+00	-1.686291868444270e+01
1	 6.161674179976173e-01	 1.651285510663570e+00	-1.691478714749620e+01
1	 6.487689974436212e-01	 1.638751060401028e+00	-1.699540122493313e+01
1	 3.195726108152424e-01	 1.726930053287320e+00	-1.799756521048812e+01
1	 3.522262814916078e-01	 1.720566969462484e+00	-1.780555578818646e+01
1	 3.849393073842485e-01	 1.713544789697746e+00	-1.764387751053793e+01
1	 4.176931770094161e-01	 1.705856494880358e+00	-1.751246521336443e+01
1	 4.504689152828930e-01	 1.697495707891663e+00	-1.741114683111869e+01
1	 4.832471088455575e-01	 1.688456724167211e+00	-1.733964038407066e+01
1	 5.160079335455358e-01	 1.678734541219191e+00	-1.729755139943155e+01
1	 5.487311840410081e-01	 1.668324886956289e+00	-1.728437080217161e+01
1	 5.813963054741020e-01	 1.657224246635965e+00	-1.729947330928712e+01
1	 6.139824271524020e-01	 1.645429888285195e+00	-1.734211635882821e+01
1	 6.464683981605387e-01	 1.632939886428120e+00	-1.741143960211903e+01
1	 3.184353417352296e-01	 1.720784394733555e+00	-1.842983981593713e+01
1	 3.509728071781691e-01	 1.714443955334942e+00	-1.824609468985752e+01
1	 3.835694166088040e-01	 1.707446765533649e+00	-1.809044502539860e+01
1	 4.162067244205513e-01	 1.699785831195978e+00	-1.796281650194033e+01
1	 4.488658230561827e-01	 1.691454797897647e+00	-1.786303557325063e+01
1	 4.815273682432624e-01	 1.682447981375147e+00	-1.779082673743561e+01
1	 5.141716063784993e-01	 1.672760396943115e+00	-1.774581021211029e+01
1	 5.467784040252037e-01	 1.662387787713413e+00	-1.772750004762456e+01
1	 5.793272794744625e-01	 1.651326651451478e+00	-1.773530270929096e+01
1	 6.117974363067863e-01	 1.639574265906616e+00	-1.776851615725461e+01
1	 6.441677988769666e-01	 1.627128712455193e+00	-1.782632944994814e+01
1	 6.671737916906499e-01	 1.685240452183546e+00	-1.362717291093492e+01
1	 7.005739233414201e-01	 1.671631711110399e+00	-1.363138761065160e+01
1	 7.338262769259241e-01	 1.657303687740254e+00	-1.364568512059554e+01
1	 7.669083952040473e-01	 1.642257019416528e+00	-1.366968382566254e+01
1	 7.997976966330189e-01	 1.626493253091949e+00	-1.370294066297280e+01
1	 8.324715203779550e-01	 1.610014858756251e+00	-1.374495124554658e+01
1	 8.649071725365766e-01	 1.592825240243314e+00	-1.379515032586347e+01
1	 8.970819734031671e-01	 1.574928743306188e+00	-1.385291260696544e+01
1	 9.289733055859576e-01	 1.556330660861575e+00	-1.391755390609414e+01
1	 9.605586627823469e-01	 1.537037235319645e+00	-1.398833267302836e+01
1	 9.918156990078052e-01	 1.517055657930326e+00	-1.406445186235337e+01
1	 6.648731924114853e-01	 1.679429278210803e+00	-1.405197524827424e+01
1	 6.981581511950830e-01	 1.665867463829808e+00	-1.404217489407146e+01
1	 7.312958414918155e-01	 1.651588847435749e+00	-1.404456634567411e+01
1	 7.642638835003254e-01	 1.636594064174308e+00	-1.405876069451737e+01
1	 7.970397735452298e-01	 1.620884655663898e+00	-1.408429939897449e+01
1	 8.296009289324526e-01	 1.604463083377048e+00	-1.412065428420074e+01
1	 8.619247340145488e-01	 1.587332739410282e+00	-1.416722792253063e+01
1	 8.939885872916828e-01	 1.569497954531295e+00	-1.422335440381863e+01
1	 9.257699493630903e-01	 1.550964003405356e+00	-1.428830050214146e+01
1	 9.572463915341093e-01	 1.531737106917082e+00	-1.436126724213485e+01
1	 9.883956448753282e-01	 1.511824431518989e+00	-1.444139186495903e+01
1	 6.625725931318310e-01	 1.673618104238039e+00	-1.447572182066744e+01
1	 6.957423790481654e-01	 1.660103216549382e+00	-1.445200851113754e+01
1	 7.287654060570552e-01	 1.645874007131566e+00	-1.444261164891667e+01
1	 7.616193717959003e-01	 1.630931108932539e+00	-1.444713499736766e+01
1	 7.942818504567052e-01	 1.615276058236396e+00	-1.446510446197738e+01
1	 8.267303374862025e-01	 1.598911307998464e+00	-1.449596796578084e+01
1	 8.589422954917814e-01	 1.581840238577907e+00	-1.453909574618619e+01
1	 8.908952011794863e-01	 1.564067165757068e+00	-1.459378108432280e+01
1	 9.225665931395592e-01	 1.545597345949780e+00	-1.465924147476825e+01
1	 9.539341202852765e-01	 1.526436978515108e+00	-1.473462024003786e+01
1	 9.849755907423461e-01	 1.506593205108158e+00	-1.481898859059634e+01
1	 6.602719938516871e-01	 1.667806930265256e+00	-1.489840159224633e+01
1	 6.933266069006677e-01	 1.654338969269121e+00	-1.486087849321389e+01
1	 7.262349706216432e-01	 1.640159166827704e+00	-1.483981229246575e+01
1	 7.589748600907719e-01	 1.625268153691221e+00	-1.483479939031890e+01
1	 7.915239273674449e-01	 1.609667460809444e+00	-1.484535006445915e+01
1	 8.238597460392042e-01	 1.593359532620497e+00	-1.487088822035255e+01
1	 8.559598569682731e-01	 1.576347737746188e+00	-1.491075160408083e+01
1	 8.878018150665777e-01	 1.558636376983506e+00	-1.496419249046701e+01
1	 9.193632369153643e-01	 1.540230688494846e+00	-1.503037885578522e+01
1	 9.506218490358490e-01	 1.521136850113724e+00	-1.510839604055722e+01
1	 9.815555366088585e-01	 1.501361978697832e+00	-1.519724890396554e+01
1	 6.579713945710531e-01	 1.661995756292451e+00	-1.532000337279473e+01
1	 6.909108347525896e-01	 1.648574721989026e+00	-1.526877473224265e+01
1	 7.237045351855800e-01	 1.634444326524167e+00	-1.523615941625550e+01
1	 7.563303483849398e-01	 1.619605198450352e+00	-1.522174642676458e+01
1	 7.887660042774489e-01	 1.604058863383041e+00	-1.522503033795349e+01
1	 8.209891545914577e-01	 1.587807757243148e+00	-1.524541092105930e+01
1	 8.529774184440246e-01	 1.570855236915127e+00	-1.528219327279765e+01
1	 8.847084289529563e-01	 1.553205588210608e+00	-1.533458846203076e+01
1	 9.161598806905052e-01	 1.534864031040555e+00	-1.540171470541975e+01
1	 9.473095777858266e-01	 1.515836721712930e+00	-1.548259907868493e+01
1	 9.781354824748653e-01	 1.496130752288011e+00	-1.557617976577604e+01
1	 6.556707952899299e-01	 1.656184582319626e+00	-1.574051581504076e+01
1	 6.884950626039313e-01	 1.642810474709095e+00	-1.567568697829839e+01
1	 7.211740997488651e-01	 1.628729486220951e+00	-1.563164403586866e+01
1	 7.536858366784043e-01	 1.613942243209935e+00	-1.560796855558417e+01
1	 7.860080811867172e-01	 1.598450265957186e+00	-1.560413933162940e+01
1	 8.181185631429634e-01	 1.582255981866418e+00	-1.561953188312390e+01
1	 8.499949799190359e-01	 1.565362736084722e+00	-1.565341849771375e+01
1	 8.816150428386229e-01	 1.547774799438377e+00	-1.570496883654457e+01
1	 9.129565244649822e-01	 1.529497373586908e+00	-1.577325111281520e+01
1	 9.439973065352093e-01	 1.510536593312726e+00	-1.585723385165863e+01
1	 9.747154283403672e-01	 1.490899525878696e+00	-1.595578823443212e+01
1	 6.533701960083167e-01	 1.650373408346781e+00	-1.615992741189192e+01
1	 6.860792904546931e-01	 1.637046227429330e+00	-1.608160483709110e+01
1	 7.186436643114991e-01	 1.623014645918057e+00	-1.602625704034683e+01
1	 7.510413249711656e-01	 1.608279287969968e+00	-1.599345811930361e+01
1	 7.832501580952498e-01	 1.592841668531882e+00	-1.598267101084132e+01
1	 8.152479716937210e-01	 1.576704206490306e+00	-1.599324686282876e+01
1	 8.470125413933068e-01	 1.559870235254974e+00	-1.602442499245129e+01
1	 8.785216567235771e-01	 1.542344010666810e+00	-1.607533344925109e+01
1	 9.097531682387955e-01	 1.524130716133903e+00	-1.614499019653914e+01
1	 9.406850352839971e-01	 1.505236464913110e+00	-1.623230492005710e+01
1	 9.712953742053637e-01	 1.485668299469886e+00	-1.633608146775167e+01
1	 6.510695967262137e-01	 1.644562234373914e+00	-1.657822649361114e+01
1	 6.836635183048747e-01	 1.631281980149731e+00	-1.648651776741436e+01
1	 7.161132288734809e-01	 1.617299805615485e+00	-1.641998918995458e+01
1	 7.483968132632236e-01	 1.602616332730452e+00	-1.637820735221603e+01
1	 7.804922350030469e-01	 1.587233071107127e+00	-1.636061925564864e+01
1	 8.123773802437303e-01	 1.571152431114811e+00	-1.636655155647401e+01
1	 8.440301028668373e-01	 1.554377734425884e+00	-1.639521043831556e+01
1	 8.754282706078191e-01	 1.536913221895910e+00	-1.644568213306377e+01
1	 9.065498120119447e-01	 1.518764058681542e+00	-1.651693410510365e+01
1	 9.373727640321897e-01	 1.499936336514086e+00	-1.660781690891968e+01
1	 9.678753200698546e-01	 1.480437073061581e+00	-1.671706672472341e+01
1	 6.487689974436212e-01	 1.638751060401028e+00	-1.699540122493313e+01
1	 6.812477461544759e-01	 1.625517732870296e+00	-1.689041507854138e+01
1	 7.135827934348116e-01	 1.611584965313237e+00	-1.681283111389656e+01
1	 7.457523015545776e-01	 1.596953377491385e+00	-1.676220837846237e+01
1	 7.777343119101081e-01	 1.581624473682921e+00	-1.673797785930266e+01
1	 8.095067887929920e-01	 1.565600655739936e+00	-1.673944159931468e+01
1	 8.410476643396276e-01	 1.548885233597449e+00	-1.676577248372322e+01
1	 8.723348844913487e-01	 1.531482433125674e+00	-1.681601471852629e+01
1	 9.033464557844301e-01	 1.513397401229823e+00	-1.688908501749610e+01
1	 9.340604927797875e-01	 1.494636208115650e+00	-1.698377450888941e+01
1	 9.644552659338403e-01	 1.475205846653781e+00	-1.709875136730032e+01
1	 6.464683981605387e-01	 1.632939886428120e+00	-1.741143960211903e+01
1	 6.788319740034972e-01	 1.619753485591026e+00	-1.729328592756419e+01
1	 7.110523579954907e-01	 1.605870125011310e+00	-1.720477330798530e+01
1	 7.431077898452285e-01	 1.591290422252770e+00	-1.714545321007196e+01
1	 7.749763888164337e-01	 1.576015876259264e+00	-1.711474052670266e+01
1	 8.066361973415053e-01	 1.560048880365678e+00	-1.711191256447430e+01
1	 8.380652258116776e-01	 1.543392732769672e+00	-1.713610874361586e+01
1	 8.692414983741658e-01	 1.526051644356103e+00	-1.718633103376989e+01
1	 9.001430995562517e-01	 1.508030743778747e+00	-1.726144514372151e+01
1	 9.307482215267904e-01	 1.489336079717805e+00	-1.736018247737944e+01
1	 9.610352117973211e-01	 1.469974620246487e+00	-1.748114286223169e+01
1	 6.441677988769666e-01	 1.627128712455193e+00	-1.782632944994814e+01
1	 6.764162018519378e-01	 1.613989238311922e+00	-1.769511931667595e+01
1	 7.085219225555182e-01	 1.600155284709705e+00	-1.759580613225918e+01
1	 7.404632781351761e-01	 1.585627467014605e+00	-1.752793374496015e+01
1	 7.722184657220236e-01	 1.570407278836156e+00	-1.749090087281802e+01
1	 8.037656058892707e-01	 1.554497104992038e+00	-1.748395996183503e+01
1	 8.350827872829872e-01	 1.537900231942552e+00	-1.750621679886329e+01
1	 8.661481122562706e-01	 1.520620855587198e+00	-1.755663090447110e+01
1	 8.969397433274091e-01	 1.502664086328314e+00	-1.763401672535650e+01
1	 9.274359502731981e-01	 1.484035951320548e+00	-1.773704563976635e+01
1	 9.576151576602960e-01	 1.464743393839698e+00	-1.786424878293511e+01
1	 9.918156990078052e-01	 1.517055657930326e+00	-1.406445186235337e+01
1	 1.022723049951268e+00	 1.496393554628050e+00	-1.390612593817769e+01
1	 1.053258026528671e+00	 1.475060525232958e+00	-1.368585719747008e+01
1	 1.083399059176674e+00	 1.453066573723892e+00	-1.340523978533444e+01
1	 1.113124935851936e+00	 1.430422619685520e+00	-1.306608415333199e+01
1	 1.142414850270402e+00	 1.407140482295992e+00	-1.267041183805091e+01
1	 1.171248449277251e+00	 1.383232861281543e+00	-1.222044908484081e+01
1	 1.199605879125917e+00	 1.358713314894176e+00	-1.171861934577956e+01
1	 1.227467830448813e+00	 1.333596234986977e+00	-1.116753469063434e+01
1	 1.254815581708413e+00	 1.307896819279740e+00	-1.056998617898693e+01
1	 1.281631040925000e+00	 1.281631040925000e+00	-9.928933250712227e+00
1	 9.883956448753282e-01	 1.511824431518989e+00	-1.444139186495903e+01
1	 1.019196418745826e+00	 1.491233576849093e+00	-1.427938464819784e+01
1	 1.049626102299866e+00	 1.469974109624614e+00	-1.405208331124973e+01
1	 1.079663200351912e+00	 1.448055999327915e+00	-1.376113330050900e+01
1	 1.109286574003602e+00	 1.425490127889922e+00	-1.340840871925354e+01
1	 1.138475488716688e+00	 1.402288273733000e+00	-1.299600697547665e+01
1	 1.167209661519643e+00	 1.378463092791224e+00	-1.252624220891679e+01
1	 1.195469307127096e+00	 1.354028096564003e+00	-1.200163752688133e+01
1	 1.223235182755487e+00	 1.328997627277344e+00	-1.142491608870994e+01
1	 1.250488631424314e+00	 1.303386830245110e+00	-1.079899108867867e+01
1	 1.277211623540000e+00	 1.277211623540000e+00	-1.012695469670163e+01
1	 9.849755907423461e-01	 1.506593205108158e+00	-1.481898859059634e+01
1	 1.015669787539974e+00	 1.486073599070547e+00	-1.465312742223588e+01
1	 1.045994178070736e+00	 1.464887694016595e+00	-1.441859849023808e+01
1	 1.075927341526901e+00	 1.443045424932186e+00	-1.411709879318847e+01
1	 1.105448212155086e+00	 1.420557636094508e+00	-1.375056639557231e+01
1	 1.134536127162848e+00	 1.397436065170136e+00	-1.332117494431490e+01
1	 1.163170873761954e+00	 1.373693324300987e+00	-1.283132689826570e+01
1	 1.191332735128229e+00	 1.349342878233876e+00	-1.228364550075637e+01
1	 1.219002535062140e+00	 1.324399019567732e+00	-1.168096553616433e+01
1	 1.246161681140210e+00	 1.298876841210486e+00	-1.102632292192003e+01
1	 1.272792206155000e+00	 1.272792206155000e+00	-1.032294319749656e+01
1	 9.815555366088585e-01	 1.501361978697832e+00	-1.519724890396554e+01
1	 1.012143156333712e+00	 1.480913621292410e+00	-1.502735932019370e+01
1	 1.042362253841281e+00	 1.459801278408900e+00	-1.478540575602207e+01
1	 1.072191482701641e+00	 1.438034850536706e+00	-1.447313701575037e+01
1	 1.101609850306385e+00	 1.415625144299276e+00	-1.409255543779733e+01
1	 1.130596765608880e+00	 1.392583856607399e+00	-1.364591127938856e+01
1	 1.159132086004183e+00	 1.368923555810832e+00	-1.313569574764642e+01
1	 1.187196163129316e+00	 1.344657659903795e+00	-1.256463270774747e+01
1	 1.214769887368772e+00	 1.319800411858140e+00	-1.193566911016840e+01
1	 1.241834730856101e+00	 1.294366852175866e+00	-1.125196419010690e+01
1	 1.268372788770000e+00	 1.268372788770000e+00	-1.051687750279876e+01
1	 9.781354824748653e-01	 1.496130752288011e+00	-1.557617976577604e+01
1	 1.008616525127040e+00	 1.475753643514683e+00	-1.540208547274105e+01
1	 1.038730329611502e+00	 1.454714862801529e+00	-1.515250817244859e+01
1	 1.068455623876132e+00	 1.433024276141476e+00	-1.482924873109502e+01
1	 1.097771488457502e+00	 1.410692652504227e+00	-1.443437407703899e+01
1	 1.126657404054784e+00	 1.387731648044789e+00	-1.397021145307023e+01
1	 1.155093298246331e+00	 1.364153787320757e+00	-1.343934124824783e+01
1	 1.183059591130358e+00	 1.339972441573760e+00	-1.284458844050935e+01
1	 1.210537239675384e+00	 1.315201804148569e+00	-1.218901269316876e+01
1	 1.237507780571987e+00	 1.289856863141252e+00	-1.147589716003939e+01
1	 1.263953371385000e+00	 1.263953371385000e+00	-1.070873606510303e+01
1	 9.747154283403672e-01	 1.490899525878696e+00	-1.595578823443212e+01
1	 1.005089893919957e+00	 1.470593665737367e+00	-1.577731108255739e+01
1	 1.035098405381398e+00	 1.449628447194484e+00	-1.551990884636594e+01
1	 1.064719765050375e+00	 1.428013701746493e+00	-1.518543471282999e+01
1	 1.093933126608436e+00	 1.405760160709363e+00	-1.477602051958118e+01
1	 1.122718042500562e+00	 1.382879439482307e+00	-1.429407087418704e+01
1	 1.151054510488397e+00	 1.359384018830765e+00	-1.374225578587204e+01
1	 1.178923019131354e+00	 1.335287223243771e+00	-1.312350184141857e+01
1	 1.206304591981976e+00	 1.310603196439018e+00	-1.244098196947027e+01
1	 1.233180830287868e+00	 1.285346874106643e+00	-1.169810384963067e+01
1	 1.259533954000000e+00	 1.259533954000000e+00	-1.089849703448308e+01
1	 9.712953742053637e-01	 1.485668299469886e+00	-1.633608146775167e+01
1	 1.001563262712465e+00	 1.465433687960461e+00	-1.615304142559890e+01
1	 1.031466481150969e+00	 1.444542031587763e+00	-1.588761092838065e+01
1	 1.060983906224368e+00	 1.423003127351761e+00	-1.554169574545902e+01
1	 1.090094764759186e+00	 1.400827668914680e+00	-1.511749294644415e+01
1	 1.118778680946211e+00	 1.378027230919952e+00	-1.461748488690179e+01
1	 1.147015722730382e+00	 1.354614250340854e+00	-1.404443163907884e+01
1	 1.174786447132303e+00	 1.330602004913829e+00	-1.340136189992713e+01
1	 1.202071944288547e+00	 1.306004588729487e+00	-1.269156242174872e+01
1	 1.228853880003744e+00	 1.280836885072038e+00	-1.191856602352500e+01
1	 1.255114536615000e+00	 1.255114536615000e+00	-1.108613825326704e+01
1	 9.678753200698546e-01	 1.480437073061581e+00	-1.671706672472341e+01
1	 9.980366315045620e-01	 1.460273710183965e+00	-1.652928185239369e+01
1	 1.027834556920216e+00	 1.439455615981367e+00	-1.625561761363096e+01
1	 1.057248047398112e+00	 1.417992552957277e+00	-1.589803262457397e+01
1	 1.086256402909753e+00	 1.395895177120181e+00	-1.545878951293851e+01
1	 1.114839319391734e+00	 1.373175022357724e+00	-1.494044876957021e+01
1	 1.142976934972285e+00	 1.349844481851025e+00	-1.434586097729118e+01
1	 1.170649875133207e+00	 1.325916786583932e+00	-1.367815744986106e+01
1	 1.197839296595098e+00	 1.301405981019977e+00	-1.294073932748795e+01
1	 1.224526929719614e+00	 1.276326896037439e+00	-1.213726518862303e+01
1	 1.250695119230000e+00	 1.250695119230000e+00	-1.127163725060063e+01
1	 9.644552659338403e-01	 1.475205846653781e+00	-1.709875136730032e+01
1	 9.945100002962493e-01	 1.455113732407879e+00	-1.690603778936396e+01
1	 1.024202632689138e+00	 1.434369200375295e+00	-1.662393214257602e+01
1	 1.053512188571608e+00	 1.412981978563042e+00	-1.625444615705177e+01
1	 1.082418041060137e+00	 1.390962685325866e+00	-1.579990834820869e+01
1	 1.110899957837129e+00	 1.368322813795624e+00	-1.526295773357472e+01
1	 1.138938147214106e+00	 1.345074713361277e+00	-1.464653585886012e+01
1	 1.166513303134065e+00	 1.321231568254080e+00	-1.395387716666106e+01
1	 1.193606648901628e+00	 1.296807373310487e+00	-1.318849775534177e+01
1	 1.220199979435480e+00	 1.271816907002846e+00	-1.235418258951205e+01
1	 1.246275701845000e+00	 1.246275701845000e+00	-1.145497123689387e+01
1	 9.610352117973211e-01	 1.469974620246487e+00	-1.748114286223169e+01
1	 9.909833690875263e-01	 1.449953754632203e+00	-1.728331474017631e+01
1	 1.020570708457736e+00	 1.429282784769548e+00	-1.699255780180288e+01
1	 1.049776329744854e+00	 1.407971404169055e+00	-1.661093716125519e+01
1	 1.078579679210338e+00	 1.386030193531733e+00	-1.614084755476788e+01
1	 1.106960596282397e+00	 1.363470605233651e+00	-1.558500692213172e+01
1	 1.134899359455846e+00	 1.340304944871610e+00	-1.494644822908810e+01
1	 1.162376731134876e+00	 1.316546349924275e+00	-1.422850956456397e+01
1	 1.189374001208139e+00	 1.292208765601018e+00	-1.343482256141815e+01
1	 1.215873029151340e+00	 1.267306917968257e+00	-1.256929920379839e+01
1	 1.241856284460000e+00	 1.241856284460000e+00	-1.163611709814980e+01
1	 9.576151576602960e-01	 1.464743393839698e+00	-1.786424878293511e+01
1	 9.874567378783929e-01	 1.444793776856937e+00	-1.766111828712133e+01
1	 1.016938784226008e+00	 1.424196369164125e+00	-1.736149792484945e+01
1	 1.046040470917851e+00	 1.402960829775318e+00	-1.696750646723785e+01
1	 1.074741317360356e+00	 1.381097701737783e+00	-1.648160520802228e+01
1	 1.103021234727538e+00	 1.358618396671805e+00	-1.590659140907582e+01
1	 1.130860571697504e+00	 1.335535176382025e+00	-1.524558991821060e+01
1	 1.158240159135642e+00	 1.311861131594515e+00	-1.450204299372437e+01
1	 1.185141353514628e+00	 1.287610157891568e+00	-1.367969838548363e+01
1	 1.211546078867196e+00	 1.262796928933673e+00	-1.278259573733994e+01
1	 1.237436867075000e+00	 1.237436867075000e+00	-1.181505139017171e+01
1	 1.281631040925000e+00	 1.281631040925000e+00	-9.928933250712227e+00
1	 1.307896805918519e+00	 1.254815602067621e+00	-9.214178254924208e+00
1	 1.333596181699575e+00	 1.227467911710166e+00	-8.450263875401250e+00
1	 1.358713195370086e+00	 1.199606061523981e+00	-7.641120377381220e+00
1	 1.383232649488227e+00	 1.171248772679068e+00	-6.790831820811432e+00
1	 1.407140152501332e+00	 1.142415354117801e+00	-5.903619178709009e+00
1	 1.430422146479210e+00	 1.113125659105525e+00	-4.983822808620588e+00
1	 1.453065932037716e+00	 1.083400040261693e+00	-4.035884396308210e+00
1	 1.475059690359945e+00	 1.053259303282895e+00	-3.064328494271617e+00
1	 1.496392502240485e+00	 1.022724659575108e+00	-2.073743779932794e+00
1	 1.517054364096615e+00	 9.918176780167720e-01	-1.068764159235638e+00
1	 1.277211623540000e+00	 1.277211623540000e+00	-1.012695469670163e+01
1	 1.303386816929962e+00	 1.250488651713318e+00	-9.380158935409016e+00
1	 1.328997574173691e+00	 1.223235263736628e+00	-8.586572978160444e+00
1	 1.354027977452066e+00	 1.195469488896202e+00	-7.750080955561685e+00
1	 1.378462881728230e+00	 1.167209983806282e+00	-6.874711930877764e+00
1	 1.402287945075563e+00	 1.138475990826683e+00	-5.964623322718786e+00
1	 1.425489656315358e+00	 1.109287294763213e+00	-5.024083724979136e+00
1	 1.448055359854450e+00	 1.079664178053879e+00	-4.057455240463939e+00
1	 1.469973277630473e+00	 1.049627374651488e+00	-3.069175447796184e+00
1	 1.491232528090450e+00	 1.019198022819239e+00	-2.063739123119853e+00
1	 1.511823142146773e+00	 9.883976170601263e-01	-1.045679838796127e+00
1	 1.272792206155000e+00	 1.272792206155000e+00	-1.032294319749656e+01
1	 1.298876827941411e+00	 1.246161701359010e+00	-9.544229802884887e+00
1	 1.324398966647829e+00	 1.219002615763069e+00	-8.721110929218845e+00
1	 1.349342759534091e+00	 1.191332916268376e+00	-7.857424290193578e+00
1	 1.373693113968314e+00	 1.163171194933414e+00	-6.957143631520403e+00
1	 1.397435737649921e+00	 1.134536627535437e+00	-6.024362459200962e+00
1	 1.420557166151689e+00	 1.105448930420718e+00	-5.063277209383348e+00
1	 1.443044787671432e+00	 1.075928315845816e+00	-4.078169973531471e+00
1	 1.464886864901326e+00	 1.045995446019757e+00	-3.073390895468592e+00
1	 1.486072553940826e+00	 1.015671386062960e+00	-2.053340358494576e+00
1	 1.506591920197438e+00	 9.849775561029750e-01	-1.022451081198226e+00
1	 1.268372788770000e+00	 1.268372788770000e+00	-1.051687750279876e+01
1	 1.294366838952864e+00	 1.241834751004698e+00	-9.706370894149719e+00
1	 1.319800359121986e+00	 1.214769967789490e+00	-8.853859214795731e+00
1	 1.344657541616162e+00	 1.187196343640505e+00	-7.963133476292402e+00
1	 1.368923346208480e+00	 1.159132406060465e+00	-7.038111782571626e+00
1	 1.392583530224407e+00	 1.130597264244064e+00	-6.082823365080748e+00
1	 1.415624675988204e+00	 1.101610566078040e+00	-5.101392104008865e+00
1	 1.438034215488663e+00	 1.072192453637505e+00	-4.098019646615322e+00
1	 1.459800452172503e+00	 1.042363517387702e+00	-3.076968236183571e+00
1	 1.480912579791613e+00	 1.012144749306270e+00	-2.042543366464641e+00
1	 1.501360698248608e+00	 9.815574951453185e-01	-9.990763766476320e-01
1	 1.263953371385000e+00	 1.263953371385000e+00	-1.070873606510303e+01
1	 1.289856849964323e+00	 1.237507800650379e+00	-9.866561966795718e+00
1	 1.315201751596165e+00	 1.210537319815891e+00	-8.984799062176307e+00
1	 1.339972323698279e+00	 1.183059771012587e+00	-8.067191372440144e+00
1	 1.364153578448728e+00	 1.155093617187434e+00	-7.117601032113031e+00
1	 1.387731322799021e+00	 1.126657900952565e+00	-6.139992632345664e+00
1	 1.410692185824901e+00	 1.097772201735179e+00	-5.138417094977667e+00
1	 1.433023643306143e+00	 1.068456591428944e+00	-4.116995185660860e+00
1	 1.454714039444006e+00	 1.038731588755322e+00	-3.079900776512734e+00
1	 1.475752605642809e+00	 1.008618112549171e+00	-2.031343969820913e+00
1	 1.496129476300282e+00	 9.781374341871568e-01	-9.755541942338466e-01
1	 1.259533954000000e+00	 1.259533954000000e+00	-1.089849703448308e+01
1	 1.285346860975787e+00	 1.233180850296056e+00	-1.002478249431115e+01
1	 1.310603144070363e+00	 1.206304671842271e+00	-9.113911435169225e+00
1	 1.335287105780442e+00	 1.178923198384624e+00	-8.169580596637742e+00
1	 1.359383810689057e+00	 1.151054828314322e+00	-7.195595812760805e+00
1	 1.382879115373761e+00	 1.122718537660937e+00	-6.195856664800243e+00
1	 1.405759695661781e+00	 1.093933837392134e+00	-5.174340709620486e+00
1	 1.428013071123873e+00	 1.064720729220134e+00	-4.135087389258080e+00
1	 1.449627626715833e+00	 1.035099660122617e+00	-3.082181729084950e+00
1	 1.470592631494415e+00	 1.005091475791661e+00	-2.019737932726859e+00
1	 1.490898254352462e+00	 9.747173732284897e-01	-9.518829815600676e-01
1	 1.255114536615000e+00	 1.255114536615000e+00	-1.108613825326704e+01
1	 1.280836871987256e+00	 1.228853899941727e+00	-1.018101166107855e+01
1	 1.306004536544582e+00	 1.202072023868631e+00	-9.241177029467760e+00
1	 1.330601887862652e+00	 1.174786625756615e+00	-8.270283522068965e+00
1	 1.354614042929468e+00	 1.147016039441128e+00	-7.272080337872040e+00
1	 1.378026907948629e+00	 1.118779174369182e+00	-6.250401674753580e+00
1	 1.400827205498845e+00	 1.090095473048907e+00	-5.209151313681298e+00
1	 1.423002498941850e+00	 1.060984867011076e+00	-4.152286926399889e+00
1	 1.444541213987984e+00	 1.031467731489588e+00	-3.083804210932173e+00
1	 1.465432657346431e+00	 1.001564839033742e+00	-2.007720959686281e+00
1	 1.485667032405148e+00	 9.712973122693175e-01	-9.280611643646599e-01
1	 1.250695119230000e+00	 1.250695119230000e+00	-1.127163725060063e+01
1	 1.276326882998730e+00	 1.224526949587394e+00	-1.033522835726650e+01
1	 1.301405929018822e+00	 1.197839375894970e+00	-9.366576267912679e+00
1	 1.325916669944906e+00	 1.170650053128560e+00	-8.369282272775600e+00
1	 1.349844275169960e+00	 1.142977250567852e+00	-7.347038597671355e+00
1	 1.373174700523625e+00	 1.114839811077300e+00	-6.303613679635641e+00
1	 1.395894715336092e+00	 1.086257108705496e+00	-5.242837108462089e+00
1	 1.417991926760077e+00	 1.057249004801769e+00	-4.168584334192040e+00
1	 1.439454801260461e+00	 1.027835802856234e+00	-3.084761241800678e+00
1	 1.460272683198858e+00	 9.980382022754120e-01	-1.995288694489161e+00
1	 1.480435810458339e+00	 9.678772513096394e-01	-9.040871461350186e-01
1	 1.246275701845000e+00	 1.246275701845000e+00	-1.145497123689387e+01
1	 1.271816894010209e+00	 1.220199999233055e+00	-1.048741117361375e+01
1	 1.296807321493081e+00	 1.193606727921289e+00	-9.490089295654670e+00
1	 1.321231452027208e+00	 1.166513480500459e+00	-8.466558719239528e+00
1	 1.345074507410534e+00	 1.138938461694494e+00	-7.420454355294021e+00
1	 1.368322493098747e+00	 1.110900447785290e+00	-6.355478498542059e+00
1	 1.390962225173523e+00	 1.082418744361903e+00	-5.275386127907778e+00
1	 1.412981354578553e+00	 1.053513142592212e+00	-4.183970015514945e+00
1	 1.434368388533261e+00	 1.024203874222555e+00	-3.085045742426065e+00
1	 1.455112709051695e+00	 9.945115655166723e-01	-1.982436719135501e+00
1	 1.475204588512035e+00	 9.644571903494567e-01	-8.799593077129413e-01
1	 1.241856284460000e+00	 1.241856284460000e+00	-1.163611709814980e+01
1	 1.267306905021694e+00	 1.215873048878712e+00	-1.063753839610062e+01
1	 1.292208713967362e+00	 1.189374079947587e+00	-9.611695975213049e+00
1	 1.316546234109554e+00	 1.162376907872312e+00	-8.562094473871246e+00
1	 1.340304739651190e+00	 1.134899672821056e+00	-7.492311142745983e+00
1	 1.363470285673997e+00	 1.106961084493153e+00	-6.405981748705109e+00
1	 1.386029735011136e+00	 1.078580380018126e+00	-5.306786235627665e+00
1	 1.407970782397278e+00	 1.049777280382407e+00	-4.198434236635157e+00
1	 1.429281975806387e+00	 1.020571945588552e+00	-3.084650532771454e+00
1	 1.449952734904942e+00	 9.909849287575224e-01	-1.969160552735317e+00
1	 1.469973366566236e+00	 9.610371293887683e-01	-8.556760068916154e-01
1	 1.237436867075000e+00	 1.237436867075000e+00	-1.181505139017171e+01
1	 1.262796916033183e+00	 1.211546098524362e+00	-1.078558800050724e+01
1	 1.287610106441662e+00	 1.185141431973865e+00	-9.731375881429006e+00
1	 1.311861016191946e+00	 1.158240335244118e+00	-8.655870886401519e+00
1	 1.335534971891927e+00	 1.130860883947535e+00	-7.562592256775892e+00
1	 1.358618078249374e+00	 1.103021721200889e+00	-6.455108841889025e+00
1	 1.381097244848932e+00	 1.074742015674165e+00	-5.337025121854171e+00
1	 1.402960210216252e+00	 1.046041418172353e+00	-4.211967124765889e+00
1	 1.424195563079837e+00	 1.016940016954224e+00	-3.083568330228074e+00
1	 1.444792760758599e+00	 9.874582919979621e-01	-1.955455650386253e+00
1	 1.464742144620942e+00	 9.576170684275745e-01	-8.312355780043088e-01
1	 1.517054364096615e+00	 9.918176780167720e-01	-1.068764159235639e+00
1	 1.537036200909102e+00	 9.605602360774108e-01	-7.052799620889350e-01
1	 1.556329876073421e+00	 9.289744705148516e-01	-4.101222506794113e-01
1	 1.574928198161258e+00	 8.970827278764183e-01	-1.805429034302111e-01
1	 1.592824924610523e+00	 8.649075150265073e-01	-1.363194414266444e-02
1	 1.610014762379030e+00	 8.324714499158946e-01	 9.366755167406327e-02
1	 1.626493365614551e+00	 7.997972128047723e-01	 1.445441299422991e-01
1	 1.642257330410071e+00	 7.669074981436702e-01	 1.423023197549917e-01
1	 1.657304186728400e+00	 7.338249673078682e-01	 9.034679231132237e-02
1	 1.671632387594552e+00	 7.005722023711173e-01	-7.833575941264881e-03
1	 1.685241295667484e+00	 6.671716610936124e-01	-1.486816315273707e-01
1	 1.511823142146773e+00	 9.883976170601263e-01	-1.045679838796128e+00
1	 1.531736076073471e+00	 9.572479594040174e-01	-6.860868699097997e-01
1	 1.550963221323368e+00	 9.257711102749880e-01	-3.934012308262196e-01
1	 1.569497411266176e+00	 8.939893391633021e-01	-1.649754291137968e-01
1	 1.587332424865880e+00	 8.619250753234797e-01	 1.996181389350538e-03
1	 1.604462987332163e+00	 8.296008587133649e-01	 1.104629986651173e-01
1	 1.620884767798491e+00	 7.970392913853566e-01	 1.635033567745381e-01
1	 1.636594374095460e+00	 7.642629895332602e-01	 1.643094019062930e-01
1	 1.651589344703246e+00	 7.312945363896838e-01	 1.161717653658056e-01
1	 1.665868137981257e+00	 6.981564361591600e-01	 2.246413717066065e-02
1	 1.679430118786176e+00	 6.648710691613341e-01	-1.133721585313141e-01
1	 1.506591920197438e+00	 9.849775561029750e-01	-1.022451081198226e+00
1	 1.526435951238430e+00	 9.539356827300293e-01	-6.665249472952068e-01
1	 1.545596566573957e+00	 9.225677500344607e-01	-3.760783599177047e-01
1	 1.564066624371758e+00	 8.908959504494738e-01	-1.485649560637288e-01
1	 1.581839925121894e+00	 8.589426356197124e-01	 1.871606557036820e-02
1	 1.598911212285913e+00	 8.267302675100872e-01	 1.286060491120911e-01
1	 1.615276169982981e+00	 7.942813699652050e-01	 1.840725789275404e-01
1	 1.630931417781299e+00	 7.616184809221463e-01	 1.881948720224038e-01
1	 1.645874502678414e+00	 7.287641054708477e-01	 1.441489671235840e-01
1	 1.660103888368127e+00	 6.957406699466229e-01	 5.519281075013582e-02
1	 1.673618941904847e+00	 6.625704772285660e-01	-7.534866173653421e-02
1	 1.501360698248608e+00	 9.815574951453185e-01	-9.990763766476320e-01
1	 1.521135826403980e+00	 9.506234060554466e-01	-6.465903388757932e-01
1	 1.540229911825190e+00	 9.193643897932695e-01	-3.581473468284742e-01
1	 1.558635837478006e+00	 8.878025617349328e-01	-1.313026724465887e-01
1	 1.576347425378564e+00	 8.559601959152044e-01	 3.653912051205999e-02
1	 1.593359437240282e+00	 8.238596763060617e-01	 1.481107894630327e-01
1	 1.609667572168019e+00	 7.915234485443181e-01	 2.062686256218484e-01
1	 1.625268461467589e+00	 7.589739723103297e-01	 2.139783648223110e-01
1	 1.640159660653904e+00	 7.262336745513602e-01	 1.743008947507605e-01
1	 1.654339638755163e+00	 6.933249037335059e-01	 9.037785553602973e-02
1	 1.667807765023498e+00	 6.602698852953084e-01	-3.458277155373546e-02
1	 1.496129476300282e+00	 9.781374341871568e-01	-9.755541942338475e-01
1	 1.515835701570118e+00	 9.473111293802686e-01	-6.262791353610075e-01
1	 1.534863257077065e+00	 9.161610295514143e-01	-3.396018124453570e-01
1	 1.553205050584920e+00	 8.847091730196800e-01	-1.131796431866920e-01
1	 1.570854925635891e+00	 8.529777562099562e-01	 5.547691793600795e-02
1	 1.587807662195269e+00	 8.209890851012880e-01	 1.689915031792553e-01
1	 1.604058974353608e+00	 7.887655271226953e-01	 2.301085614517961e-01
1	 1.619605505154330e+00	 7.563294636978096e-01	 2.416797896364662e-01
1	 1.634444818629717e+00	 7.237032436312213e-01	 2.066503600591343e-01
1	 1.648575389142363e+00	 6.909091375198079e-01	 1.280450376621936e-01
1	 1.661996588142128e+00	 6.579692933615610e-01	 8.954278383896952e-03
1	 1.490898254352462e+00	 9.747173732284897e-01	-9.518829815600682e-01
1	 1.510535576736847e+00	 9.439988527044959e-01	-6.055873725931220e-01
1	 1.529496602329584e+00	 9.129576693088950e-01	-3.204352881237893e-01
1	 1.547774263692498e+00	 8.816157843037145e-01	-9.418680780363942e-02
1	 1.565362425893876e+00	 8.499953165039679e-01	 7.554119197397213e-02
1	 1.582255887150874e+00	 8.181184938957661e-01	 1.912626741917380e-01
1	 1.598450376539745e+00	 7.860076057003370e-01	 2.556096905147343e-01
1	 1.613942548841521e+00	 7.536849550845858e-01	 2.713193352245644e-01
1	 1.628729976605852e+00	 7.211728127104309e-01	 2.412204950263250e-01
1	 1.642811139529729e+00	 6.884933713055301e-01	 1.682204848924773e-01
1	 1.656185411260738e+00	 6.556687014273237e-01	 5.529165818174953e-02
1	 1.485667032405148e+00	 9.712973122693175e-01	-9.280611643646579e-01
1	 1.505235451904165e+00	 9.406865760281281e-01	-5.845110305811874e-01
1	 1.524129947582745e+00	 9.097543090657121e-01	-3.006412141114996e-01
1	 1.542343476800742e+00	 8.785223955870370e-01	-7.431497820478539e-02
1	 1.559869926152517e+00	 8.470128767972388e-01	 9.674384202712938e-02
1	 1.576704112107097e+00	 8.152479026894962e-01	 2.149389904304388e-01
1	 1.592841778726431e+00	 7.832496842772428e-01	 2.827895606278006e-01
1	 1.608279592529162e+00	 7.510404464706583e-01	 3.029174746950478e-01
1	 1.623015134582309e+00	 7.186423817889888e-01	 2.780347574324920e-01
1	 1.637046889917260e+00	 6.860776050906721e-01	 2.109306929874775e-01
1	 1.650374234379327e+00	 6.533681094925968e-01	 1.044589487918282e-01
1	 1.480435810458339e+00	 9.678772513096394e-01	-9.040871461350179e-01
1	 1.499935327072073e+00	 9.373742993511655e-01	-5.630460325146125e-01
1	 1.518763292836550e+00	 9.065509488218653e-01	-2.802129379389591e-01
1	 1.536912689909651e+00	 8.754290068696469e-01	-5.355483643035797e-02
1	 1.554377426411815e+00	 8.440304370897698e-01	 1.190969356860991e-01
1	 1.571152337063938e+00	 8.123773114824782e-01	 2.400353474286132e-01
1	 1.587233180913667e+00	 7.804917628534130e-01	 3.116659676337528e-01
1	 1.602616636217254e+00	 7.483959378560278e-01	 3.364949705289424e-01
1	 1.617300292559090e+00	 7.161119508668953e-01	 3.171169366165802e-01
1	 1.631282640304956e+00	 6.836618388752341e-01	 2.562025322062360e-01
1	 1.644563057497896e+00	 6.510675175573803e-01	 1.564861492715683e-01
1	 1.475204588512035e+00	 9.644571903494567e-01	-8.799593077129406e-01
1	 1.494635202240570e+00	 9.340620226736079e-01	-5.411882437556694e-01
1	 1.513396638090997e+00	 9.033475885773544e-01	-2.591437127753029e-01
1	 1.531481903019225e+00	 8.723356181515445e-01	-3.189693235098456e-02
1	 1.548884926671771e+00	 8.410479973815603e-01	 1.426127117129821e-01
1	 1.565600562021397e+00	 8.095067202747126e-01	 2.665668520037068e-01
1	 1.581624583101451e+00	 7.777338414288477e-01	 3.422569597987233e-01
1	 1.596953679905797e+00	 7.457514292406937e-01	 3.720728797105695e-01
1	 1.611585450536192e+00	 7.135815199441502e-01	 3.584911593549964e-01
1	 1.625518390692817e+00	 6.812460726592158e-01	 3.040632539462949e-01
1	 1.638751880616443e+00	 6.487669256216742e-01	 2.114036841970177e-01
1	 1.469973366566236e+00	 9.610371293887683e-01	-8.556760068916154e-01
1	 1.489335077409658e+00	 9.307497459954552e-01	-5.189334708105950e-01
1	 1.508029983346087e+00	 9.001442283321798e-01	-2.374266957493576e-01
1	 1.526051116129465e+00	 8.692422294327299e-01	-9.331681315866813e-03
1	 1.543392426932382e+00	 8.380655576726104e-01	 1.673035830871528e-01
1	 1.560048786979474e+00	 8.066361290661985e-01	 2.945488260167617e-01
1	 1.576015985289785e+00	 7.749759200035463e-01	 3.745808423036265e-01
1	 1.591290723594790e+00	 7.431069206246563e-01	 4.096725589678598e-01
1	 1.605870608513616e+00	 7.110510890207535e-01	 4.021818958658587e-01
1	 1.619754141080844e+00	 6.788303064426171e-01	 3.545404975254642e-01
1	 1.632940703734971e+00	 6.464663336854781e-01	 2.692424112343479e-01
1	 1.464742144620942e+00	 9.576170684275745e-01	-8.312355780043090e-01
1	 1.484034952579334e+00	 9.274374693167077e-01	-4.962774602786317e-01
1	 1.502663328601820e+00	 8.969408680863410e-01	-2.150549462347868e-01
1	 1.520620329240370e+00	 8.661488407132030e-01	 1.415063824935903e-02
1	 1.537899927193651e+00	 8.350831179629201e-01	 1.931821401162379e-01
1	 1.554497011938170e+00	 8.037655378569364e-01	 3.239968102126212e-01
1	 1.570407387478668e+00	 7.722179985775096e-01	 4.086561818320300e-01
1	 1.585627767284233e+00	 7.404624120079153e-01	 4.493156701248660e-01
1	 1.600155766491363e+00	 7.085206580967055e-01	 4.482139659418682e-01
1	 1.613989891469035e+00	 6.764145402254385e-01	 4.076622971090460e-01
1	 1.627129526853478e+00	 6.441657417487923e-01	 3.300336288736432e-01
1	 1.685241295667484e+00	 6.671716610936124e-01	-1.486816315273705e-01
1	 1.698131167314643e+00	 6.336456332869620e-01	 6.787600148854156e-02
1	 1.710303134323485e+00	 6.000161987078005e-01	 2.841973620173412e-01
1	 1.721759183393393e+00	 5.663051866162384e-01	 5.005806993112067e-01
1	 1.732502133559252e+00	 5.325341371218100e-01	 7.173059806644527e-01
1	 1.742535611704586e+00	 4.987242644271380e-01	 9.346342085729694e-01
1	 1.751864026327236e+00	 4.648964220634975e-01	 1.152806868186396e+00
1	 1.760492539724360e+00	 4.310710701983215e-01	 1.372045503300775e+00
1	 1.768427038765936e+00	 3.972682450801699e-01	 1.592551418185856e+00
1	 1.775674104427080e+00	 3.635075306723370e-01	 1.814505501662614e+00
1	 1.782240980249354e+00	 3.298080325121973e-01	 2.038068169048369e+00
1	 1.679430118786176e+00	 6.648710691613341e-01	-1.133721585313139e-01
1	 1.692275542601245e+00	 6.314606483465289e-01	 1.150754583973483e-01
1	 1.704405537311030e+00	 5.979471773344200e-01	 3.418151505651985e-01
1	 1.715822082764225e+00	 5.643524101118056e-01	 5.671864307548069e-01
1	 1.726527988274911e+00	 5.306978125119782e-01	 7.915139002298929e-01
1	 1.736526868220118e+00	 4.970045255851367e-01	 1.015106285478134e+00
1	 1.745823115895974e+00	 4.632933309538255e-01	 1.238255600162560e+00
1	 1.754421875798615e+00	 4.295846182331745e-01	 1.461236432491902e+00
1	 1.762329014498468e+00	 3.958983545812290e-01	 1.684305357202964e+00
1	 1.769551090277638e+00	 3.622540564303733e-01	 1.907700470390831e+00
1	 1.776095321699958e+00	 3.286707634368164e-01	 2.131641044533407e+00
1	 1.673618941904847e+00	 6.625704772285660e-01	-7.534866173653421e-02
1	 1.686419917887643e+00	 6.292756634056956e-01	 1.649072262964841e-01
1	 1.698507940298217e+00	 5.958781559607075e-01	 4.019758378861189e-01
1	 1.709884982134579e+00	 5.623996336070878e-01	 6.362382082743188e-01
1	 1.720553842990002e+00	 5.288614879018884e-01	 8.680638441279265e-01
1	 1.730518124735024e+00	 4.952847867428837e-01	 1.097809478631880e+00
1	 1.739782205464055e+00	 4.616902398438881e-01	 1.325817946695398e+00
1	 1.748351211872211e+00	 4.280981662677284e-01	 1.552417182451747e+00
1	 1.756230990230372e+00	 3.945284640819360e-01	 1.777919340150995e+00
1	 1.763428076127625e+00	 3.610005821879858e-01	 2.002620038508818e+00
1	 1.769949663150077e+00	 3.275334943609211e-01	 2.226797727593486e+00
1	 1.667807765023498e+00	 6.602698852953084e-01	-3.458277155373501e-02
1	 1.680564293173836e+00	 6.270906784644620e-01	 2.173988206339692e-01
1	 1.692610343285047e+00	 5.938091345866626e-01	 4.647060048052412e-01
1	 1.703947881504455e+00	 5.604468571020850e-01	 7.077616002969582e-01
1	 1.714579697704525e+00	 5.270251632915403e-01	 9.469802934500776e-01
1	 1.724509381249299e+00	 4.935650479003786e-01	 1.182767109807413e+00
1	 1.733741295031478e+00	 4.600871487336851e-01	 1.415516001317091e+00
1	 1.742280547945149e+00	 4.266117143019832e-01	 1.645608552700467e+00
1	 1.750132965961646e+00	 3.931585735822911e-01	 1.873412809997536e+00
1	 1.757305061977040e+00	 3.597471079451741e-01	 2.099282233187357e+00
1	 1.763804004599710e+00	 3.263962252845110e-01	 2.323554773707738e+00
1	 1.661996588142128e+00	 6.579692933615610e-01	 8.954278383896952e-03
1	 1.674708668459824e+00	 6.249056935228279e-01	 2.725781416893414e-01
1	 1.686712746271520e+00	 5.917401132122855e-01	 5.300326039075445e-01
1	 1.698010780873853e+00	 5.584940805967976e-01	 7.817825328503403e-01
1	 1.708605552418479e+00	 5.251888386809341e-01	 1.028288071680783e+00
1	 1.718500637762947e+00	 4.918453090576216e-01	 1.270002826956598e+00
1	 1.727700384598241e+00	 4.584840576232163e-01	 1.507372166560276e+00
1	 1.736209884017429e+00	 4.251252623359388e-01	 1.740831633660605e+00
1	 1.744034941692291e+00	 3.917886830822941e-01	 1.970805481639797e+00
1	 1.751182047825884e+00	 3.584936337019384e-01	 2.197705333725412e+00
1	 1.757658346048858e+00	 3.252589562075863e-01	 2.421928969900483e+00
1	 1.656185411260738e+00	 6.556687014273237e-01	 5.529165818174930e-02
1	 1.668853043745608e+00	 6.227207085807933e-01	 3.304734813250527e-01
1	 1.680815149257636e+00	 5.896710918375764e-01	 5.979829660599485e-01
1	 1.692073680242772e+00	 5.565413040912249e-01	 8.583272958361892e-01
1	 1.702631407131864e+00	 5.233525140700696e-01	 1.112012350704265e+00
1	 1.712491894275966e+00	 4.901255702146131e-01	 1.359540609932370e+00
1	 1.721659474164348e+00	 4.568809665124818e-01	 1.601409159379097e+00
1	 1.730139220089051e+00	 4.236388103695953e-01	 1.838107811760609e+00
1	 1.737936917422307e+00	 3.904187925819451e-01	 2.070117346675222e+00
1	 1.745059033674157e+00	 3.572401594582788e-01	 2.297907875973553e+00
1	 1.751512687497522e+00	 3.241216871301468e-01	 2.521937338803299e+00
1	 1.650374234379327e+00	 6.533681094925968e-01	 1.044589487918288e-01
1	 1.662997419031187e+00	 6.205357236383583e-01	 3.911135298805513e-01
1	 1.674917552243395e+00	 5.876020704625350e-01	 6.685848070712022e-01
1	 1.686136579611214e+00	 5.545885275853677e-01	 9.374225494365607e-01
1	 1.696657261844680e+00	 5.215161894589467e-01	 1.198178656938351e+00
1	 1.706483150788357e+00	 4.884058313713524e-01	 1.451404776332081e+00
1	 1.715618563729796e+00	 4.552778754014822e-01	 1.697650016684780e+00
1	 1.724068556160014e+00	 4.221523584029527e-01	 1.937458774646204e+00
1	 1.731838893151694e+00	 3.890489020812440e-01	 2.171368678273100e+00
1	 1.738936019521858e+00	 3.559866852141952e-01	 2.399908656850632e+00
1	 1.745367028945699e+00	 3.229844180521926e-01	 2.623597142803160e+00
1	 1.644563057497896e+00	 6.510675175573803e-01	 1.564861492715683e-01
1	 1.657141794316562e+00	 6.183507386955230e-01	 4.545273832125216e-01
1	 1.669019955228797e+00	 5.855330490871614e-01	 7.418662344929789e-01
1	 1.680199478979177e+00	 5.526357510792256e-01	 1.019095330655902e+00
1	 1.690683116556928e+00	 5.196798648475659e-01	 1.286812877598308e+00
1	 1.700474407300120e+00	 4.866860925278398e-01	 1.545619987464722e+00
1	 1.709577653294585e+00	 4.536747842902164e-01	 1.796118100998600e+00
1	 1.717997892230320e+00	 4.206659064360110e-01	 2.038906516502270e+00
1	 1.725740868880452e+00	 3.876790115801911e-01	 2.274580036149189e+00
1	 1.732813005368988e+00	 3.547332109696876e-01	 2.503726738956247e+00
1	 1.739221370393391e+00	 3.218471489737240e-01	 2.726925888278322e+00
1	 1.638751880616443e+00	 6.487669256216742e-01	 2.114036841970177e-01
1	 1.651286169601732e+00	 6.161657537522874e-01	 5.207445498849004e-01
1	 1.663122358213842e+00	 5.834640277114556e-01	 8.178557545656704e-01
1	 1.674262378346661e+00	 5.506829745727985e-01	 1.103373060002301e+00
1	 1.684708971268607e+00	 5.178435402359268e-01	 1.377941267093959e+00
1	 1.694465663811254e+00	 4.849663536840755e-01	 1.642211254445062e+00
1	 1.703536742858717e+00	 4.520716931786852e-01	 1.896837106225117e+00
1	 1.711927228299967e+00	 4.191794544687703e-01	 2.142473343487938e+00
1	 1.719642844608581e+00	 3.863091210787860e-01	 2.379772271646431e+00
1	 1.726689991215546e+00	 3.534797367247560e-01	 2.609381455281545e+00
1	 1.733075711840598e+00	 3.207098798947405e-01	 2.831941329924419e+00
1	 1.632940703734971e+00	 6.464663336854781e-01	 2.692424112343483e-01
1	 1.645430544886697e+00	 6.139807688086513e-01	 5.897949585124034e-01
1	 1.657224761198529e+00	 5.813950063354175e-01	 8.965822793124971e-01
1	 1.668325277713667e+00	 5.487301980660864e-01	 1.190283548311389e+00
1	 1.678734825979718e+00	 5.160072156240295e-01	 1.471590453563388e+00
1	 1.688456920321759e+00	 4.832466148400592e-01	 1.741203944418007e+00
1	 1.697495832422190e+00	 4.504686020668883e-01	 1.999831063548628e+00
1	 1.705856564368955e+00	 4.176930025012304e-01	 2.248181879287686e+00
1	 1.713544820336080e+00	 3.849392305770289e-01	 2.486966532923997e+00
1	 1.720566977061533e+00	 3.522262624794004e-01	 2.716892414020249e+00
1	 1.726930053287320e+00	 3.195726108152424e-01	 2.938661475172948e+00
1	 1.627129526853478e+00	 6.441657417487923e-01	 3.300336288736436e-01
1	 1.639574920171458e+00	 6.117957838646145e-01	 6.617089652614692e-01
1	 1.651327164182859e+00	 5.793259849590472e-01	 9.780751337856459e-01
1	 1.662388177080195e+00	 5.467774215590894e-01	 1.279855003716488e+00
1	 1.672760680690260e+00	 5.141708910118739e-01	 1.567787445546694e+00
1	 1.682448176831636e+00	 4.815268759957910e-01	 1.842623786916228e+00
1	 1.691454921985005e+00	 4.488655109548258e-01	 2.105124347456113e+00
1	 1.699785900437286e+00	 4.162065505333913e-01	 2.356055070781488e+00
1	 1.707446796062950e+00	 3.835693400749197e-01	 2.596184270257623e+00
1	 1.714443962906949e+00	 3.509727882336208e-01	 2.826279503483198e+00
1	 1.720784394733555e+00	 3.184353417352296e-01	 3.047104588704372e+00
1	 1.782240980249354e+00	 3.298080325121973e-01	 2.038068169048369e+00
1	 1.788135539899820e+00	 2.961883538197025e-01	 2.294598443726319e+00
1	 1.793366253994555e+00	 2.626665738654008e-01	 2.559224406972683e+00
1	 1.797942156349410e+00	 2.292602285953946e-01	 2.830815276224030e+00
1	 1.801872809816433e+00	 1.959862934990077e-01	 3.108247196304290e+00
1	 1.805168271859486e+00	 1.628611686937021e-01	 3.390407125326850e+00
1	 1.807839060016302e+00	 1.299006661911901e-01	 3.676196502183975e+00
1	 1.809896117387584e+00	 9.711999929909637e-02	 3.964534685211081e+00
1	 1.811350778286529e+00	 6.453377410372400e-02	 4.254362153858331e+00
1	 1.812214734174441e+00	 3.215598297154848e-02	 4.544643467376855e+00
1	 1.812500000000000e+00	 0.000000000000000e+00	 4.834369976610804e+00
1	 1.776095321699958e+00	 3.286707634368164e-01	 2.131641044533407e+00
1	 1.781969555282043e+00	 2.951670146713339e-01	 2.391333001805262e+00
1	 1.787182232431072e+00	 2.617608270620224e-01	 2.658348200818168e+00
1	 1.791742355811808e+00	 2.284696760862076e-01	 2.931563106685008e+00
1	 1.795659455300944e+00	 1.953104786970464e-01	 3.209863173657429e+00
1	 1.798943553681433e+00	 1.622995784598745e-01	 3.492146615693947e+00
1	 1.801605132223633e+00	 1.294527328622291e-01	 3.777327954981418e+00
1	 1.803655096293418e+00	 9.678510275205648e-02	 4.064341338871372e+00
1	 1.805104741120144e+00	 6.431124384984845e-02	 4.352143617908000e+00
1	 1.805965717849732e+00	 3.204510027254415e-02	 4.639717179761525e+00
1	 1.806250000000000e+00	 0.000000000000000e+00	 4.926072535925049e+00
1	 1.769949663150077e+00	 3.275334943609211e-01	 2.226797727593486e+00
1	 1.775803570663875e+00	 2.941456755223666e-01	 2.489683273082600e+00
1	 1.780998210867282e+00	 2.608550802579930e-01	 2.759115289243463e+00
1	 1.785542555273973e+00	 2.276791235763486e-01	 3.033977522717083e+00
1	 1.789446100785286e+00	 1.946346638944224e-01	 3.313164779707005e+00
1	 1.792718835503262e+00	 1.617379882254234e-01	 3.595586580770648e+00
1	 1.795371204430891e+00	 1.290047995327130e-01	 3.880170589913685e+00
1	 1.797414075199211e+00	 9.645020620455891e-02	 4.165865809327771e+00
1	 1.798858703953742e+00	 6.408871359564056e-02	 4.451645533294156e+00
1	 1.799716701525018e+00	 3.193421757336030e-02	 4.736510056877793e+00
1	 1.800000000000000e+00	 0.000000000000000e+00	 5.019489137039086e+00
1	 1.763804004599710e+00	 3.263962252845110e-01	 2.323554773707738e+00
1	 1.769637586045316e+00	 2.931243363728009e-01	 2.589666146545913e+00
1	 1.774814189303186e+00	 2.599493334533128e-01	 2.861542849543481e+00
1	 1.779342754735904e+00	 2.268885710658176e-01	 3.138075945075213e+00
1	 1.783232746269456e+00	 1.939588490911356e-01	 3.418169634265292e+00
1	 1.786494117324974e+00	 1.611763979903487e-01	 3.700744795554132e+00
1	 1.789137276638073e+00	 1.285568662026421e-01	 3.984742293902511e+00
1	 1.791173054104962e+00	 9.611530965660373e-02	 4.269126052854094e+00
1	 1.792612666787321e+00	 6.386618334110038e-02	 4.552885883829504e+00
1	 1.793467685200299e+00	 3.182333487399693e-02	 4.835040069089697e+00
1	 1.793750000000000e+00	 0.000000000000000e+00	 5.114637696767216e+00
1	 1.757658346048858e+00	 3.252589562075863e-01	 2.421928969900483e+00
1	 1.763471601426367e+00	 2.921029972226365e-01	 2.691298747392369e+00
1	 1.768630167738783e+00	 2.590435866479818e-01	 2.965648299254983e+00
1	 1.773142954197601e+00	 2.260980185546144e-01	 3.243876038161225e+00
1	 1.777019391753456e+00	 1.932830342871860e-01	 3.524895603575397e+00
1	 1.780269399146567e+00	 1.606148077546506e-01	 3.807639283643048e+00
1	 1.782903348845179e+00	 1.281089328720163e-01	 4.091061204036423e+00
1	 1.784932033010671e+00	 9.578041310819090e-02	 4.374140276860840e+00
1	 1.786366629620881e+00	 6.364365308622791e-02	 4.655882904848729e+00
1	 1.787218668875576e+00	 3.171245217445402e-02	 4.935325438095055e+00
1	 1.787500000000000e+00	 0.000000000000000e+00	 5.211536382508588e+00
1	 1.751512687497522e+00	 3.241216871301468e-01	 2.521937338803299e+00
1	 1.757305616807027e+00	 2.910816580718735e-01	 2.794598441172766e+00
1	 1.762446146174073e+00	 2.581378398419998e-01	 3.071449300371367e+00
1	 1.766943153659066e+00	 2.253074660427391e-01	 3.351395714298420e+00
1	 1.770806037237285e+00	 1.926072194825736e-01	 3.633360804634777e+00
1	 1.774044680968044e+00	 1.600532175183289e-01	 3.916288321598788e+00
1	 1.776669421052212e+00	 1.276609995408355e-01	 4.199145711959570e+00
1	 1.778691011916339e+00	 9.544551655932043e-02	 4.480926944301189e+00
1	 1.780120592454424e+00	 6.342112283102315e-02	 4.760655087620912e+00
1	 1.780969652550848e+00	 3.160156947473160e-02	 5.037384641334890e+00
1	 1.781250000000000e+00	 0.000000000000000e+00	 5.310203616643505e+00
1	 1.745367028945699e+00	 3.229844180521926e-01	 2.623597142803160e+00
1	 1.751139632187295e+00	 2.900603189205119e-01	 2.899582838023125e+00
1	 1.756262124609057e+00	 2.572320930353669e-01	 3.178963763646522e+00
1	 1.760743353120296e+00	 2.245169135301918e-01	 3.460653138096323e+00
1	 1.764592682720944e+00	 1.919314046772986e-01	 3.743583609609895e+00
1	 1.767819962789402e+00	 1.594916272813837e-01	 4.026710443399145e+00
1	 1.770435493259169e+00	 1.272130662090997e-01	 4.309014468353351e+00
1	 1.772449990821964e+00	 9.511062000999228e-02	 4.589504778169904e+00
1	 1.773874555287947e+00	 6.319859257548607e-02	 4.867221183855727e+00
1	 1.774720636226116e+00	 3.149068677482966e-02	 5.141236416495889e+00
1	 1.775000000000000e+00	 0.000000000000000e+00	 5.410658081022473e+00
1	 1.739221370393391e+00	 3.218471489737240e-01	 2.726925888278322e+00
1	 1.744973647567174e+00	 2.890389797685516e-01	 3.006269796985901e+00
1	 1.750078103043732e+00	 2.563263462280833e-01	 3.288209852989834e+00
1	 1.754543552581293e+00	 2.237263610169723e-01	 3.571666730908041e+00
1	 1.758379328204433e+00	 1.912555898713607e-01	 3.855582650344435e+00
1	 1.761595244610644e+00	 1.589300370438151e-01	 4.138924444986264e+00
1	 1.764201565466052e+00	 1.267651328768090e-01	 4.420686387513134e+00
1	 1.766208969727548e+00	 9.477572346020648e-02	 4.699892766097796e+00
1	 1.767628518121452e+00	 6.297606231961671e-02	 4.975600210304666e+00
1	 1.768471619901380e+00	 3.137980407474818e-02	 5.246899766108456e+00
1	 1.768750000000000e+00	 0.000000000000000e+00	 5.512918721550468e+00
1	 1.733075711840598e+00	 3.207098798947405e-01	 2.831941329924419e+00
1	 1.738807662946661e+00	 2.880176406159928e-01	 3.114677430423313e+00
1	 1.743894081478102e+00	 2.554205994201487e-01	 3.399205989954748e+00
1	 1.748343752042056e+00	 2.229358085030808e-01	 3.684455175382473e+00
1	 1.752165973687751e+00	 1.905797750647600e-01	 3.969376822963610e+00
1	 1.755370526431767e+00	 1.583684468056229e-01	 4.252949388911429e+00
1	 1.757967637672861e+00	 1.263171995439634e-01	 4.534180652022096e+00
1	 1.759967948633089e+00	 9.444082690996303e-02	 4.812110165043796e+00
1	 1.761382480954939e+00	 6.275353206341505e-02	 5.085811453460459e+00
1	 1.762222603576638e+00	 3.126892137448718e-02	 5.354393962242498e+00
1	 1.762500000000000e+00	 0.000000000000000e+00	 5.617004752868749e+00
1	 1.726930053287320e+00	 3.195726108152424e-01	 2.938661475172948e+00
1	 1.732641678325757e+00	 2.869963014628354e-01	 3.224824108524767e+00
1	 1.737710059912164e+00	 2.545148526115632e-01	 3.511970858323250e+00
1	 1.742143951502586e+00	 2.221452559885172e-01	 3.799037420113711e+00
1	 1.745952619170899e+00	 1.899039602574966e-01	 4.084985292576587e+00
1	 1.749145808252773e+00	 1.578068565668071e-01	 4.368804609078953e+00
1	 1.751733709879594e+00	 1.258692662105629e-01	 4.649516717525200e+00
1	 1.753726927538590e+00	 9.410593035926194e-02	 4.926176506087248e+00
1	 1.755136443788408e+00	 6.253100180688111e-02	 5.197874474356635e+00
1	 1.755973587251892e+00	 3.115803867404665e-02	 5.463738551303458e+00
1	 1.756250000000000e+00	 0.000000000000000e+00	 5.722935663136722e+00
1	 1.720784394733555e+00	 3.184353417352296e-01	 3.047104588704372e+00
1	 1.726475693704463e+00	 2.859749623090794e-01	 3.336728463910928e+00
1	 1.731526038345919e+00	 2.536091058023268e-01	 3.626523408788504e+00
1	 1.735944150962882e+00	 2.213547034732815e-01	 3.915432684390019e+00
1	 1.739739264653876e+00	 1.892281454495704e-01	 4.202427498079809e+00
1	 1.742921090073661e+00	 1.572452663273678e-01	 4.486509715591830e+00
1	 1.745499782086253e+00	 1.254213328766073e-01	 4.766714317605217e+00
1	 1.747485906444049e+00	 9.377103380810320e-02	 5.042111599323019e+00
1	 1.748890406621857e+00	 6.230847155001484e-02	 5.311809113470209e+00
1	 1.749724570927141e+00	 3.104715597342659e-02	 5.574953358931221e+00
1	 1.750000000000000e+00	 0.000000000000000e+00	 5.830731218916158e+00
1	 0.000000000000000e+00	 1.750000000000000e+00	-2.332182994655859e+01
1	 3.104715597342671e-02	 1.749724570927141e+00	-2.261375246427331e+01
1	 6.230847155001509e-02	 1.748890406621857e+00	-2.194918777702592e+01
1	 9.377103380810355e-02	 1.747485906444048e+00	-2.133020854135755e+01
1	 1.254213328766078e-01	 1.745499782086253e+00	-2.075881445738412e+01
1	 1.572452663273684e-01	 1.742921090073661e+00	-2.023692168847062e+01
1	 1.892281454495710e-01	 1.739739264653876e+00	-1.976635213925963e+01
1	 2.213547034732822e-01	 1.735944150962882e+00	-1.934882264854246e+01
1	 2.536091058023277e-01	 1.731526038345919e+00	-1.898593415772361e+01
1	 2.859749623090804e-01	 1.726475693704463e+00	-1.867916091961232e+01
1	 3.184353417352296e-01	 1.720784394733555e+00	-1.842983981593713e+01
1	 0.000000000000000e+00	 1.743750000000000e+00	-2.357003339886370e+01
1	 3.093627327280666e-02	 1.743475554602388e+00	-2.288910407431902e+01
1	 6.208594129314886e-02	 1.742644369455298e+00	-2.224983770657661e+01
1	 9.343613725694477e-02	 1.741244885349486e+00	-2.165422595127196e+01
1	 1.249733995426522e-01	 1.739265854292873e+00	-2.110419120282601e+01
1	 1.566836760879290e-01	 1.736696371894490e+00	-2.060157647340989e+01
1	 1.885523306416448e-01	 1.733525910136768e+00	-2.014813513392438e+01
1	 2.205641509580466e-01	 1.729744350423062e+00	-1.974552057088187e+01
1	 2.527033589930913e-01	 1.725342016779521e+00	-1.939527581715451e+01
1	 2.849536231553245e-01	 1.720309709082974e+00	-1.909882321838394e+01
1	 3.172980726552168e-01	 1.714638736179549e+00	-1.885745420035830e+01
1	 0.000000000000000e+00	 1.737500000000000e+00	-2.381825992198133e+01
1	 3.082539057236613e-02	 1.737226538277636e+00	-2.316458187043142e+01
1	 6.186341103661488e-02	 1.736398332288739e+00	-2.255070372028101e+01
1	 9.310124070624369e-02	 1.735003864254924e+00	-2.197853570335440e+01
1	 1.245254662092517e-01	 1.733031926499495e+00	-2.144992250154789e+01
1	 1.561220858491134e-01	 1.730471653715320e+00	-2.096663358702708e+01
1	 1.878765158343814e-01	 1.727312555619660e+00	-2.053035342811855e+01
1	 2.197735984434829e-01	 1.723544549883242e+00	-2.014267161216715e+01
1	 2.517976121845058e-01	 1.719157995213123e+00	-1.980507294053357e+01
1	 2.839322840021671e-01	 1.714143724461484e+00	-1.951892755457206e+01
1	 3.161608035757187e-01	 1.708493077625542e+00	-1.928548115478945e+01
1	 0.000000000000000e+00	 1.731250000000000e+00	-2.406650976577600e+01
1	 3.071450787210513e-02	 1.730977521952882e+00	-2.344018721924652e+01
1	 6.164088078041322e-02	 1.730152295122179e+00	-2.285178815840012e+01
1	 9.276634415600024e-02	 1.728762843160361e+00	-2.230314096376437e+01
1	 1.240775328764061e-01	 1.726797998706116e+00	-2.179601219347571e+01
1	 1.555604956109211e-01	 1.724246935536149e+00	-2.133209738667153e+01
1	 1.872007010277807e-01	 1.721099201102552e+00	-2.091301173627627e+01
1	 2.189830459295914e-01	 1.717344749343421e+00	-2.054028067982236e+01
1	 2.508918653765713e-01	 1.712973973646726e+00	-2.021533046068261e+01
1	 2.829109448496083e-01	 1.707977739839994e+00	-1.993947871558434e+01
1	 3.150235344967353e-01	 1.702347419071536e+00	-1.971392514749707e+01
1	 0.000000000000000e+00	 1.725000000000000e+00	-2.431478318373354e+01
1	 3.060362517202365e-02	 1.724728505628130e+00	-2.371592150720614e+01
1	 6.141835052454387e-02	 1.723906257955620e+00	-2.315309339511165e+01
1	 9.243144760621444e-02	 1.722521822065799e+00	-2.262804494454816e+01
1	 1.236295995441154e-01	 1.720564070912737e+00	-2.214246417418642e+01
1	 1.549989053733525e-01	 1.718022217356979e+00	-2.169797229284224e+01
1	 1.865248862218429e-01	 1.714885846585444e+00	-2.129611484115678e+01
1	 2.181924934163719e-01	 1.711144948803601e+00	-2.093835275239391e+01
1	 2.499861185692875e-01	 1.706789952080327e+00	-2.062605338191302e+01
1	 2.818896056976480e-01	 1.701811755218504e+00	-2.036048155821168e+01
1	 3.138862654182665e-01	 1.696201760517529e+00	-2.014279071150496e+01
1	 0.000000000000000e+00	 1.718750000000000e+00	-2.456308043302663e+01
1	 3.049274247212171e-02	 1.718479489303377e+00	-2.399178614091890e+01
1	 6.119582026900679e-02	 1.717660220789060e+00	-2.345462183912656e+01
1	 9.209655105688630e-02	 1.716280800971237e+00	-2.295325090447232e+01
1	 1.231816662123796e-01	 1.714330143119358e+00	-2.248928239592050e+01
1	 1.544373151364073e-01	 1.711797499177809e+00	-2.206426279033652e+01
1	 1.858490714165678e-01	 1.708672492068336e+00	-2.167966759508682e+01
1	 2.174019409038246e-01	 1.704945148263781e+00	-2.133689288084356e+01
1	 2.490803717626546e-01	 1.700605930513930e+00	-2.103724678132658e+01
1	 2.808682665462864e-01	 1.695645770597015e+00	-2.078194100988868e+01
1	 3.127489963403123e-01	 1.690056101963523e+00	-2.057208244577190e+01
1	 0.000000000000000e+00	 1.712500000000000e+00	-2.481140177458230e+01
1	 3.038185977239929e-02	 1.712230472978624e+00	-2.426778254752739e+01
1	 6.097329001380203e-02	 1.711414183622502e+00	-2.375637593431985e+01
1	 9.176165450801582e-02	 1.710039779876674e+00	-2.327876214987693e+01
1	 1.227337328811989e-01	 1.708096215325980e+00	-2.283647086861492e+01
1	 1.538757249000856e-01	 1.705572780998638e+00	-2.243097342942316e+01
1	 1.851732566119554e-01	 1.702459137551228e+00	-2.206367492122989e+01
1	 2.166113883919493e-01	 1.698745347723961e+00	-2.173590618986952e+01
1	 2.481746249566727e-01	 1.694421908947531e+00	-2.144891581014327e+01
1	 2.798469273955234e-01	 1.689479785975526e+00	-2.120386206998378e+01
1	 3.116117272628729e-01	 1.683910443409517e+00	-2.100180501639489e+01
1	 0.000000000000000e+00	 1.706250000000000e+00	-2.505974747315078e+01
1	 3.027097707285637e-02	 1.705981456653871e+00	-2.454391217508524e+01
1	 6.075075975892956e-02	 1.705168146455943e+00	-2.405835816037391e+01
1	 9.142675795960301e-02	 1.703798758782112e+00	-2.360458203554631e+01
1	 1.222857995505730e-01	 1.701862287532601e+00	-2.318403366096046e+01
1	 1.533141346643875e-01	 1.699348062819468e+00	-2.279810882704143e+01
1	 1.844974418080058e-01	 1.696245783034120e+00	-2.244814181488406e+01
1	 2.158208358807461e-01	 1.692545547184140e+00	-2.213539787925695e+01
1	 2.472688781513415e-01	 1.688237887381134e+00	-2.186106569505871e+01
1	 2.788255882453590e-01	 1.683313801354036e+00	-2.162624981111583e+01
1	 3.104744581859482e-01	 1.677764784855510e+00	-2.143196315783839e+01
1	 0.000000000000000e+00	 1.700000000000000e+00	-2.530811779737574e+01
1	 3.016009437349301e-02	 1.699732440329119e+00	-2.482017649294089e+01
1	 6.052822950438938e-02	 1.698922109289383e+00	-2.436057103343707e+01
1	 9.109186141164781e-02	 1.697557737687550e+00	-2.393071396560007e+01
1	 1.218378662205021e-01	 1.695628359739223e+00	-2.353197490148115e+01
1	 1.527525444293128e-01	 1.693123344640297e+00	-2.316567366802688e+01
1	 1.838216270047190e-01	 1.690032428517012e+00	-2.283307334480717e+01
1	 2.150302833702150e-01	 1.686345746644320e+00	-2.253537322525901e+01
1	 2.463631313466614e-01	 1.682053865814736e+00	-2.227370173963177e+01
1	 2.778042490957932e-01	 1.677147816732546e+00	-2.204910938050121e+01
1	 3.093371891095381e-01	 1.671619126301504e+00	-2.186256167419154e+01
1	 0.000000000000000e+00	 1.693750000000000e+00	-2.555651301986603e+01
1	 3.004921167430915e-02	 1.693483424004366e+00	-2.509657699213003e+01
1	 6.030569925018151e-02	 1.692676072122824e+00	-2.466301710679675e+01
1	 9.075696486415027e-02	 1.691316716592987e+00	-2.425716139440300e+01
1	 1.213899328909861e-01	 1.689394431945843e+00	-2.388029877963958e+01
1	 1.521909541948617e-01	 1.686898626461127e+00	-2.353367270636389e+01
1	 1.831458122020950e-01	 1.683819073999904e+00	-2.321847465457289e+01
1	 2.142397308603560e-01	 1.680145946104500e+00	-2.293583758200665e+01
1	 2.454573845426321e-01	 1.675869844248338e+00	-2.268682932570285e+01
1	 2.767829099468259e-01	 1.670981832111057e+00	-2.247244600133022e+01
1	 3.081999200336427e-01	 1.665473467747497e+00	-2.229360544045255e+01
1	 0.000000000000000e+00	 1.687500000000000e+00	-2.580493341726885e+01
1	 2.993832897530482e-02	 1.687234407679613e+00	-2.537311518577805e+01
1	 6.008316899630591e-02	 1.686430034956264e+00	-2.496569897156641e+01
1	 9.042206831711039e-02	 1.685075695498425e+00	-2.458392782749573e+01
1	 1.209419995620250e-01	 1.683160504152465e+00	-2.422900954696327e+01
1	 1.516293639610342e-01	 1.680673908281957e+00	-2.390211076646628e+01
1	 1.824699974001337e-01	 1.677605719482796e+00	-2.360435096395645e+01
1	 2.134491783511691e-01	 1.673946145564679e+00	-2.333679638295159e+01
1	 2.445516377392536e-01	 1.669685822681939e+00	-2.310045391484266e+01
1	 2.757615707984573e-01	 1.664815847489567e+00	-2.289626497417328e+01
1	 3.070626509582619e-01	 1.659327809193490e+00	-2.272509940384162e+01
1	 3.184353417352296e-01	 1.720784394733555e+00	-1.842983981593713e+01
1	 3.509728071781691e-01	 1.714443955334942e+00	-1.824609468985752e+01
1	 3.835694166088040e-01	 1.707446765533649e+00	-1.809044502539860e+01
1	 4.162067244205513e-01	 1.699785831195978e+00	-1.796281650194033e+01
1	 4.488658230561827e-01	 1.691454797897647e+00	-1.786303557325063e+01
1	 4.815273682432624e-01	 1.682447981375147e+00	-1.779082673743561e+01
1	 5.141716063784993e-01	 1.672760396943115e+00	-1.774581021211029e+01
1	 5.467784040252037e-01	 1.662387787713413e+00	-1.772750004762456e+01
1	 5.793272794744625e-01	 1.651326651451478e+00	-1.773530270929096e+01
1	 6.117974363067863e-01	 1.639574265906616e+00	-1.776851615725461e+01
1	 6.441677988769666e-01	 1.627128712455193e+00	-1.782632944994814e+01
1	 3.172980726552168e-01	 1.714638736179549e+00	-1.885745420035830e+01
1	 3.497193328647281e-01	 1.708320941207115e+00	-1.868130296669289e+01
1	 3.821995258333502e-01	 1.701348741369238e+00	-1.853167193612645e+01
1	 4.147202718316655e-01	 1.693715167511270e+00	-1.840848526001631e+01
1	 4.472627308294344e-01	 1.685413887903302e+00	-1.831157336206098e+01
1	 4.798076276409079e-01	 1.676439238582769e+00	-1.824067038735919e+01
1	 5.123352792113763e-01	 1.666786252666756e+00	-1.819541203525943e+01
1	 5.448256240092807e-01	 1.656450688470297e+00	-1.817533380686417e+01
1	 5.772582534746676e-01	 1.645429056266814e+00	-1.817986969625629e+01
1	 6.096124454609732e-01	 1.633718643527935e+00	-1.820835135232344e+01
1	 6.418671995931498e-01	 1.621317538482254e+00	-1.826000773549624e+01
1	 3.161608035757187e-01	 1.708493077625542e+00	-1.928548115478945e+01
1	 3.484658585517065e-01	 1.702197927079289e+00	-1.911684725169780e+01
1	 3.808296350582296e-01	 1.695250717204827e+00	-1.897314772523046e+01
1	 4.132338192430361e-01	 1.687644503826563e+00	-1.885430516668304e+01
1	 4.456596386028757e-01	 1.679372977908958e+00	-1.876015396193873e+01
1	 4.780878870386854e-01	 1.670430495790391e+00	-1.869043792044988e+01
1	 5.104989520443385e-01	 1.660812108390396e+00	-1.864480826649006e+01
1	 5.428728439934060e-01	 1.650513589227181e+00	-1.862282202157111e+01
1	 5.751892274748941e-01	 1.639531461082150e+00	-1.862394080520276e+01
1	 6.074274546151652e-01	 1.627863021149254e+00	-1.864753007910203e+01
1	 6.395666003093325e-01	 1.615506364509316e+00	-1.869285885752893e+01
1	 3.150235344967353e-01	 1.702347419071536e+00	-1.971392514749707e+01
1	 3.472123842391040e-01	 1.696074912951461e+00	-1.955273118394898e+01
1	 3.794597442834421e-01	 1.689152693040416e+00	-1.941487508814412e+01
1	 4.117473666546630e-01	 1.681573840141854e+00	-1.930027785892807e+01
1	 4.440565463765060e-01	 1.673332067914612e+00	-1.920877783654109e+01
1	 4.763681464365951e-01	 1.664421752998012e+00	-1.914012851233730e+01
1	 5.086626248773857e-01	 1.654837964114037e+00	-1.909399667917462e+01
1	 5.409200639775792e-01	 1.644576489984066e+00	-1.906996094938553e+01
1	 5.731202014751422e-01	 1.633633865897485e+00	-1.906751066561027e+01
1	 6.052424637693627e-01	 1.622007398770572e+00	-1.908604522782532e+01
1	 6.372660010255159e-01	 1.609695190536379e+00	-1.912487385759651e+01
1	 3.138862654182665e-01	 1.696201760517529e+00	-2.014279071150496e+01
1	 3.459589099269209e-01	 1.689951898823635e+00	-1.998895845526367e+01
1	 3.780898535089879e-01	 1.683054668876005e+00	-1.985685675936464e+01
1	 4.102609140665467e-01	 1.675503176457145e+00	-1.974640499746388e+01
1	 4.424534541503263e-01	 1.667291157920268e+00	-1.965744545624509e+01
1	 4.746484058346370e-01	 1.658413010205633e+00	-1.958974132670373e+01
1	 5.068262977105178e-01	 1.648863819837677e+00	-1.954297501441600e+01
1	 5.389672839618007e-01	 1.638639390740951e+00	-1.951674679371050e+01
1	 5.710511754754116e-01	 1.627736270712820e+00	-1.951057382912494e+01
1	 6.030574729235657e-01	 1.616151776391890e+00	-1.952388958568832e+01
1	 6.349654017416988e-01	 1.603884016563440e+00	-1.955604364741685e+01
1	 3.127489963403123e-01	 1.690056101963523e+00	-2.057208244577190e+01
1	 3.447054356151571e-01	 1.683828884695807e+00	-2.042553281115833e+01
1	 3.767199627348667e-01	 1.676956644711594e+00	-2.029909551316396e+01
1	 4.087744614786866e-01	 1.669432512772437e+00	-2.019268826715859e+01
1	 4.408503619243356e-01	 1.661250247925923e+00	-2.010615729826986e+01
1	 4.729286652328112e-01	 1.652404267413255e+00	-2.003927551506686e+01
1	 5.049899705437351e-01	 1.642889675561317e+00	-1.999174098045966e+01
1	 5.370145039460699e-01	 1.632702291497834e+00	-1.996317570272614e+01
1	 5.689821494757026e-01	 1.621838675528156e+00	-1.995312476814426e+01
1	 6.008724820777742e-01	 1.610296154013210e+00	-1.996105583497242e+01
1	 6.326648024578820e-01	 1.598072842590502e+00	-1.998635900651423e+01
1	 3.116117272628729e-01	 1.683910443409517e+00	-2.100180501639489e+01
1	 3.434519613038127e-01	 1.677705870567981e+00	-2.086245805182834e+01
1	 3.753500719610787e-01	 1.670858620547183e+00	-2.074159416431414e+01
1	 4.072880088910831e-01	 1.663361849087728e+00	-2.063912937747709e+01
1	 4.392472696985345e-01	 1.655209337931578e+00	-2.055491384680075e+01
1	 4.712089246311177e-01	 1.646395524620877e+00	-2.048873021655779e+01
1	 5.031536433770374e-01	 1.636915531284957e+00	-2.044029225209530e+01
1	 5.350617239303875e-01	 1.626765192254719e+00	-2.040924376838156e+01
1	 5.669131234760149e-01	 1.615941080343491e+00	-2.039515787437066e+01
1	 5.986874912319879e-01	 1.604440531634528e+00	-2.039753655113120e+01
1	 6.303642031740651e-01	 1.592261668617564e+00	-2.041581057980796e+01
1	 3.104744581859482e-01	 1.677764784855510e+00	-2.143196315783839e+01
1	 3.421984869928874e-01	 1.671582856440154e+00	-2.129973803314974e+01
1	 3.739801811876239e-01	 1.664760596382772e+00	-2.118435556882945e+01
1	 4.058015563037361e-01	 1.657291185403021e+00	-2.108573006293113e+01
1	 4.376441774729229e-01	 1.649168427937233e+00	-2.100371559311786e+01
1	 4.694891840295564e-01	 1.640386781828499e+00	-2.093810455769399e+01
1	 5.013173162104245e-01	 1.630941387008598e+00	-2.088862647004357e+01
1	 5.331089439147528e-01	 1.620828093011603e+00	-2.085494702536457e+01
1	 5.648440974763487e-01	 1.610043485158827e+00	-2.083666745733367e+01
1	 5.965025003862070e-01	 1.598584909255847e+00	-2.083332420083347e+01
1	 6.280636038902480e-01	 1.586450494644626e+00	-2.084438887514624e+01
1	 3.093371891095381e-01	 1.671619126301504e+00	-2.186256167419154e+01
1	 3.409450126823815e-01	 1.665459842312327e+00	-2.173737666770235e+01
1	 3.726102904145024e-01	 1.658662572218361e+00	-2.162738262472476e+01
1	 4.043151037166455e-01	 1.651220521718312e+00	-2.153249208354012e+01
1	 4.360410852475006e-01	 1.643127517942888e+00	-2.145256303572566e+01
1	 4.677694434281273e-01	 1.634378039036120e+00	-2.138739765214792e+01
1	 4.994809890438971e-01	 1.624967242732239e+00	-2.133674124032972e+01
1	 5.311561638991665e-01	 1.614890993768488e+00	-2.130028145005023e+01
1	 5.627750714767039e-01	 1.604145889974162e+00	-2.127764774287979e+01
1	 5.943175095404315e-01	 1.592729286877165e+00	-2.126841113996366e+01
1	 6.257630046064310e-01	 1.580639320671688e+00	-2.127208426078688e+01
1	 3.081999200336427e-01	 1.665473467747497e+00	-2.229360544045255e+01
1	 3.396915383722950e-01	 1.659336828184500e+00	-2.217537792581674e+01
1	 3.712403996417140e-01	 1.652564548053950e+00	-2.207067827278914e+01
1	 4.028286511298116e-01	 1.645149858033605e+00	-2.197941722530183e+01
1	 4.344379930222678e-01	 1.637086607948543e+00	-2.190145668048713e+01
1	 4.660497028268303e-01	 1.628369296243742e+00	-2.183660860050929e+01
1	 4.976446618774545e-01	 1.618993098455879e+00	-2.178463413364324e+01
1	 5.292033838836282e-01	 1.608953894525373e+00	-2.174524295942383e+01
1	 5.607060454770807e-01	 1.598248294789498e+00	-2.171809287162753e+01
1	 5.921325186946614e-01	 1.586873664498484e+00	-2.170278961157829e+01
1	 6.234624053226140e-01	 1.574828146698750e+00	-2.169888696282161e+01
1	 3.070626509582619e-01	 1.659327809193490e+00	-2.272509940384162e+01
1	 3.384380640626277e-01	 1.653213814056673e+00	-2.261374583664274e+01
1	 3.698705088692585e-01	 1.646466523889539e+00	-2.251424549737979e+01
1	 4.013421985432338e-01	 1.639079194348896e+00	-2.242650730067310e+01
1	 4.328349007972243e-01	 1.631045697954198e+00	-2.235039704075871e+01
1	 4.643299622256656e-01	 1.622360553451363e+00	-2.228573649004367e+01
1	 4.958083347110969e-01	 1.613018954179519e+00	-2.223230268468471e+01
1	 5.272506038681378e-01	 1.603016795282257e+00	-2.218982740998189e+01
1	 5.586370194774788e-01	 1.592350699604834e+00	-2.215799689739022e+01
1	 5.899475278488967e-01	 1.581018042119802e+00	-2.213645174381569e+01
1	 6.211618060387971e-01	 1.569016972725812e+00	-2.212478706254382e+01
1	 6.441677988769666e-01	 1.627128712455193e+00	-1.782632944994814e+01
1	 6.764162018519378e-01	 1.613989238311922e+00	-1.769511931667595e+01
1	 7.085219225555182e-01	 1.600155284709705e+00	-1.759580613225918e+01
1	 7.404632781351761e-01	 1.585627467014605e+00	-1.752793374496015e+01
1	 7.722184657220236e-01	 1.570407278836156e+00	-1.749090087281802e+01
1	 8.037656058892707e-01	 1.554497104992038e+00	-1.748395996183503e+01
1	 8.350827872829872e-01	 1.537900231942552e+00	-1.750621679886329e+01
1	 8.661481122562706e-01	 1.520620855587198e+00	-1.755663090447110e+01
1	 8.969397433274091e-01	 1.502664086328314e+00	-1.763401672535650e+01
1	 9.274359502731981e-01	 1.484035951320548e+00	-1.773704563976635e+01
1	 9.576151576602960e-01	 1.464743393839698e+00	-1.786424878293511e+01
1	 6.418671995931498e-01	 1.621317538482254e+00	-1.826000773549625e+01
1	 6.740004297000887e-01	 1.608224991032903e+00	-1.812103183218606e+01
1	 7.059914871152199e-01	 1.594440444408272e+00	-1.801486580433518e+01
1	 7.378187664247717e-01	 1.579964511776686e+00	-1.794104645086330e+01
1	 7.694605426272457e-01	 1.564798681413362e+00	-1.789896192441853e+01
1	 8.008950144366620e-01	 1.548945329618768e+00	-1.788785055630610e+01
1	 8.321003487539267e-01	 1.532407731115849e+00	-1.790680045396962e+01
1	 8.630547261380194e-01	 1.515190066818746e+00	-1.795474989691178e+01
1	 8.937363870982346e-01	 1.497297428878360e+00	-1.803048855109929e+01
1	 9.241236790193086e-01	 1.478735822923787e+00	-1.813265951563890e+01
1	 9.541951035230191e-01	 1.459512167433410e+00	-1.825976220892245e+01
1	 6.395666003093325e-01	 1.615506364509316e+00	-1.869285885752893e+01
1	 6.715846575482395e-01	 1.602460743753888e+00	-1.854618452096577e+01
1	 7.034610516749216e-01	 1.588725604106858e+00	-1.843324057140673e+01
1	 7.351742547143674e-01	 1.574301556538812e+00	-1.835355670904103e+01
1	 7.667026195324677e-01	 1.559190083990645e+00	-1.830651045208429e+01
1	 7.980244229840535e-01	 1.543393554245621e+00	-1.829132592827155e+01
1	 8.291179102248665e-01	 1.526915230289322e+00	-1.830707345684192e+01
1	 8.599613400197682e-01	 1.509759278050534e+00	-1.835266994751643e+01
1	 8.905330308690603e-01	 1.491930771428722e+00	-1.842688013698908e+01
1	 9.208114077654190e-01	 1.473435694527426e+00	-1.852831867705638e+01
1	 9.507750493857414e-01	 1.454280941027615e+00	-1.865545308175725e+01
1	 6.372660010255159e-01	 1.609695190536379e+00	-1.912487385759651e+01
1	 6.691688853963903e-01	 1.596696496474879e+00	-1.897056915384503e+01
1	 7.009306162346232e-01	 1.583010763805463e+00	-1.885092301573084e+01
1	 7.325297430039632e-01	 1.568638601300982e+00	-1.876545799478904e+01
1	 7.639446964376899e-01	 1.553581486568007e+00	-1.871354090501501e+01
1	 7.951538315314448e-01	 1.537841778872595e+00	-1.869438158073737e+01
1	 8.261354716958057e-01	 1.521422729462971e+00	-1.870703244301655e+01
1	 8.568679539015170e-01	 1.504328489282564e+00	-1.875038890168070e+01
1	 8.873296746398861e-01	 1.486564113979399e+00	-1.882319061400343e+01
1	 9.174991365115293e-01	 1.468135566131464e+00	-1.892402361447748e+01
1	 9.473549952484640e-01	 1.449049714622316e+00	-1.905132332324791e+01
1	 6.349654017416988e-01	 1.603884016563440e+00	-1.955604364741685e+01
1	 6.667531132445409e-01	 1.590932249195874e+00	-1.939417738239014e+01
1	 6.984001807943253e-01	 1.577295923504088e+00	-1.926790561205995e+01
1	 7.298852312935586e-01	 1.562975646063195e+00	-1.917674368884228e+01
1	 7.611867733429118e-01	 1.547972889145446e+00	-1.912004765196396e+01
1	 7.922832400788360e-01	 1.532290003499692e+00	-1.909701295153561e+01
1	 8.231530331667453e-01	 1.515930228636796e+00	-1.910667399926899e+01
1	 8.537745677832657e-01	 1.498897700514833e+00	-1.914790457357498e+01
1	 8.841263184107115e-01	 1.481197456530390e+00	-1.921941910052459e+01
1	 9.141868652576398e-01	 1.462835437735902e+00	-1.931977482546820e+01
1	 9.439349411111866e-01	 1.443818488217510e+00	-1.944737488305476e+01
1	 6.326648024578820e-01	 1.598072842590502e+00	-1.998635900651423e+01
1	 6.643373410926917e-01	 1.585168001916874e+00	-1.981700073673555e+01
1	 6.958697453540272e-01	 1.571581083202732e+00	-1.968418072568920e+01
1	 7.272407195831545e-01	 1.557312690825451e+00	-1.958740707565516e+01
1	 7.584288502481338e-01	 1.542364291722963e+00	-1.952602497977561e+01
1	 7.894126486262273e-01	 1.526738228126910e+00	-1.949921541213958e+01
1	 8.201705946376848e-01	 1.510437727810798e+00	-1.950599466272819e+01
1	 8.506811816650145e-01	 1.493466911747343e+00	-1.954521474557504e+01
1	 8.809229621815372e-01	 1.475830799081697e+00	-1.961556470211224e+01
1	 9.108745940037504e-01	 1.457535309340740e+00	-1.971557281483264e+01
1	 9.405148869739093e-01	 1.438587261813201e+00	-1.984360973919718e+01
1	 6.303642031740651e-01	 1.592261668617564e+00	-2.041581057980796e+01
1	 6.619215689408426e-01	 1.579403754637879e+00	-2.023903062336866e+01
1	 6.933393099137291e-01	 1.565866242901396e+00	-2.009974061045778e+01
1	 7.245962078727504e-01	 1.551649735587752e+00	-1.999744134164518e+01
1	 7.556709271533560e-01	 1.536755694300558e+00	-1.993146709189039e+01
1	 7.865420571736188e-01	 1.521186452754252e+00	-1.990098426645296e+01
1	 8.171881561086243e-01	 1.504945226984976e+00	-1.990499091997017e+01
1	 8.475877955467630e-01	 1.488036122980094e+00	-1.994231716768315e+01
1	 8.777196059523629e-01	 1.470464141633318e+00	-2.001162651126790e+01
1	 9.075623227498608e-01	 1.452235180945978e+00	-2.011141809474353e+01
1	 9.370948328366319e-01	 1.433356035409385e+00	-2.024002989857070e+01
1	 6.280636038902480e-01	 1.586450494644626e+00	-2.084438887514624e+01
1	 6.595057967889933e-01	 1.573639507358888e+00	-2.066025832286376e+01
1	 6.908088744734305e-01	 1.560151402600078e+00	-2.051457740670814e+01
1	 7.219516961623461e-01	 1.545986780350096e+00	-2.040683957339713e+01
1	 7.529130040585783e-01	 1.531147096878231e+00	-2.033636810681779e+01
1	 7.836714657210101e-01	 1.515634677381714e+00	-2.030231474957192e+01
1	 8.142057175795641e-01	 1.499452726159330e+00	-2.030365920609205e+01
1	 8.444944094285118e-01	 1.482605334213086e+00	-2.033920955693414e+01
1	 8.745162497231885e-01	 1.465097484185255e+00	-2.040760360719669e+01
1	 9.042500514959712e-01	 1.446935052551616e+00	-2.050731118487856e+01
1	 9.336747786993542e-01	 1.428124809006065e+00	-2.063663739747577e+01
1	 6.257630046064310e-01	 1.580639320671688e+00	-2.127208426078687e+01
1	 6.570900246371442e-01	 1.567875260079903e+00	-2.108067498756876e+01
1	 6.882784390331327e-01	 1.554436562298780e+00	-2.092868313919939e+01
1	 7.193071844519418e-01	 1.540323825112483e+00	-2.081559475582785e+01
1	 7.501550809638003e-01	 1.525538499455982e+00	-2.074072205657437e+01
1	 7.808008742684015e-01	 1.510082902009299e+00	-2.070320202652078e+01
1	 8.112232790505033e-01	 1.493960225333861e+00	-2.070199590376611e+01
1	 8.414010233102607e-01	 1.477174545446319e+00	-2.073588959679014e+01
1	 8.713128934940141e-01	 1.459730826737508e+00	-2.080349505556247e+01
1	 9.009377802420815e-01	 1.441634924157653e+00	-2.090325261255751e+01
1	 9.302547245620765e-01	 1.422893582603239e+00	-2.103343430215858e+01
1	 6.234624053226140e-01	 1.574828146698750e+00	-2.169888696282161e+01
1	 6.546742524852950e-01	 1.562111012800922e+00	-2.150027163923898e+01
1	 6.857480035928343e-01	 1.548721721997501e+00	-2.134204971497537e+01
1	 7.166626727415374e-01	 1.534660869874914e+00	-2.122369977031058e+01
1	 7.473971578690223e-01	 1.519929902033811e+00	-2.114452288508886e+01
1	 7.779302828157929e-01	 1.504531126637006e+00	-2.110364119095882e+01
1	 8.082408405214427e-01	 1.488467724508568e+00	-2.109999734227236e+01
1	 8.383076371920096e-01	 1.471743756679791e+00	-2.113235493652045e+01
1	 8.681095372648396e-01	 1.454364169290075e+00	-2.119929990823826e+01
1	 8.976255089881922e-01	 1.436334795764090e+00	-2.129924291288343e+01
1	 9.268346704247993e-01	 1.417662356200907e+00	-2.143042270936316e+01
1	 6.211618060387971e-01	 1.569016972725812e+00	-2.212478706254383e+01
1	 6.522584803334457e-01	 1.556346765521946e+00	-2.191903916661870e+01
1	 6.832175681525360e-01	 1.543006881696241e+00	-2.175466892118349e+01
1	 7.140181610311332e-01	 1.528997914637390e+00	-2.163114739275721e+01
1	 7.446392347742444e-01	 1.514321304611717e+00	-2.154776444657011e+01
1	 7.750596913631842e-01	 1.498979351264834e+00	-2.150362726385872e+01
1	 8.052584019923822e-01	 1.482975223683451e+00	-2.149765979650948e+01
1	 8.352142510737581e-01	 1.466312967913504e+00	-2.152860319056946e+01
1	 8.649061810356652e-01	 1.448997511842957e+00	-2.159501720305071e+01
1	 8.943132377343024e-01	 1.431034667370927e+00	-2.169528262888680e+01
1	 9.234146162875218e-01	 1.412431129799070e+00	-2.182760474689682e+01
1	 9.576151576602960e-01	 1.464743393839698e+00	-1.786424878293511e+01
1	 9.874567378783929e-01	 1.444793776856937e+00	-1.766111828712133e+01
1	 1.016938784226008e+00	 1.424196369164125e+00	-1.736149792484945e+01
1	 1.046040470917851e+00	 1.402960829775318e+00	-1.696750646723785e+01
1	 1.074741317360356e+00	 1.381097701737783e+00	-1.648160520802228e+01
1	 1.103021234727538e+00	 1.358618396671805e+00	-1.590659140907582e+01
1	 1.130860571697504e+00	 1.335535176382025e+00	-1.524558991821060e+01
1	 1.158240159135642e+00	 1.311861131594515e+00	-1.450204299372437e+01
1	 1.185141353514628e+00	 1.287610157891568e+00	-1.367969838548363e+01
1	 1.211546078867196e+00	 1.262796928933673e+00	-1.278259573733994e+01
1	 1.237436867075000e+00	 1.237436867075000e+00	-1.181505139017171e+01
1	 9.541951035230191e-01	 1.459512167433410e+00	-1.825976220892245e+01
1	 9.839301066690574e-01	 1.439633799082169e+00	-1.804432358732734e+01
1	 1.013306859994129e+00	 1.419109953559193e+00	-1.772944036918728e+01
1	 1.042304612090747e+00	 1.397950255382059e+00	-1.731729093057019e+01
1	 1.070902955510322e+00	 1.376165209944294e+00	-1.681040687050852e+01
1	 1.099081873172677e+00	 1.353766188110397e+00	-1.621166628942785e+01
1	 1.126821783939212e+00	 1.330765407892851e+00	-1.552428518275102e+01
1	 1.154103587136508e+00	 1.307175913265134e+00	-1.475180698493778e+01
1	 1.180908705821268e+00	 1.283011550182459e+00	-1.389809031503461e+01
1	 1.207219128583251e+00	 1.258286939899386e+00	-1.296729499027686e+01
1	 1.233017449690250e+00	 1.233017449690250e+00	-1.196386638924570e+01
1	 9.507750493857414e-01	 1.454280941027615e+00	-1.865545308175725e+01
1	 9.804034754597267e-01	 1.434473821307986e+00	-1.842751512425077e+01
1	 1.009674935762269e+00	 1.414023537954916e+00	-1.809715719712728e+01
1	 1.038568753263687e+00	 1.392939680989506e+00	-1.766661757373028e+01
1	 1.067064593660368e+00	 1.371232718151542e+00	-1.713849850518276e+01
1	 1.095142511617941e+00	 1.348913979549737e+00	-1.651575933099923e+01
1	 1.122782996181099e+00	 1.325995639404415e+00	-1.580170764749707e+01
1	 1.149967015137618e+00	 1.302490694936461e+00	-1.499998857007621e+01
1	 1.176676058128227e+00	 1.278412942474010e+00	-1.411457214171992e+01
1	 1.202892178299711e+00	 1.253776950865690e+00	-1.314973895601942e+01
1	 1.228598032306000e+00	 1.228598032306000e+00	-1.211006407844221e+01
1	 9.473549952484640e-01	 1.449049714622316e+00	-1.905132332324791e+01
1	 9.768768442504012e-01	 1.429313843534388e+00	-1.881069274883172e+01
1	 1.006043011530430e+00	 1.408937122351295e+00	-1.846464596517093e+01
1	 1.034832894436672e+00	 1.387929106597658e+00	-1.801548143837678e+01
1	 1.063226231810493e+00	 1.366300226359527e+00	-1.746587242221322e+01
1	 1.091203150063329e+00	 1.344061770989825e+00	-1.681885990015660e+01
1	 1.118744208423166e+00	 1.321225870916718e+00	-1.607784352761318e+01
1	 1.145830443138972e+00	 1.297805476608498e+00	-1.524657061116739e+01
1	 1.172443410435505e+00	 1.273814334766221e+00	-1.432912317850433e+01
1	 1.198565228016576e+00	 1.249266961832584e+00	-1.332990320907415e+01
1	 1.224178614922250e+00	 1.224178614922250e+00	-1.225361611144506e+01
1	 9.439349411111866e-01	 1.443818488217510e+00	-1.944737488305476e+01
1	 9.733502130410799e-01	 1.424153865761374e+00	-1.919385630984966e+01
1	 1.002411087298610e+00	 1.403850706748329e+00	-1.883190419440680e+01
1	 1.031097035609702e+00	 1.382918532206518e+00	-1.836387749430880e+01
1	 1.059387869960698e+00	 1.361367734568249e+00	-1.779252082032071e+01
1	 1.087263788508843e+00	 1.339209562430661e+00	-1.712095720915572e+01
1	 1.114705420665412e+00	 1.316456102429760e+00	-1.635267883848316e+01
1	 1.141693871140572e+00	 1.293120258281244e+00	-1.549153572186242e+01
1	 1.168210762743105e+00	 1.269215727059091e+00	-1.454172243854087e+01
1	 1.194238277733846e+00	 1.244756972800067e+00	-1.350776296995508e+01
1	 1.219759197539001e+00	 1.219759197539001e+00	-1.239449373112177e+01
1	 9.405148869739093e-01	 1.438587261813201e+00	-1.984360973919718e+01
1	 9.698235818317642e-01	 1.418993887988946e+00	-1.957700565388520e+01
1	 9.987791630668097e-01	 1.398764291146019e+00	-1.919892936986655e+01
1	 1.027361176782776e+00	 1.377907957816084e+00	-1.871180063815843e+01
1	 1.055549508110983e+00	 1.356435242777708e+00	-1.811843578475327e+01
1	 1.083324426954481e+00	 1.334357353872245e+00	-1.742204031334006e+01
1	 1.110666632907838e+00	 1.311686333943541e+00	-1.662619939207836e+01
1	 1.137557299142417e+00	 1.288435039954700e+00	-1.573486626291998e+01
1	 1.163978115051024e+00	 1.264617119352621e+00	-1.475234862971882e+01
1	 1.189911327451521e+00	 1.240246983768141e+00	-1.368329309874768e+01
1	 1.215339780156250e+00	 1.215339780156250e+00	-1.253266776205451e+01
1	 9.370948328366319e-01	 1.433356035409385e+00	-2.024002989857070e+01
1	 9.662969506224535e-01	 1.413833910217103e+00	-1.996014062527855e+01
1	 9.951472388350296e-01	 1.393677875544364e+00	-1.956571893986706e+01
1	 1.023625317955896e+00	 1.372897383426356e+00	-1.905924569205648e+01
1	 1.051711146261348e+00	 1.351502750987905e+00	-1.844360928521505e+01
1	 1.079385065400243e+00	 1.329505145314577e+00	-1.772209810827708e+01
1	 1.106627845150444e+00	 1.306916565458059e+00	-1.689839079324567e+01
1	 1.133420727144506e+00	 1.283749821628865e+00	-1.597654433759179e+01
1	 1.159745467359262e+00	 1.260018511646811e+00	-1.496098014909433e+01
1	 1.185584377169602e+00	 1.235736994736804e+00	-1.385646808853086e+01
1	 1.210920362774000e+00	 1.210920362774000e+00	-1.266810860290690e+01
1	 9.336747786993542e-01	 1.428124809006065e+00	-2.063663739747577e+01
1	 9.627703194131474e-01	 1.408673932445844e+00	-2.034326106608940e+01
1	 9.915153146032691e-01	 1.388591459943365e+00	-1.993227031533768e+01
1	 1.019889459129059e+00	 1.367886809037334e+00	-1.940620740226728e+01
1	 1.047872784411792e+00	 1.346570259198838e+00	-1.876803317375019e+01
1	 1.075445703846130e+00	 1.324652936757657e+00	-1.802111932683158e+01
1	 1.102589057393229e+00	 1.302146796973317e+00	-1.716923843591395e+01
1	 1.129284155146840e+00	 1.279064603303739e+00	-1.621655178690615e+01
1	 1.155512819667821e+00	 1.255419903941660e+00	-1.516759507719670e+01
1	 1.181257426888086e+00	 1.231227005706057e+00	-1.402726205865619e+01
1	 1.206500945392250e+00	 1.206500945392250e+00	-1.280078621862363e+01
1	 9.302547245620765e-01	 1.422893582603239e+00	-2.103343430215858e+01
1	 9.592436882038468e-01	 1.403513954675170e+00	-2.072636681605498e+01
1	 9.878833903715288e-01	 1.383505044343021e+00	-2.029858086913334e+01
1	 1.016153600302269e+00	 1.362876234649018e+00	-1.975268043779446e+01
1	 1.044034422562316e+00	 1.341637767410509e+00	-1.909169918257978e+01
1	 1.071506342292142e+00	 1.319800728201485e+00	-1.831909253617573e+01
1	 1.098550269636194e+00	 1.297377028489314e+00	-1.743872749921709e+01
1	 1.125147583149418e+00	 1.274379384979323e+00	-1.645487018484765e+01
1	 1.151280171976699e+00	 1.250821296237169e+00	-1.537217117221022e+01
1	 1.176930476606976e+00	 1.226717016675901e+00	-1.419564874787749e+01
1	 1.202081528011000e+00	 1.202081528011000e+00	-1.293067013245726e+01
1	 9.268346704247993e-01	 1.417662356200907e+00	-2.143042270936316e+01
1	 9.557170569945506e-01	 1.398353976905081e+00	-2.110945771254666e+01
1	 9.842514661398081e-01	 1.378418628743332e+00	-2.066464793533207e+01
1	 1.012417741475522e+00	 1.357865660261409e+00	-2.009865938895521e+01
1	 1.040196060712919e+00	 1.336705275622917e+00	-1.941459892189170e+01
1	 1.067566980738279e+00	 1.314948519646061e+00	-1.861600613473103e+01
1	 1.094511481879339e+00	 1.292607260006049e+00	-1.770684294353046e+01
1	 1.121011011152242e+00	 1.269694166655615e+00	-1.669148083343008e+01
1	 1.147047524285897e+00	 1.246222688533338e+00	-1.557468586402644e+01
1	 1.172603526326271e+00	 1.222207027646334e+00	-1.436160150732867e+01
1	 1.197662110630251e+00	 1.197662110630251e+00	-1.305772941781909e+01
1	 9.234146162875218e-01	 1.412431129799070e+00	-2.182760474689682e+01
1	 9.521904257852591e-01	 1.393193999135577e+00	-2.149253359052712e+01
1	 9.806195419081072e-01	 1.373332213144299e+00	-2.103046880851642e+01
1	 1.008681882648820e+00	 1.352855085874506e+00	-2.044413876592339e+01
1	 1.036357698863603e+00	 1.331772783836062e+00	-1.973672387757990e+01
1	 1.063627619184540e+00	 1.310096311091385e+00	-1.891184834904400e+01
1	 1.090472694122663e+00	 1.287837491523523e+00	-1.797356950642074e+01
1	 1.116874439155310e+00	 1.265008948332617e+00	-1.692636475766029e+01
1	 1.142814876595415e+00	 1.241624080830166e+00	-1.577511624816523e+01
1	 1.168276576045971e+00	 1.217697038617357e+00	-1.452509329334580e+01
1	 1.193242693250000e+00	 1.193242693250000e+00	-1.318193268994890e+01
1	 1.237436867075000e+00	 1.237436867075000e+00	-1.181505139017171e+01
1	 1.262796916033183e+00	 1.211546098524362e+00	-1.078558800050724e+01
1	 1.287610106441662e+00	 1.185141431973865e+00	-9.731375881429006e+00
1	 1.311861016191946e+00	 1.158240335244118e+00	-8.655870886401519e+00
1	 1.335534971891927e+00	 1.130860883947535e+00	-7.562592256775892e+00
1	 1.358618078249374e+00	 1.103021721200889e+00	-6.455108841889025e+00
1	 1.381097244848932e+00	 1.074742015674165e+00	-5.337025121854171e+00
1	 1.402960210216252e+00	 1.046041418172353e+00	-4.211967124765889e+00
1	 1.424195563079837e+00	 1.016940016954224e+00	-3.083568330228074e+00
1	 1.444792760758599e+00	 9.874582919979621e-01	-1.955455650386253e+00
1	 1.464742144620942e+00	 9.576170684275745e-01	-8.312355780043088e-01
1	 1.233017449690250e+00	 1.233017449690250e+00	-1.196386638924570e+01
1	 1.258286927044970e+00	 1.207219148170214e+00	-1.090308111459975e+01
1	 1.283011498916303e+00	 1.180908784000293e+00	-9.820511511130322e+00
1	 1.307175798274717e+00	 1.154103762616025e+00	-8.719530529160163e+00
1	 1.330765204133074e+00	 1.126822095074064e+00	-7.603563877503401e+00
1	 1.353765870825189e+00	 1.099082357908623e+00	-6.476076715872978e+00
1	 1.376164754687189e+00	 1.070903651330154e+00	-5.340560201603526e+00
1	 1.397949638035703e+00	 1.042305555962196e+00	-4.200517978502972e+00
1	 1.419109150353777e+00	 1.013308088319744e+00	-3.059452695467789e+00
1	 1.439632786612753e+00	 9.839316552381995e-01	-1.920852641447960e+00
1	 1.459510922676149e+00	 9.541970074661281e-01	-7.881785814434301e-01
1	 1.228598032306000e+00	 1.228598032306000e+00	-1.211006407844221e+01
1	 1.253776938057347e+00	 1.202892197816470e+00	-1.101818488848426e+01
1	 1.278412891391604e+00	 1.176676136027041e+00	-9.907505804734736e+00
1	 1.302490580358196e+00	 1.149967189988176e+00	-8.781316376964080e+00
1	 1.325995436374960e+00	 1.122783306200772e+00	-7.642948234856978e+00
1	 1.348913663401752e+00	 1.095142994616482e+00	-6.495762254829465e+00
1	 1.371232264526182e+00	 1.067065286986221e+00	-5.343135633001379e+00
1	 1.392939065855861e+00	 1.038569693752084e+00	-4.188448948214047e+00
1	 1.414022737628372e+00	 1.009676159685283e+00	-3.035073298435158e+00
1	 1.434472812467493e+00	 9.804050184784417e-01	-1.886357592524923e+00
1	 1.454279700731850e+00	 9.507769465046818e-01	-7.456160771652733e-01
1	 1.224178614922250e+00	 1.224178614922250e+00	-1.225361611144506e+01
1	 1.249266949070314e+00	 1.198565247463131e+00	-1.113087344483017e+01
1	 1.273814283867564e+00	 1.172443488054109e+00	-9.992335570876781e+00
1	 1.297805362442385e+00	 1.145830617360572e+00	-8.841208136005067e+00
1	 1.321225668617584e+00	 1.118744517327660e+00	-7.680728138258562e+00
1	 1.344061455979063e+00	 1.091203631324466e+00	-6.514151570653173e+00
1	 1.366299774365914e+00	 1.063226922642369e+00	-5.344741022743644e+00
1	 1.387928493676725e+00	 1.034833831542018e+00	-4.175753320352615e+00
1	 1.408936324903623e+00	 1.006044231050843e+00	-3.010427282497751e+00
1	 1.429312838322816e+00	 9.768783817186889e-01	-1.851971672857474e+00
1	 1.449048478788046e+00	 9.473568855432356e-01	-7.035534206797569e-01
1	 1.219759197539001e+00	 1.219759197539001e+00	-1.239449373112177e+01
1	 1.244756960083870e+00	 1.194238297110197e+00	-1.124112053127324e+01
1	 1.269215676344184e+00	 1.168210840081496e+00	-1.007497728208430e+01
1	 1.293120144527284e+00	 1.141694044733213e+00	-8.899185218362154e+00
1	 1.316455900860948e+00	 1.114705728454728e+00	-7.716886147991331e+00
1	 1.339209248557122e+00	 1.087264268032574e+00	-6.531230573962128e+00
1	 1.361367284206382e+00	 1.059388558298596e+00	-5.345365826898841e+00
1	 1.382917921498295e+00	 1.031097969331996e+00	-4.162424284074833e+00
1	 1.403849912179531e+00	 1.002412302416422e+00	-2.985511749622678e+00
1	 1.424152864178726e+00	 9.733517449589412e-01	-1.817696068631376e+00
1	 1.443817256844737e+00	 9.439368245817893e-01	-6.619960451126907e-01
1	 1.215339780156250e+00	 1.215339780156250e+00	-1.253266776205451e+01
1	 1.240246971098017e+00	 1.189911346757668e+00	-1.134889951359674e+01
1	 1.264617068821463e+00	 1.163978192109203e+00	-1.015540706866748e+01
1	 1.288434926612891e+00	 1.137557472106099e+00	-8.955226736653596e+00
1	 1.311686133105050e+00	 1.110666939581975e+00	-7.751404570669838e+00
1	 1.334357041135929e+00	 1.083324904740808e+00	-6.546984970437701e+00
1	 1.356434794047586e+00	 1.055550193954903e+00	-5.344999348169033e+00
1	 1.377907349320572e+00	 1.027362107122018e+00	-4.148454929469507e+00
1	 1.398763499456092e+00	 9.987803737820213e-01	-2.960323759623837e+00
1	 1.418992890035220e+00	 9.698251081991982e-01	-1.783531983286028e+00
1	 1.438586034901923e+00	 9.405167636203432e-01	-6.209494626173282e-01
1	 1.210920362774000e+00	 1.210920362774000e+00	-1.266810860290690e+01
1	 1.235736982112754e+00	 1.185584396405543e+00	-1.145418336876313e+01
1	 1.260018461299402e+00	 1.159745544137230e+00	-1.023360071247392e+01
1	 1.283749708699208e+00	 1.133420899479229e+00	-9.009311498572274e+00
1	 1.306916365349891e+00	 1.106628150709403e+00	-7.784265454611118e+00
1	 1.329504833715484e+00	 1.079385541449165e+00	-6.561400257085152e+00
1	 1.351502303889529e+00	 1.051711829611290e+00	-5.343630733091505e+00
1	 1.372896777143555e+00	 1.023626244912086e+00	-4.133838245751302e+00
1	 1.393677086733310e+00	 9.951484451476404e-01	-2.934860329392636e+00
1	 1.413832915892299e+00	 9.662984714394602e-01	-1.749480637829242e+00
1	 1.433354812959603e+00	 9.370967026588970e-01	-5.804192658162199e-01
1	 1.206500945392250e+00	 1.206500945392250e+00	-1.280078621862363e+01
1	 1.231226993128080e+00	 1.181257446053824e+00	-1.155694467779330e+01
1	 1.255419853778001e+00	 1.155512896165577e+00	-1.030953364050642e+01
1	 1.279064490786235e+00	 1.129284326852604e+00	-9.061418001301357e+00
1	 1.302146597595471e+00	 1.102589361837010e+00	-7.815450585103867e+00
1	 1.324652626295787e+00	 1.075446178157648e+00	-6.574461718411738e+00
1	 1.346569813732208e+00	 1.047873465267756e+00	-5.341248969178252e+00
1	 1.367886204967244e+00	 1.019890382702198e+00	-4.118567119412482e+00
1	 1.388590674011183e+00	 9.915165165132792e-01	-2.909118432112026e+00
1	 1.408672941749963e+00	 9.627718346797273e-01	-1.715543271159057e+00
1	 1.428123591017778e+00	 9.336766416974507e-01	-5.404111292751534e-01
1	 1.202081528011000e+00	 1.202081528011000e+00	-1.293067013245726e+01
1	 1.226717004143997e+00	 1.176930495702510e+00	-1.165715561848762e+01
1	 1.250821246257260e+00	 1.151280248194244e+00	-1.038318091840037e+01
1	 1.274379272873970e+00	 1.125147754226224e+00	-9.111524425805854e+00
1	 1.297376829841789e+00	 1.098550572964796e+00	-7.844941479573221e+00
1	 1.319800418876838e+00	 1.071506814866255e+00	-6.586154422520242e+00
1	 1.341637323575625e+00	 1.044035100924302e+00	-5.337842881993289e+00
1	 1.362875632791639e+00	 1.016154520492355e+00	-4.102634332334981e+00
1	 1.383504261289712e+00	 9.878845878789381e-01	-2.883094996452934e+00
1	 1.403512967608212e+00	 9.592451979199993e-01	-1.681721140392749e+00
1	 1.422892369076447e+00	 9.302565807360043e-01	-5.009308110094155e-01
1	 1.197662110630251e+00	 1.197662110630251e+00	-1.305772941781909e+01
1	 1.222207015160503e+00	 1.172603545351601e+00	-1.175478795798691e+01
1	 1.246222638737179e+00	 1.147047600223230e+00	-1.045451724375621e+01
1	 1.269694054962415e+00	 1.121011181600089e+00	-9.159608630998688e+00
1	 1.292607062088846e+00	 1.094511784092762e+00	-7.872719382639147e+00
1	 1.314948211458637e+00	 1.067567451574987e+00	-6.596463217116542e+00
1	 1.336704833419779e+00	 1.040196736580928e+00	-5.333401132163891e+00
1	 1.357865060616741e+00	 1.012418658282557e+00	-4.086032559860239e+00
1	 1.378417848568896e+00	 9.842526592446166e-01	-2.856786905752869e+00
1	 1.398352993467046e+00	 9.557185611602764e-01	-1.648015521202554e+00
1	 1.417661147135612e+00	 9.268365197745582e-01	-4.619841540233547e-01
1	 1.193242693250000e+00	 1.193242693250000e+00	-1.318193268994890e+01
1	 1.217697026177599e+00	 1.168276595001096e+00	-1.184981304516732e+01
1	 1.241624031217757e+00	 1.142814952252537e+00	-1.052351693932400e+01
1	 1.265008837051568e+00	 1.116874608974198e+00	-9.205648147777003e+00
1	 1.287837294336642e+00	 1.090472995220908e+00	-7.898765261063907e+00
1	 1.310096004041184e+00	 1.063628088283843e+00	-6.605372725428225e+00
1	 1.331772343264670e+00	 1.036358372237633e+00	-5.327912212326765e+00
1	 1.352854488442549e+00	 1.008682796072803e+00	-4.068754368816228e+00
1	 1.373331435848735e+00	 9.806207306103151e-01	-2.830190997176775e+00
1	 1.393193019326464e+00	 9.521919244005580e-01	-1.614427708159834e+00
1	 1.412429925195270e+00	 9.234164588131115e-01	-4.235770878845677e-01
1	 1.464742144620942e+00	 9.576170684275745e-01	-8.312355780043090e-01
1	 1.484034952579334e+00	 9.274374693167077e-01	-4.962774602786317e-01
1	 1.502663328601820e+00	 8.969408680863410e-01	-2.150549462347868e-01
1	 1.520620329240370e+00	 8.661488407132030e-01	 1.415063824935903e-02
1	 1.537899927193651e+00	 8.350831179629201e-01	 1.931821401162379e-01
1	 1.554497011938170e+00	 8.037655378569364e-01	 3.239968102126212e-01
1	 1.570407387478668e+00	 7.722179985775096e-01	 4.086561818320300e-01
1	 1.585627767284233e+00	 7.404624120079153e-01	 4.493156701248660e-01
1	 1.600155766491363e+00	 7.085206580967055e-01	 4.482139659418682e-01
1	 1.613989891469035e+00	 6.764145402254385e-01	 4.076622971090460e-01
1	 1.627129526853478e+00	 6.441657417487923e-01	 3.300336288736432e-01
1	 1.459510922676149e+00	 9.541970074661281e-01	-7.881785814434306e-01
1	 1.478734827749505e+00	 9.241251926376627e-01	-4.566090377697776e-01
1	 1.497296673858032e+00	 8.937375078401705e-01	-1.770432282755989e-01
1	 1.515189542351728e+00	 8.630554519933195e-01	 5.210605582013517e-02
1	 1.532407427455337e+00	 8.321006782528600e-01	 2.325461325187534e-01
1	 1.548945236897235e+00	 8.008949466473003e-01	 3.660952978383021e-01
1	 1.564798789667865e+00	 7.694600771511049e-01	 4.546733470847737e-01
1	 1.579964810973924e+00	 7.378179033908228e-01	 5.002918176851991e-01
1	 1.594440924469281e+00	 7.059902271723317e-01	 5.050440229354571e-01
1	 1.608225641857312e+00	 6.739987740079695e-01	 4.710949455968003e-01
1	 1.621318349971974e+00	 6.418651498118617e-01	 4.006710592002980e-01
1	 1.454279700731850e+00	 9.507769465046818e-01	-7.456160771652738e-01
1	 1.473434702920077e+00	 9.208129159586179e-01	-4.171143642241546e-01
1	 1.491930019114560e+00	 8.905341475940000e-01	-1.388739602598634e-01
1	 1.509758755463326e+00	 8.599620632734364e-01	 9.056017931131577e-02
1	 1.526914927717198e+00	 8.291182385428000e-01	 2.727591281436463e-01
1	 1.543393461856423e+00	 7.980243554376644e-01	 4.094014982127061e-01
1	 1.559190191857140e+00	 7.667021557247002e-01	 5.022646065726235e-01
1	 1.574301854663657e+00	 7.351733947737302e-01	 5.532153643651900e-01
1	 1.588726082447218e+00	 7.034597962479577e-01	 5.642009532045871e-01
1	 1.602461392245593e+00	 6.715830077905006e-01	 5.372393537916991e-01
1	 1.615507173090471e+00	 6.395645578749309e-01	 4.744097907217801e-01
1	 1.449048478788046e+00	 9.473568855432356e-01	-7.035534206797571e-01
1	 1.468134578091048e+00	 9.175006392795728e-01	-3.777953213974232e-01
1	 1.486563364371402e+00	 8.873307873478292e-01	-1.005454358676745e-01
1	 1.504327968575165e+00	 8.568686745535533e-01	 1.295184098716449e-01
1	 1.521422427979236e+00	 8.261357988327396e-01	 3.138303219729852e-01
1	 1.537841686815733e+00	 7.951537642280284e-01	 4.539284912583272e-01
1	 1.553581594046492e+00	 7.639442342982956e-01	 5.514470082484237e-01
1	 1.568638898353436e+00	 7.325288861566375e-01	 6.081074011307106e-01
1	 1.583011240425175e+00	 7.009293653235840e-01	 6.257099575433218e-01
1	 1.596697142633881e+00	 6.691672415730318e-01	 6.061248909327239e-01
1	 1.609695996208967e+00	 6.372639659380006e-01	 5.512834115378098e-01
1	 1.443817256844737e+00	 9.439368245817893e-01	-6.619960451126909e-01
1	 1.462834453262419e+00	 9.141883626005279e-01	-3.386538183170842e-01
1	 1.481196709628560e+00	 8.841274271016588e-01	-6.205592404955240e-02
1	 1.498897181687245e+00	 8.537752858336702e-01	 1.689862269272573e-01
1	 1.515929928241450e+00	 8.231533591226793e-01	 3.557690422493844e-01
1	 1.532289911775165e+00	 7.922831730183925e-01	 4.996895464618425e-01
1	 1.547972996235923e+00	 7.611863128718913e-01	 6.022378471368364e-01
1	 1.562975942043257e+00	 7.298843775395452e-01	 6.649893246137506e-01
1	 1.577296398403151e+00	 6.983989343992100e-01	 6.895966019746003e-01
1	 1.590932893022171e+00	 6.667514753555630e-01	 6.777813519000297e-01
1	 1.603884819327464e+00	 6.349633740010702e-01	 6.313259965321560e-01
1	 1.438586034901923e+00	 9.405167636203432e-01	-6.209494626173282e-01
1	 1.457534328434190e+00	 9.108760859214828e-01	-2.996917917783279e-01
1	 1.475830054886033e+00	 8.809240668554883e-01	-2.340366857727960e-02
1	 1.493466394799566e+00	 8.506818971137871e-01	 2.089691896051764e-01
1	 1.510437428503841e+00	 8.201709194126192e-01	 3.985847528990993e-01
1	 1.526738136734718e+00	 7.894125818087562e-01	 5.466981263205748e-01
1	 1.542364398425431e+00	 7.584283914454865e-01	 6.546546698264679e-01
1	 1.557312985733122e+00	 7.272398689224523e-01	 7.238828426700783e-01
1	 1.571581556381146e+00	 6.958685034748362e-01	 7.558868243908230e-01
1	 1.585168643410467e+00	 6.643357091380940e-01	 7.522389649538179e-01
1	 1.598073642445961e+00	 6.326627820641394e-01	 7.145721162232692e-01
1	 1.433354812959603e+00	 9.370967026588970e-01	-5.804192658162199e-01
1	 1.452234203606361e+00	 9.075638092424378e-01	-2.609112068507615e-01
1	 1.470463400143820e+00	 8.777207066093173e-01	 1.541311241578480e-02
1	 1.488035607912126e+00	 8.475885083939039e-01	 2.494729381874461e-01
1	 1.504944928766408e+00	 8.171884797025587e-01	 4.422870560078092e-01
1	 1.521186361694395e+00	 7.865419905991204e-01	 5.949678898647068e-01
1	 1.536755800615017e+00	 7.556704700190818e-01	 7.087152790605893e-01
1	 1.551650029423030e+00	 7.245953603053598e-01	 7.848099800584798e-01
1	 1.565866714359160e+00	 6.933380725504623e-01	 8.246069413397379e-01
1	 1.579404393798768e+00	 6.619199429206253e-01	 8.295283996427687e-01
1	 1.592262465564457e+00	 6.303621901272088e-01	 8.010568458086884e-01
1	 1.428123591017778e+00	 9.336766416974507e-01	-5.404111292751523e-01
1	 1.446934078778932e+00	 9.042515325633932e-01	-2.223140573961815e-01
1	 1.465096745401924e+00	 8.745173463631473e-01	 5.439622690419776e-02
1	 1.482604821024928e+00	 8.444951196740208e-01	 2.905031955976969e-01
1	 1.499452429029151e+00	 8.142060399924986e-01	 4.868856943511095e-01
1	 1.515634586654192e+00	 7.836713993894843e-01	 6.445126962567254e-01
1	 1.531147202804681e+00	 7.529125485926772e-01	 7.644377384284422e-01
1	 1.545987073112983e+00	 7.219508516882671e-01	 8.477930842447896e-01
1	 1.560151872337194e+00	 6.908076416260885e-01	 8.957836549595470e-01
1	 1.573640144187073e+00	 6.595041767031564e-01	 9.096807748862721e-01
1	 1.586451288682954e+00	 6.280615981902782e-01	 8.908157744082887e-01
1	 1.422892369076447e+00	 9.302565807360043e-01	-5.009308110094142e-01
1	 1.441633953951902e+00	 9.009392558843482e-01	-1.839023665978963e-01
1	 1.459730090660342e+00	 8.713139861169766e-01	 9.354750945036439e-02
1	 1.477174034137970e+00	 8.414017309541376e-01	 3.320657689201676e-01
1	 1.493959929292071e+00	 8.112236002824385e-01	 5.323905539807197e-01
1	 1.510082811614113e+00	 7.808008081798482e-01	 6.953466084703437e-01
1	 1.525538604994423e+00	 7.501546271662725e-01	 8.218403771603764e-01
1	 1.540324116802979e+00	 7.193063430711746e-01	 9.128548313341012e-01
1	 1.554437030315247e+00	 6.882772107017145e-01	 9.694440600669429e-01
1	 1.567875894575384e+00	 6.570884104856877e-01	 9.927276672348624e-01
1	 1.580640111801451e+00	 6.257610062533476e-01	 9.838850145113409e-01
1	 1.417661147135612e+00	 9.268365197745582e-01	-4.619841540233545e-01
1	 1.436333829125272e+00	 8.976269792053033e-01	-1.456781875016864e-01
1	 1.454363435919075e+00	 8.681106258708061e-01	 1.328688216951648e-01
1	 1.471743247251253e+00	 8.383083422342545e-01	 3.741665509524650e-01
1	 1.488467429555167e+00	 8.082411605723780e-01	 5.788116668680092e-01
1	 1.504531036574154e+00	 7.779302169702123e-01	 7.474838970508138e-01
1	 1.519930007184242e+00	 7.473967057398677e-01	 8.809417950288132e-01
1	 1.534661160493019e+00	 7.166618344540818e-01	 9.800182321341329e-01
1	 1.548722188293320e+00	 6.857467797773406e-01	 1.045615651402153e+00
1	 1.562111644963699e+00	 6.546726442682188e-01	 1.078701119313602e+00
1	 1.574828934919947e+00	 6.234604143164171e-01	 1.080301211632795e+00
1	 1.412429925195270e+00	 9.234164588131115e-01	-4.235770878845688e-01
1	 1.431033704299042e+00	 8.943147025262581e-01	-1.076436035688688e-01
1	 1.448996781178124e+00	 8.649072656246353e-01	 1.723620528592653e-01
1	 1.466312460364777e+00	 8.352149535143712e-01	 4.168115217930424e-01
1	 1.482974929818439e+00	 8.052587208623176e-01	 6.261592136060345e-01
1	 1.498979261534318e+00	 7.750596257605761e-01	 8.009390439588968e-01
1	 1.514321409374140e+00	 7.446387843134631e-01	 9.417608673584439e-01
1	 1.528998204183102e+00	 7.140173258369892e-01	 1.049306638353489e+00
1	 1.543007346271411e+00	 6.832163488529668e-01	 1.124326331034868e+00
1	 1.556347395352019e+00	 6.522568780507498e-01	 1.167633648453174e+00
1	 1.569017758038443e+00	 6.211598223794864e-01	 1.180101554184114e+00
1	 1.627129526853478e+00	 6.441657417487923e-01	 3.300336288736436e-01
1	 1.639574920171458e+00	 6.117957838646145e-01	 6.617089652614692e-01
1	 1.651327164182859e+00	 5.793259849590472e-01	 9.780751337856459e-01
1	 1.662388177080195e+00	 5.467774215590894e-01	 1.279855003716488e+00
1	 1.672760680690260e+00	 5.141708910118739e-01	 1.567787445546694e+00
1	 1.682448176831636e+00	 4.815268759957910e-01	 1.842623786916228e+00
1	 1.691454921985005e+00	 4.488655109548258e-01	 2.105124347456113e+00
1	 1.699785900437286e+00	 4.162065505333913e-01	 2.356055070781488e+00
1	 1.707446796062950e+00	 3.835693400749197e-01	 2.596184270257623e+00
1	 1.714443962906949e+00	 3.509727882336208e-01	 2.826279503483198e+00
1	 1.720784394733555e+00	 3.184353417352296e-01	 3.047104588704372e+00
1	 1.621318349971974e+00	 6.418651498118617e-01	 4.006710592002987e-01
1	 1.633719295456116e+00	 6.096107989203806e-01	 7.425651279790288e-01
1	 1.645429567167011e+00	 5.772569635825215e-01	 1.067615584694426e+00
1	 1.656451076446484e+00	 5.448246450519741e-01	 1.376595165959182e+00
1	 1.666786535400518e+00	 5.123345663996317e-01	 1.670295864167101e+00
1	 1.676439433341199e+00	 4.798071371514629e-01	 1.949525075873838e+00
1	 1.685414011547491e+00	 4.472624198427252e-01	 2.215101825661178e+00
1	 1.693715236505287e+00	 4.147200985655311e-01	 2.467853085765435e+00
1	 1.701348771789506e+00	 3.821994495728014e-01	 2.708610210063208e+00
1	 1.708320948752079e+00	 3.497193139878389e-01	 2.938205499232596e+00
1	 1.714638736179549e+00	 3.172980726552168e-01	 3.157468912070083e+00
1	 1.615507173090471e+00	 6.395645578749309e-01	 4.744097907217815e-01
1	 1.627863670740775e+00	 6.074258139761521e-01	 8.264140096322230e-01
1	 1.639531970151163e+00	 5.751879422060175e-01	 1.160031864361924e+00
1	 1.650513975812773e+00	 5.428718685449069e-01	 1.476086274363874e+00
1	 1.660812390110775e+00	 5.104982417874746e-01	 1.775422682091587e+00
1	 1.670430689850761e+00	 4.780873983072672e-01	 2.058904892409668e+00
1	 1.679373101109976e+00	 4.456593287308140e-01	 2.327410984047392e+00
1	 1.687644572573288e+00	 4.132336465979271e-01	 2.581829315434539e+00
1	 1.695250747516062e+00	 3.808295590710160e-01	 2.823054645490367e+00
1	 1.702197934597210e+00	 3.484658397424763e-01	 3.051984388065700e+00
1	 1.708493077625543e+00	 3.161608035757187e-01	 3.269515016791370e+00
1	 1.609695996208967e+00	 6.372639659380006e-01	 5.512834115378105e-01
1	 1.622008046025433e+00	 6.052408290319288e-01	 9.132880223395865e-01
1	 1.633634373135315e+00	 5.731189208295349e-01	 1.255355118948095e+00
1	 1.644576875179061e+00	 5.409190920378876e-01	 1.578358122571454e+00
1	 1.654838244821033e+00	 5.086619171754027e-01	 1.883196257435511e+00
1	 1.664421946360324e+00	 4.763676594632035e-01	 2.170790079782870e+00
1	 1.673332190672463e+00	 4.440562376190924e-01	 2.442077075468911e+00
1	 1.681573908641290e+00	 4.117471946305797e-01	 2.698007350561777e+00
1	 1.689152723242618e+00	 3.794596685695639e-01	 2.939539437502780e+00
1	 1.696074920442340e+00	 3.472123654975331e-01	 3.167636237416863e+00
1	 1.702347419071536e+00	 3.150235344967353e-01	 3.383261117107009e+00
1	 1.603884819327464e+00	 6.349633740010702e-01	 6.313259965321567e-01
1	 1.616152421310092e+00	 6.030558440877111e-01	 1.003220047960548e+00
1	 1.627736776119467e+00	 5.710498994530735e-01	 1.353616946006530e+00
1	 1.638639774545350e+00	 5.389663155309167e-01	 1.683440936014694e+00
1	 1.648864099531291e+00	 5.068255925634157e-01	 1.993645359301448e+00
1	 1.658413202869887e+00	 4.746479206192722e-01	 2.285207870285368e+00
1	 1.667291280234948e+00	 4.424531465075600e-01	 2.559125718763316e+00
1	 1.675503244709291e+00	 4.102607426634889e-01	 2.816411123815437e+00
1	 1.683054698969174e+00	 3.780897780684449e-01	 3.058086763889700e+00
1	 1.689951906287470e+00	 3.459588912530090e-01	 3.285181405552866e+00
1	 1.696201760517529e+00	 3.138862654182666e-01	 3.498725691230242e+00
1	 1.598073642445961e+00	 6.326627820641394e-01	 7.145721162232685e-01
1	 1.610296796594750e+00	 6.008708591434985e-01	 1.096243446636105e+00
1	 1.621839179103619e+00	 5.689808780766340e-01	 1.454849402691626e+00
1	 1.632702673911638e+00	 5.370135390239934e-01	 1.791365379769072e+00
1	 1.642889954241549e+00	 5.049892679515139e-01	 2.106799175251643e+00
1	 1.652404459379450e+00	 4.729281817754732e-01	 2.402185892315153e+00
1	 1.661250369797434e+00	 4.408500553962173e-01	 2.678582905405855e+00
1	 1.669432580777292e+00	 4.087742906966545e-01	 2.937064915975384e+00
1	 1.676956674695729e+00	 3.767198875676591e-01	 3.178719125026389e+00
1	 1.683828892132600e+00	 3.447054170089043e-01	 3.404640546860770e+00
1	 1.690056101963523e+00	 3.127489963403123e-01	 3.615927486148369e+00
1	 1.592262465564457e+00	 6.303621901272088e-01	 8.010568458086871e-01
1	 1.604441171879408e+00	 5.986858741992914e-01	 1.192392065516630e+00
1	 1.615941582087771e+00	 5.669118567002156e-01	 1.559085014145432e+00
1	 1.626765573277928e+00	 5.350607625171186e-01	 1.902162566575404e+00
1	 1.636915808951806e+00	 5.031529433396968e-01	 2.222687318944176e+00
1	 1.646395715889012e+00	 4.712084429318063e-01	 2.521752177604559e+00
1	 1.655209459359921e+00	 4.392469642850639e-01	 2.800475006309371e+00
1	 1.663361916845294e+00	 4.072878387300766e-01	 3.059993362285430e+00
1	 1.670858650422285e+00	 3.753499970672064e-01	 3.301459349760880e+00
1	 1.677705877977730e+00	 3.434519427652190e-01	 3.526034617251567e+00
1	 1.683910443409516e+00	 3.116117272628730e-01	 3.734885522527382e+00
1	 1.586451288682954e+00	 6.280615981902782e-01	 8.908157744082887e-01
1	 1.598585547164066e+00	 5.965008892550897e-01	 1.291700247681449e+00
1	 1.610043985071923e+00	 5.648428353238188e-01	 1.666356782068876e+00
1	 1.620828472644217e+00	 5.331079860102917e-01	 2.015864065038859e+00
1	 1.630941663662064e+00	 5.013166187279651e-01	 2.341339837936896e+00
1	 1.640386972398575e+00	 4.694887040882715e-01	 2.643935168607248e+00
1	 1.649168548922406e+00	 4.376438731740998e-01	 2.924828778773774e+00
1	 1.657291252913295e+00	 4.058013867637550e-01	 3.185221458945366e+00
1	 1.664760626148841e+00	 3.739801065670869e-01	 3.426330601429721e+00
1	 1.671582863822861e+00	 3.421984685219528e-01	 3.649384879682590e+00
1	 1.677764784855510e+00	 3.104744581859482e-01	 3.855619099724324e+00
1	 1.580640111801451e+00	 6.257610062533476e-01	 9.838850145113414e-01
1	 1.592729922448726e+00	 5.943159043108937e-01	 1.394202841255169e+00
1	 1.604146388056075e+00	 5.627738139474435e-01	 1.776698193482022e+00
1	 1.614891372010505e+00	 5.311552095035129e-01	 2.132501908008812e+00
1	 1.624967518372322e+00	 4.994802941163181e-01	 2.462787221663535e+00
1	 1.634378228908138e+00	 4.677689652448693e-01	 2.768763726048315e+00
1	 1.643127638484892e+00	 4.360407820633252e-01	 3.051671373588692e+00
1	 1.651220588981297e+00	 4.043149347976902e-01	 3.312774569746233e+00
1	 1.658662601875396e+00	 3.726102160673007e-01	 3.553356384006911e+00
1	 1.665459849667991e+00	 3.409449942791061e-01	 3.774712909801766e+00
1	 1.671619126301504e+00	 3.093371891095381e-01	 3.978147800910445e+00
1	 1.574828934919947e+00	 6.234604143164171e-01	 1.080301211632794e+00
1	 1.586874297733384e+00	 5.921309193667027e-01	 1.499935208725894e+00
1	 1.598248791040227e+00	 5.607047925710896e-01	 1.890143229678301e+00
1	 1.608954271376794e+00	 5.292024329967822e-01	 2.252108601144243e+00
1	 1.618993373082579e+00	 4.976439695047564e-01	 2.587060409586358e+00
1	 1.628369485417701e+00	 4.660492264015990e-01	 2.896267136641428e+00
1	 1.637086728047378e+00	 4.344376909527401e-01	 3.181030342293417e+00
1	 1.645149925049298e+00	 4.028284828318817e-01	 3.442678432852360e+00
1	 1.652564577601953e+00	 3.712403255678475e-01	 3.682560548388523e+00
1	 1.659336835513121e+00	 3.396915200366786e-01	 3.902040601716784e+00
1	 1.665473467747497e+00	 3.081999200336427e-01	 4.102491498307431e+00
1	 1.569017758038443e+00	 6.211598223794864e-01	 1.180101554184114e+00
1	 1.581018673018042e+00	 5.899459344225171e-01	 1.608933236470415e+00
1	 1.592351194024379e+00	 5.586357711947570e-01	 2.006726375377754e+00
1	 1.603017170743082e+00	 5.272496564900992e-01	 2.374717131669477e+00
1	 1.613019227792836e+00	 4.958076448932794e-01	 2.714190799530093e+00
1	 1.622360741927263e+00	 4.643294875584610e-01	 3.026475120977552e+00
1	 1.631045817609864e+00	 4.328345998423444e-01	 3.312933644598276e+00
1	 1.639079261117299e+00	 4.013420308663295e-01	 3.574959167734216e+00
1	 1.646466553328508e+00	 3.698704350687274e-01	 3.813967298817304e+00
1	 1.653213821358251e+00	 3.384380457946703e-01	 4.031390173892532e+00
1	 1.659327809193490e+00	 3.070626509582619e-01	 4.228670358540329e+00
1	 1.720784394733555e+00	 3.184353417352296e-01	 3.047104588704372e+00
1	 1.726475693704463e+00	 2.859749623090794e-01	 3.336728463910928e+00
1	 1.731526038345919e+00	 2.536091058023268e-01	 3.626523408788504e+00
1	 1.735944150962882e+00	 2.213547034732815e-01	 3.915432684390019e+00
1	 1.739739264653876e+00	 1.892281454495704e-01	 4.202427498079809e+00
1	 1.742921090073661e+00	 1.572452663273678e-01	 4.486509715591830e+00
1	 1.745499782086253e+00	 1.254213328766073e-01	 4.766714317605217e+00
1	 1.747485906444049e+00	 9.377103380810320e-02	 5.042111599323019e+00
1	 1.748890406621857e+00	 6.230847155001484e-02	 5.311809113470209e+00
1	 1.749724570927141e+00	 3.104715597342659e-02	 5.574953358931221e+00
1	 1.750000000000000e+00	 0.000000000000000e+00	 5.830731218916158e+00
1	 1.714638736179549e+00	 3.172980726552168e-01	 3.157468912070083e+00
1	 1.720309709082974e+00	 2.849536231553234e-01	 3.450191060957396e+00
1	 1.725342016779521e+00	 2.527033589930904e-01	 3.742327507171855e+00
1	 1.729744350423062e+00	 2.205641509580458e-01	 4.032829547391966e+00
1	 1.733525910136768e+00	 1.885523306416441e-01	 4.320678375815155e+00
1	 1.736696371894490e+00	 1.566836760879285e-01	 4.604887683401603e+00
1	 1.739265854292873e+00	 1.249733995426518e-01	 4.884505998398534e+00
1	 1.741244885349486e+00	 9.343613725694445e-02	 5.158618767465931e+00
1	 1.742644369455298e+00	 6.208594129314860e-02	 5.426350178624066e+00
1	 1.743475554602389e+00	 3.093627327280654e-02	 5.686864729010646e+00
1	 1.743750000000000e+00	 0.000000000000000e+00	 5.939368542064175e+00
1	 1.708493077625543e+00	 3.161608035757187e-01	 3.269515016791370e+00
1	 1.714143724461484e+00	 2.839322840021661e-01	 3.565365848990349e+00
1	 1.719157995213123e+00	 2.517976121845049e-01	 3.859869793362964e+00
1	 1.723544549883242e+00	 2.197735984434822e-01	 4.151986220235090e+00
1	 1.727312555619660e+00	 1.878765158343808e-01	 4.440706357402830e+00
1	 1.730471653715320e+00	 1.561220858491129e-01	 4.725055776103336e+00
1	 1.733031926499495e+00	 1.245254662092513e-01	 5.004096615013623e+00
1	 1.735003864254924e+00	 9.310124070624334e-02	 5.276929542437262e+00
1	 1.736398332288739e+00	 6.186341103661464e-02	 5.542695458706696e+00
1	 1.737226538277636e+00	 3.082539057236601e-02	 5.800576942559649e+00
1	 1.737500000000000e+00	 0.000000000000000e+00	 6.049799446836721e+00
1	 1.702347419071536e+00	 3.150235344967353e-01	 3.383261117107009e+00
1	 1.707977739839994e+00	 2.829109448496073e-01	 3.682271371594630e+00
1	 1.712973973646725e+00	 2.508918653765703e-01	 3.979169092500610e+00
1	 1.717344749343422e+00	 2.189830459295906e-01	 4.272921762231613e+00
1	 1.721099201102552e+00	 1.872007010277801e-01	 4.562530689454604e+00
1	 1.724246935536150e+00	 1.555604956109206e-01	 4.847033381330659e+00
1	 1.726797998706116e+00	 1.240775328764056e-01	 5.125505650509135e+00
1	 1.728762843160361e+00	 9.276634415599988e-02	 5.397063457884027e+00
1	 1.730152295122179e+00	 6.164088078041297e-02	 5.660864493950812e+00
1	 1.730977521952883e+00	 3.071450787210501e-02	 5.916109503296795e+00
1	 1.731250000000000e+00	 0.000000000000000e+00	 6.162043358304084e+00
1	 1.696201760517529e+00	 3.138862654182666e-01	 3.498725691230242e+00
1	 1.701811755218505e+00	 2.818896056976471e-01	 3.800926441102709e+00
1	 1.706789952080328e+00	 2.499861185692866e-01	 4.100244502551587e+00
1	 1.711144948803601e+00	 2.181924934163711e-01	 4.395655508915657e+00
1	 1.714885846585444e+00	 1.865248862218422e-01	 4.686170897518643e+00
1	 1.718022217356979e+00	 1.549989053733519e-01	 4.970840167697457e+00
1	 1.720564070912737e+00	 1.236295995441150e-01	 5.248752870306983e+00
1	 1.722521822065799e+00	 9.243144760621409e-02	 5.519040330549578e+00
1	 1.723906257955620e+00	 6.141835052454361e-02	 5.780877107780978e+00
1	 1.724728505628130e+00	 3.060362517202354e-02	 6.033482197603155e+00
1	 1.725000000000000e+00	 0.000000000000000e+00	 6.276119983059244e+00
1	 1.690056101963523e+00	 3.127489963403123e-01	 3.615927486148369e+00
1	 1.695645770597015e+00	 2.808682665462855e-01	 3.921350143480984e+00
1	 1.700605930513930e+00	 2.490803717626537e-01	 4.223115399271353e+00
1	 1.704945148263781e+00	 2.174019409038238e-01	 4.520207077065423e+00
1	 1.708672492068336e+00	 1.858490714165671e-01	 4.811646791151092e+00
1	 1.711797499177809e+00	 1.544373151364067e-01	 5.096496089906466e+00
1	 1.714330143119358e+00	 1.231816662123792e-01	 5.373858327325975e+00
1	 1.716280800971237e+00	 9.209655105688598e-02	 5.642880265420651e+00
1	 1.717660220789061e+00	 6.119582026900656e-02	 5.902753411962255e+00
1	 1.718479489303377e+00	 3.049274247212159e-02	 6.152715099661719e+00
1	 1.718750000000000e+00	 0.000000000000000e+00	 6.392049314336438e+00
1	 1.683910443409516e+00	 3.116117272628730e-01	 3.734885522527382e+00
1	 1.689479785975526e+00	 2.798469273955225e-01	 4.043561843323155e+00
1	 1.694421908947532e+00	 2.481746249566718e-01	 4.347801441273099e+00
1	 1.698745347723961e+00	 2.166113883919486e-01	 4.646596369835546e+00
1	 1.702459137551228e+00	 1.851732566119548e-01	 4.938978469098665e+00
1	 1.705572780998638e+00	 1.538757249000851e-01	 5.224021393969958e+00
1	 1.708096215325980e+00	 1.227337328811984e-01	 5.500842367228293e+00
1	 1.710039779876674e+00	 9.176165450801549e-02	 5.768603660987522e+00
1	 1.711414183622502e+00	 6.097329001380178e-02	 6.026513811862211e+00
1	 1.712230472978624e+00	 3.038185977239916e-02	 6.273828576709072e+00
1	 1.712500000000000e+00	 0.000000000000000e+00	 6.509851637241866e+00
1	 1.677764784855510e+00	 3.104744581859482e-01	 3.855619099724324e+00
1	 1.683313801354036e+00	 2.788255882453581e-01	 4.167581188953193e+00
1	 1.688237887381134e+00	 2.472688781513407e-01	 4.474322575208377e+00
1	 1.692545547184141e+00	 2.158208358807454e-01	 4.774843582001895e+00
1	 1.696245783034121e+00	 1.844974418080052e-01	 5.068186324595195e+00
1	 1.699348062819468e+00	 1.533141346643869e-01	 5.353436622545056e+00
1	 1.701862287532601e+00	 1.222857995505725e-01	 5.629725633781006e+00
1	 1.703798758782112e+00	 9.142675795960264e-02	 5.896231214619343e+00
1	 1.705168146455942e+00	 6.075075975892930e-02	 6.152179011828004e+00
1	 1.705981456653872e+00	 3.027097707285626e-02	 6.396843294402971e+00
1	 1.706250000000000e+00	 0.000000000000000e+00	 6.629547534099340e+00
1	 1.671619126301504e+00	 3.093371891095381e-01	 3.978147800910445e+00
1	 1.677147816732546e+00	 2.778042490957922e-01	 4.293428117641115e+00
1	 1.682053865814736e+00	 2.463631313466606e-01	 4.602699041061740e+00
1	 1.686345746644320e+00	 2.150302833702143e-01	 4.904969205322368e+00
1	 1.690032428517012e+00	 1.838216270047184e-01	 5.199291050775074e+00
1	 1.693123344640298e+00	 1.527525444293123e-01	 5.484762620386745e+00
1	 1.695628359739222e+00	 1.218378662205016e-01	 5.760529074335952e+00
1	 1.697557737687549e+00	 9.109186141164745e-02	 6.025783928058342e+00
1	 1.698922109289383e+00	 6.052822950438913e-02	 6.279770020682523e+00
1	 1.699732440329119e+00	 3.016009437349288e-02	 6.521780222307608e+00
1	 1.700000000000000e+00	 0.000000000000000e+00	 6.751157889913840e+00
1	 1.665473467747497e+00	 3.081999200336427e-01	 4.102491498307431e+00
1	 1.670981832111057e+00	 2.767829099468250e-01	 4.421122860933941e+00
1	 1.675869844248338e+00	 2.454573845426312e-01	 4.732951377563014e+00
1	 1.680145946104500e+00	 2.142397308603552e-01	 5.036994034016220e+00
1	 1.683819073999904e+00	 1.831458122020943e-01	 5.332313646206304e+00
1	 1.686898626461127e+00	 1.521909541948612e-01	 5.618020539921699e+00
1	 1.689394431945844e+00	 1.213899328909856e-01	 5.893273945430957e+00
1	 1.691316716592987e+00	 9.075696486414993e-02	 6.157283113035428e+00
1	 1.692676072122824e+00	 6.030569925018126e-02	 6.409308157341835e+00
1	 1.693483424004366e+00	 3.004921167430903e-02	 6.648660639501154e+00
1	 1.693750000000000e+00	 0.000000000000000e+00	 6.874703897956027e+00
1	 1.659327809193490e+00	 3.070626509582619e-01	 4.228670358540329e+00
1	 1.664815847489567e+00	 2.757615707984563e-01	 4.550685950105390e+00
1	 1.669685822681940e+00	 2.445516377392528e-01	 4.865100427719529e+00
1	 1.673946145564679e+00	 2.134491783511683e-01	 5.170939170365259e+00
1	 1.677605719482796e+00	 1.824699974001331e-01	 5.467275420546826e+00
1	 1.680673908281956e+00	 1.516293639610336e-01	 5.753231846945760e+00
1	 1.683160504152465e+00	 1.209419995620245e-01	 6.027981818515572e+00
1	 1.685075695498425e+00	 9.042206831711004e-02	 6.290750397010939e+00
1	 1.686430034956264e+00	 6.008316899630568e-02	 6.540815056557823e+00
1	 1.687234407679612e+00	 2.993832897530470e-02	 6.777506140307223e+00
1	 1.687500000000000e+00	 0.000000000000000e+00	 7.000207065470812e+00
1	 0.000000000000000e+00	 1.687500000000000e+00	-2.580493341726885e+01
1	 2.993832897530482e-02	 1.687234407679613e+00	-2.537311518577805e+01
1	 6.008316899630591e-02	 1.686430034956264e+00	-2.496569897156641e+01
1	 9.042206831711039e-02	 1.685075695498425e+00	-2.458392782749573e+01
1	 1.209419995620250e-01	 1.683160504152465e+00	-2.422900954696327e+01
1	 1.516293639610342e-01	 1.680673908281957e+00	-2.390211076646628e+01
1	 1.824699974001337e-01	 1.677605719482796e+00	-2.360435096395645e+01
1	 2.134491783511691e-01	 1.673946145564679e+00	-2.333679638295159e+01
1	 2.445516377392536e-01	 1.669685822681939e+00	-2.310045391484266e+01
1	 2.757615707984573e-01	 1.664815847489567e+00	-2.289626497417328e+01
1	 3.070626509582619e-01	 1.659327809193490e+00	-2.272509940384162e+01
1	 0.000000000000000e+00	 1.681250000000000e+00	-2.606392461821380e+01
1	 2.982744627630049e-02	 1.680985391354862e+00	-2.565270620246512e+01
1	 5.986063874243034e-02	 1.680183997789715e+00	-2.526500927740319e+01
1	 9.008717177007049e-02	 1.678834674403883e+00	-2.490201381884939e+01
1	 1.204940662330639e-01	 1.676926576359123e+00	-2.456486541767664e+01
1	 1.510677737272065e-01	 1.674449190102844e+00	-2.425466964943929e+01
1	 1.817941825981724e-01	 1.671392364965773e+00	-2.397248634784836e+01
1	 2.126586258419822e-01	 1.667746345024977e+00	-2.371932381086857e+01
1	 2.436458909358752e-01	 1.663501801115695e+00	-2.349613297054866e+01
1	 2.747402316500885e-01	 1.658649862868273e+00	-2.330380155991544e+01
1	 3.059253818828811e-01	 1.653182150639727e+00	-2.314314831231275e+01
1	 0.000000000000000e+00	 1.675000000000000e+00	-2.632275518264165e+01
1	 2.971656357711664e-02	 1.674736375030116e+00	-2.593226313238545e+01
1	 5.963810848822245e-02	 1.673937960623182e+00	-2.556440596049111e+01
1	 8.975227522257297e-02	 1.672593653309384e+00	-2.522030025010865e+01
1	 1.200461329035480e-01	 1.670692648565857e+00	-2.490102907760881e+01
1	 1.505061834927554e-01	 1.668224471923851e+00	-2.460763665040583e+01
1	 1.811183677955484e-01	 1.665179010448921e+00	-2.434112285671967e+01
1	 2.118680733321232e-01	 1.661546544485506e+00	-2.410243775485195e+01
1	 2.427401441318459e-01	 1.657317779549757e+00	-2.389247603175905e+01
1	 2.737188925011214e-01	 1.652483878247369e+00	-2.371207146279989e+01
1	 3.047881128069857e-01	 1.647036492086448e+00	-2.356199140646128e+01
1	 0.000000000000000e+00	 1.668750000000000e+00	-2.658142330564762e+01
1	 2.960568087775327e-02	 1.668487358705375e+00	-2.621178559254209e+01
1	 5.941557823368229e-02	 1.667691923456670e+00	-2.586388999136144e+01
1	 8.941737867461777e-02	 1.666352632214926e+00	-2.553878937340789e+01
1	 1.195981995734770e-01	 1.664458720772665e+00	-2.523750398506620e+01
1	 1.499445932576808e-01	 1.661999753744974e+00	-2.496101635496234e+01
1	 1.804425529922616e-01	 1.658965655932239e+00	-2.471026612118957e+01
1	 2.110775208215921e-01	 1.655346743946269e+00	-2.448614480497130e+01
1	 2.418343973271658e-01	 1.651133757984127e+00	-2.428949055921122e+01
1	 2.726975533515555e-01	 1.646317893626857e+00	-2.412108292234594e+01
1	 3.036508437305756e-01	 1.640890833533655e+00	-2.398163760972284e+01
1	 0.000000000000000e+00	 1.662500000000000e+00	-2.683992715518538e+01
1	 2.949479817821037e-02	 1.662238342380638e+00	-2.649127319417855e+01
1	 5.919304797880982e-02	 1.661445886290175e+00	-2.616346235514047e+01
1	 8.908248212620493e-02	 1.660111611120510e+00	-2.585748347474863e+01
1	 1.191502662428511e-01	 1.658224792979547e+00	-2.557429365036059e+01
1	 1.493830030219827e-01	 1.655775035566215e+00	-2.531481341766204e+01
1	 1.797667381883120e-01	 1.652752301415728e+00	-2.507992185654788e+01
1	 2.102869683103888e-01	 1.649146943407266e+00	-2.487045165039460e+01
1	 2.409286505218347e-01	 1.644949736418803e+00	-2.468718412583396e+01
1	 2.716762142013910e-01	 1.640151909006735e+00	-2.453084430197576e+01
1	 3.025135746536508e-01	 1.634745174981347e+00	-2.440209597972051e+01
1	 0.000000000000000e+00	 1.656250000000000e+00	-2.709826487155527e+01
1	 2.938391547848794e-02	 1.655989326055906e+00	-2.677072554267065e+01
1	 5.897051772360503e-02	 1.655199849123698e+00	-2.646312405182354e+01
1	 8.874758557733445e-02	 1.653870590026135e+00	-2.617638487463785e+01
1	 1.187023329116703e-01	 1.651990865186505e+00	-2.591140163678924e+01
1	 1.488214127856610e-01	 1.649550317387573e+00	-2.566903256331494e+01
1	 1.790909233836997e-01	 1.646538946899387e+00	-2.545009586435285e+01
1	 2.094964157985137e-01	 1.642947142868497e+00	-2.525536508125882e+01
1	 2.400229037158527e-01	 1.638765714853786e+00	-2.508556441886428e+01
1	 2.706548750506281e-01	 1.633985924387004e+00	-2.494136409135197e+01
1	 3.013763055762114e-01	 1.628599516429524e+00	-2.482337571079558e+01
1	 0.000000000000000e+00	 1.650000000000000e+00	-2.735643456688040e+01
1	 2.927303277858599e-02	 1.649740309731178e+00	-2.705014223741448e+01
1	 5.874798746806797e-02	 1.648953811957240e+00	-2.676287609655836e+01
1	 8.841268902800632e-02	 1.647629568931803e+00	-2.649549592874153e+01
1	 1.182543995799346e-01	 1.645756937393538e+00	-2.624883156163880e+01
1	 1.482598225487158e-01	 1.643325599209050e+00	-2.602367858831946e+01
1	 1.784151085784245e-01	 1.640325592383216e+00	-2.582079403406529e+01
1	 2.087058632859662e-01	 1.636747342329961e+00	-2.564089199058158e+01
1	 2.391171569092199e-01	 1.632581693289076e+00	-2.548463924201265e+01
1	 2.696335358992665e-01	 1.627819939767663e+00	-2.535265090876835e+01
1	 3.002390364982573e-01	 1.622453857878188e+00	-2.524548613659785e+01
1	 0.000000000000000e+00	 1.643750000000000e+00	-2.761443432457080e+01
1	 2.916215007850450e-02	 1.643491293406455e+00	-2.732952287171391e+01
1	 5.852545721219860e-02	 1.642707774790801e+00	-2.706271951993137e+01
1	 8.807779247822053e-02	 1.641388547837512e+00	-2.681481902855379e+01
1	 1.178064662476439e-01	 1.639523009600645e+00	-2.658658709721158e+01
1	 1.476982323111471e-01	 1.637100881030644e+00	-2.637875636202285e+01
1	 1.777392937724867e-01	 1.634112237867216e+00	-2.619202234471972e+01
1	 2.079153107727468e-01	 1.630547541791658e+00	-2.602703937621667e+01
1	 2.382114101019361e-01	 1.626397671724673e+00	-2.588441651767696e+01
1	 2.686121967473062e-01	 1.621653955148714e+00	-2.576471350359539e+01
1	 2.991017674197886e-01	 1.616308199327336e+00	-2.566843673273409e+01
1	 0.000000000000000e+00	 1.637500000000000e+00	-2.787226219877551e+01
1	 2.905126737824351e-02	 1.637242277081737e+00	-2.760886703266292e+01
1	 5.830292695599695e-02	 1.636461737624380e+00	-2.736265536826362e+01
1	 8.774289592797707e-02	 1.635147526743263e+00	-2.713435660207935e+01
1	 1.173585329147983e-01	 1.633289081807827e+00	-2.692467197187556e+01
1	 1.471366420729549e-01	 1.630876162852355e+00	-2.673427082811388e+01
1	 1.770634789658860e-01	 1.627898883351387e+00	-2.656378686663343e+01
1	 2.071247582588553e-01	 1.624347741253589e+00	-2.641381434285640e+01
1	 2.373056632940015e-01	 1.620213650160576e+00	-2.628490428920779e+01
1	 2.675908575947474e-01	 1.615487970530155e+00	-2.617756075878143e+01
1	 2.979644983408051e-01	 1.610162540776969e+00	-2.609223711947587e+01
1	 0.000000000000000e+00	 1.631250000000000e+00	-2.812991621382212e+01
1	 2.894038467780298e-02	 1.630993260757023e+00	-2.788817430102850e+01
1	 5.808039669946300e-02	 1.630215700457978e+00	-2.766268470391144e+01
1	 8.740799937727596e-02	 1.628906505649055e+00	-2.745411111453460e+01
1	 1.169105995813977e-01	 1.627055154015083e+00	-2.726308997113895e+01
1	 1.465750518341391e-01	 1.624651444674184e+00	-2.709022700604597e+01
1	 1.763876641586226e-01	 1.621685528835728e+00	-2.693609376315537e+01
1	 2.063342057442916e-01	 1.618147940715753e+00	-2.680122410407686e+01
1	 2.363999164854160e-01	 1.614029628596787e+00	-2.668611072322585e+01
1	 2.665695184415900e-01	 1.609321985911987e+00	-2.659120169341259e+01
1	 2.968272292613071e-01	 1.604016882227088e+00	-2.651689706453278e+01
1	 0.000000000000000e+00	 1.625000000000000e+00	-2.838739436364363e+01
1	 2.882950197718292e-02	 1.624744244432312e+00	-2.816744425112700e+01
1	 5.785786644259672e-02	 1.623969663291593e+00	-2.796280860557563e+01
1	 8.707310282611723e-02	 1.622665484554889e+00	-2.777408506906163e+01
1	 1.164626662474422e-01	 1.620821226222415e+00	-2.760184493874803e+01
1	 1.460134615946999e-01	 1.618426726496131e+00	-2.744662999249590e+01
1	 1.757118493506963e-01	 1.615472174320239e+00	-2.730894929245535e+01
1	 2.055436532290559e-01	 1.611948140178151e+00	-2.718927598443181e+01
1	 2.354941696761796e-01	 1.607845607033304e+00	-2.708804411199153e+01
1	 2.655481792878340e-01	 1.603156001294210e+00	-2.700564546532981e+01
1	 2.956899601812942e-01	 1.597871223677692e+00	-2.694242648588656e+01
1	 3.070626509582619e-01	 1.659327809193490e+00	-2.272509940384162e+01
1	 3.384380640626277e-01	 1.653213814056673e+00	-2.261374583664274e+01
1	 3.698705088692585e-01	 1.646466523889539e+00	-2.251424549737979e+01
1	 4.013421985432338e-01	 1.639079194348896e+00	-2.242650730067310e+01
1	 4.328349007972243e-01	 1.631045697954198e+00	-2.235039704075871e+01
1	 4.643299622256656e-01	 1.622360553451363e+00	-2.228573649004367e+01
1	 4.958083347110969e-01	 1.613018954179519e+00	-2.223230268468471e+01
1	 5.272506038681378e-01	 1.603016795282257e+00	-2.218982740998189e+01
1	 5.586370194774788e-01	 1.592350699604834e+00	-2.215799689739022e+01
1	 5.899475278488967e-01	 1.581018042119802e+00	-2.213645174381569e+01
1	 6.211618060387971e-01	 1.569016972725812e+00	-2.212478706254382e+01
1	 3.059253818828811e-01	 1.653182150639727e+00	-2.314314831231275e+01
1	 3.371845897529627e-01	 1.647090799929132e+00	-2.304191649822271e+01
1	 3.685006180968128e-01	 1.640368499725442e+00	-2.295072324760456e+01
1	 3.998557459566776e-01	 1.633008530664517e+00	-2.286948179052222e+01
1	 4.312318085722190e-01	 1.625004787960182e+00	-2.279806864867683e+01
1	 4.626102216245608e-01	 1.616351810659300e+00	-2.273632291479213e+01
1	 4.939720075448260e-01	 1.607044809903444e+00	-2.268404569304005e+01
1	 5.252978238527660e-01	 1.597079696039380e+00	-2.264099971114515e+01
1	 5.565679934780324e-01	 1.586453104420347e+00	-2.260690911394842e+01
1	 5.877625370033295e-01	 1.575162419741224e+00	-2.258145944721125e+01
1	 6.188612067552249e-01	 1.563205798752884e+00	-2.256429783930271e+01
1	 3.047881128069857e-01	 1.647036492086448e+00	-2.356199140646128e+01
1	 3.359311154428832e-01	 1.640967785802162e+00	-2.347076204146921e+01
1	 3.671307273240526e-01	 1.634270475561975e+00	-2.338774367785850e+01
1	 3.983692933699075e-01	 1.626937866980796e+00	-2.331285386585997e+01
1	 4.296287163471004e-01	 1.618963877966825e+00	-2.324597989005235e+01
1	 4.608904810234434e-01	 1.610343067867864e+00	-2.318697823045178e+01
1	 4.921356803786430e-01	 1.601070665627937e+00	-2.313567415854365e+01
1	 5.233450438375830e-01	 1.591142596796982e+00	-2.309186147673845e+01
1	 5.544989674788753e-01	 1.580555509236218e+00	-2.305530240900081e+01
1	 5.855775461581518e-01	 1.569306797362849e+00	-2.302572764953702e+01
1	 6.165606074721426e-01	 1.557394624779977e+00	-2.300283657547200e+01
1	 3.036508437305756e-01	 1.640890833533655e+00	-2.398163760972284e+01
1	 3.346776411323889e-01	 1.634844771675763e+00	-2.390029004932320e+01
1	 3.657608365509780e-01	 1.628172451399137e+00	-2.382531288567051e+01
1	 3.968828407829235e-01	 1.620867203297733e+00	-2.375662799393843e+01
1	 4.280256241218686e-01	 1.612922967974125e+00	-2.369413345739510e+01
1	 4.591707404223133e-01	 1.604334325077056e+00	-2.363770321107710e+01
1	 4.902993532125484e-01	 1.595096521352999e+00	-2.358718679419563e+01
1	 5.213922638225886e-01	 1.585205497555062e+00	-2.354240921759635e+01
1	 5.524299414800073e-01	 1.574657914052447e+00	-2.350317095196646e+01
1	 5.833925553133640e-01	 1.563451174984679e+00	-2.346924804178987e+01
1	 6.142600081895501e-01	 1.551583450807090e+00	-2.344039234924471e+01
1	 3.025135746536508e-01	 1.634745174981347e+00	-2.440209597972051e+01
1	 3.334241668214802e-01	 1.628721757549936e+00	-2.433050821875478e+01
1	 3.643909457775892e-01	 1.622074427236928e+00	-2.426343706026149e+01
1	 3.953963881957258e-01	 1.614796539615329e+00	-2.420080870918728e+01
1	 4.264225318965237e-01	 1.606882057982084e+00	-2.414253208370454e+01
1	 4.574509998211708e-01	 1.598325582286878e+00	-2.408849864236183e+01
1	 4.884630260465417e-01	 1.589122377078630e+00	-2.403858229364328e+01
1	 5.194394838077830e-01	 1.579268398313621e+00	-2.399263939208466e+01
1	 5.503609154814290e-01	 1.568760318869032e+00	-2.395050882458698e+01
1	 5.812075644689656e-01	 1.557595552606713e+00	-2.391201219001925e+01
1	 6.119594089074470e-01	 1.545772276834224e+00	-2.387695407457625e+01
1	 3.013763055762114e-01	 1.628599516429524e+00	-2.482337571079558e+01
1	 3.321706925101568e-01	 1.622598743424680e+00	-2.476142436291437e+01
1	 3.630210550038862e-01	 1.615976403075348e+00	-2.470212248427443e+01
1	 3.939099356083140e-01	 1.608725875933583e+00	-2.464540061447956e+01
1	 4.248194396710655e-01	 1.600841147990701e+00	-2.459117854323218e+01
1	 4.557312592200157e-01	 1.592316839497327e+00	-2.453936532185937e+01
1	 4.866266988806233e-01	 1.583148232804829e+00	-2.448985933081439e+01
1	 5.174867037931661e-01	 1.573331299072657e+00	-2.444254840511045e+01
1	 5.482918894831397e-01	 1.562862723685975e+00	-2.439731001927120e+01
1	 5.790225736249570e-01	 1.551739930228953e+00	-2.435401153296958e+01
1	 6.096588096258341e-01	 1.539961102861379e+00	-2.431251049808530e+01
1	 3.002390364982573e-01	 1.622453857878188e+00	-2.524548613659785e+01
1	 3.309172181984187e-01	 1.616475729299996e+00	-2.519304641333388e+01
1	 3.616511642298686e-01	 1.609878378914398e+00	-2.514137553554383e+01
1	 3.924234830206885e-01	 1.602655212252494e+00	-2.509040838242954e+01
1	 4.232163474454940e-01	 1.594800237999976e+00	-2.504007565226404e+01
1	 4.540115186188481e-01	 1.586308096708406e+00	-2.499030405920788e+01
1	 4.847903717147928e-01	 1.577174088531596e+00	-2.494101655954560e+01
1	 5.155339237787382e-01	 1.567394199832173e+00	-2.489213260711013e+01
1	 5.462228634851394e-01	 1.556965128503274e+00	-2.484356843740418e+01
1	 5.768375827813378e-01	 1.545884307851397e+00	-2.479523737966980e+01
1	 6.073582103447105e-01	 1.534149928888554e+00	-2.474705019588534e+01
1	 2.991017674197886e-01	 1.616308199327336e+00	-2.566843673273409e+01
1	 3.296637438862661e-01	 1.610352715175882e+00	-2.562538242217656e+01
1	 3.602812734555368e-01	 1.603780354754076e+00	-2.558120268890575e+01
1	 3.909370304328491e-01	 1.596584548572065e+00	-2.553583675671722e+01
1	 4.216132552198092e-01	 1.588759328009909e+00	-2.548922626991921e+01
1	 4.522917780176677e-01	 1.580299353920112e+00	-2.544131567635867e+01
1	 4.829540445490506e-01	 1.571199944258933e+00	-2.539205261319912e+01
1	 5.135811437644987e-01	 1.561457100592166e+00	-2.534138829301279e+01
1	 5.441538374874288e-01	 1.551067533320931e+00	-2.528927788761619e+01
1	 5.746525919381082e-01	 1.540028685474045e+00	-2.523568090696622e+01
1	 6.050576110640767e-01	 1.528338754915749e+00	-2.518056157034210e+01
1	 2.979644983408051e-01	 1.610162540776969e+00	-2.609223711947587e+01
1	 3.284102695736988e-01	 1.604229701052340e+00	-2.605844056453966e+01
1	 3.589113826808907e-01	 1.597682330594384e+00	-2.602161051804858e+01
1	 3.894505778447960e-01	 1.590513884892294e+00	-2.598169055344561e+01
1	 4.200101629940112e-01	 1.582718418020501e+00	-2.593863329896759e+01
1	 4.505720374164751e-01	 1.574290611132447e+00	-2.589240100781226e+01
1	 4.811177173833967e-01	 1.565225799986838e+00	-2.584296610427278e+01
1	 5.116283637504482e-01	 1.555520001352637e+00	-2.579031170118212e+01
1	 5.420848114900072e-01	 1.545169938138944e+00	-2.573443208401324e+01
1	 5.724676010952686e-01	 1.534173063096899e+00	-2.567533315700085e+01
1	 6.027570117839327e-01	 1.522527580942965e+00	-2.561303284675841e+01
1	 2.968272292613071e-01	 1.604016882227088e+00	-2.651689706453278e+01
1	 3.271567952607170e-01	 1.598106686929370e+00	-2.649222914080911e+01
1	 3.575414919059303e-01	 1.591584306435321e+00	-2.646260569740641e+01
1	 3.879641252565290e-01	 1.584443221213181e+00	-2.642797466252757e+01
1	 4.184070707681001e-01	 1.576677508031751e+00	-2.638829968666591e+01
1	 4.488522968152698e-01	 1.568281868345411e+00	-2.634356090085872e+01
1	 4.792813902178307e-01	 1.559251655715312e+00	-2.629375562399932e+01
1	 5.096755837365865e-01	 1.549582902113587e+00	-2.623889901233214e+01
1	 5.400157854928751e-01	 1.539272342957315e+00	-2.617902464436512e+01
1	 5.702826102528182e-01	 1.528317440719956e+00	-2.611418503463031e+01
1	 6.004564125042784e-01	 1.516716406970201e+00	-2.604445206998179e+01
1	 2.956899601812942e-01	 1.597871223677692e+00	-2.694242648588656e+01
1	 3.259033209473203e-01	 1.591983672806970e+00	-2.692675657906920e+01
1	 3.561716011306555e-01	 1.585486282276886e+00	-2.690419500409776e+01
1	 3.864776726680479e-01	 1.578372557534725e+00	-2.687469404910577e+01
1	 4.168039785420755e-01	 1.570636598043658e+00	-2.683822842561361e+01
1	 4.471325562140517e-01	 1.562273125559002e+00	-2.679479621582260e+01
1	 4.774450630523527e-01	 1.553277511444354e+00	-2.674441974193937e+01
1	 5.077228037229133e-01	 1.543645802875016e+00	-2.668714634841835e+01
1	 5.379467594960321e-01	 1.533374747776042e+00	-2.662304908825387e+01
1	 5.680976194107575e-01	 1.522461818343218e+00	-2.655222730478624e+01
1	 5.981558132251138e-01	 1.510905232997459e+00	-2.647480710093467e+01
1	 6.211618060387971e-01	 1.569016972725812e+00	-2.212478706254383e+01
1	 6.522584803334457e-01	 1.556346765521946e+00	-2.191903916661870e+01
1	 6.832175681525360e-01	 1.543006881696241e+00	-2.175466892118349e+01
1	 7.140181610311332e-01	 1.528997914637390e+00	-2.163114739275721e+01
1	 7.446392347742444e-01	 1.514321304611717e+00	-2.154776444657011e+01
1	 7.750596913631842e-01	 1.498979351264834e+00	-2.150362726385872e+01
1	 8.052584019923822e-01	 1.482975223683451e+00	-2.149765979650948e+01
1	 8.352142510737581e-01	 1.466312967913504e+00	-2.152860319056946e+01
1	 8.649061810356652e-01	 1.448997511842957e+00	-2.159501720305071e+01
1	 8.943132377343024e-01	 1.431034667370927e+00	-2.169528262888680e+01
1	 9.234146162875218e-01	 1.412431129799070e+00	-2.182760474689682e+01
1	 6.188612067552249e-01	 1.563205798752884e+00	-2.256429783930271e+01
1	 6.498427081818867e-01	 1.550582518242888e+00	-2.235386425661842e+01
1	 6.806871327125635e-01	 1.537292041394821e+00	-2.218557776554081e+01
1	 7.113736493210807e-01	 1.523334959399639e+00	-2.205887969159667e+01
1	 7.418813116798342e-01	 1.508712707189349e+00	-2.197302685118691e+01
1	 7.721890999109496e-01	 1.493427575892354e+00	-2.192709013255844e+01
1	 8.022759634636919e-01	 1.477482722858006e+00	-2.191995403285319e+01
1	 8.321208649558631e-01	 1.460882179146885e+00	-2.195031718274155e+01
1	 8.617028248068228e-01	 1.443630854395518e+00	-2.201669388290078e+01
1	 8.910009664807104e-01	 1.425734538977469e+00	-2.211741666886715e+01
1	 9.199945621504970e-01	 1.407199903396981e+00	-2.225063991263671e+01
1	 6.165606074721426e-01	 1.557394624779977e+00	-2.300283657547200e+01
1	 6.474269360309075e-01	 1.544818270963659e+00	-2.278785057997782e+01
1	 6.781566972732427e-01	 1.531577201093059e+00	-2.261578813057083e+01
1	 7.087291376117315e-01	 1.517672004161394e+00	-2.248606063632630e+01
1	 7.391233885861601e-01	 1.503104109766354e+00	-2.239789166923540e+01
1	 7.693185084594629e-01	 1.487875800519134e+00	-2.235031560910305e+01
1	 7.992935249357420e-01	 1.471990222031727e+00	-2.234217726335598e+01
1	 8.290274788386802e-01	 1.455451390379360e+00	-2.237213249324963e+01
1	 8.584994685786443e-01	 1.438264196947121e+00	-2.243864987057407e+01
1	 8.876886952277132e-01	 1.420434410583022e+00	-2.254001338105602e+01
1	 9.165745080139776e-01	 1.401968676993892e+00	-2.267432618234375e+01
1	 6.142600081895501e-01	 1.551583450807090e+00	-2.344039234924471e+01
1	 6.450111638805092e-01	 1.539054023684261e+00	-2.322098871235119e+01
1	 6.756262618345731e-01	 1.525862360790954e+00	-2.304529216818945e+01
1	 7.060846259030861e-01	 1.512009048922656e+00	-2.291268403195454e+01
1	 7.363654654932211e-01	 1.497495512342732e+00	-2.282235443344923e+01
1	 7.664479170087244e-01	 1.482324025145173e+00	-2.277330102616401e+01
1	 7.963110864085322e-01	 1.466497721204616e+00	-2.276432869019836e+01
1	 8.259340927222101e-01	 1.450020601610930e+00	-2.279405026050107e+01
1	 8.552961123511297e-01	 1.432897539497765e+00	-2.286088830436055e+01
1	 8.843764239753107e-01	 1.415134282187585e+00	-2.296307796401715e+01
1	 9.131544538779635e-01	 1.396737450589802e+00	-2.309867087179271e+01
1	 6.119594089074470e-01	 1.545772276834224e+00	-2.387695407457625e+01
1	 6.425953917306905e-01	 1.533289776404692e+00	-2.365326908767233e+01
1	 6.730958263965554e-01	 1.520147520488509e+00	-2.347408191229618e+01
1	 7.034401141951435e-01	 1.506346093683423e+00	-2.333874359033227e+01
1	 7.336075424010180e-01	 1.491886914918482e+00	-2.324641060938536e+01
1	 7.635773255587338e-01	 1.476772249770473e+00	-2.319604367630227e+01
1	 7.933286478820628e-01	 1.461005220376671e+00	-2.318640750356381e+01
1	 8.228407066064517e-01	 1.444589812841593e+00	-2.321607164002226e+01
1	 8.520927561242789e-01	 1.427530882047452e+00	-2.328341236974180e+01
1	 8.810641527235032e-01	 1.409834153791159e+00	-2.338661569448830e+01
1	 9.097343997424545e-01	 1.391506224184713e+00	-2.352368140677007e+01
1	 6.096588096258341e-01	 1.539961102861379e+00	-2.431251049808531e+01
1	 6.401796195814521e-01	 1.527525529124953e+00	-2.408468199548143e+01
1	 6.705653909591889e-01	 1.514432680185722e+00	-2.390214927654743e+01
1	 7.007956024879047e-01	 1.500683138443696e+00	-2.376423292839445e+01
1	 7.308496193095506e-01	 1.486278317493605e+00	-2.367005559415652e+01
1	 7.607067341094913e-01	 1.471220474395032e+00	-2.361854081121194e+01
1	 7.903462093563337e-01	 1.455512719547893e+00	-2.360841288141221e+01
1	 8.197473204914060e-01	 1.439159024071349e+00	-2.363819780478171e+01
1	 8.488893998980922e-01	 1.422164224596181e+00	-2.370622530028279e+01
1	 8.777518814722912e-01	 1.404534025393743e+00	-2.381063192885625e+01
1	 9.063143456074513e-01	 1.386274997778624e+00	-2.394936532514988e+01
1	 6.073582103447105e-01	 1.534149928888554e+00	-2.474705019588534e+01
1	 6.377638474327939e-01	 1.521761281845044e+00	-2.451521757819176e+01
1	 6.680349555224742e-01	 1.508717839882593e+00	-2.432948605207956e+01
1	 6.981510907813695e-01	 1.495020183203475e+00	-2.418914556636320e+01
1	 7.280916962188191e-01	 1.480669720068102e+00	-2.409328471513431e+01
1	 7.578361426609969e-01	 1.465668699018850e+00	-2.404078964094633e+01
1	 7.873637708313451e-01	 1.450020218718282e+00	-2.403034398924811e+01
1	 8.166539343770722e-01	 1.433728235300201e+00	-2.406042994552033e+01
1	 8.456860436725691e-01	 1.416797567143951e+00	-2.412933037854171e+01
1	 8.744396102216738e-01	 1.399233896995337e+00	-2.423513210466500e+01
1	 9.028942914729530e-01	 1.381043771371535e+00	-2.437573027901619e+01
1	 6.050576110640767e-01	 1.528338754915749e+00	-2.518056157034210e+01
1	 6.353480752847160e-01	 1.515997034564966e+00	-2.494486582829004e+01
1	 6.655045200864108e-01	 1.503002999579122e+00	-2.475608390517901e+01
1	 6.955065790755374e-01	 1.489357227962760e+00	-2.461347492590914e+01
1	 7.253337731288232e-01	 1.475061122641972e+00	-2.451609322862409e+01
1	 7.549655512132506e-01	 1.460116923641929e+00	-2.446278733312572e+01
1	 7.843813323070964e-01	 1.444527717887837e+00	-2.445219997988399e+01
1	 8.135605482634515e-01	 1.428297446528146e+00	-2.448276927108859e+01
1	 8.424826874477103e-01	 1.411430909690764e+00	-2.455273093700159e+01
1	 8.711273389716513e-01	 1.393933768595943e+00	-2.466012174215870e+01
1	 8.994742373389597e-01	 1.375812544963445e+00	-2.480278403683460e+01
1	 6.027570117839327e-01	 1.522527580942965e+00	-2.561303284675841e+01
1	 6.329323031372183e-01	 1.510232787284717e+00	-2.537361658547723e+01
1	 6.629740846509991e-01	 1.497288159275309e+00	-2.518193437490021e+01
1	 6.928620673704089e-01	 1.483694272721550e+00	-2.503721432826993e+01
1	 7.225758500395629e-01	 1.469452525215214e+00	-2.493847631850812e+01
1	 7.520949597662524e-01	 1.454565148264268e+00	-2.488453101212834e+01
1	 7.813988937835883e-01	 1.439035217056559e+00	-2.487397999319868e+01
1	 8.104671621505426e-01	 1.422866657755186e+00	-2.490521700879317e+01
1	 8.392793312235152e-01	 1.406064252236618e+00	-2.497643035902295e+01
1	 8.678150677222238e-01	 1.388633640195558e+00	-2.508560644586058e+01
1	 8.960541832054720e-01	 1.370581318554356e+00	-2.523053448567337e+01
1	 6.004564125042784e-01	 1.516716406970201e+00	-2.604445206998179e+01
1	 6.305165309903009e-01	 1.504468540004299e+00	-2.580145953374084e+01
1	 6.604436492162388e-01	 1.491573318971155e+00	-2.560702887062768e+01
1	 6.902175556659835e-01	 1.478031317479846e+00	-2.546035699232703e+01
1	 7.198179269510381e-01	 1.463843927787830e+00	-2.536042909485870e+01
1	 7.492243683200021e-01	 1.449013372885866e+00	-2.530601775826124e+01
1	 7.784164552608205e-01	 1.433542716224448e+00	-2.529568315588843e+01
1	 8.073737760383458e-01	 1.417435868981319e+00	-2.532777440474980e+01
1	 8.360759749999840e-01	 1.400697594781515e+00	-2.540043207981882e+01
1	 8.645027964733913e-01	 1.383333511794185e+00	-2.551159190618630e+01
1	 8.926341290724897e-01	 1.365350092144267e+00	-2.565898963347512e+01
1	 5.981558132251138e-01	 1.510905232997459e+00	-2.647480710093467e+01
1	 6.281007588439635e-01	 1.498704292723710e+00	-2.622838419836030e+01
1	 6.579132137821299e-01	 1.485858478666659e+00	-2.603135866958285e+01
1	 6.875730439622622e-01	 1.472368362237649e+00	-2.588289603263709e+01
1	 7.170600038632492e-01	 1.458235330359818e+00	-2.578194659251844e+01
1	 7.463537768744996e-01	 1.443461597506724e+00	-2.572724460691350e+01
1	 7.754340167387930e-01	 1.428050215391504e+00	-2.571730858121464e+01
1	 8.042803899268617e-01	 1.412005080206547e+00	-2.575044272424556e+01
1	 8.328726187771164e-01	 1.395330937325453e+00	-2.582473958745141e+01
1	 8.611905252251535e-01	 1.378033383391821e+00	-2.593808390109692e+01
1	 8.892140749400127e-01	 1.360118865733177e+00	-2.608815761138208e+01
1	 9.234146162875218e-01	 1.412431129799070e+00	-2.182760474689682e+01
1	 9.521904257852591e-01	 1.393193999135577e+00	-2.149253359052712e+01
1	 9.806195419081072e-01	 1.373332213144299e+00	-2.103046880851642e+01
1	 1.008681882648820e+00	 1.352855085874506e+00	-2.044413876592339e+01
1	 1.036357698863603e+00	 1.331772783836062e+00	-1.973672387757990e+01
1	 1.063627619184540e+00	 1.310096311091385e+00	-1.891184834904400e+01
1	 1.090472694122663e+00	 1.287837491523523e+00	-1.797356950642074e+01
1	 1.116874439155310e+00	 1.265008948332617e+00	-1.692636475766029e+01
1	 1.142814876595415e+00	 1.241624080830166e+00	-1.577511624816523e+01
1	 1.168276576045971e+00	 1.217697038617357e+00	-1.452509329334580e+01
1	 1.193242693250000e+00	 1.193242693250000e+00	-1.318193268994890e+01
1	 9.199945621504970e-01	 1.407199903396981e+00	-2.225063991263671e+01
1	 9.486637945761733e-01	 1.388034021365868e+00	-2.190023577470079e+01
1	 9.769876176765689e-01	 1.368245797545105e+00	-2.141899445071516e+01
1	 1.004946023822243e+00	 1.347844511487479e+00	-2.080974965274532e+01
1	 1.032519337014377e+00	 1.326840292049115e+00	-2.007580118170921e+01
1	 1.059688257630864e+00	 1.305244102536645e+00	-1.922090633141790e+01
1	 1.086433906366029e+00	 1.283067723040956e+00	-1.824926880588076e+01
1	 1.112737867158401e+00	 1.260323730009596e+00	-1.716552519432970e+01
1	 1.138582228904944e+00	 1.237025473126984e+00	-1.597472906927407e+01
1	 1.163949625765673e+00	 1.213187049588377e+00	-1.468233279332544e+01
1	 1.188823275869750e+00	 1.188823275869750e+00	-1.329416714030898e+01
1	 9.165745080139776e-01	 1.401968676993892e+00	-2.267432618234375e+01
1	 9.451371633674924e-01	 1.382874043595164e+00	-2.230824744299668e+01
1	 9.733556934453352e-01	 1.363159381944929e+00	-2.180746002902793e+01
1	 1.001210164995870e+00	 1.342833937099496e+00	-2.117490355339783e+01
1	 1.028680975165256e+00	 1.321907800261249e+00	-2.041399783154746e+01
1	 1.055748896077192e+00	 1.300391893981030e+00	-1.952863394698476e+01
1	 1.082395118609296e+00	 1.278297954557569e+00	-1.852316275416242e+01
1	 1.108601295161293e+00	 1.255638511685820e+00	-1.740238086496041e+01
1	 1.134349581214172e+00	 1.232426865423123e+00	-1.617151418656810e+01
1	 1.159622675484976e+00	 1.208677060558803e+00	-1.483619909962523e+01
1	 1.184403858489000e+00	 1.184403858489000e+00	-1.340246138584496e+01
1	 9.131544538779635e-01	 1.396737450589802e+00	-2.309867087179271e+01
1	 9.416105321592171e-01	 1.377714065823465e+00	-2.271657207276488e+01
1	 9.697237692144064e-01	 1.358072966343774e+00	-2.219586486857986e+01
1	 9.974743061697016e-01	 1.337823362710558e+00	-2.153959533320527e+01
1	 1.024842613316237e+00	 1.316975308472461e+00	-2.075130393210371e+01
1	 1.051809534523522e+00	 1.295539685424539e+00	-1.983501624780381e+01
1	 1.078356330852466e+00	 1.273528186073362e+00	-1.879523106642230e+01
1	 1.104464723163987e+00	 1.250953293361289e+00	-1.763690587330574e+01
1	 1.130116933523102e+00	 1.227828257718581e+00	-1.636543982809471e+01
1	 1.155295725203879e+00	 1.204167071528634e+00	-1.498665431119285e+01
1	 1.179984441107750e+00	 1.179984441107750e+00	-1.350677115459231e+01
1	 9.097343997424545e-01	 1.391506224184713e+00	-2.352368140677007e+01
1	 9.380839009513463e-01	 1.372554088050771e+00	-2.312521319364620e+01
1	 9.660918449837822e-01	 1.352986550741638e+00	-2.258420828434806e+01
1	 9.937384473437366e-01	 1.332812788320665e+00	-2.190381978027928e+01
1	 1.021004251467322e+00	 1.312042816682753e+00	-2.108770943958951e+01
1	 1.047870172969855e+00	 1.290687476867174e+00	-2.014003806115316e+01
1	 1.074317543095536e+00	 1.268758417588334e+00	-1.906545315278096e+01
1	 1.100328151166482e+00	 1.246268075036002e+00	-1.786907393370132e+01
1	 1.125884285831732e+00	 1.223229650013359e+00	-1.655647374412787e+01
1	 1.150968774922381e+00	 1.199657082497869e+00	-1.513365995703522e+01
1	 1.175565023726000e+00	 1.175565023726000e+00	-1.360705150884282e+01
1	 9.063143456074513e-01	 1.386274997778624e+00	-2.394936532514988e+01
1	 9.345572697438811e-01	 1.367394110277082e+00	-2.353417438855952e+01
1	 9.624599207534629e-01	 1.347900135138522e+00	-2.297248958096943e+01
1	 9.900025885179762e-01	 1.327802213929816e+00	-2.226757160406120e+01
1	 1.017165889618511e+00	 1.307110324892126e+00	-2.142320415861244e+01
1	 1.043930811416191e+00	 1.285835268308933e+00	-2.044368398528863e+01
1	 1.070278755338509e+00	 1.263988649102486e+00	-1.933380811256865e+01
1	 1.096191579168778e+00	 1.241582856709961e+00	-1.809885836371846e+01
1	 1.121651638140063e+00	 1.218631042307457e+00	-1.674458319815271e+01
1	 1.146641824640485e+00	 1.195147093466510e+00	-1.527717698546514e+01
1	 1.171145606343750e+00	 1.171145606343750e+00	-1.370325683258282e+01
1	 9.028942914729530e-01	 1.381043771371535e+00	-2.437573027901619e+01
1	 9.310306385368207e-01	 1.362234132502398e+00	-2.394345929470963e+01
1	 9.588279965234481e-01	 1.342813719534427e+00	-2.336070805254499e+01
1	 9.862667296924201e-01	 1.322791639538013e+00	-2.263084543383254e+01
1	 1.013327527769804e+00	 1.302177833100578e+00	-2.175777773930455e+01
1	 1.039991449862529e+00	 1.280983059749816e+00	-2.074593838510646e+01
1	 1.066239967581384e+00	 1.259218880615818e+00	-1.960027472843877e+01
1	 1.092055007170874e+00	 1.236897638383164e+00	-1.832623207664858e+01
1	 1.117418990448094e+00	 1.214032434600875e+00	-1.692973495764688e+01
1	 1.142314874358187e+00	 1.190637104434555e+00	-1.541716575310278e+01
1	 1.166726188961000e+00	 1.166726188961000e+00	-1.379534081864716e+01
1	 8.994742373389597e-01	 1.375812544963445e+00	-2.480278403683460e+01
1	 9.275040073301658e-01	 1.357074154726718e+00	-2.435307160462078e+01
1	 9.551960722937385e-01	 1.337727303929351e+00	-2.374886298243990e+01
1	 9.825308708670677e-01	 1.317781065145254e+00	-2.299363581719077e+01
1	 1.009489165921199e+00	 1.297245341308110e+00	-2.209141967438518e+01
1	 1.036052088308870e+00	 1.276130851189825e+00	-2.104678538770625e+01
1	 1.062201179824161e+00	 1.254449112128329e+00	-1.986483146034719e+01
1	 1.087918435172772e+00	 1.232212420055611e+00	-1.855116757381833e+01
1	 1.113186342755825e+00	 1.209433826893612e+00	-1.711189528465033e+01
1	 1.137987924075491e+00	 1.186127115402005e+00	-1.555358601362734e+01
1	 1.162306771577750e+00	 1.162306771577750e+00	-1.388325645557891e+01
1	 8.960541832054720e-01	 1.370581318554356e+00	-2.523053448567336e+01
1	 9.239773761239163e-01	 1.351914176950044e+00	-2.476301506719085e+01
1	 9.515641480643336e-01	 1.332640888323294e+00	-2.413695364307803e+01
1	 9.787950120419199e-01	 1.312770490751540e+00	-2.335593721849069e+01
1	 1.005650804072698e+00	 1.292312849514721e+00	-2.242411929615721e+01
1	 1.032112726755214e+00	 1.271278642628958e+00	-2.134620887785382e+01
1	 1.058162392066839e+00	 1.249679343640021e+00	-2.012745643939446e+01
1	 1.083781863174472e+00	 1.227527201727304e+00	-1.877363693672716e+01
1	 1.108953695063257e+00	 1.204835219185669e+00	-1.729102992611948e+01
1	 1.133660973792395e+00	 1.181617126368861e+00	-1.568639690627015e+01
1	 1.157887354194000e+00	 1.157887354194000e+00	-1.396695601418907e+01
1	 8.926341290724897e-01	 1.365350092144267e+00	-2.565898963347512e+01
1	 9.204507449180716e-01	 1.346754199172375e+00	-2.517329348877300e+01
1	 9.479322238352332e-01	 1.327554472716258e+00	-2.452497929573285e+01
1	 9.750591532169761e-01	 1.307759916356871e+00	-2.371774401724955e+01
1	 1.001812442224300e+00	 1.287380357720412e+00	-2.275586577343396e+01
1	 1.028173365201560e+00	 1.266426434067215e+00	-2.164419249333733e+01
1	 1.054123604309420e+00	 1.244909575150891e+00	-2.038812746152515e+01
1	 1.079645291175972e+00	 1.222841983398241e+00	-1.899361181900477e+01
1	 1.104721047370390e+00	 1.200236611477047e+00	-1.746710410405985e+01
1	 1.129334023508898e+00	 1.177107137335121e+00	-1.581555694404394e+01
1	 1.153467936809750e+00	 1.153467936809750e+00	-1.404639103380635e+01
1	 8.892140749400127e-01	 1.360118865733177e+00	-2.608815761138208e+01
1	 9.169241137126318e-01	 1.341594221393710e+00	-2.558391073427897e+01
1	 9.443002996064377e-01	 1.322468057108241e+00	-2.491293919031279e+01
1	 9.713232943922365e-01	 1.302749341961246e+00	-2.407905050651535e+01
1	 9.979740803760067e-01	 1.282447865925183e+00	-2.308664810839509e+01
1	 1.024234003647909e+00	 1.261574225504597e+00	-2.194071962021937e+01
1	 1.050084816551902e+00	 1.240139806660941e+00	-2.064682198108335e+01
1	 1.075508719177274e+00	 1.218156765068423e+00	-1.921106343818256e+01
1	 1.100488399677223e+00	 1.195638003767743e+00	-1.764008250543066e+01
1	 1.125007073225002e+00	 1.172597148300786e+00	-1.594102400169983e+01
1	 1.149048519425000e+00	 1.149048519425000e+00	-1.412151230821080e+01
1	 1.193242693250000e+00	 1.193242693250000e+00	-1.318193268994890e+01
1	 1.217697026177599e+00	 1.168276595001096e+00	-1.184981304516732e+01
1	 1.241624031217757e+00	 1.142814952252537e+00	-1.052351693932400e+01
1	 1.265008837051568e+00	 1.116874608974198e+00	-9.205648147777003e+00
1	 1.287837294336642e+00	 1.090472995220908e+00	-7.898765261063907e+00
1	 1.310096004041184e+00	 1.063628088283843e+00	-6.605372725428225e+00
1	 1.331772343264670e+00	 1.036358372237633e+00	-5.327912212326765e+00
1	 1.352854488442549e+00	 1.008682796072803e+00	-4.068754368816228e+00
1	 1.373331435848735e+00	 9.806207306103151e-01	-2.830190997176775e+00
1	 1.393193019326464e+00	 9.521919244005580e-01	-1.614427708159834e+00
1	 1.412429925195270e+00	 9.234164588131115e-01	-4.235770878845677e-01
1	 1.188823275869750e+00	 1.188823275869750e+00	-1.329416714030898e+01
1	 1.213187037194693e+00	 1.163949644650594e+00	-1.192828291606581e+01
1	 1.237025423698325e+00	 1.138582304281854e+00	-1.057228778019751e+01
1	 1.260323619140700e+00	 1.112738036348330e+00	-9.228659761409435e+00
1	 1.283067526584397e+00	 1.086434206349094e+00	-7.899817631207977e+00
1	 1.305243796623667e+00	 1.059688724992762e+00	-6.588112626370458e+00
1	 1.326839853109469e+00	 1.032520007894430e+00	-5.295820567759312e+00
1	 1.347843916268233e+00	 1.004946933863174e+00	-4.025134421862213e+00
1	 1.368245023128413e+00	 9.769888019761761e-01	-2.778157347434627e+00
1	 1.388033045185678e+00	 9.486652876410450e-01	-1.556896265242992e+00
1	 1.407198703254676e+00	 9.199963978519180e-01	-3.632559842138803e-01
1	 1.184403858489000e+00	 1.184403858489000e+00	-1.340246138584496e+01
1	 1.208677048211192e+00	 1.159622694299693e+00	-1.200317545670662e+01
1	 1.232426816178213e+00	 1.134349656310871e+00	-1.061787231271864e+01
1	 1.255638401229076e+00	 1.108601463722264e+00	-9.248903454995338e+00
1	 1.278297758831332e+00	 1.082395417477183e+00	-7.898546986350625e+00
1	 1.300391589205274e+00	 1.055749361701685e+00	-6.569000018953675e+00
1	 1.321907362953348e+00	 1.028681643551331e+00	-5.262371545990817e+00
1	 1.342833344092961e+00	 1.001211071653750e+00	-3.980675818178652e+00
1	 1.363158610407109e+00	 9.733568733423412e-01	-2.725826261493551e+00
1	 1.382873071043897e+00	 9.451386508819374e-01	-1.499629967701975e+00
1	 1.401967481313083e+00	 9.165763368912296e-01	-3.037827842463017e-01
1	 1.179984441107750e+00	 1.179984441107750e+00	-1.350677115459231e+01
1	 1.204167059227096e+00	 1.155295743948391e+00	-1.207445047236723e+01
1	 1.227828208657421e+00	 1.130117008339589e+00	-1.066023473566921e+01
1	 1.250953183316696e+00	 1.104464891095998e+00	-9.266348128308525e+00
1	 1.273527991077446e+00	 1.078356628605173e+00	-7.894927225198995e+00
1	 1.295539381786007e+00	 1.051809998410611e+00	-6.548014088476483e+00
1	 1.316974872796307e+00	 1.024843279208334e+00	-5.227549895591446e+00
1	 1.337822771916734e+00	 9.974752094445291e-01	-3.935369134655716e+00
1	 1.358072197684826e+00	 9.697249447088118e-01	-2.673194397373662e+00
1	 1.377713096901120e+00	 9.416120141232344e-01	-1.442631794698561e+00
1	 1.396736259370489e+00	 9.131562759310468e-01	-2.451670149904925e-01
1	 1.175565023726000e+00	 1.175565023726000e+00	-1.360705150884282e+01
1	 1.199657070242405e+00	 1.150968793596690e+00	-1.214206716389329e+01
1	 1.223229601135948e+00	 1.125884360368007e+00	-1.069933870946670e+01
1	 1.246267965403562e+00	 1.100328318469534e+00	-9.280962213450419e+00
1	 1.268758223322740e+00	 1.074317839733066e+00	-7.888931853959475e+00
1	 1.290687174365865e+00	 1.047870635119539e+00	-6.525133707234488e+00
1	 1.312042382638346e+00	 1.021004914865442e+00	-5.191340135786694e+00
1	 1.332812199739552e+00	 9.937393472355126e-01	-3.889204806483016e+00
1	 1.352985784961564e+00	 9.660930160755871e-01	-2.620258362839803e+00
1	 1.372553122757349e+00	 9.380853773649370e-01	-1.385904770193986e+00
1	 1.391505037426896e+00	 9.097362149713689e-01	-1.874183467182948e-01
1	 1.171145606343750e+00	 1.171145606343750e+00	-1.370325683258282e+01
1	 1.195147081257118e+00	 1.146641843244589e+00	-1.220598411629394e+01
1	 1.218630993613796e+00	 1.121651712396126e+00	-1.073514734600703e+01
1	 1.241582747489672e+00	 1.096191745842871e+00	-9.292713666025870e+00
1	 1.263988455567215e+00	 1.070279050860860e+00	-7.880533978932084e+00
1	 1.285834966944846e+00	 1.043931271828470e+00	-6.500337428614471e+00
1	 1.307109892479464e+00	 1.017166550522652e+00	-5.153726552129707e+00
1	 1.327801627561415e+00	 9.900034850267004e-01	-3.842173124475301e+00
1	 1.347899372237320e+00	 9.624610874426668e-01	-2.567014714453351e+00
1	 1.367393148612583e+00	 9.345587406070445e-01	-1.329451963794202e+00
1	 1.386273815482302e+00	 9.063161540121963e-01	-1.305465956681100e-01
1	 1.166726188961000e+00	 1.166726188961000e+00	-1.379534081864716e+01
1	 1.190637092271237e+00	 1.142314892892088e+00	-1.226615928707850e+01
1	 1.214032386090963e+00	 1.117419064423946e+00	-1.076762319827484e+01
1	 1.236897529575027e+00	 1.092055173216009e+00	-9.301569956118298e+00
1	 1.259218687810868e+00	 1.066240261988556e+00	-7.869706298936554e+00
1	 1.280982759522953e+00	 1.039991908537403e+00	-6.473603481054526e+00
1	 1.302177402319661e+00	 1.013328186179967e+00	-5.114693192076190e+00
1	 1.322791055382322e+00	 9.862676228180921e-01	-3.794264232338703e+00
1	 1.342812959512097e+00	 9.588291588100514e-01	-2.513459956602193e+00
1	 1.362233174466821e+00	 9.310321038495574e-01	-1.273276491614355e+00
1	 1.381042593536708e+00	 9.028960930535294e-01	-7.456172680902418e-02
1	 1.162306771577750e+00	 1.162306771577750e+00	-1.388325645557891e+01
1	 1.186127103284760e+00	 1.137987942539187e+00	-1.232254999432654e+01
1	 1.209433778567450e+00	 1.113186416451466e+00	-1.079672824971865e+01
1	 1.232212311659627e+00	 1.087918600588949e+00	-9.307498059059695e+00
1	 1.254448920053701e+00	 1.062201473116154e+00	-7.856421097565399e+00
1	 1.276130552100184e+00	 1.036052545246339e+00	-6.444909761866241e+00
1	 1.297244912158939e+00	 1.009489821837384e+00	-5.074223860457299e+00
1	 1.317780483202274e+00	 9.825317606096884e-01	-3.745468123873589e+00
1	 1.337726546785893e+00	 9.551972301777409e-01	-2.459590540509097e+00
1	 1.357073200320065e+00	 9.275054670924756e-01	-1.217381517162956e+00
1	 1.375811371590114e+00	 8.994760320953678e-01	-1.947385666882351e-02
1	 1.157887354194000e+00	 1.157887354194000e+00	-1.396695601418907e+01
1	 1.181617114297689e+00	 1.133660992185886e+00	-1.237511290448530e+01
1	 1.204835171043257e+00	 1.108953768478686e+00	-1.082242390338134e+01
1	 1.227527093743472e+00	 1.083782027961689e+00	-9.310464445988494e+00
1	 1.249679152295714e+00	 1.058162684243654e+00	-7.840650235259679e+00
1	 1.271278344676541e+00	 1.032113181955278e+00	-6.414233830915503e+00
1	 1.292312421997296e+00	 1.005651457494906e+00	-5.032302114850025e+00
1	 1.312769911021271e+00	 9.787958984014883e-01	-3.695774640113938e+00
1	 1.332640134058710e+00	 9.515653015457352e-01	-2.405402863217025e+00
1	 1.351913226172313e+00	 9.239788303357986e-01	-1.161770252246475e+00
1	 1.370580149642521e+00	 8.960559711377111e-01	 3.470674377401584e-02
1	 1.153467936809750e+00	 1.153467936809750e+00	-1.404639103380635e+01
1	 1.177107125310022e+00	 1.129334041832186e+00	-1.242380401988621e+01
1	 1.200236563518384e+00	 1.104721120505608e+00	-1.084467097078174e+01
1	 1.222841875826561e+00	 1.079645455334231e+00	-9.310435074190567e+00
1	 1.244909384536906e+00	 1.054123895371056e+00	-7.822365141203201e+00
1	 1.266426137252021e+00	 1.028173818664220e+00	-6.381552904158150e+00
1	 1.287379931834733e+00	 1.001813093152530e+00	-4.988911260839827e+00
1	 1.307759338839313e+00	 9.750600361934930e-01	-3.645173466400734e+00
1	 1.327553721330546e+00	 9.479333729140341e-01	-2.350893266551143e+00
1	 1.346753252023566e+00	 9.204521935795268e-01	-1.106445957894206e+00
1	 1.365348927693927e+00	 8.926359101805601e-01	 8.796964613145497e-02
1	 1.149048519425000e+00	 1.149048519425000e+00	-1.412151230821080e+01
1	 1.172597136321760e+00	 1.125007091478085e+00	-1.246857866597304e+01
1	 1.195637955992831e+00	 1.100488472532229e+00	-1.086342966053861e+01
1	 1.218156657908894e+00	 1.075508882706573e+00	-9.307375377218154e+00
1	 1.240139616777278e+00	 1.050085106498359e+00	-7.801536805028522e+00
1	 1.261573929826626e+00	 1.024234455373164e+00	-6.346843847026268e+00
1	 1.282447441671249e+00	 9.979747288102582e-01	-4.944034347175164e+00
1	 1.302748766656399e+00	 9.713241739857016e-01	-3.593654129387889e+00
1	 1.322467308601402e+00	 9.443014442826378e-01	-2.296058036057020e+00
1	 1.341593277873824e+00	 9.169255568236603e-01	-1.051411945305480e+00
1	 1.360117705744333e+00	 8.892158492239139e-01	 1.403042615784795e-01
1	 1.412429925195270e+00	 9.234164588131115e-01	-4.235770878845688e-01
1	 1.431033704299042e+00	 8.943147025262581e-01	-1.076436035688688e-01
1	 1.448996781178124e+00	 8.649072656246353e-01	 1.723620528592653e-01
1	 1.466312460364777e+00	 8.352149535143712e-01	 4.168115217930424e-01
1	 1.482974929818439e+00	 8.052587208623176e-01	 6.261592136060345e-01
1	 1.498979261534318e+00	 7.750596257605761e-01	 8.009390439588968e-01
1	 1.514321409374140e+00	 7.446387843134631e-01	 9.417608673584439e-01
1	 1.528998204183102e+00	 7.140173258369892e-01	 1.049306638353489e+00
1	 1.543007346271411e+00	 6.832163488529668e-01	 1.124326331034868e+00
1	 1.556347395352019e+00	 6.522568780507498e-01	 1.167633648453174e+00
1	 1.569017758038443e+00	 6.211598223794864e-01	 1.180101554184114e+00
1	 1.407198703254676e+00	 9.199963978519180e-01	-3.632559842138823e-01
1	 1.425733579472516e+00	 8.910024258475107e-01	-4.909449007714928e-02
1	 1.443630126436850e+00	 8.617039053787967e-01	 2.310043426962367e-01
1	 1.460881673477968e+00	 8.321215647948442e-01	 4.772720681616400e-01
1	 1.477482430081382e+00	 8.022762811526276e-01	 6.900187868607144e-01
1	 1.493427486494174e+00	 7.721890345513143e-01	 8.696305543074481e-01
1	 1.508712811563763e+00	 7.418808628874264e-01	 1.016566492544581e+00
1	 1.523335247872960e+00	 7.113728172202483e-01	 1.131355629617423e+00
1	 1.537292504249342e+00	 6.806859179289186e-01	 1.214593493213469e+00
1	 1.550583145740257e+00	 6.498411118335711e-01	 1.266938485823329e+00
1	 1.563206581156951e+00	 6.188592304428007e-01	 1.289108069590108e+00
1	 1.401967481313083e+00	 9.165763368912296e-01	-3.037827842463006e-01
1	 1.420433454645002e+00	 8.876901491693580e-01	 8.971263775861660e-03
1	 1.438263471694619e+00	 8.585005451336220e-01	 2.895395394220155e-01
1	 1.455450886590253e+00	 8.290281760760299e-01	 5.380127186301713e-01
1	 1.471989930343493e+00	 7.992938414436779e-01	 7.545557821744766e-01
1	 1.487875711453288e+00	 7.693184433428003e-01	 9.394061004267493e-01
1	 1.503104213752759e+00	 7.391229414621252e-01	 1.092871226020217e+00
1	 1.517672291562324e+00	 7.087283086042108e-01	 1.215326414704127e+00
1	 1.531577662226931e+00	 6.781554870055220e-01	 1.307211896200742e+00
1	 1.544818896128324e+00	 6.474253456169725e-01	 1.369029918143846e+00
1	 1.557395404275478e+00	 6.165586385066045e-01	 1.401341587186298e+00
1	 1.396736259370489e+00	 9.131562759310468e-01	-2.451670149904928e-01
1	 1.415133329816499e+00	 8.843778724918004e-01	 6.654822698214558e-02
1	 1.432896816951430e+00	 8.552971848891112e-01	 3.479664397418700e-01
1	 1.450020099701632e+00	 8.259347873579272e-01	 5.990366204342190e-01
1	 1.466497430604770e+00	 7.963114017354683e-01	 8.197778110293164e-01
1	 1.482323936411663e+00	 7.664478521350345e-01	 1.010277862491908e+00
1	 1.497495615941127e+00	 7.363650200375597e-01	 1.170691911696334e+00
1	 1.512009335251194e+00	 7.060837999888767e-01	 1.301240586799891e+00
1	 1.525862820204178e+00	 6.756250560827769e-01	 1.402207958429642e+00
1	 1.539054646516222e+00	 6.450095794009543e-01	 1.473939255466922e+00
1	 1.551584227394026e+00	 6.142580465708983e-01	 1.516838365420484e+00
1	 1.391505037426896e+00	 9.097362149713689e-01	-1.874183467182937e-01
1	 1.409833204987005e+00	 8.810655958148378e-01	 1.236308868640883e-01
1	 1.427530162207283e+00	 8.520938246452643e-01	 4.062838222666865e-01
1	 1.444589312812106e+00	 8.228413986405374e-01	 6.603469681361571e-01
1	 1.461004930865214e+00	 7.933289620279991e-01	 8.856925993656044e-01
1	 1.476772161369298e+00	 7.635772609280167e-01	 1.082258203838529e+00
1	 1.491887018128869e+00	 7.336070986137301e-01	 1.250045646775750e+00
1	 1.506346378939570e+00	 7.034392913742462e-01	 1.389120063800525e+00
1	 1.520147978181083e+00	 6.730946251606834e-01	 1.499608495602755e+00
1	 1.533290396903949e+00	 6.425938131855161e-01	 1.581698278672529e+00
1	 1.545773050512595e+00	 6.119574546356819e-01	 1.635635207980170e+00
1	 1.386273815482302e+00	 9.063161540121963e-01	-1.305465956681124e-01
1	 1.404533080156522e+00	 8.777533191384699e-01	 1.802136475341103e-01
1	 1.422163507462178e+00	 8.488904644020812e-01	 4.644904471709113e-01
1	 1.439158525921673e+00	 8.197480099238597e-01	 7.219470045182494e-01
1	 1.455512431124826e+00	 7.903465223212706e-01	 9.523079897417075e-01
1	 1.471220386326192e+00	 7.607066697217465e-01	 1.155359674418633e+00
1	 1.486278420315984e+00	 7.308491771906359e-01	 1.330949786532221e+00
1	 1.500683422627451e+00	 7.007947827603190e-01	 1.478987094437974e+00
1	 1.514433136157648e+00	 6.705641942392414e-01	 1.599440728187958e+00
1	 1.527526147291506e+00	 6.401780469706581e-01	 1.692339248351955e+00
1	 1.539961873631183e+00	 6.096568627009549e-01	 1.757769474080137e+00
1	 1.381042593536708e+00	 9.028960930535294e-01	-7.456172680902529e-02
1	 1.399232955325050e+00	 8.744410424626973e-01	 2.362908283182872e-01
1	 1.416796852716114e+00	 8.456871041595619e-01	 5.225850558440670e-01
1	 1.433727739030334e+00	 8.166546212078942e-01	 7.838400214956929e-01
1	 1.450019931383602e+00	 7.873640826152819e-01	 1.019631943542581e+00
1	 1.465668611282347e+00	 7.578360785162249e-01	 1.229595014334979e+00
1	 1.480669822502472e+00	 7.280912557682775e-01	 1.413421949198267e+00
1	 1.495020466314838e+00	 6.981502741470950e-01	 1.570864264546151e+00
1	 1.508718294133870e+00	 6.680337633184508e-01	 1.701732289084374e+00
1	 1.521761897678894e+00	 6.377622807563803e-01	 1.805894913893239e+00
1	 1.534150696749793e+00	 6.073562707667177e-01	 1.883279088983764e+00
1	 1.375811371590114e+00	 8.994760320953678e-01	-1.947385666882395e-02
1	 1.393932830492588e+00	 8.711287657875194e-01	 2.918566621445822e-01
1	 1.411430197969093e+00	 8.424837439177071e-01	 5.805663705331312e-01
1	 1.428296952138090e+00	 8.135612324926412e-01	 8.460293610509864e-01
1	 1.444527431641547e+00	 7.843816429100335e-01	 1.087672543238922e+00
1	 1.460116836237760e+00	 7.549654873114509e-01	 1.304977157456114e+00
1	 1.475061224688332e+00	 7.253333343466546e-01	 1.497480020964213e+00
1	 1.489357510001731e+00	 6.955057655345748e-01	 1.664774503469694e+00
1	 1.503003452109750e+00	 6.655033323983119e-01	 1.806511231463298e+00
1	 1.515997648066111e+00	 6.353465145426829e-01	 1.922398522773932e+00
1	 1.528339519868424e+00	 6.050556788329703e-01	 2.012202554764415e+00
1	 1.370580149642521e+00	 8.960559711377111e-01	 3.470674377401495e-02
1	 1.388632705659137e+00	 8.678164891129364e-01	 3.469052938942234e-01
1	 1.406063543221113e+00	 8.392803836765158e-01	 6.384330939774594e-01
1	 1.422866165244939e+00	 8.104678437781004e-01	 9.085184161891213e-01
1	 1.439034931898659e+00	 7.813992032055257e-01	 1.156437994697863e+00
1	 1.454565061192434e+00	 7.520948961074252e-01	 1.381519235114347e+00
1	 1.469452626873565e+00	 7.225754129257675e-01	 1.583142161091976e+00
1	 1.483694553688131e+00	 6.928612569227579e-01	 1.760741090619557e+00
1	 1.497288610085289e+00	 6.629729014788244e-01	 1.913806036788703e+00
1	 1.510233398453159e+00	 6.329307483295653e-01	 2.041883830066541e+00
1	 1.522528342987074e+00	 6.027550868997127e-01	 2.144578961313246e+00
1	 1.365348927693927e+00	 8.926359101805601e-01	 8.796964613145430e-02
1	 1.383332580824696e+00	 8.645042124389484e-01	 4.014307787146052e-01
1	 1.400696888472175e+00	 8.360770234359884e-01	 6.961839090350601e-01
1	 1.417435378350883e+00	 8.073744550642721e-01	 9.713106319152776e-01
1	 1.433542432154936e+00	 7.784167635017580e-01	 1.225936629547085e+00
1	 1.449013286146368e+00	 7.492243049041475e-01	 1.459234579888259e+00
1	 1.463844029058172e+00	 7.198174915056162e-01	 1.670426807146395e+00
1	 1.478031597374036e+00	 6.902167483116444e-01	 1.858787662179202e+00
1	 1.491573768060486e+00	 6.604424705599883e-01	 2.023645623021948e+00
1	 1.504469148840036e+00	 6.305149821170281e-01	 2.164385108162636e+00
1	 1.516717166105746e+00	 6.004544949669447e-01	 2.280447997600150e+00
1	 1.360117705744333e+00	 8.892158492239139e-01	 1.403042615784804e-01
1	 1.378032455989265e+00	 8.611919357655552e-01	 4.554270802940581e-01
1	 1.395330233722280e+00	 8.328736631961248e-01	 7.538174783000937e-01
1	 1.412004591455920e+00	 8.042810663511558e-01	 1.034409506234660e+00
1	 1.428049932410381e+00	 7.754343237987307e-01	 1.296176907592964e+00
1	 1.443461511099561e+00	 7.463537137016177e-01	 1.538136729473125e+00
1	 1.458235431242151e+00	 7.170595700862005e-01	 1.759352680347026e+00
1	 1.472368641059446e+00	 6.875722397012342e-01	 1.958938217965695e+00
1	 1.485858926035341e+00	 6.579120396418039e-01	 2.136059353016171e+00
1	 1.498704899226743e+00	 6.280992159050710e-01	 2.289937156721234e+00
1	 1.510905989224438e+00	 5.981539030346662e-01	 2.419849963194360e+00
1	 1.569017758038443e+00	 6.211598223794864e-01	 1.180101554184114e+00
1	 1.581018673018042e+00	 5.899459344225171e-01	 1.608933236470415e+00
1	 1.592351194024379e+00	 5.586357711947570e-01	 2.006726375377754e+00
1	 1.603017170743082e+00	 5.272496564900992e-01	 2.374717131669477e+00
1	 1.613019227792836e+00	 4.958076448932794e-01	 2.714190799530093e+00
1	 1.622360741927263e+00	 4.643294875584610e-01	 3.026475120977552e+00
1	 1.631045817609864e+00	 4.328345998423444e-01	 3.312933644598276e+00
1	 1.639079261117299e+00	 4.013420308663295e-01	 3.574959167734216e+00
1	 1.646466553328508e+00	 3.698704350687274e-01	 3.813967298817304e+00
1	 1.653213821358251e+00	 3.384380457946703e-01	 4.031390173892532e+00
1	 1.659327809193490e+00	 3.070626509582619e-01	 4.228670358540329e+00
1	 1.563206581156951e+00	 6.188592304428007e-01	 1.289108069590109e+00
1	 1.575163048302803e+00	 5.877609494785290e-01	 1.725539442581651e+00
1	 1.586453597008709e+00	 5.565667498185800e-01	 2.129491589053573e+00
1	 1.597080070109610e+00	 5.252968799835349e-01	 2.502239730324910e+00
1	 1.607045082503379e+00	 4.939713202818894e-01	 2.845111432731535e+00
1	 1.616351998437140e+00	 4.626097487153827e-01	 3.159479662698027e+00
1	 1.625004907172679e+00	 4.312315087319867e-01	 3.446755880976528e+00
1	 1.633008597185630e+00	 3.998555789007989e-01	 3.708383217002888e+00
1	 1.640368529055379e+00	 3.685005445696170e-01	 3.945829761831043e+00
1	 1.647090807203667e+00	 3.371845715526645e-01	 4.160582015383700e+00
1	 1.653182150639727e+00	 3.059253818828811e-01	 4.354138520844755e+00
1	 1.557395404275478e+00	 6.165586385066045e-01	 1.401341587186298e+00
1	 1.569307423587768e+00	 5.855759645349309e-01	 1.845290924379457e+00
1	 1.580555999993397e+00	 5.544977284426922e-01	 2.255312079459221e+00
1	 1.591142969476617e+00	 5.233441034771595e-01	 2.632719601766430e+00
1	 1.601070937214489e+00	 4.921349956705874e-01	 2.978883610937351e+00
1	 1.610343254947646e+00	 4.608900098722921e-01	 3.295222591338903e+00
1	 1.618963996736152e+00	 4.296284176215159e-01	 3.583196220500590e+00
1	 1.626937933254618e+00	 3.983691269350543e-01	 3.844298274322564e+00
1	 1.634270504782878e+00	 3.671306540701919e-01	 4.080049649294542e+00
1	 1.640967793049654e+00	 3.359310973102441e-01	 4.291991539167506e+00
1	 1.647036492086448e+00	 3.047881128069858e-01	 4.481678800525977e+00
1	 1.551584227394026e+00	 6.142580465708983e-01	 1.516838365420484e+00
1	 1.563451798872938e+00	 5.833909795917217e-01	 1.968223022036879e+00
1	 1.574658402978442e+00	 5.524287070670937e-01	 2.384222175544127e+00
1	 1.585205868844101e+00	 5.213913269709726e-01	 2.766189973776089e+00
1	 1.595096791926169e+00	 4.902986710593735e-01	 3.115539373977454e+00
1	 1.604334511458779e+00	 4.591702710291886e-01	 3.433734675291379e+00
1	 1.612923086300284e+00	 4.280253265109319e-01	 3.722284080058937e+00
1	 1.620867269324265e+00	 3.968826749690960e-01	 3.982732328547309e+00
1	 1.628172480511007e+00	 3.657607635704530e-01	 4.216653449122832e+00
1	 1.634844778896213e+00	 3.346776230674090e-01	 4.425643663022672e+00
1	 1.640890833533655e+00	 3.036508437305756e-01	 4.611314479802027e+00
1	 1.545773050512595e+00	 6.119574546356819e-01	 1.635635207980170e+00
1	 1.557596174158313e+00	 5.812059946489027e-01	 2.094371607158126e+00
1	 1.568760805963844e+00	 5.503596856917844e-01	 2.516256722482426e+00
1	 1.579268768212064e+00	 5.194385504649747e-01	 2.902684573801734e+00
1	 1.589122646638417e+00	 4.884623464482477e-01	 3.255111243483637e+00
1	 1.598325767970542e+00	 4.574505321860728e-01	 3.575047145629156e+00
1	 1.606882175865073e+00	 4.264222354002345e-01	 3.864049318899245e+00
1	 1.614796605394570e+00	 3.953962230029236e-01	 4.123713789416172e+00
1	 1.622074456239765e+00	 3.643908730703992e-01	 4.355668047545440e+00
1	 1.628721764743343e+00	 3.334241488241593e-01	 4.561563679431236e+00
1	 1.634745174981347e+00	 3.025135746536509e-01	 4.743069190999513e+00
1	 1.539961873631183e+00	 6.096568627009549e-01	 1.757769474080137e+00
1	 1.551740549443892e+00	 5.790210097064733e-01	 2.223773092805440e+00
1	 1.562863208949603e+00	 5.482906643167645e-01	 2.651451091413084e+00
1	 1.573331667580505e+00	 5.174857739591653e-01	 3.042237638384718e+00
1	 1.583148501351234e+00	 4.866260218372101e-01	 3.397632231980211e+00
1	 1.592317024482933e+00	 4.557307933429445e-01	 3.719191704838337e+00
1	 1.600841265430521e+00	 4.248191442894240e-01	 4.008522246974777e+00
1	 1.608725941465534e+00	 3.939097710365376e-01	 4.267271495494411e+00
1	 1.615976431969151e+00	 3.630209825700315e-01	 4.497120736621643e+00
1	 1.622598750591044e+00	 3.321706745804950e-01	 4.699777262648590e+00
1	 1.628599516429524e+00	 3.013763055762114e-01	 4.876966923159294e+00
1	 1.534150696749793e+00	 6.073562707667177e-01	 1.883279088983765e+00
1	 1.545884924729675e+00	 5.768360247644332e-01	 2.356464443754041e+00
1	 1.556965611935718e+00	 5.462216429420338e-01	 2.789841189401320e+00
1	 1.567394566949424e+00	 5.155329974535449e-01	 3.184883922801790e+00
1	 1.577174356064618e+00	 4.847896972262605e-01	 3.543135852181154e+00
1	 1.586308280995951e+00	 4.540110544998034e-01	 3.866200535745679e+00
1	 1.594800354996628e+00	 4.232160531785003e-01	 4.155733633480443e+00
1	 1.602655277537156e+00	 3.924233190699375e-01	 4.413434722295190e+00
1	 1.609878407699168e+00	 3.616510920693493e-01	 4.641039221926847e+00
1	 1.616475736439316e+00	 3.309172003364161e-01	 4.840310475933951e+00
1	 1.622453857878187e+00	 3.002390364982573e-01	 5.013032028792564e+00
1	 1.528339519868424e+00	 6.050556788329703e-01	 2.012202554764415e+00
1	 1.540029300015664e+00	 5.746510398227830e-01	 2.492483186980988e+00
1	 1.551068014922191e+00	 5.441526215675925e-01	 2.931463469627344e+00
1	 1.561457466318822e+00	 5.135802209481131e-01	 3.330658710926985e+00
1	 1.571200210778572e+00	 4.829533726153991e-01	 3.691656126499486e+00
1	 1.580299537509599e+00	 4.522913156566499e-01	 4.016106310650471e+00
1	 1.588759444563392e+00	 4.216129620674632e-01	 4.305714715583659e+00
1	 1.596584613609436e+00	 3.909368671031239e-01	 4.562233190586579e+00
1	 1.603780383429813e+00	 3.602812015683527e-01	 4.787451630413891e+00
1	 1.610352722288160e+00	 3.296637260919225e-01	 4.983189778945821e+00
1	 1.616308199327336e+00	 2.991017674197886e-01	 5.151289230790871e+00
1	 1.522528342987074e+00	 6.027550868997127e-01	 2.144578961313246e+00
1	 1.534173675301857e+00	 5.724660548815225e-01	 2.631867422394156e+00
1	 1.545170417909021e+00	 5.420836001934402e-01	 3.076354941808373e+00
1	 1.555520365688698e+00	 5.116274444428700e-01	 3.479597825319362e+00
1	 1.565226065493095e+00	 4.811170480046258e-01	 3.843227596774274e+00
1	 1.574290794023876e+00	 4.505715768134839e-01	 4.168942200665740e+00
1	 1.582718534130814e+00	 4.200098709563129e-01	 4.458497207355089e+00
1	 1.590513949682374e+00	 3.894504151360962e-01	 4.713697074888787e+00
1	 1.597682359161087e+00	 3.589113110670420e-01	 4.936386518454753e+00
1	 1.604229708137576e+00	 3.284102518470144e-01	 5.128442035307020e+00
1	 1.610162540776969e+00	 2.979644983408051e-01	 5.291763629494454e+00
1	 1.516717166105746e+00	 6.004544949669447e-01	 2.280447997600150e+00
1	 1.528318050588254e+00	 5.702810699406512e-01	 2.774655833808001e+00
1	 1.539272820896209e+00	 5.400145788195774e-01	 3.224553182860254e+00
1	 1.549583265059052e+00	 5.096746679378158e-01	 3.631737637542646e+00
1	 1.559251920208186e+00	 4.792807233939406e-01	 3.997885334221386e+00
1	 1.568282050538780e+00	 4.488518379703051e-01	 4.324741885273962e+00
1	 1.576677623698894e+00	 4.184067798450494e-01	 4.614113308904744e+00
1	 1.584443285755970e+00	 3.879639631688547e-01	 4.867857012166732e+00
1	 1.591584334892991e+00	 3.575414205654169e-01	 5.087872880066914e+00
1	 1.598106693987562e+00	 3.271567776016915e-01	 5.276094520343267e+00
1	 1.604016882227088e+00	 2.968272292613071e-01	 5.434480709923050e+00
1	 1.510905989224438e+00	 5.981539030346662e-01	 2.419849963194360e+00
1	 1.522462425874856e+00	 5.680960850001697e-01	 2.920887700172443e+00
1	 1.533375223883753e+00	 5.379455574460036e-01	 3.376096347805182e+00
1	 1.543646164429885e+00	 5.077218914329501e-01	 3.787115078722991e+00
1	 1.553277774923845e+00	 4.774443987833434e-01	 4.155664949613771e+00
1	 1.562273307054314e+00	 4.471320991271139e-01	 4.483539562103442e+00
1	 1.570636713267633e+00	 4.168036887336726e-01	 4.772595715728916e+00
1	 1.578372621830225e+00	 3.864775112013993e-01	 5.024744110723193e+00
1	 1.585486310625523e+00	 3.561715300634773e-01	 5.241940155329575e+00
1	 1.591983679838120e+00	 3.259033033559541e-01	 5.426174929000657e+00
1	 1.597871223677692e+00	 2.956899601812942e-01	 5.579466349173633e+00
1	 1.659327809193490e+00	 3.070626509582619e-01	 4.228670358540329e+00
1	 1.664815847489567e+00	 2.757615707984563e-01	 4.550685950105390e+00
1	 1.669685822681940e+00	 2.445516377392528e-01	 4.865100427719529e+00
1	 1.673946145564679e+00	 2.134491783511683e-01	 5.170939170365259e+00
1	 1.677605719482796e+00	 1.824699974001331e-01	 5.467275420546826e+00
1	 1.680673908281956e+00	 1.516293639610336e-01	 5.753231846945760e+00
1	 1.683160504152465e+00	 1.209419995620245e-01	 6.027981818515572e+00
1	 1.685075695498425e+00	 9.042206831711004e-02	 6.290750397010939e+00
1	 1.686430034956264e+00	 6.008316899630568e-02	 6.540815056557823e+00
1	 1.687234407679612e+00	 2.993832897530470e-02	 6.777506140307223e+00
1	 1.687500000000000e+00	 0.000000000000000e+00	 7.000207065470812e+00
1	 1.653182150639727e+00	 3.059253818828811e-01	 4.354138520844755e+00
1	 1.658649862868273e+00	 2.747402316500877e-01	 4.679227681192375e+00
1	 1.663501801115695e+00	 2.436458909358744e-01	 4.996003908570991e+00
1	 1.667746345024976e+00	 2.126586258419814e-01	 5.303514287402031e+00
1	 1.671392364965773e+00	 1.817941825981718e-01	 5.600854958360308e+00
1	 1.674449190102844e+00	 1.510677737272060e-01	 5.887172551590176e+00
1	 1.676926576359123e+00	 1.204940662330635e-01	 6.161665332547310e+00
1	 1.678834674403884e+00	 9.008717177007017e-02	 6.423584068134074e+00
1	 1.680183997789714e+00	 5.986063874243008e-02	 6.672232622355688e+00
1	 1.680985391354862e+00	 2.982744627630038e-02	 6.906968292104931e+00
1	 1.681250000000000e+00	 0.000000000000000e+00	 7.127201894883598e+00
1	 1.647036492086448e+00	 3.047881128069858e-01	 4.481678800525977e+00
1	 1.652483878247369e+00	 2.737188925011205e-01	 4.809821310769362e+00
1	 1.657317779549757e+00	 2.427401441318451e-01	 5.128935228427599e+00
1	 1.661546544485506e+00	 2.118680733321224e-01	 5.438089451961118e+00
1	 1.665179010448921e+00	 1.811183677955478e-01	 5.736403134119761e+00
1	 1.668224471923851e+00	 1.505061834927549e-01	 6.023046985173547e+00
1	 1.670692648565856e+00	 1.200461329035475e-01	 6.297244289959057e+00
1	 1.672593653309384e+00	 8.975227522257262e-02	 6.558271647084527e+00
1	 1.673937960623182e+00	 5.963810848822221e-02	 6.805459440144215e+00
1	 1.674736375030116e+00	 2.971656357711652e-02	 7.038192052117305e+00
1	 1.675000000000000e+00	 0.000000000000000e+00	 7.255907835271659e+00
1	 1.640890833533655e+00	 3.036508437305756e-01	 4.611314479802027e+00
1	 1.646317893626857e+00	 2.726975533515546e-01	 4.942489893875888e+00
1	 1.651133757984127e+00	 2.418343973271649e-01	 5.263917171997704e+00
1	 1.655346743946269e+00	 2.110775208215913e-01	 5.574687136487122e+00
1	 1.658965655932239e+00	 1.804425529922610e-01	 5.873942067353276e+00
1	 1.661999753744974e+00	 1.499445932576803e-01	 6.160876874988090e+00
1	 1.664458720772664e+00	 1.195981995734766e-01	 6.434739987868385e+00
1	 1.666352632214926e+00	 8.941737867461744e-02	 6.694833964288557e+00
1	 1.667691923456669e+00	 5.941557823368204e-02	 6.940515838598870e+00
1	 1.668487358705375e+00	 2.960568087775315e-02	 7.171197213696654e+00
1	 1.668750000000000e+00	 0.000000000000000e+00	 7.386344112602862e+00
1	 1.634745174981347e+00	 3.025135746536509e-01	 4.743069190999513e+00
1	 1.640151909006735e+00	 2.716762142013902e-01	 5.077256832243817e+00
1	 1.644949736418803e+00	 2.409286505218338e-01	 5.400972866616743e+00
1	 1.649146943407267e+00	 2.102869683103881e-01	 5.713330151356072e+00
1	 1.652752301415728e+00	 1.797667381883113e-01	 6.013494210213480e+00
1	 1.655775035566215e+00	 1.493830030219821e-01	 6.300684275052263e+00
1	 1.658224792979547e+00	 1.191502662428507e-01	 6.574174043650437e+00
1	 1.660111611120509e+00	 8.908248212620461e-02	 6.833292163411869e+00
1	 1.661445886290175e+00	 5.919304797880957e-02	 7.077422452089573e+00
1	 1.662238342380638e+00	 2.949479817821025e-02	 7.306003867839834e+00
1	 1.662500000000000e+00	 0.000000000000000e+00	 7.518530241957425e+00
1	 1.628599516429524e+00	 3.013763055762114e-01	 4.876966923159294e+00
1	 1.633985924387004e+00	 2.706548750506272e-01	 5.214145880838696e+00
1	 1.638765714853786e+00	 2.400229037158518e-01	 5.540125788712102e+00
1	 1.642947142868497e+00	 2.094964157985129e-01	 5.854041651251606e+00
1	 1.646538946899387e+00	 1.790909233836990e-01	 6.155082353753398e+00
1	 1.649550317387574e+00	 1.488214127856604e-01	 6.442491572275451e+00
1	 1.651990865186505e+00	 1.187023329116699e-01	 6.715568400980251e+00
1	 1.653870590026136e+00	 8.874758557733411e-02	 6.973667707269973e+00
1	 1.655199849123698e+00	 5.897051772360481e-02	 7.216200226448441e+00
1	 1.655989326055906e+00	 2.938391547848782e-02	 7.442632408804092e+00
1	 1.656250000000000e+00	 0.000000000000000e+00	 7.652486032982914e+00
1	 1.622453857878187e+00	 3.002390364982573e-01	 5.013032028792564e+00
1	 1.627819939767664e+00	 2.696335358992656e-01	 5.353181154549748e+00
1	 1.632581693289076e+00	 2.391171569092190e-01	 5.681399770414568e+00
1	 1.636747342329961e+00	 2.087058632859655e-01	 5.996845141685924e+00
1	 1.640325592383216e+00	 1.784151085784239e-01	 6.298729634345119e+00
1	 1.643325599209050e+00	 1.482598225487153e-01	 6.586321492762584e+00
1	 1.645756937393538e+00	 1.182543995799342e-01	 6.858945336012891e+00
1	 1.647629568931803e+00	 8.841268902800598e-02	 7.115982383872586e+00
1	 1.648953811957240e+00	 5.874798746806772e-02	 7.356870424868766e+00
1	 1.649740309731178e+00	 2.927303277858587e-02	 7.581103539850555e+00
1	 1.650000000000000e+00	 0.000000000000000e+00	 7.788231595473142e+00
1	 1.616308199327336e+00	 2.991017674197886e-01	 5.151289230790871e+00
1	 1.621653955148714e+00	 2.686121967473054e-01	 5.494387135032529e+00
1	 1.626397671724673e+00	 2.382114101019353e-01	 5.824819006320799e+00
1	 1.630547541791658e+00	 2.079153107727461e-01	 6.141764485669460e+00
1	 1.634112237867217e+00	 1.777392937724861e-01	 6.444459540244651e+00
1	 1.637100881030644e+00	 1.476982323111466e-01	 6.732197108262868e+00
1	 1.639523009600644e+00	 1.178064662476434e-01	 7.004327463704328e+00
1	 1.641388547837511e+00	 8.807779247822020e-02	 7.260258312605999e+00
1	 1.642707774790801e+00	 5.852545721219837e-02	 7.499454633938411e+00
1	 1.643491293406455e+00	 2.916215007850440e-02	 7.721438279118970e+00
1	 1.643750000000000e+00	 0.000000000000000e+00	 7.925787345074356e+00
1	 1.610162540776969e+00	 2.979644983408051e-01	 5.291763629494454e+00
1	 1.615487970530155e+00	 2.675908575947465e-01	 5.637788677708356e+00
1	 1.620213650160576e+00	 2.373056632940007e-01	 5.970408060410549e+00
1	 1.624347741253589e+00	 2.071247582588545e-01	 6.288823910533472e+00
1	 1.627898883351387e+00	 1.770634789658854e-01	 6.592295918307384e+00
1	 1.630876162852356e+00	 1.471366420729543e-01	 6.880141842765910e+00
1	 1.633289081807827e+00	 1.173585329147978e-01	 7.151737744276999e+00
1	 1.635147526743263e+00	 8.774289592797674e-02	 7.406517950557131e+00
1	 1.636461737624380e+00	 5.830292695599671e-02	 7.643974769811603e+00
1	 1.637242277081737e+00	 2.905126737824339e-02	 7.863657965636762e+00
1	 1.637500000000000e+00	 0.000000000000000e+00	 8.065174009122121e+00
1	 1.604016882227088e+00	 2.968272292613071e-01	 5.434480709923050e+00
1	 1.609321985911987e+00	 2.665695184415892e-01	 5.783411018924472e+00
1	 1.614029628596787e+00	 2.363999164854152e-01	 6.118191873123074e+00
1	 1.618147940715754e+00	 2.063342057442909e-01	 6.438048014909274e+00
1	 1.621685528835728e+00	 1.763876641586219e-01	 6.742262980857770e+00
1	 1.624651444674185e+00	 1.465750518341386e-01	 7.030179479249743e+00
1	 1.627055154015084e+00	 1.169105995813973e-01	 7.301199489834213e+00
1	 1.628906505649055e+00	 8.740799937727564e-02	 7.554784098982853e+00
1	 1.630215700457978e+00	 5.808039669946276e-02	 7.790453084522316e+00
1	 1.630993260757023e+00	 2.894038467780287e-02	 8.007784265466325e+00
1	 1.631250000000000e+00	 0.000000000000000e+00	 8.206412632612389e+00
1	 1.597871223677692e+00	 2.956899601812942e-01	 5.579466349173633e+00
1	 1.603156001294210e+00	 2.655481792878331e-01	 5.931279783279641e+00
1	 1.607845607033304e+00	 2.354941696761788e-01	 6.268195768596689e+00
1	 1.611948140178151e+00	 2.055436532290552e-01	 6.589461775868674e+00
1	 1.615472174320238e+00	 1.757118493506957e-01	 6.894385312717570e+00
1	 1.618426726496131e+00	 1.460134615946993e-01	 7.182334166584333e+00
1	 1.620821226222415e+00	 1.164626662474418e-01	 7.452736371127093e+00
1	 1.622665484554890e+00	 8.707310282611690e-02	 7.705079909928669e+00
1	 1.623969663291593e+00	 5.785786644259650e-02	 7.938912172443633e+00
1	 1.624744244432313e+00	 2.882950197718281e-02	 8.153839177994165e+00
1	 1.625000000000000e+00	 0.000000000000000e+00	 8.349524584310426e+00
1	 0.000000000000000e+00	 1.625000000000000e+00	-2.838739436364363e+01
1	 2.882950197718292e-02	 1.624744244432312e+00	-2.816744425112700e+01
1	 5.785786644259672e-02	 1.623969663291593e+00	-2.796280860557563e+01
1	 8.707310282611723e-02	 1.622665484554889e+00	-2.777408506906163e+01
1	 1.164626662474422e-01	 1.620821226222415e+00	-2.760184493874803e+01
1	 1.460134615946999e-01	 1.618426726496131e+00	-2.744662999249590e+01
1	 1.757118493506963e-01	 1.615472174320239e+00	-2.730894929245535e+01
1	 2.055436532290559e-01	 1.611948140178151e+00	-2.718927598443181e+01
1	 2.354941696761796e-01	 1.607845607033304e+00	-2.708804411199153e+01
1	 2.655481792878340e-01	 1.603156001294210e+00	-2.700564546532981e+01
1	 2.956899601812942e-01	 1.597871223677692e+00	-2.694242648588656e+01
1	 0.000000000000000e+00	 1.618750000000000e+00	-2.864211550180854e+01
1	 2.871861927647312e-02	 1.618495228107603e+00	-2.844542032973547e+01
1	 5.763533618556434e-02	 1.617723626125209e+00	-2.826242503602329e+01
1	 8.673820627472963e-02	 1.616424463460723e+00	-2.809363755050692e+01
1	 1.160147329132092e-01	 1.614587298429746e+00	-2.793954174843653e+01
1	 1.454518713549488e-01	 1.612202008318077e+00	-2.780059470459099e+01
1	 1.750360345424388e-01	 1.609258819804750e+00	-2.767722393444698e+01
1	 2.047531007134842e-01	 1.605748339640550e+00	-2.756982463808496e+01
1	 2.345884228666178e-01	 1.601661585469822e+00	-2.747875696347861e+01
1	 2.645268401337788e-01	 1.596990016676433e+00	-2.740434330670923e+01
1	 2.945526911010241e-01	 1.591725565128296e+00	-2.734686566742842e+01
1	 0.000000000000000e+00	 1.612500000000000e+00	-2.889649412302614e+01
1	 2.860773657576330e-02	 1.612246211782890e+00	-2.872323475437313e+01
1	 5.741280592853192e-02	 1.611477588958806e+00	-2.856204878991128e+01
1	 8.640330972334206e-02	 1.610183442366517e+00	-2.841335393217066e+01
1	 1.155667995789763e-01	 1.608353370637003e+00	-2.827754612969805e+01
1	 1.448902811151978e-01	 1.605977290139907e+00	-2.815499726168278e+01
1	 1.743602197341811e-01	 1.603045465289091e+00	-2.804605281876373e+01
1	 2.039625481979124e-01	 1.599548539102714e+00	-2.795102959356038e+01
1	 2.336826760570559e-01	 1.595477563906032e+00	-2.787021339526645e+01
1	 2.635055009797235e-01	 1.590824032058265e+00	-2.780385680334294e+01
1	 2.934154220207540e-01	 1.585579906578415e+00	-2.775217697596420e+01
1	 0.000000000000000e+00	 1.606250000000000e+00	-2.915052622904419e+01
1	 2.849685387505348e-02	 1.605997195458171e+00	-2.900088563802912e+01
1	 5.719027567149952e-02	 1.605231551792385e+00	-2.886167995272717e+01
1	 8.606841317195449e-02	 1.603942421272267e+00	-2.873323612728488e+01
1	 1.151188662447433e-01	 1.602119442844185e+00	-2.861586167286137e+01
1	 1.443286908754468e-01	 1.599752571961618e+00	-2.850984277480240e+01
1	 1.736844049259236e-01	 1.596832110773261e+00	-2.841544241516030e+01
1	 2.031719956823407e-01	 1.593348738564645e+00	-2.833289851196865e+01
1	 2.327769292474942e-01	 1.589293542341937e+00	-2.826242208728056e+01
1	 2.624841618256682e-01	 1.584658047439706e+00	-2.820419547649826e+01
1	 2.922781529404838e-01	 1.579434248028048e+00	-2.815837059196421e+01
1	 0.000000000000000e+00	 1.600000000000000e+00	-2.940420775913779e+01
1	 2.838597117434367e-02	 1.599748179133448e+00	-2.927837106420729e+01
1	 5.696774541446713e-02	 1.598985514625946e+00	-2.916131861129451e+01
1	 8.573351662056690e-02	 1.597701400177976e+00	-2.905328607897608e+01
1	 1.146709329105103e-01	 1.595885515051292e+00	-2.895449202435531e+01
1	 1.437671006356958e-01	 1.593527853783212e+00	-2.886513643484107e+01
1	 1.730085901176660e-01	 1.590618756257261e+00	-2.878539929448157e+01
1	 2.023814431667689e-01	 1.587148938026342e+00	-2.871543917412544e+01
1	 2.318711824379323e-01	 1.583109520777533e+00	-2.865539185507055e+01
1	 2.614628226716130e-01	 1.578492062820757e+00	-2.860536899621238e+01
1	 2.911408838602137e-01	 1.573288589477196e+00	-2.856545685496910e+01
1	 0.000000000000000e+00	 1.593750000000000e+00	-2.965753458888418e+01
1	 2.827508847363386e-02	 1.593499162808720e+00	-2.955568908634912e+01
1	 5.674521515743472e-02	 1.592739477459487e+00	-2.946096485379861e+01
1	 8.539862006917934e-02	 1.591460379083644e+00	-2.937350576085094e+01
1	 1.142229995762773e-01	 1.589651587258324e+00	-2.929344088780767e+01
1	 1.432055103959447e-01	 1.587303135604688e+00	-2.922088351411501e+01
1	 1.723327753094084e-01	 1.584405401741091e+00	-2.915593013064388e+01
1	 2.015908906511972e-01	 1.580949137487807e+00	-2.909865948289840e+01
1	 2.309654356283705e-01	 1.576925499212823e+00	-2.904913165246883e+01
1	 2.604414835175577e-01	 1.572326078201417e+00	-2.900738718420917e+01
1	 2.900036147799436e-01	 1.567142930925859e+00	-2.897344626670803e+01
1	 0.000000000000000e+00	 1.587500000000000e+00	-2.991050252890905e+01
1	 2.816420577292405e-02	 1.587250146483988e+00	-2.983283772724152e+01
1	 5.652268490040232e-02	 1.586493440293011e+00	-2.976061876981335e+01
1	 8.506372351779176e-02	 1.585219357989270e+00	-2.969389717759681e+01
1	 1.137750662420444e-01	 1.583417659465282e+00	-2.963271202517032e+01
1	 1.426439201561937e-01	 1.581078417426047e+00	-2.957708936796986e+01
1	 1.716569605011508e-01	 1.578192047224749e+00	-2.952704170266537e+01
1	 2.008003381356254e-01	 1.574749336949036e+00	-2.948256746560966e+01
1	 2.300596888188087e-01	 1.570741477647806e+00	-2.944365057431340e+01
1	 2.594201443635024e-01	 1.566160093581686e+00	-2.941026001688590e+01
1	 2.888663456996736e-01	 1.560997272374037e+00	-2.938234949429201e+01
1	 0.000000000000000e+00	 1.581250000000000e+00	-3.016310732360313e+01
1	 2.805332307221422e-02	 1.581001130159251e+00	-3.010981497841115e+01
1	 5.630015464336992e-02	 1.580247403126517e+00	-3.006028045032907e+01
1	 8.472882696640421e-02	 1.578978336894853e+00	-3.001446236559554e+01
1	 1.133271329078114e-01	 1.577183731672165e+00	-2.997230925787327e+01
1	 1.420823299164427e-01	 1.574853699247288e+00	-2.993375943642011e+01
1	 1.709811456928932e-01	 1.571978692708238e+00	-2.989874089674193e+01
1	 2.000097856200536e-01	 1.568549536410033e+00	-2.986717127649550e+01
1	 2.291539420092468e-01	 1.564557456082482e+00	-2.983895785923379e+01
1	 2.583988052094471e-01	 1.559994108961564e+00	-2.981399762836896e+01
1	 2.877290766194034e-01	 1.554851613821729e+00	-2.979217737348171e+01
1	 0.000000000000000e+00	 1.575000000000000e+00	-3.041534464980770e+01
1	 2.794244037150441e-02	 1.574752113834510e+00	-3.038661879950405e+01
1	 5.607762438633752e-02	 1.574001365960003e+00	-3.035994998778036e+01
1	 8.439393041501661e-02	 1.572737315800395e+00	-3.033520339355234e+01
1	 1.128791995735784e-01	 1.570949803878973e+00	-3.031223646800357e+01
1	 1.415207396766917e-01	 1.568628981068412e+00	-3.029089924583027e+01
1	 1.703053308846356e-01	 1.565765338191557e+00	-3.027103470837379e+01
1	 1.992192331044819e-01	 1.562349735870797e+00	-3.025247919922466e+01
1	 2.282481951996851e-01	 1.558373434516852e+00	-3.023506289250466e+01
1	 2.573774660553919e-01	 1.553828124341051e+00	-3.021861031364384e+01
1	 2.865918075391334e-01	 1.548705955268936e+00	-3.020294091203412e+01
1	 0.000000000000000e+00	 1.568750000000000e+00	-3.066721011546910e+01
1	 2.783155767079460e-02	 1.568503097509764e+00	-3.066324711765140e+01
1	 5.585509412930512e-02	 1.567755328793472e+00	-3.065962747607463e+01
1	 8.405903386362903e-02	 1.566496294705896e+00	-3.065612236314032e+01
1	 1.124312662393454e-01	 1.564715876085707e+00	-3.065249759951501e+01
1	 1.409591494369407e-01	 1.562404262889417e+00	-3.064851441063405e+01
1	 1.696295160763781e-01	 1.559551983674704e+00	-3.064393024454423e+01
1	 1.984286805889101e-01	 1.556149935331327e+00	-3.063849964947667e+01
1	 2.273424483901232e-01	 1.552189412950914e+00	-3.063197520896675e+01
1	 2.563561269013366e-01	 1.547662139720148e+00	-3.062410853176004e+01
1	 2.854545384588632e-01	 1.542560296715658e+00	-3.061465129312894e+01
1	 0.000000000000000e+00	 1.562500000000000e+00	-3.091869925826052e+01
1	 2.772067497008478e-02	 1.562254081185013e+00	-3.093969782681691e+01
1	 5.563256387227270e-02	 1.561509291626921e+00	-3.095931301062227e+01
1	 8.372413731224146e-02	 1.560255273611354e+00	-3.097722140965880e+01
1	 1.119833329051125e-01	 1.558481948292365e+00	-3.099309665946384e+01
1	 1.403975591971897e-01	 1.556179544710306e+00	-3.100661063509610e+01
1	 1.689537012681205e-01	 1.553338629157681e+00	-3.101743472594746e+01
1	 1.976381280733384e-01	 1.549950134791623e+00	-3.102524117758155e+01
1	 2.264367015805614e-01	 1.546005391384669e+00	-3.102970449601868e+01
1	 2.553347877472812e-01	 1.541496155098854e+00	-3.103050290911133e+01
1	 2.843172693785931e-01	 1.536414638161894e+00	-3.102731987887621e+01
1	 2.956899601812942e-01	 1.597871223677692e+00	-2.694242648588656e+01
1	 3.259033209473203e-01	 1.591983672806970e+00	-2.692675657906920e+01
1	 3.561716011306555e-01	 1.585486282276886e+00	-2.690419500409776e+01
1	 3.864776726680479e-01	 1.578372557534725e+00	-2.687469404910577e+01
1	 4.168039785420755e-01	 1.570636598043658e+00	-2.683822842561361e+01
1	 4.471325562140517e-01	 1.562273125559002e+00	-2.679479621582260e+01
1	 4.774450630523527e-01	 1.553277511444354e+00	-2.674441974193937e+01
1	 5.077228037229133e-01	 1.543645802875016e+00	-2.668714634841835e+01
1	 5.379467594960321e-01	 1.533374747776042e+00	-2.662304908825387e+01
1	 5.680976194107575e-01	 1.522461818343218e+00	-2.655222730478624e+01
1	 5.981558132251138e-01	 1.510905232997459e+00	-2.647480710093467e+01
1	 2.945526911010241e-01	 1.591725565128296e+00	-2.734686566742842e+01
1	 3.246498466337143e-01	 1.585860658684571e+00	-2.733541459521880e+01
1	 3.548017103552142e-01	 1.579388258118452e+00	-2.731744546521717e+01
1	 3.849912200794389e-01	 1.572301893856271e+00	-2.729294046578334e+01
1	 4.152008863159564e-01	 1.564595688055566e+00	-2.726190329977677e+01
1	 4.454128156127678e-01	 1.556264382772594e+00	-2.722435996689039e+01
1	 4.756087358868324e-01	 1.547303367173396e+00	-2.718035946678657e+01
1	 5.057700237092162e-01	 1.537708703636443e+00	-2.712997441496891e+01
1	 5.358777334991784e-01	 1.527477152594769e+00	-2.707330156361492e+01
1	 5.659126285686943e-01	 1.516606195966480e+00	-2.701046221998006e+01
1	 5.958552139459493e-01	 1.505094059024716e+00	-2.694160255546915e+01
1	 2.934154220207540e-01	 1.585579906578415e+00	-2.775217697596420e+01
1	 3.233963723201035e-01	 1.579737644561601e+00	-2.774484705482191e+01
1	 3.534318195797540e-01	 1.573290233959389e+00	-2.773137660409497e+01
1	 3.835047674907872e-01	 1.566231230177158e+00	-2.771177793786656e+01
1	 4.135977940897611e-01	 1.558554778066816e+00	-2.768608397188718e+01
1	 4.436930750113641e-01	 1.550255639985558e+00	-2.765434884008078e+01
1	 4.737724087211388e-01	 1.541329222901870e+00	-2.761664843061687e+01
1	 5.038172436952825e-01	 1.531771604397393e+00	-2.757308083452474e+01
1	 5.338087075020141e-01	 1.521579557413140e+00	-2.752376670018306e+01
1	 5.637276377262360e-01	 1.510750573589538e+00	-2.746884948744326e+01
1	 5.935546146662950e-01	 1.499282885051952e+00	-2.740849561566501e+01
1	 2.922781529404838e-01	 1.579434248028048e+00	-2.815837059196421e+01
1	 3.221428980064879e-01	 1.573614630438058e+00	-2.815506299807476e+01
1	 3.520619288042749e-01	 1.567192209799696e+00	-2.814599636638613e+01
1	 3.820183149020926e-01	 1.560160566497386e+00	-2.813121336483529e+01
1	 4.119947018634894e-01	 1.552513868077407e+00	-2.811077634620133e+01
1	 4.419733344098407e-01	 1.544246897197892e+00	-2.808476779791036e+01
1	 4.719360815552722e-01	 1.535355078629775e+00	-2.805329071015161e+01
1	 5.018644636811116e-01	 1.525834505157865e+00	-2.801646885634475e+01
1	 5.317396815045389e-01	 1.515681962231154e+00	-2.797444698038789e+01
1	 5.615426468833827e-01	 1.504894951212391e+00	-2.792739088560982e+01
1	 5.912540153861509e-01	 1.493471711079169e+00	-2.787548742089131e+01
1	 2.911408838602137e-01	 1.573288589477196e+00	-2.856545685496910e+01
1	 3.208894236928678e-01	 1.567491616313945e+00	-2.856607160642633e+01
1	 3.506920380287771e-01	 1.561094185639375e+00	-2.856131282189696e+01
1	 3.805318623133558e-01	 1.554089902816957e+00	-2.855125375397421e+01
1	 4.103916096371418e-01	 1.546472958087341e+00	-2.853598641923091e+01
1	 4.402535938081976e-01	 1.538238154409600e+00	-2.851562188043444e+01
1	 4.700997543892323e-01	 1.529380934357111e+00	-2.849029044581119e+01
1	 4.999116836667042e-01	 1.519897405917859e+00	-2.846014178045760e+01
1	 5.296706555067532e-01	 1.509784367048810e+00	-2.842534492544592e+01
1	 5.593576560401343e-01	 1.499039328835039e+00	-2.838608822070208e+01
1	 5.889534161055172e-01	 1.487660537106364e+00	-2.834257912832008e+01
1	 2.900036147799436e-01	 1.567142930925859e+00	-2.897344626670803e+01
1	 3.196359493792428e-01	 1.561368602189260e+00	-2.897788220534827e+01
1	 3.493221472532603e-01	 1.554996161478424e+00	-2.897733416701871e+01
1	 3.790454097245760e-01	 1.548019239135868e+00	-2.897190622248582e+01
1	 4.087885174107178e-01	 1.540432048096616e+00	-2.896172028154982e+01
1	 4.385338532064350e-01	 1.532229411620677e+00	-2.894691620676865e+01
1	 4.682634272230193e-01	 1.523406790083879e+00	-2.892765184296303e+01
1	 4.979589036520597e-01	 1.513960306677373e+00	-2.890410295865710e+01
1	 5.276016295086566e-01	 1.503886771866110e+00	-2.887646309612337e+01
1	 5.571726651964911e-01	 1.493183706457484e+00	-2.884494332727479e+01
1	 5.866528168243939e-01	 1.481849363133539e+00	-2.880977191327456e+01
1	 2.888663456996736e-01	 1.560997272374037e+00	-2.938234949429201e+01
1	 3.183824750656133e-01	 1.555245588064005e+00	-2.939050426717067e+01
1	 3.479522564777247e-01	 1.548898137316844e+00	-2.939406872721923e+01
1	 3.775589571357537e-01	 1.541948575454122e+00	-2.939317799965490e+01
1	 4.071854251842177e-01	 1.534391138105233e+00	-2.938798411964680e+01
1	 4.368141126045528e-01	 1.526220668831127e+00	-2.937865597664451e+01
1	 4.664271000566331e-01	 1.517432645810078e+00	-2.936537917320194e+01
1	 4.960061236371787e-01	 1.508023207436410e+00	-2.934835579552139e+01
1	 5.255326035102491e-01	 1.497989176683052e+00	-2.932780409351223e+01
1	 5.549876743524528e-01	 1.487328084079723e+00	-2.930395806877414e+01
1	 5.843522175427805e-01	 1.476038189160694e+00	-2.927706696958761e+01
1	 2.877290766194034e-01	 1.554851613821729e+00	-2.979217737348171e+01
1	 3.171290007519789e-01	 1.549122573938177e+00	-2.980394741398297e+01
1	 3.465823657021703e-01	 1.542800113154635e+00	-2.981152495959468e+01
1	 3.760725045468888e-01	 1.535877911771718e+00	-2.981507642906272e+01
1	 4.055823329576415e-01	 1.528350228113192e+00	-2.981478421782043e+01
1	 4.350943720025509e-01	 1.520211926040949e+00	-2.981084647200227e+01
1	 4.645907728900738e-01	 1.511458501535709e+00	-2.980347677565664e+01
1	 4.940533436220606e-01	 1.502086108194968e+00	-2.979290374945558e+01
1	 5.234635775115312e-01	 1.492091581499637e+00	-2.977937055982908e+01
1	 5.528026835080193e-01	 1.481472461701757e+00	-2.976313433810721e+01
1	 5.820516182606777e-01	 1.470227015187828e+00	-2.974446550996663e+01
1	 2.865918075391334e-01	 1.548705955268936e+00	-3.020294091203412e+01
1	 3.158755264383401e-01	 1.542999559811778e+00	-3.021822142060659e+01
1	 3.452124749265970e-01	 1.536702088991797e+00	-3.022971145548155e+01
1	 3.745860519579813e-01	 1.529807248088656e+00	-3.023760897085603e+01
1	 4.039792407309888e-01	 1.522309318120492e+00	-3.024212696012038e+01
1	 4.333746314004291e-01	 1.514203183250141e+00	-3.024349305862350e+01
1	 4.627544457233413e-01	 1.505484357260771e+00	-3.024194905833177e+01
1	 4.921005636067058e-01	 1.496149008953049e+00	-3.023775033376032e+01
1	 5.213945515125024e-01	 1.486193986315865e+00	-3.023116517923095e+01
1	 5.506176926631909e-01	 1.475616839323588e+00	-3.022247405822760e+01
1	 5.797510189780850e-01	 1.464415841214940e+00	-3.021196876636825e+01
1	 2.854545384588632e-01	 1.542560296715658e+00	-3.061465129312894e+01
1	 3.146220521246965e-01	 1.536876545684809e+00	-3.063333621763716e+01
1	 3.438425841510050e-01	 1.530604064828330e+00	-3.064863694312847e+01
1	 3.730995993690313e-01	 1.523736584404935e+00	-3.066078320406769e+01
1	 4.023761485042602e-01	 1.516268408127134e+00	-3.067001883233418e+01
1	 4.316548907981879e-01	 1.508194440458706e+00	-3.067660118779904e+01
1	 4.609181185564356e-01	 1.499510212985264e+00	-3.068080049947839e+01
1	 4.901477835911143e-01	 1.490211909710651e+00	-3.068289911772523e+01
1	 5.193255255131628e-01	 1.480296391131736e+00	-3.068319067864926e+01
1	 5.484327018179675e-01	 1.469761216945213e+00	-3.068197918273346e+01
1	 5.774504196950028e-01	 1.458604667242033e+00	-3.067957799038193e+01
1	 2.843172693785931e-01	 1.536414638161894e+00	-3.102731987887621e+01
1	 3.133685778110481e-01	 1.530753531557268e+00	-3.104930189455981e+01
1	 3.424726933753939e-01	 1.524506040664233e+00	-3.106831029043742e+01
1	 3.716131467800383e-01	 1.517665920720555e+00	-3.108460682899587e+01
1	 4.007730562774552e-01	 1.510227498133118e+00	-3.109846642402186e+01
1	 4.299351501958268e-01	 1.502185697666641e+00	-3.111017639804084e+01
1	 4.590817913893566e-01	 1.493536068709189e+00	-3.112003564900031e+01
1	 4.881950035752856e-01	 1.484274810467774e+00	-3.112835372774833e+01
1	 5.172564995135125e-01	 1.474398795947250e+00	-3.113544982864714e+01
1	 5.462477109723490e-01	 1.463905594566634e+00	-3.114165169648016e+01
1	 5.751498204114305e-01	 1.452793493269105e+00	-3.114729445362297e+01
1	 5.981558132251138e-01	 1.510905232997459e+00	-2.647480710093467e+01
1	 6.281007588439635e-01	 1.498704292723710e+00	-2.622838419836030e+01
1	 6.579132137821299e-01	 1.485858478666659e+00	-2.603135866958285e+01
1	 6.875730439622622e-01	 1.472368362237649e+00	-2.588289603263709e+01
1	 7.170600038632492e-01	 1.458235330359818e+00	-2.578194659251844e+01
1	 7.463537768744996e-01	 1.443461597506724e+00	-2.572724460691350e+01
1	 7.754340167387930e-01	 1.428050215391504e+00	-2.571730858121464e+01
1	 8.042803899268617e-01	 1.412005080206547e+00	-2.575044272424556e+01
1	 8.328726187771164e-01	 1.395330937325453e+00	-2.582473958745141e+01
1	 8.611905252251535e-01	 1.378033383391821e+00	-2.593808390109692e+01
1	 8.892140749400127e-01	 1.360118865733177e+00	-2.608815761138208e+01
1	 5.958552139459493e-01	 1.505094059024716e+00	-2.694160255546915e+01
1	 6.256849866976283e-01	 1.492940045443118e+00	-2.670637754430424e+01
1	 6.553827783480308e-01	 1.480143638362154e+00	-2.651561000283242e+01
1	 6.849285322585621e-01	 1.466705406995429e+00	-2.636847743586461e+01
1	 7.143020807754989e-01	 1.452626732931767e+00	-2.626396111736409e+01
1	 7.434831854290583e-01	 1.437909822127521e+00	-2.620084559106118e+01
1	 7.724515782168534e-01	 1.422557714558471e+00	-2.617771920757182e+01
1	 8.011870038154978e-01	 1.406574291431654e+00	-2.619297572510390e+01
1	 8.296692625544068e-01	 1.389964279869233e+00	-2.624481699283596e+01
1	 8.578782539771157e-01	 1.372733254989258e+00	-2.633125672756706e+01
1	 8.857940208077832e-01	 1.354887639321841e+00	-2.645012538538456e+01
1	 5.935546146662950e-01	 1.499282885051952e+00	-2.740849561566501e+01
1	 6.232692145507182e-01	 1.487175798162693e+00	-2.718429012553997e+01
1	 6.528523429132996e-01	 1.474428798057970e+00	-2.699956433466952e+01
1	 6.822840205542025e-01	 1.461042451753660e+00	-2.685350769278924e+01
1	 7.115441576870911e-01	 1.447018135504266e+00	-2.674513249475589e+01
1	 7.406125939829914e-01	 1.432358046748937e+00	-2.667327371787223e+01
1	 7.694691396943503e-01	 1.417065213726096e+00	-2.663658980252688e+01
1	 7.980936177036622e-01	 1.401143502657427e+00	-2.663356439887212e+01
1	 8.264659063313485e-01	 1.384597622413657e+00	-2.666250909493798e+01
1	 8.545659827288828e-01	 1.367433126587285e+00	-2.672156713382120e+01
1	 8.823739666755429e-01	 1.349656412911010e+00	-2.680871811952486e+01
1	 5.912540153861509e-01	 1.493471711079169e+00	-2.787548742089131e+01
1	 6.208534424032326e-01	 1.481411550882432e+00	-2.766212099929196e+01
1	 6.503219074779359e-01	 1.468713957754109e+00	-2.748321819815443e+01
1	 6.796395088491832e-01	 1.455379496512341e+00	-2.733798036979810e+01
1	 7.087862345980256e-01	 1.441409538077313e+00	-2.722545088250626e+01
1	 7.377420025362977e-01	 1.426806271370970e+00	-2.714451529640508e+01
1	 7.664867011712828e-01	 1.411572712894377e+00	-2.709390238905894e+01
1	 7.950002315913550e-01	 1.395712713883865e+00	-2.707218604912391e+01
1	 8.232625501079412e-01	 1.379230964958724e+00	-2.707778804974866e+01
1	 8.512537114804548e-01	 1.362132998185900e+00	-2.710898170639184e+01
1	 8.789539125432920e-01	 1.344425186500684e+00	-2.716389641644851e+01
1	 5.889534161055172e-01	 1.487660537106364e+00	-2.834257912832008e+01
1	 6.184376702551715e-01	 1.475647303602336e+00	-2.813986920805393e+01
1	 6.477914720419405e-01	 1.462999117450571e+00	-2.796656807217562e+01
1	 6.769949971435040e-01	 1.449716541271473e+00	-2.782188893275342e+01
1	 7.060283115083020e-01	 1.435800940650910e+00	-2.770490628464377e+01
1	 7.348714110889788e-01	 1.421254495993622e+00	-2.761455642179693e+01
1	 7.635042626476513e-01	 1.406080212063316e+00	-2.754963870925592e+01
1	 7.919068454785760e-01	 1.390281925110968e+00	-2.750881762480102e+01
1	 8.200591938841850e-01	 1.373864307504433e+00	-2.749062557819594e+01
1	 8.479414402318316e-01	 1.356832869785106e+00	-2.749346650972594e+01
1	 8.755338584110304e-01	 1.339193960090862e+00	-2.751562026321728e+01
1	 5.866528168243939e-01	 1.481849363133539e+00	-2.880977191327456e+01
1	 6.160218981065348e-01	 1.469883056322405e+00	-2.861753377929901e+01
1	 6.452610366053125e-01	 1.457284277147355e+00	-2.844961038038914e+01
1	 6.743504854371650e-01	 1.444053586031055e+00	-2.830522674502067e+01
1	 7.032703884179204e-01	 1.430192343225056e+00	-2.818348854839760e+01
1	 7.320008196410335e-01	 1.415702720616891e+00	-2.808338297106986e+01
1	 7.605218241234559e-01	 1.400587711232911e+00	-2.800378021880773e+01
1	 7.888134593653254e-01	 1.384851136338736e+00	-2.794343571326010e+01
1	 8.168558376600803e-01	 1.368497650050785e+00	-2.790099295761557e+01
1	 8.446291689830134e-01	 1.351532741384902e+00	-2.787498707594827e+01
1	 8.721138042787584e-01	 1.333962733681547e+00	-2.786384901923944e+01
1	 5.843522175427805e-01	 1.476038189160694e+00	-2.927706696958762e+01
1	 6.136061259573231e-01	 1.464118809042641e+00	-2.909511372518634e+01
1	 6.427306011680527e-01	 1.451569436844461e+00	-2.893234149013049e+01
1	 6.717059737301663e-01	 1.438390630791089e+00	-2.878798706545165e+01
1	 7.005124653268815e-01	 1.424583745799752e+00	-2.866118736111031e+01
1	 7.291302281924623e-01	 1.410150945240779e+00	-2.855098059883695e+01
1	 7.575393855986965e-01	 1.395095210403164e+00	-2.845630808136740e+01
1	 7.857200732516032e-01	 1.379420347567170e+00	-2.837601653315523e+01
1	 8.136524814356267e-01	 1.363130992597781e+00	-2.830886101301712e+01
1	 8.413168977340000e-01	 1.346232612985287e+00	-2.825350839438234e+01
1	 8.686937501464757e-01	 1.328731507272737e+00	-2.820854140391384e+01
1	 5.820516182606777e-01	 1.470227015187828e+00	-2.974446550996662e+01
1	 6.111903538075359e-01	 1.458354561763041e+00	-2.957260804225585e+01
1	 6.402001657301603e-01	 1.445854596541890e+00	-2.941475771130125e+01
1	 6.690614620225077e-01	 1.432727675551572e+00	-2.927016304631913e+01
1	 6.977545422351846e-01	 1.418975148374996e+00	-2.913799224707912e+01
1	 7.262596367432651e-01	 1.404599169865285e+00	-2.901733473290606e+01
1	 7.545569470733730e-01	 1.389602709574073e+00	-2.890720316278024e+01
1	 7.826266871374092e-01	 1.373989558796268e+00	-2.880653592715007e+01
1	 8.104491252108244e-01	 1.357764335145419e+00	-2.871420010814596e+01
1	 8.380046264847917e-01	 1.340932484586262e+00	-2.862899490082362e+01
1	 8.652736960141821e-01	 1.323500280864432e+00	-2.854965548398189e+01
1	 5.797510189780850e-01	 1.464415841214940e+00	-3.021196876636824e+01
1	 6.087745816571732e-01	 1.452590314483606e+00	-3.005001571111970e+01
1	 6.376697302916360e-01	 1.440139756239641e+00	-2.989685529523064e+01
1	 6.664169503141892e-01	 1.427064720312506e+00	-2.975174773120111e+01
1	 6.949966191428300e-01	 1.413366550950790e+00	-2.961389256431925e+01
1	 7.233890452934422e-01	 1.399047394490409e+00	-2.948243056978130e+01
1	 7.515745085474853e-01	 1.384110208745639e+00	-2.935644602517480e+01
1	 7.795333010227438e-01	 1.368558770026033e+00	-2.923496935445925e+01
1	 8.072457689856732e-01	 1.352397677693700e+00	-2.911698013633065e+01
1	 8.346923552353879e-01	 1.335632356187827e+00	-2.900141046655637e+01
1	 8.618536418818783e-01	 1.318269054456633e+00	-2.888714866057781e+01
1	 5.774504196950028e-01	 1.458604667242033e+00	-3.067957799038193e+01
1	 6.063588095062353e-01	 1.446826067204337e+00	-3.052733569614565e+01
1	 6.351392948524793e-01	 1.434424915937714e+00	-3.037863043350798e+01
1	 6.637724386052111e-01	 1.421401765073890e+00	-3.023273405281689e+01
1	 6.922386960498171e-01	 1.407757953527133e+00	-3.008887750125374e+01
1	 7.205184538429931e-01	 1.393495619116151e+00	-2.994625307005414e+01
1	 7.485920700210338e-01	 1.378617707917862e+00	-2.980401692091294e+01
1	 7.764399149076062e-01	 1.363127981256463e+00	-2.966129188320847e+01
1	 8.040424127601733e-01	 1.347031020242625e+00	-2.951717051111242e+01
1	 8.313800839857892e-01	 1.330332227789982e+00	-2.937071838710808e+01
1	 8.584335877495636e-01	 1.313037828049339e+00	-2.922097765596940e+01
1	 5.751498204114305e-01	 1.452793493269105e+00	-3.114729445362298e+01
1	 6.039430373547219e-01	 1.441061819925233e+00	-3.100456694513021e+01
1	 6.326088594126902e-01	 1.428710075636110e+00	-3.086007925678773e+01
1	 6.611279268955733e-01	 1.415738809835725e+00	-3.071311483080850e+01
1	 6.894807729561468e-01	 1.402149356104025e+00	-3.056293607331968e+01
1	 7.176478623919178e-01	 1.387943843742511e+00	-3.040878695368540e+01
1	 7.456096314940183e-01	 1.373125207090741e+00	-3.024989578639426e+01
1	 7.733465287919971e-01	 1.357697192487557e+00	-3.008547818261480e+01
1	 8.008390565343244e-01	 1.341664362792192e+00	-2.991474015664869e+01
1	 8.280678127359949e-01	 1.325032099392725e+00	-2.973688137073543e+01
1	 8.550135336172382e-01	 1.307806601642550e+00	-2.955109849998148e+01
1	 8.892140749400127e-01	 1.360118865733177e+00	-2.608815761138208e+01
1	 9.169241137126318e-01	 1.341594221393710e+00	-2.558391073427897e+01
1	 9.443002996064377e-01	 1.322468057108241e+00	-2.491293919031279e+01
1	 9.713232943922365e-01	 1.302749341961246e+00	-2.407905050651535e+01
1	 9.979740803760067e-01	 1.282447865925183e+00	-2.308664810839509e+01
1	 1.024234003647909e+00	 1.261574225504597e+00	-2.194071962021937e+01
1	 1.050084816551902e+00	 1.240139806660941e+00	-2.064682198108335e+01
1	 1.075508719177274e+00	 1.218156765068423e+00	-1.921106343818256e+01
1	 1.100488399677223e+00	 1.195638003767743e+00	-1.764008250543066e+01
1	 1.125007073225002e+00	 1.172597148300786e+00	-1.594102400169983e+01
1	 1.149048519425000e+00	 1.149048519425000e+00	-1.412151230821080e+01
1	 8.857940208077832e-01	 1.354887639321841e+00	-2.645012538538456e+01
1	 9.133974825074825e-01	 1.336434243614756e+00	-2.589481360493591e+01
1	 9.406683753779600e-01	 1.317381641499908e+00	-2.517585538400031e+01
1	 9.675874355678278e-01	 1.297738767565291e+00	-2.429702496977812e+01
1	 9.941357185280414e-01	 1.277515374129625e+00	-2.326267945229770e+01
1	 1.020294642094569e+00	 1.256722016941668e+00	-2.207774717961394e+01
1	 1.046046028794664e+00	 1.235370038170712e+00	-2.074771306080753e+01
1	 1.071372147178807e+00	 1.213471546738373e+00	-1.927860081767490e+01
1	 1.096255751984227e+00	 1.191039396058271e+00	-1.767695227211146e+01
1	 1.120680122941198e+00	 1.168087159266359e+00	-1.594980378171501e+01
1	 1.144629102040250e+00	 1.144629102040250e+00	-1.410465996079203e+01
1	 8.823739666755429e-01	 1.349656412911010e+00	-2.680871811952487e+01
1	 9.098708513025079e-01	 1.331274265836217e+00	-2.620251501030706e+01
1	 9.370364511498132e-01	 1.312295225891918e+00	-2.543576657938889e+01
1	 9.638515767438763e-01	 1.292728193169630e+00	-2.451221354344113e+01
1	 9.902973566806300e-01	 1.272582882334329e+00	-2.343616634630847e+01
1	 1.016355280541851e+00	 1.251869808378991e+00	-2.221249368967119e+01
1	 1.042007241038083e+00	 1.230600269680745e+00	-2.084660802381135e+01
1	 1.067235575181005e+00	 1.208786328408613e+00	-1.934444805884933e+01
1	 1.092023104291869e+00	 1.186440788349138e+00	-1.771245838230537e+01
1	 1.116353172657979e+00	 1.163577170232342e+00	-1.595756629375835e+01
1	 1.140209684656000e+00	 1.140209684656000e+00	-1.408715599143243e+01
1	 8.789539125432920e-01	 1.344425186500684e+00	-2.716389641644851e+01
1	 9.063442200977082e-01	 1.326114288058093e+00	-2.650697757920132e+01
1	 9.334045269219975e-01	 1.307208810284272e+00	-2.569263769867714e+01
1	 9.601157179203821e-01	 1.287717618774262e+00	-2.472458370739233e+01
1	 9.864589948337726e-01	 1.267650390539297e+00	-2.360707908867838e+01
1	 1.012415918989753e+00	 1.247017599816565e+00	-2.234493252335688e+01
1	 1.037968453282159e+00	 1.225830501191038e+00	-2.094348356912229e+01
1	 1.063099003183865e+00	 1.204101110079144e+00	-1.940858543246534e+01
1	 1.087790456600151e+00	 1.181842180640346e+00	-1.774658491784279e+01
1	 1.112026222375345e+00	 1.159067181198735e+00	-1.596429966310540e+01
1	 1.135790267272250e+00	 1.135790267272250e+00	-1.406899279364840e+01
1	 8.755338584110304e-01	 1.339193960090862e+00	-2.751562026321729e+01
1	 9.028175888930824e-01	 1.320954310280383e+00	-2.680816335650286e+01
1	 9.297726026945123e-01	 1.302122394676972e+00	-2.594643311597333e+01
1	 9.563798590973454e-01	 1.282707044379188e+00	-2.493410243339355e+01
1	 9.826206329874694e-01	 1.262717898744528e+00	-2.377538751356825e+01
1	 1.008476557438275e+00	 1.242165391254392e+00	-2.247503663758884e+01
1	 1.033929665526892e+00	 1.221060732701593e+00	-2.103831603168943e+01
1	 1.058962431187389e+00	 1.199415891749966e+00	-1.947099290101209e+01
1	 1.083557808909072e+00	 1.177243572931894e+00	-1.777931571183283e+01
1	 1.107699272093295e+00	 1.154557192165538e+00	-1.596999182948895e+01
1	 1.131370849889000e+00	 1.131370849889000e+00	-1.405016264210529e+01
1	 8.721138042787584e-01	 1.333962733681547e+00	-2.786384901923943e+01
1	 8.992909576886323e-01	 1.315794332503090e+00	-2.710603379172178e+01
1	 9.261406784673580e-01	 1.297035979070015e+00	-2.619711664654813e+01
1	 9.526440002747659e-01	 1.277696469984407e+00	-2.514073617511642e+01
1	 9.787822711417200e-01	 1.257785406950021e+00	-2.394106098194983e+01
1	 1.004537195887419e+00	 1.237313182692471e+00	-2.260277856508005e+01
1	 1.029890877772283e+00	 1.216290964212409e+00	-2.113108137524562e+01
1	 1.054825859191577e+00	 1.194730673421079e+00	-1.953165011266566e+01
1	 1.079325161218633e+00	 1.172644965223782e+00	-1.781063434378607e+01
1	 1.103372321811831e+00	 1.150047203132750e+00	-1.597463054346159e+01
1	 1.126951432506250e+00	 1.126951432506250e+00	-1.403065769028631e+01
1	 8.686937501464757e-01	 1.328731507272737e+00	-2.820854140391384e+01
1	 8.957643264843568e-01	 1.310634354726211e+00	-2.740054972727395e+01
1	 9.225087542405346e-01	 1.291949563463404e+00	-2.644465153583402e+01
1	 9.489081414526440e-01	 1.272685895589921e+00	-2.534445085794394e+01
1	 9.749439092965251e-01	 1.252852915155777e+00	-2.410406837229008e+01
1	 1.000597834337182e+00	 1.232460974130801e+00	-2.272813040598805e+01
1	 1.025852090018330e+00	 1.211521195723487e+00	-2.122175518499986e+01
1	 1.050689287196428e+00	 1.190045455092482e+00	-1.959053639510023e+01
1	 1.075092513528833e+00	 1.168046357516011e+00	-1.784052413462302e+01
1	 1.099045371530951e+00	 1.145537214100373e+00	-1.597820336267071e+01
1	 1.122532015124000e+00	 1.122532015124000e+00	-1.401046996810770e+01
1	 8.652736960141821e-01	 1.323500280864432e+00	-2.854965548398189e+01
1	 8.922376952802561e-01	 1.305474376949747e+00	-2.769167138648259e+01
1	 9.188768300140424e-01	 1.286863147857137e+00	-2.668900044816375e+01
1	 9.451722826309791e-01	 1.267675321195727e+00	-2.554521186853016e+01
1	 9.711055474518836e-01	 1.247920423361796e+00	-2.426437807101622e+01
1	 9.966584727875668e-01	 1.227608765569384e+00	-2.285106381936547e+01
1	 1.021813302265035e+00	 1.206751427234825e+00	-2.131031266015642e+01
1	 1.046552715201942e+00	 1.185360236764176e+00	-1.964763074915527e+01
1	 1.070859865839671e+00	 1.163447749808579e+00	-1.786896814156303e+01
1	 1.094718421250657e+00	 1.141027225068407e+00	-1.598069764804679e+01
1	 1.118112597742250e+00	 1.118112597742250e+00	-1.398959137947652e+01
1	 8.618536418818783e-01	 1.318269054456633e+00	-2.888714866057781e+01
1	 8.887110640763302e-01	 1.300314399173698e+00	-2.797935836129558e+01
1	 9.152449057878809e-01	 1.281776732251214e+00	-2.693012545524042e+01
1	 9.414364238097718e-01	 1.262664746801828e+00	-2.574298404411111e+01
1	 9.672671856077967e-01	 1.242987931568079e+00	-2.442195796275267e+01
1	 9.927191112385724e-01	 1.222756557008219e+00	-2.297155001440955e+01
1	 1.017774514512397e+00	 1.201981658746425e+00	-2.139672860625641e+01
1	 1.042416143208120e+00	 1.180675018436160e+00	-1.970291184235019e+01
1	 1.066627218151150e+00	 1.158849142101489e+00	-1.789594915289271e+01
1	 1.090391470970947e+00	 1.136517236036850e+00	-1.598210055990032e+01
1	 1.113693180361000e+00	 1.113693180361000e+00	-1.396801369979028e+01
1	 8.584335877495636e-01	 1.313037828049339e+00	-2.922097765596940e+01
1	 8.851844328725788e-01	 1.295154421398064e+00	-2.826356959970825e+01
1	 9.116129815620500e-01	 1.276690316645636e+00	-2.716798802433245e+01
1	 9.377005649890215e-01	 1.257654172408223e+00	-2.593773166155968e+01
1	 9.634288237642632e-01	 1.238055439774623e+00	-2.457677542032514e+01
1	 9.887797496901980e-01	 1.217904348447305e+00	-2.308955974149907e+01
1	 1.013735726760416e+00	 1.197211890258286e+00	-2.148097742733523e+01
1	 1.038279571214961e+00	 1.175989800108435e+00	-1.975635800224424e+01
1	 1.062394570463268e+00	 1.154250534394738e+00	-1.792144968260804e+01
1	 1.086064520691822e+00	 1.132007247005703e+00	-1.598239905392506e+01
1	 1.109273762980250e+00	 1.109273762980250e+00	-1.394572857337697e+01
1	 8.550135336172382e-01	 1.307806601642550e+00	-2.955109849998148e+01
1	 8.816578016690023e-01	 1.289994443622846e+00	-2.854426339288346e+01
1	 9.079810573365499e-01	 1.271603901040402e+00	-2.740254900618440e+01
1	 9.339647061687287e-01	 1.252643598014911e+00	-2.612941842617924e+01
1	 9.595904619212839e-01	 1.233122947981431e+00	-2.472879729452436e+01
1	 9.848403881424443e-01	 1.213052139886644e+00	-2.320506328301957e+01
1	 1.009696939009092e+00	 1.192442121770408e+00	-2.156303311789327e+01
1	 1.034142999222465e+00	 1.171304581781001e+00	-1.980794720963788e+01
1	 1.058161922776024e+00	 1.149651926688328e+00	-1.794545196492900e+01
1	 1.081737570413281e+00	 1.127497257974966e+00	-1.598157987710584e+01
1	 1.104854345600000e+00	 1.104854345600000e+00	-1.392272751087424e+01
1	 1.149048519425000e+00	 1.149048519425000e+00	-1.412151230821080e+01
1	 1.172597136321760e+00	 1.125007091478085e+00	-1.246857866597304e+01
1	 1.195637955992831e+00	 1.100488472532229e+00	-1.086342966053861e+01
1	 1.218156657908894e+00	 1.075508882706573e+00	-9.307375377218154e+00
1	 1.240139616777278e+00	 1.050085106498359e+00	-7.801536805028522e+00
1	 1.261573929826626e+00	 1.024234455373164e+00	-6.346843847026268e+00
1	 1.282447441671249e+00	 9.979747288102582e-01	-4.944034347175164e+00
1	 1.302748766656399e+00	 9.713241739857016e-01	-3.593654129387889e+00
1	 1.322467308601402e+00	 9.443014442826378e-01	-2.296058036057020e+00
1	 1.341593277873824e+00	 9.169255568236603e-01	-1.051411945305480e+00
1	 1.360117705744333e+00	 8.892158492239139e-01	 1.403042615784795e-01
1	 1.144629102040250e+00	 1.144629102040250e+00	-1.410465996079203e+01
1	 1.168087147333406e+00	 1.120680141124077e+00	-1.244685099280445e+01
1	 1.191039348467107e+00	 1.096255824559021e+00	-1.083697565513634e+01
1	 1.213471439990997e+00	 1.071372310079148e+00	-9.276327474290682e+00
1	 1.235369849017371e+00	 1.046046317625942e+00	-7.766010699482544e+00
1	 1.256721722400919e+00	 1.020295092082419e+00	-6.306938390987744e+00
1	 1.277514951507438e+00	 9.941363644683151e-01	-4.899831524887984e+00
1	 1.297738194473155e+00	 9.675883117782410e-01	-3.545219109317832e+00
1	 1.317380895871941e+00	 9.406695156515592e-01	-2.243439299008386e+00
1	 1.336433303723793e+00	 9.133989200680838e-01	-9.946414868510542e-01
1	 1.354886483794492e+00	 8.857957882675154e-01	 2.012106565387299e-01
1	 1.140209684656000e+00	 1.140209684656000e+00	-1.408715599143243e+01
1	 1.163577158345462e+00	 1.116353190770654e+00	-1.242452502632510e+01
1	 1.186440740941724e+00	 1.092023176586452e+00	-1.080997837569951e+01
1	 1.208786222073389e+00	 1.067235737452387e+00	-9.244792899555955e+00
1	 1.230600081257726e+00	 1.042007528754183e+00	-7.730055995762073e+00
1	 1.251869514975465e+00	 1.016355728792296e+00	-6.266663766827208e+00
1	 1.272582461343888e+00	 9.902980001269259e-01	-4.855320202947864e+00
1	 1.292727622290204e+00	 9.638524495712375e-01	-3.496537375897451e+00
1	 1.312294483142823e+00	 9.370375870208117e-01	-2.190636630027440e+00
1	 1.331273329574176e+00	 9.098722833126822e-01	-9.377507485953056e-01
1	 1.349655261845156e+00	 8.823757273111063e-01	 2.621729340860566e-01
1	 1.135790267272250e+00	 1.135790267272250e+00	-1.406899279364840e+01
1	 1.159067169357928e+00	 1.112026240417816e+00	-1.240159378256487e+01
1	 1.181842133416682e+00	 1.087790528614522e+00	-1.078243148050661e+01
1	 1.204101004156072e+00	 1.063099164826288e+00	-9.212765972018975e+00
1	 1.225830313498341e+00	 1.037968739883080e+00	-7.693667690775090e+00
1	 1.247017307550263e+00	 1.012416365502792e+00	-6.226015665188784e+00
1	 1.267649971180602e+00	 9.864596357860910e-01	-4.810496780191648e+00
1	 1.287717050107547e+00	 9.601165873646917e-01	-3.447606049204881e+00
1	 1.307208070414051e+00	 9.334056583903949e-01	-2.137647882049534e+00
1	 1.326113355424974e+00	 9.063456465574550e-01	-8.807383264953348e-01
1	 1.344424039896326e+00	 8.789556663546864e-01	 3.231917465444987e-01
1	 1.131370849889000e+00	 1.131370849889000e+00	-1.405016264210529e+01
1	 1.154557180370804e+00	 1.107699290065562e+00	-1.237805016842914e+01
1	 1.177243525891980e+00	 1.083557880643232e+00	-1.075432852874682e+01
1	 1.199415786239046e+00	 1.058962592200854e+00	-9.180240921919584e+00
1	 1.221060545739217e+00	 1.033929951012635e+00	-7.656840703256021e+00
1	 1.242165100125312e+00	 1.008477002213910e+00	-6.184989709383145e+00
1	 1.262717481017578e+00	 9.826212714458097e-01	-4.765357599188064e+00
1	 1.282706477925184e+00	 9.563807251586032e-01	-3.398422204319616e+00
1	 1.302121657685622e+00	 9.297737297603093e-01	-2.084470874462373e+00
1	 1.320953381276188e+00	 9.028190098024030e-01	-8.236027945699629e-01
1	 1.339192817948001e+00	 8.755356053982559e-01	 3.842677564308903e-01
1	 1.126951432506250e+00	 1.126951432506250e+00	-1.403065769028631e+01
1	 1.150047191384091e+00	 1.103372339713894e+00	-1.235388697955903e+01
1	 1.172644918367618e+00	 1.079325232672581e+00	-1.072566297857690e+01
1	 1.194730568322310e+00	 1.054826019576082e+00	-9.147211888991379e+00
1	 1.216290777980355e+00	 1.029891162142846e+00	-7.619569872233438e+00
1	 1.237312892700614e+00	 1.004537638925649e+00	-6.143581454066810e+00
1	 1.257784990854817e+00	 9.787829071060824e-01	-4.719898945134224e+00
1	 1.277695905743115e+00	 9.526448629529720e-01	-3.348982870439741e+00
1	 1.297035244957538e+00	 9.261418011305542e-01	-2.031103392448088e+00
1	 1.315793407127816e+00	 8.992923730475255e-01	-7.663427044695283e-01
1	 1.333961596000181e+00	 8.721155444418152e-01	 4.454016366541926e-01
1	 1.122532015124000e+00	 1.122532015124000e+00	-1.401046996810770e+01
1	 1.145537202397787e+00	 1.099045389362810e+00	-1.232909689814119e+01
1	 1.168046310843596e+00	 1.075092584702569e+00	-1.069642818513254e+01
1	 1.190045350405866e+00	 1.050689446951975e+00	-9.113672920680367e+00
1	 1.211521010221754e+00	 1.025852373273715e+00	-7.581849955460521e+00
1	 1.232460685276167e+00	 1.000598275638008e+00	-6.101786383891055e+00
1	 1.252852500692320e+00	 9.749445427669093e-01	-4.674117044726659e+00
1	 1.272685333561339e+00	 9.489090007477983e-01	-3.299285029979310e+00
1	 1.291948832229799e+00	 9.225098725011301e-01	-1.977543186309588e+00
1	 1.310633432979860e+00	 8.957657362928229e-01	-7.089565850359265e-01
1	 1.328730374052866e+00	 8.686954834853636e-01	 5.065940707206431e-01
1	 1.118112597742250e+00	 1.118112597742250e+00	-1.398959137947652e+01
1	 1.141027213411893e+00	 1.094718439012311e+00	-1.230367249066562e+01
1	 1.163447703319914e+00	 1.070859936733196e+00	-1.066661739849220e+01
1	 1.185360132489712e+00	 1.046552874328530e+00	-9.079617970320930e+00
1	 1.206751242463414e+00	 1.021813584405241e+00	-7.543675627809265e+00
1	 1.227608477851973e+00	 9.966589123509877e-01	-6.059599912118225e+00
1	 1.247920010530085e+00	 9.711061784282901e-01	-4.628008065004652e+00
1	 1.267674761379857e+00	 9.451731385430817e-01	-3.249325617643395e+00
1	 1.286862419502404e+00	 9.188779438720369e-01	-1.923787970781474e+00
1	 1.305473458832319e+00	 8.922390995382952e-01	-6.514429418515384e-01
1	 1.323499152106057e+00	 8.652754225289013e-01	 5.678457529426300e-01
1	 1.113693180361000e+00	 1.113693180361000e+00	-1.396801369979028e+01
1	 1.136517224426409e+00	 1.090391488662397e+00	-1.227760620562997e+01
1	 1.158849095796573e+00	 1.066627288764463e+00	-1.063622376159272e+01
1	 1.180674914573848e+00	 1.042416301705749e+00	-9.045040895268702e+00
1	 1.201981474705336e+00	 1.017774795537425e+00	-7.505041479625643e+00
1	 1.222756270428031e+00	 9.927195490645880e-01	-6.017017379205124e+00
1	 1.242987520368112e+00	 9.672678140902250e-01	-4.581568112167137e+00
1	 1.262664189198668e+00	 9.414372763388223e-01	-3.199101519481714e+00
1	 1.281776006775354e+00	 9.152460152432744e-01	-1.869835424324441e+00
1	 1.300313484685193e+00	 8.887124627839422e-01	-5.938002567779614e-01
1	 1.318267930159753e+00	 8.618553615724286e-01	 6.291573886535946e-01
1	 1.109273762980250e+00	 1.109273762980250e+00	-1.394572857337697e+01
1	 1.132007235441336e+00	 1.086064538313068e+00	-1.225089037118934e+01
1	 1.154250488273572e+00	 1.062394640796369e+00	-1.060524030809508e+01
1	 1.175989696658276e+00	 1.038279729083631e+00	-9.009935454988430e+00
1	 1.197211706947519e+00	 1.013736006670265e+00	-7.465942015046157e+00
1	 1.217904063004341e+00	 9.887801857788092e-01	-5.974034051353007e+00
1	 1.238055030206403e+00	 9.634294497527139e-01	-4.534793230360210e+00
1	 1.257653617017774e+00	 9.377014141350206e-01	-3.148609571919163e+00
1	 1.276689594048649e+00	 9.116140866148432e-01	-1.815683188402408e+00
1	 1.295153510538482e+00	 8.851858260297638e-01	-5.360269874831429e-01
1	 1.313036708213954e+00	 8.584353006159452e-01	 6.905296944272818e-01
1	 1.104854345600000e+00	 1.104854345600000e+00	-1.392272751087424e+01
1	 1.127497246456672e+00	 1.081737587964323e+00	-1.222351719274924e+01
1	 1.149651880750912e+00	 1.058161992828915e+00	-1.057365996019881e+01
1	 1.171304478742993e+00	 1.034143156462176e+00	-8.974295309096634e+00
1	 1.192441939189963e+00	 1.009697217803762e+00	-7.426371650273690e+00
1	 1.213051855580902e+00	 9.848408224936508e-01	-5.930645119022484e+00
1	 1.233122540044957e+00	 9.595910854157566e-01	-4.487679400436345e+00
1	 1.252643044837173e+00	 9.339655519316761e-01	-3.097846560763472e+00
1	 1.271603181322287e+00	 9.079821579867423e-01	-1.761328866742794e+00
1	 1.289993536392186e+00	 8.816591892757605e-01	-4.781215669578649e-01
1	 1.307805486268661e+00	 8.550152396594509e-01	 7.519633983024927e-01
1	 1.360117705744333e+00	 8.892158492239139e-01	 1.403042615784804e-01
1	 1.378032455989265e+00	 8.611919357655552e-01	 4.554270802940581e-01
1	 1.395330233722280e+00	 8.328736631961248e-01	 7.538174783000937e-01
1	 1.412004591455920e+00	 8.042810663511558e-01	 1.034409506234660e+00
1	 1.428049932410381e+00	 7.754343237987307e-01	 1.296176907592964e+00
1	 1.443461511099561e+00	 7.463537137016177e-01	 1.538136729473125e+00
1	 1.458235431242151e+00	 7.170595700862005e-01	 1.759352680347026e+00
1	 1.472368641059446e+00	 6.875722397012342e-01	 1.958938217965695e+00
1	 1.485858926035341e+00	 6.579120396418039e-01	 2.136059353016171e+00
1	 1.498704899226743e+00	 6.280992159050710e-01	 2.289937156721234e+00
1	 1.510905989224438e+00	 5.981539030346662e-01	 2.419849963194360e+00
1	 1.354886483794492e+00	 8.857957882675154e-01	 2.012106565387317e-01
1	 1.372732331153635e+00	 8.578796590923617e-01	 5.259911712906717e-01
1	 1.389963578972226e+00	 8.296703029564187e-01	 8.342690365596375e-01
1	 1.406573804560838e+00	 8.011876776381600e-01	 1.124892995196351e+00
1	 1.422557432665737e+00	 7.724518840957916e-01	 1.396752252028256e+00
1	 1.437909736052693e+00	 7.434831224991491e-01	 1.648780411309864e+00
1	 1.452626833426091e+00	 7.143016486668234e-01	 1.879959149073296e+00
1	 1.466705684744835e+00	 6.849277310908464e-01	 2.089321601741145e+00
1	 1.480144084010186e+00	 6.553816087236290e-01	 2.275955455027837e+00
1	 1.492940649613448e+00	 6.256834496931163e-01	 2.439005719900058e+00
1	 1.505094812343129e+00	 5.958533111023878e-01	 2.577677185165787e+00
1	 1.349655261845156e+00	 8.823757273111063e-01	 2.621729340860561e-01
1	 1.367432206318594e+00	 8.545673824189735e-01	 5.968635656767309e-01
1	 1.384596924222816e+00	 8.264669427163640e-01	 9.152820777230173e-01
1	 1.401143017666421e+00	 7.980942889246925e-01	 1.216191424319529e+00
1	 1.417064932921751e+00	 7.694694443922885e-01	 1.498395795607822e+00
1	 1.432357961006444e+00	 7.406125312960545e-01	 1.760744883512602e+00
1	 1.447018235610581e+00	 7.115437272467888e-01	 2.002137870194341e+00
1	 1.461042728430674e+00	 6.822832224797978e-01	 2.221527118822860e+00
1	 1.474429241985354e+00	 6.528511778048219e-01	 2.417921549101417e+00
1	 1.487176400000318e+00	 6.232676834805864e-01	 2.590389682884792e+00
1	 1.499283635461801e+00	 5.935527191696200e-01	 2.738062348210947e+00
1	 1.344424039896326e+00	 8.789556663546864e-01	 3.231917465444978e-01
1	 1.362132081484144e+00	 8.512551057453903e-01	 6.680478623231965e-01
1	 1.379230269474049e+00	 8.232635824759607e-01	 9.968631560644046e-01
1	 1.395712230772668e+00	 7.950009002107533e-01	 1.308314306524026e+00
1	 1.411572433178421e+00	 7.664870046882211e-01	 1.601120007582461e+00
1	 1.426806185960813e+00	 7.377419400923342e-01	 1.874045563868482e+00
1	 1.441409637795619e+00	 7.087858058260965e-01	 2.125907196852375e+00
1	 1.455379772116964e+00	 6.796387138680903e-01	 2.355576039251486e+00
1	 1.468714399960845e+00	 6.503207468853830e-01	 2.561981798571211e+00
1	 1.481412150387354e+00	 6.208519172674812e-01	 2.744116073692279e+00
1	 1.493472458580452e+00	 5.912521272363623e-01	 2.901035311568447e+00
1	 1.339192817948001e+00	 8.755356053982559e-01	 3.842677564308927e-01
1	 1.356831956650282e+00	 8.479428290716119e-01	 7.395477163333031e-01
1	 1.373863614725924e+00	 8.200602222352085e-01	 1.079018928268661e+00
1	 1.390281443879582e+00	 7.919075114963424e-01	 1.401271303368821e+00
1	 1.406079933435749e+00	 7.635045649835898e-01	 1.704937552035046e+00
1	 1.421254410915800e+00	 7.348713488879874e-01	 1.988698111067517e+00
1	 1.435801039981207e+00	 7.060278844047463e-01	 2.251285768957495e+00
1	 1.449716815803705e+00	 6.769942052557228e-01	 2.491489965412137e+00
1	 1.462999557936658e+00	 6.477903159653117e-01	 2.708160744323600e+00
1	 1.475647900774554e+00	 6.184361510538003e-01	 2.900212342652154e+00
1	 1.487661281699082e+00	 5.889515353026149e-01	 3.066626401027525e+00
1	 1.333961596000181e+00	 8.721155444418152e-01	 4.454016366541926e-01
1	 1.351531831817011e+00	 8.446305523976381e-01	 8.113668401451630e-01
1	 1.368496959978442e+00	 8.168568619941073e-01	 1.161756155438989e+00
1	 1.384850656987160e+00	 7.888141227814600e-01	 1.495072227967034e+00
1	 1.400587433693733e+00	 7.605221252783949e-01	 1.809861291700847e+00
1	 1.415702635871404e+00	 7.320007576830150e-01	 2.104718429426289e+00
1	 1.430192442167345e+00	 7.032699629827384e-01	 2.378292518810457e+00
1	 1.444053859490896e+00	 6.743496966426953e-01	 2.629290838550881e+00
1	 1.457284715912793e+00	 6.452598850446080e-01	 2.856483312200156e+00
1	 1.469883651161920e+00	 6.160203848395442e-01	 3.058706370687533e+00
1	 1.481850104817692e+00	 5.866509433683778e-01	 3.234866418076186e+00
1	 1.328730374052866e+00	 8.686954834853636e-01	 5.065940707206427e-01
1	 1.346231706984329e+00	 8.413182757234693e-01	 8.835090046605099e-01
1	 1.363130305231604e+00	 8.136535017526573e-01	 1.245081705152830e+00
1	 1.379419870095405e+00	 7.857207340661058e-01	 1.589727047968731e+00
1	 1.395094933952374e+00	 7.575396855726355e-01	 1.915904291877663e+00
1	 1.410150860827627e+00	 7.291301664774165e-01	 2.222122673723079e+00
1	 1.424583844354031e+00	 7.005120415600723e-01	 2.506946676858588e+00
1	 1.438390903178537e+00	 6.717051880290082e-01	 2.769000945445251e+00
1	 1.451569873889251e+00	 6.427294541232723e-01	 3.006974820575335e+00
1	 1.464119401549451e+00	 6.136046186247127e-01	 3.219626477791253e+00
1	 1.476038927936281e+00	 5.843503514336509e-01	 3.405786649265302e+00
1	 1.323499152106057e+00	 8.652754225289013e-01	 5.678457529426300e-01
1	 1.340931582152237e+00	 8.380059990491056e-01	 9.559780404001197e-01
1	 1.357763650485408e+00	 8.104501415108594e-01	 1.329002553565806e+00
1	 1.373989083204313e+00	 7.826273453502800e-01	 1.685245888615424e+00
1	 1.389602434211673e+00	 7.545572458663125e-01	 2.023079824429449e+00
1	 1.404599085784468e+00	 7.262595752711917e-01	 2.340927254147587e+00
1	 1.418975246541267e+00	 6.977541201367488e-01	 2.637267777587903e+00
1	 1.432727946866629e+00	 6.690606794146612e-01	 2.910642925232907e+00
1	 1.445855031866031e+00	 6.401990232013045e-01	 3.159660988114206e+00
1	 1.458355151937147e+00	 6.111888524093058e-01	 3.383001431703132e+00
1	 1.470227751054850e+00	 5.820497594984343e-01	 3.579418875794877e+00
1	 1.318267930159753e+00	 8.618553615724286e-01	 6.291573886535917e-01
1	 1.335631457320734e+00	 8.346937223745463e-01	 1.028777838686625e+00
1	 1.352396995739856e+00	 8.072467812687116e-01	 1.413525787566116e+00
1	 1.368558296313887e+00	 7.795339566339823e-01	 1.781639035866657e+00
1	 1.384109934471628e+00	 7.515748061594250e-01	 2.131401371884509e+00
1	 1.399047310741928e+00	 7.233889840643413e-01	 2.461148841368767e+00
1	 1.413366648729051e+00	 6.949961987127673e-01	 2.769275665555556e+00
1	 1.427064990555172e+00	 6.664161707996547e-01	 3.054239776402890e+00
1	 1.440140189843133e+00	 6.376685922787044e-01	 3.314567941714634e+00
1	 1.452590902325009e+00	 6.087730861933237e-01	 3.548860456793829e+00
1	 1.464416574173397e+00	 5.797491675627281e-01	 3.755795383328481e+00
1	 1.313036708213954e+00	 8.584353006159452e-01	 6.905296944272823e-01
1	 1.330331332489821e+00	 8.313814456997923e-01	 1.101912352855740e+00
1	 1.347030340994946e+00	 8.040434210262157e-01	 1.498658606980568e+00
1	 1.363127509424128e+00	 7.764405679172131e-01	 1.878916939601668e+00
1	 1.378617434732240e+00	 7.485923664519738e-01	 2.240882631632249e+00
1	 1.393495535700005e+00	 7.205183928568648e-01	 2.582804371723607e+00
1	 1.407758050917385e+00	 6.922382772881279e-01	 2.902990501566706e+00
1	 1.421402034244164e+00	 6.637716621839883e-01	 3.199814863954084e+00
1	 1.434425347820558e+00	 6.351381613554720e-01	 3.471722224639420e+00
1	 1.446826652713035e+00	 6.063573199767660e-01	 3.717233243161107e+00
1	 1.458605397291925e+00	 5.774485756265321e-01	 3.934948972042353e+00
1	 1.307805486268661e+00	 8.550152396594509e-01	 7.519633983024909e-01
1	 1.325031207659498e+00	 8.280691690248428e-01	 1.175385599496518e+00
1	 1.341663686250679e+00	 8.008400607833708e-01	 1.584408326833006e+00
1	 1.357696722535032e+00	 7.733471791999722e-01	 1.977090216897706e+00
1	 1.373124934993508e+00	 7.456099267439584e-01	 2.351537520220309e+00
1	 1.387943760658701e+00	 7.176478016487623e-01	 2.705911052530427e+00
1	 1.402149453106268e+00	 6.894803558628309e-01	 3.038432768999376e+00
1	 1.415739077933608e+00	 6.611271535676617e-01	 3.347391926725398e+00
1	 1.428710505798304e+00	 6.326077304316075e-01	 3.631150804843632e+00
1	 1.441062403101226e+00	 6.039415537596329e-01	 3.888149955944296e+00
1	 1.452794220410432e+00	 5.751479836898462e-01	 4.116912966915594e+00
1	 1.510905989224438e+00	 5.981539030346662e-01	 2.419849963194360e+00
1	 1.522462425874856e+00	 5.680960850001697e-01	 2.920887700172443e+00
1	 1.533375223883753e+00	 5.379455574460036e-01	 3.376096347805182e+00
1	 1.543646164429885e+00	 5.077218914329501e-01	 3.787115078722991e+00
1	 1.553277774923845e+00	 4.774443987833434e-01	 4.155664949613771e+00
1	 1.562273307054314e+00	 4.471320991271139e-01	 4.483539562103442e+00
1	 1.570636713267633e+00	 4.168036887336726e-01	 4.772595715728916e+00
1	 1.578372621830225e+00	 3.864775112013993e-01	 5.024744110723193e+00
1	 1.585486310625523e+00	 3.561715300634773e-01	 5.241940155329575e+00
1	 1.591983679838120e+00	 3.259033033559541e-01	 5.426174929000657e+00
1	 1.597871223677692e+00	 2.956899601812942e-01	 5.579466349173633e+00
1	 1.505094812343129e+00	 5.958533111023878e-01	 2.577677185165786e+00
1	 1.516606801161459e+00	 5.659111000596855e-01	 3.079987389146279e+00
1	 1.527477626871297e+00	 5.358765360724194e-01	 3.535839689803610e+00
1	 1.537709063800717e+00	 5.057691149280606e-01	 3.946869866498825e+00
1	 1.547303629639505e+00	 4.756080741727038e-01	 4.314797301312552e+00
1	 1.556264563569846e+00	 4.454123602838564e-01	 4.641415604930499e+00
1	 1.564595802836372e+00	 4.152005976222011e-01	 4.928583227872201e+00
1	 1.572301957904480e+00	 3.849910592338158e-01	 5.178214115273910e+00
1	 1.579388286358056e+00	 3.548016395613713e-01	 5.392268460459800e+00
1	 1.585860665688677e+00	 3.246498291100071e-01	 5.572743609195124e+00
1	 1.591725565128296e+00	 2.945526911010241e-01	 5.721665162865436e+00
1	 1.499283635461801e+00	 5.935527191696200e-01	 2.738062348210947e+00
1	 1.510751176447857e+00	 5.637261151188065e-01	 3.241669346290031e+00
1	 1.521580029858483e+00	 5.338075146985242e-01	 3.698185946725134e+00
1	 1.531771963171071e+00	 5.038163384229343e-01	 4.109244547254943e+00
1	 1.541329484354596e+00	 4.737717495618912e-01	 4.476562875561925e+00
1	 1.550255820084751e+00	 4.436926214404796e-01	 4.801934579870232e+00
1	 1.558554892404452e+00	 4.135975065106535e-01	 5.087219798110179e+00
1	 1.566231293978077e+00	 3.835046072661896e-01	 5.334335764353623e+00
1	 1.573290262089959e+00	 3.534317490592464e-01	 5.545247508275143e+00
1	 1.579737651538664e+00	 3.233963548640554e-01	 5.721958700073314e+00
1	 1.585579906578415e+00	 2.934154220207540e-01	 5.866502689651584e+00
1	 1.493472458580452e+00	 5.912521272363623e-01	 2.901035311568447e+00
1	 1.504895551734049e+00	 5.615411301775322e-01	 3.405963714815390e+00
1	 1.515682432845314e+00	 5.317384933243186e-01	 3.863165502793460e+00
1	 1.525834862540947e+00	 5.018635619175711e-01	 4.274269703401859e+00
1	 1.535355339069118e+00	 4.719354249509053e-01	 4.640992410369849e+00
1	 1.544247076599027e+00	 4.419728825969829e-01	 4.965127338271230e+00
1	 1.552513981971875e+00	 4.119944153990298e-01	 5.248536349300457e+00
1	 1.560160630051015e+00	 3.820181552985208e-01	 5.493140011011387e+00
1	 1.567192237821234e+00	 3.520618585571026e-01	 5.700908241296964e+00
1	 1.573614637388079e+00	 3.221428806180989e-01	 5.873851093588119e+00
1	 1.579434248028048e+00	 2.922781529404838e-01	 6.014009731629568e+00
1	 1.487661281699082e+00	 5.889515353026149e-01	 3.066626401027526e+00
1	 1.499039927020037e+00	 5.593561452358632e-01	 3.572901108921878e+00
1	 1.509784835831787e+00	 5.296694719498020e-01	 4.030809216985850e+00
1	 1.519897761910345e+00	 4.999107854119712e-01	 4.441976395200253e+00
1	 1.529381193783072e+00	 4.700991003397463e-01	 4.808117124025713e+00
1	 1.538238333112675e+00	 4.402531437533666e-01	 5.131025213534475e+00
1	 1.546473071538638e+00	 4.103913242873296e-01	 5.412564287470361e+00
1	 1.554089966123295e+00	 3.805317033308094e-01	 5.654658291937619e+00
1	 1.561094213551879e+00	 3.506919680549401e-01	 5.859282085523448e+00
1	 1.567491623236923e+00	 3.208894063721378e-01	 6.028452164379173e+00
1	 1.573288589477197e+00	 2.911408838602138e-01	 6.164217572179725e+00
1	 1.481850104817692e+00	 5.866509433683778e-01	 3.234866418076186e+00
1	 1.493184302305822e+00	 5.571711602937990e-01	 3.742512623031751e+00
1	 1.503887238817903e+00	 5.276004505749747e-01	 4.201148432342025e+00
1	 1.513960661279265e+00	 4.979580089061342e-01	 4.612396170130678e+00
1	 1.523407048496458e+00	 4.682627757284141e-01	 4.977968724517627e+00
1	 1.532229589625694e+00	 4.385334049096307e-01	 5.299660030565299e+00
1	 1.540432161104745e+00	 4.087882331755534e-01	 5.579335511290791e+00
1	 1.548019302194917e+00	 3.790452513630552e-01	 5.818922536947369e+00
1	 1.554996189281895e+00	 3.493220775527586e-01	 6.020400959909641e+00
1	 1.561368609085195e+00	 3.196359321261720e-01	 6.185793779237338e+00
1	 1.567142930925859e+00	 2.900036147799436e-01	 6.317157985401993e+00
1	 1.476038927936281e+00	 5.843503514336509e-01	 3.405786649265302e+00
1	 1.487328677591400e+00	 5.549861753513397e-01	 3.914829841243300e+00
1	 1.497989641803661e+00	 5.255314291998368e-01	 4.374214985492925e+00
1	 1.508023560647706e+00	 4.960052324000608e-01	 4.785561072484410e+00
1	 1.517432903209274e+00	 4.664264511169085e-01	 5.150579419172105e+00
1	 1.526220846138085e+00	 4.368136660657749e-01	 5.471064115448691e+00
1	 1.534391250670193e+00	 4.071851420637010e-01	 5.748882421773933e+00
1	 1.541948638265880e+00	 3.775587993952585e-01	 5.985965178687371e+00
1	 1.548898165011282e+00	 3.479521870505583e-01	 6.184297286071323e+00
1	 1.555245594932896e+00	 3.183824578802016e-01	 6.345908306792734e+00
1	 1.560997272374037e+00	 2.888663456996735e-01	 6.472863245775891e+00
1	 1.470227751054850e+00	 5.820497594984343e-01	 3.579418875794877e+00
1	 1.481473052876775e+00	 5.528011904084855e-01	 4.089884847008252e+00
1	 1.492092044789064e+00	 5.234624078243881e-01	 4.550041216415508e+00
1	 1.502086460015669e+00	 4.940524558937503e-01	 4.961503653181937e+00
1	 1.511458757921522e+00	 4.645901265052301e-01	 5.325981924522484e+00
1	 1.520212102649847e+00	 4.350939272217997e-01	 5.645270305353963e+00
1	 1.528350340234983e+00	 4.055820509517724e-01	 5.921237932200976e+00
1	 1.535877974336185e+00	 3.760723474274194e-01	 6.155819162573513e+00
1	 1.542800140740040e+00	 3.465822965483392e-01	 6.351003998218951e+00
1	 1.549122580780026e+00	 3.171289836342265e-01	 6.508828627432395e+00
1	 1.554851613821729e+00	 2.877290766194034e-01	 6.631366138049295e+00
1	 1.464416574173397e+00	 5.797491675627281e-01	 3.755795383328481e+00
1	 1.475617428161945e+00	 5.506162054652365e-01	 4.267710233039509e+00
1	 1.486194447774108e+00	 5.213933864486285e-01	 4.728659978419776e+00
1	 1.496149359383153e+00	 4.920996793872031e-01	 5.140256979825025e+00
1	 1.505484612633201e+00	 4.627538018933783e-01	 5.504209476412134e+00
1	 1.514203359160981e+00	 4.333741883777048e-01	 5.822311958675427e+00
1	 1.522309429799114e+00	 4.039789598397676e-01	 6.096435478286145e+00
1	 1.529807310405833e+00	 3.745858954595372e-01	 6.328517956964839e+00
1	 1.536702116468169e+00	 3.452124060461013e-01	 6.520554553328236e+00
1	 1.542999566626585e+00	 3.158755093882466e-01	 6.674588143454350e+00
1	 1.548705955268936e+00	 2.865918075391334e-01	 6.792699967363001e+00
1	 1.458605397291925e+00	 5.774485756265321e-01	 3.934948972042352e+00
1	 1.469761803446910e+00	 5.484312205215922e-01	 4.448339111455861e+00
1	 1.480296850758796e+00	 5.193243650725583e-01	 4.910104648374479e+00
1	 1.490212258750159e+00	 4.901469028804190e-01	 5.321854646989257e+00
1	 1.499510467344312e+00	 4.609174772813535e-01	 5.685295840339392e+00
1	 1.508194615671487e+00	 4.316544495334901e-01	 6.002222965415281e+00
1	 1.516268519362586e+00	 4.023758687276865e-01	 6.274509028583760e+00
1	 1.523736646474821e+00	 3.730994434916127e-01	 6.504095563580655e+00
1	 1.530604092195668e+00	 3.438425155438445e-01	 6.692982941553885e+00
1	 1.536876552472572e+00	 3.146220351422621e-01	 6.843220789464062e+00
1	 1.542560296715658e+00	 2.854545384588632e-01	 6.956898569616937e+00
1	 1.452794220410432e+00	 5.751479836898462e-01	 4.116912966915594e+00
1	 1.463906178731671e+00	 5.462462355775530e-01	 4.631805124170060e+00
1	 1.474399253743126e+00	 5.172553436961772e-01	 5.094409137178374e+00
1	 1.484275158116687e+00	 4.881941263733979e-01	 5.506330786763483e+00
1	 1.493536322054853e+00	 4.590811526691553e-01	 5.869275322050612e+00
1	 1.502185872181363e+00	 4.299347106891557e-01	 6.185037757815806e+00
1	 1.510227608925401e+00	 4.007727776155293e-01	 6.455493095145071e+00
1	 1.517665982543151e+00	 3.716129915236454e-01	 6.682586528167788e+00
1	 1.524506067922538e+00	 3.424726250415688e-01	 6.868323696892920e+00
1	 1.530753538317988e+00	 3.133685608962728e-01	 7.014761043020724e+00
1	 1.536414638161894e+00	 2.843172693785931e-01	 7.123996322085406e+00
1	 1.597871223677692e+00	 2.956899601812942e-01	 5.579466349173633e+00
1	 1.603156001294210e+00	 2.655481792878331e-01	 5.931279783279641e+00
1	 1.607845607033304e+00	 2.354941696761788e-01	 6.268195768596689e+00
1	 1.611948140178151e+00	 2.055436532290552e-01	 6.589461775868674e+00
1	 1.615472174320238e+00	 1.757118493506957e-01	 6.894385312717570e+00
1	 1.618426726496131e+00	 1.460134615946993e-01	 7.182334166584333e+00
1	 1.620821226222415e+00	 1.164626662474418e-01	 7.452736371127093e+00
1	 1.622665484554890e+00	 8.707310282611690e-02	 7.705079909928669e+00
1	 1.623969663291593e+00	 5.785786644259650e-02	 7.938912172443633e+00
1	 1.624744244432313e+00	 2.882950197718281e-02	 8.153839177994165e+00
1	 1.625000000000000e+00	 0.000000000000000e+00	 8.349524584310426e+00
1	 1.591725565128296e+00	 2.945526911010241e-01	 5.721665162865436e+00
1	 1.596990016676433e+00	 2.645268401337779e-01	 6.077251582274045e+00
1	 1.601661585469822e+00	 2.345884228666170e-01	 6.416996231416499e+00
1	 1.605748339640550e+00	 2.047531007134834e-01	 6.740188260568996e+00
1	 1.609258819804750e+00	 1.750360345424382e-01	 7.046177963779540e+00
1	 1.612202008318078e+00	 1.454518713549483e-01	 7.334376822173924e+00
1	 1.614587298429746e+00	 1.160147329132088e-01	 7.604257275920260e+00
1	 1.616424463460724e+00	 8.673820627472932e-02	 7.855352239552236e+00
1	 1.617723626125209e+00	 5.763533618556409e-02	 8.087254376335697e+00
1	 1.618495228107603e+00	 2.871861927647300e-02	 8.299615148147495e+00
1	 1.618750000000000e+00	 0.000000000000000e+00	 8.492143657930461e+00
1	 1.585579906578415e+00	 2.934154220207540e-01	 5.866502689651584e+00
1	 1.590824032058266e+00	 2.635055009797226e-01	 6.225781590873817e+00
1	 1.595477563906033e+00	 2.336826760570551e-01	 6.568269168504102e+00
1	 1.599548539102714e+00	 2.039625481979117e-01	 6.893296485948824e+00
1	 1.603045465289091e+00	 1.743602197341806e-01	 7.200256861890423e+00
1	 1.605977290139907e+00	 1.448902811151973e-01	 7.488605713048166e+00
1	 1.608353370637003e+00	 1.155667995789758e-01	 7.757860130822491e+00
1	 1.610183442366516e+00	 8.640330972334175e-02	 8.007598207374949e+00
1	 1.611477588958806e+00	 5.741280592853169e-02	 8.237458127584279e+00
1	 1.612246211782890e+00	 2.860773657576318e-02	 8.447137044012551e+00
1	 1.612500000000000e+00	 0.000000000000000e+00	 8.636389752514091e+00
1	 1.579434248028048e+00	 2.922781529404838e-01	 6.014009731629568e+00
1	 1.584658047439707e+00	 2.624841618256674e-01	 6.376899671447280e+00
1	 1.589293542341936e+00	 2.327769292474933e-01	 6.722043441426358e+00
1	 1.593348738564645e+00	 2.031719956823399e-01	 7.048814254428267e+00
1	 1.596832110773261e+00	 1.736844049259230e-01	 7.356648694758805e+00
1	 1.599752571961619e+00	 1.443286908754463e-01	 7.645046359463156e+00
1	 1.602119442844185e+00	 1.151188662447429e-01	 7.913569238753396e+00
1	 1.603942421272267e+00	 8.606841317195416e-02	 8.161840851975073e+00
1	 1.605231551792385e+00	 5.719027567149929e-02	 8.389545156314236e+00
1	 1.605997195458171e+00	 2.849685387505337e-02	 8.596425246045230e+00
1	 1.606250000000000e+00	 0.000000000000000e+00	 8.782281860524094e+00
1	 1.573288589477197e+00	 2.911408838602138e-01	 6.164217572179725e+00
1	 1.578492062820757e+00	 2.614628226716121e-01	 6.530636152962212e+00
1	 1.583109520777533e+00	 2.318711824379315e-01	 6.878348362712083e+00
1	 1.587148938026342e+00	 2.023814431667682e-01	 7.206769802840187e+00
1	 1.590618756257261e+00	 1.730085901176654e-01	 7.515380567088664e+00
1	 1.593527853783212e+00	 1.437671006356952e-01	 7.803724680429038e+00
1	 1.595885515051292e+00	 1.146709329105099e-01	 8.071409282365622e+00
1	 1.597701400177976e+00	 8.573351662056658e-02	 8.318103571908679e+00
1	 1.598985514625946e+00	 5.696774541446689e-02	 8.543537532183741e+00
1	 1.599748179133448e+00	 2.838597117434356e-02	 8.747500453146120e+00
1	 1.600000000000000e+00	 0.000000000000000e+00	 8.929839271180482e+00
1	 1.567142930925859e+00	 2.900036147799436e-01	 6.317157985401993e+00
1	 1.572326078201417e+00	 2.604414835175569e-01	 6.687021840134891e+00
1	 1.576925499212823e+00	 2.309654356283697e-01	 7.037213704694440e+00
1	 1.580949137487806e+00	 2.015908906511965e-01	 7.367191810948135e+00
1	 1.584405401741091e+00	 1.723327753094077e-01	 7.676480008755771e+00
1	 1.587303135604688e+00	 1.432055103959442e-01	 7.964667001528701e+00
1	 1.589651587258325e+00	 1.142229995762769e-01	 8.231405331490699e+00
1	 1.591460379083644e+00	 8.539862006917903e-02	 8.476410132767926e+00
1	 1.592739477459488e+00	 5.674521515743450e-02	 8.699457671041568e+00
1	 1.593499162808720e+00	 2.827508847363375e-02	 8.900383688904380e+00
1	 1.593750000000000e+00	 0.000000000000000e+00	 9.079081576279233e+00
1	 1.560997272374037e+00	 2.888663456996735e-01	 6.472863245775891e+00
1	 1.566160093581686e+00	 2.594201443635015e-01	 6.846088022795262e+00
1	 1.570741477647806e+00	 2.300596888188078e-01	 7.198669708562299e+00
1	 1.574749336949037e+00	 2.008003381356247e-01	 7.530109410165510e+00
1	 1.578192047224750e+00	 1.716569605011502e-01	 7.839974983177321e+00
1	 1.581078417426047e+00	 1.426439201561932e-01	 8.127900062921055e+00
1	 1.583417659465282e+00	 1.137750662420439e-01	 8.393582850760648e+00
1	 1.585219357989269e+00	 8.506372351779144e-02	 8.636784674406375e+00
1	 1.586493440293011e+00	 5.652268490040209e-02	 8.857328341741987e+00
1	 1.587250146483988e+00	 2.816420577292393e-02	 9.055096307989309e+00
1	 1.587500000000000e+00	 0.000000000000000e+00	 9.230028676148546e+00
1	 1.554851613821729e+00	 2.877290766194034e-01	 6.631366138049295e+00
1	 1.559994108961564e+00	 2.583988052094462e-01	 7.007866485474038e+00
1	 1.564557456082482e+00	 2.291539420092461e-01	 7.362747093626030e+00
1	 1.568549536410034e+00	 2.000097856200530e-01	 7.695552192481391e+00
1	 1.571978692708239e+00	 1.709811456928927e-01	 8.005893895879792e+00
1	 1.574853699247288e+00	 1.420823299164422e-01	 8.293451027534440e+00
1	 1.577183731672165e+00	 1.133271329078109e-01	 8.557967707410379e+00
1	 1.578978336894853e+00	 8.472882696640387e-02	 8.799251718335274e+00
1	 1.580247403126517e+00	 5.630015464336969e-02	 9.017172673121205e+00
1	 1.581001130159251e+00	 2.805332307221412e-02	 9.211660002693447e+00
1	 1.581250000000000e+00	 0.000000000000000e+00	 9.382700785746360e+00
1	 1.548705955268936e+00	 2.865918075391334e-01	 6.792699967363001e+00
1	 1.553828124341051e+00	 2.573774660553910e-01	 7.172389517218409e+00
1	 1.558373434516852e+00	 2.282481951996842e-01	 7.529477066804108e+00
1	 1.562349735870797e+00	 1.992192331044812e-01	 7.863550219598975e+00
1	 1.565765338191557e+00	 1.703053308846350e-01	 8.174265603271099e+00
1	 1.568628981068412e+00	 1.415207396766912e-01	 8.461347489454644e+00
1	 1.570949803878973e+00	 1.128791995735780e-01	 8.724586179265856e+00
1	 1.572737315800396e+00	 8.439393041501629e-02	 8.963836175296247e+00
1	 1.574001365960003e+00	 5.607762438633730e-02	 9.179014161139815e+00
1	 1.574752113834510e+00	 2.794244037150431e-02	 9.370096809631498e+00
1	 1.575000000000000e+00	 0.000000000000000e+00	 9.537118440902928e+00
1	 1.542560296715658e+00	 2.854545384588632e-01	 6.956898569616937e+00
1	 1.547662139720148e+00	 2.563561269013357e-01	 7.339689921641992e+00
1	 1.552189412950914e+00	 2.273424483901225e-01	 7.698891332336366e+00
1	 1.556149935331327e+00	 1.984286805889094e-01	 8.034134032292428e+00
1	 1.559551983674704e+00	 1.696295160763775e-01	 8.345119421622211e+00
1	 1.562404262889418e+00	 1.409591494369402e-01	 8.631617482513947e+00
1	 1.564715876085707e+00	 1.124312662393450e-01	 8.893464962923137e+00
1	 1.566496294705896e+00	 8.405903386362872e-02	 9.130563353014846e+00
1	 1.567755328793472e+00	 5.585509412930489e-02	 9.342876676195964e+00
1	 1.568503097509764e+00	 2.783155767079449e-02	 9.530429116599247e+00
1	 1.568750000000000e+00	 0.000000000000000e+00	 9.693302504712770e+00
1	 1.536414638161894e+00	 2.843172693785931e-01	 7.123996322085406e+00
1	 1.541496155098853e+00	 2.553347877472804e-01	 7.509801027216147e+00
1	 1.546005391384669e+00	 2.264367015805606e-01	 7.871022101730633e+00
1	 1.549950134791623e+00	 1.976381280733377e-01	 8.207334659988266e+00
1	 1.553338629157681e+00	 1.689537012681199e-01	 8.518485136264406e+00
1	 1.556179544710306e+00	 1.403975591971891e-01	 8.804289489085928e+00
1	 1.558481948292365e+00	 1.119833329051120e-01	 9.064631182123820e+00
1	 1.560255273611354e+00	 8.372413731224117e-02	 9.299458964140179e+00
1	 1.561509291626922e+00	 5.563256387227249e-02	 9.508784470614286e+00
1	 1.562254081185013e+00	 2.772067497008467e-02	 9.692679669597137e+00
1	 1.562500000000000e+00	 0.000000000000000e+00	 9.851274174079839e+00
1	 0.000000000000000e+00	 1.562500000000000e+00	-3.091869925826052e+01
1	 2.772067497008478e-02	 1.562254081185013e+00	-3.093969782681691e+01
1	 5.563256387227270e-02	 1.561509291626921e+00	-3.095931301062227e+01
1	 8.372413731224146e-02	 1.560255273611354e+00	-3.097722140965880e+01
1	 1.119833329051125e-01	 1.558481948292365e+00	-3.099309665946384e+01
1	 1.403975591971897e-01	 1.556179544710306e+00	-3.100661063509610e+01
1	 1.689537012681205e-01	 1.553338629157681e+00	-3.101743472594746e+01
1	 1.976381280733384e-01	 1.549950134791623e+00	-3.102524117758155e+01
1	 2.264367015805614e-01	 1.546005391384669e+00	-3.102970449601868e+01
1	 2.553347877472812e-01	 1.541496155098854e+00	-3.103050290911133e+01
1	 2.843172693785931e-01	 1.536414638161894e+00	-3.102731987887621e+01
1	 0.000000000000000e+00	 1.556250000000000e+00	-3.116343180227613e+01
1	 2.760979226946473e-02	 1.556005064860260e+00	-3.121210608200139e+01
1	 5.541003361540647e-02	 1.555263254460362e+00	-3.125669721626097e+01
1	 8.338924076108270e-02	 1.554014252516792e+00	-3.129679014884096e+01
1	 1.115353995711569e-01	 1.552248020498985e+00	-3.133197264203902e+01
1	 1.398359689577503e-01	 1.549954826531135e+00	-3.136183706403299e+01
1	 1.682778864601943e-01	 1.547125274640573e+00	-3.138598224689792e+01
1	 1.968475755581027e-01	 1.543750334251804e+00	-3.140401540791536e+01
1	 2.255309547713250e-01	 1.539821369818272e+00	-3.141555412585128e+01
1	 2.543134485935253e-01	 1.535330170477364e+00	-3.142022836292253e+01
1	 2.831800002985802e-01	 1.530268979607887e+00	-3.141768252224064e+01
1	 0.000000000000000e+00	 1.550000000000000e+00	-3.140831228105590e+01
1	 2.749890956902420e-02	 1.549756048535507e+00	-3.148476943266785e+01
1	 5.518750335887250e-02	 1.549017217293803e+00	-3.155442198586222e+01
1	 8.305434421038160e-02	 1.547773231422229e+00	-3.161676262906301e+01
1	 1.110874662377564e-01	 1.546014092705607e+00	-3.167129268149458e+01
1	 1.392743787189346e-01	 1.543730108351965e+00	-3.171752446694813e+01
1	 1.676020716529308e-01	 1.540911920123466e+00	-3.175498375801998e+01
1	 1.960570230435390e-01	 1.537550533711983e+00	-3.178321227989066e+01
1	 2.246252079627395e-01	 1.533637348251873e+00	-3.180177026157215e+01
1	 2.532921094403679e-01	 1.529164185855874e+00	-3.181023902139628e+01
1	 2.820427312190821e-01	 1.524123321053880e+00	-3.180822357243894e+01
1	 0.000000000000000e+00	 1.543750000000000e+00	-3.165334249137845e+01
1	 2.738802686876320e-02	 1.543507032210754e+00	-3.175769097714215e+01
1	 5.496497310267084e-02	 1.542771180127244e+00	-3.185249145582909e+01
1	 8.271944766013817e-02	 1.541532210327667e+00	-3.193714375406149e+01
1	 1.106395329049107e-01	 1.539780164912228e+00	-3.201106217123240e+01
1	 1.387127884807424e-01	 1.537505390172795e+00	-3.207367844271495e+01
1	 1.669262568463302e-01	 1.534698565606357e+00	-3.212444477336361e+01
1	 1.952664705296475e-01	 1.531350733172163e+00	-3.216283692680599e+01
1	 2.237194611548049e-01	 1.527453326685476e+00	-3.218835735466893e+01
1	 2.522707702878091e-01	 1.522998201234385e+00	-3.220053834855632e+01
1	 2.809054621400988e-01	 1.517977662499874e+00	-3.219894519635503e+01
1	 0.000000000000000e+00	 1.537500000000000e+00	-3.189852425923823e+01
1	 2.727714416868172e-02	 1.537258015886001e+00	-3.203087386412849e+01
1	 5.474244284680149e-02	 1.536525142960685e+00	-3.215090982982417e+01
1	 8.238455111035238e-02	 1.535291189233105e+00	-3.225793850730835e+01
1	 1.101915995726201e-01	 1.533546237118850e+00	-3.235128659235274e+01
1	 1.381511982431737e-01	 1.531280671993624e+00	-3.243030468124535e+01
1	 1.662504420403923e-01	 1.528485211089250e+00	-3.249437089663807e+01
1	 1.944759180164281e-01	 1.525150932632342e+00	-3.254289456542817e+01
1	 2.228137143475212e-01	 1.521269305119077e+00	-3.257531992901159e+01
1	 2.512494311358489e-01	 1.516832216612895e+00	-3.259112986475203e+01
1	 2.797681930616299e-01	 1.511832003945867e+00	-3.258984959610781e+01
1	 0.000000000000000e+00	 1.531250000000000e+00	-3.214385944044208e+01
1	 2.716626146877978e-02	 1.531008999561249e+00	-3.230432129373927e+01
1	 5.451991259126441e-02	 1.530279105794125e+00	-3.244968138014088e+01
1	 8.204965456102423e-02	 1.529050168138542e+00	-3.257915195363839e+01
1	 1.097436662408843e-01	 1.527312309325471e+00	-3.269197151544309e+01
1	 1.375896080062285e-01	 1.525055953814453e+00	-3.278740896534735e+01
1	 1.655746272351171e-01	 1.522271856572142e+00	-3.286476782304145e+01
1	 1.936853655038808e-01	 1.518951132092522e+00	-3.292339049769592e+01
1	 2.219079675408883e-01	 1.515085283552680e+00	-3.296266258232895e+01
1	 2.502280919844873e-01	 1.510666231991405e+00	-3.298201714780765e+01
1	 2.786309239836759e-01	 1.505686345391861e+00	-3.298093900976802e+01
1	 0.000000000000000e+00	 1.525000000000000e+00	-3.238934992121997e+01
1	 2.705537876905735e-02	 1.524759983236496e+00	-3.257803651854692e+01
1	 5.429738233605964e-02	 1.524033068627566e+00	-3.274881044911031e+01
1	 8.171475801215373e-02	 1.522809147043980e+00	-3.290078924091600e+01
1	 1.092957329097035e-01	 1.521078381532092e+00	-3.303312260241179e+01
1	 1.370280177699069e-01	 1.518831235635283e+00	-3.314499717262962e+01
1	 1.648988124305048e-01	 1.516058502055033e+00	-3.323564134113590e+01
1	 1.928948129920054e-01	 1.512751331552702e+00	-3.330433011246487e+01
1	 2.210022207349064e-01	 1.508901261986281e+00	-3.335038998772289e+01
1	 2.492067528337243e-01	 1.504500247369916e+00	-3.337320383420122e+01
1	 2.774936549062365e-01	 1.499540686837854e+00	-3.337221571209681e+01
1	 0.000000000000000e+00	 1.518750000000000e+00	-3.263499761885056e+01
1	 2.694449606951444e-02	 1.518510966911743e+00	-3.285202284466519e+01
1	 5.407485208118717e-02	 1.517787031461007e+00	-3.304830145054201e+01
1	 8.137986146374093e-02	 1.516568125949418e+00	-3.322285560174504e+01
1	 1.088477995790776e-01	 1.514844453738713e+00	-3.337474560836747e+01
1	 1.364664275342087e-01	 1.512606517456113e+00	-3.350307527745139e+01
1	 1.642229976265553e-01	 1.509845147537926e+00	-3.360699733476881e+01
1	 1.921042604808023e-01	 1.506551531012881e+00	-3.368571888729547e+01
1	 2.200964739295753e-01	 1.502717240419883e+00	-3.373850689521828e+01
1	 2.481854136835598e-01	 1.498334262748426e+00	-3.376469362026958e+01
1	 2.763563858293117e-01	 1.493395028283848e+00	-3.376368201529953e+01
1	 0.000000000000000e+00	 1.512500000000000e+00	-3.288080448230337e+01
1	 2.683361337015107e-02	 1.512261950586990e+00	-3.312628363285292e+01
1	 5.385232182664700e-02	 1.511540994294447e+00	-3.334815887120165e+01
1	 8.104496491578574e-02	 1.510327104854855e+00	-3.354535635521764e+01
1	 1.083998662490067e-01	 1.508610525945335e+00	-3.371684638354390e+01
1	 1.359048372991341e-01	 1.506381799276942e+00	-3.386164935292149e+01
1	 1.635471828232684e-01	 1.503631793020817e+00	-3.397884178504049e+01
1	 1.913137079702712e-01	 1.500351730473061e+00	-3.406756239028731e+01
1	 2.191907271248951e-01	 1.496533218853486e+00	-3.412701813335309e+01
1	 2.471640745339940e-01	 1.492168278126937e+00	-3.415649026344585e+01
1	 2.752191167529016e-01	 1.487249369729842e+00	-3.415534026979983e+01
1	 0.000000000000000e+00	 1.506250000000000e+00	-3.312677249289566e+01
1	 2.672273067096722e-02	 1.506012934262237e+00	-3.340082229965090e+01
1	 5.362979157243913e-02	 1.505294957127888e+00	-3.364838727232326e+01
1	 8.071006836828819e-02	 1.504086083760293e+00	-3.386829690871033e+01
1	 1.079519329194907e-01	 1.502376598151956e+00	-3.405943087527530e+01
1	 1.353432470646830e-01	 1.500157081097771e+00	-3.422072557294717e+01
1	 1.628713680206444e-01	 1.497418438503710e+00	-3.435118077232365e+01
1	 1.905231554604121e-01	 1.494151929933241e+00	-3.444986628195633e+01
1	 2.182849803208658e-01	 1.490349197287087e+00	-3.451592861080701e+01
1	 2.461427353850268e-01	 1.486002293505447e+00	-3.454859758352828e+01
1	 2.740818476770061e-01	 1.481103711175835e+00	-3.454719286503330e+01
1	 0.000000000000000e+00	 1.500000000000000e+00	-3.337290366496725e+01
1	 2.661184797196288e-02	 1.499763917937484e+00	-3.367564231854041e+01
1	 5.340726131856352e-02	 1.499048919961328e+00	-3.394899129116201e+01
1	 8.037517182124829e-02	 1.497845062665730e+00	-3.419168275972215e+01
1	 1.075039995905296e-01	 1.496142670358577e+00	-3.440250513001710e+01
1	 1.347816568308554e-01	 1.493932362918601e+00	-3.458031021433499e+01
1	 1.621955532186831e-01	 1.491205083986601e+00	-3.472402047832946e+01
1	 1.897326029512252e-01	 1.487952129393420e+00	-3.483263631715972e+01
1	 2.173792335174873e-01	 1.484165175720690e+00	-3.490524331807082e+01
1	 2.451213962366581e-01	 1.479836308883957e+00	-3.494101946397777e+01
1	 2.729445786016254e-01	 1.474958052621829e+00	-3.493924223025840e+01
1	 2.843172693785931e-01	 1.536414638161894e+00	-3.102731987887621e+01
1	 3.133685778110481e-01	 1.530753531557268e+00	-3.104930189455981e+01
1	 3.424726933753939e-01	 1.524506040664233e+00	-3.106831029043742e+01
1	 3.716131467800383e-01	 1.517665920720555e+00	-3.108460682899587e+01
1	 4.007730562774552e-01	 1.510227498133118e+00	-3.109846642402186e+01
1	 4.299351501958268e-01	 1.502185697666641e+00	-3.111017639804084e+01
1	 4.590817913893566e-01	 1.493536068709189e+00	-3.112003564900031e+01
1	 4.881950035752856e-01	 1.484274810467774e+00	-3.112835372774833e+01
1	 5.172564995135125e-01	 1.474398795947250e+00	-3.113544982864714e+01
1	 5.462477109723490e-01	 1.463905594566634e+00	-3.114165169648016e+01
1	 5.751498204114305e-01	 1.452793493269105e+00	-3.114729445362297e+01
1	 2.831800002985802e-01	 1.530268979607887e+00	-3.141768252224064e+01
1	 3.121151034976095e-01	 1.524630517429441e+00	-3.143799717020624e+01
1	 3.411028025999496e-01	 1.518408016499822e+00	-3.145789190848446e+01
1	 3.701266941911736e-01	 1.511595257035847e+00	-3.147764292972295e+01
1	 3.991699640507450e-01	 1.504186588138773e+00	-3.149753043392660e+01
1	 4.282154095935320e-01	 1.496176954874263e+00	-3.151783751593913e+01
1	 4.572454642223203e-01	 1.487561924432829e+00	-3.153884899525106e+01
1	 4.862422235594811e-01	 1.478337711224659e+00	-3.156085019337638e+01
1	 5.151874735138727e-01	 1.468501200762586e+00	-3.158412566471315e+01
1	 5.440627201267335e-01	 1.458049972187953e+00	-3.160895788746970e+01
1	 5.728492211278584e-01	 1.446982319296167e+00	-3.163562592186563e+01
1	 2.820427312190821e-01	 1.524123321053880e+00	-3.180822357243894e+01
1	 3.108616291845948e-01	 1.518507503301614e+00	-3.182694839607289e+01
1	 3.397329118248572e-01	 1.512309992335412e+00	-3.184782945024903e+01
1	 3.686402416026083e-01	 1.505524593351139e+00	-3.187115756973977e+01
1	 3.975668718243004e-01	 1.498145678144428e+00	-3.189721840457569e+01
1	 4.264956689914889e-01	 1.490168212081885e+00	-3.192629093546977e+01
1	 4.554091370555421e-01	 1.481587780156469e+00	-3.195864596480315e+01
1	 4.842894435439616e-01	 1.472400611981543e+00	-3.199454459211228e+01
1	 5.131184475145656e-01	 1.462603605577921e+00	-3.203423668359905e+01
1	 5.418777292815181e-01	 1.452194349809271e+00	-3.207795934568168e+01
1	 5.705486218447761e-01	 1.441171145323229e+00	-3.212593541304548e+01
1	 2.809054621400988e-01	 1.517977662499874e+00	-3.219894519635503e+01
1	 3.096081548720040e-01	 1.512384489173787e+00	-3.221615868086638e+01
1	 3.383630210501168e-01	 1.506211968171001e+00	-3.223812723869062e+01
1	 3.671537890143418e-01	 1.499453929666431e+00	-3.226515656126359e+01
1	 3.959637795981215e-01	 1.492104768150083e+00	-3.229753791443835e+01
1	 4.247759283896978e-01	 1.484159469289506e+00	-3.233554627972945e+01
1	 4.535728098890222e-01	 1.475613635880110e+00	-3.237943850449781e+01
1	 4.823366635287270e-01	 1.466463512738428e+00	-3.242945147375043e+01
1	 5.110494215155904e-01	 1.456706010393257e+00	-3.248580031667490e+01
1	 5.396927384367032e-01	 1.446338727430589e+00	-3.254867666140598e+01
1	 5.682480225621834e-01	 1.435359971350291e+00	-3.261824695173124e+01
1	 2.797681930616299e-01	 1.511832003945867e+00	-3.258984959610781e+01
1	 3.083546805598374e-01	 1.506261475045960e+00	-3.260563118384134e+01
1	 3.369931302757285e-01	 1.500113944006590e+00	-3.262878966706120e+01
1	 3.656673364263746e-01	 1.493383265981723e+00	-3.265964581102028e+01
1	 3.943606873722083e-01	 1.486063858155739e+00	-3.269849666521254e+01
1	 4.230561877881586e-01	 1.478150726497128e+00	-3.274561332828722e+01
1	 4.517364827227605e-01	 1.469639491603750e+00	-3.280123875543462e+01
1	 4.803838835137773e-01	 1.460526413495312e+00	-3.286558562466697e+01
1	 5.089803955169475e-01	 1.450808415208592e+00	-3.293883427874724e+01
1	 5.375077475922888e-01	 1.440483105051908e+00	-3.302113075973367e+01
1	 5.659474232800804e-01	 1.429548797377353e+00	-3.311258495313603e+01
1	 2.786309239836759e-01	 1.505686345391861e+00	-3.298093900976802e+01
1	 3.071012062480946e-01	 1.500138460918133e+00	-3.299536911583220e+01
1	 3.356232395016923e-01	 1.494015919842179e+00	-3.301982120033918e+01
1	 3.641808838387064e-01	 1.487312602297014e+00	-3.305463132217076e+01
1	 3.927575951465606e-01	 1.480022948161394e+00	-3.310010248433725e+01
1	 4.213364471868712e-01	 1.472141983704749e+00	-3.315650202037892e+01
1	 4.499001555567569e-01	 1.463665347327390e+00	-3.322405905693374e+01
1	 4.784311034991122e-01	 1.454589314252196e+00	-3.330296207264871e+01
1	 5.069113695186367e-01	 1.444910820023928e+00	-3.339335657384426e+01
1	 5.353227567482747e-01	 1.434627482673227e+00	-3.349534290738935e+01
1	 5.636468239984674e-01	 1.423737623404415e+00	-3.360897423108798e+01
1	 2.774936549062365e-01	 1.499540686837854e+00	-3.337221571209681e+01
1	 3.058477319367760e-01	 1.494015446790306e+00	-3.338537574031061e+01
1	 3.342533487280078e-01	 1.487917895677767e+00	-3.341122637669888e+01
1	 3.626944312513374e-01	 1.481241938612306e+00	-3.345011919628940e+01
1	 3.911545029211785e-01	 1.473982038167049e+00	-3.350236332757050e+01
1	 4.196167065858359e-01	 1.466133240912371e+00	-3.356822245817898e+01
1	 4.480638283910117e-01	 1.457691203051031e+00	-3.364791195060030e+01
1	 4.764783234847324e-01	 1.448652215009081e+00	-3.374159609183955e+01
1	 5.048423435206580e-01	 1.439013224839264e+00	-3.384938550114172e+01
1	 5.331377659046610e-01	 1.428771860294546e+00	-3.397133471973356e+01
1	 5.613462247173440e-01	 1.417926449431477e+00	-3.410744000619998e+01
1	 2.763563858293117e-01	 1.493395028283848e+00	-3.376368201529953e+01
1	 3.045942576258812e-01	 1.487892432662479e+00	-3.377565437446697e+01
1	 3.328834579546756e-01	 1.481819871513357e+00	-3.380300980901755e+01
1	 3.612079786642676e-01	 1.475171274927598e+00	-3.384611563538759e+01
1	 3.895514106960621e-01	 1.467941128172704e+00	-3.390528728162903e+01
1	 4.178969659850523e-01	 1.460124498119993e+00	-3.398078491015231e+01
1	 4.462275012255246e-01	 1.451717058774671e+00	-3.407281018448518e+01
1	 4.745255434706371e-01	 1.442715115765965e+00	-3.418150320780903e+01
1	 5.027733175230117e-01	 1.433115629654599e+00	-3.430693966103659e+01
1	 5.309527750614477e-01	 1.422916237915864e+00	-3.444912816793471e+01
1	 5.590456254367102e-01	 1.412115275458539e+00	-3.460800791423836e+01
1	 2.752191167529016e-01	 1.487249369729842e+00	-3.415534026979983e+01
1	 3.033407833154104e-01	 1.481769418534652e+00	-3.416620839032193e+01
1	 3.315135671816954e-01	 1.475721847348946e+00	-3.419517618641856e+01
1	 3.597215260774967e-01	 1.469100611242889e+00	-3.424262694398930e+01
1	 3.879483184712112e-01	 1.461900218178359e+00	-3.430888256689460e+01
1	 4.161772253845208e-01	 1.454115755327615e+00	-3.439419981449061e+01
1	 4.443911740602958e-01	 1.445742914498312e+00	-3.449876671735119e+01
1	 4.725727634568269e-01	 1.436778016522849e+00	-3.462269920274858e+01
1	 5.007042915256975e-01	 1.427218034469935e+00	-3.476603796137051e+01
1	 5.287677842186348e-01	 1.417060615537183e+00	-3.492874558632034e+01
1	 5.567450261565662e-01	 1.406304101485601e+00	-3.511070401470140e+01
1	 2.740818476770061e-01	 1.481103711175835e+00	-3.454719286503330e+01
1	 3.020873090053637e-01	 1.475646404406825e+00	-3.455704121586272e+01
1	 3.301436764090671e-01	 1.469623823184535e+00	-3.458773027585219e+01
1	 3.582350734910251e-01	 1.463029947558181e+00	-3.463965953125847e+01
1	 3.863452262466261e-01	 1.455859308184015e+00	-3.471315754018698e+01
1	 4.144574847842410e-01	 1.448107012535236e+00	-3.480847778263389e+01
1	 4.425548468953251e-01	 1.439768770221952e+00	-3.492579472304353e+01
1	 4.706199834433016e-01	 1.430840917279734e+00	-3.506520012079376e+01
1	 4.986352655287156e-01	 1.421320439285270e+00	-3.522669962380809e+01
1	 5.265827933762222e-01	 1.411204993158501e+00	-3.541020967991305e+01
1	 5.544444268769118e-01	 1.400492927512663e+00	-3.561555479960977e+01
1	 2.729445786016254e-01	 1.474958052621829e+00	-3.493924223025840e+01
1	 3.008338346957408e-01	 1.469523390278998e+00	-3.494815633621059e+01
1	 3.287737856367907e-01	 1.463525799020123e+00	-3.498067692371870e+01
1	 3.567486209048524e-01	 1.456959283873473e+00	-3.503721991317789e+01
1	 3.847421340223064e-01	 1.449818398189669e+00	-3.511812069760590e+01
1	 4.127377441842129e-01	 1.442098269742858e+00	-3.522362960287904e+01
1	 4.407185197306125e-01	 1.433794625945592e+00	-3.535390759497248e+01
1	 4.686672034300611e-01	 1.424903818036619e+00	-3.550902227348345e+01
1	 4.965662395320658e-01	 1.415422844100606e+00	-3.568894419037479e+01
1	 5.243978025342101e-01	 1.405349370779820e+00	-3.589354353215209e+01
1	 5.521438275977473e-01	 1.394681753539725e+00	-3.612258720251842e+01
1	 5.751498204114305e-01	 1.452793493269105e+00	-3.114729445362298e+01
1	 6.039430373547219e-01	 1.441061819925233e+00	-3.100456694513021e+01
1	 6.326088594126902e-01	 1.428710075636110e+00	-3.086007925678773e+01
1	 6.611279268955733e-01	 1.415738809835725e+00	-3.071311483080850e+01
1	 6.894807729561468e-01	 1.402149356104025e+00	-3.056293607331968e+01
1	 7.176478623919178e-01	 1.387943843742511e+00	-3.040878695368540e+01
1	 7.456096314940183e-01	 1.373125207090741e+00	-3.024989578639426e+01
1	 7.733465287919971e-01	 1.357697192487557e+00	-3.008547818261480e+01
1	 8.008390565343244e-01	 1.341664362792192e+00	-2.991474015664869e+01
1	 8.280678127359949e-01	 1.325032099392725e+00	-2.973688137073543e+01
1	 8.550135336172382e-01	 1.307806601642550e+00	-2.955109849998148e+01
1	 5.728492211278584e-01	 1.446982319296167e+00	-3.163562592186563e+01
1	 6.015272652032084e-01	 1.435297572646213e+00	-3.151381634970766e+01
1	 6.300784239729016e-01	 1.422995235334677e+00	-3.138101276031195e+01
1	 6.584834151859352e-01	 1.410075854597807e+00	-3.123656710667517e+01
1	 6.867228498624766e-01	 1.396540758681231e+00	-3.107984577530304e+01
1	 7.147772709408429e-01	 1.382392068369241e+00	-3.091023260703319e+01
1	 7.426271929670025e-01	 1.367632706264038e+00	-3.072713192337763e+01
1	 7.702531426763880e-01	 1.352266403719105e+00	-3.052997153868146e+01
1	 7.976357003084757e-01	 1.336297705342238e+00	-3.031820573784481e+01
1	 8.247555414862010e-01	 1.319731970995964e+00	-3.009131819897081e+01
1	 8.515934794849132e-01	 1.302575375236261e+00	-2.984882484012912e+01
1	 5.705486218447761e-01	 1.441171145323229e+00	-3.212593541304548e+01
1	 5.991114930522706e-01	 1.429533325367199e+00	-3.202451656874852e+01
1	 6.275479885337449e-01	 1.417280395033262e+00	-3.190279551774896e+01
1	 6.558389034769571e-01	 1.404412899359933e+00	-3.176019296511015e+01
1	 6.839649267694639e-01	 1.390932161258515e+00	-3.159617970799626e+01
1	 7.119066794903937e-01	 1.376840292996094e+00	-3.141028008054033e+01
1	 7.396447544405512e-01	 1.362140205437511e+00	-3.120207522633850e+01
1	 7.671597565612508e-01	 1.346835614950893e+00	-3.097120617203619e+01
1	 7.944323440829759e-01	 1.330931047892599e+00	-3.071737667623520e+01
1	 8.214432702366022e-01	 1.314431842599602e+00	-3.044035582897854e+01
1	 8.481734253525984e-01	 1.297344148830467e+00	-3.013998037840014e+01
1	 5.682480225621834e-01	 1.435359971350291e+00	-3.261824695173124e+01
1	 5.966957209019079e-01	 1.423769078088189e+00	-3.253668522348140e+01
1	 6.250175530952203e-01	 1.411565554731868e+00	-3.242543784392442e+01
1	 6.531943917686389e-01	 1.398749944122103e+00	-3.228399451440375e+01
1	 6.812070036771092e-01	 1.385323563835876e+00	-3.211193087825046e+01
1	 7.090360880405706e-01	 1.371288517623069e+00	-3.190891239226621e+01
1	 7.366623159146635e-01	 1.356647704611160e+00	-3.167469784709136e+01
1	 7.640663704465850e-01	 1.341404826182923e+00	-3.140914250305148e+01
1	 7.912289878578249e-01	 1.325564390443276e+00	-3.111220081016652e+01
1	 8.181309989871984e-01	 1.309131714203641e+00	-3.078392868345179e+01
1	 8.447533712202945e-01	 1.292112922425167e+00	-3.042448530748243e+01
1	 5.659474232800804e-01	 1.429548797377353e+00	-3.311258495313603e+01
1	 5.942799487521206e-01	 1.418004830809184e+00	-3.305034022165763e+01
1	 6.224871176573282e-01	 1.405850714430493e+00	-3.294895022138289e+01
1	 6.505498800609802e-01	 1.393086988884315e+00	-3.280797389712779e+01
1	 6.784490805854121e-01	 1.379714966413315e+00	-3.262709217920681e+01
1	 7.061654965913734e-01	 1.365736742250165e+00	-3.240611228414074e+01
1	 7.336798773893400e-01	 1.351155203784985e+00	-3.214497148463408e+01
1	 7.609729843323911e-01	 1.335974037415192e+00	-3.184374030852857e+01
1	 7.880256316330223e-01	 1.320197732994267e+00	-3.150262512982786e+01
1	 8.148187277379899e-01	 1.303831585808079e+00	-3.112197011878566e+01
1	 8.413333170880011e-01	 1.286881696020362e+00	-3.070225852238392e+01
1	 5.636468239984674e-01	 1.423737623404415e+00	-3.360897423108798e+01
1	 5.918641766029088e-01	 1.412240583530184e+00	-3.356549976340010e+01
1	 6.199566822200682e-01	 1.400135874129137e+00	-3.347334330381352e+01
1	 6.479053683539814e-01	 1.387424033646572e+00	-3.333213329083410e+01
1	 6.756911574943729e-01	 1.374106368990832e+00	-3.314165638797682e+01
1	 7.032949051428020e-01	 1.360184966877384e+00	-3.290186221632955e+01
1	 7.306974388645807e-01	 1.345662702958988e+00	-3.261286737590781e+01
1	 7.578795982186687e-01	 1.330543248647703e+00	-3.227495870856304e+01
1	 7.848222754085689e-01	 1.314831075545574e+00	-3.188859575994294e+01
1	 8.115064564889767e-01	 1.298531457412917e+00	-3.145441240331638e+01
1	 8.379132629557183e-01	 1.281650469616052e+00	-3.097321759394937e+01
1	 5.613462247173440e-01	 1.417926449431477e+00	-3.410744000619998e+01
1	 5.894484044542724e-01	 1.406476336251189e+00	-3.408218234719561e+01
1	 6.174262467834404e-01	 1.394421033827800e+00	-3.399862791955596e+01
1	 6.452608566476424e-01	 1.381761078408873e+00	-3.385647490877280e+01
1	 6.729332344039918e-01	 1.368497771568427e+00	-3.365561616326318e+01
1	 7.004243136948570e-01	 1.354633191504724e+00	-3.339614436146037e+01
1	 7.277150003403851e-01	 1.340170202133165e+00	-3.307835628632790e+01
1	 7.547862121054181e-01	 1.325112459880453e+00	-3.270275615308877e+01
1	 7.816189191844641e-01	 1.309464418097196e+00	-3.227005794203316e+01
1	 8.081941852401585e-01	 1.293231329018155e+00	-3.178118669502452e+01
1	 8.344932088234462e-01	 1.276419243212237e+00	-3.123727874172520e+01
1	 5.590456254367102e-01	 1.412115275458539e+00	-3.460800791423836e+01
1	 5.870326323062114e-01	 1.400712088972198e+00	-3.460040677603104e+01
1	 6.148958113474446e-01	 1.388706193526482e+00	-3.452481507519383e+01
1	 6.426163449419634e-01	 1.376098123171217e+00	-3.438100100062596e+01
1	 6.701753113142684e-01	 1.362889174146101e+00	-3.416896404292480e+01
1	 6.975537222475379e-01	 1.349081416132187e+00	-3.388894059870559e+01
1	 7.247325618167538e-01	 1.334677701307520e+00	-3.354140850008170e+01
1	 7.516928259926393e-01	 1.319681671113445e+00	-3.312709040808711e+01
1	 7.784155629607080e-01	 1.304097760649133e+00	-3.264695601624619e+01
1	 8.048819139915353e-01	 1.287931200623792e+00	-3.210222301868893e+01
1	 8.310731546911847e-01	 1.271188016808916e+00	-3.149435680615578e+01
1	 5.567450261565662e-01	 1.406304101485601e+00	-3.511070401470140e+01
1	 5.846168601587255e-01	 1.394947841693213e+00	-3.512019216368742e+01
1	 6.123653759120812e-01	 1.382991353225184e+00	-3.505191595923794e+01
1	 6.399718332369438e-01	 1.370435167933604e+00	-3.490571385326011e+01
1	 6.674173882252027e-01	 1.357280576723852e+00	-3.468169244147870e+01
1	 6.946831308008447e-01	 1.343529640759772e+00	-3.438023250772034e+01
1	 7.217501232936864e-01	 1.329185200482050e+00	-3.400199381018648e+01
1	 7.485994398803321e-01	 1.314250882346677e+00	-3.354791854145684e+01
1	 7.752122067373008e-01	 1.298731103201385e+00	-3.301923340273153e+01
1	 8.015696427431073e-01	 1.282631072229829e+00	-3.241745024247259e+01
1	 8.276531005589337e-01	 1.265956790406090e+00	-3.174436522008898e+01
1	 5.544444268769118e-01	 1.400492927512663e+00	-3.561555479960977e+01
1	 5.822010880118151e-01	 1.389183594414232e+00	-3.564155794118694e+01
1	 6.098349404773498e-01	 1.377276512923906e+00	-3.557994194590091e+01
1	 6.373273215325841e-01	 1.364772212696035e+00	-3.543061579149865e+01
1	 6.646594651367946e-01	 1.351671979301680e+00	-3.519379364754263e+01
1	 6.918125393547775e-01	 1.337977865387479e+00	-3.487000136242762e+01
1	 7.187676847711829e-01	 1.323692699656757e+00	-3.446008150829827e+01
1	 7.455060537684963e-01	 1.308820093580150e+00	-3.396519690853020e+01
1	 7.720088505142423e-01	 1.293364445753952e+00	-3.338683258255455e+01
1	 7.982573714948745e-01	 1.277330943836267e+00	-3.272679605392683e+01
1	 8.242330464266935e-01	 1.260725564003759e+00	-3.198721597957316e+01
1	 5.521438275977473e-01	 1.394681753539725e+00	-3.612258720251842e+01
1	 5.797853158654803e-01	 1.383419347135256e+00	-3.616452386340179e+01
1	 6.073045050432507e-01	 1.371561672622646e+00	-3.610890459896481e+01
1	 6.346828098288844e-01	 1.359109257458510e+00	-3.595570917891157e+01
1	 6.619015420490447e-01	 1.346063381879586e+00	-3.570525982121109e+01
1	 6.889419479093360e-01	 1.332426090015308e+00	-3.535822812464922e+01
1	 7.157852462492434e-01	 1.318200198831640e+00	-3.491564037426798e+01
1	 7.424126676571323e-01	 1.303389304813863e+00	-3.437888113722891e+01
1	 7.688054942915323e-01	 1.287997788306834e+00	-3.374969507813078e+01
1	 7.949451002468365e-01	 1.272030815443104e+00	-3.303018693539588e+01
1	 8.208129922944636e-01	 1.255494337601922e+00	-3.222281961392412e+01
1	 8.550135336172382e-01	 1.307806601642550e+00	-2.955109849998148e+01
1	 8.816578016690023e-01	 1.289994443622846e+00	-2.854426339288346e+01
1	 9.079810573365499e-01	 1.271603901040402e+00	-2.740254900618440e+01
1	 9.339647061687287e-01	 1.252643598014911e+00	-2.612941842617924e+01
1	 9.595904619212839e-01	 1.233122947981431e+00	-2.472879729452436e+01
1	 9.848403881424443e-01	 1.213052139886644e+00	-2.320506328301957e+01
1	 1.009696939009092e+00	 1.192442121770408e+00	-2.156303311789327e+01
1	 1.034142999222465e+00	 1.171304581781001e+00	-1.980794720963788e+01
1	 1.058161922776024e+00	 1.149651926688328e+00	-1.794545196492900e+01
1	 1.081737570413281e+00	 1.127497257974966e+00	-1.598157987710584e+01
1	 1.104854345600000e+00	 1.104854345600000e+00	-1.392272751087424e+01
1	 8.515934794849132e-01	 1.302575375236261e+00	-2.984882484012911e+01
1	 8.781311704654284e-01	 1.284834465848125e+00	-2.877355123287264e+01
1	 9.043491331110599e-01	 1.266517485435658e+00	-2.757048700558285e+01
1	 9.302288473484583e-01	 1.247633023622076e+00	-2.624299084573357e+01
1	 9.557521000783445e-01	 1.228190456188699e+00	-2.479485592599956e+01
1	 9.809010265947531e-01	 1.208199931326420e+00	-2.323029971951527e+01
1	 1.005658151257858e+00	 1.187672353282941e+00	-2.155395151761661e+01
1	 1.030006427230092e+00	 1.166619363453945e+00	-1.977083770443444e+01
1	 1.053929275088941e+00	 1.145053318982258e+00	-1.788636486189555e+01
1	 1.077410620134944e+00	 1.122987268944527e+00	-1.590630079735281e+01
1	 1.100434928220000e+00	 1.100434928220000e+00	-1.383675360400144e+01
1	 8.481734253525984e-01	 1.297344148830467e+00	-3.013998037840014e+01
1	 8.746045392616848e-01	 1.279674488073984e+00	-2.899674910001314e+01
1	 9.007172088852592e-01	 1.261431069831551e+00	-2.773287061721928e+01
1	 9.264929885277753e-01	 1.242622449229904e+00	-2.635159849362432e+01
1	 9.519137382349308e-01	 1.223257964396623e+00	-2.485659256366897e+01
1	 9.769616650465660e-01	 1.203347722766820e+00	-2.325190909011301e+01
1	 1.001619363506147e+00	 1.182902584796032e+00	-2.154198877768732e+01
1	 1.025869855237300e+00	 1.161934145127353e+00	-1.973164269559448e+01
1	 1.049696627401538e+00	 1.140454711276527e+00	-1.782603617942607e+01
1	 1.073083669856426e+00	 1.118477279914273e+00	-1.583067080043966e+01
1	 1.096015510840000e+00	 1.096015510840000e+00	-1.375136450682782e+01
1	 8.447533712202945e-01	 1.292112922425167e+00	-3.042448530748242e+01
1	 8.710779080577713e-01	 1.274514510300423e+00	-2.921378302702048e+01
1	 8.970852846591471e-01	 1.256344654228079e+00	-2.788963237889084e+01
1	 9.227571297066799e-01	 1.237611874838393e+00	-2.645518106897789e+01
1	 9.480753763910428e-01	 1.218325472605206e+00	-2.491395471367811e+01
1	 9.730223034978829e-01	 1.198495514207843e+00	-2.326984734137921e+01
1	 9.975805757539580e-01	 1.178132816309683e+00	-2.152710990450550e+01
1	 1.021733283244090e+00	 1.157248926801225e+00	-1.969033685311455e+01
1	 1.045463979713816e+00	 1.135856103571137e+00	-1.776445083760944e+01
1	 1.068756719577729e+00	 1.113967290884204e+00	-1.575468562421690e+01
1	 1.091596093460000e+00	 1.091596093460000e+00	-1.366656732230817e+01
1	 8.413333170880011e-01	 1.286881696020362e+00	-3.070225852238392e+01
1	 8.675512768536876e-01	 1.269354532527441e+00	-2.942457784388991e+01
1	 8.934533604327241e-01	 1.251258238625242e+00	-2.804070373144852e+01
1	 9.190212708851717e-01	 1.232601300447543e+00	-2.655367729041878e+01
1	 9.442370145466800e-01	 1.213392980814446e+00	-2.496688902861354e+01
1	 9.690829419487037e-01	 1.193643305649489e+00	-2.328406970356369e+01
1	 9.935417880012916e-01	 1.173363047823893e+00	-2.150927933546948e+01
1	 1.017596711250460e+00	 1.152563708475562e+00	-1.964689443512110e+01
1	 1.041231332025775e+00	 1.131257495866086e+00	-1.770159351133312e+01
1	 1.064429769298851e+00	 1.109457301854319e+00	-1.567834093723172e+01
1	 1.087176676080000e+00	 1.087176676080000e+00	-1.358236926889281e+01
1	 8.379132629557183e-01	 1.281650469616052e+00	-3.097321759394938e+01
1	 8.640246456494346e-01	 1.264194554755040e+00	-2.962905715335189e+01
1	 8.898214362059901e-01	 1.246171823023041e+00	-2.818601499640976e+01
1	 9.152854120632511e-01	 1.227590726057355e+00	-2.664702487605888e+01
1	 9.403986527018435e-01	 1.208460489024344e+00	-2.501534129008403e+01
1	 9.651435803990287e-01	 1.188791097091759e+00	-2.329453067598201e+01
1	 9.895030002481479e-01	 1.168593279338662e+00	-2.148846092736392e+01
1	 1.013460139256413e+00	 1.147878490150364e+00	-1.960128927946516e+01
1	 1.036998684337414e+00	 1.126658888161375e+00	-1.763744862527816e+01
1	 1.060102819019794e+00	 1.104947312824620e+00	-1.560163233731404e+01
1	 1.082757258700000e+00	 1.082757258700000e+00	-1.349877768288411e+01
1	 8.344932088234462e-01	 1.276419243212237e+00	-3.123727874172520e+01
1	 8.604980144450114e-01	 1.259034576983219e+00	-2.982714330572142e+01
1	 8.861895119789451e-01	 1.241085407421475e+00	-2.832549535302182e+01
1	 9.115495532409181e-01	 1.222580151667829e+00	-2.673516052299581e+01
1	 9.365602908565326e-01	 1.203527997234899e+00	-2.505925639087197e+01
1	 9.612042188488573e-01	 1.183938888534652e+00	-2.330118401203678e+01
1	 9.854642124945269e-01	 1.163823510853989e+00	-2.146461794446164e+01
1	 1.009323567261946e+00	 1.143193271825631e+00	-1.955349479510999e+01
1	 1.032766036648734e+00	 1.122060280457004e+00	-1.757200034879308e+01
1	 1.055775868740557e+00	 1.100437323795106e+00	-1.552455535012662e+01
1	 1.078337841320000e+00	 1.078337841320000e+00	-1.341580002085160e+01
1	 8.310731546911847e-01	 1.271188016808916e+00	-3.149435680615578e+01
1	 8.569713832404185e-01	 1.253874599211977e+00	-3.001875737312952e+01
1	 8.825575877515892e-01	 1.235998991820545e+00	-2.845907281475810e+01
1	 9.078136944181722e-01	 1.217569577278963e+00	-2.681801988630364e+01
1	 9.327219290107472e-01	 1.198595505446112e+00	-2.509857831664540e+01
1	 9.572648572981904e-01	 1.179086679978168e+00	-2.330398270386983e+01
1	 9.814254247404278e-01	 1.159053742369876e+00	-2.143771304633213e+01
1	 1.005186995267061e+00	 1.138508053501362e+00	-1.950348395330667e+01
1	 1.028533388959734e+00	 1.117461672752973e+00	-1.750523259063930e+01
1	 1.051448918461140e+00	 1.095927334765777e+00	-1.544710542768082e+01
1	 1.073918423940000e+00	 1.073918423940000e+00	-1.333344386210696e+01
1	 8.276531005589337e-01	 1.265956790406090e+00	-3.174436522008897e+01
1	 8.534447520356561e-01	 1.248714621441316e+00	-3.020381912311409e+01
1	 8.789256635239225e-01	 1.230912576220251e+00	-2.858667420523163e+01
1	 9.040778355950136e-01	 1.212559002890760e+00	-2.689553755750433e+01
1	 9.288835671644879e-01	 1.193663013657982e+00	-2.513325012721505e+01
1	 9.533254957470275e-01	 1.174234471422308e+00	-2.330287896663357e+01
1	 9.773866369858519e-01	 1.154283973886322e+00	-2.140770827534805e+01
1	 1.001050423271758e+00	 1.133822835177557e+00	-1.945122927855001e+01
1	 1.024300741270415e+00	 1.112863065049282e+00	-1.743712899360765e+01
1	 1.047121968181543e+00	 1.091417345736633e+00	-1.536927794681477e+01
1	 1.069499006560000e+00	 1.069499006560000e+00	-1.325171691123947e+01
1	 8.242330464266935e-01	 1.260725564003759e+00	-3.198721597957316e+01
1	 8.499181208307234e-01	 1.243554643671235e+00	-3.038224699155392e+01
1	 8.752937392959445e-01	 1.225826160620592e+00	-2.870822513351030e+01
1	 9.003419767714428e-01	 1.207548428503217e+00	-2.696764704250133e+01
1	 9.250452053177540e-01	 1.188730521870509e+00	-2.516321393732684e+01
1	 9.493861341953684e-01	 1.169382262867071e+00	-2.329782422237093e+01
1	 9.733478492307980e-01	 1.149514205403326e+00	-2.137456504387973e+01
1	 9.969138512760354e-01	 1.129137616854217e+00	-1.939670283930985e+01
1	 1.020068093580776e+00	 1.108264457345931e+00	-1.736767292899974e+01
1	 1.042795017901766e+00	 1.086907356707673e+00	-1.529106820763347e+01
1	 1.065079589180000e+00	 1.065079589180000e+00	-1.317062700071526e+01
1	 8.208129922944636e-01	 1.255494337601922e+00	-3.222281961392412e+01
1	 8.463914896256208e-01	 1.238394665901733e+00	-3.055395805492535e+01
1	 8.716618150676554e-01	 1.220739745021569e+00	-2.882364996881191e+01
1	 8.966061179474591e-01	 1.202537854116337e+00	-2.703428073896355e+01
1	 9.212068434705458e-01	 1.183798030083694e+00	-2.518841089697197e+01
1	 9.454467726432131e-01	 1.164530054312457e+00	-2.328876908349228e+01
1	 9.693090614752667e-01	 1.144744436920890e+00	-2.133824412117039e+01
1	 9.927772792798947e-01	 1.124452398531341e+00	-1.933987623853064e+01
1	 1.015835445890818e+00	 1.103665849642919e+00	-1.729684749097234e+01
1	 1.038468067621809e+00	 1.082397367678899e+00	-1.521247143191037e+01
1	 1.060660171800000e+00	 1.060660171800000e+00	-1.309018209354199e+01
1	 1.104854345600000e+00	 1.104854345600000e+00	-1.392272751087424e+01
1	 1.127497246456672e+00	 1.081737587964323e+00	-1.222351719274924e+01
1	 1.149651880750912e+00	 1.058161992828915e+00	-1.057365996019881e+01
1	 1.171304478742993e+00	 1.034143156462176e+00	-8.974295309096634e+00
1	 1.192441939189963e+00	 1.009697217803762e+00	-7.426371650273690e+00
1	 1.213051855580902e+00	 9.848408224936508e-01	-5.930645119022484e+00
1	 1.233122540044957e+00	 9.595910854157566e-01	-4.487679400436345e+00
1	 1.252643044837173e+00	 9.339655519316761e-01	-3.097846560763472e+00
1	 1.271603181322287e+00	 9.079821579867423e-01	-1.761328866742794e+00
1	 1.289993536392186e+00	 8.816591892757605e-01	-4.781215669578649e-01
1	 1.307805486268661e+00	 8.550152396594509e-01	 7.519633983024927e-01
1	 1.100434928220000e+00	 1.100434928220000e+00	-1.383675360400144e+01
1	 1.122987257472306e+00	 1.077410637615781e+00	-1.214460176904652e+01
1	 1.145053273228591e+00	 1.053929344861620e+00	-1.050040162083450e+01
1	 1.166619260828089e+00	 1.030006583840844e+00	-8.905287301334193e+00
1	 1.187672171432817e+00	 1.005658428937350e+00	-7.360207298348808e+00
1	 1.208199648157901e+00	 9.809014592085546e-01	-5.865923229509911e+00
1	 1.228190049883970e+00	 9.557527210788392e-01	-4.423009613398373e+00
1	 1.247632472657050e+00	 9.302296897283541e-01	-3.031854618526925e+00
1	 1.266516768596416e+00	 9.043502293586518e-01	-1.692661772933767e+00
1	 1.284833562246387e+00	 8.781325525217596e-01	-4.054526094261086e-01
1	 1.302574264323868e+00	 8.515951787029570e-01	 8.299297858263954e-01
1	 1.096015510840000e+00	 1.096015510840000e+00	-1.375136450682782e+01
1	 1.118477268488125e+00	 1.073083687267059e+00	-1.206628901566399e+01
1	 1.140454665706610e+00	 1.049696696894006e+00	-1.042775400717298e+01
1	 1.161934042913649e+00	 1.025870011219093e+00	-8.836888263341617e+00
1	 1.182902403676231e+00	 1.001619640070460e+00	-7.294640368078431e+00
1	 1.203347440735524e+00	 9.769620959229627e-01	-5.801777465550252e+00
1	 1.223257559723641e+00	 9.519143567414475e-01	-4.358884976817615e+00
1	 1.242621900477587e+00	 9.264938275246191e-01	-2.966367266063023e+00
1	 1.261430355871180e+00	 9.007183007302498e-01	-1.624449239943111e+00
1	 1.279673588101169e+00	 8.746059157675892e-01	-3.331788561151265e-01
1	 1.297343042379569e+00	 8.481751177464736e-01	 9.075694901506288e-01
1	 1.091596093460000e+00	 1.091596093460000e+00	-1.366656732230817e+01
1	 1.113967279504129e+00	 1.068756736918158e+00	-1.198858625248668e+01
1	 1.135856058184969e+00	 1.045464048926072e+00	-1.035572453693733e+01
1	 1.157248824999674e+00	 1.021733438596924e+00	-8.769105591514215e+00
1	 1.178132635920203e+00	 9.975808512030923e-01	-7.229678115597224e+00
1	 1.198495233313770e+00	 9.730227326368749e-01	-5.738214824620358e+00
1	 1.218325069563970e+00	 9.480759924035818e-01	-4.295312111954828e+00
1	 1.237611328298788e+00	 9.227579653204722e-01	-2.901390631991917e+00
1	 1.256343943146580e+00	 8.970863721015372e-01	-1.556696788751659e+00
1	 1.274513613956531e+00	 8.710792790132481e-01	-2.613051070748771e-01
1	 1.292111820435765e+00	 8.447550567900007e-01	 9.848785434648142e-01
1	 1.087176676080000e+00	 1.087176676080000e+00	-1.358236926889281e+01
1	 1.109457290520318e+00	 1.064429786569076e+00	-1.191150091842195e+01
1	 1.131257450663668e+00	 1.041231400957819e+00	-1.028432074846379e+01
1	 1.152563607086163e+00	 1.017596865974336e+00	-8.701946802514069e+00
1	 1.173362868164735e+00	 9.935420623352474e-01	-7.165327915025343e+00
1	 1.193643025892639e+00	 9.690833693502909e-01	-5.675242417977387e+00
1	 1.213392579404956e+00	 9.442376280652418e-01	-4.232297747733606e+00
1	 1.232600756120649e+00	 9.190221031159120e-01	-2.836930944586745e+00
1	 1.251257530422616e+00	 8.934544434725138e-01	-1.489410030112198e+00
1	 1.269353639812472e+00	 8.675526422587377e-01	-1.898362404050182e-01
1	 1.286880598492455e+00	 8.413349958335387e-01	 1.061852913441541e+00
1	 1.082757258700000e+00	 1.082757258700000e+00	-1.349877768288411e+01
1	 1.104947301536692e+00	 1.060102836219815e+00	-1.183504057382894e+01
1	 1.126658843142707e+00	 1.036998752989247e+00	-1.021355030316371e+01
1	 1.147878389173117e+00	 1.013460293351329e+00	-8.635419535724402e+00
1	 1.168593100409825e+00	 9.895032734669250e-01	-7.101597260877178e+00
1	 1.188790818472132e+00	 9.651440060632110e-01	-5.612867472980400e+00
1	 1.208460089246599e+00	 9.403992637264269e-01	-4.169848722937484e+00
1	 1.227590183943172e+00	 9.152862409109396e-01	-2.772994533806180e+00
1	 1.246171117699287e+00	 8.898225148431789e-01	-1.422594666382002e+00
1	 1.264193665668993e+00	 8.640260055040575e-01	-1.187772138475620e-01
1	 1.281649376549641e+00	 8.379149348770870e-01	 1.138488501919183e+00
1	 1.078337841320000e+00	 1.078337841320000e+00	-1.341580002085160e+01
1	 1.100437312553251e+00	 1.055775885870373e+00	-1.175921290300690e+01
1	 1.122060235622086e+00	 1.032766105020355e+00	-1.014342098804535e+01
1	 1.143193171260535e+00	 1.009323720727904e+00	-8.569531555763753e+00
1	 1.163823332655475e+00	 9.854644845981251e-01	-7.038493770527576e+00
1	 1.183938611052248e+00	 9.612046427756348e-01	-5.551097335470065e+00
1	 1.203527599088901e+00	 9.365608993871380e-01	-4.107971988461154e+00
1	 1.222579611766356e+00	 9.115503787055547e-01	-2.709587833379129e+00
1	 1.241084704976595e+00	 8.861905862135332e-01	-1.356256493399275e+00
1	 1.259033691526095e+00	 8.604993687492075e-01	-4.813306641906578e-02
1	 1.276418154607321e+00	 8.344948739206463e-01	 1.214781143553384e+00
1	 1.073918423940000e+00	 1.073918423940000e+00	-1.333344386210696e+01
1	 1.095927323569995e+00	 1.051448935520752e+00	-1.168402571674549e+01
1	 1.117461628101804e+00	 1.028533457051144e+00	-1.007394071829793e+01
1	 1.138507953348418e+00	 1.005187148104061e+00	-8.504290755063661e+00
1	 1.159053564901683e+00	 9.814256957288476e-01	-6.976025186740712e+00
1	 1.179086403632987e+00	 9.572652794875632e-01	-5.489939472205934e+00
1	 1.198595108931858e+00	 9.327225350473751e-01	-4.046674609617378e+00
1	 1.217569039590202e+00	 9.078145164997570e-01	-2.646717382939194e+00
1	 1.235998292254537e+00	 8.825586575835763e-01	-1.290401402407028e+00
1	 1.253873717383776e+00	 8.569727319941877e-01	 2.209107991716230e-02
1	 1.271186932665496e+00	 8.310748129642158e-01	 1.290726604434301e+00
1	 1.069499006560000e+00	 1.069499006560000e+00	-1.325171691123947e+01
1	 1.091417334586924e+00	 1.047121985170951e+00	-1.160948695493859e+01
1	 1.112863020581863e+00	 1.024300809081613e+00	-1.000511753994046e+01
1	 1.133822735436766e+00	 1.001050575479798e+00	-8.439705156508852e+00
1	 1.154283797148451e+00	 9.773869068590927e-01	-6.914199380259828e+00
1	 1.174234196214350e+00	 9.533259161989953e-01	-5.429401473365260e+00
1	 1.193662618775475e+00	 9.288841707071376e-01	-3.985963768501075e+00
1	 1.212558467414709e+00	 9.040786542935466e-01	-2.584389830213372e+00
1	 1.230911879533116e+00	 8.789267289533086e-01	-1.225035382024461e+00
1	 1.248713743242037e+00	 8.534460952389979e-01	 9.189001853721157e-02
1	 1.265955710724165e+00	 8.276547520077958e-01	 1.366320580670133e+00
1	 1.065079589180000e+00	 1.065079589180000e+00	-1.317062700071526e+01
1	 1.086907345604037e+00	 1.042795034820970e+00	-1.153560468926229e+01
1	 1.108264413062261e+00	 1.020068161111763e+00	-9.936959632535585e+00
1	 1.129137517525577e+00	 9.969140028551168e-01	-8.375782916144066e+00
1	 1.149514029395778e+00	 9.733481179888605e-01	-6.853024352463318e+00
1	 1.169381988796335e+00	 9.493865529099315e-01	-5.369491055103126e+00
1	 1.188730128619748e+00	 9.250458063664260e-01	-3.925846766411823e+00
1	 1.207547895239878e+00	 9.003427920869240e-01	-2.522611933264197e+00
1	 1.225825466812329e+00	 8.752948003227300e-01	-1.160164520266609e+00
1	 1.243553769100879e+00	 8.499194584836381e-01	 1.612584564002240e-01
1	 1.260724488783330e+00	 8.242346910513869e-01	 1.441558696935187e+00
1	 1.060660171800000e+00	 1.060660171800000e+00	-1.309018209354199e+01
1	 1.082397356621336e+00	 1.038468084470809e+00	-1.146238712592050e+01
1	 1.103665805542999e+00	 1.015835513141593e+00	-9.869475311972247e+00
1	 1.124452299614854e+00	 9.927774302300170e-01	-8.312532325948066e+00
1	 1.144744261643663e+00	 9.693093291181505e-01	-6.792508238085687e+00
1	 1.164529781378945e+00	 9.454471896203713e-01	-5.310216062177560e+00
1	 1.183797638464678e+00	 9.212074420252396e-01	-3.866331026337665e+00
1	 1.202537323065708e+00	 8.966069298798887e-01	-2.461390562788582e+00
1	 1.220739054092179e+00	 8.716628716918402e-01	-1.095795006615657e+00
1	 1.238393794960300e+00	 8.463928217281086e-01	 2.301910122478890e-01
1	 1.255493266842988e+00	 8.208146300949881e-01	 1.516436504981552e+00
1	 1.307805486268661e+00	 8.550152396594509e-01	 7.519633983024909e-01
1	 1.325031207659498e+00	 8.280691690248428e-01	 1.175385599496518e+00
1	 1.341663686250679e+00	 8.008400607833708e-01	 1.584408326833006e+00
1	 1.357696722535032e+00	 7.733471791999722e-01	 1.977090216897706e+00
1	 1.373124934993508e+00	 7.456099267439584e-01	 2.351537520220309e+00
1	 1.387943760658701e+00	 7.176478016487623e-01	 2.705911052530427e+00
1	 1.402149453106268e+00	 6.894803558628309e-01	 3.038432768999376e+00
1	 1.415739077933608e+00	 6.611271535676617e-01	 3.347391926725398e+00
1	 1.428710505798304e+00	 6.326077304316075e-01	 3.631150804843632e+00
1	 1.441062403101226e+00	 6.039415537596329e-01	 3.888149955944296e+00
1	 1.452794220410432e+00	 5.751479836898462e-01	 4.116912966915594e+00
1	 1.302574264323868e+00	 8.515951787029570e-01	 8.299297858263934e-01
1	 1.319731082829670e+00	 8.247568923498937e-01	 1.267814052499035e+00
1	 1.336297031506891e+00	 7.976367005405258e-01	 1.690928186742245e+00
1	 1.352265935646390e+00	 7.702537904827313e-01	 2.097227398039332e+00
1	 1.367632435255193e+00	 7.426274870359432e-01	 2.484717906384143e+00
1	 1.382391985617766e+00	 7.147772104406597e-01	 2.851464234365743e+00
1	 1.396540855295465e+00	 6.867224344375337e-01	 3.195596096119653e+00
1	 1.410076121623298e+00	 6.584826449513358e-01	 3.515314846994607e+00
1	 1.422995663776222e+00	 6.300772995077430e-01	 3.808899462161321e+00
1	 1.435298153489503e+00	 6.015257875425000e-01	 4.074712016958812e+00
1	 1.446983043528928e+00	 5.728473917531606e-01	 4.311202646467343e+00
1	 1.297343042379569e+00	 8.481751177464736e-01	 9.075694901506266e-01
1	 1.314430958000241e+00	 8.214446156751393e-01	 1.360258602583675e+00
1	 1.330930376763419e+00	 7.944333402980303e-01	 1.797802562252816e+00
1	 1.346835148757988e+00	 7.671604017659622e-01	 2.218052547700944e+00
1	 1.362139935517055e+00	 7.396450473284920e-01	 2.618914164111555e+00
1	 1.376840210576954e+00	 7.119066192331833e-01	 2.998355077956770e+00
1	 1.390932257484740e+00	 6.839645130128945e-01	 3.354412222263303e+00
1	 1.404413165313032e+00	 6.558381363356690e-01	 3.685198534924337e+00
1	 1.417280821754159e+00	 6.275468685845107e-01	 3.988909197127794e+00
1	 1.429533903877785e+00	 5.991100213259424e-01	 4.263827343801373e+00
1	 1.441171866647425e+00	 5.705467998169645e-01	 4.508329222934506e+00
1	 1.292111820435765e+00	 8.447550567900007e-01	 9.848785434648117e-01
1	 1.309130833171212e+00	 8.181323390005806e-01	 1.452719445263745e+00
1	 1.325563722020262e+00	 7.912299800558826e-01	 1.905035759224208e+00
1	 1.341404361869827e+00	 7.640670130496645e-01	 2.339574021777414e+00
1	 1.356647435779093e+00	 7.366626076216044e-01	 2.754138631925034e+00
1	 1.371288435536264e+00	 7.090360280263328e-01	 3.146599830208763e+00
1	 1.385323659674092e+00	 6.812065915889128e-01	 3.514901221913339e+00
1	 1.398750209002810e+00	 6.531936277206624e-01	 3.857066805507027e+00
1	 1.411565979732116e+00	 6.250164376619105e-01	 4.171207472224740e+00
1	 1.423769654266072e+00	 5.966942551099602e-01	 4.455526947797417e+00
1	 1.435360689765922e+00	 5.682462078812583e-01	 4.708327152553954e+00
1	 1.286880598492455e+00	 8.413349958335387e-01	 1.061852913441542e+00
1	 1.303830708342584e+00	 8.148200623262166e-01	 1.545196779231195e+00
1	 1.320197067277419e+00	 7.880266198140842e-01	 2.012632153529770e+00
1	 1.335973574981907e+00	 7.609736243338386e-01	 2.461800312031618e+00
1	 1.351154936041308e+00	 7.336801679152812e-01	 2.890403848973643e+00
1	 1.365736660495695e+00	 7.061654368201083e-01	 3.296215002204261e+00
1	 1.379715061863523e+00	 6.784486701655893e-01	 3.677083495967235e+00
1	 1.393087252692632e+00	 6.505491191063157e-01	 4.030943860970717e+00
1	 1.405851137710092e+00	 6.224860067399427e-01	 4.355822196478253e+00
1	 1.418005404654362e+00	 5.942784888945530e-01	 4.649842344521553e+00
1	 1.429549512884418e+00	 5.659456159460416e-01	 4.911231451826516e+00
1	 1.281649376549641e+00	 8.379149348770870e-01	 1.138488501919183e+00
1	 1.298530583514354e+00	 8.115077856520477e-01	 1.637690806422185e+00
1	 1.314830412534892e+00	 7.848232595726342e-01	 2.120596192485680e+00
1	 1.330542788094228e+00	 7.578802356184845e-01	 2.584740048867588e+00
1	 1.345662436303698e+00	 7.306977282095223e-01	 3.027722559127208e+00
1	 1.360184885455249e+00	 7.032948456145097e-01	 3.447217374594591e+00
1	 1.374106464053031e+00	 6.756907487429235e-01	 3.840979778398216e+00
1	 1.387424296382497e+00	 6.479046104926285e-01	 4.206854298681880e+00
1	 1.400136295688087e+00	 6.199555758186069e-01	 4.542781734571976e+00
1	 1.412241155042658e+00	 5.918627226797217e-01	 4.846805564088339e+00
1	 1.423738336002915e+00	 5.636450240113148e-01	 5.117077708950942e+00
1	 1.276418154607321e+00	 8.344948739206463e-01	 1.214781143553385e+00
1	 1.293230458686525e+00	 8.081955089780742e-01	 1.730201732083087e+00
1	 1.309463757792679e+00	 7.816198993315331e-01	 2.228932396315022e+00
1	 1.325112001206789e+00	 7.547868469036021e-01	 2.708402004171345e+00
1	 1.340169936566265e+00	 7.277152885043267e-01	 3.166107715171431e+00
1	 1.354633110414925e+00	 7.004242544095374e-01	 3.599624003123692e+00
1	 1.368497866242617e+00	 6.729328273209153e-01	 4.006611143080917e+00
1	 1.381761340072406e+00	 6.452601018796010e-01	 4.384823119242547e+00
1	 1.394421453666101e+00	 6.174251448979033e-01	 4.732114916184310e+00
1	 1.406476905430959e+00	 5.894469564654654e-01	 5.046449161696114e+00
1	 1.417927159121411e+00	 5.613444320770776e-01	 5.325902095538976e+00
1	 1.271186932665496e+00	 8.310748129642158e-01	 1.290726604434302e+00
1	 1.287930333859095e+00	 8.048832323042955e-01	 1.822729764838960e+00
1	 1.304097103050783e+00	 7.784165390907812e-01	 2.337645359647764e+00
1	 1.319681214319591e+00	 7.516934581891912e-01	 2.832795094222184e+00
1	 1.334677436829009e+00	 7.247328487996959e-01	 3.305572483106726e+00
1	 1.349081335374723e+00	 6.975536632051905e-01	 3.753452224288501e+00
1	 1.362889268432281e+00	 6.701749058995652e-01	 4.173999010784814e+00
1	 1.376098383762358e+00	 6.426155932672335e-01	 4.564875734787229e+00
1	 1.388706611644136e+00	 6.148947139778322e-01	 4.923851045556301e+00
1	 1.400712655819265e+00	 5.870311902517849e-01	 5.248806228431313e+00
1	 1.412115982239908e+00	 5.590438401433302e-01	 5.537741378619883e+00
1	 1.265955710724165e+00	 8.276547520077958e-01	 1.366320580670131e+00
1	 1.282630209032066e+00	 8.015709556307122e-01	 1.915275116763201e+00
1	 1.298730448309201e+00	 7.752131788503778e-01	 2.446739753058241e+00
1	 1.314250427432632e+00	 7.486000694752519e-01	 2.957928382675838e+00
1	 1.329184937091928e+00	 7.217504090956287e-01	 3.446130246553210e+00
1	 1.343529560334643e+00	 6.946830720014702e-01	 3.908719661139737e+00
1	 1.357280670622023e+00	 6.674169844788729e-01	 4.343165156341902e+00
1	 1.370435427452354e+00	 6.399710846555259e-01	 4.747037977485745e+00
1	 1.382991769622189e+00	 6.123642830583930e-01	 5.118019911296598e+00
1	 1.394948406207575e+00	 5.846154240386795e-01	 5.453910402340361e+00
1	 1.406304805358405e+00	 5.567432482100726e-01	 5.752632932942284e+00
1	 1.260724488783330e+00	 8.242346910513869e-01	 1.441558696935184e+00
1	 1.277330084205436e+00	 7.982586789573239e-01	 2.007838003449101e+00
1	 1.293363793567934e+00	 7.720098186103231e-01	 2.556220324640754e+00
1	 1.308819640545916e+00	 7.455066807617844e-01	 3.083811083622229e+00
1	 1.323692437355024e+00	 7.187679693921254e-01	 3.587794611265956e+00
1	 1.337977785294685e+00	 6.918124807983753e-01	 4.065444229226762e+00
1	 1.351672072811843e+00	 6.646590630588380e-01	 4.514131715992042e+00
1	 1.364772471142394e+00	 6.373265760444777e-01	 4.931336108257605e+00
1	 1.377276927600261e+00	 6.098338521395860e-01	 5.314651796430544e+00
1	 1.389184156595890e+00	 5.821996578261494e-01	 5.661795879777531e+00
1	 1.400493628476901e+00	 5.544426562773045e-01	 5.970614753582535e+00
1	 1.255493266842988e+00	 8.208146300949881e-01	 1.516436504981551e+00
1	 1.272029959379206e+00	 7.949464022841307e-01	 2.100418644083009e+00
1	 1.287997138826983e+00	 7.688064583706170e-01	 2.666091901624443e+00
1	 1.303388853659439e+00	 7.424132920487886e-01	 3.210452564719501e+00
1	 1.318199937618296e+00	 7.157855296891861e-01	 3.730579409762520e+00
1	 1.332426010254849e+00	 6.889418895959066e-01	 4.223644142691509e+00
1	 1.346063475001740e+00	 6.619011416394612e-01	 4.686921194912506e+00
1	 1.359109514832477e+00	 6.346820674340894e-01	 5.117796825704360e+00
1	 1.371562085578352e+00	 6.073034212214111e-01	 5.513777488700572e+00
1	 1.383419906984211e+00	 5.797838916141947e-01	 5.872497427036210e+00
1	 1.394682451595397e+00	 5.521420643450262e-01	 6.191725468868227e+00
1	 1.452794220410432e+00	 5.751479836898462e-01	 4.116912966915594e+00
1	 1.463906178731671e+00	 5.462462355775530e-01	 4.631805124170060e+00
1	 1.474399253743126e+00	 5.172553436961772e-01	 5.094409137178374e+00
1	 1.484275158116687e+00	 4.881941263733979e-01	 5.506330786763483e+00
1	 1.493536322054853e+00	 4.590811526691553e-01	 5.869275322050612e+00
1	 1.502185872181363e+00	 4.299347106891557e-01	 6.185037757815806e+00
1	 1.510227608925401e+00	 4.007727776155293e-01	 6.455493095145071e+00
1	 1.517665982543151e+00	 3.716129915236454e-01	 6.682586528167788e+00
1	 1.524506067922538e+00	 3.424726250415688e-01	 6.868323696892920e+00
1	 1.530753538317988e+00	 3.133685608962728e-01	 7.014761043020724e+00
1	 1.536414638161894e+00	 2.843172693785931e-01	 7.123996322085406e+00
1	 1.446983043528928e+00	 5.728473917531606e-01	 4.311202646467343e+00
1	 1.458050554016330e+00	 5.440612506335165e-01	 4.823914398709549e+00
1	 1.468501656727278e+00	 5.151863223198070e-01	 5.284125981957013e+00
1	 1.478338057482976e+00	 4.862413498664011e-01	 5.693447219778353e+00
1	 1.487562176765111e+00	 4.572448280569998e-01	 6.053587417950649e+00
1	 1.496177128690926e+00	 4.282149718448875e-01	 6.366345657791403e+00
1	 1.504186698487888e+00	 3.991696865034668e-01	 6.633601013240503e+00
1	 1.511595318611153e+00	 3.701265395558063e-01	 6.857302754425014e+00
1	 1.518408043649094e+00	 3.411027345394598e-01	 7.039460597702515e+00
1	 1.524630524163119e+00	 3.121150866504933e-01	 7.182135059022112e+00
1	 1.530268979607887e+00	 2.831800002985802e-01	 7.287427963923917e+00
1	 1.441171866647425e+00	 5.705467998169645e-01	 4.508329222934506e+00
1	 1.452194929300988e+00	 5.418762656898805e-01	 5.018844927714352e+00
1	 1.462604059711430e+00	 5.131173009437690e-01	 5.476647980232098e+00
1	 1.472400956849264e+00	 4.842885733596890e-01	 5.883352281283512e+00
1	 1.481588031475369e+00	 4.554085034451025e-01	 6.240671228084380e+00
1	 1.490168385200489e+00	 4.264952330008713e-01	 6.550408003461708e+00
1	 1.498145788050373e+00	 3.975665953916699e-01	 6.814445789237939e+00
1	 1.505524654679154e+00	 3.686400875882664e-01	 7.034737966509956e+00
1	 1.512310019375650e+00	 3.397328440377026e-01	 7.213298362786670e+00
1	 1.518507510008249e+00	 3.108616124051378e-01	 7.352191602791242e+00
1	 1.524123321053880e+00	 2.820427312190822e-01	 7.453523616214238e+00
1	 1.435360689765922e+00	 5.682462078812583e-01	 4.708327152553953e+00
1	 1.446339304585646e+00	 5.396912807466446e-01	 5.216630977432229e+00
1	 1.456706462695582e+00	 5.110482795680632e-01	 5.672009202693250e+00
1	 1.466463856215553e+00	 4.823357968532619e-01	 6.076079841260255e+00
1	 1.475613886185626e+00	 4.535721788334632e-01	 6.430560416996941e+00
1	 1.484159641710052e+00	 4.247754941571067e-01	 6.737258249632722e+00
1	 1.492104877612860e+00	 3.959635042801388e-01	 6.998060664326675e+00
1	 1.499453990747155e+00	 3.671536356210257e-01	 7.214925188542385e+00
1	 1.506211995102206e+00	 3.383629535362977e-01	 7.389869796165550e+00
1	 1.512384495853379e+00	 3.096081381602062e-01	 7.524963255637829e+00
1	 1.517977662499874e+00	 2.809054621400988e-01	 7.622315635359568e+00
1	 1.429549512884418e+00	 5.659456159460416e-01	 4.911231451826517e+00
1	 1.440483679870305e+00	 5.375062958038094e-01	 5.417307371285689e+00
1	 1.450808865679734e+00	 5.089792581926896e-01	 5.870244274025028e+00
1	 1.460526755581842e+00	 4.803830203471197e-01	 6.271664320421193e+00
1	 1.469639740895885e+00	 4.517358542220825e-01	 6.623289196624456e+00
1	 1.478150898219615e+00	 4.230557553135942e-01	 6.926930395091054e+00
1	 1.486063967175345e+00	 3.943604131688731e-01	 7.184479420203218e+00
1	 1.493383326815156e+00	 3.656671836540840e-01	 7.397897981619715e+00
1	 1.500113970828761e+00	 3.369930630352446e-01	 7.569208235258087e+00
1	 1.506261481698509e+00	 3.083546639156985e-01	 7.700483128649120e+00
1	 1.511832003945868e+00	 2.797681930616300e-01	 7.793836903883694e+00
1	 1.423738336002915e+00	 5.636450240113148e-01	 5.117077708950942e+00
1	 1.434628055154963e+00	 5.353213108613745e-01	 5.620909501242858e+00
1	 1.444911268663886e+00	 5.069102368176482e-01	 6.071388384212938e+00
1	 1.454589654948131e+00	 4.784302438412622e-01	 6.470140701449794e+00
1	 1.463665595606143e+00	 4.498995296109599e-01	 6.818892337465277e+00
1	 1.472142154729178e+00	 4.213360164703338e-01	 7.119458993705557e+00
1	 1.480023056737831e+00	 3.927573220578732e-01	 7.373736390101931e+00
1	 1.487312662883159e+00	 3.641807316874414e-01	 7.583690454775651e+00
1	 1.494015946555317e+00	 3.356231725345435e-01	 7.751347561767574e+00
1	 1.500138467543639e+00	 3.071011896716150e-01	 7.878784873501461e+00
1	 1.505686345391861e+00	 2.786309239836759e-01	 7.968120841167846e+00
1	 1.417927159121411e+00	 5.613444320770776e-01	 5.325902095538976e+00
1	 1.428772430439621e+00	 5.331363259193399e-01	 5.827473339467991e+00
1	 1.439013671648038e+00	 5.048412154429389e-01	 6.275477300127475e+00
1	 1.448652554314420e+00	 4.764774673356899e-01	 6.671544540516090e+00
1	 1.457691450316400e+00	 4.480632050000953e-01	 7.017405180025897e+00
1	 1.466133411238740e+00	 4.196162776273250e-01	 7.314879165801974e+00
1	 1.473982146300318e+00	 3.911542309471389e-01	 7.565866470097152e+00
1	 1.481241998951160e+00	 3.626942797210979e-01	 7.772337276208351e+00
1	 1.487917922281873e+00	 3.342532820341946e-01	 7.936322212835191e+00
1	 1.494015453388770e+00	 3.058477154279553e-01	 8.059902693538186e+00
1	 1.499540686837854e+00	 2.774936549062365e-01	 8.145201414452119e+00
1	 1.412115982239908e+00	 5.590438401433302e-01	 5.537741378619884e+00
1	 1.422916805724280e+00	 5.309513409777057e-01	 6.037035450259741e+00
1	 1.433116074632190e+00	 5.027721940685621e-01	 6.482547377394148e+00
1	 1.442715453680709e+00	 4.745246908304023e-01	 6.875911979076855e+00
1	 1.451717305026657e+00	 4.462268803894889e-01	 7.218863646549561e+00
1	 1.460124667748303e+00	 4.178965387845681e-01	 7.513226609818359e+00
1	 1.467941235862803e+00	 3.895511398366701e-01	 7.760905130684186e+00
1	 1.475171335019161e+00	 3.612078277550536e-01	 7.963873684786011e+00
1	 1.481819898008429e+00	 3.328833915341975e-01	 8.124167192468558e+00
1	 1.487892439233900e+00	 3.045942411847197e-01	 8.243871355120625e+00
1	 1.493395028283848e+00	 2.763563858293117e-01	 8.325113150108098e+00
1	 1.406304805358405e+00	 5.567432482100726e-01	 5.752632932942284e+00
1	 1.417061181008939e+00	 5.287663560364722e-01	 6.249633002285242e+00
1	 1.427218477616342e+00	 5.007031726945170e-01	 6.692635572557883e+00
1	 1.436778353046997e+00	 4.725719143253996e-01	 7.083279755968286e+00
1	 1.445743159736915e+00	 4.443905557791408e-01	 7.423304253035536e+00
1	 1.454115924257865e+00	 4.161767999420631e-01	 7.714537614249611e+00
1	 1.461900325425289e+00	 3.879480487264670e-01	 7.958888428647519e+00
1	 1.469100671087162e+00	 3.597213757893084e-01	 8.158335501837433e+00
1	 1.475721873734985e+00	 3.315135010345526e-01	 8.314918083254074e+00
1	 1.481769425079030e+00	 3.033407669419081e-01	 8.430726199260793e+00
1	 1.487249369729842e+00	 2.752191167529016e-01	 8.507891145191381e+00
1	 1.400493628476901e+00	 5.544426562773045e-01	 5.970614753582534e+00
1	 1.411205556293597e+00	 5.265813710956387e-01	 6.465303781118957e+00
1	 1.421320880600494e+00	 4.986341513208044e-01	 6.905779455550170e+00
1	 1.430841252413286e+00	 4.706191378206818e-01	 7.293685219799785e+00
1	 1.439769014447173e+00	 4.425542311690510e-01	 7.630764121557815e+00
1	 1.448107180767429e+00	 4.144570610998100e-01	 7.918849069889319e+00
1	 1.455859414987775e+00	 3.863449576165294e-01	 8.159853019224498e+00
1	 1.463030007155164e+00	 3.582349238238622e-01	 8.355759143236353e+00
1	 1.469623849461541e+00	 3.301436105352596e-01	 8.508611058360456e+00
1	 1.475646410924160e+00	 3.020872926995203e-01	 8.620503153543478e+00
1	 1.481103711175835e+00	 2.740818476770062e-01	 8.693571079281234e+00
1	 1.394682451595397e+00	 5.521420643450262e-01	 6.191725468868226e+00
1	 1.405349931578255e+00	 5.243963861552057e-01	 6.684086202094872e+00
1	 1.415423283584646e+00	 4.965651299474239e-01	 7.122017222468058e+00
1	 1.424904151779575e+00	 4.686663613162487e-01	 7.507166341657532e+00
1	 1.433794869157430e+00	 4.407179065592192e-01	 7.841280992891590e+00
1	 1.442098437276991e+00	 4.127373222578088e-01	 8.126198482377644e+00
1	 1.449818504550261e+00	 3.847418665068576e-01	 8.363836168573183e+00
1	 1.456959343223164e+00	 3.567484718587151e-01	 8.556181631787677e+00
1	 1.463525825188096e+00	 3.287737200363186e-01	 8.705282893842650e+00
1	 1.469523396769290e+00	 3.008338184575566e-01	 8.813238744346709e+00
1	 1.474958052621829e+00	 2.729445786016254e-01	 8.882189226616724e+00
1	 1.536414638161894e+00	 2.843172693785931e-01	 7.123996322085406e+00
1	 1.541496155098853e+00	 2.553347877472804e-01	 7.509801027216147e+00
1	 1.546005391384669e+00	 2.264367015805606e-01	 7.871022101730633e+00
1	 1.549950134791623e+00	 1.976381280733377e-01	 8.207334659988266e+00
1	 1.553338629157681e+00	 1.689537012681199e-01	 8.518485136264406e+00
1	 1.556179544710306e+00	 1.403975591971891e-01	 8.804289489085928e+00
1	 1.558481948292365e+00	 1.119833329051120e-01	 9.064631182123820e+00
1	 1.560255273611354e+00	 8.372413731224117e-02	 9.299458964140179e+00
1	 1.561509291626922e+00	 5.563256387227249e-02	 9.508784470614286e+00
1	 1.562254081185013e+00	 2.772067497008467e-02	 9.692679669597137e+00
1	 1.562500000000000e+00	 0.000000000000000e+00	 9.851274174079839e+00
1	 1.530268979607887e+00	 2.831800002985802e-01	 7.287427963923917e+00
1	 1.535330170477364e+00	 2.543134485935245e-01	 7.676908885229105e+00
1	 1.539821369818271e+00	 2.255309547713243e-01	 8.040745262202053e+00
1	 1.543750334251803e+00	 1.968475755581020e-01	 8.378640096310946e+00
1	 1.547125274640573e+00	 1.682778864601936e-01	 8.690369742295260e+00
1	 1.549954826531135e+00	 1.398359689577498e-01	 8.975781924409993e+00
1	 1.552248020498986e+00	 1.115353995711565e-01	 9.234793529496422e+00
1	 1.554014252516792e+00	 8.338924076108239e-02	 9.467388200441471e+00
1	 1.555263254460363e+00	 5.541003361540624e-02	 9.673613753644309e+00
1	 1.556005064860260e+00	 2.760979226946462e-02	 9.853579443956106e+00
1	 1.556250000000000e+00	 0.000000000000000e+00	 1.000745310021779e+01
1	 1.524123321053880e+00	 2.820427312190822e-01	 7.453523616214238e+00
1	 1.529164185855874e+00	 2.532921094403671e-01	 7.846657054386388e+00
1	 1.533637348251873e+00	 2.246252079627387e-01	 8.213078102440042e+00
1	 1.537550533711983e+00	 1.960570230435384e-01	 8.552517824275386e+00
1	 1.540911920123466e+00	 1.676020716529303e-01	 8.864782680625245e+00
1	 1.543730108351965e+00	 1.392743787189342e-01	 9.149752356262971e+00
1	 1.546014092705607e+00	 1.110874662377560e-01	 9.407377364307214e+00
1	 1.547773231422230e+00	 8.305434421038131e-02	 9.637676452257153e+00
1	 1.549017217293803e+00	 5.518750335887228e-02	 9.840733834372958e+00
1	 1.549756048535507e+00	 2.749890956902409e-02	 1.001669627479055e+01
1	 1.550000000000000e+00	 0.000000000000000e+00	 1.016577004533807e+01
1	 1.517977662499874e+00	 2.809054621400988e-01	 7.622315635359568e+00
1	 1.522998201234385e+00	 2.522707702878083e-01	 8.019077603245128e+00
1	 1.527453326685475e+00	 2.237194611548041e-01	 8.388052318960384e+00
1	 1.531350733172163e+00	 1.952664705296468e-01	 8.728999086290166e+00
1	 1.534698565606358e+00	 1.669262568463296e-01	 9.041754659743443e+00
1	 1.537505390172794e+00	 1.387127884807419e-01	 9.326230881767735e+00
1	 1.539780164912228e+00	 1.106395329049104e-01	 9.582412097333521e+00
1	 1.541532210327667e+00	 8.271944766013785e-02	 9.810352371595865e+00
1	 1.542771180127244e+00	 5.496497310267061e-02	 1.001017253625195e+01
1	 1.543507032210755e+00	 2.738802686876309e-02	 1.018205708990941e+01
1	 1.543750000000000e+00	 0.000000000000000e+00	 1.032625097727978e+01
1	 1.511832003945868e+00	 2.797681930616300e-01	 7.793836903883694e+00
1	 1.516832216612895e+00	 2.512494311358481e-01	 8.194203121802417e+00
1	 1.521269305119077e+00	 2.228137143475204e-01	 8.565700123669291e+00
1	 1.525150932632342e+00	 1.944759180164274e-01	 8.908115632770507e+00
1	 1.528485211089249e+00	 1.662504420403917e-01	 9.221316887463786e+00
1	 1.531280671993623e+00	 1.381511982431732e-01	 9.505248087431349e+00
1	 1.533546237118850e+00	 1.101915995726197e-01	 9.759927617576611e+00
1	 1.535291189233105e+00	 8.238455111035206e-02	 9.985445076352431e+00
1	 1.536525142960685e+00	 5.474244284680126e-02	 1.018195813514684e+01
1	 1.537258015886002e+00	 2.727714416868162e-02	 1.034968925497214e+01
1	 1.537500000000000e+00	 0.000000000000000e+00	 1.048892228612323e+01
1	 1.505686345391861e+00	 2.786309239836759e-01	 7.968120841167846e+00
1	 1.510666231991405e+00	 2.502280919844865e-01	 8.372066732136986e+00
1	 1.515085283552679e+00	 2.219079675408875e-01	 8.746054254381676e+00
1	 1.518951132092522e+00	 1.936853655038801e-01	 9.089899732505661e+00
1	 1.522271856572141e+00	 1.655746272351165e-01	 9.403501081115618e+00
1	 1.525055953814454e+00	 1.375896080062280e-01	 9.686835059132324e+00
1	 1.527312309325471e+00	 1.097436662408839e-01	 9.939954302021386e+00
1	 1.529050168138543e+00	 8.204965456102394e-02	 1.016298415981581e+01
1	 1.530279105794125e+00	 5.451991259126419e-02	 1.035611936856978e+01
1	 1.531008999561249e+00	 2.716626146877967e-02	 1.051962058242448e+01
1	 1.531250000000000e+00	 0.000000000000000e+00	 1.065381079280710e+01
1	 1.499540686837854e+00	 2.774936549062365e-01	 8.145201414452119e+00
1	 1.504500247369916e+00	 2.492067528337234e-01	 8.552702099312512e+00
1	 1.508901261986282e+00	 2.210022207349056e-01	 8.929147985597986e+00
1	 1.512751331552702e+00	 1.928948129920048e-01	 9.274384183281569e+00
1	 1.516058502055034e+00	 1.648988124305042e-01	 9.588339477984441e+00
1	 1.518831235635283e+00	 1.370280177699063e-01	 9.871023392353742e+00
1	 1.521078381532092e+00	 1.092957329097031e-01	 1.012252302563610e+01
1	 1.522809147043980e+00	 8.171475801215342e-02	 1.034299970041082e+01
1	 1.524033068627566e+00	 5.429738233605942e-02	 1.053268544513973e+01
1	 1.524759983236496e+00	 2.705537876905724e-02	 1.069187934065365e+01
1	 1.525000000000000e+00	 0.000000000000000e+00	 1.082094375795751e+01
1	 1.493395028283848e+00	 2.763563858293117e-01	 8.325113150108098e+00
1	 1.498334262748426e+00	 2.481854136835590e-01	 8.736143442550082e+00
1	 1.502717240419884e+00	 2.200964739295745e-01	 9.115015139547115e+00
1	 1.506551531012882e+00	 1.921042604808016e-01	 9.461602322765298e+00
1	 1.509845147537926e+00	 1.642229976265547e-01	 9.775864846010700e+00
1	 1.512606517456112e+00	 1.364664275342082e-01	 1.005784520266892e+01
1	 1.514844453738714e+00	 1.088477995790772e-01	 1.030766517161881e+01
1	 1.516568125949418e+00	 8.137986146374059e-02	 1.052552227168034e+01
1	 1.517787031461007e+00	 5.407485208118696e-02	 1.071168605427581e+01
1	 1.518510966911743e+00	 2.694449606951434e-02	 1.086649426337014e+01
1	 1.518750000000000e+00	 0.000000000000000e+00	 1.099034889093503e+01
1	 1.487249369729842e+00	 2.752191167529016e-01	 8.507891145191381e+00
1	 1.492168278126936e+00	 2.471640745339932e-01	 8.922425546677838e+00
1	 1.496533218853486e+00	 2.191907271248943e-01	 9.303690097503056e+00
1	 1.500351730473061e+00	 1.913137079702705e-01	 9.651588039659835e+00
1	 1.503631793020818e+00	 1.635471828232679e-01	 9.966110494753613e+00
1	 1.506381799276942e+00	 1.359048372991336e-01	 1.024733313648703e+01
1	 1.508610525945335e+00	 1.083998662490063e-01	 1.049541264189818e+01
1	 1.510327104854855e+00	 8.104496491578542e-02	 1.071058295251495e+01
1	 1.511540994294447e+00	 5.385232182664677e-02	 1.089315137613131e+01
1	 1.512261950586990e+00	 2.683361337015096e-02	 1.104349455922167e+01
1	 1.512500000000000e+00	 0.000000000000000e+00	 1.116205435910611e+01
1	 1.481103711175835e+00	 2.740818476770062e-01	 8.693571079281234e+00
1	 1.486002293505447e+00	 2.461427353850259e-01	 9.111583773865497e+00
1	 1.490349197287088e+00	 2.182849803208651e-01	 9.495207811383306e+00
1	 1.494151929933241e+00	 1.905231554604115e-01	 9.844375785136199e+00
1	 1.497418438503710e+00	 1.628713680206438e-01	 1.015911028662822e+01
1	 1.500157081097772e+00	 1.353432470646825e-01	 1.043952038206633e+01
1	 1.502376598151956e+00	 1.079519329194903e-01	 1.068579786789536e+01
1	 1.504086083760293e+00	 8.071006836828787e-02	 1.089821333763737e+01
1	 1.505294957127888e+00	 5.362979157243890e-02	 1.107711209177475e+01
1	 1.506012934262237e+00	 2.672273067096711e-02	 1.122290992164675e+01
1	 1.506250000000000e+00	 0.000000000000000e+00	 1.133608879734526e+01
1	 1.474958052621829e+00	 2.729445786016254e-01	 8.882189226616724e+00
1	 1.479836308883957e+00	 2.451213962366573e-01	 9.303654075652327e+00
1	 1.484165175720690e+00	 2.173792335174866e-01	 9.689603815637540e+00
1	 1.487952129393421e+00	 1.897326029512245e-01	 1.004000058455161e+01
1	 1.491205083986602e+00	 1.621955532186825e-01	 1.035489864842303e+01
1	 1.493932362918601e+00	 1.347816568308549e-01	 1.063444068080273e+01
1	 1.496142670358577e+00	 1.075039995905293e-01	 1.087885382155514e+01
1	 1.497845062665731e+00	 8.037517182124801e-02	 1.108844554834906e+01
1	 1.499048919961329e+00	 5.340726131856331e-02	 1.126359939362590e+01
1	 1.499763917937484e+00	 2.661184797196278e-02	 1.140477053897436e+01
1	 1.500000000000000e+00	 0.000000000000000e+00	 1.151248131777484e+01
1	 0.000000000000000e+00	 1.500000000000000e+00	-3.337290366496725e+01
1	 2.661184797196288e-02	 1.499763917937484e+00	-3.367564231854041e+01
1	 5.340726131856352e-02	 1.499048919961328e+00	-3.394899129116201e+01
1	 8.037517182124829e-02	 1.497845062665730e+00	-3.419168275972215e+01
1	 1.075039995905296e-01	 1.496142670358577e+00	-3.440250513001710e+01
1	 1.347816568308554e-01	 1.493932362918601e+00	-3.458031021433499e+01
1	 1.621955532186831e-01	 1.491205083986601e+00	-3.472402047832946e+01
1	 1.897326029512252e-01	 1.487952129393420e+00	-3.483263631715972e+01
1	 2.173792335174873e-01	 1.484165175720690e+00	-3.490524331807082e+01
1	 2.451213962366581e-01	 1.479836308883957e+00	-3.494101946397777e+01
1	 2.729445786016254e-01	 1.474958052621829e+00	-3.493924223025840e+01
1	 0.000000000000000e+00	 1.493750000000000e+00	-3.360714455685698e+01
1	 2.650096527295856e-02	 1.493514901612731e+00	-3.393916236644162e+01
1	 5.318473106468796e-02	 1.492802882794769e+00	-3.423887694506417e+01
1	 8.004027527420840e-02	 1.491604041571168e+00	-3.450496235719659e+01
1	 1.070560662615685e-01	 1.489908742565198e+00	-3.473615645943065e+01
1	 1.342200665970277e-01	 1.487707644739430e+00	-3.493126860383876e+01
1	 1.615197384167218e-01	 1.484991729469493e+00	-3.508918739912098e+01
1	 1.889420504420384e-01	 1.481752328853601e+00	-3.520888848574569e+01
1	 2.164734867141089e-01	 1.477981154154292e+00	-3.528944227835232e+01
1	 2.441000570882894e-01	 1.473670324262467e+00	-3.533002162597304e+01
1	 2.718073095262447e-01	 1.468812394067822e+00	-3.532990933820735e+01
1	 0.000000000000000e+00	 1.487500000000000e+00	-3.384245543764497e+01
1	 2.639008257377470e-02	 1.487265885287979e+00	-3.420370112812271e+01
1	 5.296220081048006e-02	 1.486556845628210e+00	-3.452970479487217e+01
1	 7.970537872671087e-02	 1.485363020476606e+00	-3.481908196179516e+01
1	 1.066081329320526e-01	 1.483674814771820e+00	-3.507051955060535e+01
1	 1.336584763625766e-01	 1.481482926560260e+00	-3.528278411292806e+01
1	 1.608439236140978e-01	 1.478778374952386e+00	-3.545473010864519e+01
1	 1.881514979321793e-01	 1.475552528313780e+00	-3.558530818288674e+01
1	 2.155677399100796e-01	 1.471797132587894e+00	-3.567357339101432e+01
1	 2.430787179393222e-01	 1.467504339640978e+00	-3.571869331813572e+01
1	 2.706700404503491e-01	 1.462666735513815e+00	-3.571995603718057e+01
1	 0.000000000000000e+00	 1.481250000000000e+00	-3.407884985149434e+01
1	 2.627919987441132e-02	 1.481016868963225e+00	-3.446927149869533e+01
1	 5.273967055593990e-02	 1.480310808461651e+00	-3.482148676711648e+01
1	 7.937048217875568e-02	 1.479121999382043e+00	-3.513405220652048e+01
1	 1.061601996019816e-01	 1.477440886978441e+00	-3.540560341318419e+01
1	 1.330968861275020e-01	 1.475258208381089e+00	-3.563486379375010e+01
1	 1.601681088108110e-01	 1.472565020435277e+00	-3.582065336372305e+01
1	 1.873609454216482e-01	 1.469352727773960e+00	-3.596189752919824e+01
1	 2.146619931053995e-01	 1.465613111021496e+00	-3.605763579722689e+01
1	 2.420573787897564e-01	 1.461338355019488e+00	-3.610703035730382e+01
1	 2.695327713739391e-01	 1.456521076959809e+00	-3.610937447389973e+01
1	 0.000000000000000e+00	 1.475000000000000e+00	-3.431634157213043e+01
1	 2.616831717486843e-02	 1.474767852638473e+00	-3.473588659183199e+01
1	 5.251714030106742e-02	 1.474064771295092e+00	-3.511423499047358e+01
1	 7.903558563034285e-02	 1.472880978287481e+00	-3.544988390459579e+01
1	 1.057122662713558e-01	 1.471206959185062e+00	-3.574141720951705e+01
1	 1.325352958918039e-01	 1.469033490201919e+00	-3.598751481798134e+01
1	 1.594922940068614e-01	 1.466351665918170e+00	-3.618696200179878e+01
1	 1.865703929104450e-01	 1.463152927234139e+00	-3.633865868123852e+01
1	 2.137562463000683e-01	 1.459429089455098e+00	-3.644162862360360e+01
1	 2.410360396395919e-01	 1.455172370397999e+00	-3.649502848941412e+01
1	 2.683955022970143e-01	 1.450375418405802e+00	-3.649815666198094e+01
1	 0.000000000000000e+00	 1.468750000000000e+00	-3.455494460772482e+01
1	 2.605743447514601e-02	 1.468518836313720e+00	-3.500355974441724e+01
1	 5.229461004586264e-02	 1.467818734128532e+00	-3.540796180006474e+01
1	 7.870068908147236e-02	 1.466639957192919e+00	-3.576658805329882e+01
1	 1.052643329401750e-01	 1.464973031391683e+00	-3.607797025790849e+01
1	 1.319737056554822e-01	 1.462808772022748e+00	-3.634074447936801e+01
1	 1.588164792022491e-01	 1.460138311401062e+00	-3.655366094265659e+01
1	 1.857798403985698e-01	 1.456953126694319e+00	-3.671559383227310e+01
1	 2.128504994940864e-01	 1.453245067888700e+00	-3.682555098189201e+01
1	 2.400147004888289e-01	 1.449006385776509e+00	-3.688268338799400e+01
1	 2.672582332195749e-01	 1.444229759851796e+00	-3.688629447910151e+01
1	 0.000000000000000e+00	 1.462500000000000e+00	-3.479467320590491e+01
1	 2.594655177524405e-02	 1.462269819988967e+00	-3.527230452131601e+01
1	 5.207207979032558e-02	 1.461572696961973e+00	-3.570267974186831e+01
1	 7.836579253214421e-02	 1.460398936098356e+00	-3.608417583789527e+01
1	 1.048163996084392e-01	 1.458739103598305e+00	-3.641527203595021e+01
1	 1.314121154185371e-01	 1.456584053843578e+00	-3.669456019633652e+01
1	 1.581406643969740e-01	 1.453924956883954e+00	-3.692075519017898e+01
1	 1.849892878860224e-01	 1.450753326154499e+00	-3.709270521305945e+01
1	 2.119447526874535e-01	 1.447061046322302e+00	-3.720940196865585e+01
1	 2.389933613374673e-01	 1.442840401155020e+00	-3.726999065261465e+01
1	 2.661209641416208e-01	 1.438084101297789e+00	-3.727377966409546e+01
1	 0.000000000000000e+00	 1.456250000000000e+00	-3.503554185889300e+01
1	 2.583566907516257e-02	 1.456020803664214e+00	-3.554213472026738e+01
1	 5.184954953445621e-02	 1.455326659795414e+00	-3.599840157724384e+01
1	 7.803089598235843e-02	 1.454157915003794e+00	-3.640265863567216e+01
1	 1.043684662761485e-01	 1.452505175804925e+00	-3.675333218393907e+01
1	 1.308505251809683e-01	 1.450359335664407e+00	-3.704896951466836e+01
1	 1.574648495910361e-01	 1.447711602366845e+00	-3.728824983415301e+01
1	 1.841987353728030e-01	 1.444553525614679e+00	-3.746999509265051e+01
1	 2.110390058801697e-01	 1.440877024755904e+00	-3.759318066494909e+01
1	 2.379720221855071e-01	 1.436674416533530e+00	-3.765694580730241e+01
1	 2.649836950631520e-01	 1.431938442743783e+00	-3.766060381397484e+01
1	 0.000000000000000e+00	 1.450000000000000e+00	-3.527756530877707e+01
1	 2.572478637490158e-02	 1.449771787339462e+00	-3.581306437690105e+01
1	 5.162701927825456e-02	 1.449080622628854e+00	-3.629514028757506e+01
1	 7.769599943211498e-02	 1.447916893909232e+00	-3.672204802007734e+01
1	 1.039205329433029e-01	 1.446271248011547e+00	-3.709216050838426e+01
1	 1.302889349427761e-01	 1.444134617485237e+00	-3.740398011024380e+01
1	 1.567890347844354e-01	 1.441498247849738e+00	-3.765615005211927e+01
1	 1.834081828589114e-01	 1.438353725074858e+00	-3.784746577922173e+01
1	 2.101332590722352e-01	 1.434693003189506e+00	-3.797688613598166e+01
1	 2.369506830329483e-01	 1.430508431912040e+00	-3.804354429891210e+01
1	 2.638464259841686e-01	 1.425792784189777e+00	-3.804675838087184e+01
1	 0.000000000000000e+00	 1.443750000000000e+00	-3.552075855291966e+01
1	 2.561390367446105e-02	 1.443522771014709e+00	-3.608510776988970e+01
1	 5.140448902172061e-02	 1.442834585462295e+00	-3.659290907903105e+01
1	 7.736110288141387e-02	 1.441675872814669e+00	-3.704235576496418e+01
1	 1.034725996099024e-01	 1.440037320218168e+00	-3.743176698560485e+01
1	 1.297273447039604e-01	 1.437909899306067e+00	-3.775959979185964e+01
1	 1.561132199771720e-01	 1.435284893332630e+00	-3.802446111127421e+01
1	 1.826176303443478e-01	 1.432153924535038e+00	-3.822511962091657e+01
1	 2.092275122636497e-01	 1.428508981623108e+00	-3.836051743077720e+01
1	 2.359293438797909e-01	 1.424342447290551e+00	-3.842978149545645e+01
1	 2.627091569046704e-01	 1.419647125635770e+00	-3.843223466890430e+01
1	 0.000000000000000e+00	 1.437500000000000e+00	-3.576513684950645e+01
1	 2.550302097384099e-02	 1.437273754689956e+00	-3.635827942622944e+01
1	 5.118195876485433e-02	 1.436588548295736e+00	-3.689172138745391e+01
1	 7.702620633025513e-02	 1.435434851720107e+00	-3.736359384894855e+01
1	 1.030246662759468e-01	 1.433803392424789e+00	-3.777216176542100e+01
1	 1.291657544645211e-01	 1.431685181126896e+00	-3.811583650411767e+01
1	 1.554374051692458e-01	 1.429071538815522e+00	-3.839318837041665e+01
1	 1.818270778291120e-01	 1.425954123995217e+00	-3.860295900671579e+01
1	 2.083217654544133e-01	 1.422324960056710e+00	-3.874407358182045e+01
1	 2.349080047260349e-01	 1.418176462669061e+00	-3.881565268439206e+01
1	 2.615718878246577e-01	 1.413501467081764e+00	-3.881702383095710e+01
1	 2.729445786016254e-01	 1.474958052621829e+00	-3.493924223025840e+01
1	 3.008338346957408e-01	 1.469523390278998e+00	-3.494815633621059e+01
1	 3.287737856367907e-01	 1.463525799020123e+00	-3.498067692371870e+01
1	 3.567486209048524e-01	 1.456959283873473e+00	-3.503721991317789e+01
1	 3.847421340223064e-01	 1.449818398189669e+00	-3.511812069760590e+01
1	 4.127377441842129e-01	 1.442098269742858e+00	-3.522362960287904e+01
1	 4.407185197306125e-01	 1.433794625945592e+00	-3.535390759497248e+01
1	 4.686672034300611e-01	 1.424903818036619e+00	-3.550902227348345e+01
1	 4.965662395320658e-01	 1.415422844100606e+00	-3.568894419037479e+01
1	 5.243978025342101e-01	 1.405349370779820e+00	-3.589354353215209e+01
1	 5.521438275977473e-01	 1.394681753539725e+00	-3.612258720251842e+01
1	 2.718073095262447e-01	 1.468812394067822e+00	-3.532990933820735e+01
1	 2.995803603861181e-01	 1.463400376151169e+00	-3.534017014084083e+01
1	 3.274038948645144e-01	 1.457427774855703e+00	-3.537611388878957e+01
1	 3.552621683186798e-01	 1.450888620188743e+00	-3.543811465155177e+01
1	 3.831390417979869e-01	 1.443777488195286e+00	-3.552645724379473e+01
1	 4.110180035841851e-01	 1.436089526950419e+00	-3.564133256087325e+01
1	 4.388821925659001e-01	 1.427820481669146e+00	-3.578283320090591e+01
1	 4.667144234168206e-01	 1.418966718793384e+00	-3.595094941503902e+01
1	 4.944972135354159e-01	 1.409525248915785e+00	-3.614556542696767e+01
1	 5.222128116921980e-01	 1.399493748400941e+00	-3.636645616181023e+01
1	 5.498432283185828e-01	 1.388870579566542e+00	-3.661328442298709e+01
1	 2.706700404503491e-01	 1.462666735513815e+00	-3.571995603718057e+01
1	 2.983268860760713e-01	 1.457277362023335e+00	-3.573183126244739e+01
1	 3.260340040918863e-01	 1.451329750691264e+00	-3.577148572258699e+01
1	 3.537757157322081e-01	 1.444817956503971e+00	-3.583925148603818e+01
1	 3.815359495734016e-01	 1.437736578200827e+00	-3.593536258839155e+01
1	 4.092982629839054e-01	 1.430080784157862e+00	-3.605995024223187e+01
1	 4.370458654009294e-01	 1.421846337392527e+00	-3.621303837328903e+01
1	 4.647616434032953e-01	 1.413029619549913e+00	-3.639453952688732e+01
1	 4.924281875384339e-01	 1.403627653730655e+00	-3.660425118791869e+01
1	 5.200278208497855e-01	 1.393638126021667e+00	-3.684185255632053e+01
1	 5.475426290389284e-01	 1.383059405592869e+00	-3.710690181832302e+01
1	 2.695327713739391e-01	 1.456521076959809e+00	-3.610937447389973e+01
1	 2.970734117656005e-01	 1.451154347895496e+00	-3.612313523668895e+01
1	 3.246641133189058e-01	 1.445231726526806e+00	-3.616679160066515e+01
1	 3.522892631454372e-01	 1.438747292819156e+00	-3.624063348114476e+01
1	 3.799328573485508e-01	 1.431695668206291e+00	-3.634484393137544e+01
1	 4.075785223833736e-01	 1.424072041365184e+00	-3.647949422573171e+01
1	 4.352095382357005e-01	 1.415872193115735e+00	-3.664453930916473e+01
1	 4.628088633894851e-01	 1.407092520306206e+00	-3.683981365928499e+01
1	 4.903591615411199e-01	 1.397730058545214e+00	-3.706502760644785e+01
1	 5.178428300069724e-01	 1.387782503641998e+00	-3.731976415574387e+01
1	 5.452420297587843e-01	 1.377248231618707e+00	-3.760347635276373e+01
1	 2.683955022970143e-01	 1.450375418405802e+00	-3.649815666198094e+01
1	 2.958199374547058e-01	 1.445031333767653e+00	-3.651407752355683e+01
1	 3.232942225455737e-01	 1.439133702362329e+00	-3.656203068460413e+01
1	 3.508028105583673e-01	 1.432676629134299e+00	-3.664226375332031e+01
1	 3.783297651234345e-01	 1.425654758211680e+00	-3.675490859476055e+01
1	 4.058587817825901e-01	 1.418063298572387e+00	-3.689997628639970e+01
1	 4.333732110702134e-01	 1.409898048838768e+00	-3.707735248010349e+01
1	 4.608560833753900e-01	 1.401155421062262e+00	-3.728679321927235e+01
1	 4.882901355434734e-01	 1.391832463359462e+00	-3.752792125871029e+01
1	 5.156578391637592e-01	 1.381926881261935e+00	-3.780022293302361e+01
1	 5.429414304781506e-01	 1.371437057644054e+00	-3.810304561705988e+01
1	 2.672582332195749e-01	 1.444229759851796e+00	-3.688629447910151e+01
1	 2.945664631433871e-01	 1.438908319639805e+00	-3.690465350576580e+01
1	 3.219243317718894e-01	 1.433035678197833e+00	-3.695720212171327e+01
1	 3.493163579709982e-01	 1.426605965449398e+00	-3.704414547205953e+01
1	 3.767266728980525e-01	 1.419613848216993e+00	-3.716556402519011e+01
1	 4.041390411815546e-01	 1.412054555779470e+00	-3.732140839968942e+01
1	 4.315368839044681e-01	 1.403923904561630e+00	-3.751149463804152e+01
1	 4.589033033610098e-01	 1.395218321818080e+00	-3.773549997826526e+01
1	 4.862211095454950e-01	 1.385934868173399e+00	-3.799295917322122e+01
1	 5.134728483201456e-01	 1.376071258881476e+00	-3.828326140532271e+01
1	 5.406408311970272e-01	 1.365625883668913e+00	-3.860564784180409e+01
1	 2.661209641416208e-01	 1.438084101297789e+00	-3.727377966409546e+01
1	 2.933129888316443e-01	 1.432785305511953e+00	-3.729485848710270e+01
1	 3.205544409978530e-01	 1.426937654033318e+00	-3.735230504472541e+01
1	 3.478299053833301e-01	 1.420535301764456e+00	-3.744628186103676e+01
1	 3.751235806724046e-01	 1.413572938222229e+00	-3.757681779660052e+01
1	 4.024193005802674e-01	 1.406045812986434e+00	-3.774380274576237e+01
1	 4.297005567384645e-01	 1.397949760284317e+00	-3.794698282127370e+01
1	 4.569505233463451e-01	 1.389281222573663e+00	-3.818595607984057e+01
1	 4.841520835471841e-01	 1.380037272987025e+00	-3.846016884052159e+01
1	 5.112878574761315e-01	 1.370215636500622e+00	-3.876891264565406e+01
1	 5.383402319154141e-01	 1.359814709693281e+00	-3.911132191110430e+01
1	 2.649836950631520e-01	 1.431938442743783e+00	-3.766060381397484e+01
1	 2.920595145194776e-01	 1.426662291384095e+00	-3.768468769073269e+01
1	 3.191845502234648e-01	 1.420839629868785e+00	-3.774733857148539e+01
1	 3.463434527953629e-01	 1.414464638079470e+00	-3.784867619926781e+01
1	 3.735204884464914e-01	 1.407532028227389e+00	-3.798867761295318e+01
1	 4.006995599787281e-01	 1.400037070193277e+00	-3.816717171388159e+01
1	 4.278642295722028e-01	 1.391975616006833e+00	-3.838383436059766e+01
1	 4.549977433313952e-01	 1.383344123329007e+00	-3.863818404772168e+01
1	 4.820830575485412e-01	 1.374139677800342e+00	-3.892957822309327e+01
1	 5.091028666317170e-01	 1.364360014119373e+00	-3.925721029480704e+01
1	 5.360396326333111e-01	 1.354003535717160e+00	-3.962010737660612e+01
1	 2.638464259841686e-01	 1.425792784189777e+00	-3.804675838087184e+01
1	 2.908060402068869e-01	 1.420539277256233e+00	-3.807413625746139e+01
1	 3.178146594487243e-01	 1.414741605704233e+00	-3.814230180462847e+01
1	 3.448570002070966e-01	 1.408393974394442e+00	-3.825133182230351e+01
1	 3.719173962203124e-01	 1.401491118232472e+00	-3.840115131103626e+01
1	 3.989798193769370e-01	 1.394028327400002e+00	-3.859152790691874e+01
1	 4.260279024056829e-01	 1.386001471729174e+00	-3.882206688561799e+01
1	 4.530449633161606e-01	 1.377407024084116e+00	-3.909220679397332e+01
1	 4.800140315495660e-01	 1.368242082613346e+00	-3.940121576553005e+01
1	 5.069178757869022e-01	 1.358504391737729e+00	-3.974818857358451e+01
1	 5.337390333507185e-01	 1.348192361740549e+00	-4.013204447188036e+01
1	 2.627091569046704e-01	 1.419647125635770e+00	-3.843223466890430e+01
1	 2.895525658938722e-01	 1.414416263128367e+00	-3.846319924395311e+01
1	 3.164447686736321e-01	 1.408643581539662e+00	-3.853719383125021e+01
1	 3.433705476185311e-01	 1.402323310709372e+00	-3.865425212345353e+01
1	 3.703143039938679e-01	 1.395450208237480e+00	-3.881424686333985e+01
1	 3.972600787748941e-01	 1.388019584606606e+00	-3.901688414597676e+01
1	 4.241915752389048e-01	 1.380027327451343e+00	-3.926169833121310e+01
1	 4.510921833006410e-01	 1.371469924838987e+00	-3.954804762740441e+01
1	 4.779450055502587e-01	 1.362344487426041e+00	-3.987511040497230e+01
1	 5.047328849416868e-01	 1.352648769355690e+00	-4.024188229535783e+01
1	 5.314384340676360e-01	 1.342381187763448e+00	-4.064717412718288e+01
1	 2.615718878246577e-01	 1.413501467081764e+00	-3.881702383095710e+01
1	 2.882990915804336e-01	 1.408293249000495e+00	-3.885187162090096e+01
1	 3.150748778981876e-01	 1.402545557375071e+00	-3.893201372257052e+01
1	 3.418840950296664e-01	 1.396252647024258e+00	-3.905744055504154e+01
1	 3.687112117671577e-01	 1.389409298242411e+00	-3.922797238100585e+01
1	 3.955403381725991e-01	 1.382010841813091e+00	-3.944325347513370e+01
1	 4.223552480718684e-01	 1.374053183173338e+00	-3.970274694417372e+01
1	 4.491394032848366e-01	 1.365532825593621e+00	-4.000573026219577e+01
1	 4.758759795506189e-01	 1.356446892238424e+00	-4.035129158181528e+01
1	 5.025478940960710e-01	 1.346793146973256e+00	-4.073832687894792e+01
1	 5.291378347840640e-01	 1.336570013785858e+00	-4.116553798460031e+01
1	 5.521438275977473e-01	 1.394681753539725e+00	-3.612258720251842e+01
1	 5.797853158654803e-01	 1.383419347135256e+00	-3.616452386340179e+01
1	 6.073045050432507e-01	 1.371561672622646e+00	-3.610890459896481e+01
1	 6.346828098288844e-01	 1.359109257458510e+00	-3.595570917891157e+01
1	 6.619015420490447e-01	 1.346063381879586e+00	-3.570525982121109e+01
1	 6.889419479093360e-01	 1.332426090015308e+00	-3.535822812464922e+01
1	 7.157852462492434e-01	 1.318200198831640e+00	-3.491564037426798e+01
1	 7.424126676571323e-01	 1.303389304813863e+00	-3.437888113722891e+01
1	 7.688054942915323e-01	 1.287997788306834e+00	-3.374969507813078e+01
1	 7.949451002468365e-01	 1.272030815443104e+00	-3.303018693539588e+01
1	 8.208129922944636e-01	 1.255494337601922e+00	-3.222281961392412e+01
1	 5.498432283185828e-01	 1.388870579566542e+00	-3.661328442298708e+01
1	 5.773695437191428e-01	 1.377655099855990e+00	-3.666311756979780e+01
1	 6.047740696091419e-01	 1.365846832321061e+00	-3.660453647816819e+01
1	 6.320382981251627e-01	 1.353446302220633e+00	-3.643766811832264e+01
1	 6.591436189612557e-01	 1.340454784457125e+00	-3.616302385495196e+01
1	 6.860713564638338e-01	 1.326874314642763e+00	-3.578150661011514e+01
1	 7.128028077272158e-01	 1.312707698006153e+00	-3.529441618501598e+01
1	 7.393192815456483e-01	 1.297958516047221e+00	-3.470345265184115e+01
1	 7.656021380686652e-01	 1.282631130859385e+00	-3.401071773993537e+01
1	 7.916328289985990e-01	 1.266730687049643e+00	-3.321871415490813e+01
1	 8.173929381619869e-01	 1.250263111199833e+00	-3.233034278466320e+01
1	 5.475426290389284e-01	 1.383059405592869e+00	-3.710690181832302e+01
1	 5.749537715722256e-01	 1.371890852576140e+00	-3.716376081572670e+01
1	 6.022436341743815e-01	 1.360131992018805e+00	-3.710125553743543e+01
1	 6.293937864207375e-01	 1.347783346982009e+00	-3.691966085441018e+01
1	 6.563856958727312e-01	 1.334846187033850e+00	-3.661967821748910e+01
1	 6.832007650175834e-01	 1.321322539269347e+00	-3.620244305247463e+01
1	 7.098203692044484e-01	 1.307215197179750e+00	-3.566953009900041e+01
1	 7.362258954334518e-01	 1.292527727279625e+00	-3.502295659795590e+01
1	 7.623987818451341e-01	 1.277264473410956e+00	-3.426518324698154e+01
1	 7.883205577497664e-01	 1.261430558655188e+00	-3.339911285958551e+01
1	 8.139728840290046e-01	 1.245031884796743e+00	-3.242808668064807e+01
1	 5.452420297587843e-01	 1.377248231618707e+00	-3.760347635276373e+01
1	 5.725379994247277e-01	 1.366126605295703e+00	-3.766647954472672e+01
1	 5.997131987389698e-01	 1.354417151715878e+00	-3.759907553853920e+01
1	 6.267492747156090e-01	 1.342120391742638e+00	-3.740168781498002e+01
1	 6.536277727834707e-01	 1.329237589609762e+00	-3.707520886235082e+01
1	 6.803301735705851e-01	 1.315770763895062e+00	-3.662100780561271e+01
1	 7.068379306809401e-01	 1.301722696352430e+00	-3.604093576309833e+01
1	 7.331325093205429e-01	 1.287096938511077e+00	-3.533732882913700e+01
1	 7.591954256209391e-01	 1.271897815961549e+00	-3.451300859731196e+01
1	 7.850082865003387e-01	 1.256130430259738e+00	-3.357128015683689e+01
1	 8.105528298955170e-01	 1.239800658392654e+00	-3.251592751359278e+01
1	 5.429414304781506e-01	 1.371437057644054e+00	-3.810304561705987e+01
1	 5.701222272766497e-01	 1.360362358014682e+00	-3.817130014005630e+01
1	 5.971827633029066e-01	 1.348702311412280e+00	-3.809801047650178e+01
1	 6.241047630097769e-01	 1.336457436502520e+00	-3.788374943508864e+01
1	 6.508698496934746e-01	 1.323628992184860e+00	-3.752960150498983e+01
1	 6.774595821228387e-01	 1.310218988519906e+00	-3.703717072093750e+01
1	 7.038554921566915e-01	 1.296230195524193e+00	-3.640858603854002e+01
1	 7.300391232069217e-01	 1.281666149741575e+00	-3.564650411172099e+01
1	 7.559920693960799e-01	 1.266531158511162e+00	-3.475410938215536e+01
1	 7.816960152503163e-01	 1.250830301863293e+00	-3.373511141012942e+01
1	 8.071327757615240e-01	 1.234569431987565e+00	-3.259373939710519e+01
1	 5.406408311970272e-01	 1.365625883668913e+00	-3.860564784180408e+01
1	 5.677064551279916e-01	 1.354598110733076e+00	-3.867824943405031e+01
1	 5.946523278661916e-01	 1.342987471108012e+00	-3.859807458455911e+01
1	 6.214602513032417e-01	 1.330794481261655e+00	-3.836584615719747e+01
1	 6.481119266027431e-01	 1.318020394759144e+00	-3.798284161771846e+01
1	 6.745889906743443e-01	 1.304667213143881e+00	-3.745090113668930e+01
1	 7.008730536317028e-01	 1.290737694695039e+00	-3.677243298419454e+01
1	 7.269457370925884e-01	 1.276235360971121e+00	-3.595041610168372e+01
1	 7.527887131705571e-01	 1.261164501059796e+00	-3.498839975599713e+01
1	 7.783837439996988e-01	 1.245530173465853e+00	-3.389050020188252e+01
1	 8.037127216270259e-01	 1.229338205581475e+00	-3.266139430204655e+01
1	 5.383402319154141e-01	 1.359814709693281e+00	-3.911132191110430e+01
1	 5.652906829787533e-01	 1.348833863450885e+00	-3.918735471771716e+01
1	 5.921218924288255e-01	 1.337272630803073e+00	-3.909928233925041e+01
1	 6.188157395960029e-01	 1.325131526020043e+00	-3.884797843133166e+01
1	 6.453540035112757e-01	 1.312411797332615e+00	-3.843491442451164e+01
1	 6.717183992251021e-01	 1.299115437766985e+00	-3.786216786697681e+01
1	 6.978906151059738e-01	 1.285245193864969e+00	-3.713242783942367e+01
1	 7.238523509775424e-01	 1.270804572199713e+00	-3.624899732091609e+01
1	 7.495853569443702e-01	 1.255797843607451e+00	-3.521579240587672e+01
1	 7.750714727484866e-01	 1.240230045067420e+00	-3.403733829541163e+01
1	 8.002926674920223e-01	 1.224106979174386e+00	-3.271876201074545e+01
1	 5.360396326333111e-01	 1.354003535717160e+00	-3.962010737660612e+01
1	 5.628749108289348e-01	 1.343069616168109e+00	-3.969864375057945e+01
1	 5.895914569908074e-01	 1.331557790497462e+00	-3.960164846563868e+01
1	 6.161712278880606e-01	 1.319468570777684e+00	-3.933014671524254e+01
1	 6.425960804190727e-01	 1.306803199905273e+00	-3.888580489567907e+01
1	 6.688478077751114e-01	 1.293563662389220e+00	-3.827093919052747e+01
1	 6.949081765795044e-01	 1.279752693033983e+00	-3.748852100649711e+01
1	 7.207589648617844e-01	 1.265373783427353e+00	-3.654217913288569e+01
1	 7.463820007175195e-01	 1.250431186154128e+00	-3.543619851989936e+01
1	 7.717592014966794e-01	 1.234929916667991e+00	-3.417551559589228e+01
1	 7.968726133565134e-01	 1.218875752766297e+00	-3.276571007003434e+01
1	 5.337390333507185e-01	 1.348192361740549e+00	-4.013204447188036e+01
1	 5.604591386785360e-01	 1.337305368884748e+00	-4.021214477077243e+01
1	 5.870610215521381e-01	 1.325842950191181e+00	-4.010518794266777e+01
1	 6.135267161794149e-01	 1.313805615534577e+00	-3.981235147457269e+01
1	 6.398381573261339e-01	 1.301194602477117e+00	-3.933549774239725e+01
1	 6.659772163243729e-01	 1.288011887010584e+00	-3.867718283915077e+01
1	 6.919257380522946e-01	 1.274260192202079e+00	-3.784066203255118e+01
1	 7.176655787453140e-01	 1.259942994654040e+00	-3.682989171767230e+01
1	 7.431786444900048e-01	 1.245064528699825e+00	-3.564952775493037e+01
1	 7.684469302442771e-01	 1.229629788267567e+00	-3.430492011031349e+01
1	 7.934525592204992e-01	 1.213644526357208e+00	-3.280210374307065e+01
1	 5.314384340676360e-01	 1.342381187763448e+00	-4.064717412718288e+01
1	 5.580433665275573e-01	 1.331541121600802e+00	-4.072788650540414e+01
1	 5.845305861128172e-01	 1.320128109884229e+00	-4.060991600865712e+01
1	 6.108822044700656e-01	 1.308142660290724e+00	-4.029459318302880e+01
1	 6.370802342324594e-01	 1.295586005048147e+00	-3.978397741110201e+01
1	 6.631066248728863e-01	 1.282460111631078e+00	-3.908086598590008e+01
1	 6.889432995243446e-01	 1.268767691369260e+00	-3.818879959107975e+01
1	 7.145721926281311e-01	 1.254512205879773e+00	-3.711206404635196e+01
1	 7.399752882618262e-01	 1.239697871244543e+00	-3.585568820345255e+01
1	 7.651346589912801e-01	 1.224329659866149e+00	-3.442543790639093e+01
1	 7.900325050839796e-01	 1.208413299947118e+00	-3.282780595990622e+01
1	 5.291378347840640e-01	 1.336570013785858e+00	-4.116553798460031e+01
1	 5.556275943759981e-01	 1.325776874316271e+00	-4.124589818118326e+01
1	 5.820001506728447e-01	 1.314413269576606e+00	-4.111584816694001e+01
1	 6.082376927600133e-01	 1.302479705046123e+00	-4.077687232255501e+01
1	 6.343223111380495e-01	 1.289977407618364e+00	-4.023122807773218e+01
1	 6.602360334206515e-01	 1.276908336250702e+00	-3.948195523292457e+01
1	 6.859608609956541e-01	 1.263275190535523e+00	-3.853288146294165e+01
1	 7.114788065102359e-01	 1.249081417104553e+00	-3.738862385471673e+01
1	 7.367719320329839e-01	 1.234331213788282e+00	-3.605458635955635e+01
1	 7.618223877376878e-01	 1.219029531463735e+00	-3.453695307040979e+01
1	 7.866124509469546e-01	 1.203182073536029e+00	-3.284267726676834e+01
1	 8.208129922944636e-01	 1.255494337601922e+00	-3.222281961392412e+01
1	 8.463914896256208e-01	 1.238394665901733e+00	-3.055395805492535e+01
1	 8.716618150676554e-01	 1.220739745021569e+00	-2.882364996881191e+01
1	 8.966061179474591e-01	 1.202537854116337e+00	-2.703428073896355e+01
1	 9.212068434705458e-01	 1.183798030083694e+00	-2.518841089697197e+01
1	 9.454467726432131e-01	 1.164530054312457e+00	-2.328876908349228e+01
1	 9.693090614752667e-01	 1.144744436920890e+00	-2.133824412117039e+01
1	 9.927772792798947e-01	 1.124452398531341e+00	-1.933987623853064e+01
1	 1.015835445890818e+00	 1.103665849642919e+00	-1.729684749097234e+01
1	 1.038468067621809e+00	 1.082397367678899e+00	-1.521247143191037e+01
1	 1.060660171800000e+00	 1.060660171800000e+00	-1.309018209354199e+01
1	 8.173929381619869e-01	 1.250263111199833e+00	-3.233034278466321e+01
1	 8.428648584202263e-01	 1.233234688132024e+00	-3.058838822179341e+01
1	 8.680298908390388e-01	 1.215653329422374e+00	-2.879629541598294e+01
1	 8.928702591231227e-01	 1.197527279729309e+00	-2.695623674590217e+01
1	 9.173684816229689e-01	 1.178865538296748e+00	-2.507051600506030e+01
1	 9.415074110906841e-01	 1.159677845757717e+00	-2.314156206913020e+01
1	 9.652702737193667e-01	 1.139974668438324e+00	-2.117192191312009e+01
1	 9.886407072833990e-01	 1.119767180208320e+00	-1.916425301354064e+01
1	 1.011602798200530e+00	 1.099067241939737e+00	-1.712131517598140e+01
1	 1.034141117341557e+00	 1.077887378649919e+00	-1.504596183340852e+01
1	 1.056240754419750e+00	 1.056240754419750e+00	-1.294113086503496e+01
1	 8.139728840290046e-01	 1.245031884796743e+00	-3.242808668064807e+01
1	 8.393382272144162e-01	 1.228074710361321e+00	-3.061396671258529e+01
1	 8.643979666100776e-01	 1.210566913822199e+00	-2.876110808728588e+01
1	 8.891344002984921e-01	 1.192516705341327e+00	-2.687146872936410e+01
1	 9.135301197751294e-01	 1.173933046508881e+00	-2.494709400314556e+01
1	 9.375680495379030e-01	 1.154825637202102e+00	-2.299011109023346e+01
1	 9.612314859632045e-01	 1.135204899954936e+00	-2.100272295587104e+01
1	 9.845041352866127e-01	 1.115081961884544e+00	-1.898720193551143e+01
1	 1.007370150509902e+00	 1.094468634235875e+00	-1.694588297622811e+01
1	 1.029814167060896e+00	 1.073377389620345e+00	-1.488115657053272e+01
1	 1.051821337039000e+00	 1.051821337039000e+00	-1.279546142276770e+01
1	 8.105528298955170e-01	 1.239800658392654e+00	-3.251592751359277e+01
1	 8.358115960081912e-01	 1.222914732589622e+00	-3.063058148077034e+01
1	 8.607660423807719e-01	 1.205480498221043e+00	-2.871798883366097e+01
1	 8.853985414735681e-01	 1.187506130952389e+00	-2.677989157512937e+01
1	 9.096917579270271e-01	 1.169000554720093e+00	-2.481807492781126e+01
1	 9.336286879848700e-01	 1.149973428645612e+00	-2.283436242573205e+01
1	 9.571926982067818e-01	 1.130435131470729e+00	-2.083061083487640e+01
1	 9.803675632895356e-01	 1.110396743560013e+00	-1.880870493035313e+01
1	 1.003137502818933e+00	 1.089870026531333e+00	-1.677055215899226e+01
1	 1.025487216779824e+00	 1.068867400590176e+00	-1.471807721714992e+01
1	 1.047401919657750e+00	 1.047401919657750e+00	-1.265321657415895e+01
1	 8.071327757615240e-01	 1.234569431987565e+00	-3.259373939710518e+01
1	 8.322849648015508e-01	 1.217754754816927e+00	-3.063811858072458e+01
1	 8.571341181511217e-01	 1.200394082618908e+00	-2.866683682555639e+01
1	 8.816626826483505e-01	 1.182495556562496e+00	-2.668141872636456e+01
1	 9.058533960786614e-01	 1.164068062930386e+00	-2.468338762981958e+01
1	 9.296893264315848e-01	 1.145121220088246e+00	-2.267426144402944e+01
1	 9.531539104500976e-01	 1.125665362985702e+00	-2.065554851839313e+01
1	 9.762309912921681e-01	 1.105711525234726e+00	-1.862874361763500e+01
1	 9.989048551276247e-01	 1.085271418826112e+00	-1.659532401303356e+01
1	 1.021160266498342e+00	 1.064357411559411e+00	-1.455674571278559e+01
1	 1.042982502276000e+00	 1.042982502276000e+00	-1.251443985217718e+01
1	 8.037127216270259e-01	 1.229338205581475e+00	-3.266139430204655e+01
1	 8.287583335944958e-01	 1.212594777043238e+00	-3.063646212732462e+01
1	 8.535021939211269e-01	 1.195307667015792e+00	-2.860754951717221e+01
1	 8.779268238228387e-01	 1.177484982171648e+00	-2.657596215292799e+01
1	 9.020150342300334e-01	 1.159135571139758e+00	-2.454295974888219e+01
1	 9.257499648780478e-01	 1.140269011530004e+00	-2.250975258362970e+01
1	 9.491151226931519e-01	 1.120895594499854e+00	-2.047749834435053e+01
1	 9.720944192945101e-01	 1.101026306908685e+00	-1.844729930406807e+01
1	 9.946722074359761e-01	 1.080672811120209e+00	-1.642019984904729e+01
1	 1.016833316216450e+00	 1.059847422528051e+00	-1.439718437040473e+01
1	 1.038563084893750e+00	 1.038563084893750e+00	-1.237917553077740e+01
1	 8.002926674920223e-01	 1.224106979174386e+00	-3.271876201074545e+01
1	 8.252317023870256e-01	 1.207434799268554e+00	-3.062549425450407e+01
1	 8.498702696907879e-01	 1.190221251411697e+00	-2.854002260978898e+01
1	 8.741909649970337e-01	 1.172474407779844e+00	-2.646343231988972e+01
1	 8.981766723811424e-01	 1.154203079348210e+00	-2.439671768778266e+01
1	 9.218106033242588e-01	 1.135416802970888e+00	-2.234077933326770e+01
1	 9.450763349359453e-01	 1.116125826013185e+00	-2.029642200688201e+01
1	 9.679578472965611e-01	 1.096341088581888e+00	-1.826435297681989e+01
1	 9.904395597439867e-01	 1.076074203413627e+00	-1.624518100013455e+01
1	 1.012506365934148e+00	 1.055337433496097e+00	-1.423941588438968e+01
1	 1.034143667511000e+00	 1.034143667511000e+00	-1.224746864073477e+01
1	 7.968726133565134e-01	 1.218875752766297e+00	-3.276571007003434e+01
1	 8.217050711791402e-01	 1.202274821492874e+00	-3.060509507274525e+01
1	 8.462383454601040e-01	 1.185134835806620e+00	-2.846415001415133e+01
1	 8.704551061709346e-01	 1.167463833387085e+00	-2.634373815523922e+01
1	 8.943383105319888e-01	 1.149270587555742e+00	-2.424458658583318e+01
1	 9.178712417702177e-01	 1.130564594410897e+00	-2.216728421152760e+01
1	 9.410375471784770e-01	 1.111356057525697e+00	-2.011228054250946e+01
1	 9.638212752983212e-01	 1.091655870254336e+00	-1.807988529665737e+01
1	 9.862069120516567e-01	 1.071475595706364e+00	-1.607026882228183e+01
1	 1.008179415651436e+00	 1.050827444463547e+00	-1.408346333872632e+01
1	 1.029724250127750e+00	 1.029724250127750e+00	-1.211936498588487e+01
1	 7.934525592204992e-01	 1.213644526357208e+00	-3.280210374307065e+01
1	 8.181784399708399e-01	 1.197114843716200e+00	-3.057514262546973e+01
1	 8.426064212290760e-01	 1.180048420200564e+00	-2.837982381187917e+01
1	 8.667192473445422e-01	 1.162453258993371e+00	-2.621678701675903e+01
1	 8.904999486825721e-01	 1.144338095762353e+00	-2.408649029164421e+01
1	 9.139318802159246e-01	 1.125712385850030e+00	-2.198920874593486e+01
1	 9.369987594207478e-01	 1.106586289037388e+00	-1.992503431597071e+01
1	 9.596847032997911e-01	 1.086970651926028e+00	-1.789387659091262e+01
1	 9.819742643589869e-01	 1.066876987998421e+00	-1.589546469485490e+01
1	 1.003852465368314e+00	 1.046317455430403e+00	-1.392935021540049e+01
1	 1.025304832744000e+00	 1.025304832744000e+00	-1.199491115978464e+01
1	 7.900325050839796e-01	 1.208413299947118e+00	-3.282780595990622e+01
1	 8.146518087621241e-01	 1.191954865938531e+00	-3.053551284429722e+01
1	 8.389744969977032e-01	 1.174962004593528e+00	-2.828693421587557e+01
1	 8.629833885178556e-01	 1.157442684598702e+00	-2.608248465803731e+01
1	 8.866615868328924e-01	 1.139405603968044e+00	-2.392235133518751e+01
1	 9.099925186613794e-01	 1.120860177288287e+00	-2.180649345150454e+01
1	 9.329599716627571e-01	 1.101816520548259e+00	-1.973464300567857e+01
1	 9.555481313009699e-01	 1.082285433596965e+00	-1.770630684626501e+01
1	 9.777416166659768e-01	 1.062278380289799e+00	-1.572077002110459e+01
1	 9.995255150847822e-01	 1.041807466396663e+00	-1.377710040301242e+01
1	 1.020885415359750e+00	 1.020885415359750e+00	-1.187415456280602e+01
1	 7.866124509469546e-01	 1.203182073536029e+00	-3.284267726676835e+01
1	 8.111251775529934e-01	 1.186794888159866e+00	-3.048607950313678e+01
1	 8.353425727659858e-01	 1.169875588985511e+00	-2.818536952970302e+01
1	 8.592475296908754e-01	 1.152432110203077e+00	-2.594073519359434e+01
1	 8.828232249829499e-01	 1.134473112172815e+00	-2.375209089912992e+01
1	 9.060531571065823e-01	 1.116007968725669e+00	-2.161907780873000e+01
1	 9.289211839045051e-01	 1.097046752058309e+00	-1.954106558880079e+01
1	 9.514115593018583e-01	 1.077600215267147e+00	-1.751715570133646e+01
1	 9.735089689726262e-01	 1.057679772580496e+00	-1.554618622868591e+01
1	 9.951985648008399e-01	 1.037297477362328e+00	-1.362673820561620e+01
1	 1.016465997975000e+00	 1.016465997975000e+00	-1.175714341967548e+01
1	 1.060660171800000e+00	 1.060660171800000e+00	-1.309018209354199e+01
1	 1.082397356621336e+00	 1.038468084470809e+00	-1.146238712592050e+01
1	 1.103665805542999e+00	 1.015835513141593e+00	-9.869475311972247e+00
1	 1.124452299614854e+00	 9.927774302300170e-01	-8.312532325948066e+00
1	 1.144744261643663e+00	 9.693093291181505e-01	-6.792508238085687e+00
1	 1.164529781378945e+00	 9.454471896203713e-01	-5.310216062177560e+00
1	 1.183797638464678e+00	 9.212074420252396e-01	-3.866331026337665e+00
1	 1.202537323065708e+00	 8.966069298798887e-01	-2.461390562788582e+00
1	 1.220739054092179e+00	 8.716628716918402e-01	-1.095795006615657e+00
1	 1.238393794960300e+00	 8.463928217281086e-01	 2.301910122478890e-01
1	 1.255493266842988e+00	 8.208146300949881e-01	 1.516436504981552e+00
1	 1.056240754419750e+00	 1.056240754419750e+00	-1.294113086503496e+01
1	 1.077887367638430e+00	 1.034141134120353e+00	-1.133813275501850e+01
1	 1.099067198023567e+00	 1.011602865171093e+00	-9.765674769715350e+00
1	 1.119767081703985e+00	 9.886408576045627e-01	-8.224915638408214e+00
1	 1.139974493891418e+00	 9.652705402470714e-01	-6.716894047648603e+00
1	 1.159677573961428e+00	 9.415078263304374e-01	-5.242526733504445e+00
1	 1.178865148309478e+00	 9.173690776836849e-01	-3.802607219306925e+00
1	 1.197526750891392e+00	 8.928710676725002e-01	-2.397805198812668e+00
1	 1.215652641371856e+00	 8.680309430606228e-01	-1.028666559406390e+00
1	 1.233233820819514e+00	 8.428661849722867e-01	 3.043859651926666e-01
1	 1.250262044902395e+00	 8.173945691383422e-01	 1.601051528227464e+00
1	 1.051821337039000e+00	 1.051821337039000e+00	-1.279546142276770e+01
1	 1.073377378654929e+00	 1.029814183769487e+00	-1.121702307173124e+01
1	 1.094468590503455e+00	 1.007370217200254e+00	-9.664748876755562e+00
1	 1.115081863792361e+00	 9.845042849788175e-01	-8.139871174482790e+00
1	 1.135204726138353e+00	 9.612317513757309e-01	-6.643517902180184e+00
1	 1.154825366543036e+00	 9.375684630402515e-01	-5.176710232152000e+00
1	 1.173932658153357e+00	 9.135307133418678e-01	-3.740360773577331e+00
1	 1.192516178716120e+00	 8.891352054648178e-01	-2.335272345810697e+00
1	 1.210566228650553e+00	 8.643990144290605e-01	-9.621373224656344e-01
1	 1.228073846677732e+00	 8.393395482160501e-01	 3.784624590253496e-01
1	 1.245030822960801e+00	 8.139745081811912e-01	 1.686055232188307e+00
1	 1.047401919657750e+00	 1.047401919657750e+00	-1.265321657415895e+01
1	 1.068867389670833e+00	 1.025487233418212e+00	-1.109909788222965e+01
1	 1.089869982982663e+00	 1.003137569229074e+00	-9.566734021057874e+00
1	 1.110396645879981e+00	 9.803677123527820e-01	-8.057431493963652e+00
1	 1.130434958384467e+00	 9.571929625041291e-01	-6.572408131363285e+00
1	 1.149973159123769e+00	 9.336290997498137e-01	-5.112790264794718e+00
1	 1.169000167996316e+00	 9.096923489997870e-01	-3.679610389924604e+00
1	 1.187505606539893e+00	 8.853993432568422e-01	-2.273805326706026e+00
1	 1.205479815928270e+00	 8.607670857971541e-01	-8.962148807332682e-01
1	 1.222913872534956e+00	 8.358129114593976e-01	 4.524189942636099e-01
1	 1.239799601018207e+00	 8.105544472235344e-01	 1.771452536872963e+00
1	 1.042982502276000e+00	 1.042982502276000e+00	-1.251443985217718e+01
1	 1.064357400686141e+00	 1.021160283066526e+00	-1.098439766736581e+01
1	 1.085271375461190e+00	 9.989049212575534e-01	-9.471667207332194e+00
1	 1.105711427966847e+00	 9.762311397264555e-01	-7.977629708503835e+00
1	 1.125665190629761e+00	 9.531541736322665e-01	-6.503593545044804e+00
1	 1.145120951703626e+00	 9.296897364591239e-01	-5.050790939915514e+00
1	 1.164067677838355e+00	 9.058539846574439e-01	-3.620375086086850e+00
1	 1.182495034362711e+00	 8.816634810485723e-01	-2.213417690234635e+00
1	 1.200393403205008e+00	 8.571351571649033e-01	-8.309069477075646e-01
1	 1.217753898391184e+00	 8.322862747023303e-01	 5.262540460101190e-01
1	 1.234568379074614e+00	 8.071343862653728e-01	 1.857248445680435e+00
1	 1.038563084893750e+00	 1.038563084893750e+00	-1.237917553077740e+01
1	 1.059847411700855e+00	 1.016833332714430e+00	-1.087296359702738e+01
1	 1.080672767939038e+00	 9.946722732856929e-01	-9.379586070156231e+00
1	 1.101026210052957e+00	 9.720945670998383e-01	-7.900499493358973e+00
1	 1.120895422874235e+00	 9.491153847601421e-01	-6.437103443451909e+00
1	 1.140268744282608e+00	 9.257503731681819e-01	-4.990736776354008e+00
1	 1.159135187679472e+00	 9.020156203148378e-01	-3.562674203508149e+00
1	 1.177484462184574e+00	 8.779276188400092e-01	-2.154123215748879e+00
1	 1.195306990480764e+00	 8.535032285323079e-01	-7.662213681805006e-01
1	 1.212593924246418e+00	 8.287596379448482e-01	 5.999660634118862e-01
1	 1.229337157130020e+00	 8.037143253067056e-01	 1.943448047173756e+00
1	 1.034143667511000e+00	 1.034143667511000e+00	-1.224746864073477e+01
1	 1.055337422714973e+00	 1.012506382361923e+00	-1.076483754486102e+01
1	 1.076074160416205e+00	 9.904396253134919e-01	-9.290528887433785e+00
1	 1.096340992138312e+00	 9.679579944729307e-01	-7.826075099429850e+00
1	 1.116125655117888e+00	 9.450765958877567e-01	-6.372967627670593e+00
1	 1.135416536860714e+00	 9.218110098769879e-01	-4.932652712075750e+00
1	 1.154202697519670e+00	 8.981772559719688e-01	-3.506527414255707e+00
1	 1.172473890005481e+00	 8.741917566311521e-01	-2.095935918145944e+00
1	 1.190220577755541e+00	 8.498712998993679e-01	-7.021661210427563e-01
1	 1.207433950100656e+00	 8.252330011869510e-01	 6.735534691055685e-01
1	 1.224105935184426e+00	 8.002942643475333e-01	 2.030056516900283e+00
1	 1.029724250127750e+00	 1.029724250127750e+00	-1.211936498588487e+01
1	 1.050827433728497e+00	 1.008179432009007e+00	-1.066006210337438e+01
1	 1.071475552892692e+00	 9.862069773409504e-01	-9.204534594199901e+00
1	 1.091655774222912e+00	 9.638214218457322e-01	-7.754391365615998e+00
1	 1.111355887360722e+00	 9.410378070151098e-01	-6.311216410393287e+00
1	 1.130564329437945e+00	 9.178716465855421e-01	-4.876564113165630e+00
1	 1.149270207358948e+00	 8.943388916288374e-01	-3.451954728114588e+00
1	 1.167463317825433e+00	 8.704558944220016e-01	-2.038870052921907e+00
1	 1.185134165029337e+00	 8.462393712660834e-01	-6.387493221619032e-01
1	 1.202273975953900e+00	 8.217063644286384e-01	 7.470146586487147e-01
1	 1.218874713237833e+00	 7.968742033878556e-01	 2.117079119257617e+00
1	 1.025304832744000e+00	 1.025304832744000e+00	-1.199491115978464e+01
1	 1.046317444741426e+00	 1.003852481655681e+00	-1.055868059942873e+01
1	 1.066876945368499e+00	 9.819743293680692e-01	-9.121642796783588e+00
1	 1.086970556306757e+00	 9.596848492182432e-01	-7.685483731487401e+00
1	 1.106586119602735e+00	 9.369990181422019e-01	-6.251880626945221e+00
1	 1.125712122014302e+00	 9.139322832938442e-01	-4.822496783054813e+00
1	 1.144337717197305e+00	 8.905005272854427e-01	-3.398976499866346e+00
1	 1.162452745644430e+00	 8.667200322125569e-01	-1.982940121357380e+00
1	 1.180047752302154e+00	 8.426074426324544e-01	-5.759792273342477e-01
1	 1.197114001806148e+00	 8.181797276699111e-01	 8.203479999358039e-01
1	 1.213643491290239e+00	 7.934541424276724e-01	 2.204521209409026e+00
1	 1.020885415359750e+00	 1.020885415359750e+00	-1.187415456280602e+01
1	 1.041807455753759e+00	 9.995255313019449e-01	-1.046073711013398e+01
1	 1.062278337843626e+00	 9.777416813948475e-01	-9.041893787337845e+00
1	 1.082285338389846e+00	 9.555482765904632e-01	-7.619388250286076e+00
1	 1.101816351843927e+00	 9.329602292690324e-01	-6.194991646596599e+00
1	 1.120859914589782e+00	 9.099929200018941e-01	-4.770476971987233e+00
1	 1.139405227034742e+00	 8.866621629417853e-01	-3.347613436756010e+00
1	 1.157442173462472e+00	 8.629841700028188e-01	-1.928160875837181e+00
1	 1.174961339573990e+00	 8.389755139984811e-01	-5.138642353134291e-01
1	 1.191954027657401e+00	 8.146530909107685e-01	 8.935518326002057e-01
1	 1.208412269341645e+00	 7.900340814669843e-01	 2.292388235247879e+00
1	 1.016465997975000e+00	 1.016465997975000e+00	-1.175714341967548e+01
1	 1.037297466765497e+00	 9.951985809477981e-01	-1.036627647915866e+01
1	 1.057679730318073e+00	 9.735090334212854e-01	-8.965328558748654e+00
1	 1.077600120472179e+00	 9.514117039623924e-01	-7.556141602267624e+00
1	 1.097046584084299e+00	 9.289214403956019e-01	-6.140581384170420e+00
1	 1.116007707164387e+00	 9.060535567096922e-01	-4.720531386732806e+00
1	 1.134472736871258e+00	 8.828237985978649e-01	-3.297886606154520e+00
1	 1.152431601279558e+00	 8.592483077927869e-01	-1.874547325309621e+00
1	 1.169874926844846e+00	 8.353435853641631e-01	-4.524128909185205e-01
1	 1.186794053507659e+00	 8.111264541512108e-01	 9.666244673988735e-01
1	 1.203181047392051e+00	 7.866140205057903e-01	 2.380685739413368e+00
1	 1.255493266842988e+00	 8.208146300949881e-01	 1.516436504981551e+00
1	 1.272029959379206e+00	 7.949464022841307e-01	 2.100418644083009e+00
1	 1.287997138826983e+00	 7.688064583706170e-01	 2.666091901624443e+00
1	 1.303388853659439e+00	 7.424132920487886e-01	 3.210452564719501e+00
1	 1.318199937618296e+00	 7.157855296891861e-01	 3.730579409762520e+00
1	 1.332426010254849e+00	 6.889418895959066e-01	 4.223644142691509e+00
1	 1.346063475001740e+00	 6.619011416394612e-01	 4.686921194912506e+00
1	 1.359109514832477e+00	 6.346820674340894e-01	 5.117796825704360e+00
1	 1.371562085578352e+00	 6.073034212214111e-01	 5.513777488700572e+00
1	 1.383419906984211e+00	 5.797838916141947e-01	 5.872497427036210e+00
1	 1.394682451595397e+00	 5.521420643450262e-01	 6.191725468868227e+00
1	 1.250262044902395e+00	 8.173945691383422e-01	 1.601051528227464e+00
1	 1.266729834552678e+00	 7.916341256107375e-01	 2.207528201555742e+00
1	 1.282630484085699e+00	 7.656030981307536e-01	 2.794069560920186e+00
1	 1.297958066772607e+00	 7.393199033356725e-01	 3.357621898869004e+00
1	 1.312707437881198e+00	 7.128030899861588e-01	 3.895220885971504e+00
1	 1.326874235214639e+00	 6.860712983933769e-01	 4.404002047763020e+00
1	 1.340454877191269e+00	 6.591432202200453e-01	 4.881210561069484e+00
1	 1.353446558522208e+00	 6.320375588236795e-01	 5.324210321420694e+00
1	 1.365847243556119e+00	 6.047729903032266e-01	 5.730492240296482e+00
1	 1.377655657372240e+00	 5.773681254022379e-01	 6.097681738183018e+00
1	 1.388871274713649e+00	 5.498414724127479e-01	 6.423545406756377e+00
1	 1.245030822960801e+00	 8.139745081811912e-01	 1.686055232188307e+00
1	 1.261429709725155e+00	 7.883218489367495e-01	 2.315243952983336e+00
1	 1.277263829343436e+00	 7.623997378902261e-01	 2.922856849448857e+00
1	 1.292527279884821e+00	 7.362265146218441e-01	 3.505789939817153e+00
1	 1.307214938143184e+00	 7.098206502823914e-01	 4.061035548429448e+00
1	 1.321322460173559e+00	 6.832007071900994e-01	 4.585692819598924e+00
1	 1.334846279379986e+00	 6.563852987998943e-01	 5.076977514383219e+00
1	 1.347783602211193e+00	 6.293930502125656e-01	 5.532231042867322e+00
1	 1.360132401533214e+00	 6.022425593843906e-01	 5.948928691854554e+00
1	 1.371891407759685e+00	 5.749523591897004e-01	 6.324687015338533e+00
1	 1.383060097831411e+00	 5.475408804799800e-01	 6.657270362689435e+00
1	 1.239799601018207e+00	 8.105544472235344e-01	 1.771452536872961e+00
1	 1.256129584896639e+00	 7.850095722621667e-01	 2.423573571706784e+00
1	 1.271897174600194e+00	 7.591963776490347e-01	 3.052464015681094e+00
1	 1.287096492996083e+00	 7.331331259073033e-01	 3.654969329421414e+00
1	 1.301722438404252e+00	 7.068382105778832e-01	 4.228038247594299e+00
1	 1.315770685131609e+00	 6.803301159860738e-01	 4.768733329929423e+00
1	 1.329237681567888e+00	 6.536273773790069e-01	 5.274240758487641e+00
1	 1.342120645899431e+00	 6.267485416007490e-01	 5.741879334672904e+00
1	 1.354417559509638e+00	 5.997121284649031e-01	 6.169108637044489e+00
1	 1.366127158146546e+00	 5.725365929765833e-01	 6.553536308704728e+00
1	 1.377248920948684e+00	 5.452402885467222e-01	 6.892924450819427e+00
1	 1.234568379074614e+00	 8.071343862653728e-01	 1.857248445680433e+00
1	 1.250829460067127e+00	 7.816972955869886e-01	 2.532524861123451e+00
1	 1.266530519855974e+00	 7.559930174071796e-01	 3.182901481790584e+00
1	 1.281665706106391e+00	 7.300397371920504e-01	 3.805172923807934e+00
1	 1.296229938664404e+00	 7.038557708726351e-01	 4.396244085626670e+00
1	 1.310218910088789e+00	 6.774595247812999e-01	 4.953140736446356e+00
1	 1.323629083754977e+00	 6.508694559573843e-01	 5.473019314027524e+00
1	 1.336457689586921e+00	 6.241040329882286e-01	 5.953175886290246e+00
1	 1.348702717485392e+00	 5.971816975447642e-01	 6.391054238920079e+00
1	 1.360362908532821e+00	 5.701208267628854e-01	 6.784253059165028e+00
1	 1.371437744065466e+00	 5.429396966129748e-01	 7.130532194012781e+00
1	 1.229337157130020e+00	 8.037143253067056e-01	 1.943448047173753e+00
1	 1.245529335236620e+00	 7.783850189112158e-01	 2.642105757454624e+00
1	 1.261163865110774e+00	 7.527896571646605e-01	 3.314179847349544e+00
1	 1.276234919215747e+00	 7.269463484760847e-01	 3.956413797930681e+00
1	 1.290737438923640e+00	 7.008733311666467e-01	 4.565668421745299e+00
1	 1.304667135045099e+00	 6.745889335757781e-01	 5.138932488887328e+00
1	 1.318020485941253e+00	 6.481115345350258e-01	 5.673332525403169e+00
1	 1.330794733273664e+00	 6.214595243750048e-01	 6.166141739333113e+00
1	 1.342987875460474e+00	 5.946512666239737e-01	 6.614788037778727e+00
1	 1.354598658918510e+00	 5.677050605486078e-01	 7.016861106596574e+00
1	 1.365626567181759e+00	 5.406391046787378e-01	 7.370118532546469e+00
1	 1.224105935184426e+00	 8.002942643475333e-01	 2.030056516900285e+00
1	 1.240229210405119e+00	 7.750727422348481e-01	 2.752324332583445e+00
1	 1.255797210364595e+00	 7.495862969214774e-01	 3.446309893119565e+00
1	 1.270804132324150e+00	 7.238529597594071e-01	 4.108705250246961e+00
1	 1.285244939181959e+00	 6.978908914599177e-01	 4.736326877719585e+00
1	 1.299115360000539e+00	 6.717183423695081e-01	 5.326126335276022e+00
1	 1.312411888126715e+00	 6.453536131119316e-01	 5.875200067688505e+00
1	 1.325131776959660e+00	 6.188150157610776e-01	 6.380798295100945e+00
1	 1.337273033434886e+00	 5.921208357025316e-01	 6.840332959221987e+00
1	 1.348834409303615e+00	 5.652892943337499e-01	 7.251384698395862e+00
1	 1.359815390297562e+00	 5.383385127440108e-01	 7.611708833026981e+00
1	 1.218874713237833e+00	 7.968742033878556e-01	 2.117079119257615e+00
1	 1.234929085572623e+00	 7.717604655578856e-01	 2.863188796966032e+00
1	 1.250430555617438e+00	 7.463829366776308e-01	 3.579302584939544e+00
1	 1.265373345431599e+00	 7.207595710420173e-01	 4.262060807513825e+00
1	 1.279752439439361e+00	 6.949084517524485e-01	 4.908235343503828e+00
1	 1.293563584955108e+00	 6.688477511624902e-01	 5.514740328323239e+00
1	 1.306803290311364e+00	 6.425956916881019e-01	 6.078641953726877e+00
1	 1.319468820644909e+00	 6.161705071464471e-01	 6.597167322297458e+00
1	 1.331558191408627e+00	 5.895904047804382e-01	 7.067712322424036e+00
1	 1.343070159688135e+00	 5.628735281183117e-01	 7.487848498223652e+00
1	 1.354004213412876e+00	 5.360379208087942e-01	 7.855328897539088e+00
1	 1.213643491290239e+00	 7.934541424276724e-01	 2.204521209409025e+00
1	 1.229628960739132e+00	 7.684481888803278e-01	 2.974707502618261e+00
1	 1.245063900869301e+00	 7.431795764331198e-01	 3.713169077714731e+00
1	 1.259942558538096e+00	 7.176661823239147e-01	 4.416494229708259e+00
1	 1.274259939695847e+00	 6.919260120442391e-01	 5.081409983017084e+00
1	 1.288011809908808e+00	 6.659771599547245e-01	 5.704792831993467e+00
1	 1.301194692495198e+00	 6.398377702635365e-01	 6.283678541410707e+00
1	 1.313805864329411e+00	 6.135259985311131e-01	 6.815270964948891e+00
1	 1.325843349381697e+00	 5.870599738576930e-01	 7.296949848613743e+00
1	 1.337305910072070e+00	 5.604577619022933e-01	 7.726277594976311e+00
1	 1.348193036527699e+00	 5.337373288730880e-01	 8.101004973031104e+00
1	 1.208412269341645e+00	 7.900340814669843e-01	 2.292388235247881e+00
1	 1.224328835904647e+00	 7.651359122021755e-01	 3.086888946179579e+00
1	 1.239697246120185e+00	 7.399762161879451e-01	 3.847920719508751e+00
1	 1.254511771643640e+00	 7.145727936051001e-01	 4.572019515075205e+00
1	 1.268767439951416e+00	 6.889435723352892e-01	 5.255867240073021e+00
1	 1.282460034861637e+00	 6.631065687462104e-01	 5.896302528241834e+00
1	 1.295586094678220e+00	 6.370798488382352e-01	 6.490330541149977e+00
1	 1.308142908013167e+00	 6.108814899150756e-01	 7.035131750527794e+00
1	 1.320128507354096e+00	 5.845295429342966e-01	 7.528069669777159e+00
1	 1.331541660455420e+00	 5.580419956856948e-01	 7.966697511989937e+00
1	 1.342381859642033e+00	 5.314367369368920e-01	 8.348763760943951e+00
1	 1.203181047392051e+00	 7.866140205057903e-01	 2.380685739413368e+00
1	 1.219028711069166e+00	 7.618236355234277e-01	 3.199741772057048e+00
1	 1.234330591370090e+00	 7.367728559421064e-01	 3.983569055742981e+00
1	 1.249080984748230e+00	 7.114794048855732e-01	 4.728650905307419e+00
1	 1.263274940206068e+00	 6.859611326255991e-01	 5.431623844464722e+00
1	 1.276908259813596e+00	 6.602359775369484e-01	 6.089288423927078e+00
1	 1.289977496860428e+00	 6.343219274121984e-01	 6.698619023535818e+00
1	 1.302479951696174e+00	 6.082369812983345e-01	 7.256772598288864e+00
1	 1.314413665325824e+00	 5.819991120102482e-01	 7.761096337587233e+00
1	 1.325777410838185e+00	 5.556262294685159e-01	 8.209134216484767e+00
1	 1.336570682755877e+00	 5.291361450002061e-01	 8.598632427091516e+00
1	 1.394682451595397e+00	 5.521420643450262e-01	 6.191725468868226e+00
1	 1.405349931578255e+00	 5.243963861552057e-01	 6.684086202094872e+00
1	 1.415423283584646e+00	 4.965651299474239e-01	 7.122017222468058e+00
1	 1.424904151779575e+00	 4.686663613162487e-01	 7.507166341657532e+00
1	 1.433794869157430e+00	 4.407179065592192e-01	 7.841280992891590e+00
1	 1.442098437276991e+00	 4.127373222578088e-01	 8.126198482377644e+00
1	 1.449818504550261e+00	 3.847418665068576e-01	 8.363836168573183e+00
1	 1.456959343223164e+00	 3.567484718587151e-01	 8.556181631787677e+00
1	 1.463525825188096e+00	 3.287737200363186e-01	 8.705282893842650e+00
1	 1.469523396769290e+00	 3.008338184575566e-01	 8.813238744346709e+00
1	 1.474958052621829e+00	 2.729445786016254e-01	 8.882189226616724e+00
1	 1.388871274713649e+00	 5.498414724127479e-01	 6.423545406756376e+00
1	 1.399494306862716e+00	 5.222114012147726e-01	 6.909703281736284e+00
1	 1.409525686568643e+00	 4.944961085740434e-01	 7.341887687148530e+00
1	 1.418967051145745e+00	 4.667135848118159e-01	 7.721705378497335e+00
1	 1.427820723867602e+00	 4.388815819493875e-01	 8.050861948155060e+00
1	 1.436089693786494e+00	 4.110175834158075e-01	 8.331152280202545e+00
1	 1.443777594112709e+00	 3.831387753971857e-01	 8.564450929160774e+00
1	 1.450888679291145e+00	 3.552620198935681e-01	 8.752702483974353e+00
1	 1.457427800914643e+00	 3.274038295373777e-01	 8.897911975942753e+00
1	 1.463400382614418e+00	 2.995803442155929e-01	 9.002135386219878e+00
1	 1.468812394067822e+00	 2.718073095262447e-01	 9.067470305074998e+00
1	 1.383060097831411e+00	 5.475408804799800e-01	 6.657270362689435e+00
1	 1.393638682146782e+00	 5.200264162739394e-01	 7.137343728431025e+00
1	 1.403628089552329e+00	 4.924270872003307e-01	 7.563903390324333e+00
1	 1.413029950511679e+00	 4.647608083070980e-01	 7.938514786031384e+00
1	 1.421846578577600e+00	 4.370452573392977e-01	 8.262841402972787e+00
1	 1.430080950295877e+00	 4.092978445735544e-01	 8.538635437531077e+00
1	 1.437736683675081e+00	 3.815356842872482e-01	 8.767728374163289e+00
1	 1.444818015359082e+00	 3.537755679281219e-01	 8.952021544658326e+00
1	 1.451329776641170e+00	 3.260339390380846e-01	 9.093476725199842e+00
1	 1.457277368459541e+00	 2.983268699732053e-01	 9.194106825915373e+00
1	 1.462666735513815e+00	 2.706700404503492e-01	 9.255966724263223e+00
1	 1.377248920948684e+00	 5.452402885467222e-01	 6.892924450819429e+00
1	 1.387783057430453e+00	 5.178414313327055e-01	 7.367033154419701e+00
1	 1.397730492535703e+00	 4.903580658262860e-01	 7.788091486912515e+00
1	 1.407092849877375e+00	 4.628080318020954e-01	 8.157623303128551e+00
1	 1.415872433287424e+00	 4.352089327289496e-01	 8.477249718097863e+00
1	 1.424072206805141e+00	 4.075781057310494e-01	 8.748679971571335e+00
1	 1.431695773237377e+00	 3.799325931770451e-01	 8.973702208445843e+00
1	 1.438747351426977e+00	 3.522891159623768e-01	 9.154174234199306e+00
1	 1.445231752367679e+00	 3.246640485384397e-01	 9.292014301956616e+00
1	 1.451154354304660e+00	 2.970733957303936e-01	 9.389191984923494e+00
1	 1.456521076959809e+00	 2.695327713739391e-01	 9.447719184695613e+00
1	 1.371437744065466e+00	 5.429396966129748e-01	 7.130532194012781e+00
1	 1.381927432713729e+00	 5.156564463910716e-01	 7.598797606048757e+00
1	 1.391832895518768e+00	 4.882890444519090e-01	 8.014479592082928e+00
1	 1.401155749242835e+00	 4.608552552968077e-01	 8.379060155757172e+00
1	 1.409898287997076e+00	 4.333726081183433e-01	 8.694117768872422e+00
1	 1.418063463314284e+00	 4.058583668882925e-01	 8.961318442195907e+00
1	 1.425654862799595e+00	 3.783295020665763e-01	 9.182406708142437e+00
1	 1.432676687494829e+00	 3.508026639963324e-01	 9.359196573302139e+00
1	 1.439133728094169e+00	 3.232941580384427e-01	 9.493562496392027e+00
1	 1.445031340149774e+00	 2.958199214871580e-01	 9.587430444420622e+00
1	 1.450375418405802e+00	 2.683955022970143e-01	 9.642769076725603e+00
1	 1.365626567181759e+00	 5.406391046787378e-01	 7.370118532546469e+00
1	 1.376071807996610e+00	 5.134714614490370e-01	 7.832663573006692e+00
1	 1.385935298501522e+00	 4.862200230771998e-01	 8.243095791050958e+00
1	 1.395218648608058e+00	 4.589024787912353e-01	 8.602855067348909e+00
1	 1.403924142706555e+00	 4.315362835074789e-01	 8.913476956176371e+00
1	 1.412054719823309e+00	 4.041386280452838e-01	 9.176583963488049e+00
1	 1.419613952361739e+00	 3.767264109558419e-01	 9.393876732810650e+00
1	 1.426606023562639e+00	 3.493162120299890e-01	 9.567125195789968e+00
1	 1.433035703820640e+00	 3.219242675380937e-01	 9.698159741922055e+00
1	 1.438908325994883e+00	 2.945664472434983e-01	 9.788862459305346e+00
1	 1.444229759851796e+00	 2.672582332195749e-01	 9.841158495223183e+00
1	 1.359815390297562e+00	 5.383385127440108e-01	 7.611708833026981e+00
1	 1.370216183279096e+00	 5.112864765066020e-01	 8.068657997797199e+00
1	 1.380037701483965e+00	 4.841510017021582e-01	 8.473968649121101e+00
1	 1.389281547973045e+00	 4.569497022853781e-01	 8.829038269428239e+00
1	 1.397949997415860e+00	 4.296999588963560e-01	 9.135359217656742e+00
1	 1.406045976332214e+00	 4.024188892020231e-01	 9.394510215583672e+00
1	 1.413573041923806e+00	 3.751233198448421e-01	 9.608147737897813e+00
1	 1.420535359630405e+00	 3.478297600633463e-01	 9.777997361705111e+00
1	 1.426937679547092e+00	 3.205543770373926e-01	 9.905845128944208e+00
1	 1.432785311839987e+00	 2.933129729994147e-01	 9.993528972594083e+00
1	 1.438084101297789e+00	 2.661209641416208e-01	 1.004293025462869e+01
1	 1.354004213412876e+00	 5.360379208087942e-01	 7.855328897539088e+00
1	 1.364360558561187e+00	 5.091014915637666e-01	 8.306808285456276e+00
1	 1.374140104466097e+00	 4.820819803267847e-01	 8.707127221989371e+00
1	 1.383344447337794e+00	 4.549969257792358e-01	 9.057640512515805e+00
1	 1.391975852124992e+00	 4.278636342849751e-01	 9.359797039246395e+00
1	 1.400037232840998e+00	 4.006991503585107e-01	 9.615131456818432e+00
1	 1.407532131485797e+00	 3.735202287335763e-01	 9.825255787528581e+00
1	 1.414464695698130e+00	 3.463433080964047e-01	 9.991850970747237e+00
1	 1.420839655273525e+00	 3.191844865363396e-01	 1.011665841893555e+01
1	 1.426662297685087e+00	 2.920594987549071e-01	 1.020147163018757e+01
1	 1.431938442743783e+00	 2.649836950631520e-01	 1.024812790439424e+01
1	 1.348193036527699e+00	 5.337373288730880e-01	 8.101004973031104e+00
1	 1.358504933842883e+00	 5.069165066205311e-01	 8.547142313520560e+00
1	 1.368242507447919e+00	 4.800129589510788e-01	 8.942601066312072e+00
1	 1.377407346702306e+00	 4.530441492728086e-01	 9.288693077313649e+00
1	 1.386001706833951e+00	 4.260273096733360e-01	 9.586823466980453e+00
1	 1.394028489349664e+00	 3.989794115147463e-01	 9.838482536188927e+00
1	 1.401491221047711e+00	 3.719171376220451e-01	 1.004523756762272e+01
1	 1.408394031765811e+00	 3.448568561291639e-01	 1.020872457605908e+01
1	 1.414741630999940e+00	 3.178145960349346e-01	 1.033064005891602e+01
1	 1.420539283530182e+00	 2.908060245099755e-01	 1.041273279601936e+01
1	 1.425792784189777e+00	 2.638464259841686e-01	 1.045679574482454e+01
1	 1.342381859642033e+00	 5.314367369368920e-01	 8.348763760943953e+00
1	 1.352649309124184e+00	 5.047315216768949e-01	 8.789688442254558e+00
1	 1.362344910429429e+00	 4.779439375750408e-01	 9.180420250549098e+00
1	 1.371470246066583e+00	 4.510913727660967e-01	 9.522227786180967e+00
1	 1.380027561542737e+00	 4.241909850614388e-01	 9.816472119119755e+00
1	 1.388019745858210e+00	 3.972596726707299e-01	 1.006459890613760e+01
1	 1.395450310609549e+00	 3.703140465102482e-01	 1.026813039935405e+01
1	 1.402323367833450e+00	 3.433704041616241e-01	 1.042865739837025e+01
1	 1.408643606726335e+00	 3.164447055331776e-01	 1.054783119628670e+01
1	 1.414416269375272e+00	 2.895525502646199e-01	 1.062735556759741e+01
1	 1.419647125635770e+00	 2.627091569046704e-01	 1.066897884332905e+01
1	 1.336570682755877e+00	 5.291361450002061e-01	 8.598632427091516e+00
1	 1.346793684405089e+00	 5.025465367328583e-01	 9.034475525144870e+00
1	 1.356447313410629e+00	 4.758749161986704e-01	 9.420615366090093e+00
1	 1.365533145430621e+00	 4.491385962590996e-01	 9.758277014909337e+00
1	 1.374053416251349e+00	 4.223546604492830e-01	 1.004877719859057e+01
1	 1.382011002366635e+00	 3.955399338264617e-01	 1.029351663567110e+01
1	 1.389409400171311e+00	 3.687109553981858e-01	 1.049397225296033e+01
1	 1.396252703901046e+00	 3.418839521937849e-01	 1.065168934050988e+01
1	 1.402545582452712e+00	 3.150748150310683e-01	 1.076827369405557e+01
1	 1.408293255220358e+00	 2.882990760188403e-01	 1.084538379195163e+01
1	 1.413501467081763e+00	 2.615718878246577e-01	 1.088472305109815e+01
1	 1.474958052621829e+00	 2.729445786016254e-01	 8.882189226616724e+00
1	 1.479836308883957e+00	 2.451213962366573e-01	 9.303654075652327e+00
1	 1.484165175720690e+00	 2.173792335174866e-01	 9.689603815637540e+00
1	 1.487952129393421e+00	 1.897326029512245e-01	 1.004000058455161e+01
1	 1.491205083986602e+00	 1.621955532186825e-01	 1.035489864842303e+01
1	 1.493932362918601e+00	 1.347816568308549e-01	 1.063444068080273e+01
1	 1.496142670358577e+00	 1.075039995905293e-01	 1.087885382155514e+01
1	 1.497845062665731e+00	 8.037517182124801e-02	 1.108844554834906e+01
1	 1.499048919961329e+00	 5.340726131856331e-02	 1.126359939362590e+01
1	 1.499763917937484e+00	 2.661184797196278e-02	 1.140477053897436e+01
1	 1.500000000000000e+00	 0.000000000000000e+00	 1.151248131777484e+01
1	 1.468812394067822e+00	 2.718073095262447e-01	 9.067470305074998e+00
1	 1.473670324262468e+00	 2.441000570882886e-01	 9.492877930460565e+00
1	 1.477981154154292e+00	 2.164734867141082e-01	 9.881521164132110e+00
1	 1.481752328853600e+00	 1.889420504420376e-01	 1.023339425285582e+01
1	 1.484991729469493e+00	 1.615197384167213e-01	 1.054858597414795e+01
1	 1.487707644739430e+00	 1.342200665970273e-01	 1.082727569748977e+01
1	 1.489908742565198e+00	 1.070560662615682e-01	 1.106972922496930e+01
1	 1.491604041571168e+00	 8.004027527420814e-02	 1.127629444597712e+01
1	 1.492802882794769e+00	 5.318473106468773e-02	 1.144739683989790e+01
1	 1.493514901612731e+00	 2.650096527295846e-02	 1.158353485980242e+01
1	 1.493750000000000e+00	 0.000000000000000e+00	 1.168527522898902e+01
1	 1.462666735513815e+00	 2.706700404503492e-01	 9.255966724263223e+00
1	 1.467504339640978e+00	 2.430787179393214e-01	 9.685289065640610e+00
1	 1.471797132587894e+00	 2.155677399100789e-01	 1.007658908360783e+01
1	 1.475552528313780e+00	 1.881514979321786e-01	 1.042989335002521e+01
1	 1.478778374952386e+00	 1.608439236140972e-01	 1.074532538301229e+01
1	 1.481482926560260e+00	 1.336584763625762e-01	 1.102310148873016e+01
1	 1.483674814771819e+00	 1.066081329320522e-01	 1.126352638270024e+01
1	 1.485363020476606e+00	 7.970537872671057e-02	 1.146698862654011e+01
1	 1.486556845628210e+00	 5.296220081047985e-02	 1.163395591522548e+01
1	 1.487265885287979e+00	 2.639008257377460e-02	 1.176497024896635e+01
1	 1.487500000000000e+00	 0.000000000000000e+00	 1.186064302253651e+01
1	 1.456521076959809e+00	 2.695327713739391e-01	 9.447719184695613e+00
1	 1.461338355019488e+00	 2.420573787897555e-01	 9.880927826512725e+00
1	 1.465613111021495e+00	 2.146619931053986e-01	 1.027484745470968e+01
1	 1.469352727773960e+00	 1.873609454216476e-01	 1.062953718528608e+01
1	 1.472565020435278e+00	 1.601681088108104e-01	 1.094515550898051e+01
1	 1.475258208381089e+00	 1.330968861275016e-01	 1.122195591243061e+01
1	 1.477440886978440e+00	 1.061601996019813e-01	 1.146028227898140e+01
1	 1.479121999382043e+00	 7.937048217875538e-02	 1.166056410627985e+01
1	 1.480310808461651e+00	 5.273967055593966e-02	 1.182331157694099e+01
1	 1.481016868963226e+00	 2.627919987441123e-02	 1.194911051746070e+01
1	 1.481250000000000e+00	 0.000000000000000e+00	 1.203861727920966e+01
1	 1.450375418405802e+00	 2.683955022970143e-01	 9.642769076725603e+00
1	 1.455172370397999e+00	 2.410360396395911e-01	 1.007983524221610e+01
1	 1.459429089455098e+00	 2.137562463000676e-01	 1.047633683402561e+01
1	 1.463152927234140e+00	 1.865703929104444e-01	 1.083236573412266e+01
1	 1.466351665918169e+00	 1.594922940068609e-01	 1.114811564082987e+01
1	 1.469033490201919e+00	 1.325352958918034e-01	 1.142387746815749e+01
1	 1.471206959185062e+00	 1.057122662713554e-01	 1.166003452489774e+01
1	 1.472880978287481e+00	 7.903558563034255e-02	 1.185705751188293e+01
1	 1.474064771295092e+00	 5.251714030106721e-02	 1.201549937487410e+01
1	 1.474767852638473e+00	 2.616831717486832e-02	 1.213599004934778e+01
1	 1.475000000000000e+00	 0.000000000000000e+00	 1.221923113201777e+01
1	 1.444229759851796e+00	 2.672582332195749e-01	 9.841158495223183e+00
1	 1.449006385776509e+00	 2.400147004888281e-01	 1.028205304025823e+01
1	 1.453245067888700e+00	 2.128504994940856e-01	 1.068109846846849e+01
1	 1.456953126694319e+00	 1.857798403985692e-01	 1.103841965245295e+01
1	 1.460138311401061e+00	 1.588164792022485e-01	 1.135424573608287e+01
1	 1.462808772022749e+00	 1.319737056554817e-01	 1.162890531078883e+01
1	 1.464973031391683e+00	 1.052643329401746e-01	 1.186282137172283e+01
1	 1.466639957192919e+00	 7.870068908147207e-02	 1.205650609346899e+01
1	 1.467818734128532e+00	 5.229461004586243e-02	 1.221055546395790e+01
1	 1.468518836313720e+00	 2.605743447514590e-02	 1.232564381395081e+01
1	 1.468750000000000e+00	 0.000000000000000e+00	 1.240251827793635e+01
1	 1.438084101297789e+00	 2.661209641416208e-01	 1.004293025462869e+01
1	 1.442840401155020e+00	 2.389933613374665e-01	 1.048762366143731e+01
1	 1.447061046322302e+00	 2.119447526874528e-01	 1.088917431002662e+01
1	 1.450753326154499e+00	 1.849892878860217e-01	 1.124774029116800e+01
1	 1.453924956883954e+00	 1.581406643969734e-01	 1.156358643529659e+01
1	 1.456584053843578e+00	 1.314121154185365e-01	 1.183707926451700e+01
1	 1.458739103598304e+00	 1.048163996084388e-01	 1.206868172459840e+01
1	 1.460398936098356e+00	 7.836579253214392e-02	 1.225894773791197e+01
1	 1.461572696961973e+00	 5.207207979032538e-02	 1.240851661715877e+01
1	 1.462269819988967e+00	 2.594655177524395e-02	 1.251810737835910e+01
1	 1.462500000000000e+00	 0.000000000000000e+00	 1.258851298995769e+01
1	 1.431938442743783e+00	 2.649836950631520e-01	 1.024812790439424e+01
1	 1.436674416533530e+00	 2.379720221855063e-01	 1.069659027514875e+01
1	 1.440877024755904e+00	 2.110390058801691e-01	 1.110060703089410e+01
1	 1.444553525614678e+00	 1.841987353728023e-01	 1.146036971104528e+01
1	 1.447711602366846e+00	 1.574648495910355e-01	 1.177617907672012e+01
1	 1.450359335664408e+00	 1.308505251809678e-01	 1.204843983721141e+01
1	 1.452505175804926e+00	 1.043684662761481e-01	 1.227765515656552e+01
1	 1.454157915003794e+00	 7.803089598235814e-02	 1.246442098250428e+01
1	 1.455326659795414e+00	 5.184954953445601e-02	 1.260942023873865e+01
1	 1.456020803664215e+00	 2.583566907516248e-02	 1.271341692025597e+01
1	 1.456250000000000e+00	 0.000000000000000e+00	 1.277725012945178e+01
1	 1.425792784189777e+00	 2.638464259841686e-01	 1.045679574482454e+01
1	 1.430508431912041e+00	 2.369506830329475e-01	 1.090899679508804e+01
1	 1.434693003189506e+00	 2.101332590722345e-01	 1.131544003899240e+01
1	 1.438353725074858e+00	 1.834081828589108e-01	 1.167635069804818e+01
1	 1.441498247849738e+00	 1.567890347844348e-01	 1.199206571133097e+01
1	 1.444134617485237e+00	 1.302889349427756e-01	 1.226302823515310e+01
1	 1.446271248011547e+00	 1.039205329433025e-01	 1.248978192295920e+01
1	 1.447916893909232e+00	 7.769599943211468e-02	 1.267296502897444e+01
1	 1.449080622628854e+00	 5.162701927825435e-02	 1.281330437786066e+01
1	 1.449771787339461e+00	 2.572478637490147e-02	 1.291160924107805e+01
1	 1.450000000000000e+00	 0.000000000000000e+00	 1.296876515884681e+01
1	 1.419647125635770e+00	 2.627091569046704e-01	 1.066897884332905e+01
1	 1.424342447290551e+00	 2.359293438797901e-01	 1.112488789536071e+01
1	 1.428508981623108e+00	 2.092275122636490e-01	 1.153371749389534e+01
1	 1.432153924535038e+00	 1.826176303443472e-01	 1.189572677902251e+01
1	 1.435284893332630e+00	 1.561132199771714e-01	 1.221128911826213e+01
1	 1.437909899306067e+00	 1.297273447039599e-01	 1.248088637815184e+01
1	 1.440037320218168e+00	 1.034725996099020e-01	 1.270510297617654e+01
1	 1.441675872814669e+00	 7.736110288141360e-02	 1.288461975786895e+01
1	 1.442834585462295e+00	 5.140448902172040e-02	 1.302020774254797e+01
1	 1.443522771014709e+00	 2.561390367446094e-02	 1.311272177951637e+01
1	 1.443750000000000e+00	 0.000000000000000e+00	 1.316309415463918e+01
1	 1.413501467081763e+00	 2.615718878246577e-01	 1.088472305109815e+01
1	 1.418176462669061e+00	 2.349080047260341e-01	 1.134430902701341e+01
1	 1.422324960056710e+00	 2.083217654544126e-01	 1.175548432316936e+01
1	 1.425954123995218e+00	 1.818270778291114e-01	 1.211854223780266e+01
1	 1.429071538815522e+00	 1.554374051692452e-01	 1.243389282063153e+01
1	 1.431685181126896e+00	 1.291657544645206e-01	 1.270205691505752e+01
1	 1.433803392424789e+00	 1.030246662759465e-01	 1.292365998083039e+01
1	 1.435434851720107e+00	 7.702620633025485e-02	 1.309942574330907e+01
1	 1.436588548295736e+00	 5.118195876485414e-02	 1.323016971400688e+01
1	 1.437273754689956e+00	 2.550302097384089e-02	 1.331679262536965e+01
1	 1.437500000000000e+00	 0.000000000000000e+00	 1.336027382074263e+01
1	 0.000000000000000e+00	 1.437500000000000e+00	-3.576513684950645e+01
1	 2.550302097384099e-02	 1.437273754689956e+00	-3.635827942622944e+01
1	 5.118195876485433e-02	 1.436588548295736e+00	-3.689172138745391e+01
1	 7.702620633025513e-02	 1.435434851720107e+00	-3.736359384894855e+01
1	 1.030246662759468e-01	 1.433803392424789e+00	-3.777216176542100e+01
1	 1.291657544645211e-01	 1.431685181126896e+00	-3.811583650411767e+01
1	 1.554374051692458e-01	 1.429071538815522e+00	-3.839318837041665e+01
1	 1.818270778291120e-01	 1.425954123995217e+00	-3.860295900671579e+01
1	 2.083217654544133e-01	 1.422324960056710e+00	-3.874407358182045e+01
1	 2.349080047260349e-01	 1.418176462669061e+00	-3.881565268439206e+01
1	 2.615718878246577e-01	 1.413501467081764e+00	-3.881702383095710e+01
1	 0.000000000000000e+00	 1.431250000000000e+00	-3.605166460367811e+01
1	 2.539213827322094e-02	 1.431024738365205e+00	-3.663712282812396e+01
1	 5.095942850798810e-02	 1.430342511129186e+00	-3.716675284069660e+01
1	 7.669130977909637e-02	 1.429193830625565e+00	-3.763881479615926e+01
1	 1.025767329419913e-01	 1.427569464631447e+00	-3.805169374560497e+01
1	 1.286041642250818e-01	 1.425460462947784e+00	-3.840391130653573e+01
1	 1.547615903613195e-01	 1.422858184298499e+00	-3.869413728414391e+01
1	 1.810365253138764e-01	 1.419754323455515e+00	-3.892120117059462e+01
1	 2.074160186451769e-01	 1.416140938490466e+00	-3.908410344532768e+01
1	 2.338866655722789e-01	 1.412010478047767e+00	-3.918202659605068e+01
1	 2.604346187446449e-01	 1.407355808527999e+00	-3.921434577729154e+01
1	 0.000000000000000e+00	 1.425000000000000e+00	-3.633966937478120e+01
1	 2.528125557278041e-02	 1.424775722040459e+00	-3.691721788879308e+01
1	 5.073689825145413e-02	 1.424096473962654e+00	-3.744284494692283e+01
1	 7.635641322839526e-02	 1.422952809531066e+00	-3.791494077688038e+01
1	 1.021287996085908e-01	 1.421335536838181e+00	-3.833201151629113e+01
1	 1.280425739862661e-01	 1.419235744768790e+00	-3.869268997433377e+01
1	 1.540857755540562e-01	 1.416644829781646e+00	-3.899574634375742e+01
1	 1.802459727993128e-01	 1.413554522916044e+00	-3.924009879560158e+01
1	 2.065102718365914e-01	 1.409956916924528e+00	-3.942482388547591e+01
1	 2.328653264191215e-01	 1.405844493426863e+00	-3.954916669721895e+01
1	 2.592973496651468e-01	 1.401210149974721e+00	-3.961255064719254e+01
1	 0.000000000000000e+00	 1.418750000000000e+00	-3.662917068286315e+01
1	 2.517037287251941e-02	 1.418526705715718e+00	-3.719858114998322e+01
1	 5.051436799525248e-02	 1.417850436796141e+00	-3.772001172357284e+01
1	 7.602151667815184e-02	 1.416711788436608e+00	-3.819198375190665e+01
1	 1.016808662757451e-01	 1.415101609044989e+00	-3.861312546237535e+01
1	 1.274809837480738e-01	 1.413011026589914e+00	-3.898218180969674e+01
1	 1.534099607474555e-01	 1.410431475264965e+00	-3.929802427365176e+01
1	 1.794554202854212e-01	 1.407354722376807e+00	-3.955966054421731e+01
1	 2.056045250286569e-01	 1.403772895358897e+00	-3.976624402882715e+01
1	 2.318439872665627e-01	 1.399678508806351e+00	-3.991708311374725e+01
1	 2.581600805861634e-01	 1.395064491421928e+00	-4.001165010925153e+01
1	 0.000000000000000e+00	 1.412500000000000e+00	-3.692018839345883e+01
1	 2.505949017243793e-02	 1.412277689390981e+00	-3.748122944621406e+01
1	 5.029183773938312e-02	 1.411604399629646e+00	-3.799826743618358e+01
1	 7.568662012836605e-02	 1.410470767342192e+00	-3.846995589372877e+01
1	 1.012329329434544e-01	 1.408867681251872e+00	-3.889504615255701e+01
1	 1.269193935105052e-01	 1.406786308411155e+00	-3.927239627945017e+01
1	 1.527341459415176e-01	 1.404218120748453e+00	-3.960097995263434e+01
1	 1.786648677722018e-01	 1.401154921837804e+00	-3.987989523224002e+01
1	 2.046987782213731e-01	 1.397588873793573e+00	-4.010837316347494e+01
1	 2.308226481146025e-01	 1.393512524186229e+00	-4.028578615070484e+01
1	 2.570228115076945e-01	 1.388918832869620e+00	-4.041165603858347e+01
1	 0.000000000000000e+00	 1.406250000000000e+00	-3.721274272526832e+01
1	 2.494860747253599e-02	 1.406028673066249e+00	-3.776517991128630e+01
1	 5.006930748384605e-02	 1.405358362463169e+00	-3.827762660390066e+01
1	 7.535172357903788e-02	 1.404229746247817e+00	-3.874886959123719e+01
1	 1.007849996117187e-01	 1.402633753458830e+00	-3.917778434342394e+01
1	 1.263578032735600e-01	 1.400561590232513e+00	-3.956334301871776e+01
1	 1.520583311362425e-01	 1.398004766232112e+00	-3.990462241735872e+01
1	 1.778743152596544e-01	 1.394955121299035e+00	-4.020081183219384e+01
1	 2.037930314147403e-01	 1.391404852228556e+00	-4.045122074263469e+01
1	 2.298013089632409e-01	 1.387346539566497e+00	-4.065528629636135e+01
1	 2.558855424297404e-01	 1.382773174317798e+00	-4.081258052141714e+01
1	 0.000000000000000e+00	 1.400000000000000e+00	-3.750685425803989e+01
1	 2.483772477281356e-02	 1.399779656741521e+00	-3.805044998496118e+01
1	 4.984677722864127e-02	 1.399112325296711e+00	-3.855810400514076e+01
1	 7.501682703016742e-02	 1.397988725153485e+00	-3.902873745455243e+01
1	 1.003370662805379e-01	 1.396399825665862e+00	-3.946135098364530e+01
1	 1.257962130372383e-01	 1.394336872053990e+00	-3.985503183468029e+01
1	 1.513825163316301e-01	 1.391791411715942e+00	-4.020896086584641e+01
1	 1.770837627477791e-01	 1.388755320760499e+00	-4.052241947682617e+01
1	 2.028872846087583e-01	 1.385220830663846e+00	-4.079479638832920e+01
1	 2.287799698124779e-01	 1.381180554947158e+00	-4.102559422627876e+01
1	 2.547482733523010e-01	 1.376627515766460e+00	-4.121443585980582e+01
1	 0.000000000000000e+00	 1.393750000000000e+00	-3.780254394066500e+01
1	 2.472684207327065e-02	 1.393530640416798e+00	-3.833705741982105e+01
1	 4.962424697376880e-02	 1.392866288130272e+00	-3.883971468340400e+01
1	 7.468193048175459e-02	 1.391747704059194e+00	-3.930957231998570e+01
1	 9.988913294991202e-02	 1.390165897872969e+00	-3.974575721827947e+01
1	 1.252346228015402e-01	 1.388112153875584e+00	-4.014747271043124e+01
1	 1.507067015276805e-01	 1.385578057199942e+00	-4.051400466110721e+01
1	 1.762932102365759e-01	 1.382555520222197e+00	-4.084472746270023e+01
1	 2.019815378034272e-01	 1.379036809099443e+00	-4.113910989517371e+01
1	 2.277586306623135e-01	 1.375014570328208e+00	-4.139672080750709e+01
1	 2.536110042753763e-01	 1.370481857215609e+00	-4.161723457646846e+01
1	 0.000000000000000e+00	 1.387500000000000e+00	-3.809983309949257e+01
1	 2.461595937390728e-02	 1.387281624092080e+00	-3.862502028831336e+01
1	 4.940171671922863e-02	 1.386620250963851e+00	-3.912247395324502e+01
1	 7.434703393379939e-02	 1.385506682964945e+00	-3.959138725513269e+01
1	 9.944119961984110e-02	 1.383931970080151e+00	-4.003101439319565e+01
1	 1.246730325664655e-01	 1.381887435697295e+00	-4.044067580893977e+01
1	 1.500308867243937e-01	 1.379364702684112e+00	-4.081976333485228e+01
1	 1.755026577260449e-01	 1.376355719684127e+00	-4.116774525388583e+01
1	 2.010757909987470e-01	 1.372852787535347e+00	-4.148417123426302e+01
1	 2.267372915127477e-01	 1.368848585709649e+00	-4.176867710290005e+01
1	 2.524737351989662e-01	 1.364336198665242e+00	-4.202098941975789e+01
1	 0.000000000000000e+00	 1.381250000000000e+00	-3.839874344686864e+01
1	 2.450507667472343e-02	 1.381032607767366e+00	-3.891435698999043e+01
1	 4.917918646502076e-02	 1.380374213797449e+00	-3.940639740640395e+01
1	 7.401213738630184e-02	 1.379265661870737e+00	-3.987419556410698e+01
1	 9.899326629032512e-02	 1.377698042287408e+00	-4.031713405961921e+01
1	 1.241114423320144e-01	 1.375662717519124e+00	-4.073465147711986e+01
1	 1.493550719217697e-01	 1.373151348168453e+00	-4.112624659131344e+01
1	 1.747121052161859e-01	 1.370155919146292e+00	-4.149148248574718e+01
1	 2.001700441947177e-01	 1.366668765971557e+00	-4.182999055716429e+01
1	 2.257159523637804e-01	 1.362682601091481e+00	-4.214147437554396e+01
1	 2.513364661230708e-01	 1.358190540115361e+00	-4.242571336876678e+01
1	 0.000000000000000e+00	 1.375000000000000e+00	-3.869929708990974e+01
1	 2.439419397571910e-02	 1.374783591442656e+00	-3.920508625893984e+01
1	 4.895665621114516e-02	 1.374128176631064e+00	-3.969150091810788e+01
1	 7.367724083926197e-02	 1.373024640776571e+00	-4.015801079291461e+01
1	 9.854533296136404e-02	 1.371464114494739e+00	-4.060412797879744e+01
1	 1.235498520981868e-01	 1.369437999341071e+00	-4.102941025001240e+01
1	 1.486792571198084e-01	 1.366937993652964e+00	-4.143346431116312e+01
1	 1.739215527069989e-01	 1.363956118608690e+00	-4.181594896883749e+01
1	 1.992642973913392e-01	 1.360484744408075e+00	-4.217657820001831e+01
1	 2.246946132154117e-01	 1.356516616473704e+00	-4.251512409330893e+01
1	 2.501991970476900e-01	 1.352044881565965e+00	-4.283141963857130e+01
1	 2.615718878246577e-01	 1.413501467081764e+00	-3.881702383095710e+01
1	 2.882990915804336e-01	 1.408293249000495e+00	-3.885187162090096e+01
1	 3.150748778981876e-01	 1.402545557375071e+00	-3.893201372257052e+01
1	 3.418840950296664e-01	 1.396252647024258e+00	-3.905744055504154e+01
1	 3.687112117671577e-01	 1.389409298242411e+00	-3.922797238100585e+01
1	 3.955403381725991e-01	 1.382010841813091e+00	-3.944325347513370e+01
1	 4.223552480718684e-01	 1.374053183173338e+00	-3.970274694417372e+01
1	 4.491394032848366e-01	 1.365532825593621e+00	-4.000573026219577e+01
1	 4.758759795506189e-01	 1.356446892238424e+00	-4.035129158181528e+01
1	 5.025478940960710e-01	 1.346793146973256e+00	-4.073832687894792e+01
1	 5.291378347840640e-01	 1.336570013785858e+00	-4.116553798460031e+01
1	 2.604346187446449e-01	 1.407355808527999e+00	-3.921434577729154e+01
1	 2.870456172669926e-01	 1.402170234872911e+00	-3.928444201615785e+01
1	 3.137049871227338e-01	 1.396447533210805e+00	-3.939215231887982e+01
1	 3.403976424407805e-01	 1.390181983339495e+00	-3.953733947396084e+01
1	 3.671081195404093e-01	 1.383368388247709e+00	-3.971972042013535e+01
1	 3.938205975702446e-01	 1.376002099019950e+00	-3.993886171299109e+01
1	 4.205189209047454e-01	 1.368079038895704e+00	-4.019417556625934e+01
1	 4.471866232689136e-01	 1.359595726348614e+00	-4.048491651986642e+01
1	 4.738069535508240e-01	 1.350549297051141e+00	-4.081017878441132e+01
1	 5.003629032502579e-01	 1.340937524591121e+00	-4.116889430872111e+01
1	 5.268372355002470e-01	 1.330758839808522e+00	-4.155983161347454e+01
1	 2.592973496651468e-01	 1.401210149974721e+00	-3.961255064719254e+01
1	 2.857921429539709e-01	 1.396047220745909e+00	-3.971789754367131e+01
1	 3.123350963476132e-01	 1.390349509047206e+00	-3.985311113695146e+01
1	 3.389111898521512e-01	 1.384111319655477e+00	-4.001792555377145e+01
1	 3.655050273138505e-01	 1.377327478253818e+00	-4.021195351241041e+01
1	 3.921008569680220e-01	 1.369993356227676e+00	-4.043468309490495e+01
1	 4.186825937377076e-01	 1.362104894618985e+00	-4.068547501650175e+01
1	 4.452338432530388e-01	 1.353658627104558e+00	-4.096356043305325e+01
1	 4.717379275510507e-01	 1.344651701864838e+00	-4.126803932481132e+01
1	 4.981779124044499e-01	 1.335081902209982e+00	-4.159787949230304e+01
1	 5.245366362164300e-01	 1.324947665832187e+00	-4.195191619671191e+01
1	 2.581600805861634e-01	 1.395064491421928e+00	-4.001165010925153e+01
1	 2.845386686413685e-01	 1.389924206619486e+00	-4.015224990122357e+01
1	 3.109652055728257e-01	 1.384251484884274e+00	-4.031490101671941e+01
1	 3.374247372637782e-01	 1.378040655972200e+00	-4.049920787589370e+01
1	 3.639019350874811e-01	 1.371286568260737e+00	-4.070467806822338e+01
1	 3.903811163659317e-01	 1.363984613436271e+00	-4.093072043775675e+01
1	 4.168462665707548e-01	 1.356130750343181e+00	-4.117664358778245e+01
1	 4.432810632372122e-01	 1.347721527861454e+00	-4.144165483420590e+01
1	 4.696689015512985e-01	 1.338754106679512e+00	-4.172485963479046e+01
1	 4.959929215586474e-01	 1.329226279829837e+00	-4.202526151894835e+01
1	 5.222360369326131e-01	 1.319136491856852e+00	-4.234176253987339e+01
1	 2.570228115076945e-01	 1.388918832869620e+00	-4.041165603858347e+01
1	 2.832851943291854e-01	 1.383801192493646e+00	-4.058751099363604e+01
1	 3.095953147983715e-01	 1.378153460722008e+00	-4.077753298997523e+01
1	 3.359382846756617e-01	 1.371969992289668e+00	-4.098119568248151e+01
1	 3.622988428613012e-01	 1.365245658268468e+00	-4.119790061142616e+01
1	 3.886613757639737e-01	 1.357975870645733e+00	-4.142697660828282e+01
1	 4.150099394038870e-01	 1.350156606068292e+00	-4.166767954276921e+01
1	 4.413282832214335e-01	 1.341784428619302e+00	-4.191919242891529e+01
1	 4.675998755515681e-01	 1.332856511495165e+00	-4.218062590597773e+01
1	 4.938079307128505e-01	 1.323370657450686e+00	-4.245101910781021e+01
1	 5.199354376487961e-01	 1.313325317882516e+00	-4.272934093180459e+01
1	 2.558855424297404e-01	 1.382773174317798e+00	-4.081258052141714e+01
1	 2.820317200174216e-01	 1.377678178368385e+00	-4.102369293737284e+01
1	 3.082254240242503e-01	 1.372055436560409e+00	-4.124101828463117e+01
1	 3.344518320878017e-01	 1.365899328607879e+00	-4.146389837999324e+01
1	 3.606957506353106e-01	 1.359204748277009e+00	-4.169162778184951e+01
1	 3.869416351621479e-01	 1.351967127856063e+00	-4.192345452418437e+01
1	 4.131736122371042e-01	 1.344182461794318e+00	-4.215858111324260e+01
1	 4.393755032057029e-01	 1.335847329378101e+00	-4.239616579309334e+01
1	 4.655308495518590e-01	 1.326958916311796e+00	-4.263532408452053e+01
1	 4.916229398670589e-01	 1.317515035072531e+00	-4.287513059971508e+01
1	 5.176348383649794e-01	 1.307514143909182e+00	-4.311462113315262e+01
1	 2.547482733523010e-01	 1.376627515766460e+00	-4.121443585980582e+01
1	 2.807782457060771e-01	 1.371555164243705e+00	-4.146080806526243e+01
1	 3.068555332504623e-01	 1.365957412399477e+00	-4.170536832909745e+01
1	 3.329653795001982e-01	 1.359828664926834e+00	-4.194732554286018e+01
1	 3.590926584095094e-01	 1.353163838286360e+00	-4.218586633789263e+01
1	 3.852218945604544e-01	 1.345958385067261e+00	-4.242015715526498e+01
1	 4.113372850704064e-01	 1.338208317521259e+00	-4.264934649940937e+01
1	 4.374227231900204e-01	 1.329910230137854e+00	-4.287256737007979e+01
1	 4.634618235521714e-01	 1.321061321129406e+00	-4.308893986560437e+01
1	 4.894379490212726e-01	 1.311659412695370e+00	-4.329757394871913e+01
1	 5.153342390811623e-01	 1.301702969936846e+00	-4.349757236457614e+01
1	 2.536110042753763e-01	 1.370481857215609e+00	-4.161723457646846e+01
1	 2.795247713951519e-01	 1.365432150119606e+00	-4.189886893135040e+01
1	 3.054856424770076e-01	 1.359859388239213e+00	-4.217059475677870e+01
1	 3.314789269128512e-01	 1.353758001246532e+00	-4.243148691725223e+01
1	 3.574895661838977e-01	 1.347122928296522e+00	-4.268062315918171e+01
1	 3.835021539588930e-01	 1.339949642279326e+00	-4.291708752459695e+01
1	 4.095009579037937e-01	 1.332234173249115e+00	-4.313997386919147e+01
1	 4.354699431743858e-01	 1.323973130898557e+00	-4.334838946766777e+01
1	 4.613927975525052e-01	 1.315163725947995e+00	-4.354145868782585e+01
1	 4.872529581754917e-01	 1.305803790319203e+00	-4.371832671343538e+01
1	 5.130336397973453e-01	 1.295891795965511e+00	-4.387816329463802e+01
1	 2.524737351989662e-01	 1.364336198665242e+00	-4.202098941975789e+01
1	 2.782712970846460e-01	 1.359309135996087e+00	-4.233788831588163e+01
1	 3.041157517038861e-01	 1.353761364079615e+00	-4.263670941069096e+01
1	 3.299924743257607e-01	 1.347687337566974e+00	-4.291639242494566e+01
1	 3.558864739584754e-01	 1.341082018307494e+00	-4.317590524930048e+01
1	 3.817824133574639e-01	 1.333940899492260e+00	-4.341424870972372e+01
1	 4.076646307372663e-01	 1.326260028977886e+00	-4.363046135750179e+01
1	 4.335171631587995e-01	 1.318036031660213e+00	-4.382362425505320e+01
1	 4.593237715528603e-01	 1.309266130767562e+00	-4.399286572741461e+01
1	 4.850679673297164e-01	 1.299948167944031e+00	-4.413736604812734e+01
1	 5.107330405135284e-01	 1.290080621995175e+00	-4.425636202737066e+01
1	 2.513364661230708e-01	 1.358190540115361e+00	-4.242571336876678e+01
1	 2.770178227745595e-01	 1.353186121873150e+00	-4.277787923041663e+01
1	 3.027458609310976e-01	 1.347663339920684e+00	-4.310372434820193e+01
1	 3.285060217389267e-01	 1.341616673888160e+00	-4.340205216729716e+01
1	 3.542833817332427e-01	 1.335041108319277e+00	-4.367171973859422e+01
1	 3.800626727561670e-01	 1.327932156706061e+00	-4.391164384388994e+01
1	 4.058283035708236e-01	 1.320285884707572e+00	-4.412080706549478e+01
1	 4.315643831432611e-01	 1.312098932422820e+00	-4.429826375969731e+01
1	 4.572547455532371e-01	 1.303368535588108e+00	-4.444314589229595e+01
1	 4.828829764839461e-01	 1.294092545569854e+00	-4.455466869356100e+01
1	 5.084324412297114e-01	 1.284269448025840e+00	-4.463213608950396e+01
1	 2.501991970476900e-01	 1.352044881565965e+00	-4.283141963857130e+01
1	 2.757643484648922e-01	 1.347063107750792e+00	-4.321885492309146e+01
1	 3.013759701586421e-01	 1.341565315762418e+00	-4.357165184590601e+01
1	 3.270195691523489e-01	 1.335546010210088e+00	-4.388847642932346e+01
1	 3.526802895081991e-01	 1.329000198331870e+00	-4.416807388705082e+01
1	 3.783429321550022e-01	 1.321923413920730e+00	-4.440927611730825e+01
1	 4.039919764044660e-01	 1.314311740438173e+00	-4.461100905980099e+01
1	 4.296116031277709e-01	 1.306161833186380e+00	-4.477229986410649e+01
1	 4.551857195536353e-01	 1.297470940409632e+00	-4.489228381599487e+01
1	 4.806979856381814e-01	 1.288236923196671e+00	-4.497021096760707e+01
1	 5.061318419458944e-01	 1.278458274057504e+00	-4.500545241734498e+01
1	 5.291378347840640e-01	 1.336570013785858e+00	-4.116553798460031e+01
1	 5.556275943759981e-01	 1.325776874316271e+00	-4.124589818118326e+01
1	 5.820001506728447e-01	 1.314413269576606e+00	-4.111584816694001e+01
1	 6.082376927600133e-01	 1.302479705046123e+00	-4.077687232255501e+01
1	 6.343223111380495e-01	 1.289977407618364e+00	-4.023122807773218e+01
1	 6.602360334206515e-01	 1.276908336250702e+00	-3.948195523292457e+01
1	 6.859608609956541e-01	 1.263275190535523e+00	-3.853288146294165e+01
1	 7.114788065102359e-01	 1.249081417104553e+00	-3.738862385471673e+01
1	 7.367719320329839e-01	 1.234331213788282e+00	-3.605458635955635e+01
1	 7.618223877376878e-01	 1.219029531463735e+00	-3.453695307040979e+01
1	 7.866124509469546e-01	 1.203182073536029e+00	-3.284267726676834e+01
1	 5.268372355002470e-01	 1.330758839808522e+00	-4.155983161347454e+01
1	 5.532118222241488e-01	 1.320012627031945e+00	-4.158260155708195e+01
1	 5.794697152325463e-01	 1.308698429269138e+00	-4.139552845462484e+01
1	 6.055931810496087e-01	 1.296816749801627e+00	-4.100017073322559e+01
1	 6.315643880432714e-01	 1.284368810188635e+00	-4.039885668818060e+01
1	 6.573654419680428e-01	 1.271356560870330e+00	-3.959469347389066e+01
1	 6.829784224665935e-01	 1.257782689701740e+00	-3.859157228944338e+01
1	 7.083854203919847e-01	 1.243650628329237e+00	-3.739416961356454e+01
1	 7.335685758038096e-01	 1.228964556331873e+00	-3.600794437165524e+01
1	 7.585101164837982e-01	 1.213729403061125e+00	-3.443913094774124e+01
1	 7.831923968096774e-01	 1.197950847124692e+00	-3.269472798613583e+01
1	 5.245366362164300e-01	 1.324947665832187e+00	-4.195191619671191e+01
1	 5.507960500722996e-01	 1.314248379748614e+00	-4.191691327300273e+01
1	 5.769392797922481e-01	 1.302983588962651e+00	-4.167263968954470e+01
1	 6.029486693392044e-01	 1.291153794558088e+00	-4.122072830439966e+01
1	 6.288064649484935e-01	 1.278760212759828e+00	-4.056357865571923e+01
1	 6.544948505154343e-01	 1.265804785490836e+00	-3.970436562040715e+01
1	 6.799959839375331e-01	 1.252290188868781e+00	-3.864704428020828e+01
1	 7.052920342737334e-01	 1.238219839554681e+00	-3.739635085239477e+01
1	 7.303652195746350e-01	 1.223597898876151e+00	-3.595779957016129e+01
1	 7.551978452299086e-01	 1.208429274659114e+00	-3.433767542786096e+01
1	 7.797723426724000e-01	 1.192719620713861e+00	-3.254302273807908e+01
1	 5.222360369326131e-01	 1.319136491856852e+00	-4.234176253987339e+01
1	 5.483802779204505e-01	 1.308484132466278e+00	-4.224880172110192e+01
1	 5.744088443519498e-01	 1.297268748657144e+00	-4.194714791945759e+01
1	 6.003041576288004e-01	 1.285490839315504e+00	-4.143850881352553e+01
1	 6.260485418537156e-01	 1.273151615331944e+00	-4.072535556656239e+01
1	 6.516242590628256e-01	 1.260253010112220e+00	-3.981093115139972e+01
1	 6.770135454084727e-01	 1.246797688036646e+00	-3.869925489555487e+01
1	 7.021986481554824e-01	 1.232789050780884e+00	-3.739512310618312e+01
1	 7.271618633454607e-01	 1.218231241421112e+00	-3.590410566238240e+01
1	 7.518855739760191e-01	 1.203129146257704e+00	-3.423253849230264e+01
1	 7.763522885351226e-01	 1.187488394303535e+00	-3.238751188426147e+01
1	 5.199354376487961e-01	 1.313325317882516e+00	-4.272934093180459e+01
1	 5.459645057686011e-01	 1.302719885184938e+00	-4.257823473410443e+01
1	 5.718784089116519e-01	 1.291553908352618e+00	-4.221901859119641e+01
1	 5.976596459183959e-01	 1.279827884073877e+00	-4.165347539694542e+01
1	 6.232906187589375e-01	 1.267543017904981e+00	-4.088414832703452e+01
1	 6.487536676102170e-01	 1.254701234734481e+00	-3.991434882860645e+01
1	 6.740311068794120e-01	 1.241305187205334e+00	-3.874816084288700e+01
1	 6.991052620372310e-01	 1.227358262007846e+00	-3.739044112291425e+01
1	 7.239585071162862e-01	 1.212864583966759e+00	-3.584681553628659e+01
1	 7.485733027221292e-01	 1.197829017856894e+00	-3.412367127271596e+01
1	 7.729322343978449e-01	 1.182257167893714e+00	-3.222814490779201e+01
1	 5.176348383649794e-01	 1.307514143909182e+00	-4.311462113315262e+01
1	 5.435487336167518e-01	 1.296955637904592e+00	-4.290517957287205e+01
1	 5.693479734713536e-01	 1.285839068049073e+00	-4.248821653731615e+01
1	 5.950151342079917e-01	 1.274164928833207e+00	-4.186559053564645e+01
1	 6.205326956641597e-01	 1.261934420478941e+00	-4.103991714846174e+01
1	 6.458830761576083e-01	 1.249149459357621e+00	-4.001457668064133e+01
1	 6.710486683503519e-01	 1.235812686374846e+00	-3.879371805996255e+01
1	 6.960118759189797e-01	 1.221927473235567e+00	-3.738225884609199e+01
1	 7.207551508871120e-01	 1.207497926513090e+00	-3.578588124229552e+01
1	 7.452610314682397e-01	 1.192528889456685e+00	-3.401102403197973e+01
1	 7.695121802605678e-01	 1.177025941484399e+00	-3.206487039370207e+01
1	 5.153342390811623e-01	 1.301702969936846e+00	-4.349757236457614e+01
1	 5.411329614649026e-01	 1.291191390625242e+00	-4.322960291364036e+01
1	 5.668175380310554e-01	 1.280124227746509e+00	-4.275470596238154e+01
1	 5.923706224975875e-01	 1.268501973593493e+00	-4.207481604063419e+01
1	 6.177747725693817e-01	 1.256325823053822e+00	-4.119262153165737e+01
1	 6.430124847049998e-01	 1.243597683981639e+00	-4.011157198662959e+01
1	 6.680662298212912e-01	 1.230320185545182e+00	-3.883588169771372e+01
1	 6.929184898007283e-01	 1.216496684464047e+00	-3.737052939678379e+01
1	 7.175517946579376e-01	 1.202131269060107e+00	-3.572125397458776e+01
1	 7.419487602143505e-01	 1.187228761057075e+00	-3.389454614480985e+01
1	 7.660921261232903e-01	 1.171794715075589e+00	-3.189763600889806e+01
1	 5.130336397973453e-01	 1.295891795965511e+00	-4.387816329463802e+01
1	 5.387171893130535e-01	 1.285427143346887e+00	-4.355147083490788e+01
1	 5.642871025907571e-01	 1.274409387444924e+00	-4.301845042888618e+01
1	 5.897261107871833e-01	 1.262839018354735e+00	-4.228111303791005e+01
1	 6.150168494746040e-01	 1.250717225629627e+00	-4.134222025099285e+01
1	 6.401418932523909e-01	 1.238045908606535e+00	-4.020529125940189e+01
1	 6.650837912922308e-01	 1.224827684716341e+00	-3.887460610260472e+01
1	 6.898251036824774e-01	 1.211065895693288e+00	-3.735520505517838e+01
1	 7.143484384287632e-01	 1.196764611607808e+00	-3.565288405190154e+01
1	 7.386364889604607e-01	 1.181928632658066e+00	-3.377418607784578e+01
1	 7.626720719860126e-01	 1.166563488667284e+00	-3.172638848157661e+01
1	 5.107330405135284e-01	 1.290080621995175e+00	-4.425636202737066e+01
1	 5.363014171612043e-01	 1.279662896069527e+00	-4.387074880397560e+01
1	 5.617566671504590e-01	 1.268694547144321e+00	-4.327941284279277e+01
1	 5.870815990767788e-01	 1.257176063116934e+00	-4.248444195304210e+01
1	 6.122589263798260e-01	 1.245108628206353e+00	-4.148867133803454e+01
1	 6.372713017997825e-01	 1.232494133232308e+00	-4.029569022823687e+01
1	 6.621013527631703e-01	 1.219335183888324e+00	-3.890984479851399e+01
1	 6.867317175642261e-01	 1.205635106923288e+00	-3.733623724164873e+01
1	 7.111450821995887e-01	 1.191397954156194e+00	-3.558072089781683e+01
1	 7.353242177065711e-01	 1.176628504259656e+00	-3.364989136919766e+01
1	 7.592520178487352e-01	 1.161332262259484e+00	-3.155107358008190e+01
1	 5.084324412297114e-01	 1.284269448025840e+00	-4.463213608950396e+01
1	 5.338856450093552e-01	 1.273898648793163e+00	-4.418740166311891e+01
1	 5.592262317101607e-01	 1.262979706844699e+00	-4.353755543867849e+01
1	 5.844370873663745e-01	 1.251513107880088e+00	-4.268476249532034e+01
1	 6.095010032850482e-01	 1.239500030784001e+00	-4.163193206473998e+01
1	 6.344007103471738e-01	 1.226942357858960e+00	-4.038272382113327e+01
1	 6.591189142341097e-01	 1.213842683061131e+00	-3.894155046812295e+01
1	 6.836383314459747e-01	 1.200204318154046e+00	-3.731357649729801e+01
1	 7.079417259704144e-01	 1.186031296705265e+00	-3.550471302050389e+01
1	 7.320119464526817e-01	 1.171328375861848e+00	-3.352160860743904e+01
1	 7.558319637114578e-01	 1.156101035852190e+00	-3.137163609118980e+01
1	 5.061318419458944e-01	 1.278458274057504e+00	-4.500545241734497e+01
1	 5.314698728575059e-01	 1.268134401517793e+00	-4.450139361538027e+01
1	 5.566957962698624e-01	 1.257264866546057e+00	-4.379283976447603e+01
1	 5.817925756559704e-01	 1.245850152644200e+00	-4.288203364147535e+01
1	 6.067430801902702e-01	 1.233891433362571e+00	-4.177195892619293e+01
1	 6.315301188945651e-01	 1.221390582486489e+00	-4.046634614659879e+01
1	 6.561364757050491e-01	 1.208350182234761e+00	-3.896967493379839e+01
1	 6.805449453277234e-01	 1.194773529385564e+00	-3.728717246397764e+01
1	 7.047383697412398e-01	 1.180664639255021e+00	-3.542480799191734e+01
1	 7.286996751987920e-01	 1.166028247464639e+00	-3.338928341002707e+01
1	 7.524119095741802e-01	 1.150869809445401e+00	-3.118801979779950e+01
1	 7.866124509469546e-01	 1.203182073536029e+00	-3.284267726676835e+01
1	 8.111251775529934e-01	 1.186794888159866e+00	-3.048607950313678e+01
1	 8.353425727659858e-01	 1.169875588985511e+00	-2.818536952970302e+01
1	 8.592475296908754e-01	 1.152432110203077e+00	-2.594073519359434e+01
1	 8.828232249829499e-01	 1.134473112172815e+00	-2.375209089912992e+01
1	 9.060531571065823e-01	 1.116007968725669e+00	-2.161907780873000e+01
1	 9.289211839045051e-01	 1.097046752058309e+00	-1.954106558880079e+01
1	 9.514115593018583e-01	 1.077600215267147e+00	-1.751715570133646e+01
1	 9.735089689726262e-01	 1.057679772580496e+00	-1.554618622868591e+01
1	 9.951985648008399e-01	 1.037297477362328e+00	-1.362673820561620e+01
1	 1.016465997975000e+00	 1.016465997975000e+00	-1.175714341967548e+01
1	 7.831923968096774e-01	 1.197950847124692e+00	-3.269472798613583e+01
1	 8.075985463436554e-01	 1.181634910380909e+00	-3.032293978174564e+01
1	 8.317106485340967e-01	 1.164789173377168e+00	-2.801129486319357e+01
1	 8.555116708637485e-01	 1.147421535807099e+00	-2.575993986041091e+01
1	 8.789848631328764e-01	 1.129540620377217e+00	-2.356873264111190e+01
1	 9.021137955516593e-01	 1.111155760162678e+00	-2.143724260599116e+01
1	 9.248823961461227e-01	 1.092276983567990e+00	-1.936475261021049e+01
1	 9.472749873026012e-01	 1.072914996936974e+00	-1.735026251164867e+01
1	 9.692763212791057e-01	 1.053081164870863e+00	-1.539249433241674e+01
1	 9.908716145166926e-01	 1.032787488327698e+00	-1.348989900615073e+01
1	 1.012046580590000e+00	 1.012046580590000e+00	-1.164066466978644e+01
1	 7.797723426724000e-01	 1.192719620713861e+00	-3.254302273807908e+01
1	 8.040719151343172e-01	 1.176474932602363e+00	-3.015627882866701e+01
1	 8.280787243022070e-01	 1.159702757769148e+00	-2.783396985279178e+01
1	 8.517758120366214e-01	 1.142410961411371e+00	-2.557620090249263e+01
1	 8.751465012828025e-01	 1.124608128581802e+00	-2.338277289382827e+01
1	 8.981744339967360e-01	 1.106303551599813e+00	-2.125318295696139e+01
1	 9.208436083877402e-01	 1.087507215077753e+00	-1.918662653429872e+01
1	 9.431384153033441e-01	 1.068229778606848e+00	-1.718200118690006e+01
1	 9.650436735855850e-01	 1.048482557161251e+00	-1.523791209470426e+01
1	 9.865446642325454e-01	 1.028277499293074e+00	-1.335267922145289e+01
1	 1.007627163205000e+00	 1.007627163205000e+00	-1.152434610071290e+01
1	 7.763522885351226e-01	 1.187488394303535e+00	-3.238751188426147e+01
1	 8.005452839249789e-01	 1.171314954824226e+00	-2.998605010779900e+01
1	 8.244468000703176e-01	 1.154616342161453e+00	-2.765335154241101e+01
1	 8.480399532094949e-01	 1.137400387015891e+00	-2.538947941730981e+01
1	 8.713081394327287e-01	 1.119675636786571e+00	-2.319417727636416e+01
1	 8.942350724418129e-01	 1.101451343037076e+00	-2.106686946367273e+01
1	 9.168048206293576e-01	 1.082737446587597e+00	-1.900666339942735e+01
1	 9.390018433040870e-01	 1.063544560276767e+00	-1.701235364601112e+01
1	 9.608110258920644e-01	 1.043883949451659e+00	-1.508242774892144e+01
1	 9.822177139483982e-01	 1.023767510258454e+00	-1.321507382176191e+01
1	 1.003207745820000e+00	 1.003207745820000e+00	-1.140818982938212e+01
1	 7.729322343978449e-01	 1.182257167893714e+00	-3.222814490779201e+01
1	 7.970186527156409e-01	 1.166154977046500e+00	-2.981220625939213e+01
1	 8.208148758384282e-01	 1.149529926554083e+00	-2.746939621568007e+01
1	 8.443040943823678e-01	 1.132389812620660e+00	-2.519973581379301e+01
1	 8.674697775826545e-01	 1.114743144991522e+00	-2.300291079929237e+01
1	 8.902957108868896e-01	 1.096599134474466e+00	-2.087827220783836e+01
1	 9.127660328709749e-01	 1.077967678097523e+00	-1.882483881985822e+01
1	 9.348652713048298e-01	 1.058859341946732e+00	-1.684130148788258e+01
1	 9.565783781985440e-01	 1.039285341742087e+00	-1.492602932018254e+01
1	 9.778907636642505e-01	 1.019257521223839e+00	-1.307707768829477e+01
1	 9.987883284350003e-01	 9.987883284350003e-01	-1.129219801018895e+01
1	 7.695121802605678e-01	 1.177025941484399e+00	-3.206487039370207e+01
1	 7.934920215063027e-01	 1.160994999269183e+00	-2.963469908174643e+01
1	 8.171829516065386e-01	 1.144443510947037e+00	-2.728205937904792e+01
1	 8.405682355552407e-01	 1.127379238225678e+00	-2.500692979703129e+01
1	 8.636314157325808e-01	 1.109810653196657e+00	-2.280893785115189e+01
1	 8.863563493319668e-01	 1.091746925911984e+00	-2.068736073929162e+01
1	 9.087272451125925e-01	 1.073197909607530e+00	-1.864112797632875e+01
1	 9.307286993055733e-01	 1.054174123616743e+00	-1.666882598428494e+01
1	 9.523457305050231e-01	 1.034686734032536e+00	-1.476870462071490e+01
1	 9.735638133801036e-01	 1.014747532189230e+00	-1.293868561126789e+01
1	 9.943689110499999e-01	 9.943689110499999e-01	-1.117637283582841e+01
1	 7.660921261232903e-01	 1.171794715075589e+00	-3.189763600889805e+01
1	 7.899653902969647e-01	 1.155835021492277e+00	-2.945347951241624e+01
1	 8.135510273746493e-01	 1.139357095340316e+00	-2.709129574443557e+01
1	 8.368323767281139e-01	 1.122368663830946e+00	-2.481102035256184e+01
1	 8.597930538825070e-01	 1.104878161401975e+00	-2.261222218456268e+01
1	 8.824169877770435e-01	 1.086894717349629e+00	-2.049410406411256e+01
1	 9.046884573542101e-01	 1.068428141117620e+00	-1.845550560637557e+01
1	 9.265921273063161e-01	 1.049488905286800e+00	-1.649490807255555e+01
1	 9.481130828115029e-01	 1.030088126323006e+00	-1.461044124510705e+01
1	 9.692368630959565e-01	 1.010237543154626e+00	-1.279989228786572e+01
1	 9.899494936650000e-01	 9.899494936650000e-01	-1.106071653815088e+01
1	 7.626720719860126e-01	 1.166563488667284e+00	-3.172638848157661e+01
1	 7.864387590876262e-01	 1.150675043715781e+00	-2.926849760891280e+01
1	 8.099191031427597e-01	 1.134270679733920e+00	-2.689705921142204e+01
1	 8.330965179009869e-01	 1.117358089436461e+00	-2.461196573023648e+01
1	 8.559546920324334e-01	 1.099945669607476e+00	-2.241272690196759e+01
1	 8.784776262221206e-01	 1.082042508787401e+00	-2.029847063243636e+01
1	 9.006496695958276e-01	 1.063658372627790e+00	-1.826794599439672e+01
1	 9.224555553070590e-01	 1.044803686956903e+00	-1.631952834810119e+01
1	 9.438804351179818e-01	 1.025489518613495e+00	-1.445122656542911e+01
1	 9.649099128118090e-01	 1.005727554120027e+00	-1.266069232015499e+01
1	 9.855300762800002e-01	 9.855300762800002e-01	-1.094523138904029e+01
1	 7.592520178487352e-01	 1.161332262259484e+00	-3.155107358008189e+01
1	 7.829121278782885e-01	 1.145515065939696e+00	-2.907970252888241e+01
1	 8.062871789108704e-01	 1.129184264127848e+00	-2.669930284894798e+01
1	 8.293606590738599e-01	 1.112347515042226e+00	-2.440972342765216e+01
1	 8.521163301823597e-01	 1.095013177813160e+00	-2.221041444098827e+01
1	 8.745382646671974e-01	 1.077190300225301e+00	-2.010042832593258e+01
1	 8.966108818374450e-01	 1.058888604138042e+00	-1.807842296144646e+01
1	 9.183189833078020e-01	 1.040118468627052e+00	-1.614266705669608e+01
1	 9.396477874244614e-01	 1.020890910904005e+00	-1.429104772622081e+01
1	 9.605829625276617e-01	 1.001217565085433e+00	-1.252108021294244e+01
1	 9.811106588950000e-01	 9.811106588950000e-01	-1.082991970131494e+01
1	 7.558319637114578e-01	 1.156101035852190e+00	-3.137163609118980e+01
1	 7.793854966689502e-01	 1.140355088164019e+00	-2.888704250974817e+01
1	 8.026552546789809e-01	 1.124097848522101e+00	-2.649797887652360e+01
1	 8.256248002467330e-01	 1.107336940648241e+00	-2.420425017313151e+01
1	 8.482779683322856e-01	 1.090080686019028e+00	-2.200524655938500e+01
1	 8.705989031122744e-01	 1.072338091663328e+00	-1.989994444494304e+01
1	 8.925720940790625e-01	 1.054118835648376e+00	-1.788690985475147e+01
1	 9.141824113085447e-01	 1.035433250297246e+00	-1.596430408657168e+01
1	 9.354151397309409e-01	 1.016292303194536e+00	-1.412989163934374e+01
1	 9.562560122435145e-01	 9.967075760508440e-01	-1.238105037157421e+01
1	 9.766912415100001e-01	 9.766912415100002e-01	-1.071478382965418e+01
1	 7.524119095741802e-01	 1.150869809445401e+00	-3.118801979779949e+01
1	 7.758588654596117e-01	 1.135195110388754e+00	-2.869046484779510e+01
1	 7.990233304470913e-01	 1.119011432916678e+00	-2.629303864492242e+01
1	 8.218889414196058e-01	 1.102326366254503e+00	-2.399550190823947e+01
1	 8.444396064822117e-01	 1.085148194225078e+00	-2.179718431960395e+01
1	 8.666595415573510e-01	 1.067485883101482e+00	-1.969698569527083e+01
1	 8.885333063206798e-01	 1.049349067158791e+00	-1.769337953694296e+01
1	 9.100458393092877e-01	 1.030748031967487e+00	-1.578441896029130e+01
1	 9.311824920374201e-01	 1.011693695485087e+00	-1.396774497869343e+01
1	 9.519290619593673e-01	 9.921975870162600e-01	-1.224059709967562e+01
1	 9.722718241249999e-01	 9.722718241249999e-01	-1.059982617154997e+01
1	 1.016465997975000e+00	 1.016465997975000e+00	-1.175714341967548e+01
1	 1.037297466765497e+00	 9.951985809477981e-01	-1.036627647915866e+01
1	 1.057679730318073e+00	 9.735090334212854e-01	-8.965328558748654e+00
1	 1.077600120472179e+00	 9.514117039623924e-01	-7.556141602267624e+00
1	 1.097046584084299e+00	 9.289214403956019e-01	-6.140581384170420e+00
1	 1.116007707164387e+00	 9.060535567096922e-01	-4.720531386732806e+00
1	 1.134472736871258e+00	 8.828237985978649e-01	-3.297886606154520e+00
1	 1.152431601279558e+00	 8.592483077927869e-01	-1.874547325309621e+00
1	 1.169874926844846e+00	 8.353435853641631e-01	-4.524128909185205e-01
1	 1.186794053507659e+00	 8.111264541512108e-01	 9.666244673988735e-01
1	 1.203181047392051e+00	 7.866140205057903e-01	 2.380685739413368e+00
1	 1.012046580590000e+00	 1.012046580590000e+00	-1.164066466978644e+01
1	 1.032787477776941e+00	 9.908716305934469e-01	-1.025683095882070e+01
1	 1.053081122792190e+00	 9.692763854475532e-01	-8.861244800544537e+00
1	 1.072914902554159e+00	 9.472751313341763e-01	-7.455752502814939e+00
1	 1.092276816324302e+00	 9.248826515220406e-01	-6.042230333887183e+00
1	 1.111155499738618e+00	 9.021141934173641e-01	-4.622578328321837e+00
1	 1.129540246707407e+00	 8.789854342538131e-01	-3.198713990116050e+00
1	 1.147421029096292e+00	 8.555124455826083e-01	-1.772565931685619e+00
1	 1.164788514115374e+00	 8.317116567296727e-01	-3.460674876167076e-01
1	 1.181634079357625e+00	 8.075998173914455e-01	 1.078849657980928e+00
1	 1.197949825442210e+00	 7.831939595443440e-01	 2.500261792142469e+00
1	 1.007627163205000e+00	 1.007627163205000e+00	-1.152434610071290e+01
1	 1.028277488788389e+00	 9.865446802390953e-01	-1.014752458180932e+01
1	 1.048482515266327e+00	 9.650437374738209e-01	-8.757265122464622e+00
1	 1.068229684636185e+00	 9.431385587059606e-01	-7.355418475684931e+00
1	 1.087507048564387e+00	 9.208438626484796e-01	-5.943871520291329e+00
1	 1.106303292312977e+00	 8.981748301250362e-01	-4.524540995018119e+00
1	 1.124607756543738e+00	 8.751470699097617e-01	-3.099367097978329e+00
1	 1.142410456913274e+00	 8.517765833724292e-01	-1.670306991023889e+00
1	 1.159702101386227e+00	 8.280797280951822e-01	-2.393282490658493e-01
1	 1.176474105208001e+00	 8.040731806316803e-01	 1.191597705425659e+00
1	 1.192718603492875e+00	 7.797738985828979e-01	 2.620502142764892e+00
1	 1.003207745820000e+00	 1.003207745820000e+00	-1.140818982938212e+01
1	 1.023767499799843e+00	 9.822177298847440e-01	-1.003835918702321e+01
1	 1.043883907740485e+00	 9.608110895000889e-01	-8.653390900017111e+00
1	 1.063544466718256e+00	 9.390019860777448e-01	-7.255140248705689e+00
1	 1.082737280804553e+00	 9.168050737749184e-01	-5.845504840784381e+00
1	 1.101451084887463e+00	 8.942354668327082e-01	-4.426418273056948e+00
1	 1.119675266380252e+00	 8.713087055657098e-01	-2.999843626533688e+00
1	 1.137399884730505e+00	 8.480407211622509e-01	-1.567766835302306e+00
1	 1.154615688657404e+00	 8.244477994606920e-01	-1.321899703957214e-01
1	 1.171314131058787e+00	 8.005465438719153e-01	 1.304875519734825e+00
1	 1.187487381544044e+00	 7.763538376214516e-01	 2.741415570546493e+00
1	 9.987883284350003e-01	 9.987883284350003e-01	-1.129219801018895e+01
1	 1.019257510811302e+00	 9.778907795303926e-01	-9.929336645907849e+00
1	 1.039285300214663e+00	 9.565784415263566e-01	-8.549623533055785e+00
1	 1.058859248800373e+00	 9.348654134495288e-01	-7.154918562587499e+00
1	 1.077967513044800e+00	 9.127662849013570e-01	-5.747130190951872e+00
1	 1.096598877462076e+00	 8.902961035403805e-01	-4.328209028961137e+00
1	 1.114742776216950e+00	 8.674703412216581e-01	-2.900141231809612e+00
1	 1.132389312547985e+00	 8.443048589520719e-01	-1.464941731578665e+00
1	 1.149529275928907e+00	 8.208158708262020e-01	-2.464735461440437e-02
1	 1.166154156909983e+00	 7.970199071121501e-01	 1.418690133210664e+00
1	 1.182256159595719e+00	 7.729337766600053e-01	 2.863011010138862e+00
1	 9.943689110499999e-01	 9.943689110499999e-01	-1.117637283582841e+01
1	 1.014747521822766e+00	 9.735638291760412e-01	-9.820458863178910e+00
1	 1.034686692688862e+00	 9.523457935526245e-01	-8.445964446320497e+00
1	 1.054174030882536e+00	 9.307288408213128e-01	-7.054754171208915e+00
1	 1.073197745285130e+00	 9.087274960277960e-01	-5.648747464523204e+00
1	 1.091746670036817e+00	 8.863567402480524e-01	-4.229912109102448e+00
1	 1.109810286053830e+00	 8.636319768776063e-01	-2.800257528162849e+00
1	 1.127378740365714e+00	 8.405689967418932e-01	-1.361827880546648e+00
1	 1.144442863200734e+00	 8.171839421917116e-01	 8.330498943871989e-02
1	 1.160994182761590e+00	 7.934932703523848e-01	 1.533048703174588e+00
1	 1.177024937647899e+00	 7.695137156985591e-01	 2.985297555031414e+00
1	 9.899494936650000e-01	 9.899494936650000e-01	-1.106071653815088e+01
1	 1.010237532834234e+00	 9.692368788216899e-01	-9.711727777564970e+00
1	 1.030088085163080e+00	 9.481131455788924e-01	-8.342415089993157e+00
1	 1.049488812964745e+00	 9.265922681930971e-01	-6.954647841910235e+00
1	 1.068427977525541e+00	 9.046887071542349e-01	-5.550356553329823e+00
1	 1.086894462611685e+00	 8.824173769557245e-01	-4.131526339252485e+00
1	 1.104877795890894e+00	 8.597936125335547e-01	-2.700190087349421e+00
1	 1.122368168183692e+00	 8.368331345317145e-01	-1.258421415055706e+00
1	 1.139356450472885e+00	 8.135520135572216e-01	 1.916725491950171e-01
1	 1.155834208613606e+00	 7.899666335926198e-01	 1.647958514757041e+00
1	 1.171793715700584e+00	 7.660936547371128e-01	 3.108284461097651e+00
1	 9.855300762800002e-01	 9.855300762800002e-01	-1.094523138904029e+01
1	 1.005727543845709e+00	 9.649099284673383e-01	-9.603145362569816e+00
1	 1.025489477637320e+00	 9.438804976051601e-01	-8.238976940267630e+00
1	 1.044803595047000e+00	 9.224556955648815e-01	-6.854600355795992e+00
1	 1.063658209766033e+00	 9.006499182806734e-01	-5.451957347263315e+00
1	 1.082042255186680e+00	 8.784780136633967e-01	-4.033050524120358e+00
1	 1.099945305728141e+00	 8.559552481895031e-01	-2.599936437569468e+00
1	 1.117357596001919e+00	 8.330972723215359e-01	-1.154718398588995e+00
1	 1.134270037745361e+00	 8.099200849227315e-01	 3.004609105150631e-01
1	 1.150674234466033e+00	 7.864399968328547e-01	 1.763426983763529e+00
1	 1.166562493753775e+00	 7.626735937756666e-01	 3.231981150235391e+00
1	 9.811106588950000e-01	 9.811106588950000e-01	-1.082991970131494e+01
1	 1.001217554857188e+00	 9.605829781129870e-01	-9.494713627255969e+00
1	 1.020890870111580e+00	 9.396478496314279e-01	-8.135651499936049e+00
1	 1.040118377129301e+00	 9.183191229366654e-01	-6.754612508044604e+00
1	 1.058888442006606e+00	 8.966111294071123e-01	-5.353549734230914e+00
1	 1.077190047761802e+00	 8.745386503710686e-01	-3.934483446878240e+00
1	 1.095012815565571e+00	 8.521168838454514e-01	-2.499494062486387e+00
1	 1.112347023820395e+00	 8.293614101113570e-01	-1.050714823701676e+00
1	 1.129183625018162e+00	 8.062881562882411e-01	 4.096757599056191e-01
1	 1.145514260318869e+00	 7.829133600730893e-01	 1.879461659617646e+00
1	 1.161331271807471e+00	 7.592535328142201e-01	 3.356397214106574e+00
1	 9.766912415100001e-01	 9.766912415100002e-01	-1.071478382965418e+01
1	 9.967075658686722e-01	 9.562560277586355e-01	-9.386434617049105e+00
1	 1.016292262585860e+00	 9.354152016576960e-01	-8.032440298990302e+00
1	 1.035433159211647e+00	 9.141825503084494e-01	-6.654685108226605e+00
1	 1.054118674247262e+00	 8.925723405335512e-01	-5.255133600111461e+00
1	 1.072337840337052e+00	 8.705992870787408e-01	-3.835823868674431e+00
1	 1.090080325403185e+00	 8.482785195013997e-01	-2.398860400218622e+00
1	 1.107336451639120e+00	 8.256255479011784e-01	-9.464066104159918e-01
1	 1.124097212291288e+00	 8.026562276537510e-01	 5.193228867967328e-01
1	 1.140354286172116e+00	 7.793867233133241e-01	 1.996070228384100e+00
1	 1.156100049861672e+00	 7.558334718527739e-01	 3.481542417977890e+00
1	 9.722718241249999e-01	 9.722718241249999e-01	-1.059982617154997e+01
1	 9.921975768801612e-01	 9.519290774042839e-01	-9.278310414564105e+00
1	 1.011693655060161e+00	 9.311825536839636e-01	-7.929344895240323e+00
1	 1.030747941294040e+00	 9.100459776802332e-01	-6.554818980632589e+00
1	 1.049348906487999e+00	 8.885335516599898e-01	-5.156708828708594e+00
1	 1.067485632912430e+00	 8.666599237864128e-01	-3.737070528132723e+00
1	 1.085147835240980e+00	 8.444401551573477e-01	-2.298032842305007e+00
1	 1.102325879458094e+00	 8.218896856909994e-01	-8.417896045725113e-01
1	 1.119010799564737e+00	 7.990242990192606e-01	 6.294081858805902e-01
1	 1.135194312025773e+00	 7.758600865535589e-01	 2.113260515874285e+00
1	 1.150868827916379e+00	 7.524134108913274e-01	 3.607426704666197e+00
1	 1.203181047392051e+00	 7.866140205057903e-01	 2.380685739413368e+00
1	 1.219028711069166e+00	 7.618236355234277e-01	 3.199741772057048e+00
1	 1.234330591370090e+00	 7.367728559421064e-01	 3.983569055742981e+00
1	 1.249080984748230e+00	 7.114794048855732e-01	 4.728650905307419e+00
1	 1.263274940206068e+00	 6.859611326255991e-01	 5.431623844464722e+00
1	 1.276908259813596e+00	 6.602359775369484e-01	 6.089288423927078e+00
1	 1.289977496860428e+00	 6.343219274121984e-01	 6.698619023535818e+00
1	 1.302479951696174e+00	 6.082369812983345e-01	 7.256772598288864e+00
1	 1.314413665325824e+00	 5.819991120102482e-01	 7.761096337587233e+00
1	 1.325777410838185e+00	 5.556262294685159e-01	 8.209134216484767e+00
1	 1.336570682755877e+00	 5.291361450002061e-01	 8.598632427091516e+00
1	 1.197949825442210e+00	 7.831939595443440e-01	 2.500261792142470e+00
1	 1.213728586233489e+00	 7.585113588443824e-01	 3.335152470357609e+00
1	 1.228963936619848e+00	 7.335694956959359e-01	 4.134015807256389e+00
1	 1.243650197852724e+00	 7.083860161656899e-01	 4.893370826542294e+00
1	 1.257782440460675e+00	 6.829786929155388e-01	 5.609891871616976e+00
1	 1.271356484765559e+00	 6.573653863273123e-01	 6.280419211986957e+00
1	 1.284368899042690e+00	 6.315640059857937e-01	 6.901968628516059e+00
1	 1.296816995379287e+00	 6.055924726812418e-01	 7.471739938974998e+00
1	 1.308698823297708e+00	 5.794686810858743e-01	 7.987124434765507e+00
1	 1.320013161221155e+00	 5.532104632510471e-01	 8.445711209125035e+00
1	 1.330759505869976e+00	 5.268355530632755e-01	 8.845292366440592e+00
1	 1.192718603492875e+00	 7.797738985828979e-01	 2.620502142764890e+00
1	 1.208428461398411e+00	 7.551990821653378e-01	 3.471145566894645e+00
1	 1.223597281870291e+00	 7.303661354497651e-01	 4.284956199126332e+00
1	 1.238219410957978e+00	 7.052926274458068e-01	 5.058488988542803e+00
1	 1.252289940716105e+00	 6.799962532054785e-01	 5.788456328885056e+00
1	 1.265804709718400e+00	 6.544947951176764e-01	 6.471738452226617e+00
1	 1.278760301225874e+00	 6.288060845593890e-01	 7.105392796285892e+00
1	 1.291154039063356e+00	 6.029479640641492e-01	 7.686662308401932e+00
1	 1.302983981270572e+00	 5.769382501615005e-01	 8.212982658612646e+00
1	 1.314248911605120e+00	 5.507946970335782e-01	 8.681988343670385e+00
1	 1.324948328985077e+00	 5.245349611263449e-01	 9.091517673110260e+00
1	 1.187487381544044e+00	 7.763538376214516e-01	 2.741415570546491e+00
1	 1.203128336563934e+00	 7.518868054862928e-01	 3.607728758560200e+00
1	 1.218230627121419e+00	 7.271627752035947e-01	 4.436396755233089e+00
1	 1.232788624063990e+00	 7.021992387259235e-01	 5.224010654401793e+00
1	 1.246797440972357e+00	 6.770138134954181e-01	 5.967321133846627e+00
1	 1.260252934672120e+00	 6.516242039080404e-01	 6.663248635202683e+00
1	 1.273151703409980e+00	 6.260481631329846e-01	 7.308892512255868e+00
1	 1.285491082748381e+00	 6.003034554470568e-01	 7.901539112235324e+00
1	 1.297269139244417e+00	 5.744078192371266e-01	 8.438668764106266e+00
1	 1.308484661990081e+00	 5.483789308161094e-01	 8.917961657238237e+00
1	 1.319137152101176e+00	 5.222343691894142e-01	 9.337302603056205e+00
1	 1.182256159595719e+00	 7.729337766600053e-01	 2.863011010138862e+00
1	 1.197828211730057e+00	 7.485745288072477e-01	 3.744909878474254e+00
1	 1.212863972373232e+00	 7.239594149574242e-01	 4.588344114923920e+00
1	 1.227357837170763e+00	 6.991058500060405e-01	 5.389941180364068e+00
1	 1.241304941229435e+00	 6.740313737853582e-01	 6.146490273417136e+00
1	 1.254701159626717e+00	 6.487536126984044e-01	 6.854952295552375e+00
1	 1.267543105595009e+00	 6.232902417065800e-01	 7.512468779277585e+00
1	 1.279828126434363e+00	 5.976589468299641e-01	 8.116369745621588e+00
1	 1.291554297219242e+00	 5.718773883127527e-01	 8.664180466489031e+00
1	 1.302720412376036e+00	 5.459631645986405e-01	 9.153627116806572e+00
1	 1.313325975218275e+00	 5.199337772524837e-01	 9.582641310569603e+00
1	 1.177024937647899e+00	 7.695137156985591e-01	 2.985297555031414e+00
1	 1.192528086896780e+00	 7.452622521282029e-01	 3.882696899012264e+00
1	 1.207497317625729e+00	 7.207560547112536e-01	 4.740805035578747e+00
1	 1.221927050278294e+00	 6.960124612861573e-01	 5.556286017896804e+00
1	 1.235812441487336e+00	 6.710489340752979e-01	 6.325967805390475e+00
1	 1.249149384582191e+00	 6.458830214887682e-01	 7.046852012973279e+00
1	 1.261934507780960e+00	 6.205323202801754e-01	 7.716122618030986e+00
1	 1.274165170121301e+00	 5.950144382128715e-01	 8.331153592954170e+00
1	 1.285839455195048e+00	 5.693469573883788e-01	 8.889515440385725e+00
1	 1.296956162762987e+00	 5.435473983811716e-01	 9.388980617655065e+00
1	 1.307514798336374e+00	 5.176331853155532e-01	 9.827527846017993e+00
1	 1.171793715700584e+00	 7.660936547371128e-01	 3.108284461097650e+00
1	 1.187227962064104e+00	 7.419499754491580e-01	 4.021097934913636e+00
1	 1.202130662878911e+00	 7.175526944650827e-01	 4.893786395245209e+00
1	 1.216496263386585e+00	 6.929190725662744e-01	 5.723050715814558e+00
1	 1.230319941746060e+00	 6.680664943652375e-01	 6.505757860021005e+00
1	 1.243597609538545e+00	 6.430124302791324e-01	 7.238950413228871e+00
1	 1.256325909967833e+00	 6.177743988537706e-01	 7.919855067422507e+00
1	 1.268502213809195e+00	 5.923699295957788e-01	 8.545890027633643e+00
1	 1.280124613171834e+00	 5.668165264640049e-01	 9.114671318896544e+00
1	 1.291191913150933e+00	 5.411316321637029e-01	 9.624017981764935e+00
1	 1.301703621455474e+00	 5.153325933786226e-01	 1.007195615352535e+01
1	 1.166562493753775e+00	 7.626735937756666e-01	 3.231981150235391e+00
1	 1.181927837232028e+00	 7.386376987701130e-01	 4.160121246473494e+00
1	 1.196764008132779e+00	 7.143493342189127e-01	 5.047295195343814e+00
1	 1.211065476495635e+00	 6.898256838463911e-01	 5.890240922462313e+00
1	 1.224827442005609e+00	 6.650840546551774e-01	 6.685864641648555e+00
1	 1.238045834495775e+00	 6.401418390694962e-01	 7.431250169181566e+00
1	 1.250717312155628e+00	 6.150164774273660e-01	 8.123667184993669e+00
1	 1.262839257498046e+00	 5.897254209786862e-01	 8.760578411820978e+00
1	 1.274409771149602e+00	 5.642860955396313e-01	 9.339645692666107e+00
1	 1.285427663539874e+00	 5.387158659462340e-01	 9.858734956175336e+00
1	 1.295892444575573e+00	 5.130320014416920e-01	 1.031592006859021e+01
1	 1.161331271807471e+00	 7.592535328142201e-01	 3.356397214106574e+00
1	 1.176627712400551e+00	 7.353254220910681e-01	 4.299775242821154e+00
1	 1.191397353387331e+00	 7.111459739727419e-01	 5.201338563446832e+00
1	 1.205634689605445e+00	 6.867322951265078e-01	 6.057862387956950e+00
1	 1.219334942265981e+00	 6.621016149451170e-01	 6.866292430366695e+00
1	 1.232494059453884e+00	 6.372712478598603e-01	 7.623754001853516e+00
1	 1.245108714344345e+00	 6.122585560009612e-01	 8.327560047340807e+00
1	 1.257176301187853e+00	 5.870809123615937e-01	 8.975218096184747e+00
1	 1.268694929128350e+00	 5.617556646152573e-01	 9.564436108927270e+00
1	 1.279663413929810e+00	 5.363000997287651e-01	 1.009312721129544e+01
1	 1.290081267696673e+00	 5.107314095047614e-01	 1.055941331563895e+01
1	 1.156100049861672e+00	 7.558334718527739e-01	 3.481542417977892e+00
1	 1.171327587569675e+00	 7.320131454120232e-01	 4.440068485287446e+00
1	 1.186030698642568e+00	 7.079426137265714e-01	 5.355923756132434e+00
1	 1.200203902716014e+00	 6.836389064066247e-01	 6.225920966490022e+00
1	 1.213842442527176e+00	 6.591191752350568e-01	 7.047045583736861e+00
1	 1.226942284412871e+00	 6.344006566502240e-01	 7.816464681516065e+00
1	 1.239500116533984e+00	 6.095006345745566e-01	 8.531534750546129e+00
1	 1.251513344878617e+00	 5.844364037445010e-01	 9.189808419640670e+00
1	 1.262980087108079e+00	 5.592252336908833e-01	 9.789040070518805e+00
1	 1.273899164320742e+00	 5.338843335112964e-01	 1.032719033917084e+01
1	 1.284270090818772e+00	 5.084308175678308e-01	 1.080242950551283e+01
1	 1.150868827916379e+00	 7.524134108913274e-01	 3.607426704666197e+00
1	 1.166027462739399e+00	 7.287008687329781e-01	 4.581009690863600e+00
1	 1.180664043898490e+00	 7.047392534804007e-01	 5.511058161916360e+00
1	 1.194773115827342e+00	 6.805455176867414e-01	 6.394422618692712e+00
1	 1.208349942789195e+00	 6.561367355249964e-01	 7.228128538548730e+00
1	 1.221390509372736e+00	 6.315300654405881e-01	 8.009385028809184e+00
1	 1.233891518724545e+00	 6.067427131481519e-01	 8.735592410620635e+00
1	 1.245850388570336e+00	 5.817918951274083e-01	 9.404348709084982e+00
1	 1.257265245088788e+00	 5.566948027665095e-01	 1.001345503487665e+01
1	 1.268134914712668e+00	 5.314685672938275e-01	 1.056091985170248e+01
1	 1.278458913941871e+00	 5.061302256309002e-01	 1.104496213288672e+01
1	 1.336570682755877e+00	 5.291361450002061e-01	 8.598632427091516e+00
1	 1.346793684405089e+00	 5.025465367328583e-01	 9.034475525144870e+00
1	 1.356447313410629e+00	 4.758749161986704e-01	 9.420615366090093e+00
1	 1.365533145430621e+00	 4.491385962590996e-01	 9.758277014909337e+00
1	 1.374053416251349e+00	 4.223546604492830e-01	 1.004877719859057e+01
1	 1.382011002366635e+00	 3.955399338264617e-01	 1.029351663567110e+01
1	 1.389409400171311e+00	 3.687109553981858e-01	 1.049397225296033e+01
1	 1.396252703901046e+00	 3.418839521937849e-01	 1.065168934050988e+01
1	 1.402545582452712e+00	 3.150748150310683e-01	 1.076827369405557e+01
1	 1.408293255220358e+00	 2.882990760188403e-01	 1.084538379195163e+01
1	 1.413501467081763e+00	 2.615718878246577e-01	 1.088472305109815e+01
1	 1.330759505869976e+00	 5.268355530632755e-01	 8.845292366440592e+00
1	 1.340938059686295e+00	 5.003615517886243e-01	 9.279567411324390e+00
1	 1.350549716392163e+00	 4.738058948221450e-01	 9.664069128040905e+00
1	 1.359596044795018e+00	 4.471858197519844e-01	 9.999889244397668e+00
1	 1.368079270960333e+00	 4.205183358370410e-01	 1.028821541234275e+01
1	 1.376002258875435e+00	 3.938201949821336e-01	 1.053032392947827e+01
1	 1.383368489733440e+00	 3.671078642860852e-01	 1.072757231112151e+01
1	 1.390182039968993e+00	 3.403975002259246e-01	 1.088139176318512e+01
1	 1.396447558179413e+00	 3.137049245289500e-01	 1.099327960462868e+01
1	 1.402170241065732e+00	 2.870456017730584e-01	 1.106479168634287e+01
1	 1.407355808527999e+00	 2.604346187446449e-01	 1.109753485110712e+01
1	 1.324948328985077e+00	 5.245349611263449e-01	 9.091517673110260e+00
1	 1.335082434968496e+00	 4.981765668443958e-01	 9.524727946523386e+00
1	 1.344652119374676e+00	 4.717368734456407e-01	 9.908090687961206e+00
1	 1.353658944160366e+00	 4.452330432449171e-01	 1.024256345921306e+01
1	 1.362105125670231e+00	 4.186820112248839e-01	 1.052920403736761e+01
1	 1.369993515385103e+00	 3.921004561379379e-01	 1.076916353019726e+01
1	 1.377327579296380e+00	 3.655047731741741e-01	 1.096367930526017e+01
1	 1.384111376037683e+00	 3.389110482583209e-01	 1.111406778219170e+01
1	 1.390349533906780e+00	 3.123350340271646e-01	 1.122171713646414e+01
1	 1.396047226911686e+00	 2.857921275276959e-01	 1.128807996131814e+01
1	 1.401210149974721e+00	 2.592973496651468e-01	 1.131466593264756e+01
1	 1.319137152101176e+00	 5.222343691894142e-01	 9.337302603056205e+00
1	 1.329226810251690e+00	 4.959915819001725e-01	 9.769958037997927e+00
1	 1.338754522358166e+00	 4.696678520691581e-01	 1.015268754978966e+01
1	 1.347721843526666e+00	 4.432802667378980e-01	 1.048631369440501e+01
1	 1.356130980381045e+00	 4.168456866128118e-01	 1.077176356368340e+01
1	 1.363984771895638e+00	 3.903807172938744e-01	 1.101006229651149e+01
1	 1.371286668860131e+00	 3.639016820624523e-01	 1.120232636669094e+01
1	 1.378040712107117e+00	 3.374245962909735e-01	 1.134975669616196e+01
1	 1.384251509634815e+00	 3.109651435257126e-01	 1.145363164138744e+01
1	 1.389924212758221e+00	 2.845386532827526e-01	 1.151529989944293e+01
1	 1.395064491421928e+00	 2.581600805861633e-01	 1.153617337873810e+01
1	 1.313325975218275e+00	 5.199337772524837e-01	 9.582641310569603e+00
1	 1.323371185535880e+00	 4.938065969559547e-01	 1.001525860906175e+01
1	 1.332856925342636e+00	 4.675988306926969e-01	 1.039786735027791e+01
1	 1.341784742893919e+00	 4.413274902309269e-01	 1.073115423343091e+01
1	 1.350156835092773e+00	 4.150093620008249e-01	 1.101591484396360e+01
1	 1.357976028407042e+00	 3.886609784499430e-01	 1.125304756247934e+01
1	 1.365245758424692e+00	 3.622985909509201e-01	 1.144354721312332e+01
1	 1.371970048177294e+00	 3.359381443238826e-01	 1.158849849927925e+01
1	 1.378153485363516e+00	 3.095952530245935e-01	 1.168906927391123e+01
1	 1.383801198605337e+00	 2.832851790382285e-01	 1.174650369093886e+01
1	 1.388918832869620e+00	 2.570228115076946e-01	 1.176211528271642e+01
1	 1.307514798336374e+00	 5.176331853155532e-01	 9.827527846017993e+00
1	 1.317515560821064e+00	 4.916216120117421e-01	 1.026063059944299e+01
1	 1.326959328328084e+00	 4.655298093162573e-01	 1.064363786194217e+01
1	 1.335847642262123e+00	 4.393747137240037e-01	 1.097709961367634e+01
1	 1.344182689805417e+00	 4.131730373889230e-01	 1.126167910159587e+01
1	 1.351967284919313e+00	 3.869412396061440e-01	 1.149814714809808e+01
1	 1.359204847990064e+00	 3.606954998395772e-01	 1.168737616169295e+01
1	 1.365899384248215e+00	 3.344516923570482e-01	 1.183033389673471e+01
1	 1.372055461092884e+00	 3.082253625238076e-01	 1.192807700907294e+01
1	 1.377678184453033e+00	 2.820317047941239e-01	 1.198174445385381e+01
1	 1.382773174317798e+00	 2.558855424297404e-01	 1.199255077069076e+01
1	 1.301703621455474e+00	 5.153325933786226e-01	 1.007195615352535e+01
1	 1.311659936107243e+00	 4.894366270675350e-01	 1.050607496565069e+01
1	 1.321061731314511e+00	 4.634607879398389e-01	 1.089000699609355e+01
1	 1.329910541631280e+00	 4.374219372171290e-01	 1.122416463212301e+01
1	 1.338208544518974e+00	 4.113367127771060e-01	 1.150907793895701e+01
1	 1.345958541432452e+00	 3.852215007624771e-01	 1.174538937015065e+01
1	 1.353163937556246e+00	 3.590924087284239e-01	 1.193384814234134e+01
1	 1.359828720319880e+00	 3.329652403904702e-01	 1.207530432059795e+01
1	 1.365957436822919e+00	 3.068554720233550e-01	 1.217070266075008e+01
1	 1.371555170301311e+00	 2.807782305504385e-01	 1.222107625477236e+01
1	 1.376627515766460e+00	 2.547482733523011e-01	 1.222754002459279e+01
1	 1.295892444575573e+00	 5.130320014416920e-01	 1.031592006859021e+01
1	 1.305804311394416e+00	 4.872516421233333e-01	 1.075159268135100e+01
1	 1.315164134301916e+00	 4.613917665634422e-01	 1.113698280595007e+01
1	 1.323973441001388e+00	 4.354691607103020e-01	 1.147236435116942e+01
1	 1.332234399233448e+00	 4.095003881653742e-01	 1.175813334591038e+01
1	 1.339949797946459e+00	 3.835017619189424e-01	 1.199480305334438e+01
1	 1.347123027123238e+00	 3.574893176174598e-01	 1.218299871155625e+01
1	 1.353758056392288e+00	 3.314787884241488e-01	 1.232345194611476e+01
1	 1.359859412553621e+00	 3.054855815232355e-01	 1.241699490046815e+01
1	 1.365432156150168e+00	 2.795247563071724e-01	 1.246455413008336e+01
1	 1.370481857215609e+00	 2.536110042753763e-01	 1.246714430585089e+01
1	 1.290081267696673e+00	 5.107314095047614e-01	 1.055941331563894e+01
1	 1.299948686682584e+00	 4.850666571791373e-01	 1.099718473775356e+01
1	 1.309266537290300e+00	 4.593227451870668e-01	 1.138457348983282e+01
1	 1.318036340372448e+00	 4.335163842035232e-01	 1.172171410460859e+01
1	 1.326260253948836e+00	 4.076640635537273e-01	 1.200886770853315e+01
1	 1.333941054461333e+00	 3.817820230755400e-01	 1.224641754175070e+01
1	 1.341082116691042e+00	 3.558862265066853e-01	 1.243486406648280e+01
1	 1.347687392465439e+00	 3.299923364580837e-01	 1.257481970844540e+01
1	 1.353761388284989e+00	 3.041156910234493e-01	 1.266700327671727e+01
1	 1.359309141999607e+00	 2.782712820643256e-01	 1.271223410782249e+01
1	 1.364336198665242e+00	 2.524737351989662e-01	 1.271142597970310e+01
1	 1.284270090818772e+00	 5.084308175678308e-01	 1.080242950551283e+01
1	 1.294093061971747e+00	 4.828816722349463e-01	 1.124285214400855e+01
1	 1.303368940279662e+00	 4.572537238107128e-01	 1.163278739444875e+01
1	 1.312099239744460e+00	 4.315636076967925e-01	 1.197222950376830e+01
1	 1.320286108665140e+00	 4.058277389421656e-01	 1.226130381808032e+01
1	 1.327932310977076e+00	 3.800622842322697e-01	 1.250026271055557e+01
1	 1.335041206259655e+00	 3.542831353961000e-01	 1.268948105941815e+01
1	 1.341616728539334e+00	 3.285058844922752e-01	 1.282945131985707e+01
1	 1.347663364017025e+00	 3.027458005239961e-01	 1.292077823479286e+01
1	 1.353186127849626e+00	 2.770178078218981e-01	 1.296417323010750e+01
1	 1.358190540115361e+00	 2.513364661230708e-01	 1.296044854017010e+01
1	 1.278458913941871e+00	 5.061302256309002e-01	 1.104496213288672e+01
1	 1.288237437261904e+00	 4.806966872907606e-01	 1.148859592761427e+01
1	 1.297471343270002e+00	 4.551847024343803e-01	 1.188163301826321e+01
1	 1.306162139117423e+00	 4.296108311901095e-01	 1.222392644381865e+01
1	 1.314311963382357e+00	 4.039914143306887e-01	 1.251546488019340e+01
1	 1.321923567493685e+00	 3.783425453891316e-01	 1.275636897813013e+01
1	 1.329000295829080e+00	 3.526800442857044e-01	 1.294688721270131e+01
1	 1.335546064613972e+00	 3.270194325267232e-01	 1.308739128738560e+01
1	 1.341565339749727e+00	 3.013759100248760e-01	 1.317837113717764e+01
1	 1.347063113700226e+00	 2.757643335798898e-01	 1.322042957618581e+01
1	 1.352044881565965e+00	 2.501991970476900e-01	 1.321427663570952e+01
1	 1.413501467081763e+00	 2.615718878246577e-01	 1.088472305109815e+01
1	 1.418176462669061e+00	 2.349080047260341e-01	 1.134430902701341e+01
1	 1.422324960056710e+00	 2.083217654544126e-01	 1.175548432316936e+01
1	 1.425954123995218e+00	 1.818270778291114e-01	 1.211854223780266e+01
1	 1.429071538815522e+00	 1.554374051692452e-01	 1.243389282063153e+01
1	 1.431685181126896e+00	 1.291657544645206e-01	 1.270205691505752e+01
1	 1.433803392424789e+00	 1.030246662759465e-01	 1.292365998083039e+01
1	 1.435434851720107e+00	 7.702620633025485e-02	 1.309942574330907e+01
1	 1.436588548295736e+00	 5.118195876485414e-02	 1.323016971400688e+01
1	 1.437273754689956e+00	 2.550302097384089e-02	 1.331679262536965e+01
1	 1.437500000000000e+00	 0.000000000000000e+00	 1.336027382074263e+01
1	 1.407355808527999e+00	 2.604346187446449e-01	 1.109753485110712e+01
1	 1.412010478047767e+00	 2.338866655722781e-01	 1.155615441909635e+01
1	 1.416140938490466e+00	 2.074160186451762e-01	 1.196629274773247e+01
1	 1.419754323455514e+00	 1.810365253138758e-01	 1.232828038529979e+01
1	 1.422858184298499e+00	 1.547615903613190e-01	 1.264256271723973e+01
1	 1.425460462947785e+00	 1.286041642250813e-01	 1.290969396802100e+01
1	 1.427569464631447e+00	 1.025767329419909e-01	 1.313033099469105e+01
1	 1.429193830625566e+00	 7.669130977909611e-02	 1.330522691779052e+01
1	 1.430342511129186e+00	 5.095942850798788e-02	 1.343522463381642e+01
1	 1.431024738365205e+00	 2.539213827322084e-02	 1.352125025163809e+01
1	 1.431250000000000e+00	 0.000000000000000e+00	 1.356430649324216e+01
1	 1.401210149974721e+00	 2.592973496651468e-01	 1.131466593264756e+01
1	 1.405844493426863e+00	 2.328653264191208e-01	 1.177217407761777e+01
1	 1.409956916924528e+00	 2.065102718365907e-01	 1.218113252305054e+01
1	 1.413554522916044e+00	 1.802459727993121e-01	 1.254190926033675e+01
1	 1.416644829781647e+00	 1.540857755540556e-01	 1.285498519309198e+01
1	 1.419235744768790e+00	 1.280425739862656e-01	 1.312094809850428e+01
1	 1.421335536838181e+00	 1.021287996085904e-01	 1.334048639163418e+01
1	 1.422952809531066e+00	 7.635641322839501e-02	 1.351438273789642e+01
1	 1.424096473962654e+00	 5.073689825145394e-02	 1.364350755740453e+01
1	 1.424775722040459e+00	 2.528125557278031e-02	 1.372881246303559e+01
1	 1.425000000000000e+00	 0.000000000000000e+00	 1.377132367200810e+01
1	 1.395064491421928e+00	 2.581600805861633e-01	 1.153617337873810e+01
1	 1.399678508806351e+00	 2.318439872665620e-01	 1.199242316909643e+01
1	 1.403772895358897e+00	 2.056045250286561e-01	 1.240005692688816e+01
1	 1.407354722376808e+00	 1.794554202854206e-01	 1.275948028222067e+01
1	 1.410431475264964e+00	 1.534099607474549e-01	 1.307120984174631e+01
1	 1.413011026589914e+00	 1.274809837480734e-01	 1.333586710929306e+01
1	 1.415101609044989e+00	 1.016808662757448e-01	 1.355417222077381e+01
1	 1.416711788436608e+00	 7.602151667815155e-02	 1.372693753814810e+01
1	 1.417850436796140e+00	 5.051436799525226e-02	 1.385506114561115e+01
1	 1.418526705715718e+00	 2.517037287251931e-02	 1.393952028931796e+01
1	 1.418750000000000e+00	 0.000000000000000e+00	 1.398136479985040e+01
1	 1.388918832869620e+00	 2.570228115076946e-01	 1.176211528271642e+01
1	 1.393512524186229e+00	 2.308226481146018e-01	 1.221695783644982e+01
1	 1.397588873793573e+00	 2.046987782213724e-01	 1.262312017997915e+01
1	 1.401154921837805e+00	 1.786648677722011e-01	 1.298104578033502e+01
1	 1.404218120748453e+00	 1.527341459415170e-01	 1.329128713452286e+01
1	 1.406786308411155e+00	 1.269193935105047e-01	 1.355449964923994e+01
1	 1.408867681251872e+00	 1.012329329434541e-01	 1.377143534625247e+01
1	 1.410470767342191e+00	 7.568662012836576e-02	 1.394293643774876e+01
1	 1.411604399629646e+00	 5.029183773938291e-02	 1.406992881433533e+01
1	 1.412277689390981e+00	 2.505949017243784e-02	 1.415341548643135e+01
1	 1.412500000000000e+00	 0.000000000000000e+00	 1.419447001768170e+01
1	 1.382773174317798e+00	 2.558855424297404e-01	 1.199255077069076e+01
1	 1.387346539566498e+00	 2.298013089632402e-01	 1.244583522069178e+01
1	 1.391404852228556e+00	 2.037930314147395e-01	 1.285037746698151e+01
1	 1.394955121299035e+00	 1.778743152596538e-01	 1.320665901436334e+01
1	 1.398004766232112e+00	 1.520583311362419e-01	 1.351526844000961e+01
1	 1.400561590232514e+00	 1.263578032735595e-01	 1.377689523206601e+01
1	 1.402633753458830e+00	 1.007849996117183e-01	 1.399232346535287e+01
1	 1.404229746247817e+00	 7.535172357903762e-02	 1.416242535802047e+01
1	 1.405358362463170e+00	 5.006930748384585e-02	 1.428815475131410e+01
1	 1.406028673066249e+00	 2.494860747253589e-02	 1.437054055264975e+01
1	 1.406250000000000e+00	 0.000000000000000e+00	 1.441068018003076e+01
1	 1.376627515766460e+00	 2.547482733523011e-01	 1.222754002459279e+01
1	 1.381180554947158e+00	 2.287799698124772e-01	 1.267911348321151e+01
1	 1.385220830663846e+00	 2.028872846087576e-01	 1.308188495799370e+01
1	 1.388755320760499e+00	 1.770837627477785e-01	 1.343637419505505e+01
1	 1.391791411715942e+00	 1.513825163316296e-01	 1.374320604409083e+01
1	 1.394336872053990e+00	 1.257962130372378e-01	 1.400310425566588e+01
1	 1.396399825665862e+00	 1.003370662805375e-01	 1.421688512709490e+01
1	 1.397988725153484e+00	 7.501682703016713e-02	 1.438545104030898e+01
1	 1.399112325296712e+00	 4.984677722864107e-02	 1.450978393335118e+01
1	 1.399779656741521e+00	 2.483772477281346e-02	 1.459093874514467e+01
1	 1.400000000000000e+00	 0.000000000000000e+00	 1.463003687097135e+01
1	 1.370481857215609e+00	 2.536110042753763e-01	 1.246714430585089e+01
1	 1.375014570328208e+00	 2.277586306623127e-01	 1.291685182865189e+01
1	 1.379036809099443e+00	 2.019815378034265e-01	 1.331769983064957e+01
1	 1.382555520222197e+00	 1.762932102365753e-01	 1.367024650554965e+01
1	 1.385578057199942e+00	 1.507067015276801e-01	 1.397515317051407e+01
1	 1.388112153875584e+00	 1.252346228015397e-01	 1.423317802193221e+01
1	 1.390165897872969e+00	 9.988913294991164e-02	 1.444516975133281e+01
1	 1.391747704059194e+00	 7.468193048175430e-02	 1.461206106436970e+01
1	 1.392866288130272e+00	 4.962424697376861e-02	 1.473486214400898e+01
1	 1.393530640416798e+00	 2.472684207327056e-02	 1.481465409700095e+01
1	 1.393750000000000e+00	 0.000000000000000e+00	 1.485258242047971e+01
1	 1.364336198665242e+00	 2.524737351989662e-01	 1.271142597970310e+01
1	 1.368848585709649e+00	 2.267372915127469e-01	 1.315911052840616e+01
1	 1.372852787535347e+00	 2.010757909987463e-01	 1.355788029281067e+01
1	 1.376355719684127e+00	 1.755026577260442e-01	 1.390833212327746e+01
1	 1.379364702684112e+00	 1.500308867243932e-01	 1.421116400201338e+01
1	 1.381887435697295e+00	 1.246730325664651e-01	 1.446716875711613e+01
1	 1.383931970080151e+00	 9.944119961984073e-02	 1.467722764836855e+01
1	 1.385506682964945e+00	 7.434703393379910e-02	 1.484230386725081e+01
1	 1.386620250963851e+00	 4.940171671922843e-02	 1.496343599177882e+01
1	 1.387281624092079e+00	 2.461595937390718e-02	 1.504173143469215e+01
1	 1.387500000000000e+00	 0.000000000000000e+00	 1.507835992123428e+01
1	 1.358190540115361e+00	 2.513364661230708e-01	 1.296044854017010e+01
1	 1.362682601091481e+00	 2.257159523637797e-01	 1.340595094475269e+01
1	 1.366668765971558e+00	 2.001700441947170e-01	 1.380248560587451e+01
1	 1.370155919146292e+00	 1.747121052161852e-01	 1.415068824245493e+01
1	 1.373151348168453e+00	 1.493550719217692e-01	 1.445129370200576e+01
1	 1.375662717519125e+00	 1.241114423320140e-01	 1.470512963274009e+01
1	 1.377698042287408e+00	 9.899326629032473e-02	 1.491311003909776e+01
1	 1.379265661870737e+00	 7.401213738630157e-02	 1.507622876268901e+01
1	 1.380374213797449e+00	 4.917918646502056e-02	 1.519555292874450e+01
1	 1.381032607767365e+00	 2.450507667472333e-02	 1.527221639603070e+01
1	 1.381250000000000e+00	 0.000000000000000e+00	 1.530741324587124e+01
1	 1.352044881565965e+00	 2.501991970476900e-01	 1.321427663570952e+01
1	 1.356516616473704e+00	 2.246946132154110e-01	 1.365743555564764e+01
1	 1.360484744408075e+00	 1.992642973913386e-01	 1.405157610871880e+01
1	 1.363956118608690e+00	 1.739215527069983e-01	 1.439737309719334e+01
1	 1.366937993652964e+00	 1.486792571198079e-01	 1.469559843687935e+01
1	 1.369437999341071e+00	 1.235498520981864e-01	 1.494711478708152e+01
1	 1.371464114494739e+00	 9.854533296136365e-02	 1.515286907570505e+01
1	 1.373024640776572e+00	 7.367724083926169e-02	 1.531388596103435e+01
1	 1.374128176631064e+00	 4.895665621114496e-02	 1.543126126975492e+01
1	 1.374783591442656e+00	 2.439419397571900e-02	 1.550615544860713e+01
1	 1.375000000000000e+00	 0.000000000000000e+00	 1.553978706471101e+01
1	 0.000000000000000e+00	 1.375000000000000e+00	-3.869929708990974e+01
1	 2.439419397571910e-02	 1.374783591442656e+00	-3.920508625893984e+01
1	 4.895665621114516e-02	 1.374128176631064e+00	-3.969150091810788e+01
1	 7.367724083926197e-02	 1.373024640776571e+00	-4.015801079291461e+01
1	 9.854533296136404e-02	 1.371464114494739e+00	-4.060412797879744e+01
1	 1.235498520981868e-01	 1.369437999341071e+00	-4.102941025001240e+01
1	 1.486792571198084e-01	 1.366937993652964e+00	-4.143346431116312e+01
1	 1.739215527069989e-01	 1.363956118608690e+00	-4.181594896883749e+01
1	 1.992642973913392e-01	 1.360484744408075e+00	-4.217657820001831e+01
1	 2.246946132154117e-01	 1.356516616473704e+00	-4.251512409330893e+01
1	 2.501991970476900e-01	 1.352044881565965e+00	-4.283141963857130e+01
1	 0.000000000000000e+00	 1.368750000000000e+00	-3.898488453659542e+01
1	 2.428331127671477e-02	 1.368534575117947e+00	-3.948666313674188e+01
1	 4.873412595726959e-02	 1.367882139464680e+00	-3.997375713092808e+01
1	 7.334234429222207e-02	 1.366783619682406e+00	-4.044563414817096e+01
1	 9.809739963240294e-02	 1.365230186702070e+00	-4.090178799367148e+01
1	 1.229882618643592e-01	 1.363213281163017e+00	-4.134174124762321e+01
1	 1.480034423178472e-01	 1.360724639137475e+00	-4.176504784968093e+01
1	 1.731310001978121e-01	 1.357756318071088e+00	-4.217129565315588e+01
1	 1.983585505879608e-01	 1.354300722844592e+00	-4.256010893227734e+01
1	 2.236732740670430e-01	 1.350350631855927e+00	-4.293115082522176e+01
1	 2.490619279723092e-01	 1.345899223016569e+00	-4.328412569510545e+01
1	 0.000000000000000e+00	 1.362500000000000e+00	-3.926880031269568e+01
1	 2.417242857753092e-02	 1.362285558793233e+00	-3.976700761908432e+01
1	 4.851159570306170e-02	 1.361636102298277e+00	-4.025526656648672e+01
1	 7.300744774472456e-02	 1.360542598588199e+00	-4.073304294572936e+01
1	 9.764946630288698e-02	 1.358996258909327e+00	-4.119981243571833e+01
1	 1.224266716299081e-01	 1.356988562984847e+00	-4.165506248775232e+01
1	 1.473276275152231e-01	 1.354511284621816e+00	-4.209829423871338e+01
1	 1.723404476879530e-01	 1.351556517533252e+00	-4.252902444384912e+01
1	 1.974528037839315e-01	 1.348116701280803e+00	-4.294678741918864e+01
1	 2.226519349180759e-01	 1.344184647237759e+00	-4.335113698299573e+01
1	 2.479246588964137e-01	 1.339753564466688e+00	-4.374164838508844e+01
1	 0.000000000000000e+00	 1.356250000000000e+00	-3.955102130755800e+01
1	 2.406154587816754e-02	 1.356036542468514e+00	-4.004610266824255e+01
1	 4.828906544852152e-02	 1.355390065131856e+00	-4.053601890067486e+01
1	 7.267255119676934e-02	 1.354301577493949e+00	-4.102023421935505e+01
1	 9.720153297281603e-02	 1.352762331116509e+00	-4.149820634310278e+01
1	 1.218650813948335e-01	 1.350763844806558e+00	-4.196938766039020e+01
1	 1.466518127119363e-01	 1.348297930105987e+00	-4.243322646697994e+01
1	 1.715498951774219e-01	 1.345356716995183e+00	-4.288916827326625e+01
1	 1.965470569792513e-01	 1.341932679716707e+00	-4.333665717810010e+01
1	 2.216305957685100e-01	 1.338018662619201e+00	-4.377513730524002e+01
1	 2.467873898200037e-01	 1.333607905916321e+00	-4.420405429792492e+01
1	 0.000000000000000e+00	 1.350000000000000e+00	-3.983152398255474e+01
1	 2.395066317862464e-02	 1.349787526143791e+00	-4.032393093097811e+01
1	 4.806653519364906e-02	 1.349144027965417e+00	-4.081600361819645e+01
1	 7.233765464835651e-02	 1.348060556399659e+00	-4.130720494788320e+01
1	 9.675359964219016e-02	 1.346528403323616e+00	-4.179697484728882e+01
1	 1.213034911591353e-01	 1.344539126628152e+00	-4.228473070904541e+01
1	 1.459759979079867e-01	 1.342084575589987e+00	-4.276986794891627e+01
1	 1.707593426662187e-01	 1.339156916456880e+00	-4.325176068361377e+01
1	 1.956413101739202e-01	 1.335748658152303e+00	-4.372976253223648e+01
1	 2.206092566183456e-01	 1.331852678000251e+00	-4.420320754424109e+01
1	 2.456501207430789e-01	 1.327462247365469e+00	-4.467141125615746e+01
1	 0.000000000000000e+00	 1.343750000000000e+00	-4.011028436112993e+01
1	 2.383978047890222e-02	 1.343538509819063e+00	-4.060047473120181e+01
1	 4.784400493844427e-02	 1.342897990798959e+00	-4.109521000812126e+01
1	 7.200275809948603e-02	 1.341819535305326e+00	-4.159395205394092e+01
1	 9.630566631100936e-02	 1.340294475530649e+00	-4.209612317521025e+01
1	 1.207419009228137e-01	 1.338314408449628e+00	-4.260110583664079e+01
1	 1.453001831033744e-01	 1.335871221073816e+00	-4.310824253457534e+01
1	 1.699687901543435e-01	 1.332957115918345e+00	-4.361683584113987e+01
1	 1.947355633679383e-01	 1.329564636587593e+00	-4.412614862944056e+01
1	 2.195879174675825e-01	 1.325686693380911e+00	-4.463540448953736e+01
1	 2.445128516656395e-01	 1.321316588814132e+00	-4.514378834414224e+01
1	 0.000000000000000e+00	 1.337500000000000e+00	-4.038727801856754e+01
1	 2.372889777900027e-02	 1.337289493494331e+00	-4.087571606243007e+01
1	 4.762147468290721e-02	 1.336651953632482e+00	-4.137362715931549e+01
1	 7.166786155015790e-02	 1.335578514210952e+00	-4.188047240263479e+01
1	 9.585773297927364e-02	 1.334060547737606e+00	-4.239565665149999e+01
1	 1.201803106858685e-01	 1.332089690270987e+00	-4.291852751157411e+01
1	 1.446243682980993e-01	 1.329657866557475e+00	-4.344837451980575e+01
1	 1.691782376417961e-01	 1.326757315379575e+00	-4.398442855071354e+01
1	 1.938298165613055e-01	 1.323380615022576e+00	-4.452586146144019e+01
1	 2.185665783162209e-01	 1.319520708761180e+00	-4.507178599215484e+01
1	 2.433755825876854e-01	 1.315170930262310e+00	-4.562125593753198e+01
1	 0.000000000000000e+00	 1.331250000000000e+00	-4.066248007147175e+01
1	 2.361801507891878e-02	 1.331040477169594e+00	-4.114963658002973e+01
1	 4.739894442703786e-02	 1.330405916465988e+00	-4.165124395574105e+01
1	 7.133296500037212e-02	 1.329337493116536e+00	-4.216676280019990e+01
1	 9.540979964698293e-02	 1.327826619944489e+00	-4.269558070078367e+01
1	 1.196187204482998e-01	 1.325864972092228e+00	-4.323701047395051e+01
1	 1.439485534921614e-01	 1.323444512040964e+00	-4.379028865671649e+01
1	 1.683876851285767e-01	 1.320557514840572e+00	-4.435457427081672e+01
1	 1.929240697540217e-01	 1.317196593457252e+00	-4.492894788365741e+01
1	 2.175452391642607e-01	 1.313354724141058e+00	-4.551241098952223e+01
1	 2.422383135092167e-01	 1.309025271710002e+00	-4.610388573358784e+01
1	 0.000000000000000e+00	 1.325000000000000e+00	-4.093586516694834e+01
1	 2.350713237865779e-02	 1.324791460844853e+00	-4.142221759324170e+01
1	 4.717641417083619e-02	 1.324159879299475e+00	-4.192804907162351e+01
1	 7.099806845012867e-02	 1.323096472022078e+00	-4.245281999261127e+01
1	 9.496186631413732e-02	 1.321592692151298e+00	-4.299590085003912e+01
1	 1.190571302101076e-01	 1.319640253913352e+00	-4.355656974199024e+01
1	 1.432727386855607e-01	 1.317231157524282e+00	-4.413401016443677e+01
1	 1.675971326146851e-01	 1.314357714301335e+00	-4.472730912895940e+01
1	 1.920183229460871e-01	 1.311012571891622e+00	-4.533545563557853e+01
1	 2.165239000117019e-01	 1.307188739520545e+00	-4.595733953109571e+01
1	 2.411010444302332e-01	 1.302879613157209e+00	-4.659175078234911e+01
1	 0.000000000000000e+00	 1.318750000000000e+00	-4.120740747147953e+01
1	 2.339624967821726e-02	 1.318542444520107e+00	-4.169344005698013e+01
1	 4.695388391430225e-02	 1.317913842132943e+00	-4.220403096648138e+01
1	 7.066317189942754e-02	 1.316855450927578e+00	-4.273864066415692e+01
1	 9.451393298073675e-02	 1.315358764358031e+00	-4.329662273102066e+01
1	 1.184955399712918e-01	 1.313415535734358e+00	-4.387722061861878e+01
1	 1.425969238782973e-01	 1.311017803007430e+00	-4.447956474018424e+01
1	 1.668065801001215e-01	 1.308157913761865e+00	-4.510266993753287e+01
1	 1.911125761375016e-01	 1.304828550325684e+00	-4.574543336170500e+01
1	 2.155025608585446e-01	 1.301022754899642e+00	-4.640663280470999e+01
1	 2.399637753507351e-01	 1.296733954603930e+00	-4.708492551869051e+01
1	 0.000000000000000e+00	 1.312500000000000e+00	-4.147708065947998e+01
1	 2.328536697759720e-02	 1.312293428195356e+00	-4.196328456339537e+01
1	 4.673135365743597e-02	 1.311667804966393e+00	-4.247917788001467e+01
1	 7.032827534826880e-02	 1.310614429833036e+00	-4.302422143596777e+01
1	 9.406599964678122e-02	 1.309124836564689e+00	-4.359775208275430e+01
1	 1.179339497318526e-01	 1.307190817555246e+00	-4.419897869824665e+01
1	 1.419211090703711e-01	 1.304804448490407e+00	-4.482697857064708e+01
1	 1.660160275848858e-01	 1.301958113222161e+00	-4.548069421011738e+01
1	 1.902068293282652e-01	 1.298644528759439e+00	-4.615893063309849e+01
1	 2.144812217047886e-01	 1.294856770278347e+00	-4.686035316368236e+01
1	 2.388265062707223e-01	 1.290588296050167e+00	-4.758348579529255e+01
1	 2.501991970476900e-01	 1.352044881565965e+00	-4.283141963857130e+01
1	 2.757643484648922e-01	 1.347063107750792e+00	-4.321885492309146e+01
1	 3.013759701586421e-01	 1.341565315762418e+00	-4.357165184590601e+01
1	 3.270195691523489e-01	 1.335546010210088e+00	-4.388847642932346e+01
1	 3.526802895081991e-01	 1.329000198331870e+00	-4.416807388705082e+01
1	 3.783429321550022e-01	 1.321923413920730e+00	-4.440927611730825e+01
1	 4.039919764044660e-01	 1.314311740438173e+00	-4.461100905980099e+01
1	 4.296116031277709e-01	 1.306161833186380e+00	-4.477229986410649e+01
1	 4.551857195536353e-01	 1.297470940409632e+00	-4.489228381599487e+01
1	 4.806979856381814e-01	 1.288236923196671e+00	-4.497021096760707e+01
1	 5.061318419458944e-01	 1.278458274057504e+00	-4.500545241734498e+01
1	 2.490619279723092e-01	 1.345899223016569e+00	-4.328412569510545e+01
1	 2.745108741552271e-01	 1.340940093628437e+00	-4.370610561558082e+01
1	 3.000060793861963e-01	 1.335467291604163e+00	-4.407721710334255e+01
1	 3.255331165657926e-01	 1.329475346532039e+00	-4.439609076881928e+01
1	 3.510771972831938e-01	 1.322959288344502e+00	-4.466149297782706e+01
1	 3.766231915538973e-01	 1.315914671135459e+00	-4.487233532903593e+01
1	 4.021556492381950e-01	 1.308337596168860e+00	-4.502768378085445e+01
1	 4.276588231123988e-01	 1.300224733950058e+00	-4.512676735426110e+01
1	 4.531166935541888e-01	 1.291573345231311e+00	-4.516898633790521e+01
1	 4.785129947926143e-01	 1.282381300823686e+00	-4.515391992229862e+01
1	 5.038312426623224e-01	 1.272647100089414e+00	-4.508133319117040e+01
1	 2.479246588964137e-01	 1.339753564466688e+00	-4.374164838508844e+01
1	 2.732573998451477e-01	 1.334817079505507e+00	-4.419728145567396e+01
1	 2.986361886134362e-01	 1.329369267445260e+00	-4.458566454850870e+01
1	 3.240466639790226e-01	 1.323404682853288e+00	-4.490539205399782e+01
1	 3.494741050580754e-01	 1.316918378356400e+00	-4.515525102189451e+01
1	 3.749034509527799e-01	 1.309905928349439e+00	-4.533423263564443e+01
1	 4.003193220720121e-01	 1.302363451898805e+00	-4.544154312058152e+01
1	 4.257060430972158e-01	 1.294287634713021e+00	-4.547661399135020e+01
1	 4.510476675550317e-01	 1.285675750052323e+00	-4.543911154458328e+01
1	 4.763280039474366e-01	 1.276525678450101e+00	-4.532894550443165e+01
1	 5.015306433792399e-01	 1.266835926120813e+00	-4.514627673114648e+01
1	 2.467873898200037e-01	 1.333607905916321e+00	-4.420405429792492e+01
1	 2.720039255346534e-01	 1.328694065382000e+00	-4.469243670808579e+01
1	 2.972662978403616e-01	 1.323271243285709e+00	-4.509703402731839e+01
1	 3.225602113920386e-01	 1.317334019173836e+00	-4.541640360668923e+01
1	 3.478710128328434e-01	 1.310877468367562e+00	-4.564935270524400e+01
1	 3.731837103516500e-01	 1.303897185562672e+00	-4.579495197393204e+01
1	 3.984829949059175e-01	 1.296389307628009e+00	-4.585254815666263e+01
1	 4.237532630822215e-01	 1.288350535475269e+00	-4.582177589261796e+01
1	 4.489786415561639e-01	 1.279778154872667e+00	-4.570256850541063e+01
1	 4.741430131026485e-01	 1.270670056075917e+00	-4.549516766738949e+01
1	 4.992300440966475e-01	 1.261024752151702e+00	-4.520013183128437e+01
1	 2.456501207430789e-01	 1.327462247365469e+00	-4.467141125615746e+01
1	 2.707504512237447e-01	 1.322571051257917e+00	-4.519162664243281e+01
1	 2.958964070669728e-01	 1.317173219125510e+00	-4.561136612357376e+01
1	 3.210737588048407e-01	 1.311263355493683e+00	-4.592914918061065e+01
1	 3.462679206074986e-01	 1.304836558377991e+00	-4.614380280064564e+01
1	 3.714639697505075e-01	 1.297888442775156e+00	-4.625447698322981e+01
1	 3.966466677399109e-01	 1.290415163356471e+00	-4.626065924599666e+01
1	 4.218004830674159e-01	 1.282413436236801e+00	-4.616218799229402e+01
1	 4.469096155575853e-01	 1.273880559692344e+00	-4.595926460586879e+01
1	 4.719580222582503e-01	 1.264814433701133e+00	-4.565246414146931e+01
1	 4.969294448145444e-01	 1.255213578182081e+00	-4.524274448548494e+01
1	 2.445128516656395e-01	 1.321316588814132e+00	-4.514378834414224e+01
1	 2.694969769124212e-01	 1.316448037133259e+00	-4.569490755660414e+01
1	 2.945265162932697e-01	 1.311075194964663e+00	-4.612870217612321e+01
1	 3.195873062174290e-01	 1.305192691812830e+00	-4.644365297140763e+01
1	 3.446648283820403e-01	 1.298795648387685e+00	-4.663860616966448e+01
1	 3.697442291493523e-01	 1.291879699986892e+00	-4.671279099848426e+01
1	 3.948103405739923e-01	 1.284441019084192e+00	-4.666583600793413e+01
1	 4.198477030527991e-01	 1.276476336997619e+00	-4.649778401408232e+01
1	 4.448405895592961e-01	 1.267982964511352e+00	-4.620910550837722e+01
1	 4.697730314142416e-01	 1.258958811325750e+00	-4.580071038218331e+01
1	 4.946288455329313e-01	 1.249402404211950e+00	-4.527395782241878e+01
1	 2.433755825876854e-01	 1.315170930262310e+00	-4.562125593753198e+01
1	 2.682435026006832e-01	 1.310325023008023e+00	-4.620233680078528e+01
1	 2.931566255192521e-01	 1.304977170803168e+00	-4.664908429650491e+01
1	 3.181008536298036e-01	 1.299122028131275e+00	-4.695993962698159e+01
1	 3.430617361564688e-01	 1.292754738396645e+00	-4.713376776473564e+01
1	 3.680244885481846e-01	 1.285870957197881e+00	-4.716987704314717e+01
1	 3.929740134081620e-01	 1.278466874811170e+00	-4.706803730704858e+01
1	 4.178949230383710e-01	 1.270539237757721e+00	-4.682849644287803e+01
1	 4.427715635612960e-01	 1.262085369329693e+00	-4.645199511203728e+01
1	 4.675880405706225e-01	 1.253103188949766e+00	-4.593977951710993e+01
1	 4.923282462518078e-01	 1.243591230241308e+00	-4.529361203858333e+01
1	 2.422383135092167e-01	 1.309025271710002e+00	-4.610388573358784e+01
1	 2.669900282885306e-01	 1.304202008882212e+00	-4.671397280216059e+01
1	 2.917867347449205e-01	 1.298879146641025e+00	-4.717255538708283e+01
1	 3.166144010419641e-01	 1.293051364449020e+00	-4.747803425810496e+01
1	 3.414586439307841e-01	 1.286713828404870e+00	-4.762929263129843e+01
1	 3.663047479470045e-01	 1.279862214408121e+00	-4.762571782185972e+01
1	 3.911376862424198e-01	 1.272492730537407e+00	-4.746722123541689e+01
1	 4.159421430241316e-01	 1.264602138517109e+00	-4.715425649568647e+01
1	 4.407025375635853e-01	 1.256187774147366e+00	-4.668783551123842e+01
1	 4.654030497273930e-01	 1.247247566573183e+00	-4.606954229124680e+01
1	 4.900276469711741e-01	 1.237780056270156e+00	-4.530154432947054e+01
1	 2.411010444302332e-01	 1.302879613157209e+00	-4.659175078234911e+01
1	 2.657365539759633e-01	 1.298078994755826e+00	-4.722987509031370e+01
1	 2.904168439702743e-01	 1.292781122478234e+00	-4.769915915970093e+01
1	 3.151279484539110e-01	 1.286980700766065e+00	-4.799796244933820e+01
1	 3.398555517049860e-01	 1.280672918412362e+00	-4.812518590998879e+01
1	 3.645850073458117e-01	 1.273853471617612e+00	-4.808029571293747e+01
1	 3.893013590767658e-01	 1.266518586262902e+00	-4.786334509440051e+01
1	 4.139893630100811e-01	 1.258665039275781e+00	-4.747499409172116e+01
1	 4.386335115661637e-01	 1.250290178964371e+00	-4.691652695309501e+01
1	 4.632180588845533e-01	 1.241391944196001e+00	-4.618986701081801e+01
1	 4.877270476910301e-01	 1.231968882298493e+00	-4.529758881878962e+01
1	 2.399637753507351e-01	 1.296733954603930e+00	-4.708492551869051e+01
1	 2.644830796629814e-01	 1.291955980628863e+00	-4.775010432335159e+01
1	 2.890469531953140e-01	 1.286683098314795e+00	-4.822894015486191e+01
1	 3.136414958656440e-01	 1.280910037082408e+00	-4.851975027025762e+01
1	 3.382524594790749e-01	 1.274632008419118e+00	-4.862145283889561e+01
1	 3.628652667446064e-01	 1.267844728826356e+00	-4.853359276063409e+01
1	 3.874650319111998e-01	 1.260544441987655e+00	-4.825636537590793e+01
1	 4.120365829962194e-01	 1.252727940033738e+00	-4.779063782164973e+01
1	 4.365644855690316e-01	 1.244392583780708e+00	-4.713796779367075e+01
1	 4.610330680421030e-01	 1.235536321818219e+00	-4.630061948548338e+01
1	 4.854264484113758e-01	 1.226157708326320e+00	-4.528157648567579e+01
1	 2.388265062707223e-01	 1.290588296050167e+00	-4.758348579529255e+01
1	 2.632296053495848e-01	 1.285832966501324e+00	-4.827472231477289e+01
1	 2.876770624200390e-01	 1.280585074150708e+00	-4.876194376145991e+01
1	 3.121550432771631e-01	 1.274839373398050e+00	-4.904342428700195e+01
1	 3.366493672530504e-01	 1.268591098425140e+00	-4.911809875588033e+01
1	 3.611455261433884e-01	 1.261835986034352e+00	-4.898559066719037e+01
1	 3.856287047457219e-01	 1.254570297711666e+00	-4.864623774312242e+01
1	 4.100838029825464e-01	 1.246790840790980e+00	-4.810111491596226e+01
1	 4.344954595721886e-01	 1.238494988596377e+00	-4.735205445295498e+01
1	 4.588480772000423e-01	 1.229680699439837e+00	-4.640166296889607e+01
1	 4.831258491322111e-01	 1.220346534353637e+00	-4.525333508981924e+01
1	 5.061318419458944e-01	 1.278458274057504e+00	-4.500545241734497e+01
1	 5.314698728575059e-01	 1.268134401517793e+00	-4.450139361538027e+01
1	 5.566957962698624e-01	 1.257264866546057e+00	-4.379283976447603e+01
1	 5.817925756559704e-01	 1.245850152644200e+00	-4.288203364147535e+01
1	 6.067430801902702e-01	 1.233891433362571e+00	-4.177195892619293e+01
1	 6.315301188945651e-01	 1.221390582486489e+00	-4.046634614659879e+01
1	 6.561364757050491e-01	 1.208350182234761e+00	-3.896967493379839e+01
1	 6.805449453277234e-01	 1.194773529385564e+00	-3.728717246397764e+01
1	 7.047383697412398e-01	 1.180664639255021e+00	-3.542480799191734e+01
1	 7.286996751987920e-01	 1.166028247464639e+00	-3.338928341002707e+01
1	 7.524119095741802e-01	 1.150869809445401e+00	-3.118801979779950e+01
1	 5.038312426623224e-01	 1.272647100089414e+00	-4.508133319117042e+01
1	 5.290541007059467e-01	 1.262370154242714e+00	-4.445942838774016e+01
1	 5.541653608298899e-01	 1.251550026247741e+00	-4.364978005296395e+01
1	 5.791480639459179e-01	 1.240187197408663e+00	-4.265452720315069e+01
1	 6.039851570958600e-01	 1.228282835941509e+00	-4.147648342055493e+01
1	 6.286595274423303e-01	 1.215838807114393e+00	-4.011914198343872e+01
1	 6.531540371763587e-01	 1.202857681408762e+00	-3.858667764013588e+01
1	 6.774515592098285e-01	 1.189342740617438e+00	-3.688394491713643e+01
1	 7.015350135123973e-01	 1.175297981805108e+00	-3.501647287618010e+01
1	 7.253874039451997e-01	 1.160728119067728e+00	-3.299045626200606e+01
1	 7.489918554371555e-01	 1.145638583038865e+00	-3.081274301052893e+01
1	 5.015306433792399e-01	 1.266835926120813e+00	-4.514627673114648e+01
1	 5.266383285549677e-01	 1.256605906967220e+00	-4.440767482101722e+01
1	 5.516349253905691e-01	 1.245835185949095e+00	-4.349823542148648e+01
1	 5.765035522365686e-01	 1.234524242172873e+00	-4.241999318962360e+01
1	 6.012272340021856e-01	 1.222674238520261e+00	-4.117559061716556e+01
1	 6.257889359908438e-01	 1.210287031742166e+00	-3.976828234048725e+01
1	 6.501715986484088e-01	 1.197365180582679e+00	-3.820193643054144e+01
1	 6.743581730926456e-01	 1.183911951849266e+00	-3.648103256571354e+01
1	 6.983316572842189e-01	 1.169931324355175e+00	-3.461065701300841e+01
1	 7.220751326922028e-01	 1.155427990670811e+00	-3.259649436696785e+01
1	 7.455718013006362e-01	 1.140407356632329e+00	-3.044481602097955e+01
1	 4.992300440966475e-01	 1.261024752151702e+00	-4.520013183128435e+01
1	 5.242225564045692e-01	 1.250841659691311e+00	-4.434599759256005e+01
1	 5.491044899518994e-01	 1.240120345650121e+00	-4.333808856700929e+01
1	 5.738590405279230e-01	 1.228861286936830e+00	-4.217833444548093e+01
1	 5.984693109092469e-01	 1.217065641098826e+00	-4.086920562251083e+01
1	 6.229183445401053e-01	 1.204735256369810e+00	-3.941371668115902e+01
1	 6.471891601211990e-01	 1.191872679756513e+00	-3.781542719557875e+01
1	 6.712647869761754e-01	 1.178481163081046e+00	-3.607843976724807e+01
1	 6.951283010567043e-01	 1.164564666905221e+00	-3.420739523077683e+01
1	 7.187628614398004e-01	 1.150127862273889e+00	-3.220746498647129e+01
1	 7.421517471646218e-01	 1.135176130225793e+00	-3.008434043925401e+01
1	 4.969294448145444e-01	 1.255213578182081e+00	-4.524274448548494e+01
1	 5.218067842547505e-01	 1.245077412414986e+00	-4.427425887374127e+01
1	 5.465740545138817e-01	 1.234405505350818e+00	-4.316922001421883e+01
1	 5.712145288199806e-01	 1.223198331700534e+00	-4.192945201613605e+01
1	 5.957113878170439e-01	 1.211457043677205e+00	-4.055725215615917e+01
1	 6.200477530901150e-01	 1.199183480997323e+00	-3.905539353300588e+01
1	 6.442067215947296e-01	 1.186380178930263e+00	-3.742712537933999e+01
1	 6.681714008604170e-01	 1.173050374312779e+00	-3.567617095997499e+01
1	 6.919249448298534e-01	 1.159198009455246e+00	-3.380672300282892e+01
1	 7.154505901879930e-01	 1.144827733876962e+00	-3.182343662766001e+01
1	 7.387316930291129e-01	 1.129944903819256e+00	-2.973141975712369e+01
1	 4.946288455329313e-01	 1.249402404211950e+00	-4.527395782241878e+01
1	 5.193910121055121e-01	 1.239313165138247e+00	-4.419231827167972e+01
1	 5.440436190765153e-01	 1.228690665051185e+00	-4.299150806500614e+01
1	 5.685700171127418e-01	 1.217535376463986e+00	-4.167324510598576e+01
1	 5.929534647255764e-01	 1.205848446255397e+00	-4.023965251850944e+01
1	 6.171771616408723e-01	 1.193631705624707e+00	-3.869326046595282e+01
1	 6.412242830690006e-01	 1.180887678103930e+00	-3.703700596906369e+01
1	 6.650780147453714e-01	 1.167619585544466e+00	-3.527423066470040e+01
1	 6.887215886036667e-01	 1.153831352005250e+00	-3.340867646247890e+01
1	 7.121383189367807e-01	 1.139527605480030e+00	-3.144447907222895e+01
1	 7.353116388941094e-01	 1.124713677412720e+00	-2.938615939178854e+01
1	 4.923282462518078e-01	 1.243591230241308e+00	-4.529361203858335e+01
1	 5.169752399568540e-01	 1.233548917861093e+00	-4.410003276932941e+01
1	 5.415131836398007e-01	 1.222975824751223e+00	-4.280482874653059e+01
1	 5.659255054062066e-01	 1.211872421227184e+00	-4.140961103539786e+01
1	 5.901955416348448e-01	 1.200239848833403e+00	-3.991632755763035e+01
1	 6.143065701923780e-01	 1.188079930251962e+00	-3.832726406992376e+01
1	 6.382418445440119e-01	 1.175395177277514e+00	-3.664504348445988e+01
1	 6.619846286310376e-01	 1.162188796776104e+00	-3.487262348673182e+01
1	 6.855182323781439e-01	 1.148464694555233e+00	-3.301329241842937e+01
1	 7.088260476861634e-01	 1.134227477083092e+00	-3.107066340620367e+01
1	 7.318915847596114e-01	 1.119482451006184e+00	-2.904866673086357e+01
1	 4.900276469711741e-01	 1.237780056270156e+00	-4.530154432947056e+01
1	 5.145594678087761e-01	 1.227784670583524e+00	-4.399725666387778e+01
1	 5.389827482037373e-01	 1.217260984450932e+00	-4.260905575782304e+01
1	 5.632809937003745e-01	 1.206209465990129e+00	-4.113844519648343e+01
1	 5.874376185448488e-01	 1.194631251411223e+00	-3.958719663516977e+01
1	 6.114359787446316e-01	 1.182528154879085e+00	-3.795734993183596e+01
1	 6.352594060197633e-01	 1.169902676451015e+00	-3.625121196673538e+01
1	 6.588912425174166e-01	 1.156758008007697e+00	-3.447135411786162e+01
1	 6.823148761532850e-01	 1.143098037105195e+00	-3.262060837062607e+01
1	 7.055137764361411e-01	 1.128927348686150e+00	-3.070206205055912e+01
1	 7.284715306256183e-01	 1.114251224599648e+00	-2.871905117863255e+01
1	 4.877270476910301e-01	 1.231968882298493e+00	-4.529758881878962e+01
1	 5.121436956612785e-01	 1.222020423305540e+00	-4.388384150340224e+01
1	 5.364523127683255e-01	 1.211546144150312e+00	-4.240406041487757e+01
1	 5.606364819952459e-01	 1.200546510752822e+00	-4.085964100762025e+01
1	 5.846796954555886e-01	 1.189022653988856e+00	-3.925217759129715e+01
1	 6.085653872976333e-01	 1.176976379506080e+00	-3.758346261194522e+01
1	 6.322769674962552e-01	 1.164410175624431e+00	-3.585548496730863e+01
1	 6.557978564045079e-01	 1.151327219239242e+00	-3.407042733840602e+01
1	 6.791115199290898e-01	 1.137731379655136e+00	-3.223066252656115e+01
1	 7.022015051867133e-01	 1.123627220289202e+00	-3.033874879270376e+01
1	 7.250514764921306e-01	 1.109019998193111e+00	-2.839742420361143e+01
1	 4.854264484113758e-01	 1.226157708326320e+00	-4.528157648567579e+01
1	 5.097279235143610e-01	 1.216256176027140e+00	-4.375963602172676e+01
1	 5.339218773335651e-01	 1.205831303849362e+00	-4.218971159418125e+01
1	 5.579919702908208e-01	 1.194883555515261e+00	-4.057308986668152e+01
1	 5.819217723670639e-01	 1.183414056566302e+00	-3.891118670864993e+01
1	 6.056947958513830e-01	 1.171424604132944e+00	-3.720554561951641e+01
1	 6.292945289734875e-01	 1.158917674797765e+00	-3.545783553620299e+01
1	 6.527044702923113e-01	 1.145896430470740e+00	-3.366984801930371e+01
1	 6.759081637055586e-01	 1.132364722205056e+00	-3.184349381803981e+01
1	 6.988892339378810e-01	 1.118327091892248e+00	-2.998079881885907e+01
1	 7.216314223591485e-01	 1.103788771786575e+00	-2.808389938746317e+01
1	 4.831258491322111e-01	 1.220346534353637e+00	-4.525333508981924e+01
1	 5.073121513680235e-01	 1.210491928748326e+00	-4.362448607141426e+01
1	 5.313914418994564e-01	 1.200116463548084e+00	-4.196587567462998e+01
1	 5.553474585870992e-01	 1.189220600277448e+00	-4.027868110292791e+01
1	 5.791638492792750e-01	 1.177805459143562e+00	-3.856413867524881e+01
1	 6.028242044058807e-01	 1.165872828759678e+00	-3.682354138780096e+01
1	 6.263120904514597e-01	 1.153425173971015e+00	-3.505823621010910e+01
1	 6.496110841808270e-01	 1.140465641702191e+00	-3.326962112427324e+01
1	 6.727048074826912e-01	 1.126998064754955e+00	-3.145914191842446e+01
1	 6.955769626896431e-01	 1.113026963495290e+00	-2.962828874736546e+01
1	 7.182113682266713e-01	 1.098557545380039e+00	-2.777859247531176e+01
1	 7.524119095741802e-01	 1.150869809445401e+00	-3.118801979779949e+01
1	 7.758588654596117e-01	 1.135195110388754e+00	-2.869046484779510e+01
1	 7.990233304470913e-01	 1.119011432916678e+00	-2.629303864492242e+01
1	 8.218889414196058e-01	 1.102326366254503e+00	-2.399550190823947e+01
1	 8.444396064822117e-01	 1.085148194225078e+00	-2.179718431960395e+01
1	 8.666595415573510e-01	 1.067485883101482e+00	-1.969698569527083e+01
1	 8.885333063206798e-01	 1.049349067158791e+00	-1.769337953694296e+01
1	 9.100458393092877e-01	 1.030748031967487e+00	-1.578441896029130e+01
1	 9.311824920374201e-01	 1.011693695485087e+00	-1.396774497869343e+01
1	 9.519290619593673e-01	 9.921975870162600e-01	-1.224059709967562e+01
1	 9.722718241249999e-01	 9.722718241249999e-01	-1.059982617154997e+01
1	 7.489918554371555e-01	 1.145638583038865e+00	-3.081274301052893e+01
1	 7.723322342504788e-01	 1.130035132613693e+00	-2.837571029838877e+01
1	 7.953914062153643e-01	 1.113925017311419e+00	-2.603134453015642e+01
1	 8.181530825926033e-01	 1.097315791860890e+00	-2.377960294888340e+01
1	 8.406012446322296e-01	 1.080215702431220e+00	-2.162004179190338e+01
1	 8.627201800024915e-01	 1.062633674539700e+00	-1.955181675163238e+01
1	 8.844945185623381e-01	 1.044579298669247e+00	-1.757368565020458e+01
1	 9.059092673100536e-01	 1.026062813637751e+00	-1.568401333005164e+01
1	 9.269498443439098e-01	 1.007095087775648e+00	-1.388077874367731e+01
1	 9.476021116752226e-01	 9.876875979816788e-01	-1.216158420698332e+01
1	 9.678524067399998e-01	 9.678524067399998e-01	-1.052366676182456e+01
1	 7.455718013006362e-01	 1.140407356632329e+00	-3.044481602097954e+01
1	 7.688056030417558e-01	 1.124875154838632e+00	-2.806742722783669e+01
1	 7.917594819839616e-01	 1.108838601706158e+00	-2.577517874605980e+01
1	 8.144172237658499e-01	 1.092305217467278e+00	-2.356822579139260e+01
1	 8.367628827824305e-01	 1.075283210637362e+00	-2.144635277927450e+01
1	 8.587808184477596e-01	 1.057781465977918e+00	-1.940897307068861e+01
1	 8.804557308040780e-01	 1.039809530179703e+00	-1.745513076536494e+01
1	 9.017726953108656e-01	 1.021377595308014e+00	-1.558350454856358e+01
1	 9.227171966504198e-01	 1.002496480066209e+00	-1.379241358021827e+01
1	 9.432751613910831e-01	 9.831776089470978e-01	-1.207982539770641e+01
1	 9.634329893549999e-01	 9.634329893550000e-01	-1.044336578614989e+01
1	 7.421517471646218e-01	 1.135176130225793e+00	-3.008434043925401e+01
1	 7.652789718334431e-01	 1.119715177063572e+00	-2.776570510358498e+01
1	 7.881275577528838e-01	 1.103752186100899e+00	-2.552461772116448e+01
1	 8.106813649393455e-01	 1.087294643073665e+00	-2.336143294915474e+01
1	 8.329245209328147e-01	 1.070350718843504e+00	-2.127616502616377e+01
1	 8.548414568931548e-01	 1.052929257416136e+00	-1.926848679892716e+01
1	 8.764169430458995e-01	 1.035039761690159e+00	-1.733773062899343e+01
1	 8.976361233117229e-01	 1.016692376978278e+00	-1.548289118977271e+01
1	 9.184845489569502e-01	 9.978978723567703e-01	-1.370263014829149e+01
1	 9.389482111069487e-01	 9.786676199125163e-01	-1.199528270986406e+01
1	 9.590135719700001e-01	 9.590135719700001e-01	-1.035886598785372e+01
1	 7.387316930291129e-01	 1.129944903819256e+00	-2.973141975712369e+01
1	 7.617523406255401e-01	 1.114555199288511e+00	-2.747063504988455e+01
1	 7.844956335221306e-01	 1.098665770495638e+00	-2.527973929934607e+01
1	 8.069455061130896e-01	 1.082284068680053e+00	-2.315928809321338e+01
1	 8.290861590833817e-01	 1.065418227049646e+00	-2.110952716117395e+01
1	 8.509020953386773e-01	 1.048077048854354e+00	-1.913039067814100e+01
1	 8.723781552878023e-01	 1.030269993200615e+00	-1.722150127926229e+01
1	 8.934995513126266e-01	 1.012007158648541e+00	-1.538217180121574e+01
1	 9.142519012635012e-01	 9.932992646473318e-01	-1.361140874972357e+01
1	 9.346212608228189e-01	 9.741576308779352e-01	-1.190791747847611e+01
1	 9.545941545850001e-01	 9.545941545850001e-01	-1.027010904995526e+01
1	 7.353116388941094e-01	 1.124713677412720e+00	-2.938615939178854e+01
1	 7.582257094180476e-01	 1.109395221513451e+00	-2.718230988632201e+01
1	 7.808637092917019e-01	 1.093579354890378e+00	-2.504062277273809e+01
1	 8.032096472870832e-01	 1.077273494286440e+00	-2.296185607918896e+01
1	 8.252477972341321e-01	 1.060485735255789e+00	-2.094648871762622e+01
1	 8.469627337843273e-01	 1.043224840292572e+00	-1.899471805927283e+01
1	 8.683393675297870e-01	 1.025500224711071e+00	-1.710645905272844e+01
1	 8.893629793135766e-01	 1.007321940318805e+00	-1.528134490340706e+01
1	 9.100192535700725e-01	 9.887006569378931e-01	-1.351872931986301e+01
1	 9.302943105386950e-01	 9.696476418433542e-01	-1.181769031921391e+01
1	 9.501747372000000e-01	 9.501747372000000e-01	-1.017703557050632e+01
1	 7.318915847596114e-01	 1.119482451006184e+00	-2.904866673086356e+01
1	 7.546990782109652e-01	 1.104235243738390e+00	-2.690082416742874e+01
1	 7.772317850615982e-01	 1.088492939285118e+00	-2.480734891556991e+01
1	 7.994737884613253e-01	 1.072262919892827e+00	-2.276920297495717e+01
1	 8.214094353850657e-01	 1.055553243461931e+00	-2.078710015469819e+01
1	 8.430233722301045e-01	 1.038372631730790e+00	-1.886150291664768e+01
1	 8.643005797718534e-01	 1.020730456221528e+00	-1.699262059130515e+01
1	 8.852264073145723e-01	 1.002636721989069e+00	-1.518040898920699e+01
1	 9.057866058766643e-01	 9.841020492284543e-01	-1.342457141901863e+01
1	 9.259673602545758e-01	 9.651376528087727e-01	-1.172456111159291e+01
1	 9.457553198150002e-01	 9.457553198150002e-01	-1.007958503724210e+01
1	 7.284715306256183e-01	 1.114251224599648e+00	-2.871905117863255e+01
1	 7.511724470042929e-01	 1.099075265963330e+00	-2.662627422340846e+01
1	 7.735998608318189e-01	 1.083406523679858e+00	-2.458000001895821e+01
1	 7.957379296358165e-01	 1.067252345499214e+00	-2.258139608910478e+01
1	 8.175710735361824e-01	 1.050620751668073e+00	-2.063141287915787e+01
1	 8.390840106760091e-01	 1.033520423169008e+00	-1.873077986260573e+01
1	 8.602617920140010e-01	 1.015960687731984e+00	-1.688000284942967e+01
1	 8.810898353156134e-01	 9.979515036593324e-01	-1.507936252317275e+01
1	 9.015539581832762e-01	 9.795034415190155e-01	-1.332891422365508e+01
1	 9.216404099704616e-01	 9.606276637741915e-01	-1.162848898169230e+01
1	 9.413359024300001e-01	 9.413359024300002e-01	-9.977695801517442e+00
1	 7.250514764921306e-01	 1.109019998193111e+00	-2.839742420361143e+01
1	 7.476458157980308e-01	 1.093915288188269e+00	-2.635875820201589e+01
1	 7.699679366023642e-01	 1.078320108074598e+00	-2.435865992668206e+01
1	 7.920020708105567e-01	 1.062241771105602e+00	-2.239850400019208e+01
1	 8.137327116874824e-01	 1.045688259874215e+00	-2.047947926771204e+01
1	 8.351446491220412e-01	 1.028668214607227e+00	-1.860258416255057e+01
1	 8.562230042562302e-01	 1.011190919242440e+00	-1.676862310143445e+01
1	 8.769532633167008e-01	 9.932662853295958e-01	-1.497820394089134e+01
1	 8.973213104899087e-01	 9.749048338095767e-01	-1.323173651734019e+01
1	 9.173134596863528e-01	 9.561176747396105e-01	-1.152943228438541e+01
1	 9.369164850450002e-01	 9.369164850450002e-01	-9.871305051504800e+00
1	 7.216314223591485e-01	 1.103788771786575e+00	-2.808389938746317e+01
1	 7.441191845921786e-01	 1.088755310413208e+00	-2.609837611162704e+01
1	 7.663360123732340e-01	 1.073233692469338e+00	-2.414341407197666e+01
1	 7.882662119855460e-01	 1.057231196711989e+00	-2.222059658684677e+01
1	 8.098943498389654e-01	 1.040755768080357e+00	-2.033135268999114e+01
1	 8.312052875682004e-01	 1.023816006045445e+00	-1.847695175042394e+01
1	 8.521842164985411e-01	 1.006421150752896e+00	-1.665849894912743e+01
1	 8.728166913178340e-01	 9.885810669998595e-01	-1.487693164829198e+01
1	 8.930886627965620e-01	 9.703062261001381e-01	-1.313301668143431e+01
1	 9.129865094022489e-01	 9.516076857050291e-01	-1.142734858506428e+01
1	 9.324970676600003e-01	 9.324970676600003e-01	-9.760348784631411e+00
1	 7.182113682266713e-01	 1.098557545380039e+00	-2.777859247531176e+01
1	 7.405925533867365e-01	 1.083595332638148e+00	-2.584522986553987e+01
1	 7.627040881444286e-01	 1.068147276864078e+00	-2.393434951537633e+01
1	 7.845303531607838e-01	 1.052220622318377e+00	-2.204774505871815e+01
1	 8.060559879906316e-01	 1.035823276286499e+00	-2.018708753218984e+01
1	 8.272659260144869e-01	 1.018963797483662e+00	-1.835391924462375e+01
1	 8.481454287409333e-01	 1.001651382263352e+00	-1.654964832958914e+01
1	 8.686801193190133e-01	 9.838958486701231e-01	-1.477554402094115e+01
1	 8.888560151032351e-01	 9.657076183906991e-01	-1.303273268551424e+01
1	 9.086595591181502e-01	 9.470976966704479e-01	-1.132219464084278e+01
1	 9.280776502749999e-01	 9.280776502750000e-01	-9.644761779227611e+00
1	 9.722718241249999e-01	 9.722718241249999e-01	-1.059982617154997e+01
1	 9.921975768801612e-01	 9.519290774042839e-01	-9.278310414564105e+00
1	 1.011693655060161e+00	 9.311825536839636e-01	-7.929344895240323e+00
1	 1.030747941294040e+00	 9.100459776802332e-01	-6.554818980632589e+00
1	 1.049348906487999e+00	 8.885335516599898e-01	-5.156708828708594e+00
1	 1.067485632912430e+00	 8.666599237864128e-01	-3.737070528132723e+00
1	 1.085147835240980e+00	 8.444401551573477e-01	-2.298032842305007e+00
1	 1.102325879458094e+00	 8.218896856909994e-01	-8.417896045725113e-01
1	 1.119010799564737e+00	 7.990242990192606e-01	 6.294081858805902e-01
1	 1.135194312025773e+00	 7.758600865535589e-01	 2.113260515874285e+00
1	 1.150868827916379e+00	 7.524134108913274e-01	 3.607426704666197e+00
1	 9.678524067399998e-01	 9.678524067399998e-01	-1.052366676182456e+01
1	 9.876875878916531e-01	 9.476021270499351e-01	-9.184660216399003e+00
1	 1.007095047534472e+00	 9.269499057102418e-01	-7.820740921167497e+00
1	 1.026062723376456e+00	 9.059094050520405e-01	-6.433779756026344e+00
1	 1.044579138728777e+00	 8.844947627864692e-01	-5.025725311179574e+00
1	 1.062633425487870e+00	 8.627205604941484e-01	-3.598597193198776e+00
1	 1.080215345078869e+00	 8.406017908133876e-01	-2.154478981474220e+00
1	 1.097315307277192e+00	 8.181538234809451e-01	-6.955108802343508e-01
1	 1.113924386838350e+00	 7.953923703849327e-01	 7.761178864542460e-01
1	 1.130034337879635e+00	 7.723334497939989e-01	 2.258176887541433e+00
1	 1.145637605971338e+00	 7.489933499301338e-01	 3.748402455287412e+00
1	 9.634329893549999e-01	 9.634329893550000e-01	-1.044336578614989e+01
1	 9.831775989031452e-01	 9.432751766955915e-01	-9.086923723459176e+00
1	 1.002496440008782e+00	 9.227172577365401e-01	-7.708126244116824e+00
1	 1.021377505458871e+00	 9.017728324238935e-01	-6.308825575548455e+00
1	 1.039809370969555e+00	 8.804559739130307e-01	-4.890942523448495e+00
1	 1.057781218063311e+00	 8.587811972020114e-01	-3.456459945049435e+00
1	 1.075282854916757e+00	 8.367634264696109e-01	-2.007415919156012e+00
1	 1.092304735096290e+00	 8.144179612711399e-01	-5.458966563743746e-01
1	 1.108837974111962e+00	 7.917604417509294e-01	 9.259708051586060e-01
1	 1.124874363733497e+00	 7.688068130348490e-01	 2.406026071815597e+00
1	 1.140406384026298e+00	 7.455732889694455e-01	 3.892082986612134e+00
1	 9.590135719700001e-01	 9.590135719700001e-01	-1.035886598785372e+01
1	 9.786676099146372e-01	 9.389482263412531e-01	-8.985044443189947e+00
1	 9.978978324830932e-01	 9.184846097628591e-01	-7.591445416581546e+00
1	 1.016692287541287e+00	 8.976362597957922e-01	-6.179902315384807e+00
1	 1.035039603210333e+00	 8.764171850396734e-01	-4.752307941042412e+00
1	 1.052929010638753e+00	 8.548418339100018e-01	-3.310608130506283e+00
1	 1.070350364754645e+00	 8.329250621260170e-01	-1.856795141043696e+00
1	 1.087294162915389e+00	 8.106820990615835e-01	-3.929008200952302e-01
1	 1.103751561385574e+00	 7.881285131172506e-01	 1.079010396622892e+00
1	 1.119714389587359e+00	 7.652801762761088e-01	 2.556848614493680e+00
1	 1.135175162081257e+00	 7.421532280092624e-01	 4.038505691922636e+00
1	 9.545941545850001e-01	 9.545941545850001e-01	-1.027010904995526e+01
1	 9.741576209261291e-01	 9.346212759869191e-01	-8.878964836878337e+00
1	 9.932992249574042e-01	 9.142519617891984e-01	-7.470641964249177e+00
1	 1.012007069623703e+00	 8.934996871677373e-01	-6.046954849428648e+00
1	 1.030269835451111e+00	 8.723783961663979e-01	-4.609768066812721e+00
1	 1.048076803214194e+00	 8.509024706181199e-01	-3.160990158369131e+00
1	 1.065417874592533e+00	 8.290866977826062e-01	-1.702567234417557e+00
1	 1.082283590734487e+00	 8.069462368522762e-01	-2.364764045576035e-01
1	 1.098665148659187e+00	 7.844965844838969e-01	 1.235280920191624e+00
1	 1.114554415441221e+00	 7.617535395177791e-01	 2.710685812220928e+00
1	 1.129943940136216e+00	 7.387331670495847e-01	 4.187708656969546e+00
1	 9.501747372000000e-01	 9.501747372000000e-01	-1.017703557050632e+01
1	 9.696476319376209e-01	 9.302943256325911e-01	-8.768626295323799e+00
1	 9.887006174317152e-01	 9.100193138155581e-01	-7.345658362122591e+00
1	 1.007321851706118e+00	 8.893631145397278e-01	-5.909927025970968e+00
1	 1.025500067691888e+00	 8.683396072932036e-01	-4.463268408315223e+00
1	 1.043224595789634e+00	 8.469631073263648e-01	-3.007553477601319e+00
1	 1.060485384430421e+00	 8.252483334393788e-01	-1.544681867251242e+00
1	 1.077273018553585e+00	 8.032103746432177e-01	-7.657556911982244e-02
1	 1.093578735932799e+00	 7.808646558508676e-01	 1.394827458638926e+00
1	 1.109394441295083e+00	 7.582269027598595e-01	 2.867579729952430e+00
1	 1.124712718191176e+00	 7.353131060904124e-01	 4.339730676075575e+00
1	 9.457553198150002e-01	 9.457553198150002e-01	-1.007958503724210e+01
1	 9.651376429491131e-01	 9.259673752782674e-01	-8.653969113826500e+00
1	 9.841020099060259e-01	 9.057866658419381e-01	-7.216436009970950e+00
1	 1.002636633788534e+00	 8.852265419117650e-01	-5.768761643738233e+00
1	 1.020730299932666e+00	 8.643008184200911e-01	-4.312753454555133e+00
1	 1.038372388365075e+00	 8.430237440347372e-01	-2.850244554904002e+00
1	 1.055552894268309e+00	 8.214099690963345e-01	-1.383087766732906e+00
1	 1.072262446372684e+00	 7.994745124344081e-01	 8.685042107712970e-02
1	 1.088492323206411e+00	 7.772327272181627e-01	 1.557695937407885e+00
1	 1.104234467148945e+00	 7.547002660023501e-01	 3.027573218903960e+00
1	 1.119481496246135e+00	 7.318930451317452e-01	 4.494611268691073e+00
1	 9.413359024300001e-01	 9.413359024300002e-01	-9.977695801517442e+00
1	 9.606276539606048e-01	 9.216404249239493e-01	-8.534932466471718e+00
1	 9.795034023803366e-01	 9.015540178683389e-01	-7.082915207089269e+00
1	 9.979514158709496e-01	 8.810899692838472e-01	-5.623400427254613e+00
1	 1.015960532173444e+00	 8.602620295470601e-01	-4.158166652077884e+00
1	 1.033520180940517e+00	 8.390843807432370e-01	-2.689008851658013e+00
1	 1.050620404106197e+00	 8.175716047534732e-01	-1.217732697181083e+00
1	 1.067251874191782e+00	 7.957386502258477e-01	 2.538512161008852e-01
1	 1.083405910480024e+00	 7.736007985857827e-01	 1.723933144391147e+00
1	 1.099074493002807e+00	 7.511736292452506e-01	 3.190709935009143e+00
1	 1.114250274301094e+00	 7.284729841735834e-01	 4.652390696415676e+00
1	 9.369164850450002e-01	 9.369164850450002e-01	-9.871305051504800e+00
1	 9.561176649720968e-01	 9.173134745696362e-01	-8.411454379685866e+00
1	 9.749047948546478e-01	 8.973213698947597e-01	-6.945035126344682e+00
1	 9.932661979533655e-01	 8.769533966559760e-01	-5.473784001506748e+00
1	 1.011190764414222e+00	 8.562232406741107e-01	-3.999450380382111e+00
1	 1.028667973515957e+00	 8.351450174518640e-01	-2.523790800213549e+00
1	 1.045687913944085e+00	 8.137332404107953e-01	-1.048563437335237e+00
1	 1.062241302010880e+00	 7.920027880175358e-01	 4.244774028129972e-01
1	 1.078319497753636e+00	 7.699688699537273e-01	 1.893586750271782e+00
1	 1.093914518856669e+00	 7.476469924885614e-01	 3.357034357898235e+00
1	 1.109019052356053e+00	 7.250529232159270e-01	 4.813109980501926e+00
1	 9.324970676600003e-01	 9.324970676600003e-01	-9.760348784631411e+00
1	 9.516076759835889e-01	 9.129865242153281e-01	-8.283471705040977e+00
1	 9.703061873289588e-01	 8.930887219212015e-01	-6.802733787483011e+00
1	 9.885809800357807e-01	 8.728168240281501e-01	-5.319851865888710e+00
1	 1.006420996655000e+00	 8.521844518012430e-01	-3.836545926635193e+00
1	 1.023815766091398e+00	 8.312056541606184e-01	-2.354533779505636e+00
1	 1.040755423781973e+00	 8.098948760683004e-01	-8.755257570010166e-01
1	 1.057230729829978e+00	 7.882669258094731e-01	 5.987805270675643e-01
1	 1.073233085027249e+00	 7.663369413219965e-01	 2.066705329442616e+00
1	 1.088754544710531e+00	 7.441203557322823e-01	 3.526591810417743e+00
1	 1.103787830411013e+00	 7.216328622587760e-01	 4.976810919856663e+00
1	 9.280776502749999e-01	 9.280776502750000e-01	-9.644761779227611e+00
1	 9.470976869950806e-01	 9.086595738610251e-01	-8.150920091281609e+00
1	 9.657075798032693e-01	 8.888560739476630e-01	-6.655948029673765e+00
1	 9.838957621181963e-01	 8.686802514003704e-01	-5.161542367402241e+00
1	 1.001651228895778e+00	 8.481456629284566e-01	-3.669393459664632e+00
1	 1.018963558666839e+00	 8.272662908695004e-01	-2.181180089972837e+00
1	 1.035822933619861e+00	 8.060565117259884e-01	-6.985643930277239e-01
1	 1.052220157649076e+00	 7.845310636016595e-01	 7.768131165447137e-01
1	 1.068146672300861e+00	 7.627050126905902e-01	 2.243338381523098e+00
1	 1.083594570564393e+00	 7.405937189764132e-01	 3.699428478706234e+00
1	 1.098556608465972e+00	 7.182128013021297e-01	 5.143536109556122e+00
1	 1.150868827916379e+00	 7.524134108913274e-01	 3.607426704666197e+00
1	 1.166027462739399e+00	 7.287008687329781e-01	 4.581009690863600e+00
1	 1.180664043898490e+00	 7.047392534804007e-01	 5.511058161916360e+00
1	 1.194773115827342e+00	 6.805455176867414e-01	 6.394422618692712e+00
1	 1.208349942789195e+00	 6.561367355249964e-01	 7.228128538548730e+00
1	 1.221390509372736e+00	 6.315300654405881e-01	 8.009385028809184e+00
1	 1.233891518724545e+00	 6.067427131481519e-01	 8.735592410620635e+00
1	 1.245850388570336e+00	 5.817918951274083e-01	 9.404348709084982e+00
1	 1.257265245088788e+00	 5.566948027665095e-01	 1.001345503487665e+01
1	 1.268134914712668e+00	 5.314685672938275e-01	 1.056091985170248e+01
1	 1.278458913941871e+00	 5.061302256309002e-01	 1.104496213288672e+01
1	 1.145637605971338e+00	 7.489933499301338e-01	 3.748402455287409e+00
1	 1.160727337909421e+00	 7.253885920542307e-01	 4.722928296288649e+00
1	 1.175297389154743e+00	 7.015358932345618e-01	 5.654604182970066e+00
1	 1.189342328939027e+00	 6.774521289672144e-01	 6.540483104656988e+00
1	 1.202857443051585e+00	 6.531542958153064e-01	 7.377786297747493e+00
1	 1.215838734332974e+00	 6.286594742313261e-01	 8.163911197310028e+00
1	 1.228282920915475e+00	 6.039847917221153e-01	 8.896438372208046e+00
1	 1.240187432262408e+00	 5.791473865106673e-01	 9.573137422657979e+00
1	 1.251550403069823e+00	 5.541643718424615e-01	 1.019197182788121e+01
1	 1.262370665104885e+00	 5.290528010766488e-01	 1.075110274012503e+01
1	 1.272647737065216e+00	 5.038296336942144e-01	 1.124889172970347e+01
1	 1.140406384026298e+00	 7.455732889694455e-01	 3.892082986612132e+00
1	 1.155427213079437e+00	 7.220763153760780e-01	 4.866821946046509e+00
1	 1.169930734410977e+00	 6.983325329893874e-01	 5.799404215338885e+00
1	 1.183911542050664e+00	 6.743587402483999e-01	 6.687086563090068e+00
1	 1.197364943313892e+00	 6.501718561063567e-01	 7.527287235299148e+00
1	 1.210286959293083e+00	 6.257888830228121e-01	 8.317593201336717e+00
1	 1.222674323106217e+00	 6.012268702968139e-01	 9.055766436877214e+00
1	 1.234524475954226e+00	 5.765028778946301e-01	 9.739749225707460e+00
1	 1.245835561050529e+00	 5.516339409190647e-01	 1.036766847054405e+01
1	 1.256606415496687e+00	 5.266370348600500e-01	 1.093783901105888e+01
1	 1.266836560188049e+00	 5.015290417580184e-01	 1.144876595513933e+01
1	 1.135175162081257e+00	 7.421532280092624e-01	 4.038505691922632e+00
1	 1.150127088249448e+00	 7.187640386985202e-01	 5.012717944898336e+00
1	 1.164564079667188e+00	 6.951291727448766e-01	 5.945475595585323e+00
1	 1.178480755162254e+00	 6.712653515302976e-01	 6.834240500524137e+00
1	 1.191872443576114e+00	 6.471894163981471e-01	 7.676629183162644e+00
1	 1.204735184253062e+00	 6.229182918150463e-01	 8.470419370412790e+00
1	 1.217065725296774e+00	 5.984689488722484e-01	 9.213555619878136e+00
1	 1.228861519645792e+00	 5.738583692792959e-01	 9.904154022696142e+00
1	 1.240120719030906e+00	 5.491035099963197e-01	 1.054050597461155e+01
1	 1.250842165888074e+00	 5.242212686440318e-01	 1.112108101541433e+01
1	 1.261025383310373e+00	 4.992284498223121e-01	 1.164452874415228e+01
1	 1.129943940136216e+00	 7.387331670495847e-01	 4.187708656969543e+00
1	 1.144826963419454e+00	 7.154517620215577e-01	 5.160644103248822e+00
1	 1.159197424923379e+00	 6.919258125010298e-01	 6.092835981319336e+00
1	 1.173049968273797e+00	 6.681719628129075e-01	 6.981952562501238e+00
1	 1.186379943838253e+00	 6.442069766906778e-01	 7.825809933148086e+00
1	 1.199183409212911e+00	 6.200477006080285e-01	 8.622377817941722e+00
1	 1.211457127487144e+00	 5.957110274484190e-01	 9.369784547854225e+00
1	 1.223198563337105e+00	 5.712138606646654e-01	 1.006632116076204e+01
1	 1.234405877010953e+00	 5.465730790742260e-01	 1.071044462982540e+01
1	 1.245077916279045e+00	 5.218055024285935e-01	 1.130078022171118e+01
1	 1.255214206432187e+00	 4.969278578870955e-01	 1.183612299345886e+01
1	 1.124712718191176e+00	 7.353131060904124e-01	 4.339730676075574e+00
1	 1.139526838589454e+00	 7.121394853451900e-01	 5.310628748905625e+00
1	 1.153830770179549e+00	 6.887224522578467e-01	 6.241503358664494e+00
1	 1.167619181385294e+00	 6.650785740962297e-01	 7.130230536806048e+00
1	 1.180887444100310e+00	 6.412245369839492e-01	 7.974827235982962e+00
1	 1.193631634172630e+00	 6.171771094017584e-01	 8.773456436181034e+00
1	 1.205848529677327e+00	 5.929531060253248e-01	 9.524431449805139e+00
1	 1.217535607028164e+00	 5.685693520507381e-01	 1.022621941675733e+01
1	 1.228691034990672e+00	 5.440426481527841e-01	 1.087744398713182e+01
1	 1.239313666669602e+00	 5.193897362137355e-01	 1.147688719555798e+01
1	 1.249403029553490e+00	 4.946272659523687e-01	 1.202349053738906e+01
1	 1.119481496246135e+00	 7.318930451317452e-01	 4.494611268691068e+00
1	 1.134226713759450e+00	 7.088272086694173e-01	 5.462700739168318e+00
1	 1.148464115435698e+00	 6.855190920153273e-01	 6.391496049933659e+00
1	 1.162188394496743e+00	 6.619851853802645e-01	 7.279082356789329e+00
1	 1.175394944362282e+00	 6.382420972779606e-01	 8.123678800352199e+00
1	 1.188079859132219e+00	 6.143065181962368e-01	 8.923642891075382e+00
1	 1.200239931867324e+00	 5.901951846029662e-01	 9.677474147795900e+00
1	 1.211872650718971e+00	 5.659248434375144e-01	 1.038381698392391e+01
1	 1.222976192970061e+00	 5.415122172319936e-01	 1.104146284141994e+01
1	 1.233549417059744e+00	 5.169739699994579e-01	 1.164935157855603e+01
1	 1.243591852674283e+00	 4.923266740181315e-01	 1.220657212306405e+01
1	 1.114250274301094e+00	 7.284729841735834e-01	 4.652390696415675e+00
1	 1.128926588929440e+00	 7.055149319942392e-01	 5.616889473257246e+00
1	 1.143097460691826e+00	 6.823157317734724e-01	 6.542832721520749e+00
1	 1.156757607608145e+00	 6.588917966650113e-01	 7.428516104784970e+00
1	 1.169902444624171e+00	 6.352596575727124e-01	 8.272362291911490e+00
1	 1.182528084091679e+00	 6.114359269914630e-01	 9.072924616943867e+00
1	 1.194631334057134e+00	 5.874372631813436e-01	 9.828890047404501e+00
1	 1.206209694409525e+00	 5.632803348249940e-01	 1.053908145819380e+01
1	 1.217261350949122e+00	 5.389817863118547e-01	 1.120245921377402e+01
1	 1.227785167449471e+00	 5.145582037857603e-01	 1.181812206660901e+01
1	 1.237780675794565e+00	 4.900260820843841e-01	 1.238530738487496e+01
1	 1.109019052356053e+00	 7.250529232159270e-01	 4.813109980501925e+00
1	 1.123626464099425e+00	 7.022026553196563e-01	 5.773224905095425e+00
1	 1.137730805947933e+00	 6.791123715322811e-01	 6.695532392015691e+00
1	 1.151326820719500e+00	 6.557984079504706e-01	 7.578540015623618e+00
1	 1.164409944885977e+00	 6.322772178682046e-01	 8.420875332272104e+00
1	 1.176976309051008e+00	 6.085653357874373e-01	 9.221288811017242e+00
1	 1.189022736246758e+00	 5.846793417604564e-01	 9.978656127899068e+00
1	 1.200546738099826e+00	 5.606358262131771e-01	 1.069197982410139e+01
1	 1.211546508927853e+00	 5.364513553923671e-01	 1.136039033322334e+01
1	 1.222020917838783e+00	 5.121424375726429e-01	 1.198314638761884e+01
1	 1.231969498914338e+00	 4.877254901511264e-01	 1.255963481823926e+01
1	 1.103787830411013e+00	 7.216328622587760e-01	 4.976810919856663e+00
1	 1.118326339269405e+00	 6.988903786456685e-01	 5.931737556452651e+00
1	 1.132364151204019e+00	 6.759090112917536e-01	 6.849614440550521e+00
1	 1.145896033830808e+00	 6.527050192366424e-01	 7.729162480246620e+00
1	 1.158917445147700e+00	 6.292947781644368e-01	 8.569215497957520e+00
1	 1.171424534010207e+00	 6.056947445841596e-01	 9.368722427819893e+00
1	 1.183414138436196e+00	 5.819214203403049e-01	 1.012674893213580e+01
1	 1.194883781789874e+00	 5.579913176020637e-01	 1.084247844029549e+01
1	 1.205831666906255e+00	 5.339209244735312e-01	 1.151521261797306e+01
1	 1.216256668227679e+00	 5.097266713601056e-01	 1.214437127854721e+01
1	 1.226158322033600e+00	 4.854248982183585e-01	 1.272949175261083e+01
1	 1.098556608465972e+00	 7.182128013021297e-01	 5.143536109556122e+00
1	 1.113026214439379e+00	 6.955781019722751e-01	 6.092458530465744e+00
1	 1.126997496460084e+00	 6.727056510518903e-01	 7.005098615383627e+00
1	 1.140465246942069e+00	 6.496116305235260e-01	 7.880392049422747e+00
1	 1.153424945409339e+00	 6.263123384614093e-01	 8.717380319329711e+00
1	 1.165872758969277e+00	 6.028241533816299e-01	 9.515212173390747e+00
1	 1.177805540625447e+00	 5.791634989208893e-01	 1.027314455616805e+01
1	 1.189220825479669e+00	 5.553468089916535e-01	 1.099054302463733e+01
1	 1.200116824884327e+00	 5.313904935553467e-01	 1.166688165609897e+01
1	 1.210492418616161e+00	 5.073109051481486e-01	 1.230174246182177e+01
1	 1.220347145152351e+00	 4.831243062860802e-01	 1.289481432371887e+01
1	 1.278458913941871e+00	 5.061302256309002e-01	 1.104496213288672e+01
1	 1.288237437261904e+00	 4.806966872907606e-01	 1.148859592761427e+01
1	 1.297471343270002e+00	 4.551847024343803e-01	 1.188163301826321e+01
1	 1.306162139117423e+00	 4.296108311901095e-01	 1.222392644381865e+01
1	 1.314311963382357e+00	 4.039914143306887e-01	 1.251546488019340e+01
1	 1.321923567493685e+00	 3.783425453891316e-01	 1.275636897813013e+01
1	 1.329000295829080e+00	 3.526800442857044e-01	 1.294688721270131e+01
1	 1.335546064613972e+00	 3.270194325267232e-01	 1.308739128738560e+01
1	 1.341565339749727e+00	 3.013759100248760e-01	 1.317837113717764e+01
1	 1.347063113700226e+00	 2.757643335798898e-01	 1.322042957618581e+01
1	 1.352044881565965e+00	 2.501991970476900e-01	 1.321427663570952e+01
1	 1.272647737065216e+00	 5.038296336942144e-01	 1.124889172970347e+01
1	 1.282381812552258e+00	 4.785117023467727e-01	 1.170311566729079e+01
1	 1.291573746260498e+00	 4.531156810582033e-01	 1.210631311760830e+01
1	 1.300225038490506e+00	 4.276580546835452e-01	 1.245805566314017e+01
1	 1.308337818099662e+00	 4.021550897192986e-01	 1.275806082961842e+01
1	 1.315914824010355e+00	 3.766228065460535e-01	 1.300618918620171e+01
1	 1.322959385398542e+00	 3.510769531753468e-01	 1.320244087611822e+01
1	 1.329475400688632e+00	 3.255329805611925e-01	 1.334695161968706e+01
1	 1.335467315482438e+00	 3.000060195257656e-01	 1.343998823379087e+01
1	 1.340940099550829e+00	 2.745108593378841e-01	 1.348194371352208e+01
1	 1.345899223016569e+00	 2.490619279723092e-01	 1.347333192287548e+01
1	 1.266836560188049e+00	 5.015290417580184e-01	 1.144876595513933e+01
1	 1.276526187842014e+00	 4.763267174031743e-01	 1.191471577708471e+01
1	 1.285676149250327e+00	 4.510466596823154e-01	 1.232919713303869e+01
1	 1.294287937862873e+00	 4.257052781771697e-01	 1.269149832118585e+01
1	 1.302363672816225e+00	 4.003187651079966e-01	 1.300106396067840e+01
1	 1.309906080526277e+00	 3.749030677029627e-01	 1.325749285806441e+01
1	 1.316918474967270e+00	 3.494738620648760e-01	 1.346053522258386e+01
1	 1.323404736762591e+00	 3.240465285954479e-01	 1.361008927117797e+01
1	 1.329369291214502e+00	 2.986361290263406e-01	 1.370619726690146e+01
1	 1.334817085400855e+00	 2.732573850954636e-01	 1.374904103673053e+01
1	 1.339753564466688e+00	 2.479246588964138e-01	 1.373893701652903e+01
1	 1.261025383310373e+00	 4.992284498223121e-01	 1.164452874415228e+01
1	 1.270670563131169e+00	 4.741417324599655e-01	 1.212335589344915e+01
1	 1.279778552239487e+00	 4.489776383067170e-01	 1.255026023390070e+01
1	 1.288350837234525e+00	 4.237525016709828e-01	 1.292424492632427e+01
1	 1.296389527532047e+00	 3.984824404967826e-01	 1.324447990261108e+01
1	 1.303897337041450e+00	 3.731833288598594e-01	 1.351030050243228e+01
1	 1.310877564535265e+00	 3.478707709542919e-01	 1.372120537674623e+01
1	 1.317334072835849e+00	 3.225600766294895e-01	 1.387685369788122e+01
1	 1.323271266945918e+00	 2.972662385266015e-01	 1.397706171949930e+01
1	 1.328694071250305e+00	 2.720039108526285e-01	 1.402179873270929e+01
1	 1.333607905916321e+00	 2.467873898200037e-01	 1.401118246698700e+01
1	 1.255214206432187e+00	 4.969278578870955e-01	 1.183612299345886e+01
1	 1.264814938419725e+00	 4.719567475171464e-01	 1.232899490536427e+01
1	 1.273880955227980e+00	 4.469086169314077e-01	 1.276947712971379e+01
1	 1.282413736605462e+00	 4.217997251649849e-01	 1.315628581115302e+01
1	 1.290415382247126e+00	 3.966461158856570e-01	 1.348831438889938e+01
1	 1.297888593555876e+00	 3.714635900167436e-01	 1.376463300781035e+01
1	 1.304836654102523e+00	 3.462676798435945e-01	 1.398448711370977e+01
1	 1.311263408908406e+00	 3.210736246633172e-01	 1.414729527167182e+01
1	 1.317173242676686e+00	 2.958963480265479e-01	 1.425264625018515e+01
1	 1.322571057099180e+00	 2.707504366093788e-01	 1.430029541774341e+01
1	 1.327462247365470e+00	 2.456501207430790e-01	 1.429016050142381e+01
1	 1.249403029553490e+00	 4.946272659523687e-01	 1.202349053738907e+01
1	 1.258959313707681e+00	 4.697717625747169e-01	 1.253159093695400e+01
1	 1.267983358215805e+00	 4.448395955563879e-01	 1.298682205947691e+01
1	 1.276476635975684e+00	 4.198469486591755e-01	 1.338761112841111e+01
1	 1.284441236961463e+00	 3.948097912746193e-01	 1.373257325969569e+01
1	 1.291879850069553e+00	 3.697438511736151e-01	 1.402051165132700e+01
1	 1.298795743669049e+00	 3.446645887327840e-01	 1.425041687416217e+01
1	 1.305192744980262e+00	 3.195871726969313e-01	 1.442146530157589e+01
1	 1.311075218406805e+00	 2.945264575261800e-01	 1.453301672051033e+01
1	 1.316448042947478e+00	 2.694969623657146e-01	 1.458461117074630e+01
1	 1.321316588814132e+00	 2.445128516656394e-01	 1.457596506286808e+01
1	 1.243591852674283e+00	 4.923266740181315e-01	 1.220657212306405e+01
1	 1.253103688995038e+00	 4.675867776326769e-01	 1.273110132961570e+01
1	 1.262085761202962e+00	 4.427705741816569e-01	 1.320226878067501e+01
1	 1.270539535345191e+00	 4.178941721535551e-01	 1.361821084677657e+01
1	 1.278467091675059e+00	 3.929734666636696e-01	 1.397726246431410e+01
1	 1.285871106582483e+00	 3.680241123304743e-01	 1.427795810781394e+01
1	 1.292754833234840e+00	 3.430614976218603e-01	 1.451903177992544e+01
1	 1.299122081051418e+00	 3.181007207303312e-01	 1.469941605566666e+01
1	 1.304977194136277e+00	 2.931565670254978e-01	 1.481824022308309e+01
1	 1.310325028795200e+00	 2.682434881216356e-01	 1.487482756743341e+01
1	 1.315170930262310e+00	 2.433755825876854e-01	 1.486869185029266e+01
1	 1.237780675794565e+00	 4.900260820843841e-01	 1.238530738487496e+01
1	 1.247248064281795e+00	 4.654017926910266e-01	 1.292748262364627e+01
1	 1.256188164189452e+00	 4.407015528072156e-01	 1.341579055797584e+01
1	 1.264602434713983e+00	 4.159413956481233e-01	 1.384807474654586e+01
1	 1.272492946387913e+00	 3.911371420528083e-01	 1.422238806379286e+01
1	 1.279862363094664e+00	 3.663043734873206e-01	 1.453699445914186e+01
1	 1.286713922799896e+00	 3.414584065108232e-01	 1.479036964994490e+01
1	 1.293051417121872e+00	 3.166142687635174e-01	 1.498120078357729e+01
1	 1.298879169865101e+00	 2.917866765245014e-01	 1.510838511046658e+01
1	 1.304202014642346e+00	 2.669900138771420e-01	 1.517102771545827e+01
1	 1.309025271710002e+00	 2.422383135092167e-01	 1.516843835983410e+01
1	 1.231969498914338e+00	 4.877254901511264e-01	 1.255963481823926e+01
1	 1.241392439567953e+00	 4.632168077497660e-01	 1.312069053934828e+01
1	 1.250290567175273e+00	 4.386325314330635e-01	 1.362736015160698e+01
1	 1.258665334082059e+00	 4.139886191428803e-01	 1.407719241519081e+01
1	 1.266518801100025e+00	 3.893008174420350e-01	 1.446795623352949e+01
1	 1.273853619606097e+00	 3.645846346441546e-01	 1.479764320382052e+01
1	 1.280673012364218e+00	 3.398553153996729e-01	 1.506446901673085e+01
1	 1.286980753191626e+00	 3.151278167964899e-01	 1.526687373965099e+01
1	 1.292781145593277e+00	 2.904167860231906e-01	 1.540352102489489e+01
1	 1.298079000488917e+00	 2.657365396322339e-01	 1.547329629054327e+01
1	 1.302879613157209e+00	 2.411010444302332e-01	 1.547530392717844e+01
1	 1.226158322033600e+00	 4.854248982183585e-01	 1.272949175261083e+01
1	 1.235536814853510e+00	 4.610318228088949e-01	 1.331067995759873e+01
1	 1.244392970160427e+00	 4.365635100592006e-01	 1.383694980540225e+01
1	 1.252728233449421e+00	 4.120358426378261e-01	 1.430555324278935e+01
1	 1.260544655811396e+00	 3.874644928313498e-01	 1.471397326599059e+01
1	 1.267844876116782e+00	 3.628648958009760e-01	 1.505992726687170e+01
1	 1.274632101927805e+00	 3.382522242884093e-01	 1.534136914326761e+01
1	 1.280910089260679e+00	 3.136413648292484e-01	 1.555649020674914e+01
1	 1.286683121320804e+00	 2.890468955215654e-01	 1.570371892883393e+01
1	 1.291955986334911e+00	 2.644830653869111e-01	 1.578171957363747e+01
1	 1.296733954603930e+00	 2.399637753507351e-01	 1.578938977115258e+01
1	 1.220347145152351e+00	 4.831243062860802e-01	 1.289481432371887e+01
1	 1.229681190138468e+00	 4.588468378684133e-01	 1.349740489986291e+01
1	 1.238495373144912e+00	 4.344944886856269e-01	 1.404453123450664e+01
1	 1.246791132816067e+00	 4.100830661329605e-01	 1.453314641732577e+01
1	 1.254570510522024e+00	 3.856281682207527e-01	 1.496044557349930e+01
1	 1.261836132626719e+00	 3.611451569577847e-01	 1.532387000998421e+01
1	 1.268591191490658e+00	 3.366491331770325e-01	 1.562111004040586e+01
1	 1.274839425329030e+00	 3.121549128617930e-01	 1.585010652073994e+01
1	 1.280585097047684e+00	 2.876770050196259e-01	 1.600905113641534e+01
1	 1.285832972180329e+00	 2.632295911411737e-01	 1.609638548913659e+01
1	 1.290588296050167e+00	 2.388265062707223e-01	 1.611079903856070e+01
1	 1.352044881565965e+00	 2.501991970476900e-01	 1.321427663570952e+01
1	 1.356516616473704e+00	 2.246946132154110e-01	 1.365743555564764e+01
1	 1.360484744408075e+00	 1.992642973913386e-01	 1.405157610871880e+01
1	 1.363956118608690e+00	 1.739215527069983e-01	 1.439737309719334e+01
1	 1.366937993652964e+00	 1.486792571198079e-01	 1.469559843687935e+01
1	 1.369437999341071e+00	 1.235498520981864e-01	 1.494711478708152e+01
1	 1.371464114494739e+00	 9.854533296136365e-02	 1.515286907570505e+01
1	 1.373024640776572e+00	 7.367724083926169e-02	 1.531388596103435e+01
1	 1.374128176631064e+00	 4.895665621114496e-02	 1.543126126975492e+01
1	 1.374783591442656e+00	 2.439419397571900e-02	 1.550615544860713e+01
1	 1.375000000000000e+00	 0.000000000000000e+00	 1.553978706471101e+01
1	 1.345899223016569e+00	 2.490619279723092e-01	 1.347333192287548e+01
1	 1.350350631855927e+00	 2.236732740670423e-01	 1.391242398640295e+01
1	 1.354300722844592e+00	 1.983585505879602e-01	 1.430248953313457e+01
1	 1.357756318071088e+00	 1.731310001978114e-01	 1.464430972020954e+01
1	 1.360724639137475e+00	 1.480034423178466e-01	 1.493875785850211e+01
1	 1.363213281163018e+00	 1.229882618643588e-01	 1.518679288189745e+01
1	 1.365230186702070e+00	 9.809739963240260e-02	 1.538945274326706e+01
1	 1.366783619682406e+00	 7.334234429222181e-02	 1.554784777774053e+01
1	 1.367882139464680e+00	 4.873412595726938e-02	 1.566315407174125e+01
1	 1.368534575117947e+00	 2.428331127671467e-02	 1.573660687393134e+01
1	 1.368750000000000e+00	 0.000000000000000e+00	 1.576949408173430e+01
1	 1.339753564466688e+00	 2.479246588964138e-01	 1.373893701652903e+01
1	 1.344184647237759e+00	 2.226519349180751e-01	 1.417349802906008e+01
1	 1.348116701280803e+00	 1.974528037839308e-01	 1.455902976342081e+01
1	 1.351556517533252e+00	 1.723404476879524e-01	 1.489642037591736e+01
1	 1.354511284621816e+00	 1.473276275152226e-01	 1.518664518501842e+01
1	 1.356988562984847e+00	 1.224266716299077e-01	 1.543075997916858e+01
1	 1.358996258909327e+00	 9.764946630288660e-02	 1.562989428302546e+01
1	 1.360542598588198e+00	 7.300744774472426e-02	 1.578524462177969e+01
1	 1.361636102298278e+00	 4.851159570306151e-02	 1.589806782091943e+01
1	 1.362285558793233e+00	 2.417242857753082e-02	 1.596967437633312e+01
1	 1.362500000000000e+00	 0.000000000000000e+00	 1.600142192704282e+01
1	 1.333607905916321e+00	 2.467873898200037e-01	 1.401118246698700e+01
1	 1.338018662619201e+00	 2.216305957685093e-01	 1.444074181650014e+01
1	 1.341932679716706e+00	 1.965470569792507e-01	 1.482127458951930e+01
1	 1.345356716995183e+00	 1.715498951774213e-01	 1.515377659472239e+01
1	 1.348297930105987e+00	 1.466518127119358e-01	 1.543932577916930e+01
1	 1.350763844806558e+00	 1.218650813948331e-01	 1.567907537386110e+01
1	 1.352762331116509e+00	 9.720153297281571e-02	 1.587424702962099e+01
1	 1.354301577493949e+00	 7.267255119676909e-02	 1.602612398201187e+01
1	 1.355390065131856e+00	 4.828906544852133e-02	 1.613604428153988e+01
1	 1.356036542468514e+00	 2.406154587816745e-02	 1.620539412278104e+01
1	 1.356250000000000e+00	 0.000000000000000e+00	 1.623560130333681e+01
1	 1.327462247365470e+00	 2.456501207430790e-01	 1.429016050142381e+01
1	 1.331852678000251e+00	 2.206092566183449e-01	 1.471424103962058e+01
1	 1.335748658152303e+00	 1.956413101739196e-01	 1.508930324192599e+01
1	 1.339156916456881e+00	 1.707593426662181e-01	 1.541645123166725e+01
1	 1.342084575589987e+00	 1.459759979079862e-01	 1.569686621411685e+01
1	 1.344539126628152e+00	 1.213034911591349e-01	 1.593179945899612e+01
1	 1.346528403323616e+00	 9.675359964218981e-02	 1.612256530537312e+01
1	 1.348060556399659e+00	 7.233765464835626e-02	 1.627053422672049e+01
1	 1.349144027965417e+00	 4.806653519364886e-02	 1.637712599126537e+01
1	 1.349787526143791e+00	 2.395066317862454e-02	 1.644380295000238e+01
1	 1.350000000000000e+00	 0.000000000000000e+00	 1.647206348188518e+01
1	 1.321316588814132e+00	 2.445128516656394e-01	 1.457596506286808e+01
1	 1.325686693380911e+00	 2.195879174675818e-01	 1.499408298356791e+01
1	 1.329564636587593e+00	 1.947355633679376e-01	 1.536319642519262e+01
1	 1.332957115918345e+00	 1.699687901543429e-01	 1.568451849723717e+01
1	 1.335871221073816e+00	 1.453001831033738e-01	 1.595933430159366e+01
1	 1.338314408449629e+00	 1.207419009228132e-01	 1.618899375118592e+01
1	 1.340294475530649e+00	 9.630566631100902e-02	 1.637490444324904e+01
1	 1.341819535305326e+00	 7.200275809948577e-02	 1.651852462406412e+01
1	 1.342897990798959e+00	 4.784400493844410e-02	 1.662135627915693e+01
1	 1.343538509819063e+00	 2.383978047890212e-02	 1.668493838005909e+01
1	 1.343750000000000e+00	 0.000000000000000e+00	 1.671084031574795e+01
1	 1.315170930262310e+00	 2.433755825876854e-01	 1.486869185029266e+01
1	 1.319520708761180e+00	 2.185665783162202e-01	 1.528035656498668e+01
1	 1.323380615022577e+00	 1.938298165613047e-01	 1.564303635236717e+01
1	 1.326757315379575e+00	 1.691782376417955e-01	 1.595805398902940e+01
1	 1.329657866557476e+00	 1.446243682980987e-01	 1.622679912084143e+01
1	 1.332089690270987e+00	 1.201803106858681e-01	 1.645072091688606e+01
1	 1.334060547737606e+00	 9.585773297927325e-02	 1.663132081047720e+01
1	 1.335578514210952e+00	 7.166786155015763e-02	 1.677014536310161e+01
1	 1.336651953632483e+00	 4.762147468290702e-02	 1.686877928416481e+01
1	 1.337289493494331e+00	 2.372889777900017e-02	 1.692883863636007e+01
1	 1.337500000000000e+00	 0.000000000000000e+00	 1.695196425336954e+01
1	 1.309025271710002e+00	 2.422383135092167e-01	 1.516843835983410e+01
1	 1.313354724141058e+00	 2.175452391642600e-01	 1.557315237031731e+01
1	 1.317196593457252e+00	 1.929240697540210e-01	 1.592890678040454e+01
1	 1.320557514840572e+00	 1.683876851285761e-01	 1.623713472431412e+01
1	 1.323444512040964e+00	 1.439485534921609e-01	 1.649933104836453e+01
1	 1.325864972092228e+00	 1.196187204482994e-01	 1.671704479938702e+01
1	 1.327826619944489e+00	 9.540979964698258e-02	 1.689187183282558e+01
1	 1.329337493116535e+00	 7.133296500037181e-02	 1.702544757540942e+01
1	 1.330405916465988e+00	 4.739894442703766e-02	 1.711943997413983e+01
1	 1.331040477169594e+00	 2.361801507891869e-02	 1.717554266012490e+01
1	 1.331250000000000e+00	 0.000000000000000e+00	 1.719546835255498e+01
1	 1.302879613157209e+00	 2.411010444302332e-01	 1.547530392717844e+01
1	 1.307188739520545e+00	 2.165239000117012e-01	 1.587256269517832e+01
1	 1.311012571891622e+00	 1.920183229460865e-01	 1.622089304657946e+01
1	 1.314357714301335e+00	 1.675971326146845e-01	 1.652183917351778e+01
1	 1.317231157524282e+00	 1.432727386855602e-01	 1.677700178852605e+01
1	 1.319640253913352e+00	 1.190571302101072e-01	 1.698803044656971e+01
1	 1.321592692151297e+00	 9.496186631413697e-02	 1.715661601956736e+01
1	 1.323096472022077e+00	 7.099806845012839e-02	 1.728448335731080e+01
1	 1.324159879299475e+00	 4.717641417083600e-02	 1.737338416538294e+01
1	 1.324791460844853e+00	 2.350713237865769e-02	 1.742509012731326e+01
1	 1.325000000000000e+00	 0.000000000000000e+00	 1.744138629484159e+01
1	 1.296733954603930e+00	 2.399637753507351e-01	 1.578938977115258e+01
1	 1.301022754899642e+00	 2.155025608585439e-01	 1.617868158486808e+01
1	 1.304828550325684e+00	 1.911125761375010e-01	 1.651908210593477e+01
1	 1.308157913761866e+00	 1.668065801001209e-01	 1.681224729465762e+01
1	 1.311017803007430e+00	 1.425969238782968e-01	 1.705988440501345e+01
1	 1.313415535734358e+00	 1.184955399712914e-01	 1.726374413945025e+01
1	 1.315358764358031e+00	 9.451393298073640e-02	 1.742561298915626e+01
1	 1.316855450927578e+00	 7.066317189942729e-02	 1.754730579273723e+01
1	 1.317913842132943e+00	 4.695388391430206e-02	 1.763065854275067e+01
1	 1.318542444520107e+00	 2.339624967821716e-02	 1.767752146603588e+01
1	 1.318750000000000e+00	 0.000000000000000e+00	 1.768975240027935e+01
1	 1.290588296050167e+00	 2.388265062707223e-01	 1.611079903856070e+01
1	 1.294856770278347e+00	 2.144812217047878e-01	 1.649160487602373e+01
1	 1.298644528759439e+00	 1.902068293282645e-01	 1.682356256979997e+01
1	 1.301958113222162e+00	 1.660160275848852e-01	 1.710844056876090e+01
1	 1.304804448490407e+00	 1.419211090703706e-01	 1.734805335320350e+01
1	 1.307190817555246e+00	 1.179339497318521e-01	 1.754425342154039e+01
1	 1.309124836564689e+00	 9.406599964678086e-02	 1.769892349563576e+01
1	 1.310614429833037e+00	 7.032827534826853e-02	 1.781396897674271e+01
1	 1.311667804966393e+00	 4.673135365743578e-02	 1.789131068033496e+01
1	 1.312293428195356e+00	 2.328536697759711e-02	 1.793287787446274e+01
1	 1.312500000000000e+00	 0.000000000000000e+00	 1.794060164263357e+01
1	 0.000000000000000e+00	 1.312500000000000e+00	-4.147708065947998e+01
1	 2.328536697759720e-02	 1.312293428195356e+00	-4.196328456339537e+01
1	 4.673135365743597e-02	 1.311667804966393e+00	-4.247917788001467e+01
1	 7.032827534826880e-02	 1.310614429833036e+00	-4.302422143596777e+01
1	 9.406599964678122e-02	 1.309124836564689e+00	-4.359775208275430e+01
1	 1.179339497318526e-01	 1.307190817555246e+00	-4.419897869824665e+01
1	 1.419211090703711e-01	 1.304804448490407e+00	-4.482697857064708e+01
1	 1.660160275848858e-01	 1.301958113222161e+00	-4.548069421011738e+01
1	 1.902068293282652e-01	 1.298644528759439e+00	-4.615893063309849e+01
1	 2.144812217047886e-01	 1.294856770278347e+00	-4.686035316368236e+01
1	 2.388265062707223e-01	 1.290588296050167e+00	-4.758348579529255e+01
1	 0.000000000000000e+00	 1.306250000000000e+00	-4.165012624561866e+01
1	 2.317448427697944e-02	 1.306044411870603e+00	-4.219479207045241e+01
1	 4.650882340057895e-02	 1.305421767799834e+00	-4.275395972605931e+01
1	 6.999337879713093e-02	 1.304373408738474e+00	-4.332674197455755e+01
1	 9.361806631286305e-02	 1.302890908771310e+00	-4.391216619601611e+01
1	 1.173723594924721e-01	 1.300966099376075e+00	-4.450917339035286e+01
1	 1.412452942625301e-01	 1.298591093973299e+00	-4.511661752123586e+01
1	 1.652254750697668e-01	 1.295758312682342e+00	-4.573326522683776e+01
1	 1.893010825191823e-01	 1.292460507193042e+00	-4.635779592121937e+01
1	 2.134598825512280e-01	 1.288690785656858e+00	-4.698880230872995e+01
1	 2.376892371909522e-01	 1.284442637496160e+00	-4.762479133214130e+01
1	 0.000000000000000e+00	 1.300000000000000e+00	-4.182480370268682e+01
1	 2.306360157654578e-02	 1.299795395545850e+00	-4.242807913050807e+01
1	 4.628629314407263e-02	 1.299175730633274e+00	-4.303052154797210e+01
1	 6.965848224649247e-02	 1.298132387643911e+00	-4.363089247176255e+01
1	 9.317013297957466e-02	 1.296656980977932e+00	-4.422790685619690e+01
1	 1.168107692538327e-01	 1.294741381196905e+00	-4.482023511416902e+01
1	 1.405694794555223e-01	 1.292377739456191e+00	-4.540650543951293e+01
1	 1.644349225555535e-01	 1.289558512142521e+00	-4.598530643514489e+01
1	 1.883953357110571e-01	 1.286276485626644e+00	-4.655519004939931e+01
1	 2.124385433986568e-01	 1.282524801035368e+00	-4.711467482085667e+01
1	 2.365519681121820e-01	 1.278296978942153e+00	-4.766224942970962e+01
1	 0.000000000000000e+00	 1.293750000000000e+00	-4.200113668098763e+01
1	 2.295271887629621e-02	 1.293546379221097e+00	-4.266317153418510e+01
1	 4.606376288791705e-02	 1.292929693466715e+00	-4.330888914250244e+01
1	 6.932358569635344e-02	 1.291891366549349e+00	-4.393669655017010e+01
1	 9.272219964691591e-02	 1.290423053184553e+00	-4.454499328861374e+01
1	 1.162491790159345e-01	 1.288516663017734e+00	-4.513217643537293e+01
1	 1.398936646493478e-01	 1.286164384939083e+00	-4.569664593370877e+01
1	 1.636443700422457e-01	 1.283358711602701e+00	-4.623681015666138e+01
1	 1.874895889038898e-01	 1.280092464060246e+00	-4.675109169648749e+01
1	 2.114172042470749e-01	 1.276358816413879e+00	-4.723793335756700e+01
1	 2.354146990344120e-01	 1.272151320388147e+00	-4.769580432802048e+01
1	 0.000000000000000e+00	 1.287500000000000e+00	-4.217914929005344e+01
1	 2.284183617623075e-02	 1.287297362896344e+00	-4.290009557289348e+01
1	 4.584123263211221e-02	 1.286683656300156e+00	-4.358908880730849e+01
1	 6.898868914671383e-02	 1.285650345454787e+00	-4.424417829105860e+01
1	 9.227426631488689e-02	 1.284189125391174e+00	-4.486344509189126e+01
1	 1.156875887787774e-01	 1.282291944838564e+00	-4.544501016363652e+01
1	 1.392178498440065e-01	 1.279951030421975e+00	-4.598704268211673e+01
1	 1.628538175298434e-01	 1.277158911062880e+00	-4.648776856391471e+01
1	 1.865838420976801e-01	 1.273908442493848e+00	-4.694547912733043e+01
1	 2.103958650964824e-01	 1.270192831792389e+00	-4.735853985126798e+01
1	 2.342774299576418e-01	 1.266005661834140e+00	-4.772539918437892e+01
1	 0.000000000000000e+00	 1.281250000000000e+00	-4.235886610984651e+01
1	 2.273095347634939e-02	 1.281048346571592e+00	-4.313887805104738e+01
1	 4.561870237665808e-02	 1.280437619133596e+00	-4.387114735317284e+01
1	 6.865379259757361e-02	 1.279409324360225e+00	-4.455336224558490e+01
1	 9.182633298348755e-02	 1.277955197597795e+00	-4.518328224706613e+01
1	 1.151259985423614e-01	 1.276067226659393e+00	-4.575874935857652e+01
1	 1.385420350394984e-01	 1.273737675904867e+00	-4.627769943480133e+01
1	 1.620632650183469e-01	 1.270959110523060e+00	-4.673817367670205e+01
1	 1.856780952924283e-01	 1.267724420927450e+00	-4.713833018267317e+01
1	 2.093745259468794e-01	 1.264026847170899e+00	-4.747645549158351e+01
1	 2.331401608818717e-01	 1.259860003280134e+00	-4.775097604696388e+01
1	 0.000000000000000e+00	 1.275000000000000e+00	-4.254031220228936e+01
1	 2.262007077665213e-02	 1.274799330246839e+00	-4.337954629863678e+01
1	 4.539617212155470e-02	 1.274191581967037e+00	-4.415509211658005e+01
1	 6.831889604893283e-02	 1.273168303265662e+00	-4.486427344630088e+01
1	 9.137839965271793e-02	 1.271721269804417e+00	-4.550452512695988e+01
1	 1.145644083066865e-01	 1.269842508480223e+00	-4.607340733588052e+01
1	 1.378662202358235e-01	 1.267524321387759e+00	-4.656862001535812e+01
1	 1.612727125077557e-01	 1.264759309983240e+00	-4.698801735834522e+01
1	 1.847723484881342e-01	 1.261540399361052e+00	-4.732962226876657e+01
1	 2.083531867982657e-01	 1.257860862549410e+00	-4.759164070715153e+01
1	 2.320028918071016e-01	 1.253714344726128e+00	-4.777247582764425e+01
1	 0.000000000000000e+00	 1.268750000000000e+00	-4.272351312313476e+01
1	 2.250918807713896e-02	 1.268550313922086e+00	-4.362212818417462e+01
1	 4.517364186680203e-02	 1.267945544800478e+00	-4.444095097266409e+01
1	 6.798399950079148e-02	 1.266927282171100e+00	-4.517693741901111e+01
1	 9.093046632257798e-02	 1.265487342011038e+00	-4.582719450582915e+01
1	 1.140028180717527e-01	 1.263617790301053e+00	-4.638899767361411e+01
1	 1.371904054329819e-01	 1.261310966870651e+00	-4.685980832272462e+01
1	 1.604821599980703e-01	 1.258559509443420e+00	-4.723729131183721e+01
1	 1.838666016847979e-01	 1.255356377794654e+00	-4.751933234666407e+01
1	 2.073318476506414e-01	 1.251694877927920e+00	-4.770405514687731e+01
1	 2.308656227333315e-01	 1.247568686172121e+00	-4.778983827399086e+01
1	 0.000000000000000e+00	 1.262500000000000e+00	-4.290849493419049e+01
1	 2.239830537780990e-02	 1.262301297597333e+00	-4.386665212802392e+01
1	 4.495111161240012e-02	 1.261699507633919e+00	-4.472875234854179e+01
1	 6.764910295314951e-02	 1.260686261076538e+00	-4.549138019498086e+01
1	 9.048253299306773e-02	 1.259253414217659e+00	-4.615131156930134e+01
1	 1.134412278375600e-01	 1.257393072121882e+00	-4.670553421871546e+01
1	 1.365145906309735e-01	 1.255097612353543e+00	-4.715126833304397e+01
1	 1.596916074892905e-01	 1.252359708903600e+00	-4.748598707587502e+01
1	 1.829608548824194e-01	 1.249172356228256e+00	-4.770743692120225e+01
1	 2.063105085040065e-01	 1.245528893306430e+00	-4.781365766063458e+01
1	 2.297283536605614e-01	 1.241423027618115e+00	-4.780300194045689e+01
1	 0.000000000000000e+00	 1.256250000000000e+00	-4.309528421590660e+01
1	 2.228742267866494e-02	 1.256052281272581e+00	-4.411314711612843e+01
1	 4.472858135834891e-02	 1.255453470467360e+00	-4.501852523704384e+01
1	 6.731420640600697e-02	 1.254445239981975e+00	-4.580762832351146e+01
1	 9.003459966418718e-02	 1.253019486424281e+00	-4.647689792460913e+01
1	 1.128796376041085e-01	 1.251168353942711e+00	-4.702303109368334e+01
1	 1.358387758297983e-01	 1.248884257836435e+00	-4.744300410158782e+01
1	 1.589010549814161e-01	 1.246159908363779e+00	-4.773409602077045e+01
1	 1.820551080809987e-01	 1.242988334661858e+00	-4.789391202965222e+01
1	 2.052891693583609e-01	 1.239362908684941e+00	-4.792040627939015e+01
1	 2.285910845887913e-01	 1.235277369064108e+00	-4.781190415869923e+01
1	 0.000000000000000e+00	 1.250000000000000e+00	-4.328390808034291e+01
1	 2.217653997970408e-02	 1.249803264947827e+00	-4.436164271414991e+01
1	 4.450605110464842e-02	 1.249207433300800e+00	-4.531029921085754e+01
1	 6.697930985936384e-02	 1.248204218887413e+00	-4.612570888488855e+01
1	 8.958666633593632e-02	 1.246785558630901e+00	-4.680397561112954e+01
1	 1.123180473713980e-01	 1.244943635763541e+00	-4.734150270346738e+01
1	 1.351629610294563e-01	 1.242670903319327e+00	-4.773501976473298e+01
1	 1.581105024744474e-01	 1.239960107823959e+00	-4.798160934424198e+01
1	 1.811493612805357e-01	 1.236804313095460e+00	-4.807873323003157e+01
1	 2.042678302137047e-01	 1.233196924063451e+00	-4.802425819472950e+01
1	 2.274538155180211e-01	 1.229131710510101e+00	-4.781648100700672e+01
1	 2.388265062707223e-01	 1.290588296050167e+00	-4.758348579529255e+01
1	 2.632296053495848e-01	 1.285832966501324e+00	-4.827472231477289e+01
1	 2.876770624200390e-01	 1.280585074150708e+00	-4.876194376145991e+01
1	 3.121550432771631e-01	 1.274839373398050e+00	-4.904342428700195e+01
1	 3.366493672530504e-01	 1.268591098425140e+00	-4.911809875588033e+01
1	 3.611455261433884e-01	 1.261835986034352e+00	-4.898559066719037e+01
1	 3.856287047457219e-01	 1.254570297711666e+00	-4.864623774312242e+01
1	 4.100838029825464e-01	 1.246790840790980e+00	-4.810111491596226e+01
1	 4.344954595721886e-01	 1.238494988596377e+00	-4.735205445295498e+01
1	 4.588480772000423e-01	 1.229680699439837e+00	-4.640166296889607e+01
1	 4.831258491322111e-01	 1.220346534353637e+00	-4.525333508981924e+01
1	 2.376892371909522e-01	 1.284442637496160e+00	-4.762479133214130e+01
1	 2.619761310364764e-01	 1.279709952373494e+00	-4.821345836001393e+01
1	 2.863071716450883e-01	 1.274487049986287e+00	-4.860898109441456e+01
1	 3.106685906890326e-01	 1.268768709713320e+00	-4.880979185821756e+01
1	 3.350462750273931e-01	 1.262550188430758e+00	-4.881494627424780e+01
1	 3.594257855425447e-01	 1.255827243241914e+00	-4.862414936184130e+01
1	 3.837923775806149e-01	 1.248596153435219e+00	-4.823777942774406e+01
1	 4.081310229692308e-01	 1.240853741547746e+00	-4.765690949986610e+01
1	 4.324264335756795e-01	 1.232597393411557e+00	-4.688332605959587e+01
1	 4.566630863582816e-01	 1.223825077060958e+00	-4.591954483837115e+01
1	 4.808252498533018e-01	 1.214535360380455e+00	-4.476882345702258e+01
1	 2.365519681121820e-01	 1.278296978942153e+00	-4.766224942970962e+01
1	 2.607226567243586e-01	 1.273586938245661e+00	-4.814855363293059e+01
1	 2.849372808710999e-01	 1.268389025821848e+00	-4.845269232673030e+01
1	 3.091821381018170e-01	 1.262698046028548e+00	-4.857325730832639e+01
1	 3.334431828025834e-01	 1.256509278436298e+00	-4.850942603682232e+01
1	 3.577060449424614e-01	 1.249818500449356e+00	-4.826098589368385e+01
1	 3.819560504161617e-01	 1.242622009158600e+00	-4.782835636586319e+01
1	 4.061782429564418e-01	 1.234916642304275e+00	-4.721260891685691e+01
1	 4.303574075795492e-01	 1.226699798226427e+00	-4.641548431786866e+01
1	 4.544780955167307e-01	 1.217969454681685e+00	-4.543940722068092e+01
1	 4.785246505744128e-01	 1.208724186406782e+00	-4.428749776598220e+01
1	 2.354146990344120e-01	 1.272151320388147e+00	-4.769580432802048e+01
1	 2.594691824132313e-01	 1.267463924117822e+00	-4.807995536871796e+01
1	 2.835673900980735e-01	 1.262291001657390e+00	-4.829302925405913e+01
1	 3.076956855155159e-01	 1.256627382343733e+00	-4.833377857760986e+01
1	 3.318400905786214e-01	 1.250468368441763e+00	-4.820150372830748e+01
1	 3.559863043431388e-01	 1.243809757656678e+00	-4.789607530384146e+01
1	 3.801197232523621e-01	 1.236647864881808e+00	-4.741795457564874e+01
1	 4.042254629441789e-01	 1.228979543060568e+00	-4.676821178770554e+01
1	 4.282883815837971e-01	 1.220802203040986e+00	-4.594854207779725e+01
1	 4.522931046753899e-01	 1.212113832302016e+00	-4.496127881890949e+01
1	 4.762240512955446e-01	 1.202913012432620e+00	-4.380940418976497e+01
1	 2.342774299576418e-01	 1.266005661834140e+00	-4.772539918437892e+01
1	 2.582157081030947e-01	 1.261340909989979e+00	-4.800760977801109e+01
1	 2.821974993260098e-01	 1.256192977492913e+00	-4.812994273604667e+01
1	 3.062092329301298e-01	 1.250556718658876e+00	-4.809131278965564e+01
1	 3.302369983555071e-01	 1.244427458447151e+00	-4.789114436709227e+01
1	 3.542665637445770e-01	 1.237801014863881e+00	-4.752939214879840e+01
1	 3.782833960892160e-01	 1.230673720604842e+00	-4.700655980377924e+01
1	 4.022726829324426e-01	 1.223042443816623e+00	-4.632371670640129e+01
1	 4.262193555884237e-01	 1.214904607855233e+00	-4.548251243892047e+01
1	 4.501081138342590e-01	 1.206258209921952e+00	-4.448518889348168e+01
1	 4.739234520166967e-01	 1.197101838457967e+00	-4.333458979800282e+01
1	 2.331401608818717e-01	 1.259860003280134e+00	-4.775097604696388e+01
1	 2.569622337939487e-01	 1.255217895862131e+00	-4.793146202189646e+01
1	 2.808276085549083e-01	 1.250094953328418e+00	-4.796338267350216e+01
1	 3.047227803456582e-01	 1.244486054973975e+00	-4.784581623143857e+01
1	 3.286339061332403e-01	 1.238386548452464e+00	-4.757831228899632e+01
1	 3.525468231467759e-01	 1.231792272070964e+00	-4.716091048857974e+01
1	 3.764470689267239e-01	 1.224699576327703e+00	-4.659415751881752e+01
1	 4.003199029212324e-01	 1.217105344572442e+00	-4.587912223949934e+01
1	 4.241503295934289e-01	 1.209007012669171e+00	-4.501740875637782e+01
1	 4.479231229933383e-01	 1.200402587541493e+00	-4.401116727575764e+01
1	 4.716228527378696e-01	 1.191290664482826e+00	-4.286310257875927e+01
1	 2.320028918071016e-01	 1.253714344726128e+00	-4.777247582764425e+01
1	 2.557087594857934e-01	 1.249094881734278e+00	-4.785145618618853e+01
1	 2.794577177847690e-01	 1.243996929163903e+00	-4.779329798489733e+01
1	 3.032363277621015e-01	 1.238415391289032e+00	-4.759724433281537e+01
1	 3.270308139118210e-01	 1.232345638457700e+00	-4.726297113054149e+01
1	 3.508270825497355e-01	 1.225783529277928e+00	-4.679060387458481e+01
1	 3.746107417648852e-01	 1.218725432050391e+00	-4.618073290439756e+01
1	 3.983671229105488e-01	 1.211168245328024e+00	-4.543442692544794e+01
1	 4.220813035988125e-01	 1.203109417482797e+00	-4.455324464717450e+01
1	 4.457381321526272e-01	 1.194546965160639e+00	-4.353924438202673e+01
1	 4.693222534590629e-01	 1.185479490507194e+00	-4.239499146104082e+01
1	 2.308656227333315e-01	 1.247568686172121e+00	-4.778983827399086e+01
1	 2.544552851786286e-01	 1.242971867606421e+00	-4.776753525494330e+01
1	 2.780878270155922e-01	 1.237898904999369e+00	-4.761963658217179e+01
1	 3.017498751794595e-01	 1.232344727604047e+00	-4.734555164541317e+01
1	 3.254277216912494e-01	 1.226304728462859e+00	-4.694508381172891e+01
1	 3.491073419534557e-01	 1.219774786484772e+00	-4.641844533705717e+01
1	 3.727744146037003e-01	 1.212751287772906e+00	-4.576627085220503e+01
1	 3.964143429003914e-01	 1.205231146083369e+00	-4.498962927389658e+01
1	 4.200122776045745e-01	 1.197211822296113e+00	-4.409003399663039e+01
1	 4.435531413121264e-01	 1.188691342779390e+00	-4.306945122791378e+01
1	 4.670216541802768e-01	 1.179668316531073e+00	-4.193030633797206e+01
1	 2.297283536605614e-01	 1.241423027618115e+00	-4.780300194045689e+01
1	 2.532018108724546e-01	 1.236848853478559e+00	-4.767964108318876e+01
1	 2.767179362473776e-01	 1.231800880834817e+00	-4.744234534581869e+01
1	 3.002634225977321e-01	 1.226274063919019e+00	-4.709069182089127e+01
1	 3.238246294715255e-01	 1.220263818467943e+00	-4.662461251830130e+01
1	 3.473876013579365e-01	 1.213766043691496e+00	-4.604440737218658e+01
1	 3.709380874431690e-01	 1.206777143495247e+00	-4.535075595475074e+01
1	 3.944615628907603e-01	 1.199294046838477e+00	-4.454472776498271e+01
1	 4.179432516107151e-01	 1.191314227109118e+00	-4.362779096502367e+01
1	 4.413681504718353e-01	 1.182835720397746e+00	-4.260181944321409e+01
1	 4.647210549015112e-01	 1.173857142554462e+00	-4.146909809066037e+01
1	 2.285910845887913e-01	 1.235277369064108e+00	-4.781190415869923e+01
1	 2.519483365672712e-01	 1.230725839350692e+00	-4.758771436883871e+01
1	 2.753480454801254e-01	 1.225702856670246e+00	-4.726137009922551e+01
1	 2.987769700169197e-01	 1.220203400233949e+00	-4.683261758855382e+01
1	 3.222215372526493e-01	 1.214222908472951e+00	-4.630151868347906e+01
1	 3.456678607631781e-01	 1.207757300898100e+00	-4.566846192882230e+01
1	 3.691017602832914e-01	 1.200802999217416e+00	-4.493417249792863e+01
1	 3.925087828816557e-01	 1.193356947593349e+00	-4.409972084859774e+01
1	 4.158742256172343e-01	 1.185416631921812e+00	-4.316652999442774e+01
1	 4.391831596317544e-01	 1.176980098015707e+00	-4.213638128717272e+01
1	 4.624204556227662e-01	 1.168045968577361e+00	-4.101141861277264e+01
1	 2.274538155180211e-01	 1.229131710510101e+00	-4.781648100700672e+01
1	 2.506948622630784e-01	 1.224602825222820e+00	-4.749169462376600e+01
1	 2.739781547138352e-01	 1.219604832505655e+00	-4.707665558224870e+01
1	 2.972905174370217e-01	 1.214132736548835e+00	-4.657128073229167e+01
1	 3.206184450346204e-01	 1.208181998477881e+00	-4.597576296914757e+01
1	 3.439481201691802e-01	 1.201748558104585e+00	-4.529058039479094e+01
1	 3.672654331240673e-01	 1.194828854939411e+00	-4.451650445335113e+01
1	 3.905560028730775e-01	 1.187419848347983e+00	-4.365460694363087e+01
1	 4.138051996241319e-01	 1.179519036734196e+00	-4.270626581575785e+01
1	 4.369981687918833e-01	 1.171124475633273e+00	-4.167316966421822e+01
1	 4.601198563440417e-01	 1.162234794599770e+00	-4.055732083584963e+01
1	 4.831258491322111e-01	 1.220346534353637e+00	-4.525333508981924e+01
1	 5.073121513680235e-01	 1.210491928748326e+00	-4.362448607141426e+01
1	 5.313914418994564e-01	 1.200116463548084e+00	-4.196587567462998e+01
1	 5.553474585870992e-01	 1.189220600277448e+00	-4.027868110292791e+01
1	 5.791638492792750e-01	 1.177805459143562e+00	-3.856413867524881e+01
1	 6.028242044058807e-01	 1.165872828759678e+00	-3.682354138780096e+01
1	 6.263120904514597e-01	 1.153425173971015e+00	-3.505823621010910e+01
1	 6.496110841808270e-01	 1.140465641702191e+00	-3.326962112427324e+01
1	 6.727048074826912e-01	 1.126998064754955e+00	-3.145914191842446e+01
1	 6.955769626896431e-01	 1.113026963495290e+00	-2.962828874736546e+01
1	 7.182113682266713e-01	 1.098557545380039e+00	-2.777859247531176e+01
1	 4.808252498533018e-01	 1.214535360380455e+00	-4.476882345702258e+01
1	 5.048963792218961e-01	 1.204727681469017e+00	-4.316501871164939e+01
1	 5.288610064655219e-01	 1.194401623246325e+00	-4.153066040086480e+01
1	 5.527029468835257e-01	 1.183557645039178e+00	-3.986695306671838e+01
1	 5.764059261916182e-01	 1.172196861720400e+00	-3.817516375653261e+01
1	 5.999536129605042e-01	 1.160321053386034e+00	-3.645661950654157e+01
1	 6.233296519295620e-01	 1.147932673143941e+00	-3.471270453988419e+01
1	 6.465176980694867e-01	 1.135034852933382e+00	-3.294485718802949e+01
1	 6.695014512599922e-01	 1.121631407304669e+00	-3.115456654692712e+01
1	 6.922646914416081e-01	 1.107726835098231e+00	-2.934336888134115e+01
1	 7.147913140944419e-01	 1.093326318973498e+00	-2.751284379293640e+01
1	 4.785246505744128e-01	 1.208724186406782e+00	-4.428749776598220e+01
1	 5.024806070756084e-01	 1.198963434189132e+00	-4.270852903000188e+01
1	 5.263305710312843e-01	 1.188686782943934e+00	-4.109820689751965e+01
1	 5.500584351795454e-01	 1.177894689800249e+00	-3.945776355556720e+01
1	 5.736480031034900e-01	 1.166588264296580e+00	-3.778849710990569e+01
1	 5.970830215146322e-01	 1.154769278011765e+00	-3.609176898987064e+01
1	 6.203472134071841e-01	 1.142440172316304e+00	-3.436900104753992e+01
1	 6.434243119577217e-01	 1.129604064164102e+00	-3.262167236043296e+01
1	 6.662980950369650e-01	 1.116264749854035e+00	-3.085131574933957e+01
1	 6.889524201933830e-01	 1.102426706700977e+00	-2.905951402521791e+01
1	 7.113712599622016e-01	 1.088095092566945e+00	-2.724789598138019e+01
1	 4.762240512955446e-01	 1.202913012432620e+00	-4.380940418976496e+01
1	 5.000648349291601e-01	 1.193199186908672e+00	-4.225506018122592e+01
1	 5.238001355967437e-01	 1.182971942640910e+00	-4.066855519025207e+01
1	 5.474139234751585e-01	 1.172231734560660e+00	-3.905114935969117e+01
1	 5.708900800148904e-01	 1.160979666872102e+00	-3.740417218858509e+01
1	 5.942124300682634e-01	 1.149217502636869e+00	-3.572901985756378e+01
1	 6.173647748843250e-01	 1.136947671488102e+00	-3.402715222840770e+01
1	 6.403309258455322e-01	 1.124173275394351e+00	-3.230008952711597e+01
1	 6.630947388136105e-01	 1.110898092403052e+00	-3.054940872238546e+01
1	 6.856401489449681e-01	 1.097126578303528e+00	-2.877673961392247e+01
1	 7.079512058299509e-01	 1.082863866160383e+00	-2.698376064746778e+01
1	 4.739234520166967e-01	 1.197101838457967e+00	-4.333458979800282e+01
1	 4.976490627825515e-01	 1.187434939627636e+00	-4.180465615803154e+01
1	 5.212697001619001e-01	 1.177257102337254e+00	-4.024174608191489e+01
1	 5.447694117703643e-01	 1.166568779320411e+00	-3.864714798368046e+01
1	 5.681321569258194e-01	 1.155371069446967e+00	-3.702222309536546e+01
1	 5.913418386213991e-01	 1.143665727261348e+00	-3.536840271230459e+01
1	 6.143823363609853e-01	 1.131455170659336e+00	-3.368718509229050e+01
1	 6.372375397329177e-01	 1.118742486624127e+00	-3.198013201809194e+01
1	 6.598913825899276e-01	 1.105531434951720e+00	-3.024886503553938e+01
1	 6.823278776963632e-01	 1.091826449905884e+00	-2.849506138208870e+01
1	 7.045311516976891e-01	 1.077632639753809e+00	-2.672044962339840e+01
1	 4.716228527378696e-01	 1.191290664482826e+00	-4.286310257875928e+01
1	 4.952332906357825e-01	 1.181670692346025e+00	-4.135736181152294e+01
1	 5.187392647267535e-01	 1.171542262032967e+00	-3.981782117151641e+01
1	 5.421249000651637e-01	 1.160905824079502e+00	-3.824579766392149e+01
1	 5.653742338362772e-01	 1.149762472021173e+00	-3.664268459846185e+01
1	 5.884712471740383e-01	 1.138113951885200e+00	-3.500994875390295e+01
1	 6.113998978371653e-01	 1.125962669830007e+00	-3.334912717601254e+01
1	 6.341441536198790e-01	 1.113311697853432e+00	-3.166182361859393e+01
1	 6.566880263659172e-01	 1.100164777500038e+00	-2.994970464012098e+01
1	 6.790156064475688e-01	 1.086526321508045e+00	-2.821449537136798e+01
1	 7.011110975654170e-01	 1.072401413347226e+00	-2.645797497224408e+01
1	 4.693222534590629e-01	 1.185479490507194e+00	-4.239499146104082e+01
1	 4.928175184888530e-01	 1.175906445063839e+00	-4.091322287223856e+01
1	 5.162088292913039e-01	 1.165827421728046e+00	-3.939682287373024e+01
1	 5.394803883595559e-01	 1.155242868837933e+00	-3.784713738653460e+01
1	 5.626163107462637e-01	 1.144153874594722e+00	-3.626559214781874e+01
1	 5.856006557261818e-01	 1.132562176508427e+00	-3.465368979392945e+01
1	 6.084174593128645e-01	 1.120470169000113e+00	-3.301300655633549e+01
1	 6.310507675064152e-01	 1.107880909082265e+00	-3.134518858023257e+01
1	 6.534846701415788e-01	 1.094798120048009e+00	-2.965194787865076e+01
1	 6.757033351985843e-01	 1.081226193110010e+00	-2.793505793795313e+01
1	 6.976910434331343e-01	 1.067170186940631e+00	-2.619634899360733e+01
1	 4.670216541802768e-01	 1.179668316531073e+00	-4.193030633797206e+01
1	 4.904017463417633e-01	 1.170142197781078e+00	-4.047228597181082e+01
1	 5.136783938555508e-01	 1.160112581422494e+00	-3.897879443898761e+01
1	 5.368358766535414e-01	 1.149579913595705e+00	-3.745120690583932e+01
1	 5.598583876557788e-01	 1.138545277167614e+00	-3.589098189190211e+01
1	 5.827300642778290e-01	 1.127010401131027e+00	-3.429965827078308e+01
1	 6.054350207880831e-01	 1.114977668169655e+00	-3.267885186325764e+01
1	 6.279573813925272e-01	 1.102450120310627e+00	-3.103025163248245e+01
1	 6.502813139169127e-01	 1.089431462595631e+00	-2.935561549448773e+01
1	 6.723910639494098e-01	 1.075926064711781e+00	-2.765676576032734e+01
1	 6.942709893008407e-01	 1.061938960534025e+00	-2.593558422944738e+01
1	 4.647210549015112e-01	 1.173857142554462e+00	-4.146909809066037e+01
1	 4.879859741945130e-01	 1.164377950497741e+00	-4.003459866527072e+01
1	 5.111479584194951e-01	 1.154397741116310e+00	-3.856377997416458e+01
1	 5.341913649471199e-01	 1.143916958352817e+00	-3.705804676336927e+01
1	 5.571004645648224e-01	 1.132936679739847e+00	-3.551889069498866e+01
1	 5.798594728289802e-01	 1.121458625753002e+00	-3.394788726520837e+01
1	 6.024525822628208e-01	 1.109485167338633e+00	-3.234669229370814e+01
1	 6.248639952782145e-01	 1.097019331538517e+00	-3.071703799451082e+01
1	 6.470779576919188e-01	 1.084064805142903e+00	-2.906072864175035e+01
1	 6.690787927000456e-01	 1.070625936313356e+00	-2.737963584724052e+01
1	 6.908509351685368e-01	 1.056707734127410e+00	-2.567569347007914e+01
1	 4.624204556227662e-01	 1.168045968577361e+00	-4.101141861277264e+01
1	 4.855702020471024e-01	 1.158613703213828e+00	-3.960020945401848e+01
1	 5.086175229831363e-01	 1.148682900809493e+00	-3.815182446388516e+01
1	 5.315468532402915e-01	 1.138254003109269e+00	-3.666769830745508e+01
1	 5.543425414733948e-01	 1.127328082311422e+00	-3.514935615497303e+01
1	 5.769888813796352e-01	 1.115906850374350e+00	-3.359841051627247e+01
1	 5.994701437370782e-01	 1.103992666507048e+00	-3.201655762564933e+01
1	 6.217706091634767e-01	 1.091588542765935e+00	-3.040557338735826e+01
1	 6.438746014665970e-01	 1.078698147689827e+00	-2.876730889553482e+01
1	 6.657665214504916e-01	 1.065325807914737e+00	-2.710368554592463e+01
1	 6.874308810362221e-01	 1.051476507720783e+00	-2.541668976035091e+01
1	 4.601198563440417e-01	 1.162234794599770e+00	-4.055732083584963e+01
1	 4.831544298995313e-01	 1.152849455929340e+00	-3.916916780948258e+01
1	 5.060870875464741e-01	 1.142968060502044e+00	-3.774297379246660e+01
1	 5.289023415330564e-01	 1.132591047865061e+00	-3.628020371339392e+01
1	 5.515846183814958e-01	 1.121719484882340e+00	-3.478241662170775e+01
1	 5.741182899297941e-01	 1.110355074995073e+00	-3.325126243782417e+01
1	 5.964877052108547e-01	 1.098500165674898e+00	-3.168847823260311e+01
1	 6.186772230483144e-01	 1.086157753992881e+00	-3.009588404648756e+01
1	 6.406712452409474e-01	 1.073331490236403e+00	-2.847537826243838e+01
1	 6.624542502007474e-01	 1.060025679515921e+00	-2.682893255055675e+01
1	 6.840108269038967e-01	 1.046245281314146e+00	-2.515858640600861e+01
1	 7.182113682266713e-01	 1.098557545380039e+00	-2.777859247531176e+01
1	 7.405925533867365e-01	 1.083595332638148e+00	-2.584522986553987e+01
1	 7.627040881444286e-01	 1.068147276864078e+00	-2.393434951537633e+01
1	 7.845303531607838e-01	 1.052220622318377e+00	-2.204774505871815e+01
1	 8.060559879906316e-01	 1.035823276286499e+00	-2.018708753218984e+01
1	 8.272659260144869e-01	 1.018963797483662e+00	-1.835391924462375e+01
1	 8.481454287409333e-01	 1.001651382263352e+00	-1.654964832958914e+01
1	 8.686801193190133e-01	 9.838958486701231e-01	-1.477554402094115e+01
1	 8.888560151032351e-01	 9.657076183906991e-01	-1.303273268551424e+01
1	 9.086595591181502e-01	 9.470976966704479e-01	-1.132219464084278e+01
1	 9.280776502749999e-01	 9.280776502750000e-01	-9.644761779227611e+00
1	 7.147913140944419e-01	 1.093326318973498e+00	-2.751284379293640e+01
1	 7.370659221815897e-01	 1.078435354863177e+00	-2.559742151728570e+01
1	 7.590721639159612e-01	 1.063060861258993e+00	-2.370291662651081e+01
1	 7.807944943363977e-01	 1.047210047925015e+00	-2.183112561828494e+01
1	 8.022176261427061e-01	 1.030890784492958e+00	-1.998372875062641e+01
1	 8.233265644612098e-01	 1.014111588922253e+00	-1.816228392133526e+01
1	 8.441066409837852e-01	 9.968816137742263e-01	-1.636822119604352e+01
1	 8.645435473206695e-01	 9.792106303408407e-01	-1.460283802464305e+01
1	 8.846233674103983e-01	 9.611090106817398e-01	-1.286729518030350e+01
1	 9.043326088345489e-01	 9.425877076363616e-01	-1.116261344934360e+01
1	 9.236582328904999e-01	 9.236582328905000e-01	-9.489671093945201e+00
1	 7.113712599622016e-01	 1.088095092566945e+00	-2.724789598138019e+01
1	 7.335392909766223e-01	 1.073275377088386e+00	-2.535033748347210e+01
1	 7.554402396878439e-01	 1.057974445654259e+00	-2.347211702115258e+01
1	 7.770586355125132e-01	 1.042199473532155e+00	-2.161503405098547e+01
1	 7.983792642954143e-01	 1.025958292700051e+00	-1.978077818509278e+01
1	 8.193872029086781e-01	 1.009259380361589e+00	-1.797092308042883e+01
1	 8.400678532274736e-01	 9.921118452859377e-01	-1.618692094204815e+01
1	 8.604069753232338e-01	 9.745254120124667e-01	-1.443009767992672e+01
1	 8.803907197185206e-01	 9.565104029737398e-01	-1.270164875364022e+01
1	 9.000056585519376e-01	 9.380777186032651e-01	-1.100263573354166e+01
1	 9.192388155069999e-01	 9.192388155069999e-01	-9.333983601107793e+00
1	 7.079512058299509e-01	 1.082863866160383e+00	-2.698376064746778e+01
1	 7.300126597718352e-01	 1.068115399313775e+00	-2.510398826141035e+01
1	 7.518083154600780e-01	 1.052888030049876e+00	-2.324195987732426e+01
1	 7.733227766891309e-01	 1.037188899139798e+00	-2.139947800715571e+01
1	 7.945409024487560e-01	 1.021025800907777e+00	-1.957824175176423e+01
1	 8.154478413568916e-01	 1.004407171801670e+00	-1.777984069991122e+01
1	 8.360290654719991e-01	 9.873420767984863e-01	-1.600574940643799e+01
1	 8.562704033267062e-01	 9.698401936850005e-01	-1.425732248898982e+01
1	 8.761580720276020e-01	 9.519117952666988e-01	-1.253579037767775e+01
1	 8.956787082703159e-01	 9.335677295711583e-01	-1.084225574670845e+01
1	 9.148193981245002e-01	 9.148193981245002e-01	-9.177690651330646e+00
1	 7.045311516976891e-01	 1.077632639753809e+00	-2.672044962339840e+01
1	 7.264860285672268e-01	 1.062955421539343e+00	-2.485838455224350e+01
1	 7.481763912326622e-01	 1.047801614445843e+00	-2.301245455126302e+01
1	 7.695869178662509e-01	 1.032178324747943e+00	-2.118446528568246e+01
1	 7.907025406027317e-01	 1.016093309116137e+00	-1.937612548169313e+01
1	 8.115084798058506e-01	 9.995549632424970e-01	-1.758904083503127e+01
1	 8.319902777173612e-01	 9.825723083118708e-01	-1.582470846375336e+01
1	 8.521338313310870e-01	 9.651549753584425e-01	-1.408451194436370e+01
1	 8.719254243376430e-01	 9.473131875606173e-01	-1.236971696577641e+01
1	 8.913517579896837e-01	 9.290577405400411e-01	-1.068146763052829e+01
1	 9.103999807430003e-01	 9.103999807430003e-01	-9.020783427279934e+00
1	 7.011110975654170e-01	 1.072401413347226e+00	-2.645797497224408e+01
1	 7.229593973627990e-01	 1.057795443765091e+00	-2.461353726591764e+01
1	 7.445444670055974e-01	 1.042715198842161e+00	-2.278361058176648e+01
1	 7.658510590438729e-01	 1.027167750356590e+00	-2.097000383762518e+01
1	 7.868641787573414e-01	 1.011160817325131e+00	-1.917443552361112e+01
1	 8.075691182555549e-01	 9.947027546840690e-01	-1.739852762016526e+01
1	 8.279514899635603e-01	 9.778025398260929e-01	-1.564380002511100e+01
1	 8.479972593363763e-01	 9.604697570327930e-01	-1.391166552867805e+01
1	 8.676927766486427e-01	 9.427145798554948e-01	-1.220342537106914e+01
1	 8.870248077100418e-01	 9.245477515099140e-01	-1.052026541237715e+01
1	 9.059805633624999e-01	 9.059805633624999e-01	-8.863252939576236e+00
1	 6.976910434331343e-01	 1.067170186940631e+00	-2.619634899360733e+01
1	 7.194327661585509e-01	 1.052635465991020e+00	-2.436945752629885e+01
1	 7.409125427788833e-01	 1.037628783238830e+00	-2.255543769466724e+01
1	 7.621152002219971e-01	 1.022157175965739e+00	-2.075610176994715e+01
1	 7.830258169125842e-01	 1.006228325534758e+00	-1.897317814681303e+01
1	 8.036297567060043e-01	 9.898505461263861e-01	-1.720830527075549e+01
1	 8.239127022105965e-01	 9.730327713411517e-01	-1.546302603910053e+01
1	 8.438606873425732e-01	 9.557845387080517e-01	-1.373878271441785e+01
1	 8.634601289606018e-01	 9.381159721513316e-01	-1.203691238498601e+01
1	 8.826978574313892e-01	 9.200377624807766e-01	-1.035864300252033e+01
1	 9.015611459830000e-01	 9.015611459830000e-01	-8.705090022577776e+00
1	 6.942709893008407e-01	 1.061938960534025e+00	-2.593558422944738e+01
1	 7.159061349544822e-01	 1.047475488217127e+00	-2.412615667644266e+01
1	 7.372806185525199e-01	 1.032542367635850e+00	-2.232794580744020e+01
1	 7.583793414006232e-01	 1.017146601575390e+00	-2.054276734935434e+01
1	 7.791874550684610e-01	 1.001295833745019e+00	-1.877235974412678e+01
1	 7.996903951571992e-01	 9.849983375694489e-01	-1.701837808530697e+01
1	 8.198739144584690e-01	 9.682630028570473e-01	-1.528238849270749e+01
1	 8.397241153496784e-01	 9.510993203842183e-01	-1.356586296367377e+01
1	 8.592274812735196e-01	 9.335173644481271e-01	-1.187017473573368e+01
1	 8.783709071537267e-01	 9.155277734526290e-01	-1.019659419122858e+01
1	 8.971417286045003e-01	 8.971417286045003e-01	-8.546285330039131e+00
1	 6.908509351685368e-01	 1.056707734127410e+00	-2.567569347007915e+01
1	 7.123795037505936e-01	 1.042315510443415e+00	-2.388364628401991e+01
1	 7.336486943265074e-01	 1.027455952033221e+00	-2.210114503394569e+01
1	 7.546434825797516e-01	 1.012136027185543e+00	-2.033000900625002e+01
1	 7.753490932249715e-01	 9.963633419559141e-01	-1.857198683497083e+01
1	 7.957510336091396e-01	 9.801461290132569e-01	-1.682875044744393e+01
1	 8.158351267071787e-01	 9.634932343737798e-01	-1.510188941226364e+01
1	 8.355875433576918e-01	 9.464141020612932e-01	-1.339290572788501e+01
1	 8.549948335873969e-01	 9.289187567458820e-01	-1.170320908673117e+01
1	 8.740439568770542e-01	 9.110177844254713e-01	-1.003411264580768e+01
1	 8.927223112270002e-01	 8.927223112270002e-01	-8.386829330640611e+00
1	 6.874308810362221e-01	 1.051476507720783e+00	-2.541668976035091e+01
1	 7.088528725468843e-01	 1.037155532669882e+00	-2.364193814690355e+01
1	 7.300167701008453e-01	 1.022369536430942e+00	-2.187504568931532e+01
1	 7.509076237593820e-01	 1.007125452796198e+00	-2.011783533880676e+01
1	 7.715107313821155e-01	 9.914308501674425e-01	-1.837206606850320e+01
1	 7.918116720618250e-01	 9.752939204578100e-01	-1.663942682802677e+01
1	 8.117963389567251e-01	 9.587234658913490e-01	-1.492153086442595e+01
1	 8.314509713666131e-01	 9.417288837392759e-01	-1.321991044757395e+01
1	 8.507621859022336e-01	 9.243201490445961e-01	-1.153601203499757e+01
1	 8.697170066013711e-01	 9.065077953993033e-01	-9.871191907539870e+00
1	 8.883028938505002e-01	 8.883028938505002e-01	-8.226712303384526e+00
1	 6.840108269038967e-01	 1.046245281314146e+00	-2.515858640600860e+01
1	 7.053262413433549e-01	 1.031995554896528e+00	-2.340104429892427e+01
1	 7.263848458755340e-01	 1.017283120829013e+00	-2.164965829498286e+01
1	 7.471717649395143e-01	 1.002114878407355e+00	-1.990625511716014e+01
1	 7.676723695398933e-01	 9.864983583796046e-01	-1.817260422686519e+01
1	 7.878723105152556e-01	 9.704417119031085e-01	-1.645041178733300e+01
1	 8.077575512071082e-01	 9.539536974097551e-01	-1.474131495718404e+01
1	 8.273143993764429e-01	 9.370436654181670e-01	-1.304687655207331e+01
1	 8.465295382180290e-01	 9.197215413442693e-01	-1.136858010949234e+01
1	 8.653900563266779e-01	 9.019978063741249e-01	-9.707825388532731e+00
1	 8.838834764750000e-01	 8.838834764750000e-01	-8.065924332853152e+00
1	 9.280776502749999e-01	 9.280776502750000e-01	-9.644761779227611e+00
1	 9.470976869950806e-01	 9.086595738610251e-01	-8.150920091281609e+00
1	 9.657075798032693e-01	 8.888560739476630e-01	-6.655948029673765e+00
1	 9.838957621181963e-01	 8.686802514003704e-01	-5.161542367402241e+00
1	 1.001651228895778e+00	 8.481456629284566e-01	-3.669393459664632e+00
1	 1.018963558666839e+00	 8.272662908695004e-01	-2.181180089972837e+00
1	 1.035822933619861e+00	 8.060565117259884e-01	-6.985643930277239e-01
1	 1.052220157649076e+00	 7.845310636016595e-01	 7.768131165447137e-01
1	 1.068146672300861e+00	 7.627050126905902e-01	 2.243338381523098e+00
1	 1.083594570564393e+00	 7.405937189764132e-01	 3.699428478706234e+00
1	 1.098556608465972e+00	 7.182128013021297e-01	 5.143536109556122e+00
1	 9.236582328904999e-01	 9.236582328905000e-01	-9.489671093945201e+00
1	 9.425876980070675e-01	 9.043326235072199e-01	-7.995256158660769e+00
1	 9.611089722780598e-01	 8.846234259746145e-01	-6.499834669864962e+00
1	 9.792105442010659e-01	 8.645436787730678e-01	-5.005157621746142e+00
1	 9.968814611369742e-01	 8.441068740561296e-01	-3.512968769507799e+00
1	 1.014111351242653e+00	 8.233269275788182e-01	-2.024999250448304e+00
1	 1.030890443458065e+00	 8.022181473840849e-01	-5.429622884105954e-01
1	 1.047209585468426e+00	 7.807952013942213e-01	 9.314519878682539e-01
1	 1.063060259574649e+00	 7.590730840595219e-01	 2.396581583088626e+00
1	 1.078434596418345e+00	 7.370670822208391e-01	 3.850797502363724e+00
1	 1.093325386520926e+00	 7.147927403457310e-01	 5.292508420425705e+00
1	 9.192388155069999e-01	 9.192388155069999e-01	-9.333983601107793e+00
1	 9.380777090200441e-01	 9.000056731544041e-01	-7.838778167878754e+00
1	 9.565103647538096e-01	 8.803907780025254e-01	-6.342691420001792e+00
1	 9.745253262848441e-01	 8.604071061466734e-01	-4.847528987564818e+00
1	 9.921116933790073e-01	 8.400680851846395e-01	-3.355088434949755e+00
1	 1.009259143819212e+00	 8.193875642888818e-01	-1.867153655436380e+00
1	 1.025957953296904e+00	 7.983797830428155e-01	-3.854893558256056e-01
1	 1.042199013288277e+00	 7.770593391872851e-01	 1.088164336949262e+00
1	 1.057973846848787e+00	 7.554411554288036e-01	 2.552097116452308e+00
1	 1.073274622272477e+00	 7.335404454654449e-01	 4.004633555311268e+00
1	 1.088094164575869e+00	 7.113726793893221e-01	 5.444137954148360e+00
1	 9.148193981245002e-01	 9.148193981245002e-01	-9.177690651330646e+00
1	 9.335677200340106e-01	 8.956787228025782e-01	-7.681474320991368e+00
1	 9.519117572305182e-01	 8.761581300313953e-01	-6.184503354141414e+00
1	 9.698401083695299e-01	 8.562705335211870e-01	-4.688638437488033e+00
1	 9.873419256218772e-01	 8.360292963139863e-01	-3.195731359694562e+00
1	 1.004406936396516e+00	 8.154482009996905e-01	-1.707619178045352e+00
1	 1.021025463136376e+00	 7.945414187021798e-01	-2.261184818232944e-01
1	 1.037188441108631e+00	 7.733234769808510e-01	 1.246980214190763e+00
1	 1.052887434123276e+00	 7.518092267984369e-01	 2.709917913959395e+00
1	 1.068114648126788e+00	 7.300138087102302e-01	 4.160972391596750e+00
1	 1.082862942630802e+00	 7.079526184329025e-01	 5.598463221199985e+00
1	 9.103999807430003e-01	 9.103999807430003e-01	-9.020783427279934e+00
1	 9.290577310489668e-01	 8.913517724517422e-01	-7.523332590967884e+00
1	 9.473131497081865e-01	 8.719254820612244e-01	-6.025255256516612e+00
1	 9.651548904551243e-01	 8.521339608966091e-01	-4.528467594099605e+00
1	 9.825721578655841e-01	 8.319905074441696e-01	-3.034876037809432e+00
1	 9.995547289745655e-01	 8.115088377112447e-01	-1.546371222900550e+00
1	 1.016092972976482e+00	 7.907030543621776e-01	-6.482202647991886e-02
1	 1.032177868929487e+00	 7.695876147749192e-01	 1.407930253497988e+00
1	 1.047801021398117e+00	 7.481772981684206e-01	 2.870077547418157e+00
1	 1.062954673981279e+00	 7.264871719551954e-01	 4.319850459521233e+00
1	 1.077631720685724e+00	 7.045325574764720e-01	 5.755523479833037e+00
1	 9.059805633624999e-01	 9.059805633624999e-01	-8.863252939576236e+00
1	 9.245477420649127e-01	 8.870248221018961e-01	-7.364340716103959e+00
1	 9.427145421868133e-01	 8.676928340920128e-01	-5.864931614467369e+00
1	 9.604696725416266e-01	 8.479973882729391e-01	-4.366997721399732e+00
1	 9.778023901101277e-01	 8.279517185751901e-01	-2.872500543733437e+00
1	 9.947025215533608e-01	 8.075694744235442e-01	-1.383384714717335e+00
1	 1.011160482817222e+00	 7.868646900228086e-01	 9.842818944425447e-02
1	 1.027167296750844e+00	 7.658517525694895e-01	 1.571045686511632e+00
1	 1.042714608673307e+00	 7.445453695387549e-01	 3.032610243696308e+00
1	 1.057794699835950e+00	 7.229605352003404e-01	 4.481304918572459e+00
1	 1.072400498740636e+00	 7.011124965200310e-01	 5.915358754314338e+00
1	 9.015611459830000e-01	 9.015611459830000e-01	-8.705090022577776e+00
1	 9.200377530818485e-01	 8.826978717530395e-01	-7.204486194269756e+00
1	 9.381159346663998e-01	 8.634601861237603e-01	-5.703516611163951e+00
1	 9.557844546290374e-01	 8.438608156501776e-01	-4.204209716015877e+00
1	 9.730326223555082e-01	 8.239129297070473e-01	-2.708582521992963e+00
1	 9.898503141329008e-01	 8.036301111365887e-01	-1.218634086538808e+00
1	 1.006227992658595e+00	 7.830263256840740e-01	 2.636608977227595e-01
1	 1.022156724572704e+00	 7.621158903645617e-01	 1.736358357257013e+00
1	 1.037628195948848e+00	 7.409134409094402e-01	 3.197550900776823e+00
1	 1.052634725690801e+00	 7.194338984456651e-01	 4.645373656855195e+00
1	 1.067169276795537e+00	 6.976924355635795e-01	 6.078009853700416e+00
1	 8.971417286045003e-01	 8.971417286045003e-01	-8.546285330039131e+00
1	 9.155277640997740e-01	 8.783709214051727e-01	-7.043756276987839e+00
1	 9.335173271469448e-01	 8.592275381564667e-01	-5.540994118114614e+00
1	 9.510992367173560e-01	 8.397242430283237e-01	-4.040084098154520e+00
1	 9.682628546017256e-01	 8.198741408397413e-01	-2.543099176612428e+00
1	 9.849981067131867e-01	 7.996907478503789e-01	-1.052093267625896e+00
1	 1.001295502500602e+00	 7.791879613459728e-01	 4.309053962726896e-01
1	 1.017146152395066e+00	 7.583800281601363e-01	 1.903900737228104e+00
1	 1.032541783224740e+00	 7.372815122804759e-01	 3.364935104287666e+00
1	 1.047474751545831e+00	 7.159072616911695e-01	 4.812095309038011e+00
1	 1.061938054850428e+00	 6.942723746071174e-01	 6.243518391166996e+00
1	 8.927223112270002e-01	 8.927223112270002e-01	-8.386829330640611e+00
1	 9.110177751186898e-01	 8.740439710582961e-01	-6.882137963335757e+00
1	 9.289187196284496e-01	 8.549948901901324e-01	-5.377347687451837e+00
1	 9.464140188065830e-01	 8.355876704073784e-01	-3.874601002283593e+00
1	 9.634930868487798e-01	 8.158353519732723e-01	-2.376027260210491e+00
1	 9.801458992942175e-01	 7.957513845649142e-01	-8.837356709869570e-01
1	 9.963630123432428e-01	 7.753495970085055e-01	 6.001915631676160e-01
1	 1.012135580217930e+00	 7.546441659562126e-01	 2.073705940918569e+00
1	 1.027455370500983e+00	 7.336495836518626e-01	 3.534799144522487e+00
1	 1.042314777401042e+00	 7.123806249368537e-01	 4.981509274832244e+00
1	 1.056706832905307e+00	 6.908523136506444e-01	 6.411926803913026e+00
1	 8.883028938505002e-01	 8.883028938505002e-01	-8.226712303384526e+00
1	 9.065077861385946e-01	 8.697170207124085e-01	-6.719617993666336e+00
1	 9.243201121109135e-01	 8.507622422247576e-01	-5.212560543987363e+00
1	 9.417288008967177e-01	 8.314510977873408e-01	-3.707740167536898e+00
1	 9.587233190966711e-01	 8.117965631076400e-01	-2.207343062771745e+00
1	 9.752936918759938e-01	 7.918120212801949e-01	-7.135341805361439e-01
1	 9.914305221865173e-01	 7.715112326716718e-01	 7.715498710697806e-01
1	 1.007125008041296e+00	 7.509083037527915e-01	 2.245807741817248e+00
1	 1.022368957777577e+00	 7.300176550236001e-01	 3.707180033969887e+00
1	 1.037154803256431e+00	 7.088539881827178e-01	 5.153655738023289e+00
1	 1.051475610960176e+00	 6.874322526941611e-01	 6.583278373659009e+00
1	 8.838834764750000e-01	 8.838834764750000e-01	-8.065924332853152e+00
1	 9.019977971594892e-01	 8.653900703675111e-01	-6.556182843139231e+00
1	 9.197215045943362e-01	 8.465295942603414e-01	-5.046615577028990e+00
1	 9.370435829877605e-01	 8.273145251682116e-01	-3.539480927831304e+00
1	 9.539535513453987e-01	 8.077577742428447e-01	-2.037022400080289e+00
1	 9.704414844585152e-01	 7.878726579962209e-01	-5.414611378659924e-01
1	 9.864980320304251e-01	 7.676728683354713e-01	 9.450114020948629e-01
1	 1.002114435865165e+00	 7.471724415498722e-01	 2.420240588882522e+00
1	 1.017282545054521e+00	 7.263857263956881e-01	 3.882115525368357e+00
1	 1.031994829112001e+00	 7.053273514287612e-01	 5.328575686072007e+00
1	 1.046244389015035e+00	 6.840121917376668e-01	 6.757617247759530e+00
1	 1.098556608465972e+00	 7.182128013021297e-01	 5.143536109556122e+00
1	 1.113026214439379e+00	 6.955781019722751e-01	 6.092458530465744e+00
1	 1.126997496460084e+00	 6.727056510518903e-01	 7.005098615383627e+00
1	 1.140465246942069e+00	 6.496116305235260e-01	 7.880392049422747e+00
1	 1.153424945409339e+00	 6.263123384614093e-01	 8.717380319329711e+00
1	 1.165872758969277e+00	 6.028241533816299e-01	 9.515212173390747e+00
1	 1.177805540625447e+00	 5.791634989208893e-01	 1.027314455616805e+01
1	 1.189220825479669e+00	 5.553468089916535e-01	 1.099054302463733e+01
1	 1.200116824884327e+00	 5.313904935553467e-01	 1.166688165609897e+01
1	 1.210492418616161e+00	 5.073109051481486e-01	 1.230174246182177e+01
1	 1.220347145152351e+00	 4.831243062860802e-01	 1.289481432371887e+01
1	 1.093325386520926e+00	 7.147927403457310e-01	 5.292508420425705e+00
1	 1.107726089609253e+00	 6.922658252990846e-01	 6.239067573645904e+00
1	 1.121630841715965e+00	 6.695022908121946e-01	 7.148824723740440e+00
1	 1.135034460053071e+00	 6.465182418105537e-01	 8.020717337141535e+00
1	 1.147932445670654e+00	 6.233298987585120e-01	 8.853790169072498e+00
1	 1.160320983927968e+00	 5.999535621792261e-01	 9.647196692188746e+00
1	 1.172196942814275e+00	 5.764055775016057e-01	 1.040019999344349e+01
1	 1.183557869169008e+00	 5.527023003813918e-01	 1.111217314612701e+01
1	 1.194401982861919e+00	 5.288600626373365e-01	 1.178259906786874e+01
1	 1.204728169004147e+00	 5.048951389364015e-01	 1.241106987901527e+01
1	 1.214535968270603e+00	 4.808237143540570e-01	 1.299728577916314e+01
1	 1.088094164575869e+00	 7.113726793893221e-01	 5.444137954148355e+00
1	 1.102425964778932e+00	 6.889535486257042e-01	 6.388366542524198e+00
1	 1.116264186971496e+00	 6.662989305721714e-01	 7.295269353024981e+00
1	 1.129603673163601e+00	 6.434248530971569e-01	 8.163785609547423e+00
1	 1.142439945931406e+00	 6.203474590551341e-01	 8.992963322593701e+00
1	 1.154769208886034e+00	 5.970829709763262e-01	 9.781960686531150e+00
1	 1.166588345002447e+00	 5.736476560818506e-01	 1.053004693842341e+01
1	 1.177894912857687e+00	 5.500577917707230e-01	 1.123660268576218e+01
1	 1.188687140838879e+00	 5.263296317190232e-01	 1.190111971430941e+01
1	 1.198963919391559e+00	 5.024793727244939e-01	 1.252320029091676e+01
1	 1.208724791388365e+00	 4.785231224220544e-01	 1.310255597958598e+01
1	 1.082862942630802e+00	 7.079526184329025e-01	 5.598463221199985e+00
1	 1.097125839948416e+00	 6.856412719521338e-01	 6.540394421531023e+00
1	 1.110897532226679e+00	 6.630955703318204e-01	 7.444471902091252e+00
1	 1.124172886273659e+00	 6.403314643833352e-01	 8.309636620041703e+00
1	 1.136947446191592e+00	 6.173650193512751e-01	 9.134939827774485e+00
1	 1.149217433843474e+00	 5.942123797729307e-01	 9.919544438672805e+00
1	 1.160979747189960e+00	 5.708897346616244e-01	 1.066272584774203e+01
1	 1.172231956545706e+00	 5.474132831596475e-01	 1.136387221482168e+01
1	 1.182972298815207e+00	 5.237992008004069e-01	 1.202248422201231e+01
1	 1.193199669778395e+00	 5.000636065124262e-01	 1.263817432064025e+01
1	 1.202913614505638e+00	 4.762225304900725e-01	 1.321066548651182e+01
1	 1.077631720685724e+00	 7.045325574764720e-01	 5.755523479833040e+00
1	 1.091825715117704e+00	 6.823289952783737e-01	 6.695190952075697e+00
1	 1.105530877481513e+00	 6.598922100911415e-01	 7.596472534819501e+00
1	 1.118742099383246e+00	 6.372380756690892e-01	 8.458310893936428e+00
1	 1.131454946451216e+00	 6.143825796469358e-01	 9.279760510124627e+00
1	 1.143665658800288e+00	 5.913417885690386e-01	 1.005998901304822e+01
1	 1.155371149376816e+00	 5.681318132409270e-01	 1.079827796359938e+01
1	 1.166569000233066e+00	 5.447687745481654e-01	 1.149402309237615e+01
1	 1.177257456790902e+00	 5.212687698814876e-01	 1.214673400643454e+01
1	 1.187435420164655e+00	 4.976478403001978e-01	 1.275603338009822e+01
1	 1.197102437622420e+00	 4.739219385581110e-01	 1.332165564906753e+01
1	 1.072400498740636e+00	 7.011124965200310e-01	 5.915358754314341e+00
1	 1.086525590286798e+00	 6.790167186044237e-01	 6.852796651010054e+00
1	 1.100164222735998e+00	 6.566888498501349e-01	 7.751312198775304e+00
1	 1.113311312492361e+00	 6.341446869544183e-01	 8.609849747281418e+00
1	 1.125962446710275e+00	 6.114001399421161e-01	 9.427466991749384e+00
1	 1.138113883756475e+00	 5.884711973646508e-01	 1.020333627534922e+01
1	 1.149762551563013e+00	 5.653738918197581e-01	 1.093674533292135e+01
1	 1.160906043919766e+00	 5.421242659362763e-01	 1.162709748450253e+01
1	 1.171542614765966e+00	 5.187383389622653e-01	 1.227391129113981e+01
1	 1.181671170550341e+00	 4.952320740878093e-01	 1.287681968924056e+01
1	 1.191291260738713e+00	 4.716213466261701e-01	 1.343556862319229e+01
1	 1.067169276795537e+00	 6.976924355635795e-01	 6.078009853700416e+00
1	 1.081225465455697e+00	 6.757044419302840e-01	 7.013252829633714e+00
1	 1.094797567990134e+00	 6.534854896088002e-01	 7.909032644417977e+00
1	 1.107880525601004e+00	 6.310512982393229e-01	 8.764295306245057e+00
1	 1.120469946968770e+00	 6.084177002368153e-01	 9.578101710873659e+00
1	 1.132562108712037e+00	 5.856006061597668e-01	 1.034962891216344e+01
1	 1.144153953748553e+00	 5.626159703981176e-01	 1.107817082708350e+01
1	 1.155243087605805e+00	 5.394797573239801e-01	 1.176313838406372e+01
1	 1.165827772740397e+00	 5.162079080427399e-01	 1.240405912760488e+01
1	 1.175906920935450e+00	 4.928163078752603e-01	 1.300057629585935e+01
1	 1.185480083854516e+00	 4.693207546942498e-01	 1.355244739141251e+01
1	 1.061938054850428e+00	 6.942723746071174e-01	 6.243518391166996e+00
1	 1.075925340624400e+00	 6.723921652559541e-01	 7.176601613262012e+00
1	 1.089430913243922e+00	 6.502821293671383e-01	 8.069676444875578e+00
1	 1.102449738709176e+00	 6.279579095238027e-01	 8.921690527068062e+00
1	 1.114977447226702e+00	 6.054352605310344e-01	 9.731707941943482e+00
1	 1.127010333666973e+00	 5.827300149543865e-01	 1.049891045119373e+01
1	 1.138545355933435e+00	 5.598580489760060e-01	 1.122259816221743e+01
1	 1.149580131291185e+00	 5.368352487112772e-01	 1.190218963107251e+01
1	 1.160112930714196e+00	 5.136774771229116e-01	 1.253722141561157e+01
1	 1.170142671319985e+00	 4.904005416625508e-01	 1.312734709597914e+01
1	 1.179668906969829e+00	 4.670201627623501e-01	 1.367233578320091e+01
1	 1.056706832905307e+00	 6.908523136506444e-01	 6.411926803913023e+00
1	 1.070625215792909e+00	 6.690798885814344e-01	 7.342885961375012e+00
1	 1.084064258497361e+00	 6.470787691251482e-01	 8.233287016308585e+00
1	 1.097018951816876e+00	 6.248645208078579e-01	 9.082079216609710e+00
1	 1.109484947484069e+00	 6.024528208247725e-01	 9.888329816324664e+00
1	 1.121458558621283e+00	 5.798594237485103e-01	 1.065122528207771e+01
1	 1.132936758117660e+00	 5.571001275534229e-01	 1.137007192012091e+01
1	 1.143917174975906e+00	 5.341907400981675e-01	 1.204429593366098e+01
1	 1.154398088687363e+00	 5.111470462027801e-01	 1.267344292424436e+01
1	 1.164378421703944e+00	 4.879847754496810e-01	 1.325717685485284e+01
1	 1.173857730084653e+00	 4.647195708304710e-01	 1.379527849594087e+01
1	 1.051475610960176e+00	 6.874322526941611e-01	 6.583278373659009e+00
1	 1.065325090961222e+00	 6.657676119067251e-01	 7.512149688367765e+00
1	 1.078697603750451e+00	 6.438754088828302e-01	 8.399908638880810e+00
1	 1.091588164924104e+00	 6.217711320914887e-01	 9.245506053507658e+00
1	 1.103992447740872e+00	 5.994703811180301e-01	 1.004801234361924e+01
1	 1.115906783574966e+00	 5.769888325421380e-01	 1.080661867782865e+01
1	 1.127328160301226e+00	 5.543422061303684e-01	 1.152063756979157e+01
1	 1.138254218659966e+00	 5.315462314846510e-01	 1.218950288967523e+01
1	 1.148683246659897e+00	 5.086166152823455e-01	 1.281276931351489e+01
1	 1.158614172087327e+00	 4.855690092366509e-01	 1.339011122858411e+01
1	 1.168046553198987e+00	 4.624189788986123e-01	 1.392132111651585e+01
1	 1.046244389015035e+00	 6.840121917376668e-01	 6.757617247759530e+00
1	 1.060024966129340e+00	 6.624553352318256e-01	 7.684437484923169e+00
1	 1.073330949003193e+00	 6.406720486401845e-01	 8.569586478358900e+00
1	 1.086157378030861e+00	 6.186777433746945e-01	 9.412016609972145e+00
1	 1.098499947997111e+00	 5.964879414108070e-01	 1.021080143362118e+01
1	 1.110355008528024e+00	 5.741182413352696e-01	 1.096513681692028e+01
1	 1.121719562484135e+00	 5.515842847068427e-01	 1.167434148960711e+01
1	 1.132591262343367e+00	 5.289017228707272e-01	 1.233785700891840e+01
1	 1.142968404631800e+00	 5.060861843616079e-01	 1.295524715663501e+01
1	 1.152849922470135e+00	 4.831532430234601e-01	 1.352619678639892e+01
1	 1.162235376312831e+00	 4.601183869667742e-01	 1.405051014354723e+01
1	 1.220347145152351e+00	 4.831243062860802e-01	 1.289481432371887e+01
1	 1.229681190138468e+00	 4.588468378684133e-01	 1.349740489986291e+01
1	 1.238495373144912e+00	 4.344944886856269e-01	 1.404453123450664e+01
1	 1.246791132816067e+00	 4.100830661329605e-01	 1.453314641732577e+01
1	 1.254570510522024e+00	 3.856281682207527e-01	 1.496044557349930e+01
1	 1.261836132626719e+00	 3.611451569577847e-01	 1.532387000998421e+01
1	 1.268591191490658e+00	 3.366491331770325e-01	 1.562111004040586e+01
1	 1.274839425329030e+00	 3.121549128617930e-01	 1.585010652073994e+01
1	 1.280585097047684e+00	 2.876770050196259e-01	 1.600905113641534e+01
1	 1.285832972180329e+00	 2.632295911411737e-01	 1.609638548913659e+01
1	 1.290588296050167e+00	 2.388265062707223e-01	 1.611079903856070e+01
1	 1.214535968270603e+00	 4.808237143540570e-01	 1.299728577916314e+01
1	 1.223825565422929e+00	 4.566618529282317e-01	 1.360678939362709e+01
1	 1.232597776128909e+00	 4.324254673123872e-01	 1.416240080800135e+01
1	 1.240854032182237e+00	 4.081302896284525e-01	 1.466115211158408e+01
1	 1.248596365232195e+00	 3.837918436105266e-01	 1.510030885408778e+01
1	 1.255827389136221e+00	 3.594254181149675e-01	 1.547737416242900e+01
1	 1.262550281053106e+00	 3.350460420660230e-01	 1.579009158060086e+01
1	 1.268768761397010e+00	 3.106684608946882e-01	 1.603644666296960e+01
1	 1.274487072774231e+00	 2.863071145180104e-01	 1.621466735954003e+01
1	 1.279709958025457e+00	 2.619761168957242e-01	 1.632322323918473e+01
1	 1.284442637496160e+00	 2.376892371909522e-01	 1.636082360348409e+01
1	 1.208724791388365e+00	 4.785231224220544e-01	 1.310255597958598e+01
1	 1.217969940706995e+00	 4.544768679882602e-01	 1.371858829763498e+01
1	 1.226700179112595e+00	 4.303564459395260e-01	 1.428231772849850e+01
1	 1.234916931548171e+00	 4.061775131244710e-01	 1.479085578433820e+01
1	 1.242622219942193e+00	 3.819555190009540e-01	 1.524153881144245e+01
1	 1.249818645645605e+00	 3.577056792729109e-01	 1.563193207763799e+01
1	 1.256509370615478e+00	 3.334429509558611e-01	 1.595983262747721e+01
1	 1.262698097464948e+00	 3.091820089284981e-01	 1.622327093369677e+01
1	 1.268389048500758e+00	 2.849372240173573e-01	 1.642051138139730e+01
1	 1.273586943870580e+00	 2.607226426512655e-01	 1.655005162862257e+01
1	 1.278296978942153e+00	 2.365519681121821e-01	 1.661062089348307e+01
1	 1.202913614505638e+00	 4.762225304900725e-01	 1.321066548651182e+01
1	 1.212114315990666e+00	 4.522918830484983e-01	 1.383283660334225e+01
1	 1.220802582095970e+00	 4.282874245670435e-01	 1.440431166769662e+01
1	 1.228979830913867e+00	 4.042247366210157e-01	 1.492228204397490e+01
1	 1.236648074652018e+00	 3.801191943920353e-01	 1.538415525247555e+01
1	 1.243809902154868e+00	 3.559859404316151e-01	 1.578755902753783e+01
1	 1.250468460177773e+00	 3.318398598465468e-01	 1.613034418838049e+01
1	 1.256627433532842e+00	 3.076955569632226e-01	 1.641058634927873e+01
1	 1.262291024227266e+00	 2.835673335176664e-01	 1.662658650342020e+01
1	 1.267463929715699e+00	 2.594691684077974e-01	 1.677687052179093e+01
1	 1.272151320388147e+00	 2.354146990344120e-01	 1.686018761471982e+01
1	 1.197102437622420e+00	 4.739219385581110e-01	 1.332165564906753e+01
1	 1.206258691273942e+00	 4.501068981089468e-01	 1.394956998165050e+01
1	 1.214904985079035e+00	 4.262184031949393e-01	 1.452841287344378e+01
1	 1.223042730279327e+00	 4.022719601180869e-01	 1.505545597671368e+01
1	 1.230673929361670e+00	 3.782828697837702e-01	 1.552817836869973e+01
1	 1.237801158664012e+00	 3.542662015910800e-01	 1.594427058059746e+01
1	 1.244427549739992e+00	 3.302367687380799e-01	 1.630163748439120e+01
1	 1.250556769600694e+00	 3.062091049988619e-01	 1.659840006231272e+01
1	 1.256192999953756e+00	 2.821974430189380e-01	 1.683289609114723e+01
1	 1.261340915560813e+00	 2.582156941653199e-01	 1.700367978039652e+01
1	 1.266005661834141e+00	 2.342774299576419e-01	 1.710952040939853e+01
1	 1.191291260738713e+00	 4.716213466261701e-01	 1.343556862319229e+01
1	 1.200403066556823e+00	 4.479219131696051e-01	 1.406882479947885e+01
1	 1.209007388061789e+00	 4.241493818232137e-01	 1.465465218379003e+01
1	 1.217105629644550e+00	 4.003191836156844e-01	 1.519040315826139e+01
1	 1.224699784071148e+00	 3.764465451761588e-01	 1.567362874560829e+01
1	 1.231792415173036e+00	 3.525464627513056e-01	 1.610208260906083e+01
1	 1.238386639302136e+00	 3.286336776304610e-01	 1.647372395553781e+01
1	 1.244486105668504e+00	 3.047226530354161e-01	 1.678671936495893e+01
1	 1.250094975680228e+00	 2.808275525211716e-01	 1.703944357578596e+01
1	 1.255217901405922e+00	 2.569622199238331e-01	 1.723047926344764e+01
1	 1.259860003280134e+00	 2.331401608818717e-01	 1.735861585420540e+01
1	 1.185480083854516e+00	 4.693207546942498e-01	 1.355244739141250e+01
1	 1.194547441839309e+00	 4.457369282304733e-01	 1.419063813682349e+01
1	 1.203109791044232e+00	 4.220803604518668e-01	 1.478306104145314e+01
1	 1.211168529009537e+00	 3.983664071138083e-01	 1.532714966580932e+01
1	 1.218725638780453e+00	 3.746102205692007e-01	 1.582052737233176e+01
1	 1.225783671681941e+00	 3.508267239122919e-01	 1.626101129639247e+01
1	 1.232345728864203e+00	 3.270305865236895e-01	 1.664661526616300e+01
1	 1.238415441736271e+00	 3.032362010728848e-01	 1.697555169236099e+01
1	 1.243996951406679e+00	 2.794576620243677e-01	 1.724623245582251e+01
1	 1.249094887251026e+00	 2.557087456833369e-01	 1.745726882718812e+01
1	 1.253714344726128e+00	 2.320028918071016e-01	 1.760747045870281e+01
1	 1.179668906969829e+00	 4.670201627623501e-01	 1.367233578320091e+01
1	 1.188691817121400e+00	 4.435519432915516e-01	 1.431504780432093e+01
1	 1.197212194026364e+00	 4.200113390808983e-01	 1.491367150871187e+01
1	 1.205231428374286e+00	 3.964136306124585e-01	 1.546572209038512e+01
1	 1.212751493489586e+00	 3.727738959628967e-01	 1.596889565157962e+01
1	 1.219774928190726e+00	 3.491069850740387e-01	 1.642107314494280e+01
1	 1.226304818426194e+00	 3.254274954177657e-01	 1.682032331044877e+01
1	 1.232344777803995e+00	 3.017497491112684e-01	 1.716490462616786e+01
1	 1.237898927133113e+00	 2.780877715285262e-01	 1.745326629867863e+01
1	 1.242971873096125e+00	 2.544552714438312e-01	 1.768404832502906e+01
1	 1.247568686172121e+00	 2.308656227333315e-01	 1.785608066367609e+01
1	 1.173857730084653e+00	 4.647195708304710e-01	 1.379527849594087e+01
1	 1.182836192403096e+00	 4.413669583528400e-01	 1.444209236133330e+01
1	 1.191314597008185e+00	 4.179423177103083e-01	 1.504651628274168e+01
1	 1.199294327738799e+00	 3.944608541116350e-01	 1.560614754957144e+01
1	 1.206777348198544e+00	 3.709375713572463e-01	 1.611875540987736e+01
1	 1.213766184699391e+00	 3.473872462365463e-01	 1.658228498384157e+01
1	 1.220263907988108e+00	 3.238244043126894e-01	 1.699486021810550e+01
1	 1.226274113871677e+00	 3.002632971505667e-01	 1.735478589816024e+01
1	 1.231800902859527e+00	 2.767178810336468e-01	 1.766054874241824e+01
1	 1.236848858941221e+00	 2.532017972053163e-01	 1.791081760747890e+01
1	 1.241423027618115e+00	 2.297283536605614e-01	 1.810444283943104e+01
1	 1.168046553198987e+00	 4.624189788986123e-01	 1.392132111651585e+01
1	 1.176980567684397e+00	 4.391819734143382e-01	 1.457181113457324e+01
1	 1.185416999989696e+00	 4.158732963400968e-01	 1.518162871140811e+01
1	 1.193357227103075e+00	 3.925080776113380e-01	 1.574845370060443e+01
1	 1.200803202907330e+00	 3.691012467522496e-01	 1.627012890810929e+01
1	 1.207757441207937e+00	 3.456675073998146e-01	 1.674466397712659e+01
1	 1.214222997549946e+00	 3.222213132084607e-01	 1.717023836023080e+01
1	 1.220203449939316e+00	 2.987768451907797e-01	 1.754520339398502e+01
1	 1.225702878585923e+00	 2.753479905397299e-01	 1.786808349750442e+01
1	 1.230725844786311e+00	 2.519483229677918e-01	 1.813757652207103e+01
1	 1.235277369064108e+00	 2.285910845887913e-01	 1.835255328404078e+01
1	 1.162235376312831e+00	 4.601183869667742e-01	 1.405051014354722e+01
1	 1.171124942965302e+00	 4.369969884760462e-01	 1.470424423728779e+01
1	 1.179519402970896e+00	 4.138042749702637e-01	 1.531904280953415e+01
1	 1.187420126467113e+00	 3.905553011115672e-01	 1.589266875386500e+01
1	 1.194829057615943e+00	 3.672649221479063e-01	 1.642303885237740e+01
1	 1.201748697716363e+00	 3.439477685638434e-01	 1.690822763211645e+01
1	 1.208182087111708e+00	 3.206182221050797e-01	 1.734647035534435e+01
1	 1.214132786006912e+00	 2.972903932319074e-01	 1.773616515700202e+01
1	 1.219604854312299e+00	 2.739781000467751e-01	 1.807587434860956e+01
1	 1.224602830631397e+00	 2.506948487312581e-01	 1.836432491328955e+01
1	 1.229131710510102e+00	 2.274538155180211e-01	 1.860040822153978e+01
1	 1.290588296050167e+00	 2.388265062707223e-01	 1.611079903856070e+01
1	 1.294856770278347e+00	 2.144812217047878e-01	 1.649160487602373e+01
1	 1.298644528759439e+00	 1.902068293282645e-01	 1.682356256979997e+01
1	 1.301958113222162e+00	 1.660160275848852e-01	 1.710844056876090e+01
1	 1.304804448490407e+00	 1.419211090703706e-01	 1.734805335320350e+01
1	 1.307190817555246e+00	 1.179339497318521e-01	 1.754425342154039e+01
1	 1.309124836564689e+00	 9.406599964678086e-02	 1.769892349563576e+01
1	 1.310614429833037e+00	 7.032827534826853e-02	 1.781396897674271e+01
1	 1.311667804966393e+00	 4.673135365743578e-02	 1.789131068033496e+01
1	 1.312293428195356e+00	 2.328536697759711e-02	 1.793287787446274e+01
1	 1.312500000000000e+00	 0.000000000000000e+00	 1.794060164263357e+01
1	 1.284442637496160e+00	 2.376892371909522e-01	 1.636082360348409e+01
1	 1.288690785656858e+00	 2.134598825512273e-01	 1.675066192559910e+01
1	 1.292460507193042e+00	 1.893010825191817e-01	 1.708946831777146e+01
1	 1.295758312682341e+00	 1.652254750697662e-01	 1.737885637387966e+01
1	 1.298591093973299e+00	 1.412452942625296e-01	 1.762049918046120e+01
1	 1.300966099376075e+00	 1.173723594924717e-01	 1.781612128585876e+01
1	 1.302890908771310e+00	 9.361806631286276e-02	 1.796749082603741e+01
1	 1.304373408738474e+00	 6.999337879713069e-02	 1.807641184272788e+01
1	 1.305421767799834e+00	 4.650882340057875e-02	 1.814471682609570e+01
1	 1.306044411870603e+00	 2.317448427697934e-02	 1.817425951062861e+01
1	 1.306250000000000e+00	 0.000000000000000e+00	 1.816690794941858e+01
1	 1.278296978942153e+00	 2.365519681121821e-01	 1.661062089348307e+01
1	 1.282524801035369e+00	 2.124385433986561e-01	 1.701037720664299e+01
1	 1.286276485626643e+00	 1.883953357110565e-01	 1.735689040773727e+01
1	 1.289558512142521e+00	 1.644349225555529e-01	 1.765161834483460e+01
1	 1.292377739456191e+00	 1.405694794555219e-01	 1.789609190859055e+01
1	 1.294741381196905e+00	 1.168107692538323e-01	 1.809190698318819e+01
1	 1.296656980977932e+00	 9.317013297957431e-02	 1.824071649163203e+01
1	 1.298132387643911e+00	 6.965848224649221e-02	 1.834422257477380e+01
1	 1.299175730633275e+00	 4.628629314407245e-02	 1.840416894019854e+01
1	 1.299795395545850e+00	 2.306360157654568e-02	 1.842233341375097e+01
1	 1.300000000000000e+00	 0.000000000000000e+00	 1.840052072307829e+01
1	 1.272151320388147e+00	 2.354146990344120e-01	 1.686018761471982e+01
1	 1.276358816413879e+00	 2.114172042470742e-01	 1.727076025874250e+01
1	 1.280092464060246e+00	 1.874895889038891e-01	 1.762585081566803e+01
1	 1.283358711602701e+00	 1.636443700422451e-01	 1.792676048402779e+01
1	 1.286164384939083e+00	 1.398936646493473e-01	 1.817487714484827e+01
1	 1.288516663017734e+00	 1.162491790159341e-01	 1.837166729371399e+01
1	 1.290423053184553e+00	 9.272219964691562e-02	 1.851866800451987e+01
1	 1.291891366549349e+00	 6.932358569635319e-02	 1.861747896803617e+01
1	 1.292929693466715e+00	 4.606376288791687e-02	 1.866975464536793e+01
1	 1.293546379221097e+00	 2.295271887629612e-02	 1.867719657320052e+01
1	 1.293750000000000e+00	 0.000000000000000e+00	 1.864154585443124e+01
1	 1.266005661834141e+00	 2.342774299576419e-01	 1.710952040939853e+01
1	 1.270192831792389e+00	 2.103958650964818e-01	 1.753182080671948e+01
1	 1.273908442493848e+00	 1.865838420976795e-01	 1.789637194425210e+01
1	 1.277158911062881e+00	 1.628538175298428e-01	 1.820431745410207e+01
1	 1.279951030421975e+00	 1.392178498440060e-01	 1.845690138206876e+01
1	 1.282291944838564e+00	 1.156875887787769e-01	 1.865546010014933e+01
1	 1.284189125391174e+00	 9.227426631488655e-02	 1.880141418771562e+01
1	 1.285650345454787e+00	 6.898868914671356e-02	 1.889626032825599e+01
1	 1.286683656300156e+00	 4.584123263211203e-02	 1.894156326574025e+01
1	 1.287297362896344e+00	 2.284183617623066e-02	 1.893894786163620e+01
1	 1.287500000000000e+00	 0.000000000000000e+00	 1.889009129042797e+01
1	 1.259860003280134e+00	 2.331401608818717e-01	 1.735861585420540e+01
1	 1.264026847170900e+00	 2.093745259468787e-01	 1.779356876514838e+01
1	 1.267724420927450e+00	 1.856780952924276e-01	 1.816847663330346e+01
1	 1.270959110523061e+00	 1.620632650183462e-01	 1.848432459404442e+01
1	 1.273737675904867e+00	 1.385420350394979e-01	 1.874221202026366e+01
1	 1.276067226659393e+00	 1.151259985423609e-01	 1.894334441462601e+01
1	 1.277955197597796e+00	 9.182633298348723e-02	 1.908902520712191e+01
1	 1.279409324360225e+00	 6.865379259757338e-02	 1.918064750860314e+01
1	 1.280437619133597e+00	 4.561870237665792e-02	 1.921968586836135e+01
1	 1.281048346571591e+00	 2.273095347634930e-02	 1.920768808093948e+01
1	 1.281250000000000e+00	 0.000000000000000e+00	 1.914626708430060e+01
1	 1.253714344726128e+00	 2.320028918071016e-01	 1.760747045870281e+01
1	 1.257860862549410e+00	 2.083531867982651e-01	 1.805601424300714e+01
1	 1.261540399361052e+00	 1.847723484881335e-01	 1.844218817047568e+01
1	 1.264759309983240e+00	 1.612727125077552e-01	 1.876681793576326e+01
1	 1.267524321387759e+00	 1.378662202358231e-01	 1.903085738885650e+01
1	 1.269842508480223e+00	 1.145644083066861e-01	 1.923538040637641e+01
1	 1.271721269804416e+00	 9.137839965271759e-02	 1.938157260444320e+01
1	 1.273168303265662e+00	 6.831889604893257e-02	 1.947072294760353e+01
1	 1.274191581967037e+00	 4.539617212155451e-02	 1.950421530590544e+01
1	 1.274799330246839e+00	 2.262007077665204e-02	 1.948352000949881e+01
1	 1.275000000000000e+00	 0.000000000000000e+00	 1.941018544718743e+01
1	 1.247568686172121e+00	 2.308656227333315e-01	 1.785608066367609e+01
1	 1.251694877927920e+00	 2.073318476506407e-01	 1.831916754846520e+01
1	 1.255356377794654e+00	 1.838666016847973e-01	 1.871753030229226e+01
1	 1.258559509443420e+00	 1.604821599980698e-01	 1.905183422115514e+01
1	 1.261310966870651e+00	 1.371904054329814e-01	 1.932288676957469e+01
1	 1.263617790301053e+00	 1.140028180717523e-01	 1.953162943023342e+01
1	 1.265487342011038e+00	 9.093046632257765e-02	 1.967912933107265e+01
1	 1.266927282171100e+00	 6.798399950079120e-02	 1.976657070818741e+01
1	 1.267945544800478e+00	 4.517364186680185e-02	 1.979524626065560e+01
1	 1.268550313922086e+00	 2.250918807713888e-02	 1.976654845089228e+01
1	 1.268750000000000e+00	 0.000000000000000e+00	 1.968196080128321e+01
1	 1.241423027618115e+00	 2.297283536605614e-01	 1.810444283943104e+01
1	 1.245528893306431e+00	 2.063105085040058e-01	 1.858303919381436e+01
1	 1.249172356228256e+00	 1.829608548824188e-01	 1.899452724550485e+01
1	 1.252359708903600e+00	 1.596916074892899e-01	 1.933941091967898e+01
1	 1.255097612353543e+00	 1.365145906309730e-01	 1.961835042002132e+01
1	 1.257393072121882e+00	 1.134412278375596e-01	 1.983215405597696e+01
1	 1.259253414217659e+00	 9.048253299306740e-02	 1.998176978298516e+01
1	 1.260686261076537e+00	 6.764910295314926e-02	 2.006827651789723e+01
1	 1.261699507633919e+00	 4.495111161239993e-02	 2.009287528979142e+01
1	 1.262301297597333e+00	 2.239830537780981e-02	 2.005688028401606e+01
1	 1.262500000000000e+00	 0.000000000000000e+00	 1.996170983456835e+01
1	 1.235277369064108e+00	 2.285910845887913e-01	 1.835255328404078e+01
1	 1.239362908684941e+00	 2.052891693583602e-01	 1.884763990054615e+01
1	 1.242988334661858e+00	 1.820551080809980e-01	 1.927320369879044e+01
1	 1.246159908363779e+00	 1.589010549814156e-01	 1.962958624645454e+01
1	 1.248884257836435e+00	 1.358387758297978e-01	 1.991729959795072e+01
1	 1.251168353942712e+00	 1.128796376041081e-01	 2.013701809855661e+01
1	 1.253019486424281e+00	 9.003459966418685e-02	 2.028956983667251e+01
1	 1.254445239981975e+00	 6.731420640600672e-02	 2.037592781029596e+01
1	 1.255453470467359e+00	 4.472858135834873e-02	 2.039720087202817e+01
1	 1.256052281272581e+00	 2.228742267866485e-02	 2.035462451470914e+01
1	 1.256250000000000e+00	 0.000000000000000e+00	 2.024955155717164e+01
1	 1.229131710510102e+00	 2.274538155180211e-01	 1.860040822153978e+01
1	 1.233196924063451e+00	 2.042678302137040e-01	 1.911298060458193e+01
1	 1.236804313095460e+00	 1.811493612805350e-01	 1.955358485479975e+01
1	 1.239960107823959e+00	 1.581105024744469e-01	 1.992239918090384e+01
1	 1.242670903319327e+00	 1.351629610294558e-01	 2.021978658627224e+01
1	 1.244943635763541e+00	 1.123180473713976e-01	 2.044628664922080e+01
1	 1.246785558630902e+00	 8.958666633593598e-02	 2.060260688615605e+01
1	 1.248204218887413e+00	 6.697930985936359e-02	 2.068961376761762e+01
1	 1.249207433300800e+00	 4.450605110464825e-02	 2.070832345565498e+01
1	 1.249803264947827e+00	 2.217653997970399e-02	 2.065989232892691e+01
1	 1.250000000000000e+00	 0.000000000000000e+00	 2.054560735942413e+01
1	 0.000000000000000e+00	 1.250000000000000e+00	-4.328390808034291e+01
1	 2.217653997970408e-02	 1.249803264947827e+00	-4.436164271414991e+01
1	 4.450605110464842e-02	 1.249207433300800e+00	-4.531029921085754e+01
1	 6.697930985936384e-02	 1.248204218887413e+00	-4.612570888488855e+01
1	 8.958666633593632e-02	 1.246785558630901e+00	-4.680397561112954e+01
1	 1.123180473713980e-01	 1.244943635763541e+00	-4.734150270346738e+01
1	 1.351629610294563e-01	 1.242670903319327e+00	-4.773501976473298e+01
1	 1.581105024744474e-01	 1.239960107823959e+00	-4.798160934424198e+01
1	 1.811493612805357e-01	 1.236804313095460e+00	-4.807873323003157e+01
1	 2.042678302137047e-01	 1.233196924063451e+00	-4.802425819472950e+01
1	 2.274538155180211e-01	 1.229131710510101e+00	-4.781648100700672e+01
1	 0.000000000000000e+00	 1.243750000000000e+00	-4.283040556251056e+01
1	 2.206565728074322e-02	 1.243554248623077e+00	-4.386664333493993e+01
1	 4.428352085094796e-02	 1.242961396134250e+00	-4.477874758972975e+01
1	 6.664441331272072e-02	 1.241963197792871e+00	-4.556270148775135e+01
1	 8.913873300768543e-02	 1.240551630837560e+00	-4.621474814212439e+01
1	 1.117564571386876e-01	 1.238718917584430e+00	-4.673141635825699e+01
1	 1.344871462291143e-01	 1.236457548802304e+00	-4.710954635192665e+01
1	 1.573199499674787e-01	 1.233760307284255e+00	-4.734631528894151e+01
1	 1.802436144800728e-01	 1.230620291529215e+00	-4.743926248116874e+01
1	 2.032464910690485e-01	 1.227030939442157e+00	-4.738631406592085e+01
1	 2.263165464472510e-01	 1.222986051956338e+00	-4.718580698893735e+01
1	 0.000000000000000e+00	 1.237500000000000e+00	-4.237864243783437e+01
1	 2.195477458159826e-02	 1.237305232298331e+00	-4.337322601372440e+01
1	 4.406099059689674e-02	 1.236715358967718e+00	-4.424867169973410e+01
1	 6.630951676557817e-02	 1.235722176698372e+00	-4.500111576736406e+01
1	 8.869079967880489e-02	 1.234317703044293e+00	-4.562694175869510e+01
1	 1.111948669052360e-01	 1.232494199405435e+00	-4.612280508115054e+01
1	 1.338113314279391e-01	 1.230244194285452e+00	-4.648565758695376e+01
1	 1.565293974596044e-01	 1.227560506744785e+00	-4.671277198818770e+01
1	 1.793378676786519e-01	 1.224436269963278e+00	-4.680176595000674e+01
1	 2.022251519234030e-01	 1.220864954821254e+00	-4.675062569704597e+01
1	 2.251792773754809e-01	 1.216840393403059e+00	-4.655772896163228e+01
1	 0.000000000000000e+00	 1.231250000000000e+00	-4.192864519453506e+01
1	 2.184389188226920e-02	 1.231056215973589e+00	-4.288141484275616e+01
1	 4.383846034249482e-02	 1.230469321801205e+00	-4.372009401393211e+01
1	 6.597462021793622e-02	 1.229481155603913e+00	-4.444097337362518e+01
1	 8.824286634929464e-02	 1.228083775251101e+00	-4.504057810173776e+01
1	 1.106332766710434e-01	 1.226269481226559e+00	-4.551569133511367e+01
1	 1.331355166259307e-01	 1.224030839768770e+00	-4.586337760150505e+01
1	 1.557388449508246e-01	 1.221360706205549e+00	-4.608100610321684e+01
1	 1.784321208762735e-01	 1.218252248397647e+00	-4.616627370077449e+01
1	 2.012038127767680e-01	 1.214698970200741e+00	-4.611722743977992e+01
1	 2.240420083027108e-01	 1.210694734850266e+00	-4.593228645794878e+01
1	 0.000000000000000e+00	 1.225000000000000e+00	-4.148044086140983e+01
1	 2.173300918275603e-02	 1.224807199648852e+00	-4.239123440596671e+01
1	 4.361593008774215e-02	 1.224223284634710e+00	-4.319303746401905e+01
1	 6.563972366979486e-02	 1.223240134509497e+00	-4.388229639826748e+01
1	 8.779493301915468e-02	 1.221849847457984e+00	-4.445567925379790e+01
1	 1.100716864361096e-01	 1.220044763047800e+00	-4.491009804153811e+01
1	 1.324597018230891e-01	 1.217817485252259e+00	-4.524273101975662e+01
1	 1.549482924411391e-01	 1.215160905666546e+00	-4.545104483937214e+01
1	 1.775263740729371e-01	 1.212068226832323e+00	-4.553281641125715e+01
1	 2.001824736291438e-01	 1.208532985580619e+00	-4.548615434685238e+01
1	 2.229047392289407e-01	 1.204549076297958e+00	-4.530951981753574e+01
1	 0.000000000000000e+00	 1.218750000000000e+00	-4.103405702169278e+01
1	 2.162212648305878e-02	 1.218558183324120e+00	-4.190270979157437e+01
1	 4.339339983263876e-02	 1.217977247468234e+00	-4.266752545208512e+01
1	 6.530482712115407e-02	 1.216999113415123e+00	-4.332510738618760e+01
1	 8.734699968838505e-02	 1.215615919664942e+00	-4.387226775039757e+01
1	 1.095100962004347e-01	 1.213820044869159e+00	-4.430604859199972e+01
1	 1.317838870194142e-01	 1.211604130735918e+00	-4.462374297099480e+01
1	 1.541577399305481e-01	 1.208961105127776e+00	-4.482291596005548e+01
1	 1.766206272686431e-01	 1.205884205267306e+00	-4.490142538852769e+01
1	 1.991611344805300e-01	 1.202367000960888e+00	-4.485744219002417e+01
1	 2.217674701541705e-01	 1.198403417746136e+00	-4.468947020752326e+01
1	 0.000000000000000e+00	 1.212500000000000e+00	-4.058952182734448e+01
1	 2.151124378317741e-02	 1.212309166999393e+00	-4.141586660507946e+01
1	 4.317086957718464e-02	 1.211731210301776e+00	-4.214358186273645e+01
1	 6.496993057201386e-02	 1.210758092320790e+00	-4.276942934712543e+01
1	 8.689906635698572e-02	 1.209381991871974e+00	-4.329036659170889e+01
1	 1.089485059640187e-01	 1.207595326690635e+00	-4.370356686037294e+01
1	 1.311080722149061e-01	 1.205390776219747e+00	-4.400643910263635e+01
1	 1.533671874190514e-01	 1.202761304589240e+00	-4.419664780110942e+01
1	 1.757148804633912e-01	 1.199700183702596e+00	-4.427213258516573e+01
1	 1.981397953309270e-01	 1.196201016341548e+00	-4.423112747861757e+01
1	 2.206302010784005e-01	 1.192257759194798e+00	-4.407217964384751e+01
1	 0.000000000000000e+00	 1.206250000000000e+00	-4.014686401378585e+01
1	 2.140036108311195e-02	 1.206060150674669e+00	-4.093073098266631e+01
1	 4.294833932137981e-02	 1.205485173135336e+00	-4.162123107559830e+01
1	 6.463503402237424e-02	 1.204517071226499e+00	-4.221528576770672e+01
1	 8.645113302495669e-02	 1.203148064079081e+00	-4.270999925459088e+01
1	 1.083869157268616e-01	 1.201370608512229e+00	-4.310267721532926e+01
1	 1.304322574095648e-01	 1.199177421703747e+00	-4.339084559364994e+01
1	 1.525766349066493e-01	 1.196561504050938e+00	-4.357226928564820e+01
1	 1.748091336571816e-01	 1.193516162138193e+00	-4.364497061598072e+01
1	 1.971184561803345e-01	 1.190035031722598e+00	-4.360724747862513e+01
1	 2.194929320016303e-01	 1.186112100643947e+00	-4.345769101324125e+01
1	 0.000000000000000e+00	 1.200000000000000e+00	-3.970611291509263e+01
1	 2.128947838286238e-02	 1.199811134349951e+00	-4.044732960502380e+01
1	 4.272580906522423e-02	 1.199239135968915e+00	-4.110049797820340e+01
1	 6.430013747223520e-02	 1.198276050132250e+00	-4.166270062386208e+01
1	 8.600319969229794e-02	 1.196914136286263e+00	-4.213118970500400e+01
1	 1.078253254889633e-01	 1.195145890333940e+00	-4.250340453322038e+01
1	 1.297564426033903e-01	 1.192964067187918e+00	-4.277698916840038e+01
1	 1.517860823933414e-01	 1.190361703512869e+00	-4.294980993935151e+01
1	 1.739033868500142e-01	 1.187332140574096e+00	-4.301997277525700e+01
1	 1.960971170287527e-01	 1.183869047104039e+00	-4.298584023241398e+01
1	 2.183556629238602e-01	 1.179966442093580e+00	-4.284604809591129e+01
1	 0.000000000000000e+00	 1.193750000000000e+00	-3.926729847966695e+01
1	 2.117859568242872e-02	 1.193562118025237e+00	-3.996568971159822e+01
1	 4.250327880871792e-02	 1.192993098802513e+00	-4.058140797929086e+01
1	 6.396524092159675e-02	 1.192035029038043e+00	-4.111169839363603e+01
1	 8.555526635900951e-02	 1.190680208493520e+00	-4.155396241081438e+01
1	 1.072637352503240e-01	 1.188921172155769e+00	-4.190577421136820e+01
1	 1.290806277963825e-01	 1.186750712672258e+00	-4.216489711092409e+01
1	 1.509955298791281e-01	 1.184161902975033e+00	-4.232929990623687e+01
1	 1.729976400418891e-01	 1.181148119010307e+00	-4.239717305454172e+01
1	 1.950757778761815e-01	 1.177703062485872e+00	-4.236694457905011e+01
1	 2.172183938450900e-01	 1.173820783543699e+00	-4.223729558892725e+01
1	 0.000000000000000e+00	 1.187500000000000e+00	-3.883045128640364e+01
1	 2.106771298181096e-02	 1.187313101700527e+00	-3.948583911529842e+01
1	 4.228074855186088e-02	 1.186747061636128e+00	-4.006398702252023e+01
1	 6.363034437045889e-02	 1.185794007943877e+00	-4.056230407040003e+01
1	 8.510733302509138e-02	 1.184446280700852e+00	-4.097834235499980e+01
1	 1.067021450109435e-01	 1.182696453977716e+00	-4.130981218177597e+01
1	 1.284048129885415e-01	 1.180537358156770e+00	-4.155459727965955e+01
1	 1.502049773640091e-01	 1.177962102437431e+00	-4.171076996493377e+01
1	 1.720918932328061e-01	 1.174964097446825e+00	-4.177660616099346e+01
1	 1.940544387226209e-01	 1.171537077868094e+00	-4.175060017526443e+01
1	 2.160811247653200e-01	 1.167675124994303e+00	-4.163147913034936e+01
1	 2.274538155180211e-01	 1.229131710510101e+00	-4.781648100700672e+01
1	 2.506948622630784e-01	 1.224602825222820e+00	-4.749169462376600e+01
1	 2.739781547138352e-01	 1.219604832505655e+00	-4.707665558224870e+01
1	 2.972905174370217e-01	 1.214132736548835e+00	-4.657128073229167e+01
1	 3.206184450346204e-01	 1.208181998477881e+00	-4.597576296914757e+01
1	 3.439481201691802e-01	 1.201748558104585e+00	-4.529058039479094e+01
1	 3.672654331240673e-01	 1.194828854939411e+00	-4.451650445335113e+01
1	 3.905560028730775e-01	 1.187419848347983e+00	-4.365460694363087e+01
1	 4.138051996241319e-01	 1.179519036734196e+00	-4.270626581575785e+01
1	 4.369981687918833e-01	 1.171124475633273e+00	-4.167316966421822e+01
1	 4.601198563440417e-01	 1.162234794599770e+00	-4.055732083584963e+01
1	 2.263165464472510e-01	 1.222986051956338e+00	-4.718580698893735e+01
1	 2.494413879588832e-01	 1.218479811095237e+00	-4.687408183268232e+01
1	 2.726082639475359e-01	 1.213506808341390e+00	-4.647269842682180e+01
1	 2.958040648571025e-01	 1.208062072864073e+00	-4.598156844980652e+01
1	 3.190153528165536e-01	 1.202141088483180e+00	-4.540087689651675e+01
1	 3.422283795751227e-01	 1.195739815311444e+00	-4.473109114541843e+01
1	 3.654291059647568e-01	 1.188854710661777e+00	-4.397296901012696e+01
1	 3.886032228643806e-01	 1.181482749102975e+00	-4.312756567938236e+01
1	 4.117361736308742e-01	 1.173621441546913e+00	-4.219623945350638e+01
1	 4.348131779518148e-01	 1.165268853251139e+00	-4.118065619055447e+01
1	 4.578192570650724e-01	 1.156423620622435e+00	-4.008279238165457e+01
1	 2.251792773754809e-01	 1.216840393403059e+00	-4.655772896163228e+01
1	 2.481879136536927e-01	 1.212356796968234e+00	-4.625906542124708e+01
1	 2.712383731802553e-01	 1.207408784177791e+00	-4.587134277049302e+01
1	 2.943176122762260e-01	 1.201991409180053e+00	-4.539446758819791e+01
1	 3.174122605975629e-01	 1.196100178489289e+00	-4.482861703111091e+01
1	 3.405086389801848e-01	 1.189731072519171e+00	-4.417424780640469e+01
1	 3.635927788046194e-01	 1.182880566385058e+00	-4.343210413887692e+01
1	 3.866504428549208e-01	 1.175545649858919e+00	-4.260322463792512e+01
1	 4.096671476369273e-01	 1.167723846360609e+00	-4.168894797338351e+01
1	 4.326281871111412e-01	 1.159413230869999e+00	-4.069091727440955e+01
1	 4.555186577855928e-01	 1.150612446646100e+00	-3.961108317182467e+01
1	 2.240420083027108e-01	 1.210694734850266e+00	-4.593228645794878e+01
1	 2.469344393475069e-01	 1.206233782841813e+00	-4.564668492823856e+01
1	 2.698684824119935e-01	 1.201310760014858e+00	-4.527262823000432e+01
1	 2.928311596943922e-01	 1.195920745496777e+00	-4.481001791529973e+01
1	 3.158091683776485e-01	 1.190059268496209e+00	-4.425902336593732e+01
1	 3.387888983843664e-01	 1.183722329727765e+00	-4.362009067080531e+01
1	 3.617564516436552e-01	 1.176906422109254e+00	-4.289395050821459e+01
1	 3.846976628446978e-01	 1.169608550615815e+00	-4.208162493940809e+01
1	 4.075981216422910e-01	 1.161826251175283e+00	-4.118443302334570e+01
1	 4.304431962698629e-01	 1.153557608489854e+00	-4.020399516793405e+01
1	 4.532180585056028e-01	 1.144801272670764e+00	-3.914223613902001e+01
1	 2.229047392289407e-01	 1.204549076297958e+00	-4.530951981753574e+01
1	 2.456809650403258e-01	 1.200110768715971e+00	-4.503698069935011e+01
1	 2.684985916427507e-01	 1.195212735852593e+00	-4.467659523060045e+01
1	 2.913447071116009e-01	 1.189850081814245e+00	-4.422826001053472e+01
1	 3.142060761568102e-01	 1.184018358503939e+00	-4.369213671018674e+01
1	 3.370691577876679e-01	 1.177713586937227e+00	-4.306866085398253e+01
1	 3.599201244818642e-01	 1.170932277834365e+00	-4.235854961672504e+01
1	 3.827448828337114e-01	 1.163671451373663e+00	-4.156280854316661e+01
1	 4.055290956469655e-01	 1.155928655990937e+00	-4.068273710130690e+01
1	 4.282582054279794e-01	 1.147701986110704e+00	-3.971993298556657e+01
1	 4.509174592251026e-01	 1.138990098696429e+00	-3.867629509207840e+01
1	 2.217674701541705e-01	 1.198403417746136e+00	-4.468947020752326e+01
1	 2.444274907321494e-01	 1.193987754590710e+00	-4.442999390787864e+01
1	 2.671287008725267e-01	 1.189114711690994e+00	-4.408328502676306e+01
1	 2.898582545278523e-01	 1.183779418132456e+00	-4.364923528572364e+01
1	 3.126029839350482e-01	 1.177977448512479e+00	-4.312799871016247e+01
1	 3.353494171900889e-01	 1.171704844147557e+00	-4.252000031469122e+01
1	 3.580837973192463e-01	 1.164958133560391e+00	-4.182594381424546e+01
1	 3.807921028219620e-01	 1.157734352132463e+00	-4.104681826923987e+01
1	 4.034600696509508e-01	 1.150031060807568e+00	-4.018390357693353e+01
1	 4.260732145854909e-01	 1.141846363732548e+00	-3.923877472614462e+01
1	 4.486168599440922e-01	 1.133178924723094e+00	-3.821330473847902e+01
1	 2.206302010784005e-01	 1.192257759194798e+00	-4.407217964384751e+01
1	 2.431740164229776e-01	 1.187864740466030e+00	-4.382576657605521e+01
1	 2.657588101013215e-01	 1.183016687530062e+00	-4.349273972358140e+01
1	 2.883718019431462e-01	 1.177708754451411e+00	-4.307298600653944e+01
1	 3.109998917123623e-01	 1.171936538521831e+00	-4.256665187085348e+01
1	 3.336296765916296e-01	 1.165696101358755e+00	-4.197415187681440e+01
1	 3.562474701558015e-01	 1.158983989287332e+00	-4.129617632380674e+01
1	 3.788393228094494e-01	 1.151797252892215e+00	-4.053369782055560e+01
1	 4.013910436542469e-01	 1.144133465625178e+00	-3.968797671411202e+01
1	 4.238882237423974e-01	 1.135990741355387e+00	-3.876056529569783e+01
1	 4.463162606625715e-01	 1.127367750750758e+00	-3.775331070750588e+01
1	 2.194929320016303e-01	 1.186112100643947e+00	-4.345769101324125e+01
1	 2.419205421128105e-01	 1.181741726341931e+00	-4.322434159703724e+01
1	 2.643889193291352e-01	 1.176918663369797e+00	-4.290500229878927e+01
1	 2.868853493574829e-01	 1.171638090771109e+00	-4.249955531462768e+01
1	 3.093967994887526e-01	 1.165895628531993e+00	-4.200813957818171e+01
1	 3.319099359922900e-01	 1.159687358570821e+00	-4.143115925177796e+01
1	 3.544111429915300e-01	 1.153009845015188e+00	-4.076929126425321e+01
1	 3.768865427961737e-01	 1.145860153652918e+00	-4.002349180580060e+01
1	 3.993220176568537e-01	 1.138235870443767e+00	-3.919500169411492e+01
1	 4.217032328986990e-01	 1.130135118979221e+00	-3.828535053095126e+01
1	 4.440156613805405e-01	 1.121556576779423e+00	-3.729635957412734e+01
1	 2.183556629238602e-01	 1.179966442093580e+00	-4.284604809591129e+01
1	 2.406670678016482e-01	 1.175618712218413e+00	-4.262576275759062e+01
1	 2.630190285559676e-01	 1.170820639210199e+00	-4.232011662548929e+01
1	 2.853988967708622e-01	 1.165567427091551e+00	-4.192898725041837e+01
1	 3.077937072642191e-01	 1.159854718542965e+00	-4.145250612194156e+01
1	 3.301901953920701e-01	 1.153678615783754e+00	-4.089106706166144e+01
1	 3.525748158264317e-01	 1.147035700743959e+00	-4.024533367357205e+01
1	 3.749337627821347e-01	 1.139923054414575e+00	-3.951624576300991e+01
1	 3.972529916587711e-01	 1.132338275263334e+00	-3.870502463949075e+01
1	 4.195182420543955e-01	 1.124279496604049e+00	-3.781317722356130e+01
1	 4.417150620979994e-01	 1.115745402809088e+00	-3.684249888362269e+01
1	 2.172183938450900e-01	 1.173820783543699e+00	-4.223729558892725e+01
1	 2.394135934894905e-01	 1.169495698095475e+00	-4.203007476148094e+01
1	 2.616491377818190e-01	 1.164722615051267e+00	-4.173812749559331e+01
1	 2.839124441832840e-01	 1.159496763412736e+00	-4.136132677665310e+01
1	 3.061906150387619e-01	 1.153813808554748e+00	-4.089979671946424e+01
1	 3.284704547909696e-01	 1.147669872997555e+00	-4.035392086303782e+01
1	 3.507384886605066e-01	 1.141061556473645e+00	-3.972434953295384e+01
1	 3.729809827673326e-01	 1.133985955177182e+00	-3.901200618389414e+01
1	 3.951839656599993e-01	 1.126440680083880e+00	-3.821809263870617e+01
1	 4.173332512094871e-01	 1.118423874229871e+00	-3.734409314511470e+01
1	 4.394144628149478e-01	 1.109934228839753e+00	-3.639177717698504e+01
1	 2.160811247653200e-01	 1.167675124994303e+00	-4.163147913034936e+01
1	 2.381601191763375e-01	 1.163372683973118e+00	-4.143732325360584e+01
1	 2.602792470066892e-01	 1.158624590893003e+00	-4.115908064400017e+01
1	 2.824259915947486e-01	 1.153426099734665e+00	-4.079661980265900e+01
1	 3.045875228123808e-01	 1.147772898567342e+00	-4.035005754002283e+01
1	 3.267507141889890e-01	 1.141661130212224e+00	-3.981976717156756e+01
1	 3.489021614937545e-01	 1.135087412204246e+00	-3.920638579161470e+01
1	 3.710282027517673e-01	 1.128048855940742e+00	-3.851082053893702e+01
1	 3.931149396605382e-01	 1.120543084905404e+00	-3.773425377156315e+01
1	 4.151482603639737e-01	 1.112568251856689e+00	-3.687814707291480e+01
1	 4.371138635313860e-01	 1.104123054871417e+00	-3.594424401712216e+01
1	 4.601198563440417e-01	 1.162234794599770e+00	-4.055732083584963e+01
1	 4.831544298995313e-01	 1.152849455929340e+00	-3.916916780948258e+01
1	 5.060870875464741e-01	 1.142968060502044e+00	-3.774297379246660e+01
1	 5.289023415330564e-01	 1.132591047865061e+00	-3.628020371339392e+01
1	 5.515846183814958e-01	 1.121719484882340e+00	-3.478241662170775e+01
1	 5.741182899297941e-01	 1.110355074995073e+00	-3.325126243782417e+01
1	 5.964877052108547e-01	 1.098500165674898e+00	-3.168847823260311e+01
1	 6.186772230483144e-01	 1.086157753992881e+00	-3.009588404648756e+01
1	 6.406712452409474e-01	 1.073331490236403e+00	-2.847537826243838e+01
1	 6.624542502007474e-01	 1.060025679515921e+00	-2.682893255055675e+01
1	 6.840108269038967e-01	 1.046245281314146e+00	-2.515858640600861e+01
1	 4.578192570650724e-01	 1.156423620622435e+00	-4.008279238165457e+01
1	 4.807386577516702e-01	 1.147085208645060e+00	-3.871982855423953e+01
1	 5.035566521094866e-01	 1.137253220194760e+00	-3.731774873108684e+01
1	 5.262578298254695e-01	 1.126928092620980e+00	-3.587801123670291e+01
1	 5.488266952892290e-01	 1.116110887453351e+00	-3.440217237341981e+01
1	 5.712476984795791e-01	 1.104803299615860e+00	-3.289188324633756e+01
1	 5.935052666842613e-01	 1.093007664842790e+00	-3.134888609855027e+01
1	 6.155838369327962e-01	 1.080726965219851e+00	-2.977501016611384e+01
1	 6.374678890149658e-01	 1.067964832782988e+00	-2.817216706614303e+01
1	 6.591419789507058e-01	 1.054725551117109e+00	-2.654234573536489e+01
1	 6.805907727713191e-01	 1.041014054907509e+00	-2.488760694032184e+01
1	 4.555186577855928e-01	 1.150612446646100e+00	-3.961108317182467e+01
1	 4.783228856033893e-01	 1.141320961361770e+00	-3.827321059373390e+01
1	 5.010262166721503e-01	 1.131538379888436e+00	-3.689513593398154e+01
1	 5.236133181175860e-01	 1.121265137377812e+00	-3.547831098436654e+01
1	 5.460687721966976e-01	 1.110502290025206e+00	-3.402428940018689e+01
1	 5.683771070291120e-01	 1.099251524237403e+00	-3.253472360026736e+01
1	 5.905228281574083e-01	 1.087515164011329e+00	-3.101136115807770e+01
1	 6.124904508169904e-01	 1.075296176447340e+00	-2.945604069252326e+01
1	 6.342645327886484e-01	 1.062598175329944e+00	-2.787068727107125e+01
1	 6.558297077002593e-01	 1.049425422718497e+00	-2.625730734195145e+01
1	 6.771707186382465e-01	 1.035782828500883e+00	-2.461798321621971e+01
1	 4.532180585056028e-01	 1.144801272670764e+00	-3.914223613902001e+01
1	 4.759071134546886e-01	 1.135556714079470e+00	-3.782935536900704e+01
1	 4.984957812344656e-01	 1.125823539583075e+00	-3.647517518182931e+01
1	 5.209688064094061e-01	 1.115602182135556e+00	-3.508114090904363e+01
1	 5.433108491039020e-01	 1.104893692597905e+00	-3.364880366051565e+01
1	 5.655065155783932e-01	 1.093699748859703e+00	-3.217981729980136e+01
1	 5.875403896302953e-01	 1.082022663180516e+00	-3.067593489129317e+01
1	 6.093970647008966e-01	 1.069865387675347e+00	-2.913900462683703e+01
1	 6.310611765619947e-01	 1.057231517877269e+00	-2.757096524374100e+01
1	 6.525174364494077e-01	 1.044125294320085e+00	-2.597384095034534e+01
1	 6.737506645046790e-01	 1.030551602094266e+00	-2.434973587951360e+01
1	 4.509174592251026e-01	 1.138990098696429e+00	-3.867629509207839e+01
1	 4.734913413055680e-01	 1.129792466798161e+00	-3.738830516683598e+01
1	 4.959653457964325e-01	 1.120108699278675e+00	-3.605790706715965e+01
1	 5.183242947009294e-01	 1.109939226894212e+00	-3.468653973793796e+01
1	 5.405529260108423e-01	 1.099285095171448e+00	-3.327575184676022e+01
1	 5.626359241274222e-01	 1.088147973482758e+00	-3.182719883492590e+01
1	 5.845579511029227e-01	 1.076530162350350e+00	-3.034263942075630e+01
1	 6.063036785845153e-01	 1.064434598903873e+00	-2.882393156203516e+01
1	 6.278578203350048e-01	 1.051864860424964e+00	-2.727302788876249e+01
1	 6.492051651981509e-01	 1.038825165921874e+00	-2.569197062180010e+01
1	 6.703306103706171e-01	 1.025320375687661e+00	-2.408288599735868e+01
1	 4.486168599440922e-01	 1.133178924723094e+00	-3.821330473847902e+01
1	 4.710755691560277e-01	 1.124028219517842e+00	-3.695010314141859e+01
1	 4.934349103580510e-01	 1.114393858975236e+00	-3.564337301516893e+01
1	 5.156797829921563e-01	 1.104276271653782e+00	-3.429454699265652e+01
1	 5.377950029175181e-01	 1.093676497745836e+00	-3.290517140393853e+01
1	 5.597653326761995e-01	 1.082596198106569e+00	-3.147690340311534e+01
1	 5.815755125752905e-01	 1.071037661520831e+00	-3.001150752795028e+01
1	 6.032102924678462e-01	 1.059003810132918e+00	-2.851085169813392e+01
1	 6.246544641076789e-01	 1.046498202973029e+00	-2.697690266263514e+01
1	 6.458928939464893e-01	 1.033525037523864e+00	-2.541172091113308e+01
1	 6.669105562360605e-01	 1.020089149281067e+00	-2.381745506905649e+01
1	 4.463162606625715e-01	 1.127367750750758e+00	-3.775331070750588e+01
1	 4.686597970060677e-01	 1.118263972238514e+00	-3.651479333672997e+01
1	 4.909044749193210e-01	 1.108679018672758e+00	-3.523161530518126e+01
1	 5.130352712830866e-01	 1.098613316414264e+00	-3.390520300968523e+01
1	 5.350370798239297e-01	 1.088067900321069e+00	-3.253710054913034e+01
1	 5.568947412247246e-01	 1.077044422731136e+00	-3.112896692756452e+01
1	 5.785930740473987e-01	 1.065545160691960e+00	-2.968257267026561e+01
1	 6.001169063508894e-01	 1.053573021362481e+00	-2.819979585782965e+01
1	 6.214511078800168e-01	 1.041131545521463e+00	-2.668261758797193e+01
1	 6.425806226944223e-01	 1.028224909126053e+00	-2.513311687944707e+01
1	 6.634905021010091e-01	 1.014857922874483e+00	-2.355346503719340e+01
1	 4.440156613805405e-01	 1.121556576779423e+00	-3.729635957412734e+01
1	 4.662440248556878e-01	 1.112499724960176e+00	-3.608242070957417e+01
1	 4.883740394802423e-01	 1.102964178371242e+00	-3.482267709277599e+01
1	 5.103907595737204e-01	 1.092950361175659e+00	-3.351854896149936e+01
1	 5.322791567300769e-01	 1.082459302897145e+00	-3.217157829147942e+01
1	 5.540241497729977e-01	 1.071492647356459e+00	-3.078342607599019e+01
1	 5.756106355192470e-01	 1.060052659863737e+00	-2.935586899850998e+01
1	 5.970235202336451e-01	 1.048142232592564e+00	-2.789079550263159e+01
1	 6.182477516520190e-01	 1.035764888070267e+00	-2.639020126816559e+01
1	 6.392683514419505e-01	 1.022924780728443e+00	-2.485618410724567e+01
1	 6.600704479654631e-01	 1.009626696467909e+00	-2.329093829912413e+01
1	 4.417150620979994e-01	 1.115745402809088e+00	-3.684249888362269e+01
1	 4.638282527048880e-01	 1.106735477682828e+00	-3.565303115335414e+01
1	 4.858436040408153e-01	 1.097249338070687e+00	-3.441660243260757e+01
1	 5.077462478640574e-01	 1.087287405937967e+00	-3.313462687833369e+01
1	 5.295212336359597e-01	 1.076850705474066e+00	-3.180864445281983e+01
1	 5.511535583210191e-01	 1.065940871982537e+00	-3.044031828002054e+01
1	 5.726281969908357e-01	 1.054560159036161e+00	-2.903143137496610e+01
1	 5.939301341161132e-01	 1.042711443823165e+00	-2.758388274949662e+01
1	 6.150443954236847e-01	 1.030398230619441e+00	-2.609968290251239e+01
1	 6.359560801890737e-01	 1.017624652331033e+00	-2.458094870796014e+01
1	 6.566503938294224e-01	 1.004395470061346e+00	-2.302989771881509e+01
1	 4.394144628149478e-01	 1.109934228839753e+00	-3.639177717698504e+01
1	 4.614124805536686e-01	 1.100971230406471e+00	-3.522667152259222e+01
1	 4.833131686010398e-01	 1.091534497771093e+00	-3.401343630194004e+01
1	 5.051017361540979e-01	 1.081624450701187e+00	-3.275347967063763e+01
1	 5.267633105415782e-01	 1.071242108051831e+00	-3.144833968895094e+01
1	 5.482829668687883e-01	 1.060389096609372e+00	-3.009968175519166e+01
1	 5.696457584621647e-01	 1.049067658209232e+00	-2.870929539201747e+01
1	 5.908367479982933e-01	 1.037280655054285e+00	-2.727909038798848e+01
1	 6.118410391950143e-01	 1.025031573168985e+00	-2.581109230181232e+01
1	 6.326438089357916e-01	 1.012324523933824e+00	-2.430743734189868e+01
1	 6.532303396928869e-01	 9.991642436547944e-01	-2.277036663905932e+01
1	 4.371138635313860e-01	 1.104123054871417e+00	-3.594424401712216e+01
1	 4.589967084020292e-01	 1.095206983131104e+00	-3.480338965822147e+01
1	 4.807827331609159e-01	 1.085819657472461e+00	-3.361322462492840e+01
1	 5.024572244438421e-01	 1.075961495465320e+00	-3.237515115223851e+01
1	 5.240053874469326e-01	 1.065633510630440e+00	-3.109070551158363e+01
1	 5.454123754163056e-01	 1.054837321236962e+00	-2.976155552157735e+01
1	 5.666633199332340e-01	 1.043575157382950e+00	-2.838949739136016e+01
1	 5.877433618801858e-01	 1.031849866285923e+00	-2.697645189797728e+01
1	 6.086376829660081e-01	 1.019664915718898e+00	-2.552445990446132e+01
1	 6.293315376821046e-01	 1.007024395536815e+00	-2.403567723064010e+01
1	 6.498102855558567e-01	 9.939330172482528e-01	-2.251236889407686e+01
1	 6.840108269038967e-01	 1.046245281314146e+00	-2.515858640600860e+01
1	 7.053262413433549e-01	 1.031995554896528e+00	-2.340104429892427e+01
1	 7.263848458755340e-01	 1.017283120829013e+00	-2.164965829498286e+01
1	 7.471717649395143e-01	 1.002114878407355e+00	-1.990625511716014e+01
1	 7.676723695398933e-01	 9.864983583796046e-01	-1.817260422686519e+01
1	 7.878723105152556e-01	 9.704417119031085e-01	-1.645041178733300e+01
1	 8.077575512071082e-01	 9.539536974097551e-01	-1.474131495718404e+01
1	 8.273143993764429e-01	 9.370436654181670e-01	-1.304687655207331e+01
1	 8.465295382180290e-01	 9.197215413442693e-01	-1.136858010949234e+01
1	 8.653900563266779e-01	 9.019978063741249e-01	-9.707825388532731e+00
1	 8.838834764750000e-01	 8.838834764750000e-01	-8.065924332853152e+00
1	 6.805907727713191e-01	 1.041014054907509e+00	-2.488760694032184e+01
1	 7.017996101396206e-01	 1.026835577123176e+00	-2.314619124666753e+01
1	 7.227529216500603e-01	 1.012196705227085e+00	-2.140940506170120e+01
1	 7.434359061195223e-01	 9.971043040185121e-01	-1.967909869099309e+01
1	 7.638340076975796e-01	 9.815658665917666e-01	-1.795707127540103e+01
1	 7.839329489686228e-01	 9.655895033484068e-01	-1.624506467509926e+01
1	 8.037187634574506e-01	 9.491839289281612e-01	-1.454475765045534e+01
1	 8.231778273862496e-01	 9.323584470970583e-01	-1.285776037808646e+01
1	 8.422968905338145e-01	 9.151229336439426e-01	-1.118560933783934e+01
1	 8.610631060519820e-01	 8.974878173489468e-01	-9.529762603476451e+00
1	 8.794640590995001e-01	 8.794640590995001e-01	-7.891595566537953e+00
1	 6.771707186382465e-01	 1.035782828500883e+00	-2.461798321621971e+01
1	 6.982729789352964e-01	 1.021675599349643e+00	-2.289253087282876e+01
1	 7.191209974239117e-01	 1.007110289624806e+00	-2.117016673469860e+01
1	 7.397000472987793e-01	 9.920937296291676e-01	-1.945276494951051e+01
1	 7.599956458544489e-01	 9.766333748032953e-01	-1.774215463617632e+01
1	 7.799935874211171e-01	 9.607372947929601e-01	-1.604011368880471e+01
1	 7.996799757068750e-01	 9.444141604457306e-01	-1.434836284400481e+01
1	 8.190412553951019e-01	 9.276732287750410e-01	-1.266856005026869e+01
1	 8.380642428486201e-01	 9.105243259426563e-01	-1.100229517586939e+01
1	 8.567361557762914e-01	 8.929778283227787e-01	-9.351085089025045e+00
1	 8.750446417229998e-01	 8.750446417229998e-01	-7.716369141050518e+00
1	 6.737506645046790e-01	 1.030551602094266e+00	-2.434973587951359e+01
1	 6.947463477303824e-01	 1.016515621575930e+00	-2.264008134002423e+01
1	 7.154890731970874e-01	 1.002023874022176e+00	-2.093195876940099e+01
1	 7.359641884772852e-01	 9.870831552393209e-01	-1.922726642090522e+01
1	 7.561572840105013e-01	 9.717008830141900e-01	-1.752786369465635e+01
1	 7.760542258727390e-01	 9.558850862367680e-01	-1.583556486082373e+01
1	 7.956411879553805e-01	 9.396443919624630e-01	-1.415213301245530e+01
1	 8.149046834030006e-01	 9.229880104521159e-01	-1.247927428708952e+01
1	 8.338315951624465e-01	 9.059257182404116e-01	-1.081863239428758e+01
1	 8.524092054996059e-01	 8.884678392956206e-01	-9.171783483816808e+00
1	 8.706252243454998e-01	 8.706252243454998e-01	-7.540231386453769e+00
1	 6.703306103706171e-01	 1.025320375687661e+00	-2.408288599735868e+01
1	 6.912197165248781e-01	 1.011355643802038e+00	-2.238886118153556e+01
1	 7.118571489695878e-01	 9.969374584191958e-01	-2.069479693665079e+01
1	 7.322283296550401e-01	 9.820725808489720e-01	-1.900261588904805e+01
1	 7.523189221657371e-01	 9.667683912244512e-01	-1.731420802784634e+01
1	 7.721148643234882e-01	 9.510328776798306e-01	-1.563142434664025e+01
1	 7.916024002029675e-01	 9.348746234783584e-01	-1.395607068093265e+01
1	 8.107681114099452e-01	 9.183027921282827e-01	-1.228990178086423e+01
1	 8.295989474752932e-01	 9.013271105372073e-01	-1.063461565707934e+01
1	 8.480822552219253e-01	 8.839578502674732e-01	-8.991848235441696e+00
1	 8.662058069670000e-01	 8.662058069670000e-01	-7.363168353832356e+00
1	 6.669105562360605e-01	 1.020089149281067e+00	-2.381745506905649e+01
1	 6.876930853187844e-01	 1.006195666027966e+00	-2.213888931081453e+01
1	 7.082252247414128e-01	 9.918510428158644e-01	-2.045869733079531e+01
1	 7.284924708320439e-01	 9.770620064581208e-01	-1.877882640004265e+01
1	 7.484805603201561e-01	 9.618358994340785e-01	-1.710119740920335e+01
1	 7.681755027733649e-01	 9.461806691221479e-01	-1.542769842800506e+01
1	 7.875636124496365e-01	 9.301048549934172e-01	-1.376017842635986e+01
1	 8.066315394159354e-01	 9.136175738035410e-01	-1.210044119708419e+01
1	 8.253662997871601e-01	 8.967285028330435e-01	-1.045023951877306e+01
1	 8.437553049432500e-01	 8.794478612383355e-01	-8.811269595542914e+00
1	 8.617863895875001e-01	 8.617863895875000e-01	-7.185165808139612e+00
1	 6.634905021010091e-01	 1.014857922874483e+00	-2.355346503719340e+01
1	 6.841664541121005e-01	 1.001035688253714e+00	-2.189018503128043e+01
1	 7.045933005125624e-01	 9.867646272121829e-01	-2.022367637802379e+01
1	 7.247566120082969e-01	 9.720514320667675e-01	-1.855591126898456e+01
1	 7.446421984737579e-01	 9.569034076430718e-01	-1.688884181369898e+01
1	 7.642361412223687e-01	 9.413284605637197e-01	-1.522439351618874e+01
1	 7.835248246953868e-01	 9.253350865076391e-01	-1.356445887879265e+01
1	 8.024949674209717e-01	 9.089323554778913e-01	-1.191089117372480e+01
1	 8.211336520980479e-01	 8.921298951279213e-01	-1.026549842161934e+01
1	 8.394283546635797e-01	 8.749378722082086e-01	-8.630037614766781e+00
1	 8.573669722070002e-01	 8.573669722070002e-01	-7.006209220822349e+00
1	 6.600704479654631e-01	 1.009626696467909e+00	-2.329093829912414e+01
1	 6.806398229048269e-01	 9.958757104792826e-01	-2.164276804642380e+01
1	 7.009613762830367e-01	 9.816782116081503e-01	-1.998975084496453e+01
1	 7.210207531837984e-01	 9.670408576749120e-01	-1.833388408692997e+01
1	 7.408038366265429e-01	 9.519709158514321e-01	-1.667715142303958e+01
1	 7.602967796704998e-01	 9.364762520045463e-01	-1.502151615533883e+01
1	 7.794860369402190e-01	 9.205653180210241e-01	-1.336891472279523e+01
1	 7.983583954250538e-01	 9.042471371513334e-01	-1.172125032053325e+01
1	 8.169010044079559e-01	 8.875312874218396e-01	-1.008038669268235e+01
1	 8.351014043829147e-01	 8.704278831770915e-01	-8.448142137555143e+00
1	 8.529475548254998e-01	 8.529475548254998e-01	-6.826283762217771e+00
1	 6.566503938294224e-01	 1.004395470061346e+00	-2.302989771881509e+01
1	 6.771131916969634e-01	 9.907157327046716e-01	-2.139665847022456e+01
1	 6.973294520528356e-01	 9.765917960037669e-01	-1.975693784755084e+01
1	 7.172848943585489e-01	 9.620302832825546e-01	-1.811275872808211e+01
1	 7.369654747785114e-01	 9.470384240591586e-01	-1.646613663105083e+01
1	 7.563574181177584e-01	 9.316240434446275e-01	-1.481907302593855e+01
1	 7.754472491841323e-01	 9.157955495335722e-01	-1.317354869886077e+01
1	 7.942218234281823e-01	 8.995619188238674e-01	-1.153151721829289e+01
1	 8.126683567168840e-01	 8.829326797147986e-01	-9.894898540840126e+00
1	 8.307744541012546e-01	 8.659178941449848e-01	-8.265572796775757e+00
1	 8.485281374429998e-01	 8.485281374429998e-01	-6.645374293711587e+00
1	 6.532303396928869e-01	 9.991642436547944e-01	-2.277036663905931e+01
1	 6.735865604885101e-01	 9.855557549298805e-01	-2.115187683789756e+01
1	 6.936975278219594e-01	 9.715053803990330e-01	-1.952525486016475e+01
1	 7.135490355325487e-01	 9.570197088896951e-01	-1.789254935720322e+01
1	 7.331271129296626e-01	 9.421059322662509e-01	-1.625580804922997e+01
1	 7.524180565641442e-01	 9.267718348839636e-01	-1.461707094837722e+01
1	 7.714084614271275e-01	 9.110257810452839e-01	-1.297836360487456e+01
1	 7.900852514303561e-01	 8.948767004954933e-01	-1.134169041806556e+01
1	 8.084357090248329e-01	 8.783340720067985e-01	-9.709028053690421e+00
1	 8.264475038185999e-01	 8.614079051118883e-01	-8.082319008183909e+00
1	 8.441087200595001e-01	 8.441087200595001e-01	-6.463465359650520e+00
1	 6.498102855558567e-01	 9.939330172482528e-01	-2.251236889407685e+01
1	 6.700599292794668e-01	 9.803957771549096e-01	-2.090844411697800e+01
1	 6.900656035904075e-01	 9.664189647939483e-01	-1.929471972507008e+01
1	 7.098131767057972e-01	 9.520091344963337e-01	-1.767327043726128e+01
1	 7.292887510799975e-01	 9.371734404727102e-01	-1.604617651247380e+01
1	 7.484786950096572e-01	 9.219196263225543e-01	-1.441551688663058e+01
1	 7.673696736692042e-01	 9.062560125561581e-01	-1.278336229762504e+01
1	 7.859486794315763e-01	 8.901914821662110e-01	-1.115176844040876e+01
1	 8.042030613318019e-01	 8.737354642978392e-01	-9.522769194360084e+00
1	 8.221205535349499e-01	 8.568979160778017e-01	-7.898369964708437e+00
1	 8.396893026750000e-01	 8.396893026750000e-01	-6.280541178999193e+00
1	 8.838834764750000e-01	 8.838834764750000e-01	-8.065924332853152e+00
1	 9.019977971594892e-01	 8.653900703675111e-01	-6.556182843139231e+00
1	 9.197215045943362e-01	 8.465295942603414e-01	-5.046615577028990e+00
1	 9.370435829877605e-01	 8.273145251682116e-01	-3.539480927831304e+00
1	 9.539535513453987e-01	 8.077577742428447e-01	-2.037022400080289e+00
1	 9.704414844585152e-01	 7.878726579962209e-01	-5.414611378659924e-01
1	 9.864980320304251e-01	 7.676728683354713e-01	 9.450114020948629e-01
1	 1.002114435865165e+00	 7.471724415498722e-01	 2.420240588882522e+00
1	 1.017282545054521e+00	 7.263857263956881e-01	 3.882115525368357e+00
1	 1.031994829112001e+00	 7.053273514287612e-01	 5.328575686072007e+00
1	 1.046244389015035e+00	 6.840121917376668e-01	 6.757617247759530e+00
1	 8.794640590995001e-01	 8.794640590995001e-01	-7.891595566537953e+00
1	 8.974878081803844e-01	 8.610631200226114e-01	-6.380735932442325e+00
1	 9.151228970777588e-01	 8.422969462959151e-01	-4.870479698192909e+00
1	 9.323583650788039e-01	 8.231779525490595e-01	-3.363117171264110e+00
1	 9.491837835941266e-01	 8.037189853780082e-01	-1.860921954275747e+00
1	 9.655892770410365e-01	 7.839332947121832e-01	-3.661433513392101e-01
1	 9.815655418743333e-01	 7.638345039991798e-01	 1.119001069997021e+00
1	 9.971038636890331e-01	 7.434365793468282e-01	 2.592332716759563e+00
1	 1.012196132331465e+00	 7.227537977676139e-01	 4.051718966015441e+00
1	 1.026834854967570e+00	 7.018007146745998e-01	 5.495079877612327e+00
1	 1.041013167069893e+00	 6.805921307809203e-01	 6.920394586709159e+00
1	 8.750446417229998e-01	 8.750446417229998e-01	-7.716369141050518e+00
1	 8.929778192002894e-01	 8.567361696767164e-01	-6.204235933621709e+00
1	 9.105242895602228e-01	 8.380642983305095e-01	-4.693139718909259e+00
1	 9.276731471689389e-01	 8.190413799289532e-01	-3.185403005414258e+00
1	 9.444140158420176e-01	 7.996801965122540e-01	-1.683329768050891e+00
1	 9.607370696228129e-01	 7.799939314272728e-01	-1.891977315706563e-01
1	 9.766330517176076e-01	 7.599961396620711e-01	 1.294749179486047e+00
1	 9.920932915123990e-01	 7.397007171430334e-01	 2.766308179184318e+00
1	 1.007109719608059e+00	 7.191218691388641e-01	 4.223324703845778e+00
1	 1.021674880822960e+00	 6.982740779198486e-01	 5.663699200304534e+00
1	 1.035781945124762e+00	 6.771720698236788e-01	 7.085393580915939e+00
1	 8.706252243454998e-01	 8.706252243454998e-01	-7.540231386453769e+00
1	 8.884678302192048e-01	 8.524092193298271e-01	-6.026666809802433e+00
1	 9.059256820417275e-01	 8.338316503641242e-01	-4.514577302623018e+00
1	 9.229879292581658e-01	 8.149048073078929e-01	-3.006317865673494e+00
1	 9.396442480890720e-01	 7.956414076455809e-01	-1.504223124547034e+00
1	 9.558848622038437e-01	 7.760545681414899e-01	-1.059948922252407e-02
1	 9.717005615602481e-01	 7.561577753241460e-01	 1.472282508859195e+00
1	 9.870827193352635e-01	 7.359648549384878e-01	 2.942195656377216e+00
1	 1.002023306884302e+00	 7.154899405094390e-01	 4.396963230693460e+00
1	 1.016514906678170e+00	 6.947474411645076e-01	 5.834465864266106e+00
1	 1.030550723179642e+00	 6.737520088659427e-01	 7.252648062692137e+00
1	 8.662058069670000e-01	 8.662058069670000e-01	-7.363168353832356e+00
1	 8.839578412371304e-01	 8.480822689819422e-01	-5.848012196826177e+00
1	 9.013270745222728e-01	 8.295990023967591e-01	-4.334773738563900e+00
1	 9.183027113464843e-01	 8.107682346858788e-01	-2.825840767748176e+00
1	 9.348744803352895e-01	 7.916026187779897e-01	-1.323578843296326e+00
1	 9.510326547841290e-01	 7.721152048548340e-01	 1.696766709480166e-01
1	 9.667680714022552e-01	 7.523194109854037e-01	 1.651628382909742e+00
1	 9.820721471576256e-01	 7.322289927331908e-01	 3.120024413869217e+00
1	 9.969368941601937e-01	 7.118580118793387e-01	 4.572665660674723e+00
1	 1.011354932533201e+00	 6.912208044085766e-01	 6.007412736964276e+00
1	 1.025319501234532e+00	 6.703319479077119e-01	 7.422192554805420e+00
1	 8.617863895875001e-01	 8.617863895875000e-01	-7.185165808139612e+00
1	 8.794478522540662e-01	 8.437553186330626e-01	-5.668255394859595e+00
1	 8.967284670018590e-01	 8.253663544284147e-01	-4.153709932151092e+00
1	 9.136174934338946e-01	 8.066316620629100e-01	-2.643950296897240e+00
1	 9.301047125806700e-01	 7.875638299094794e-01	-1.141373268333984e+00
1	 9.461804473636692e-01	 7.681758415673059e-01	 3.516565630604946e-01
1	 9.618355812436286e-01	 7.484810466458449e-01	 1.832814686939244e+00
1	 9.770615749794854e-01	 7.284931305271430e-01	 3.299824317509914e+00
1	 9.918504814357351e-01	 7.082260832485631e-01	 4.750463746144379e+00
1	 1.006194958388051e+00	 6.876941676520558e-01	 6.182573360070648e+00
1	 1.020088279289433e+00	 6.669118869489865e-01	 7.594062288182508e+00
1	 8.573669722070002e-01	 8.573669722070002e-01	-7.006209220822349e+00
1	 8.749378632700120e-01	 8.394283682831882e-01	-5.487379359743064e+00
1	 8.921298594804862e-01	 8.211337064590908e-01	-3.971366395100833e+00
1	 9.089322755203972e-01	 8.024950894389876e-01	-2.460624596838805e+00
1	 9.253349448252136e-01	 7.835250410400513e-01	-9.575822559435527e-01
1	 9.413282399424645e-01	 7.642364782789050e-01	 5.353665334841976e-01
1	 9.569030910843680e-01	 7.446426823054687e-01	 2.015869881204105e+00
1	 9.720510028008429e-01	 7.247572683203439e-01	 3.481625848939728e+00
1	 9.867640687109258e-01	 7.045941546171121e-01	 4.930389894144626e+00
1	 1.001034984242722e+00	 6.841675308949450e-01	 6.359981966837467e+00
1	 1.014857057344345e+00	 6.634918259897664e-01	 7.768293220161313e+00
1	 8.529475548254998e-01	 8.529475548254998e-01	-6.826283762217771e+00
1	 8.704278742849683e-01	 8.351014179323188e-01	-5.305366694070002e+00
1	 8.875312519581540e-01	 8.169010584887870e-01	-3.787723235227081e+00
1	 9.042470576059913e-01	 7.983585168141109e-01	-2.275841358311105e+00
1	 9.205651770689205e-01	 7.794862521697046e-01	-7.721811620204482e-01
1	 9.364760325205138e-01	 7.602971149896313e-01	 7.208334746274040e-01
1	 9.519706009244741e-01	 7.408043179642760e-01	 2.200823015810745e+00
1	 9.670404306216988e-01	 7.210214061127940e-01	 3.665460121542717e+00
1	 9.816776559857657e-01	 7.009622259849856e-01	 5.112477183366479e+00
1	 9.958750100972134e-01	 6.806408941372443e-01	 6.539673500014720e+00
1	 1.009625835399267e+00	 6.600717650300513e-01	 7.944922053309318e+00
1	 8.485281374429998e-01	 8.485281374429998e-01	-6.645374293711587e+00
1	 8.659178852989348e-01	 8.307744675804549e-01	-5.122199637987610e+00
1	 8.829326444348627e-01	 8.126684105175039e-01	-3.602760145923545e+00
1	 8.995618396906774e-01	 7.942219441882802e-01	-2.089577807275767e+00
1	 9.157954093117905e-01	 7.754474632984393e-01	-5.851448290415158e-01
1	 9.316238250978180e-01	 7.563577516994849e-01	 9.080848391567273e-01
1	 9.470381107639465e-01	 7.369659536222665e-01	 2.387703746075838e+00
1	 9.620298584420524e-01	 7.172855439044928e-01	 3.851358896898557e+00
1	 9.765912432602548e-01	 6.973302973521840e-01	 5.296759381639994e+00
1	 9.907150359515247e-01	 6.771142573789538e-01	 6.721683630325949e+00
1	 1.004394613454200e+00	 6.566517040698419e-01	 8.123986254830868e+00
1	 8.441087200595001e-01	 8.441087200595001e-01	-6.463465359650520e+00
1	 8.614078963119114e-01	 8.264475172275957e-01	-4.937860059709611e+00
1	 8.783340369106124e-01	 8.084357625452410e-01	-3.416456395314595e+00
1	 8.948766217744551e-01	 7.900853715614954e-01	-1.901810692751394e+00
1	 9.110256415538236e-01	 7.714086744262556e-01	-3.964475726240477e-01
1	 9.267716176743771e-01	 7.524183884084661e-01	 1.097148654663639e+00
1	 9.421056206027848e-01	 7.331275892794401e-01	 2.576542348369830e+00
1	 9.570192862619037e-01	 7.135496816954406e-01	 4.039354601750683e+00
1	 9.715048305343934e-01	 6.936983687187066e-01	 5.483270963975398e+00
1	 9.855550618056563e-01	 6.735876206200734e-01	 6.906048775525990e+00
1	 9.991633915091431e-01	 6.532316431091375e-01	 8.305524076583726e+00
1	 8.396893026750000e-01	 8.396893026750000e-01	-6.280541178999193e+00
1	 8.568979073238981e-01	 8.221205668737417e-01	-4.752329445727335e+00
1	 8.737354293854029e-01	 8.042031145719987e-01	-3.228790815063787e+00
1	 8.901914038573249e-01	 7.859487989337566e-01	-1.712516274262456e+00
1	 9.062558737950196e-01	 7.673698855531539e-01	-2.060631676621949e-01
1	 9.219194102501908e-01	 7.484790251165743e-01	 1.288053538794352e+00
1	 9.371731304409896e-01	 7.292892249357967e-01	 2.767369736460724e+00
1	 9.520087140812531e-01	 7.098138194856374e-01	 4.229480345511167e+00
1	 9.664184178081811e-01	 6.900664400845540e-01	 5.672047131172132e+00
1	 9.803950876596084e-01	 6.700609838606032e-01	 7.092806120058954e+00
1	 9.939321695640972e-01	 6.498115821479387e-01	 8.489574575728049e+00
1	 1.046244389015035e+00	 6.840121917376668e-01	 6.757617247759530e+00
1	 1.060024966129340e+00	 6.624553352318256e-01	 7.684437484923169e+00
1	 1.073330949003193e+00	 6.406720486401845e-01	 8.569586478358900e+00
1	 1.086157378030861e+00	 6.186777433746945e-01	 9.412016609972145e+00
1	 1.098499947997111e+00	 5.964879414108070e-01	 1.021080143362118e+01
1	 1.110355008528024e+00	 5.741182413352696e-01	 1.096513681692028e+01
1	 1.121719562484135e+00	 5.515842847068427e-01	 1.167434148960711e+01
1	 1.132591262343367e+00	 5.289017228707272e-01	 1.233785700891840e+01
1	 1.142968404631800e+00	 5.060861843616079e-01	 1.295524715663501e+01
1	 1.152849922470135e+00	 4.831532430234601e-01	 1.352619678639892e+01
1	 1.162235376312831e+00	 4.601183869667742e-01	 1.405051014354723e+01
1	 1.041013167069893e+00	 6.805921307809203e-01	 6.920394586709158e+00
1	 1.054724841297460e+00	 6.591430585566287e-01	 7.842112109331415e+00
1	 1.067964294255944e+00	 6.374686883972068e-01	 8.721998705476182e+00
1	 1.080726591137641e+00	 6.155843546575444e-01	 9.558991787711131e+00
1	 1.093007448253392e+00	 5.935055017032135e-01	 1.035215052500333e+01
1	 1.104803233481147e+00	 5.712476501280273e-01	 1.110065704427089e+01
1	 1.116110964667137e+00	 5.488263632829492e-01	 1.180381703412201e+01
1	 1.126928306026895e+00	 5.262572142564522e-01	 1.246105976094456e+01
1	 1.137253562603866e+00	 5.035557534405446e-01	 1.307193751176548e+01
1	 1.147085672853151e+00	 4.807374768099794e-01	 1.363612448229106e+01
1	 1.156424199426930e+00	 4.578177950346912e-01	 1.415341513222745e+01
1	 1.035781945124762e+00	 6.771720698236788e-01	 7.085393580915939e+00
1	 1.049424716465781e+00	 6.558307818810271e-01	 8.002105141940582e+00
1	 1.062597639509066e+00	 6.342653281538929e-01	 8.876824469993045e+00
1	 1.075295804244939e+00	 6.124909659401064e-01	 9.708473841454197e+00
1	 1.087514948510320e+00	 5.905230619953608e-01	 1.049609788000790e+01
1	 1.099251458435025e+00	 5.683770589205327e-01	 1.123886481840014e+01
1	 1.110502366850982e+00	 5.460684418587913e-01	 1.193606715797012e+01
1	 1.121265349711334e+00	 5.236127056418804e-01	 1.258712173582908e+01
1	 1.131538720576895e+00	 5.010253225191328e-01	 1.319156921386672e+01
1	 1.141321423237157e+00	 4.783217105960789e-01	 1.374907300780235e+01
1	 1.150613022542030e+00	 4.555172031020981e-01	 1.425941767823423e+01
1	 1.030550723179642e+00	 6.737520088659427e-01	 7.252648062692135e+00
1	 1.044124591634303e+00	 6.525185052050199e-01	 8.164451888458377e+00
1	 1.057230984762557e+00	 6.310619679102434e-01	 9.034100526285318e+00
1	 1.069865017352757e+00	 6.093975772223809e-01	 9.860500946977405e+00
1	 1.082022448767896e+00	 5.875406222872482e-01	 1.064268306610039e+01
1	 1.093699683389660e+00	 5.655064677127865e-01	 1.137980106641568e+01
1	 1.104893769035673e+00	 5.433105204343691e-01	 1.207113411362809e+01
1	 1.115602393396687e+00	 5.209681970270120e-01	 1.271608647503637e+01
1	 1.125823878550884e+00	 4.984948915973725e-01	 1.331418705502403e+01
1	 1.135557173622154e+00	 4.759059443817586e-01	 1.386508836541371e+01
1	 1.144801845658129e+00	 4.532166111689945e-01	 1.436856495249072e+01
1	 1.025319501234532e+00	 6.703319479077119e-01	 7.422192554805418e+00
1	 1.038824466803024e+00	 6.492062285286078e-01	 8.329188375116841e+00
1	 1.051864330016418e+00	 6.278586076662572e-01	 9.193864378817882e+00
1	 1.064434230461094e+00	 6.063041885043678e-01	 1.001511205915391e+01
1	 1.076529949026119e+00	 5.845581825788758e-01	 1.079194645824571e+01
1	 1.088147908345050e+00	 5.626358765047883e-01	 1.152350755067230e+01
1	 1.099285171221208e+00	 5.405525990096827e-01	 1.220906101586788e+01
1	 1.109939437082952e+00	 5.183236884118472e-01	 1.284799840863193e+01
1	 1.120109036525835e+00	 4.959644606752638e-01	 1.343983674144693e+01
1	 1.129792924008140e+00	 4.734901781670185e-01	 1.398421749643232e+01
1	 1.138990668775229e+00	 4.509160192353808e-01	 1.448090508859197e+01
1	 1.020088279289433e+00	 6.669118869489865e-01	 7.594062288182508e+00
1	 1.033524341971946e+00	 6.458939518517904e-01	 8.496351367147778e+00
1	 1.046497675270649e+00	 6.246552474219352e-01	 9.356154301378005e+00
1	 1.059003443569948e+00	 6.032107997860668e-01	 1.017234693193144e+01
1	 1.071037449284989e+00	 5.815757428702439e-01	 1.094392925961312e+01
1	 1.082596133301196e+00	 5.597652852965380e-01	 1.167002689018838e+01
1	 1.093676573407586e+00	 5.377946775847317e-01	 1.234989186386712e+01
1	 1.104276480770130e+00	 5.156791797963856e-01	 1.298290287806732e+01
1	 1.114394194501747e+00	 4.934340297528066e-01	 1.356856491690812e+01
1	 1.124028674395118e+00	 4.710744119518586e-01	 1.410650830506367e+01
1	 1.133179491893328e+00	 4.486154273012567e-01	 1.459648720748864e+01
1	 1.014857057344345e+00	 6.634918259897664e-01	 7.768293220161313e+00
1	 1.028224217141069e+00	 6.425816751745687e-01	 8.665978387828897e+00
1	 1.041131020525250e+00	 6.214518871772771e-01	 9.521009356903248e+00
1	 1.053572656679322e+00	 6.001174110674782e-01	 1.033224613892659e+01
1	 1.065544949544507e+00	 5.785933031613523e-01	 1.109867352292179e+01
1	 1.077044358258098e+00	 5.568946940880360e-01	 1.181940258272494e+01
1	 1.088067975594809e+00	 5.350367561595165e-01	 1.249367156400278e+01
1	 1.098613524458221e+00	 5.130346711806275e-01	 1.312084615966931e+01
1	 1.108679352478621e+00	 4.909035988300009e-01	 1.370041918690751e+01
1	 1.118264424783085e+00	 4.686586457362787e-01	 1.423200968322895e+01
1	 1.127368315012428e+00	 4.463148353666224e-01	 1.471536144293455e+01
1	 1.009625835399267e+00	 6.600717650300513e-01	 7.944922053309318e+00
1	 1.022924092310392e+00	 6.392693984969413e-01	 8.838107738122538e+00
1	 1.035764365780220e+00	 6.182485269322826e-01	 9.688469417925747e+00
1	 1.048141869789214e+00	 5.970240223486021e-01	 1.049485109465999e+01
1	 1.060052449804672e+00	 5.756108634522008e-01	 1.125622217244969e+01
1	 1.071492583215757e+00	 5.540241028792817e-01	 1.197167902755103e+01
1	 1.082459377782877e+00	 5.322788347340370e-01	 1.264044595335401e+01
1	 1.092950568147224e+00	 5.103901625645730e-01	 1.326187548885949e+01
1	 1.102964510456456e+00	 4.883731679068467e-01	 1.383544814358749e+01
1	 1.112500175172043e+00	 4.662428795202794e-01	 1.436077153615329e+01
1	 1.121557138132527e+00	 4.440142434314778e-01	 1.483757896772492e+01
1	 1.004394613454200e+00	 6.566517040698419e-01	 8.123986254830864e+00
1	 1.017623967479915e+00	 6.359571218189090e-01	 9.012778516927533e+00
1	 1.030397711035560e+00	 6.150451666869524e-01	 9.858575187655092e+00
1	 1.042711082899626e+00	 5.939306336294381e-01	 1.066020407645463e+01
1	 1.054559950065485e+00	 5.726284237427899e-01	 1.141661902673073e+01
1	 1.065940808174171e+00	 5.511535116702757e-01	 1.212690154892029e+01
1	 1.076850779971789e+00	 5.295209133082932e-01	 1.279026182393903e+01
1	 1.087287611837140e+00	 5.077456539482217e-01	 1.340603908513070e+01
1	 1.097249668435252e+00	 4.858427369833440e-01	 1.397370139142662e+01
1	 1.106735925561992e+00	 4.638271133038601e-01	 1.449284480875398e+01
1	 1.115745961253626e+00	 4.417136514958229e-01	 1.496319202075479e+01
1	 9.991633915091431e-01	 6.532316431091375e-01	 8.305524076583724e+00
1	 1.012323842649639e+00	 6.326448451404714e-01	 9.190030641967970e+00
1	 1.025031056291269e+00	 6.118418064412861e-01	 1.003136822172456e+01
1	 1.037280296010556e+00	 5.908372449099865e-01	 1.082834824702262e+01
1	 1.049067450326945e+00	 5.696459840331191e-01	 1.157990882196429e+01
1	 1.060389033133341e+00	 5.482829204610178e-01	 1.228511642028551e+01
1	 1.071242182161545e+00	 5.267629918822850e-01	 1.294316694771365e+01
1	 1.081624655527969e+00	 5.051011453315740e-01	 1.355338617780794e+01
1	 1.091534826415010e+00	 4.833123060594928e-01	 1.411522957374070e+01
1	 1.100971675952930e+00	 4.614113470870209e-01	 1.462828151285740e+01
1	 1.109934784375726e+00	 4.394130595596578e-01	 1.509225393492744e+01
1	 9.939321695640972e-01	 6.498115821479387e-01	 8.489574575728049e+00
1	 1.007023717819563e+00	 6.293325684616293e-01	 9.369904871340939e+00
1	 1.019664401547349e+00	 6.086384461952835e-01	 1.020689095062241e+01
1	 1.031849509122004e+00	 5.877438561902473e-01	 1.099932767776452e+01
1	 1.043574950589053e+00	 5.666635443231887e-01	 1.174613723616448e+01
1	 1.054837258093266e+00	 5.454123292515076e-01	 1.244637088927729e+01
1	 1.065633584352145e+00	 5.240050704560125e-01	 1.309921010235896e+01
1	 1.075961699219711e+00	 5.024566367146296e-01	 1.370396703262319e+01
1	 1.085819984395729e+00	 4.807818751352932e-01	 1.426008440002060e+01
1	 1.095207426344859e+00	 4.589955808697619e-01	 1.476713475527584e+01
1	 1.104123607498825e+00	 4.371124676229823e-01	 1.522481916594398e+01
1	 1.162235376312831e+00	 4.601183869667742e-01	 1.405051014354722e+01
1	 1.171124942965302e+00	 4.369969884760462e-01	 1.470424423728779e+01
1	 1.179519402970896e+00	 4.138042749702637e-01	 1.531904280953415e+01
1	 1.187420126467113e+00	 3.905553011115672e-01	 1.589266875386500e+01
1	 1.194829057615943e+00	 3.672649221479063e-01	 1.642303885237740e+01
1	 1.201748697716363e+00	 3.439477685638434e-01	 1.690822763211645e+01
1	 1.208182087111708e+00	 3.206182221050797e-01	 1.734647035534435e+01
1	 1.214132786006912e+00	 2.972903932319074e-01	 1.773616515700202e+01
1	 1.219604854312299e+00	 2.739781000467751e-01	 1.807587434860956e+01
1	 1.224602830631397e+00	 2.506948487312581e-01	 1.836432491328955e+01
1	 1.229131710510102e+00	 2.274538155180211e-01	 1.860040822153978e+01
1	 1.156424199426930e+00	 4.578177950346912e-01	 1.415341513222745e+01
1	 1.165269318246508e+00	 4.348120035375571e-01	 1.480953520640516e+01
1	 1.173621805952430e+00	 4.117352536002755e-01	 1.542702924383283e+01
1	 1.181483025831509e+00	 3.886025246116780e-01	 1.600362690437225e+01
1	 1.188854912324926e+00	 3.654285975434765e-01	 1.653721124784721e+01
1	 1.195739954225163e+00	 3.422280297278126e-01	 1.702582274236336e+01
1	 1.202141176673837e+00	 3.190151310016606e-01	 1.746766240327317e+01
1	 1.208062122074858e+00	 2.958039412730137e-01	 1.786109407531999e+01
1	 1.213506830039000e+00	 2.726082095538110e-01	 1.820464587645614e+01
1	 1.218479816476771e+00	 2.494413744947220e-01	 1.849701082733824e+01
1	 1.222986051956338e+00	 2.263165464472510e-01	 1.873704669551670e+01
1	 1.150613022542030e+00	 4.555172031020981e-01	 1.425941767823423e+01
1	 1.159413693528708e+00	 4.326270185984629e-01	 1.491809274489280e+01
1	 1.167724208934942e+00	 4.096662322295980e-01	 1.553845424017296e+01
1	 1.175545925196858e+00	 3.866497481110256e-01	 1.611819824697551e+01
1	 1.182880767034825e+00	 3.635922729382201e-01	 1.665517376036808e+01
1	 1.189731210734830e+00	 3.405082908909013e-01	 1.714738684891611e+01
1	 1.196100266236777e+00	 3.174120398973176e-01	 1.759300394342067e+01
1	 1.201991458143548e+00	 2.943174893131627e-01	 1.799035426477300e+01
1	 1.207408805766368e+00	 2.712383190598658e-01	 1.833793140866656e+01
1	 1.212356802322725e+00	 2.481879002571907e-01	 1.863439411048310e+01
1	 1.216840393403059e+00	 2.251792773754809e-01	 1.887856621876020e+01
1	 1.144801845658129e+00	 4.532166111689945e-01	 1.436856495249072e+01
1	 1.153558068811903e+00	 4.304420336587636e-01	 1.502996659746155e+01
1	 1.161826611918433e+00	 4.075972108582310e-01	 1.565337016244333e+01
1	 1.169608824563159e+00	 3.846969716096103e-01	 1.623643780490469e+01
1	 1.176906621745638e+00	 3.617559483321367e-01	 1.677698410745873e+01
1	 1.183722467245366e+00	 3.387885520531097e-01	 1.727298039334325e+01
1	 1.190059355800528e+00	 3.158089487920509e-01	 1.772255816602420e+01
1	 1.195920794212982e+00	 2.928310373523545e-01	 1.812401168380552e+01
1	 1.201310781494402e+00	 2.698684285649393e-01	 1.847579968642484e+01
1	 1.206233788169260e+00	 2.469344260186640e-01	 1.877654629626472e+01
1	 1.210694734850266e+00	 2.240420083027108e-01	 1.902504112197089e+01
1	 1.138990668775229e+00	 4.509160192353808e-01	 1.448090508859197e+01
1	 1.147702444096093e+00	 4.282570487184593e-01	 1.514520752402038e+01
1	 1.155929014902903e+00	 4.055281894861750e-01	 1.577183044318344e+01
1	 1.163671723930411e+00	 3.827441951074316e-01	 1.635840172431271e+01
1	 1.170932476457367e+00	 3.599196237252266e-01	 1.690270118454648e+01
1	 1.177713723756769e+00	 3.370688132144378e-01	 1.740266505071464e+01
1	 1.184018445365089e+00	 3.142058576858604e-01	 1.785638955091789e+01
1	 1.189850130283160e+00	 2.913445853905888e-01	 1.826213363695261e+01
1	 1.195212757223104e+00	 2.684985380690318e-01	 1.861832085379644e+01
1	 1.200110774016376e+00	 2.456809517791420e-01	 1.892354037809184e+01
1	 1.204549076297958e+00	 2.229047392289407e-01	 1.917654725280246e+01
1	 1.133179491893328e+00	 4.486154273012567e-01	 1.459648720748865e+01
1	 1.141846819381277e+00	 4.260720637775501e-01	 1.526386732570710e+01
1	 1.150031417888351e+00	 4.034591681134296e-01	 1.589388961098491e+01
1	 1.157734623298615e+00	 3.807914186044897e-01	 1.648414730306844e+01
1	 1.164958331170010e+00	 3.580832991174894e-01	 1.703238509516991e+01
1	 1.171704980269041e+00	 3.353490743748856e-01	 1.753650376122979e+01
1	 1.177977534930460e+00	 3.126027665787460e-01	 1.799456390059905e+01
1	 1.183779466354081e+00	 2.898581334278658e-01	 1.840478880935532e+01
1	 1.189114732952472e+00	 2.671286475721431e-01	 1.876556649369938e+01
1	 1.193987759864072e+00	 2.444274775386246e-01	 1.907545084667385e+01
1	 1.198403417746136e+00	 2.217674701541705e-01	 1.933316201475802e+01
1	 1.127368315012428e+00	 4.463148353666224e-01	 1.471536144293455e+01
1	 1.135991194667455e+00	 4.238870788360357e-01	 1.538599887172416e+01
1	 1.144133820874777e+00	 4.013901467399950e-01	 1.601960331874008e+01
1	 1.151797522667771e+00	 3.788386421007847e-01	 1.661373302044003e+01
1	 1.158984185883568e+00	 3.562469745089256e-01	 1.716609718211577e+01
1	 1.165696236782179e+00	 3.336293355344530e-01	 1.767456076282424e+01
1	 1.171936624496643e+00	 3.109996754707078e-01	 1.813714837431751e+01
1	 1.177708802425745e+00	 2.883716814641854e-01	 1.855204730234299e+01
1	 1.183016708682507e+00	 2.657587570742732e-01	 1.891760966498810e+01
1	 1.187864745712349e+00	 2.431740032971120e-01	 1.923235372861116e+01
1	 1.192257759194798e+00	 2.206302010784004e-01	 1.949496440728909e+01
1	 1.121557138132527e+00	 4.440142434314778e-01	 1.483757896772491e+01
1	 1.130135569954629e+00	 4.217020938939166e-01	 1.551165612700870e+01
1	 1.138236223862183e+00	 3.993211253658711e-01	 1.614902837276908e+01
1	 1.145860422037879e+00	 3.768858655963165e-01	 1.674721856770114e+01
1	 1.153010040598041e+00	 3.544106498995349e-01	 1.730390005952383e+01
1	 1.159687493296186e+00	 3.319095966931400e-01	 1.781690162478969e+01
1	 1.165895714063635e+00	 3.093965843617458e-01	 1.828421152322462e+01
1	 1.171638138498153e+00	 2.868852294995476e-01	 1.870398067012236e+01
1	 1.176918684413208e+00	 2.643888665754221e-01	 1.907452494069027e+01
1	 1.181741731561207e+00	 2.419205290546041e-01	 1.939432662618496e+01
1	 1.186112100643947e+00	 2.194929320016303e-01	 1.966203506714156e+01
1	 1.115745961253626e+00	 4.417136514958229e-01	 1.496319202075479e+01
1	 1.124279945242797e+00	 4.195171089511923e-01	 1.564089418076732e+01
1	 1.132338626850566e+00	 3.972521039910580e-01	 1.628222276285701e+01
1	 1.139923321408939e+00	 3.749330890910851e-01	 1.688466487969361e+01
1	 1.147035895313430e+00	 3.525743252893173e-01	 1.744585764599513e+01
1	 1.153678749811061e+00	 3.301898578509467e-01	 1.796359328244468e+01
1	 1.159854803631438e+00	 3.077934932518601e-01	 1.843582332662066e+01
1	 1.165567474571304e+00	 2.853987775339525e-01	 1.886066195761271e+01
1	 1.170820660144577e+00	 2.630189760755899e-01	 1.923638844743824e+01
1	 1.175618717410646e+00	 2.406670548111008e-01	 1.956144875839065e+01
1	 1.179966442093580e+00	 2.183556629238602e-01	 1.983445631099366e+01
1	 1.109934784375726e+00	 4.394130595596578e-01	 1.509225393492744e+01
1	 1.118424320531960e+00	 4.173321240078632e-01	 1.577376927590726e+01
1	 1.126441029839929e+00	 3.951830826155555e-01	 1.641924569323463e+01
1	 1.133986220780951e+00	 3.729803125850906e-01	 1.702613416738152e+01
1	 1.141061750029733e+00	 3.507380006782729e-01	 1.759203519874007e+01
1	 1.147670006326803e+00	 3.284701190078731e-01	 1.811470407289452e+01
1	 1.153813893200052e+00	 3.061904021410506e-01	 1.859205522934104e+01
1	 1.159496810645199e+00	 2.839123255674000e-01	 1.902216573946993e+01
1	 1.164722635876612e+00	 2.616490855747766e-01	 1.940327790613939e+01
1	 1.169495703260665e+00	 2.394135805666023e-01	 1.973380100326025e+01
1	 1.173820783543699e+00	 2.172183938450901e-01	 2.001231217943302e+01
1	 1.104123607498825e+00	 4.371124676229823e-01	 1.522481916594398e+01
1	 1.112568695822117e+00	 4.151471390639289e-01	 1.591033883939677e+01
1	 1.120543432830269e+00	 3.931140612393638e-01	 1.656015761453751e+01
1	 1.128049120153916e+00	 3.710275360783328e-01	 1.717168995143344e+01
1	 1.135087604746951e+00	 3.489016760664016e-01	 1.774249934880497e+01
1	 1.141661262843413e+00	 3.267503801639192e-01	 1.827030377192039e+01
1	 1.147772982769477e+00	 3.045873110293171e-01	 1.875298018032291e+01
1	 1.153426146719838e+00	 2.824258735998901e-01	 1.918856816034257e+01
1	 1.158624611609314e+00	 2.602791950729820e-01	 1.957527267393076e+01
1	 1.163372689111265e+00	 2.381601063211083e-01	 1.991146594152112e+01
1	 1.167675124994303e+00	 2.160811247653200e-01	 2.019568848232282e+01
1	 1.229131710510102e+00	 2.274538155180211e-01	 1.860040822153978e+01
1	 1.233196924063451e+00	 2.042678302137040e-01	 1.911298060458193e+01
1	 1.236804313095460e+00	 1.811493612805350e-01	 1.955358485479975e+01
1	 1.239960107823959e+00	 1.581105024744469e-01	 1.992239918090384e+01
1	 1.242670903319327e+00	 1.351629610294558e-01	 2.021978658627224e+01
1	 1.244943635763541e+00	 1.123180473713976e-01	 2.044628664922080e+01
1	 1.246785558630902e+00	 8.958666633593598e-02	 2.060260688615605e+01
1	 1.248204218887413e+00	 6.697930985936359e-02	 2.068961376761762e+01
1	 1.249207433300800e+00	 4.450605110464825e-02	 2.070832345565498e+01
1	 1.249803264947827e+00	 2.217653997970399e-02	 2.065989232892691e+01
1	 1.250000000000000e+00	 0.000000000000000e+00	 2.054560735942413e+01
1	 1.222986051956338e+00	 2.263165464472510e-01	 1.873704669551670e+01
1	 1.227030939442157e+00	 2.032464910690478e-01	 1.925077680819848e+01
1	 1.230620291529215e+00	 1.802436144800721e-01	 1.969321650116257e+01
1	 1.233760307284255e+00	 1.573199499674782e-01	 2.006458576498668e+01
1	 1.236457548802305e+00	 1.344871462291139e-01	 2.036528481617578e+01
1	 1.238718917584429e+00	 1.117564571386872e-01	 2.059588593296011e+01
1	 1.240551630837560e+00	 8.913873300768511e-02	 2.075712489283070e+01
1	 1.241963197792871e+00	 6.664441331272049e-02	 2.084989208037023e+01
1	 1.242961396134250e+00	 4.428352085094778e-02	 2.087522333233093e+01
1	 1.243554248623077e+00	 2.206565728074313e-02	 2.083429058483459e+01
1	 1.243750000000000e+00	 0.000000000000000e+00	 2.072839238506632e+01
1	 1.216840393403059e+00	 2.251792773754809e-01	 1.887856621876020e+01
1	 1.220864954821254e+00	 2.022251519234023e-01	 1.939319821241514e+01
1	 1.224436269963278e+00	 1.793378676786514e-01	 1.983722651701393e+01
1	 1.227560506744786e+00	 1.565293974596039e-01	 2.021091314060462e+01
1	 1.230244194285452e+00	 1.338113314279387e-01	 2.051469572098733e+01
1	 1.232494199405435e+00	 1.111948669052356e-01	 2.074917941736929e+01
1	 1.234317703044293e+00	 8.869079967880455e-02	 2.091512842271322e+01
1	 1.235722176698372e+00	 6.630951676557793e-02	 2.101345716387809e+01
1	 1.236715358967718e+00	 4.406099059689659e-02	 2.104522125500701e+01
1	 1.237305232298331e+00	 2.195477458159817e-02	 2.101160826751126e+01
1	 1.237500000000000e+00	 0.000000000000000e+00	 2.091392837749080e+01
1	 1.210694734850266e+00	 2.240420083027108e-01	 1.902504112197089e+01
1	 1.214698970200741e+00	 2.012038127767674e-01	 1.954031525176038e+01
1	 1.218252248397647e+00	 1.784321208762728e-01	 1.998568157803337e+01
1	 1.221360706205549e+00	 1.557388449508240e-01	 2.036144436549938e+01
1	 1.224030839768770e+00	 1.331355166259302e-01	 2.066807888459188e+01
1	 1.226269481226558e+00	 1.106332766710430e-01	 2.090622335931525e+01
1	 1.228083775251101e+00	 8.824286634929430e-02	 2.107667055484181e+01
1	 1.229481155603914e+00	 6.597462021793599e-02	 2.118035907049335e+01
1	 1.230469321801205e+00	 4.383846034249465e-02	 2.121836440205499e+01
1	 1.231056215973589e+00	 2.184389188226911e-02	 2.119188983523975e+01
1	 1.231250000000000e+00	 0.000000000000000e+00	 2.110225722960092e+01
1	 1.204549076297958e+00	 2.229047392289407e-01	 1.917654725280246e+01
1	 1.208532985580619e+00	 2.001824736291430e-01	 1.969219979820209e+01
1	 1.212068226832323e+00	 1.775263740729366e-01	 2.013864972062867e+01
1	 1.215160905666545e+00	 1.549482924411385e-01	 2.051624378430543e+01
1	 1.217817485252258e+00	 1.324597018230886e-01	 2.082549510687227e+01
1	 1.220044763047800e+00	 1.100716864361092e-01	 2.106707516376423e+01
1	 1.221849847457984e+00	 8.779493301915438e-02	 2.124180545150045e+01
1	 1.223240134509497e+00	 6.563972366979461e-02	 2.135064887404450e+01
1	 1.224223284634710e+00	 4.361593008774198e-02	 2.139470091467070e+01
1	 1.224807199648852e+00	 2.173300918275595e-02	 2.137518065361493e+01
1	 1.225000000000000e+00	 0.000000000000000e+00	 2.129342168925742e+01
1	 1.198403417746136e+00	 2.217674701541705e-01	 1.933316201475802e+01
1	 1.202367000960888e+00	 1.991611344805294e-01	 1.984892519800492e+01
1	 1.205884205267306e+00	 1.766206272686425e-01	 2.029620037682614e+01
1	 1.208961105127776e+00	 1.541577399305475e-01	 2.067537706154721e+01
1	 1.211604130735918e+00	 1.317838870194137e-01	 2.098700643488842e+01
1	 1.213820044869158e+00	 1.095100962004343e-01	 2.123179341322048e+01
1	 1.215615919664942e+00	 8.734699968838475e-02	 2.141058838599453e+01
1	 1.216999113415123e+00	 6.530482712115382e-02	 2.152437869602860e+01
1	 1.217977247468234e+00	 4.339339983263860e-02	 2.157427992156173e+01
1	 1.218558183324120e+00	 2.162212648305869e-02	 2.156152701880821e+01
1	 1.218750000000000e+00	 0.000000000000000e+00	 2.148746538120041e+01
1	 1.192257759194798e+00	 2.206302010784004e-01	 1.949496440728909e+01
1	 1.196201016341548e+00	 1.981397953309263e-01	 2.001056630972764e+01
1	 1.199700183702596e+00	 1.757148804633906e-01	 2.045840441024053e+01
1	 1.202761304589240e+00	 1.533671874190509e-01	 2.083891121565705e+01
1	 1.205390776219747e+00	 1.311080722149056e-01	 2.115267619502125e+01
1	 1.207595326690635e+00	 1.089485059640183e-01	 2.140043789807487e+01
1	 1.209381991871975e+00	 8.689906635698541e-02	 2.158307577128535e+01
1	 1.210758092320790e+00	 6.496993057201363e-02	 2.170160173261287e+01
1	 1.211731210301776e+00	 4.317086957718448e-02	 2.175715156439897e+01
1	 1.212309166999393e+00	 2.151124378317732e-02	 2.175097618155131e+01
1	 1.212500000000000e+00	 0.000000000000000e+00	 2.168443282964924e+01
1	 1.186112100643947e+00	 2.194929320016303e-01	 1.966203506714156e+01
1	 1.190035031722598e+00	 1.971184561803339e-01	 2.017719954340192e+01
1	 1.193516162138193e+00	 1.748091336571810e-01	 2.062533415316251e+01
1	 1.196561504050938e+00	 1.525766349066487e-01	 2.100691465405030e+01
1	 1.199177421703747e+00	 1.304322574095643e-01	 2.132256902611557e+01
1	 1.201370608512228e+00	 1.083869157268612e-01	 2.157306964789763e+01
1	 1.203148064079081e+00	 8.645113302495637e-02	 2.175932518951470e+01
1	 1.204517071226499e+00	 6.463503402237400e-02	 2.188237228247589e+01
1	 1.205485173135337e+00	 4.294833932137963e-02	 2.194336702405894e+01
1	 1.206060150674669e+00	 2.140036108311186e-02	 2.194357637186585e+01
1	 1.206250000000000e+00	 0.000000000000000e+00	 2.188436948160527e+01
1	 1.179966442093580e+00	 2.183556629238602e-01	 1.983445631099366e+01
1	 1.183869047104040e+00	 1.960971170287520e-01	 2.034890290093503e+01
1	 1.187332140574096e+00	 1.739033868500136e-01	 2.079706344480548e+01
1	 1.190361703512869e+00	 1.517860823933409e-01	 2.117945720929698e+01
1	 1.192964067187917e+00	 1.297564426033898e-01	 2.149675091365892e+01
1	 1.195145890333940e+00	 1.078253254889629e-01	 2.174975096370835e+01
1	 1.196914136286263e+00	 8.600319969229762e-02	 2.193939542245272e+01
1	 1.198276050132250e+00	 6.430013747223495e-02	 2.206674577551886e+01
1	 1.199239135968915e+00	 4.272580906522404e-02	 2.213297854768668e+01
1	 1.199811134349951e+00	 2.128947838286229e-02	 2.213937682456585e+01
1	 1.200000000000000e+00	 0.000000000000000e+00	 2.208732173088244e+01
1	 1.173820783543699e+00	 2.172183938450901e-01	 2.001231217943302e+01
1	 1.177703062485872e+00	 1.950757778761808e-01	 2.052575601778208e+01
1	 1.181148119010307e+00	 1.729976400418885e-01	 2.097366767075395e+01
1	 1.184161902975033e+00	 1.509955298791275e-01	 2.135661017642936e+01
1	 1.186750712672258e+00	 1.290806277963820e-01	 2.167528922503399e+01
1	 1.188921172155769e+00	 1.072637352503236e-01	 2.193054545126030e+01
1	 1.190680208493520e+00	 8.555526635900920e-02	 2.212334648290129e+01
1	 1.192035029038043e+00	 6.396524092159651e-02	 2.225477880247874e+01
1	 1.192993098802513e+00	 4.250327880871774e-02	 2.232603947660840e+01
1	 1.193562118025237e+00	 2.117859568242864e-02	 2.233842780556098e+01
1	 1.193750000000000e+00	 0.000000000000000e+00	 2.229333694289319e+01
1	 1.167675124994303e+00	 2.160811247653200e-01	 2.019568848232282e+01
1	 1.171537077868094e+00	 1.940544387226202e-01	 2.070784020593415e+01
1	 1.174964097446825e+00	 1.720918932328055e-01	 2.115522380365743e+01
1	 1.177962102437430e+00	 1.502049773640085e-01	 2.153844635142784e+01
1	 1.180537358156770e+00	 1.284048129885411e-01	 2.185825274588419e+01
1	 1.182696453977716e+00	 1.067021450109431e-01	 2.211551805537509e+01
1	 1.184446280700852e+00	 8.510733302509109e-02	 2.231123964708994e+01
1	 1.185794007943878e+00	 6.363034437045867e-02	 2.244652914547651e+01
1	 1.186747061636129e+00	 4.228074855186071e-02	 2.252260427512569e+01
1	 1.187313101700527e+00	 2.106771298181087e-02	 2.254078063899069e+01
1	 1.187500000000000e+00	 0.000000000000000e+00	 2.250246348021660e+01
1	 0.000000000000000e+00	 1.187500000000000e+00	-3.883045128640364e+01
1	 2.106771298181096e-02	 1.187313101700527e+00	-3.948583911529842e+01
1	 4.228074855186088e-02	 1.186747061636128e+00	-4.006398702252023e+01
1	 6.363034437045889e-02	 1.185794007943877e+00	-4.056230407040003e+01
1	 8.510733302509138e-02	 1.184446280700852e+00	-4.097834235499980e+01
1	 1.067021450109435e-01	 1.182696453977716e+00	-4.130981218177597e+01
1	 1.284048129885415e-01	 1.180537358156770e+00	-4.155459727965955e+01
1	 1.502049773640091e-01	 1.177962102437431e+00	-4.171076996493377e+01
1	 1.720918932328061e-01	 1.174964097446825e+00	-4.177660616099346e+01
1	 1.940544387226209e-01	 1.171537077868094e+00	-4.175060017526443e+01
1	 2.160811247653200e-01	 1.167675124994303e+00	-4.163147913034936e+01
1	 0.000000000000000e+00	 1.181250000000000e+00	-3.831715566053393e+01
1	 2.095683028119090e-02	 1.181064085375818e+00	-3.896703261666050e+01
1	 4.205821829499463e-02	 1.180501024469745e+00	-3.954029967366760e+01
1	 6.329544781930015e-02	 1.179552986849712e+00	-4.003440719270255e+01
1	 8.465939969113587e-02	 1.178212352908183e+00	-4.044694735237959e+01
1	 1.061405547715042e-01	 1.176471735799663e+00	-4.077566910174065e+01
1	 1.277289981806153e-01	 1.174324003641281e+00	-4.101849314695410e+01
1	 1.494144248487734e-01	 1.171762301899829e+00	-4.117352688427898e+01
1	 1.711861464235698e-01	 1.168780075883342e+00	-4.123907918661529e+01
1	 1.930330995688649e-01	 1.165371093250317e+00	-4.121367494626361e+01
1	 2.149438556853072e-01	 1.161529466444907e+00	-4.109606927238721e+01
1	 0.000000000000000e+00	 1.175000000000000e+00	-3.780679690311096e+01
1	 2.084594758075037e-02	 1.174815069051104e+00	-3.845103703246830e+01
1	 4.183568803846066e-02	 1.174254987303341e+00	-3.901930309766864e+01
1	 6.296055126859904e-02	 1.173311965755504e+00	-3.950908706790698e+01
1	 8.421146635773533e-02	 1.171978425115440e+00	-3.991802151033869e+01
1	 1.055789645326885e-01	 1.170247017621491e+00	-4.024389431923831e+01
1	 1.270531833733519e-01	 1.168110649125621e+00	-4.048466347418892e+01
1	 1.486238723342098e-01	 1.165562501361993e+00	-4.063847174097147e+01
1	 1.702803996149842e-01	 1.162596054319553e+00	-4.070366122372662e+01
1	 1.920117604157075e-01	 1.159205108632149e+00	-4.067878767234437e+01
1	 2.138065866058090e-01	 1.155383807895026e+00	-4.056263444502421e+01
1	 0.000000000000000e+00	 1.168750000000000e+00	-3.729942212967033e+01
1	 2.073506488048938e-02	 1.168566052726385e+00	-3.793789745760618e+01
1	 4.161315778225901e-02	 1.168008950136921e+00	-3.850104046200126e+01
1	 6.262565471835560e-02	 1.167070944661255e+00	-3.898638503429474e+01
1	 8.376353302488969e-02	 1.165744497322621e+00	-3.939160444107969e+01
1	 1.050173742944963e-01	 1.164022299443203e+00	-3.971452582834765e+01
1	 1.263773685667512e-01	 1.161897294609792e+00	-3.995314475002571e+01
1	 1.478333198203182e-01	 1.159362700823924e+00	-4.010563963561098e+01
1	 1.693746528070496e-01	 1.156412032755457e+00	-4.017038610673645e+01
1	 1.909904212631487e-01	 1.153039124013591e+00	-4.014597104797261e+01
1	 2.126693175268256e-01	 1.149238149344660e+00	-4.003120633324297e+01
1	 0.000000000000000e+00	 1.162500000000000e+00	-3.679507946898509e+01
1	 2.062418218040790e-02	 1.162317036401662e+00	-3.742765995673921e+01
1	 4.139062752638964e-02	 1.161762912970481e+00	-3.798555586247681e+01
1	 6.229075816856980e-02	 1.160829923566964e+00	-3.846634331914296e+01
1	 8.331559969259900e-02	 1.159510569529728e+00	-3.886773660867826e+01
1	 1.044557840569276e-01	 1.157797581264797e+00	-3.918760244022274e+01
1	 1.257015537608134e-01	 1.155683940093792e+00	-3.942397424782881e+01
1	 1.470427673070988e-01	 1.153162900285621e+00	-3.957506642364714e+01
1	 1.684689059997659e-01	 1.150228011191053e+00	-3.963928839767513e+01
1	 1.899690821111885e-01	 1.146873139394641e+00	-3.961525847072154e+01
1	 2.115320484483569e-01	 1.143092490793807e+00	-3.950181730342332e+01
1	 0.000000000000000e+00	 1.156250000000000e+00	-3.629381809044970e+01
1	 2.051329948050595e-02	 1.156068020076935e+00	-3.692037159052622e+01
1	 4.116809727085258e-02	 1.155516875804023e+00	-3.747289434832949e+01
1	 6.195586161924166e-02	 1.154588902472632e+00	-3.794900506275012e+01
1	 8.286766636086323e-02	 1.153276641736761e+00	-3.834645935211061e+01
1	 1.038941938199824e-01	 1.151572863086273e+00	-3.866316380517908e+01
1	 1.250257389555382e-01	 1.149470585577622e+00	-3.889719004687320e+01
1	 1.462522147945514e-01	 1.146963099747086e+00	-3.904678873578453e+01
1	 1.675631591931331e-01	 1.144043989626343e+00	-3.911040340586050e+01
1	 1.889477429598269e-01	 1.140707154775301e+00	-3.908668406027412e+01
1	 2.103947793704027e-01	 1.136946832242470e+00	-3.897450042175943e+01
1	 0.000000000000000e+00	 1.150000000000000e+00	-3.579568823235878e+01
1	 2.040241678078352e-02	 1.149819003752203e+00	-3.641608044268330e+01
1	 4.094556701564780e-02	 1.149270838637547e+00	-3.696310194812423e+01
1	 6.162096507037117e-02	 1.148347881378257e+00	-3.743441434324775e+01
1	 8.241973302968245e-02	 1.147042713943719e+00	-3.782781490902594e+01
1	 1.033326035836607e-01	 1.145348144907632e+00	-3.814125043549420e+01
1	 1.243499241509259e-01	 1.143257231061281e+00	-3.837283105424414e+01
1	 1.454616622826762e-01	 1.140763299208316e+00	-3.852084399904563e+01
1	 1.666574123871511e-01	 1.137859968061326e+00	-3.858376720820353e+01
1	 1.879264038090639e-01	 1.134541170155570e+00	-3.856028267804503e+01
1	 2.092575102929634e-01	 1.130801173690648e+00	-3.844928947327487e+01
1	 0.000000000000000e+00	 1.143750000000000e+00	-3.530074123111152e+01
1	 2.029153408124062e-02	 1.143569987427466e+00	-3.591483564793640e+01
1	 4.072303676077533e-02	 1.143024801471052e+00	-3.645622569651508e+01
1	 6.128606852195834e-02	 1.142106860283841e+00	-3.692261620222340e+01
1	 8.197179969905656e-02	 1.140808786150602e+00	-3.731184644030043e+01
1	 1.027710133479626e-01	 1.139123426728873e+00	-3.762190372896085e+01
1	 1.236741093469763e-01	 1.137043876544769e+00	-3.785093702745490e+01
1	 1.446711097714730e-01	 1.134563498669313e+00	-3.799727045853070e+01
1	 1.657516655818200e-01	 1.131675946496002e+00	-3.805941667018248e+01
1	 1.869050646588994e-01	 1.128375185535448e+00	-3.803608994744785e+01
1	 2.081202412160386e-01	 1.124655515138340e+00	-3.792621898146431e+01
1	 0.000000000000000e+00	 1.137500000000000e+00	-3.480902955137912e+01
1	 2.018065138187724e-02	 1.137320971102724e+00	-3.541668742089570e+01
1	 4.050050650623516e-02	 1.136778764304539e+00	-3.595231366188413e+01
1	 6.095117197400314e-02	 1.135865839189383e+00	-3.641365667118969e+01
1	 8.152386636898563e-02	 1.134574858357410e+00	-3.679859805540083e+01
1	 1.022094231128880e-01	 1.132898708549996e+00	-3.710516599321325e+01
1	 1.229982945436895e-01	 1.130830522028087e+00	-3.733154859781060e+01
1	 1.438805572609419e-01	 1.128363698130076e+00	-3.747610719989184e+01
1	 1.648459187771398e-01	 1.125491924930372e+00	-3.753738946750523e+01
1	 1.858837255093336e-01	 1.122209200914935e+00	-3.751414227482798e+01
1	 2.069829721396285e-01	 1.118509856585547e+00	-3.740532422858059e+01
1	 0.000000000000000e+00	 1.131250000000000e+00	-3.432060681727319e+01
1	 2.006976868269339e-02	 1.131071954777978e+00	-3.492168708588607e+01
1	 4.027797625202728e-02	 1.130532727138007e+00	-3.545141497489873e+01
1	 6.061627542650560e-02	 1.129624818094883e+00	-3.590758279893059e+01
1	 8.107593303946964e-02	 1.128340930564143e+00	-3.628811483858937e+01
1	 1.016478328784368e-01	 1.126673990371002e+00	-3.659108047086023e+01
1	 1.223224797410655e-01	 1.124617167511235e+00	-3.681470729454482e+01
1	 1.430900047510829e-01	 1.122163897590607e+00	-3.695739417255236e+01
1	 1.639401719731105e-01	 1.119307903364434e+00	-3.701772410849214e+01
1	 1.848623863603664e-01	 1.116043216294032e+00	-3.699447687109085e+01
1	 2.058457030637330e-01	 1.112364198032268e+00	-3.688664127659442e+01
1	 0.000000000000000e+00	 1.125000000000000e+00	-3.383552784455181e+01
1	 1.995888598368906e-02	 1.124822938453228e+00	-3.442988710777316e+01
1	 4.005544599815170e-02	 1.124286689971457e+00	-3.495357985801802e+01
1	 6.028137887946573e-02	 1.123383797000342e+00	-3.540444267975710e+01
1	 8.062799971050859e-02	 1.122107002770802e+00	-3.578044287599923e+01
1	 1.010862426446093e-01	 1.120449272191891e+00	-3.607969136545841e+01
1	 1.216466649391042e-01	 1.118403812994212e+00	-3.630045556976393e+01
1	 1.422994522418959e-01	 1.115964097050903e+00	-3.644117221369989e+01
1	 1.630344251697321e-01	 1.113123881798189e+00	-3.650045995720471e+01
1	 1.838410472119977e-01	 1.109877231672737e+00	-3.647713177405133e+01
1	 2.047084339883523e-01	 1.106218539478505e+00	-3.637020698885473e+01
1	 2.160811247653200e-01	 1.167675124994303e+00	-4.163147913034936e+01
1	 2.381601191763375e-01	 1.163372683973118e+00	-4.143732325360584e+01
1	 2.602792470066892e-01	 1.158624590893003e+00	-4.115908064400017e+01
1	 2.824259915947486e-01	 1.153426099734665e+00	-4.079661980265900e+01
1	 3.045875228123808e-01	 1.147772898567342e+00	-4.035005754002283e+01
1	 3.267507141889890e-01	 1.141661130212224e+00	-3.981976717156756e+01
1	 3.489021614937545e-01	 1.135087412204246e+00	-3.920638579161470e+01
1	 3.710282027517673e-01	 1.128048855940742e+00	-3.851082053893702e+01
1	 3.931149396605382e-01	 1.120543084905404e+00	-3.773425377156315e+01
1	 4.151482603639737e-01	 1.112568251856689e+00	-3.687814707291480e+01
1	 4.371138635313860e-01	 1.104123054871417e+00	-3.594424401712216e+01
1	 2.149438556853072e-01	 1.161529466444907e+00	-4.109606927238721e+01
1	 2.369066448628989e-01	 1.157249669850763e+00	-4.090337098205431e+01
1	 2.589093562312449e-01	 1.152526566734748e+00	-4.062770234799536e+01
1	 2.809395390058841e-01	 1.147355436056616e+00	-4.026892078732762e+01
1	 3.029844305856706e-01	 1.141731988579973e+00	-3.982712717716819e+01
1	 3.250309735866941e-01	 1.135652387426953e+00	-3.930267392196971e+01
1	 3.470658343267181e-01	 1.129113267934933e+00	-3.869617211907409e+01
1	 3.690754227359629e-01	 1.122111756704420e+00	-3.800849773781235e+01
1	 3.910459136608987e-01	 1.114645489727084e+00	-3.724079673111488e+01
1	 4.129632695183580e-01	 1.106712629483704e+00	-3.639448900319776e+01
1	 4.348132642478140e-01	 1.098311880903327e+00	-3.547127116247889e+01
1	 2.138065866058090e-01	 1.155383807895026e+00	-4.056263444502421e+01
1	 2.356531705498842e-01	 1.151126655727832e+00	-4.037149206210788e+01
1	 2.575394654561525e-01	 1.146428542575845e+00	-4.009850705375777e+01
1	 2.794530864173186e-01	 1.141284772377865e+00	-3.974352575991040e+01
1	 3.013813383592260e-01	 1.135691078591871e+00	-3.930663310448232e+01
1	 3.233112329846512e-01	 1.129643644640933e+00	-3.878816053353863e+01
1	 3.452295071599400e-01	 1.123139123664879e+00	-3.818869307188309e+01
1	 3.671226427204434e-01	 1.116174657467383e+00	-3.750907541505772e+01
1	 3.889768876615913e-01	 1.108747894548095e+00	-3.675041697727348e+01
1	 4.107782786731426e-01	 1.100857007110119e+00	-3.591409582027907e+01
1	 4.325126649647315e-01	 1.092500706934726e+00	-3.500176139363577e+01
1	 2.126693175268256e-01	 1.149238149344660e+00	-4.003120633324297e+01
1	 2.343996962372936e-01	 1.145003641604325e+00	-3.984171975609008e+01
1	 2.561695746814121e-01	 1.140330518416293e+00	-3.957152978270595e+01
1	 2.779666338290522e-01	 1.135214108698413e+00	-3.922047168277800e+01
1	 2.997782461330470e-01	 1.129650168603034e+00	-3.878861440683234e+01
1	 3.215914923828601e-01	 1.123634901854166e+00	-3.827626839441959e+01
1	 3.433931799934201e-01	 1.117164979394083e+00	-3.768399252103420e+01
1	 3.651698627052086e-01	 1.110237558229631e+00	-3.701260010240903e+01
1	 3.869078616626161e-01	 1.102850299368439e+00	-3.626316387827053e+01
1	 4.085932878283277e-01	 1.095001384735935e+00	-3.543701990201898e+01
1	 4.302120656821389e-01	 1.086689532965615e+00	-3.453577026811585e+01
1	 2.115320484483569e-01	 1.143092490793807e+00	-3.950181730342332e+01
1	 2.331462219251268e-01	 1.138880627480242e+00	-3.931408804164418e+01
1	 2.547996839070238e-01	 1.134232494256095e+00	-3.904680630940513e+01
1	 2.764801812410850e-01	 1.129143445018261e+00	-3.869979631319156e+01
1	 2.981751539071337e-01	 1.123609258613462e+00	-3.827311100961947e+01
1	 3.198717517813208e-01	 1.117626159066650e+00	-3.776703978282411e+01
1	 3.415568528271583e-01	 1.111190835122545e+00	-3.718211528098178e+01
1	 3.632170826902587e-01	 1.104300458991163e+00	-3.651911933228408e+01
1	 3.848388356639731e-01	 1.096952704188116e+00	-3.577908786401935e+01
1	 4.064082969839133e-01	 1.089145762361150e+00	-3.496331475268317e+01
1	 4.279114664000359e-01	 1.080878358995994e+00	-3.407335453822779e+01
1	 2.103947793704027e-01	 1.136946832242470e+00	-3.897450042175943e+01
1	 2.318927476133841e-01	 1.132757613355583e+00	-3.878863163106540e+01
1	 2.534297931329875e-01	 1.128134470095247e+00	-3.852437318192604e+01
1	 2.749937286534168e-01	 1.123072781337407e+00	-3.818153822478478e+01
1	 2.965720616814860e-01	 1.117568348623156e+00	-3.776016370149763e+01
1	 3.181520111800335e-01	 1.111617416278387e+00	-3.726051789108824e+01
1	 3.397205256611547e-01	 1.105216690850265e+00	-3.668310713514095e+01
1	 3.612643026755938e-01	 1.098363359751981e+00	-3.602868166482880e+01
1	 3.827698096656624e-01	 1.091055109007124e+00	-3.529824045481027e+01
1	 4.042233061398991e-01	 1.083290139985767e+00	-3.449303503338588e+01
1	 4.256108671184228e-01	 1.075067185025862e+00	-3.361457218335678e+01
1	 2.092575102929634e-01	 1.130801173690648e+00	-3.844928947327487e+01
1	 2.306392733020653e-01	 1.126634599230349e+00	-3.826538599126363e+01
1	 2.520599023593032e-01	 1.122036445933752e+00	-3.800426774286222e+01
1	 2.735072760660478e-01	 1.117002117655853e+00	-3.766573682974914e+01
1	 2.949689694561039e-01	 1.111527438632116e+00	-3.724981415783032e+01
1	 3.164322705789981e-01	 1.105608673489374e+00	-3.675674685051120e+01
1	 3.378841984954095e-01	 1.099242546577243e+00	-3.618701486221914e+01
1	 3.593115226612140e-01	 1.092426260512083e+00	-3.554133671584496e+01
1	 3.807007836676839e-01	 1.085157513825465e+00	-3.482067429093971e+01
1	 4.020383152962855e-01	 1.077434517609783e+00	-3.402623659352652e+01
1	 4.233102678372992e-01	 1.069256011055220e+00	-3.315948244330976e+01
1	 2.081202412160386e-01	 1.124655515138340e+00	-3.792621898146431e+01
1	 2.293857989911705e-01	 1.120511585104538e+00	-3.774438736438182e+01
1	 2.506900115859708e-01	 1.115938421771609e+00	-3.748652815103894e+01
1	 2.720208234789778e-01	 1.110931453973597e+00	-3.715243240174506e+01
1	 2.933658772309874e-01	 1.105486528640341e+00	-3.674210496491768e+01
1	 3.147125299782146e-01	 1.099599930699615e+00	-3.625577175701139e+01
1	 3.360478713299224e-01	 1.093268402303480e+00	-3.569388626340874e+01
1	 3.573587426471188e-01	 1.086489161271470e+00	-3.505713518563191e+01
1	 3.786317576700375e-01	 1.079259918643138e+00	-3.434644316331158e+01
1	 3.998533244530722e-01	 1.071578895233201e+00	-3.356297650325684e+01
1	 4.210096685566655e-01	 1.063444837084068e+00	-3.270814585275289e+01
1	 2.069829721396285e-01	 1.118509856585547e+00	-3.740532422858059e+01
1	 2.281323246806998e-01	 1.114388570978151e+00	-3.722567278909386e+01
1	 2.493201208129905e-01	 1.109840397608818e+00	-3.697119340393663e+01
1	 2.705343708922070e-01	 1.104860790290642e+00	-3.664166609956785e+01
1	 2.917627850061367e-01	 1.099445618647832e+00	-3.623707964502221e+01
1	 3.129927893776829e-01	 1.093591187909107e+00	-3.575763869762593e+01
1	 3.342115441646936e-01	 1.087294258028975e+00	-3.520377019047825e+01
1	 3.554059626333085e-01	 1.080552062030143e+00	-3.457612888878194e+01
1	 3.765627316727232e-01	 1.073362323460143e+00	-3.387560204504744e+01
1	 3.976683336102592e-01	 1.065723272856019e+00	-3.310331308701691e+01
1	 4.187090692765215e-01	 1.057633663112406e+00	-3.226062427678374e+01
1	 2.058457030637330e-01	 1.112364198032268e+00	-3.688664127659442e+01
1	 2.268788503706531e-01	 1.108265556851188e+00	-3.670928012260799e+01
1	 2.479502300403623e-01	 1.103742373445379e+00	-3.645830336085903e+01
1	 2.690479183057353e-01	 1.098790126606985e+00	-3.613347999159915e+01
1	 2.901596927815515e-01	 1.093404708654589e+00	-3.573478268222595e+01
1	 3.112730487774031e-01	 1.087582445117850e+00	-3.526239477788980e+01
1	 3.323752169997228e-01	 1.081320113753728e+00	-3.471671657479281e+01
1	 3.534531826197831e-01	 1.074614962788100e+00	-3.409837078496084e+01
1	 3.744937056757413e-01	 1.067464728276480e+00	-3.340820712414453e+01
1	 3.954833427678466e-01	 1.059867650478237e+00	-3.264730595818526e+01
1	 4.164084699968673e-01	 1.051822489140233e+00	-3.181698094768531e+01
1	 2.047084339883523e-01	 1.106218539478505e+00	-3.637020698885473e+01
1	 2.256253760610303e-01	 1.102142542723649e+00	-3.619524806340299e+01
1	 2.465803392680860e-01	 1.097644349281292e+00	-3.594789876687188e+01
1	 2.675614657195627e-01	 1.092719462922627e+00	-3.562791708107453e+01
1	 2.885566005572319e-01	 1.087363798660611e+00	-3.523525954914455e+01
1	 3.095533081773752e-01	 1.081573702325846e+00	-3.477008815012849e+01
1	 3.305388898350104e-01	 1.075345969477739e+00	-3.423277645730339e+01
1	 3.515004026065428e-01	 1.068677863545342e+00	-3.362391501071564e+01
1	 3.724246796790915e-01	 1.061567133092149e+00	-3.294431583722231e+01
1	 3.932983519258346e-01	 1.054012028099855e+00	-3.219501605488153e+01
1	 4.141078707177027e-01	 1.046011315167551e+00	-3.137728050290143e+01
1	 4.371138635313860e-01	 1.104123054871417e+00	-3.594424401712216e+01
1	 4.589967084020292e-01	 1.095206983131104e+00	-3.480338965822147e+01
1	 4.807827331609159e-01	 1.085819657472461e+00	-3.361322462492840e+01
1	 5.024572244438421e-01	 1.075961495465320e+00	-3.237515115223851e+01
1	 5.240053874469326e-01	 1.065633510630440e+00	-3.109070551158363e+01
1	 5.454123754163056e-01	 1.054837321236962e+00	-2.976155552157735e+01
1	 5.666633199332340e-01	 1.043575157382950e+00	-2.838949739136016e+01
1	 5.877433618801858e-01	 1.031849866285923e+00	-2.697645189797728e+01
1	 6.086376829660081e-01	 1.019664915718898e+00	-2.552445990446132e+01
1	 6.293315376821046e-01	 1.007024395536815e+00	-2.403567723064010e+01
1	 6.498102855558567e-01	 9.939330172482528e-01	-2.251236889407686e+01
1	 4.348132642478140e-01	 1.098311880903327e+00	-3.547127116247889e+01
1	 4.565809362504701e-01	 1.089442735856025e+00	-3.434763077151184e+01
1	 4.782522977209434e-01	 1.080104817174145e+00	-3.317501592192268e+01
1	 4.998127127337895e-01	 1.070298540229784e+00	-3.195483992935672e+01
1	 5.212474643525224e-01	 1.060024913209378e+00	-3.068864881169727e+01
1	 5.425417839640710e-01	 1.049285545864866e+00	-2.937811869933323e+01
1	 5.636808814045438e-01	 1.038082656556951e+00	-2.802505258275652e+01
1	 5.846499757622907e-01	 1.026419077517798e+00	-2.663137639975130e+01
1	 6.054343267371657e-01	 1.014298258268986e+00	-2.519913446966418e+01
1	 6.260192664285125e-01	 1.001724267139904e+00	-2.373048428756139e+01
1	 6.463902314188320e-01	 9.887017908417167e-01	-2.222769069643327e+01
1	 4.325126649647315e-01	 1.092500706934726e+00	-3.500176139363577e+01
1	 4.541651640994911e-01	 1.083678488580530e+00	-3.389522226030834e+01
1	 4.757218622816225e-01	 1.074389976875500e+00	-3.274004851096322e+01
1	 4.971682010244404e-01	 1.064635584993993e+00	-3.153766478313822e+01
1	 5.184895412588481e-01	 1.054416315788130e+00	-3.028962707699143e+01
1	 5.396711925125844e-01	 1.043733770492639e+00	-2.899762006415817e+01
1	 5.606984428765937e-01	 1.032590155730869e+00	-2.766345373866681e+01
1	 5.815565896451080e-01	 1.020988288749625e+00	-2.628905941302072e+01
1	 6.022309705089870e-01	 1.008931600819053e+00	-2.487648506775745e+01
1	 6.227069951755153e-01	 9.964241387429874e-01	-2.342789006808008e+01
1	 6.429701772823128e-01	 9.834705644351802e-01	-2.194553926648352e+01
1	 4.302120656821389e-01	 1.086689532965615e+00	-3.453577026811585e+01
1	 4.517493919490924e-01	 1.077914241304621e+00	-3.344621787394730e+01
1	 4.731914268429529e-01	 1.068675136576525e+00	-3.230837439138526e+01
1	 4.945236893157948e-01	 1.058972629757951e+00	-3.112367602497029e+01
1	 5.157316181659092e-01	 1.048807718366695e+00	-2.989368899674469e+01
1	 5.368006010618459e-01	 1.038181995120283e+00	-2.862010675274119e+01
1	 5.577160043493840e-01	 1.027097654904702e+00	-2.730474651627322e+01
1	 5.784632035286376e-01	 1.015557499981405e+00	-2.594954519197840e+01
1	 5.990276142814724e-01	 1.003564943369099e+00	-2.455655462974783e+01
1	 6.193947239231132e-01	 9.911240103460658e-01	-2.312793626294700e+01
1	 6.395501231462982e-01	 9.782393380286440e-01	-2.166595514060510e+01
1	 4.279114664000359e-01	 1.080878358995994e+00	-3.407335453822779e+01
1	 4.493336197992739e-01	 1.072149994028297e+00	-3.300067251766561e+01
1	 4.706609914049351e-01	 1.062960296277222e+00	-3.188004668078937e+01
1	 4.918791776078523e-01	 1.053309674521655e+00	-3.071292504820680e+01
1	 5.129736950737062e-01	 1.043199120945074e+00	-2.950088430731683e+01
1	 5.339300096118552e-01	 1.032630219747797e+00	-2.824562691546288e+01
1	 5.547335658229146e-01	 1.021605154078453e+00	-2.694897755463388e+01
1	 5.753698174128794e-01	 1.010126711213138e+00	-2.561287894252042e+01
1	 5.958242580546216e-01	 9.981982859191234e-01	-2.423938700988940e+01
1	 6.160824526713058e-01	 9.858238819491389e-01	-2.283066545948818e+01
1	 6.361300690107894e-01	 9.730081116221079e-01	-2.138897972692574e+01
1	 4.256108671184228e-01	 1.075067185025862e+00	-3.361457218335678e+01
1	 4.469178476500356e-01	 1.066385746751557e+00	-3.255864228383992e+01
1	 4.681305559675688e-01	 1.057245455977589e+00	-3.145511964526433e+01
1	 4.892346659006134e-01	 1.047646719285106e+00	-3.030546435740814e+01
1	 5.102157719822389e-01	 1.037590523523266e+00	-2.911126382044894e+01
1	 5.310594181626130e-01	 1.027078444375181e+00	-2.787422974379365e+01
1	 5.517511272971855e-01	 1.016112653252120e+00	-2.659619450121780e+01
1	 5.722764312978337e-01	 1.004695922444825e+00	-2.527910684796768e+01
1	 5.926209018284351e-01	 9.928316284691274e-01	-2.392502701063664e+01
1	 6.127701814200934e-01	 9.805237535522067e-01	-2.253612116583632e+01
1	 6.327100148757860e-01	 9.677768852155717e-01	-2.111465532888435e+01
1	 4.233102678372992e-01	 1.069256011055220e+00	-3.315948244330976e+01
1	 4.445020755013773e-01	 1.060621499474403e+00	-3.212018448424657e+01
1	 4.656001205308540e-01	 1.051530615677628e+00	-3.103364873059647e+01
1	 4.865901541940780e-01	 1.041983764048305e+00	-2.990134759853896e+01
1	 5.074578488915072e-01	 1.031981926101272e+00	-2.872487945248441e+01
1	 5.281888267141184e-01	 1.021526669002434e+00	-2.750596549858382e+01
1	 5.487686887721968e-01	 1.010620152425703e+00	-2.624644603930933e+01
1	 5.691830451835000e-01	 9.992651336764637e-01	-2.494827609562600e+01
1	 5.894175456029119e-01	 9.874649710191102e-01	-2.361352040841025e+01
1	 6.094579101694759e-01	 9.752236251552688e-01	-2.224434783595361e+01
1	 6.292899607412877e-01	 9.625456588090355e-01	-2.084302516955962e+01
1	 4.210096685566655e-01	 1.063444837084068e+00	-3.270814585275288e+01
1	 4.420863033532995e-01	 1.054857252196834e+00	-3.168535768337824e+01
1	 4.630696850947906e-01	 1.045815775377336e+00	-3.061569059450212e+01
1	 4.839456424882462e-01	 1.036320808811250e+00	-2.950062959015300e+01
1	 5.046999258015112e-01	 1.026373328679092e+00	-2.834178425455065e+01
1	 5.253182352663721e-01	 1.015974893629559e+00	-2.714088553928106e+01
1	 5.457862502479482e-01	 1.005127651599203e+00	-2.589978191630795e+01
1	 5.660896590698790e-01	 9.938343449080557e-01	-2.462043490421853e+01
1	 5.862141893780529e-01	 9.820983135690723e-01	-2.330491398020871e+01
1	 6.061456389194535e-01	 9.699234967583259e-01	-2.195539089547339e+01
1	 6.258699066072946e-01	 9.573144324024995e-01	-2.057413341679708e+01
1	 4.187090692765215e-01	 1.057633663112406e+00	-3.226062427678374e+01
1	 4.396705312058017e-01	 1.049093004918850e+00	-3.125422173285885e+01
1	 4.605392496593788e-01	 1.040100935076716e+00	-3.020130313992219e+01
1	 4.813011307831175e-01	 1.030657853573942e+00	-2.910336635560706e+01
1	 5.019420027122508e-01	 1.020764731256725e+00	-2.796203244373386e+01
1	 5.224476438193738e-01	 1.010423118256553e+00	-2.677904235411261e+01
1	 5.428038117244400e-01	 9.996351507726206e-01	-2.555625297296279e+01
1	 5.629962729569702e-01	 9.884035561396007e-01	-2.429563255221964e+01
1	 5.830108331538579e-01	 9.767316561190134e-01	-2.299925553109618e+01
1	 6.028333676700259e-01	 9.646233683613780e-01	-2.166929676839496e+01
1	 6.224498524738070e-01	 9.520832059959630e-01	-2.030802520916424e+01
1	 4.164084699968673e-01	 1.051822489140233e+00	-3.181698094768532e+01
1	 4.372547590588844e-01	 1.043328757640451e+00	-3.082683780700065e+01
1	 4.580088142246186e-01	 1.034386094775767e+00	-2.979054554942025e+01
1	 4.786566190786925e-01	 1.024994898336382e+00	-2.870961515634383e+01
1	 4.991840796237262e-01	 1.015156133834171e+00	-2.758567943528767e+01
1	 5.195770523731235e-01	 1.004871342883417e+00	-2.642048959126646e+01
1	 5.398213732016722e-01	 9.941426499459538e-01	-2.521591117357549e+01
1	 5.599028868447736e-01	 9.829727673710987e-01	-2.397391940713177e+01
1	 5.798074769303267e-01	 9.713649986689333e-01	-2.269659392260245e+01
1	 5.995210964211934e-01	 9.593232399644248e-01	-2.138611290466198e+01
1	 6.190297983408248e-01	 9.468519795894269e-01	-2.004474668276609e+01
1	 4.141078707177027e-01	 1.046011315167551e+00	-3.137728050290143e+01
1	 4.348389869125469e-01	 1.037564510361637e+00	-3.040326843954505e+01
1	 4.554783787905097e-01	 1.028671254474488e+00	-2.938347832072843e+01
1	 4.760121073749708e-01	 1.019331943098569e+00	-2.831943452628197e+01
1	 4.964261565359374e-01	 1.009547536411432e+00	-2.721278187591592e+01
1	 5.167064609276211e-01	 9.993195675101514e-01	-2.606528209111229e+01
1	 5.368389346796447e-01	 9.886501491192041e-01	-2.487880963721026e+01
1	 5.568095007332894e-01	 9.775419786025497e-01	-2.365534695573443e+01
1	 5.766041207074594e-01	 9.659983412188325e-01	-2.239697910206916e+01
1	 5.962088251729557e-01	 9.540231115674662e-01	-2.110588780866114e+01
1	 6.156097442083479e-01	 9.416207531828905e-01	-1.978434499895442e+01
1	 6.498102855558567e-01	 9.939330172482528e-01	-2.251236889407685e+01
1	 6.700599292794668e-01	 9.803957771549096e-01	-2.090844411697800e+01
1	 6.900656035904075e-01	 9.664189647939483e-01	-1.929471972507008e+01
1	 7.098131767057972e-01	 9.520091344963337e-01	-1.767327043726128e+01
1	 7.292887510799975e-01	 9.371734404727102e-01	-1.604617651247380e+01
1	 7.484786950096572e-01	 9.219196263225543e-01	-1.441551688663058e+01
1	 7.673696736692042e-01	 9.062560125561581e-01	-1.278336229762504e+01
1	 7.859486794315763e-01	 8.901914821662110e-01	-1.115176844040876e+01
1	 8.042030613318019e-01	 8.737354642978392e-01	-9.522769194360084e+00
1	 8.221205535349499e-01	 8.568979160778017e-01	-7.898369964708437e+00
1	 8.396893026750000e-01	 8.396893026750000e-01	-6.280541178999193e+00
1	 6.463902314188320e-01	 9.887017908417167e-01	-2.222769069643327e+01
1	 6.665332980703340e-01	 9.752357993798492e-01	-2.064524212492553e+01
1	 6.864336793586804e-01	 9.613325491886883e-01	-1.905033766662177e+01
1	 7.060773178787946e-01	 9.469985601027209e-01	-1.744509541056204e+01
1	 7.254503892300148e-01	 9.322409486788521e-01	-1.583164925387680e+01
1	 7.445393334547979e-01	 9.170674177607722e-01	-1.421214189562040e+01
1	 7.633308859108623e-01	 9.014862440666145e-01	-1.258871776282979e+01
1	 7.818121074323422e-01	 8.855062638364749e-01	-1.096351591167850e+01
1	 7.999704136382918e-01	 8.691368565884007e-01	-9.338662947093400e+00
1	 8.177936032508053e-01	 8.523879270432204e-01	-7.716266004284799e+00
1	 8.352698852900002e-01	 8.352698852900002e-01	-6.098405835291898e+00
1	 6.429701772823128e-01	 9.834705644351802e-01	-2.194553926648351e+01
1	 6.630066668616108e-01	 9.700758216047888e-01	-2.038427655422331e+01
1	 6.828017551272778e-01	 9.562461335834281e-01	-1.880787444833955e+01
1	 7.023414590520412e-01	 9.419879857091084e-01	-1.721849486640595e+01
1	 7.216120273802159e-01	 9.273084568849942e-01	-1.561832587441759e+01
1	 7.405999719000660e-01	 9.122152091989904e-01	-1.400957453625690e+01
1	 7.592920981526022e-01	 8.967164755770705e-01	-1.239445963927106e+01
1	 7.776755354331539e-01	 8.808210455067382e-01	-1.077520433957283e+01
1	 7.957377659448016e-01	 8.645382488789618e-01	-9.154028771647338e+00
1	 8.134666529666659e-01	 8.478779380086393e-01	-7.533142667398287e+00
1	 8.308504679049998e-01	 8.308504679049998e-01	-5.914738029875014e+00
1	 6.395501231462982e-01	 9.782393380286440e-01	-2.166595514060510e+01
1	 6.594800356532982e-01	 9.649158438297281e-01	-2.012558328328665e+01
1	 6.791698308962000e-01	 9.511597179781679e-01	-1.856736085375400e+01
1	 6.986056002255367e-01	 9.369774113154957e-01	-1.699349406386965e+01
1	 7.177736655306000e-01	 9.223759650911364e-01	-1.540622568766388e+01
1	 7.366606103454610e-01	 9.073630006372082e-01	-1.380782776519632e+01
1	 7.552533103944238e-01	 8.919467070875267e-01	-1.220059412605877e+01
1	 7.735389634340116e-01	 8.761358271770018e-01	-1.058683277687154e+01
1	 7.915051182513319e-01	 8.599396411695227e-01	-8.968858198585176e+00
1	 8.091397026825312e-01	 8.433679489740582e-01	-7.348983600415507e+00
1	 8.264310505199999e-01	 8.264310505199999e-01	-5.729513177801312e+00
1	 6.361300690107894e-01	 9.730081116221079e-01	-2.138897972692574e+01
1	 6.559534044453951e-01	 9.597558660546671e-01	-1.986919896210975e+01
1	 6.755379066654469e-01	 9.460733023729081e-01	-1.832882832840665e+01
1	 6.948697413992811e-01	 9.319668369218831e-01	-1.677011880523606e+01
1	 7.139353036811673e-01	 9.174434732972785e-01	-1.519536842252882e+01
1	 7.327212487909834e-01	 9.025107920754262e-01	-1.360691481773291e+01
1	 7.512145226363264e-01	 8.871769385979825e-01	-1.200712755561716e+01
1	 7.694023914349153e-01	 8.714506088472656e-01	-1.039840025598356e+01
1	 7.872724705578831e-01	 8.553410334600839e-01	-8.783142576332368e+00
1	 8.048127523984018e-01	 8.388579599394769e-01	-7.163772098012201e+00
1	 8.220116331350000e-01	 8.220116331350000e-01	-5.542706165414823e+00
1	 6.327100148757860e-01	 9.677768852155717e-01	-2.111465532888435e+01
1	 6.524267732379025e-01	 9.545958882796065e-01	-1.961516103311939e+01
1	 6.719059824350182e-01	 9.409868867676480e-01	-1.809230899774321e+01
1	 6.911338825732743e-01	 9.269562625282705e-01	-1.654839545067496e+01
1	 7.100969418319178e-01	 9.125109815034207e-01	-1.498577423449720e+01
1	 7.287818872366335e-01	 8.976585835136446e-01	-1.340684921532968e+01
1	 7.471757348783112e-01	 8.824071701084386e-01	-1.181406639728764e+01
1	 7.652658194358649e-01	 8.667653905175290e-01	-1.020990578839734e+01
1	 7.830398228644541e-01	 8.507424257506453e-01	-8.596873066252765e+00
1	 8.004858021142776e-01	 8.343479709048957e-01	-6.977491093667678e+00
1	 8.175922157499997e-01	 8.175922157500000e-01	-5.354291336061976e+00
1	 6.292899607412877e-01	 9.625456588090355e-01	-2.084302516955962e+01
1	 6.489001420308200e-01	 9.494359105045460e-01	-1.936350775270770e+01
1	 6.682740582049143e-01	 9.359004711623879e-01	-1.785783568558821e+01
1	 6.873980237475168e-01	 9.219456881346578e-01	-1.632835093340355e+01
1	 7.062585799828511e-01	 9.075784897095625e-01	-1.477746371721626e+01
1	 7.248425256824108e-01	 8.928063749518624e-01	-1.320764477339390e+01
1	 7.431369471203774e-01	 8.776374016188946e-01	-1.162141726104951e+01
1	 7.611292474368603e-01	 8.620801721877924e-01	-1.002134836411165e+01
1	 7.788071751710460e-01	 8.461438180412068e-01	-8.410040637566350e+00
1	 7.961588518301582e-01	 8.298379818703144e-01	-6.790123149850120e+00
1	 8.131727983649999e-01	 8.131727983649999e-01	-5.164242475335638e+00
1	 6.258699066072946e-01	 9.573144324024995e-01	-2.057413341679708e+01
1	 6.453735108241478e-01	 9.442759327294854e-01	-1.911427821347245e+01
1	 6.646421339751349e-01	 9.308140555571276e-01	-1.762544193322690e+01
1	 6.836621649220078e-01	 9.169351137410451e-01	-1.611001277534316e+01
1	 7.024202181339679e-01	 9.026459979157049e-01	-1.457045791446753e+01
1	 7.209031641283153e-01	 8.879541663900805e-01	-1.300931560930967e+01
1	 7.390981593625252e-01	 8.728676331293509e-01	-1.142918690136254e+01
1	 7.569926754379019e-01	 8.573949538580562e-01	-9.832726951049013e+00
1	 7.745745274776582e-01	 8.415452103317679e-01	-8.222636062098784e+00
1	 7.918319015460443e-01	 8.253279928357332e-01	-6.601650447879555e+00
1	 8.087533809799997e-01	 8.087533809799997e-01	-4.972532795836122e+00
1	 6.224498524738070e-01	 9.520832059959630e-01	-2.030802520916424e+01
1	 6.418468796178857e-01	 9.391159549544248e-01	-1.886751236718943e+01
1	 6.610102097456801e-01	 9.257276399518675e-01	-1.739516201911601e+01
1	 6.799263060967479e-01	 9.119245393474323e-01	-1.589340910329279e+01
1	 6.985818562852678e-01	 8.977135061218469e-01	-1.436477833253351e+01
1	 7.169638025743473e-01	 8.831019578282984e-01	-1.281187615073265e+01
1	 7.350593716047545e-01	 8.680978646398069e-01	-1.123738222113609e+01
1	 7.528561034389892e-01	 8.527097355283200e-01	-9.644040494448705e+00
1	 7.703418797842906e-01	 8.369466026223291e-01	-8.034649908858785e+00
1	 7.875049512619351e-01	 8.208180038011519e-01	-6.412054777456311e+00
1	 8.043339635950000e-01	 8.043339635950000e-01	-4.779134921429852e+00
1	 6.190297983408248e-01	 9.468519795894269e-01	-2.004474668276609e+01
1	 6.383202484120336e-01	 9.339559771793643e-01	-1.862325104854652e+01
1	 6.573782855165503e-01	 9.206412243466077e-01	-1.716703097924696e+01
1	 6.761904472717370e-01	 9.069139649538197e-01	-1.567856866563790e+01
1	 6.947434944367508e-01	 8.927810143279887e-01	-1.416044695297332e+01
1	 7.130244410205064e-01	 8.782497492665162e-01	-1.261534114416226e+01
1	 7.310205838470655e-01	 8.633280961502632e-01	-1.104601027583005e+01
1	 7.487195314401226e-01	 8.480245171985834e-01	-9.455287916240412e+00
1	 7.661092320909435e-01	 8.323479949128902e-01	-7.846072538435145e+00
1	 7.831780009778315e-01	 8.163080147665708e-01	-6.221317525843709e+00
1	 7.999145462100000e-01	 7.999145462099999e-01	-4.584020870985678e+00
1	 6.156097442083479e-01	 9.416207531828905e-01	-1.978434499895442e+01
1	 6.347936172065917e-01	 9.287959994043036e-01	-1.838153599966926e+01
1	 6.537463612877449e-01	 9.155548087413472e-01	-1.694108462818904e+01
1	 6.724545884469753e-01	 9.019033905602073e-01	-1.546552084961692e+01
1	 6.909051325884170e-01	 8.878485225341313e-01	-1.395748624582543e+01
1	 7.090850794667932e-01	 8.733975407047344e-01	-1.241972566379744e+01
1	 7.269817960894578e-01	 8.585583276607190e-01	-1.085507827769256e+01
1	 7.445829594413018e-01	 8.433392988688471e-01	-9.266468114396757e+00
1	 7.618765843976170e-01	 8.277493872034515e-01	-7.656894097208074e+00
1	 7.788510506937329e-01	 8.117980257319894e-01	-6.029419666687979e+00
1	 7.954951288250000e-01	 7.954951288249998e-01	-4.387162041569663e+00
1	 8.396893026750000e-01	 8.396893026750000e-01	-6.280541178999193e+00
1	 8.568979073238981e-01	 8.221205668737417e-01	-4.752329445727335e+00
1	 8.737354293854029e-01	 8.042031145719987e-01	-3.228790815063787e+00
1	 8.901914038573249e-01	 7.859487989337566e-01	-1.712516274262456e+00
1	 9.062558737950196e-01	 7.673698855531539e-01	-2.060631676621949e-01
1	 9.219194102501908e-01	 7.484790251165743e-01	 1.288053538794352e+00
1	 9.371731304409896e-01	 7.292892249357967e-01	 2.767369736460724e+00
1	 9.520087140812531e-01	 7.098138194856374e-01	 4.229480345511167e+00
1	 9.664184178081811e-01	 6.900664400845540e-01	 5.672047131172132e+00
1	 9.803950876596084e-01	 6.700609838606032e-01	 7.092806120058954e+00
1	 9.939321695640972e-01	 6.498115821479387e-01	 8.489574575728049e+00
1	 8.352698852900002e-01	 8.352698852900002e-01	-6.098405835291898e+00
1	 8.523879183353902e-01	 8.177936165193931e-01	-4.567095485729581e+00
1	 8.691368218597139e-01	 7.999704665982768e-01	-3.042066285919895e+00
1	 8.855061859397407e-01	 7.818122263055637e-01	-1.525891532906412e+00
1	 9.014861060357975e-01	 7.633310966796332e-01	-2.110492649026829e-02
1	 9.170672028256317e-01	 7.445396618243100e-01	 1.469808044296326e+00
1	 9.322406402788779e-01	 7.254508605918365e-01	 2.944418427701582e+00
1	 9.469981419003511e-01	 7.060779572755831e-01	 4.400361799161658e+00
1	 9.613320050817935e-01	 6.864345114502260e-01	 5.835345868129703e+00
1	 9.752351135134703e-01	 6.665343471010432e-01	 7.247157658884362e+00
1	 9.887009476190566e-01	 6.463915211867451e-01	 8.633670226284368e+00
1	 8.308504679049998e-01	 8.308504679049998e-01	-5.914738029875014e+00
1	 8.478779293468822e-01	 8.134666661650491e-01	-4.380347809391179e+00
1	 8.645382143340248e-01	 7.957378186245752e-01	-2.853863701017881e+00
1	 8.808209680221561e-01	 7.776756536774165e-01	-1.337841226536634e+00
1	 8.967163382765755e-01	 7.592923078061945e-01	 1.652096868939577e-01
1	 9.122149954010728e-01	 7.406002985321731e-01	 1.652833197720600e+00
1	 9.273081501167657e-01	 7.216124962480598e-01	 3.122635723325033e+00
1	 9.419875697194492e-01	 7.023420950657777e-01	 4.572293747327747e+00
1	 9.562455923554057e-01	 6.828025828162227e-01	 5.999561215839877e+00
1	 9.700751393673324e-01	 6.630077103418929e-01	 7.402276481389481e+00
1	 9.834697256740160e-01	 6.429714602260567e-01	 8.778368757357425e+00
1	 8.264310505199999e-01	 8.264310505199999e-01	-5.729513177801312e+00
1	 8.433679403583743e-01	 8.091397158107105e-01	-4.192062132492787e+00
1	 8.599396068083356e-01	 7.915051706508940e-01	-2.664159348233142e+00
1	 8.761357501045718e-01	 7.735390810493158e-01	-1.148342485126120e+00
1	 8.919465705173534e-01	 7.552535189328372e-01	 3.529024324728476e-01
1	 9.073627879765137e-01	 7.366609352401634e-01	 1.837149383793630e+00
1	 9.223756599546534e-01	 7.177741319044658e-01	 3.302040370995372e+00
1	 9.369769975385480e-01	 6.986062328562216e-01	 4.745293042863113e+00
1	 9.511591796290180e-01	 6.791706541825441e-01	 6.164707879288241e+00
1	 9.649151652211942e-01	 6.594810735831532e-01	 7.558174896938457e+00
1	 9.782385037289751e-01	 6.395513992658737e-01	 8.923679840827731e+00
1	 8.220116331350000e-01	 8.220116331350000e-01	-5.542706165414823e+00
1	 8.388579513698659e-01	 8.048127654563768e-01	-4.002213648573641e+00
1	 8.553409992826465e-01	 7.872725226772332e-01	-2.472929005502934e+00
1	 8.714505321869875e-01	 7.694025084212605e-01	-9.573719468189559e-01
1	 8.871768027581314e-01	 7.512147300595617e-01	 5.419955381853557e-01
1	 9.025105805519545e-01	 7.327215719482812e-01	 2.022777425622980e+00
1	 9.174431697925415e-01	 7.139357675610550e-01	 3.482651521552604e+00
1	 9.319664253576462e-01	 6.948703706469138e-01	 4.919376901048354e+00
1	 9.460727669026303e-01	 6.755387255491900e-01	 6.330800879697079e+00
1	 9.597551910750562e-01	 6.559544368248232e-01	 7.714865479613088e+00
1	 9.730072817839345e-01	 6.361313383061959e-01	 9.069613356573267e+00
1	 8.175922157499997e-01	 8.175922157500000e-01	-5.354291336061976e+00
1	 8.343479623813580e-01	 8.004858151020483e-01	-3.810777014817059e+00
1	 8.507423917569572e-01	 7.830398747035930e-01	-2.280147927044183e+00
1	 8.667653142694028e-01	 7.652659357932511e-01	-7.649057446383722e-01
1	 8.824070349989090e-01	 7.471759411863675e-01	 7.325117125744854e-01
1	 8.976583731273956e-01	 7.287822086565262e-01	 2.209738596545664e+00
1	 9.125106796304295e-01	 7.100974032178277e-01	 3.664488739908782e+00
1	 9.269558531767444e-01	 6.911345084378556e-01	 5.094562909386538e+00
1	 9.409863541762425e-01	 6.719067969161607e-01	 6.497855563071615e+00
1	 9.545952169289182e-01	 6.524278000669037e-01	 7.872361075367518e+00
1	 9.677760598388937e-01	 6.327112773470235e-01	 9.216179398090713e+00
1	 8.131727983649999e-01	 8.131727983649999e-01	-5.164242475335638e+00
1	 8.298379733928496e-01	 7.961588647477249e-01	-3.617726337475618e+00
1	 8.461437842312682e-01	 7.788072267299734e-01	-2.085790829122097e+00
1	 8.620800963518188e-01	 7.611293631652879e-01	-5.709194927600079e-01
1	 8.776372672396869e-01	 7.431371523132551e-01	 9.244741578472176e-01
1	 8.928061657028366e-01	 7.248428453648987e-01	 2.398054632362590e+00
1	 9.075781894683173e-01	 7.062590388747831e-01	 3.847572016300187e+00
1	 9.219452809958426e-01	 6.873986462290459e-01	 5.270869037717556e+00
1	 9.358999414498551e-01	 6.682748682834561e-01	 6.665887609026020e+00
1	 9.494352427827801e-01	 6.489011633093943e-01	 8.030674809415480e+00
1	 9.625448378938530e-01	 6.292912163883564e-01	 9.363388278301013e+00
1	 8.087533809799997e-01	 8.087533809799997e-01	-4.972532795836122e+00
1	 8.253279844043417e-01	 7.918319143934071e-01	-3.423035156818326e+00
1	 8.415451767055789e-01	 7.745745787563737e-01	-1.889831875351673e+00
1	 8.573948784342343e-01	 7.569927905373703e-01	-3.753882723361466e-01
1	 8.728674994804649e-01	 7.390983634402239e-01	 1.117906583362694e+00
1	 8.879539582782775e-01	 7.209034820733985e-01	 2.587747743973923e+00
1	 9.026456993062058e-01	 7.024206745319221e-01	 4.031921777908456e+00
1	 9.169347088149410e-01	 6.836627840204855e-01	 5.448313648664766e+00
1	 9.308135287234677e-01	 6.646429396510760e-01	 6.834913039898264e+00
1	 9.442752686366422e-01	 6.453745265522948e-01	 8.189820093860785e+00
1	 9.573136159488124e-01	 6.258711554301946e-01	 9.511250535543853e+00
1	 8.043339635950000e-01	 8.043339635950000e-01	-4.779134921429852e+00
1	 8.208179954158337e-01	 7.875049640390939e-01	-3.226676431581536e+00
1	 8.369465691798896e-01	 7.703419307827946e-01	-1.692244661515526e+00
1	 8.527096605166501e-01	 7.528562179094987e-01	-1.782866168520669e-01
1	 8.680977317212426e-01	 7.350595745672746e-01	 1.312833219564795e+00
1	 8.831017508537184e-01	 7.169641187820255e-01	 2.778840630431898e+00
1	 8.977132091440937e-01	 6.985823101892440e-01	 4.217558900863720e+00
1	 9.119241366340396e-01	 6.799269218121738e-01	 5.626915508425733e+00
1	 9.257271159970799e-01	 6.610110110190206e-01	 7.004948230165565e+00
1	 9.391152944905043e-01	 6.418478897956057e-01	 8.349810635578578e+00
1	 9.520823940037716e-01	 6.224510944725381e-01	 9.659776939770842e+00
1	 7.999145462100000e-01	 7.999145462099999e-01	-4.584020870985678e+00
1	 8.163080064273256e-01	 7.831780136847858e-01	-3.028622522904850e+00
1	 8.323479616542008e-01	 7.661092828092362e-01	-1.493002199877663e+00
1	 8.480244425990656e-01	 7.487196452816733e-01	 2.041150300300765e-02
1	 8.633279639620205e-01	 7.310207856944069e-01	 1.509278832376904e+00
1	 8.782495434291594e-01	 7.130247554907801e-01	 2.971356492424824e+00
1	 8.927807189819815e-01	 6.947439458467490e-01	 4.404504722647582e+00
1	 9.069135644531376e-01	 6.761910596041111e-01	 5.806693797920534e+00
1	 9.206407032706923e-01	 6.573790823872897e-01	 7.176009916172225e+00
1	 9.339553203443663e-01	 6.383212530393266e-01	 8.510660444358741e+00
1	 9.468511720587310e-01	 6.190310335153869e-01	 9.808978498943834e+00
1	 7.954951288250000e-01	 7.954951288249998e-01	-4.387162041569663e+00
1	 8.117980174388175e-01	 7.788510633304829e-01	-2.828845177730691e+00
1	 8.277493541285117e-01	 7.618766348356980e-01	-1.292076902974425e+00
1	 8.433392246814813e-01	 7.445830726538936e-01	 2.207326949687733e-01
1	 8.585581962027985e-01	 7.269819968216206e-01	 1.707268738076114e+00
1	 8.733973360046002e-01	 7.090853921996618e-01	 3.165319046212195e+00
1	 8.878482288198695e-01	 6.909055815044373e-01	 4.592781054907939e+00
1	 9.019029922722358e-01	 6.724551973962973e-01	 5.987668124312265e+00
1	 9.155542905443046e-01	 6.537471537558835e-01	 7.348115206181102e+00
1	 9.287953461982282e-01	 6.347946162834576e-01	 8.672383841319556e+00
1	 9.416199501136904e-01	 6.156109725587410e-01	 9.958866465645652e+00
1	 9.939321695640972e-01	 6.498115821479387e-01	 8.489574575728049e+00
1	 1.007023717819563e+00	 6.293325684616293e-01	 9.369904871340939e+00
1	 1.019664401547349e+00	 6.086384461952835e-01	 1.020689095062241e+01
1	 1.031849509122004e+00	 5.877438561902473e-01	 1.099932767776452e+01
1	 1.043574950589053e+00	 5.666635443231887e-01	 1.174613723616448e+01
1	 1.054837258093266e+00	 5.454123292515076e-01	 1.244637088927729e+01
1	 1.065633584352145e+00	 5.240050704560125e-01	 1.309921010235896e+01
1	 1.075961699219711e+00	 5.024566367146296e-01	 1.370396703262319e+01
1	 1.085819984395729e+00	 4.807818751352932e-01	 1.426008440002060e+01
1	 1.095207426344859e+00	 4.589955808697619e-01	 1.476713475527584e+01
1	 1.104123607498825e+00	 4.371124676229823e-01	 1.522481916594398e+01
1	 9.887009476190566e-01	 6.463915211867451e-01	 8.633670226284368e+00
1	 1.001723592989584e+00	 6.260202917828817e-01	 9.503219158327003e+00
1	 1.014297746803603e+00	 6.054350859494450e-01	 1.033103080600033e+01
1	 1.026418722233689e+00	 5.846504674707200e-01	 1.111578772284793e+01
1	 1.038082450851442e+00	 5.636811046134986e-01	 1.185629585874206e+01
1	 1.049285483053505e+00	 5.425417380422455e-01	 1.255148688506783e+01
1	 1.060024986543074e+00	 5.212471490299758e-01	 1.320041988677650e+01
1	 1.070298742911783e+00	 4.998121280978888e-01	 1.380228242494172e+01
1	 1.080105142376764e+00	 4.782514442112450e-01	 1.435639097822717e+01
1	 1.089443176737076e+00	 4.565798146525832e-01	 1.486219077621979e+01
1	 1.098312430622169e+00	 4.348118756862965e-01	 1.531925504187074e+01
1	 9.834697256740160e-01	 6.429714602260567e-01	 8.778368757357423e+00
1	 9.964234681596009e-01	 6.227080151047291e-01	 9.637599695985433e+00
1	 1.008931092059835e+00	 6.022317257042701e-01	 1.045671480899099e+01
1	 1.020987935345326e+00	 5.815570787519054e-01	 1.123428333625840e+01
1	 1.032589951113749e+00	 5.606986649045488e-01	 1.196899396893511e+01
1	 1.043733708013614e+00	 5.396711468337314e-01	 1.265965774285518e+01
1	 1.054416388733817e+00	 5.184892276046745e-01	 1.330521030482304e+01
1	 1.064635786603601e+00	 4.971676194818513e-01	 1.390471355147901e+01
1	 1.074390300357470e+00	 4.757210132878483e-01	 1.445735664532775e+01
1	 1.083678927128878e+00	 4.541640484359845e-01	 1.496245641718541e+01
1	 1.092501253745004e+00	 4.325112837501006e-01	 1.541945716874133e+01
1	 9.782385037289751e-01	 6.395513992658737e-01	 8.923679840827733e+00
1	 9.911233433296120e-01	 6.193957384271715e-01	 9.773063589942538e+00
1	 1.003564437316047e+00	 5.990283654597595e-01	 1.058396773201648e+01
1	 1.015557148456916e+00	 5.784636900338032e-01	 1.135484717417271e+01
1	 1.027097451375971e+00	 5.577162251963393e-01	 1.208427230718708e+01
1	 1.038181932973593e+00	 5.368005556259656e-01	 1.277093247112094e+01
1	 1.048807790924374e+00	 5.157313061801091e-01	 1.341363879981926e+01
1	 1.058972830295167e+00	 4.945231108665172e-01	 1.401132644005685e+01
1	 1.068675458337847e+00	 4.731905823651034e-01	 1.456305614606393e+01
1	 1.077914677520265e+00	 4.517482822199662e-01	 1.506801525496419e+01
1	 1.086690076867327e+00	 4.302106918143943e-01	 1.552551805325463e+01
1	 9.730072817839345e-01	 6.361313383061959e-01	 9.069613356573267e+00
1	 9.858232184996177e-01	 6.160834617502087e-01	 9.909628313687318e+00
1	 9.981977825722382e-01	 5.958250052159123e-01	 1.071281488023898e+01
1	 1.010126361568459e+00	 5.753703013164130e-01	 1.147751259505113e+01
1	 1.021604951638111e+00	 5.547337854888702e-01	 1.220217249008007e+01
1	 1.032630157933442e+00	 5.339299644189478e-01	 1.288536113229256e+01
1	 1.043199193114743e+00	 5.129733847562794e-01	 1.352576405042598e+01
1	 1.053309873986479e+00	 4.918786022518866e-01	 1.412218853845034e+01
1	 1.062960616317895e+00	 4.706601514430098e-01	 1.467356583259107e+01
1	 1.072150427911236e+00	 4.493325160045281e-01	 1.517895266369784e+01
1	 1.080878899989141e+00	 4.279100998791777e-01	 1.563753219150078e+01
1	 9.677760598388937e-01	 6.327112773470235e-01	 9.216179398090713e+00
1	 9.805230936696182e-01	 6.127711850738410e-01	 1.004731171851424e+01
1	 9.928311278284081e-01	 5.926216449727295e-01	 1.084328210595962e+01
1	 1.004695574679956e+00	 5.722769125997353e-01	 1.160231367861785e+01
1	 1.016112451900167e+00	 5.517513457821414e-01	 1.232273703401409e+01
1	 1.027078382893160e+00	 5.310593732126779e-01	 1.300299487122851e+01
1	 1.037590595304926e+00	 5.102154633331850e-01	 1.364164600403187e+01
1	 1.047646917677539e+00	 4.892340936379594e-01	 1.423736875276469e+01
1	 1.057245774297613e+00	 4.681297205215678e-01	 1.478896370792192e+01
1	 1.066386178301793e+00	 4.469167497896700e-01	 1.529535586345547e+01
1	 1.075067723110444e+00	 4.256095079444508e-01	 1.575559612272855e+01
1	 9.625448378938530e-01	 6.292912163883564e-01	 9.363388278301009e+00
1	 9.752229688396138e-01	 6.094589083980683e-01	 1.018613204378924e+01
1	 9.874644730845572e-01	 5.894182847302103e-01	 1.097539582348585e+01
1	 9.992647877914053e-01	 5.691835238837699e-01	 1.172928524546071e+01
1	 1.010619952162139e+00	 5.487689060761527e-01	 1.244600937965881e+01
1	 1.021526607852750e+00	 5.281887820071562e-01	 1.312388594463189e+01
1	 1.031981997494924e+00	 5.074575419108267e-01	 1.376134591122954e+01
1	 1.041983961368346e+00	 4.865895850247358e-01	 1.435693748706417e+01
1	 1.051530932277003e+00	 4.655992896007773e-01	 1.490932947078686e+01
1	 1.060621928691935e+00	 4.445009835753922e-01	 1.541731397039456e+01
1	 1.069256546231237e+00	 4.233089160102137e-01	 1.587980848486594e+01
1	 9.573136159488124e-01	 6.258711554301946e-01	 9.511250535543853e+00
1	 9.699228440096039e-01	 6.061466317228905e-01	 1.032610792755304e+01
1	 9.820978183406850e-01	 5.862149244883549e-01	 1.110918302448713e+01
1	 9.938340009028072e-01	 5.660901351685169e-01	 1.185846287727331e+01
1	 1.005127452424029e+00	 5.457864663709044e-01	 1.257203391720681e+01
1	 1.015974832812209e+00	 5.253181908023824e-01	 1.324808775142891e+01
1	 1.026373399684734e+00	 5.046996204892039e-01	 1.388492636142267e+01
1	 1.036321005058900e+00	 4.839450764122153e-01	 1.448096668429937e+01
1	 1.045816090256063e+00	 4.630688586806381e-01	 1.503474456196500e+01
1	 1.054857679081662e+00	 4.420852173616946e-01	 1.554491804856674e+01
1	 1.063445369351519e+00	 4.210083240764663e-01	 1.601027007186119e+01
1	 9.520823940037716e-01	 6.224510944725381e-01	 9.659776939770842e+00
1	 9.646227191795885e-01	 6.028343550483075e-01	 1.046725841747356e+01
1	 9.767311635967922e-01	 5.830115642471637e-01	 1.124467129385651e+01
1	 9.884032140141624e-01	 5.629967464539760e-01	 1.198988293776451e+01
1	 9.996349526858345e-01	 5.428040266663967e-01	 1.270085601245923e+01
1	 1.010423057771539e+00	 5.224475995983566e-01	 1.337565486414852e+01
1	 1.020764801874358e+00	 5.019416990683170e-01	 1.401245131960599e+01
1	 1.030658048749201e+00	 4.813005678003984e-01	 1.460952986858488e+01
1	 1.040101248234794e+00	 4.605384277611508e-01	 1.516529221214267e+01
1	 1.049093429470974e+00	 4.396694511485774e-01	 1.567826116343114e+01
1	 1.057634192471291e+00	 4.187077321432084e-01	 1.614708389291394e+01
1	 9.468511720587310e-01	 6.190310335153869e-01	 9.808978498943832e+00
1	 9.593225943495680e-01	 5.995220783743194e-01	 1.060960298216171e+01
1	 9.713645088528783e-01	 5.798082040066365e-01	 1.138188882609807e+01
1	 9.829724271254705e-01	 5.599033577401478e-01	 1.212358259426119e+01
1	 9.941424529475568e-01	 5.398215869626289e-01	 1.283252203377640e+01
1	 1.004871282730738e+00	 5.195770083950789e-01	 1.350664306134249e+01
1	 1.015156204063796e+00	 4.991837776481655e-01	 1.414398616436538e+01
1	 1.024995092439249e+00	 4.786560591892849e-01	 1.474270218887743e+01
1	 1.034386406213196e+00	 4.580079968423147e-01	 1.530105749135828e+01
1	 1.043329179859871e+00	 4.372536849360401e-01	 1.581743843714228e+01
1	 1.051823015590553e+00	 4.164071402104405e-01	 1.629035523367020e+01
1	 9.416199501136904e-01	 6.156109725587410e-01	 9.958866465645654e+00
1	 9.540224695195425e-01	 5.962098017009262e-01	 1.075316152286426e+01
1	 9.659978541089433e-01	 5.766048437667730e-01	 1.152086444226013e+01
1	 9.775416402367315e-01	 5.568099690270316e-01	 1.225959984003065e+01
1	 9.886499532091959e-01	 5.368391472596017e-01	 1.296707937992674e+01
1	 9.993195076898076e-01	 5.167064171925493e-01	 1.364110936108595e+01
1	 1.009547606253047e+00	 4.964258562287497e-01	 1.427959772714416e+01
1	 1.019332136129044e+00	 4.760115505788748e-01	 1.488056046411059e+01
1	 1.028671564191268e+00	 4.554775659241303e-01	 1.544212736009557e+01
1	 1.037564930248352e+00	 4.348379187240831e-01	 1.596254710568013e+01
1	 1.046011838709305e+00	 4.141065482781622e-01	 1.644019171945692e+01
1	 1.104123607498825e+00	 4.371124676229823e-01	 1.522481916594398e+01
1	 1.112568695822117e+00	 4.151471390639289e-01	 1.591033883939677e+01
1	 1.120543432830269e+00	 3.931140612393638e-01	 1.656015761453751e+01
1	 1.128049120153916e+00	 3.710275360783328e-01	 1.717168995143344e+01
1	 1.135087604746951e+00	 3.489016760664016e-01	 1.774249934880497e+01
1	 1.141661262843413e+00	 3.267503801639192e-01	 1.827030377192039e+01
1	 1.147772982769477e+00	 3.045873110293171e-01	 1.875298018032291e+01
1	 1.153426146719838e+00	 2.824258735998901e-01	 1.918856816034257e+01
1	 1.158624611609314e+00	 2.602791950729820e-01	 1.957527267393076e+01
1	 1.163372689111265e+00	 2.381601063211083e-01	 1.991146594152112e+01
1	 1.167675124994303e+00	 2.160811247653200e-01	 2.019568848232282e+01
1	 1.098312430622169e+00	 4.348118756862965e-01	 1.531925504187074e+01
1	 1.106713071112472e+00	 4.129621541198925e-01	 1.601423997865829e+01
1	 1.114645835820766e+00	 3.910450398629937e-01	 1.667317676827591e+01
1	 1.122112019526998e+00	 3.690747595713358e-01	 1.729350965810897e+01
1	 1.129113459464256e+00	 3.470653514542461e-01	 1.787283162764070e+01
1	 1.135652519360083e+00	 3.250306413196509e-01	 1.840888970669228e+01
1	 1.141732072338939e+00	 3.029842199172547e-01	 1.889958939999617e+01
1	 1.147355482794498e+00	 2.809394216320510e-01	 1.934299822342755e+01
1	 1.152526587342026e+00	 2.589093045708730e-01	 1.973734836373416e+01
1	 1.157249674961867e+00	 2.369066320753287e-01	 2.008103847970129e+01
1	 1.161529466444907e+00	 2.149438556853072e-01	 2.037263466831931e+01
1	 1.092501253745004e+00	 4.325112837501006e-01	 1.541945716874133e+01
1	 1.100857446402227e+00	 4.107771691762563e-01	 1.612383122418679e+01
1	 1.108748238810594e+00	 3.889760184869557e-01	 1.679180875176407e+01
1	 1.116174918899365e+00	 3.671219830646240e-01	 1.742086393768297e+01
1	 1.123139314180819e+00	 3.452290268423488e-01	 1.800861939291853e+01
1	 1.129643775876004e+00	 3.233109024756347e-01	 1.855285136131535e+01
1	 1.135691161907668e+00	 3.013811288054579e-01	 1.905149404054609e+01
1	 1.141284818868456e+00	 2.794529696645111e-01	 1.950264302162440e+01
1	 1.146428563074090e+00	 2.575394140691160e-01	 1.990455785911709e+01
1	 1.151126660811894e+00	 2.356531578299732e-01	 2.025566379022476e+01
1	 1.155383807895026e+00	 2.138065866058090e-01	 2.055455262646365e+01
1	 1.086690076867327e+00	 4.302106918143943e-01	 1.552551805325463e+01
1	 1.095001821691382e+00	 4.085921842330206e-01	 1.623920386110853e+01
1	 1.102850641799754e+00	 3.869069971112497e-01	 1.691614361039789e+01
1	 1.110237818271018e+00	 3.651692065581969e-01	 1.755384158009378e+01
1	 1.117165168896640e+00	 3.433927022307097e-01	 1.814995016581027e+01
1	 1.123635032391178e+00	 3.215911636318702e-01	 1.870227497728382e+01
1	 1.129650251475661e+00	 2.997780376939266e-01	 1.920877905524843e+01
1	 1.135214154941715e+00	 2.779665176972704e-01	 1.966758621378551e+01
1	 1.140330538805505e+00	 2.561695235677109e-01	 2.007698352059778e+01
1	 1.145003646661344e+00	 2.343996835850416e-01	 2.043542293361213e+01
1	 1.149238149344660e+00	 2.126693175268256e-01	 2.074152211780884e+01
1	 1.080878899989141e+00	 4.279100998791777e-01	 1.563753219150078e+01
1	 1.089146196979938e+00	 4.064071992901853e-01	 1.636045113767059e+01
1	 1.096953044788247e+00	 3.848379757358760e-01	 1.704627332603332e+01
1	 1.104300717641954e+00	 3.632164300520546e-01	 1.769253328474080e+01
1	 1.111191023611719e+00	 3.415563776193288e-01	 1.829691334966362e+01
1	 1.117626288905603e+00	 3.198714247883577e-01	 1.885724865074776e+01
1	 1.123609341042921e+00	 2.981749465826610e-01	 1.937153122433125e+01
1	 1.129143491014272e+00	 2.764800657303287e-01	 1.983791325787836e+01
1	 1.134232514536273e+00	 2.547996330666579e-01	 2.025470947988853e+01
1	 1.138880632510218e+00	 2.331462093405340e-01	 2.062039871362101e+01
1	 1.143092490793807e+00	 2.115320484483569e-01	 2.093362461869956e+01
1	 1.075067723110444e+00	 4.256095079444508e-01	 1.575559612272855e+01
1	 1.083290572267895e+00	 4.042222143477504e-01	 1.648766831829843e+01
1	 1.091055447776072e+00	 3.827689543608347e-01	 1.718229186932314e+01
1	 1.098363617012176e+00	 3.612636535461972e-01	 1.783703171209151e+01
1	 1.105216878326057e+00	 3.397200530082061e-01	 1.844960028087145e+01
1	 1.111617545419281e+00	 3.181516859450971e-01	 1.901786238263882e+01
1	 1.117568430609446e+00	 2.965718554716610e-01	 1.953983920435186e+01
1	 1.123072827086128e+00	 2.749936137636861e-01	 2.001371145961032e+01
1	 1.128134490266393e+00	 2.534297425659569e-01	 2.043782168776569e+01
1	 1.132757618358517e+00	 2.318927350964504e-01	 2.081067572436071e+01
1	 1.136946832242470e+00	 2.103947793704027e-01	 2.113094336713122e+01
1	 1.069256546231237e+00	 4.233089160102137e-01	 1.587980848486595e+01
1	 1.077434947555251e+00	 4.020372294057158e-01	 1.662095273838309e+01
1	 1.085157850763229e+00	 3.806999329861255e-01	 1.732429525376033e+01
1	 1.092426516381683e+00	 3.593108770406246e-01	 1.798743153697131e+01
1	 1.099242733039653e+00	 3.378837283973416e-01	 1.860810428140050e+01
1	 1.105608801932210e+00	 3.164319471020883e-01	 1.918420813043067e+01
1	 1.111527520175237e+00	 2.949687643609266e-01	 1.971379357918401e+01
1	 1.117002163157283e+00	 2.735071617973426e-01	 2.019507002263900e+01
1	 1.122036465995865e+00	 2.520598520656079e-01	 2.062640796350084e+01
1	 1.126634604206239e+00	 2.306392608527907e-01	 2.100634039894295e+01
1	 1.130801173690648e+00	 2.092575102929634e-01	 2.133356341062102e+01
1	 1.063445369351519e+00	 4.210083240764663e-01	 1.601027007186119e+01
1	 1.071579322842008e+00	 3.998522444640817e-01	 1.676040386086514e+01
1	 1.079260253749718e+00	 3.786309116117484e-01	 1.747238159149344e+01
1	 1.086489415750475e+00	 3.573581005353372e-01	 1.814382950360065e+01
1	 1.093268587752507e+00	 3.360474037867352e-01	 1.877252071304179e+01
1	 1.099600058444391e+00	 3.147122082593315e-01	 1.935637986159644e+01
1	 1.105486609740293e+00	 2.933656732504578e-01	 1.989348691267696e+01
1	 1.110931499227738e+00	 2.720207098312984e-01	 2.038208010042873e+01
1	 1.115938441724688e+00	 2.506899615656109e-01	 2.082055804591257e+01
1	 1.120511590053385e+00	 2.293857866095551e-01	 2.120748105972792e+01
1	 1.124655515138340e+00	 2.081202412160386e-01	 2.154157165564841e+01
1	 1.057634192471291e+00	 4.187077321432084e-01	 1.614708389291394e+01
1	 1.065723698128166e+00	 3.976672595228479e-01	 1.690612333468372e+01
1	 1.073362656735540e+00	 3.765618902377037e-01	 1.762665115098192e+01
1	 1.080552315118551e+00	 3.554053240303344e-01	 1.830632448244657e+01
1	 1.087294442464619e+00	 3.342110791763871e-01	 1.894294703344994e+01
1	 1.093591314955824e+00	 3.129924694168265e-01	 1.953447360882838e+01
1	 1.099445699304615e+00	 2.917625821402546e-01	 2.007901380305021e+01
1	 1.104860835297491e+00	 2.705342578655530e-01	 2.057483484981677e+01
1	 1.109840417452864e+00	 2.493200710659659e-01	 2.102036364610130e+01
1	 1.114388575899955e+00	 2.281323123667434e-01	 2.141418797022668e+01
1	 1.118509856585547e+00	 2.069829721396285e-01	 2.175505691872545e+01
1	 1.051823015590553e+00	 4.164071402104405e-01	 1.629035523367020e+01
1	 1.059868073413724e+00	 3.954822745820146e-01	 1.705821505516336e+01
1	 1.067465059720694e+00	 3.744928688639909e-01	 1.778720641656265e+01
1	 1.074615214485913e+00	 3.534525475256167e-01	 1.847501752895877e+01
1	 1.081320297175989e+00	 3.323747545662972e-01	 1.911948285403985e+01
1	 1.087582571466509e+00	 3.112727305745734e-01	 1.971858752708822e+01
1	 1.093404788868202e+00	 2.901594910303172e-01	 2.027047093909176e+01
1	 1.098790171366544e+00	 2.690478059001070e-01	 2.077342948635510e+01
1	 1.103742393180392e+00	 2.479501805666729e-01	 2.122591850193212e+01
1	 1.108265561745950e+00	 2.268788381243558e-01	 2.162655338872410e+01
1	 1.112364198032268e+00	 2.058457030637331e-01	 2.197410997916017e+01
1	 1.046011838709305e+00	 4.141065482781622e-01	 1.644019171945692e+01
1	 1.054012448698681e+00	 3.932972896415816e-01	 1.721678522641334e+01
1	 1.061567462705180e+00	 3.724238474906104e-01	 1.795415215000223e+01
1	 1.068678113852559e+00	 3.514997710211837e-01	 1.865001194426351e+01
1	 1.075346151886618e+00	 3.305384299564655e-01	 1.930222999981341e+01
1	 1.081573827976446e+00	 3.095529917325722e-01	 1.990882195255911e+01
1	 1.087363878431055e+00	 2.885563999206454e-01	 2.046795715822929e+01
1	 1.092719507434896e+00	 2.675613539349599e-01	 2.097796134149680e+01
1	 1.097644368907272e+00	 2.465802900677319e-01	 2.143731843433387e+01
1	 1.102142547591368e+00	 2.256253638823921e-01	 2.184467162368927e+01
1	 1.106218539478505e+00	 2.047084339883523e-01	 2.219882363357877e+01
1	 1.167675124994303e+00	 2.160811247653200e-01	 2.019568848232282e+01
1	 1.171537077868094e+00	 1.940544387226202e-01	 2.070784020593415e+01
1	 1.174964097446825e+00	 1.720918932328055e-01	 2.115522380365743e+01
1	 1.177962102437430e+00	 1.502049773640085e-01	 2.153844635142784e+01
1	 1.180537358156770e+00	 1.284048129885411e-01	 2.185825274588419e+01
1	 1.182696453977716e+00	 1.067021450109431e-01	 2.211551805537509e+01
1	 1.184446280700852e+00	 8.510733302509109e-02	 2.231123964708994e+01
1	 1.185794007943878e+00	 6.363034437045867e-02	 2.244652914547651e+01
1	 1.186747061636129e+00	 4.228074855186071e-02	 2.252260427512569e+01
1	 1.187313101700527e+00	 2.106771298181087e-02	 2.254078063899069e+01
1	 1.187500000000000e+00	 0.000000000000000e+00	 2.250246348021660e+01
1	 1.161529466444907e+00	 2.149438556853072e-01	 2.037263466831931e+01
1	 1.165371093250317e+00	 1.930330995688642e-01	 2.088474388095965e+01
1	 1.168780075883342e+00	 1.711861464235692e-01	 2.133238387598768e+01
1	 1.171762301899829e+00	 1.494144248487728e-01	 2.171612977982979e+01
1	 1.174324003641281e+00	 1.277289981806149e-01	 2.203669430528149e+01
1	 1.176471735799663e+00	 1.061405547715039e-01	 2.229492024313220e+01
1	 1.178212352908183e+00	 8.465939969113556e-02	 2.249177272402940e+01
1	 1.179552986849712e+00	 6.329544781929991e-02	 2.262833130523540e+01
1	 1.180501024469744e+00	 4.205821829499446e-02	 2.270578193502459e+01
1	 1.181064085375818e+00	 2.095683028119082e-02	 2.272540884523437e+01
1	 1.181250000000000e+00	 0.000000000000000e+00	 2.268858641996154e+01
1	 1.155383807895026e+00	 2.138065866058090e-01	 2.055455262646365e+01
1	 1.159205108632150e+00	 1.920117604157069e-01	 2.106676012124258e+01
1	 1.162596054319553e+00	 1.702803996149837e-01	 2.151479999220084e+01
1	 1.165562501361993e+00	 1.486238723342092e-01	 2.189921513546676e+01
1	 1.168110649125622e+00	 1.270531833733515e-01	 2.222068580174945e+01
1	 1.170247017621491e+00	 1.055789645326881e-01	 2.248002222936174e+01
1	 1.171978425115439e+00	 8.421146635773501e-02	 2.267815704154920e+01
1	 1.173311965755505e+00	 6.296055126859881e-02	 2.281613746226890e+01
1	 1.174254987303342e+00	 4.183568803846049e-02	 2.289511740273278e+01
1	 1.174815069051104e+00	 2.084594758075029e-02	 2.291634946887136e+01
1	 1.175000000000000e+00	 0.000000000000000e+00	 2.288117693742779e+01
1	 1.149238149344660e+00	 2.126693175268256e-01	 2.074152211780884e+01
1	 1.153039124013591e+00	 1.909904212631481e-01	 2.125397094654797e+01
1	 1.156412032755457e+00	 1.693746528070491e-01	 2.170255647385705e+01
1	 1.159362700823924e+00	 1.478333198203177e-01	 2.208778908027236e+01
1	 1.161897294609792e+00	 1.263773685667508e-01	 2.241031627170996e+01
1	 1.164022299443203e+00	 1.050173742944959e-01	 2.267091545467800e+01
1	 1.165744497322621e+00	 8.376353302488938e-02	 2.287048646981486e+01
1	 1.167070944661255e+00	 6.262565471835536e-02	 2.301004393738352e+01
1	 1.168008950136921e+00	 4.161315778225884e-02	 2.309070946660410e+01
1	 1.168566052726386e+00	 2.073506488048929e-02	 2.311370377862177e+01
1	 1.168750000000000e+00	 0.000000000000000e+00	 2.308033879053734e+01
1	 1.143092490793807e+00	 2.115320484483569e-01	 2.093362461869956e+01
1	 1.146873139394641e+00	 1.899690821111878e-01	 2.144646014050684e+01
1	 1.150228011191053e+00	 1.684689059997653e-01	 2.189573945588334e+01
1	 1.153162900285622e+00	 1.470427673070983e-01	 2.228194013987780e+01
1	 1.155683940093792e+00	 1.257015537608129e-01	 2.260567666634655e+01
1	 1.157797581264797e+00	 1.044557840569272e-01	 2.286769332616001e+01
1	 1.159510569529729e+00	 8.331559969259869e-02	 2.306885689770508e+01
1	 1.160829923566964e+00	 6.229075816856956e-02	 2.321014912280080e+01
1	 1.161762912970481e+00	 4.139062752638948e-02	 2.329265903947295e+01
1	 1.162317036401662e+00	 2.062418218040782e-02	 2.331757522102749e+01
1	 1.162500000000000e+00	 0.000000000000000e+00	 2.328617796856497e+01
1	 1.136946832242470e+00	 2.103947793704027e-01	 2.113094336713122e+01
1	 1.140707154775301e+00	 1.889477429598263e-01	 2.164431329828828e+01
1	 1.144043989626343e+00	 1.675631591931325e-01	 2.209443693558353e+01
1	 1.146963099747086e+00	 1.462522147945509e-01	 2.248175875398187e+01
1	 1.149470585577622e+00	 1.250257389555378e-01	 2.280685990335483e+01
1	 1.151572863086273e+00	 1.038941938199820e-01	 2.307045127049921e+01
1	 1.153276641736761e+00	 8.286766636086297e-02	 2.327336628737150e+01
1	 1.154588902472631e+00	 6.195586161924142e-02	 2.341655353814133e+01
1	 1.155516875804023e+00	 4.116809727085240e-02	 2.350106921607257e+01
1	 1.156068020076935e+00	 2.051329948050586e-02	 2.352806947931203e+01
1	 1.156250000000000e+00	 0.000000000000000e+00	 2.349880275244503e+01
1	 1.130801173690648e+00	 2.092575102929634e-01	 2.133356341062102e+01
1	 1.134541170155570e+00	 1.879264038090633e-01	 2.184761787582593e+01
1	 1.137859968061326e+00	 1.666574123871505e-01	 2.229873882324647e+01
1	 1.140763299208316e+00	 1.454616622826757e-01	 2.268733732836383e+01
1	 1.143257231061281e+00	 1.243499241509254e-01	 2.301396092038026e+01
1	 1.145348144907632e+00	 1.033326035836604e-01	 2.327928678888022e+01
1	 1.147042713943719e+00	 8.241973302968215e-02	 2.348411473057756e+01
1	 1.148347881378257e+00	 6.162096507037094e-02	 2.362935988823482e+01
1	 1.149270838637547e+00	 4.094556701564765e-02	 2.371604533232577e+01
1	 1.149819003752202e+00	 2.040241678078344e-02	 2.374529453415995e+01
1	 1.150000000000000e+00	 0.000000000000000e+00	 2.371832377704491e+01
1	 1.124655515138340e+00	 2.081202412160386e-01	 2.154157165564841e+01
1	 1.128375185535448e+00	 1.869050646588989e-01	 2.205646324065871e+01
1	 1.131675946496002e+00	 1.657516655818194e-01	 2.250873699441316e+01
1	 1.134563498669313e+00	 1.446711097714725e-01	 2.289877028860137e+01
1	 1.137043876544769e+00	 1.236741093469759e-01	 2.322707673020804e+01
1	 1.139123426728873e+00	 1.027710133479622e-01	 2.349429951366103e+01
1	 1.140808786150601e+00	 8.197179969905627e-02	 2.370120450688462e+01
1	 1.142106860283841e+00	 6.128606852195809e-02	 2.384867312282496e+01
1	 1.143024801471052e+00	 4.072303676077517e-02	 2.393769502657964e+01
1	 1.143569987427466e+00	 2.029153408124054e-02	 2.396936072648905e+01
1	 1.143750000000000e+00	 0.000000000000000e+00	 2.394485409548003e+01
1	 1.118509856585547e+00	 2.069829721396285e-01	 2.175505691872545e+01
1	 1.122209200914936e+00	 1.858837255093330e-01	 2.227094072444730e+01
1	 1.125491924930371e+00	 1.648459187771392e-01	 2.272452534386732e+01
1	 1.128363698130076e+00	 1.438805572609413e-01	 2.311615413555962e+01
1	 1.130830522028087e+00	 1.229982945436890e-01	 2.344630647777245e+01
1	 1.132898708549996e+00	 1.022094231128876e-01	 2.371559126692167e+01
1	 1.134574858357410e+00	 8.152386636898534e-02	 2.392474014375643e+01
1	 1.135865839189383e+00	 6.095117197400291e-02	 2.407460049824304e+01
1	 1.136778764304539e+00	 4.050050650623500e-02	 2.416612830285894e+01
1	 1.137320971102724e+00	 2.018065138187716e-02	 2.420038082229190e+01
1	 1.137500000000000e+00	 0.000000000000000e+00	 2.417850924554927e+01
1	 1.112364198032268e+00	 2.058457030637331e-01	 2.197410997916017e+01
1	 1.116043216294032e+00	 1.848623863603657e-01	 2.249114367723172e+01
1	 1.119307903364434e+00	 1.639401719731100e-01	 2.294619984141558e+01
1	 1.122163897590606e+00	 1.430900047510824e-01	 2.333958750271947e+01
1	 1.124617167511235e+00	 1.223224797410650e-01	 2.367175149905591e+01
1	 1.126673990371003e+00	 1.016478328784365e-01	 2.394326612095382e+01
1	 1.128340930564143e+00	 8.107593303946935e-02	 2.415482847865567e+01
1	 1.129624818094883e+00	 6.061627542650538e-02	 2.430725164112578e+01
1	 1.130532727138007e+00	 4.027797625202711e-02	 2.440145759621639e+01
1	 1.131071954777978e+00	 2.006976868269331e-02	 2.443847007962687e+01
1	 1.131250000000000e+00	 0.000000000000000e+00	 2.441940731837258e+01
1	 1.106218539478505e+00	 2.047084339883523e-01	 2.219882363357877e+01
1	 1.109877231672738e+00	 1.838410472119971e-01	 2.271716752349743e+01
1	 1.113123881798189e+00	 1.630344251697315e-01	 2.317385858952698e+01
1	 1.115964097050903e+00	 1.422994522418954e-01	 2.356917121541698e+01
1	 1.118403812994213e+00	 1.216466649391038e-01	 2.390351538195166e+01
1	 1.120449272191891e+00	 1.010862426446089e-01	 2.417743046076642e+01
1	 1.122107002770802e+00	 8.062799971050828e-02	 2.439157872321077e+01
1	 1.123383797000342e+00	 6.028137887946551e-02	 2.454673861425711e+01
1	 1.124286689971457e+00	 4.005544599815154e-02	 2.464379784026107e+01
1	 1.124822938453228e+00	 1.995888598368898e-02	 2.468374631784202e+01
1	 1.125000000000000e+00	 0.000000000000000e+00	 2.466766902931665e+01
1	 0.000000000000000e+00	 1.125000000000000e+00	-3.383552784455181e+01
1	 1.995888598368906e-02	 1.124822938453228e+00	-3.442988710777316e+01
1	 4.005544599815170e-02	 1.124286689971457e+00	-3.495357985801802e+01
1	 6.028137887946573e-02	 1.123383797000342e+00	-3.540444267975710e+01
1	 8.062799971050859e-02	 1.122107002770802e+00	-3.578044287599923e+01
1	 1.010862426446093e-01	 1.120449272191891e+00	-3.607969136545841e+01
1	 1.216466649391042e-01	 1.118403812994212e+00	-3.630045556976393e+01
1	 1.422994522418959e-01	 1.115964097050903e+00	-3.644117221369989e+01
1	 1.630344251697321e-01	 1.113123881798189e+00	-3.650045995720471e+01
1	 1.838410472119977e-01	 1.109877231672737e+00	-3.647713177405133e+01
1	 2.047084339883523e-01	 1.106218539478505e+00	-3.637020698885473e+01
1	 0.000000000000000e+00	 1.118750000000000e+00	-3.331900561816817e+01
1	 1.984800328468474e-02	 1.118573922128475e+00	-3.389901331113653e+01
1	 3.983291574427612e-02	 1.118040652804898e+00	-3.441020498109522e+01
1	 5.994648233242585e-02	 1.117142775905779e+00	-3.485047499508521e+01
1	 8.018006638154751e-02	 1.115873074977422e+00	-3.521784367044534e+01
1	 1.005246524107817e-01	 1.114224554012720e+00	-3.551046973674401e+01
1	 1.209708501371429e-01	 1.112190458477104e+00	-3.572666279001171e+01
1	 1.415088997327090e-01	 1.109764296511083e+00	-3.586489566505877e+01
1	 1.621286783663537e-01	 1.106939860231791e+00	-3.592381664754442e+01
1	 1.828197080636290e-01	 1.103711247051248e+00	-3.590226144378963e+01
1	 2.035711649129715e-01	 1.100072880924498e+00	-3.579926482314525e+01
1	 0.000000000000000e+00	 1.112500000000000e+00	-3.280577873898891e+01
1	 1.973712058550088e-02	 1.112324905803721e+00	-3.337136223999141e+01
1	 3.961038549006823e-02	 1.111794615638338e+00	-3.387000100829201e+01
1	 5.961158578492830e-02	 1.110901754811217e+00	-3.429964772195379e+01
1	 7.973213305203153e-02	 1.109639147184044e+00	-3.465837621154700e+01
1	 9.996306217633052e-02	 1.107999835833549e+00	-3.494439348405476e+01
1	 1.202950353345189e-01	 1.105977103959996e+00	-3.515605174134072e+01
1	 1.407183472228500e-01	 1.103564495971262e+00	-3.529186032177527e+01
1	 1.612229315623244e-01	 1.100755838665394e+00	-3.535049748964489e+01
1	 1.817983689146618e-01	 1.097545262429758e+00	-3.533082199341229e+01
1	 2.024338958370761e-01	 1.093927222370491e+00	-3.523188431083781e+01
1	 0.000000000000000e+00	 1.106250000000000e+00	-3.229590306035828e+01
1	 1.962623788613750e-02	 1.106075889478969e+00	-3.284698851680559e+01
1	 3.938785523552807e-02	 1.105548578471779e+00	-3.333302168374676e+01
1	 5.927668923697311e-02	 1.104660733716655e+00	-3.375201408767740e+01
1	 7.928419972196060e-02	 1.103405219390665e+00	-3.410209357975669e+01
1	 9.940147194125591e-02	 1.101775117654379e+00	-3.438151591884893e+01
1	 1.196192205312321e-01	 1.099763749442888e+00	-3.458867635139566e+01
1	 1.399277947123189e-01	 1.097364695431442e+00	-3.472212111953309e+01
1	 1.603171847576442e-01	 1.094571817098996e+00	-3.478055882506055e+01
1	 1.807770297650960e-01	 1.091379277808269e+00	-3.476287157342456e+01
1	 2.012966267606660e-01	 1.087781563816485e+00	-3.466812581893842e+01
1	 0.000000000000000e+00	 1.100000000000000e+00	-3.178943570501482e+01
1	 1.951535518659461e-02	 1.099826873154216e+00	-3.232594800546567e+01
1	 3.916532498065559e-02	 1.099302541305220e+00	-3.279932197305552e+01
1	 5.894179268856028e-02	 1.098419712622092e+00	-3.320762852928250e+01
1	 7.883626639133473e-02	 1.097171291597286e+00	-3.354905006189932e+01
1	 9.883988170555777e-02	 1.095550399475208e+00	-3.382189156420823e+01
1	 1.189434057272825e-01	 1.093550394925780e+00	-3.402459177345018e+01
1	 1.391372422011157e-01	 1.091164894891621e+00	-3.415573424255392e+01
1	 1.594114379523131e-01	 1.088387795532598e+00	-3.421405827583605e+01
1	 1.797556906149315e-01	 1.085213293186779e+00	-3.419846965593521e+01
1	 2.001593576837412e-01	 1.081635905262479e+00	-3.410805108643024e+01
1	 0.000000000000000e+00	 1.093750000000000e+00	-3.128643510136005e+01
1	 1.940447248687218e-02	 1.093577856829463e+00	-3.180829784674776e+01
1	 3.894279472545081e-02	 1.093056504138661e+00	-3.226895809817100e+01
1	 5.860689613968980e-02	 1.092178691527530e+00	-3.266654672807037e+01
1	 7.838833306015391e-02	 1.090937363803908e+00	-3.299930118564324e+01
1	 9.827829146923613e-02	 1.089325681296038e+00	-3.326557618945696e+01
1	 1.182675909226702e-01	 1.087337040408672e+00	-3.346385442142408e+01
1	 1.383466896892405e-01	 1.084965094351801e+00	-3.359275715927095e+01
1	 1.585056911463311e-01	 1.082203773966199e+00	-3.365105478109175e+01
1	 1.787343514641685e-01	 1.079047308565289e+00	-3.363767707241483e+01
1	 1.990220886063018e-01	 1.075490246708472e+00	-3.355172326347412e+01
1	 0.000000000000000e+00	 1.087500000000000e+00	-3.078696102097713e+01
1	 1.929358978697023e-02	 1.087328840504711e+00	-3.129409649500915e+01
1	 3.872026446991374e-02	 1.086810466972101e+00	-3.174198757350489e+01
1	 5.827199959036165e-02	 1.085937670432968e+00	-3.212882564537237e+01
1	 7.794039972841815e-02	 1.084703436010529e+00	-3.245290375515399e+01
1	 9.771670123229091e-02	 1.083100963116868e+00	-3.271262684597193e+01
1	 1.175917761173950e-01	 1.081123685891564e+00	-3.290652200610879e+01
1	 1.375561371766931e-01	 1.078765293811981e+00	-3.303324865922972e+01
1	 1.575999443396983e-01	 1.076019752399802e+00	-3.309160863486933e+01
1	 1.777130123128069e-01	 1.072881323943800e+00	-3.308055605275869e+01
1	 1.978848195283477e-01	 1.069344588154466e+00	-3.299920695195735e+01
1	 0.000000000000000e+00	 1.081250000000000e+00	-3.029107461745147e+01
1	 1.918270708688875e-02	 1.081079824179958e+00	-3.078340375615311e+01
1	 3.849773421404439e-02	 1.080564429805542e+00	-3.121846924328185e+01
1	 5.793710304057585e-02	 1.079696649338405e+00	-3.159452355954485e+01
1	 7.749246639612749e-02	 1.078469508217150e+00	-3.190991588798855e+01
1	 9.715511099472224e-02	 1.076876244937697e+00	-3.216310190423802e+01
1	 1.169159613114571e-01	 1.074910331374456e+00	-3.235265357264922e+01
1	 1.367655846634736e-01	 1.072565493272161e+00	-3.247726889127259e+01
1	 1.566941975324145e-01	 1.069835730833403e+00	-3.253578152529319e+01
1	 1.766916731608467e-01	 1.066715339322310e+00	-3.252717026570352e+01
1	 1.967475504498789e-01	 1.063198929600459e+00	-3.245056824745316e+01
1	 0.000000000000000e+00	 1.075000000000000e+00	-2.979883846654507e+01
1	 1.907182438662774e-02	 1.074830807855205e+00	-3.027628082691767e+01
1	 3.827520395784272e-02	 1.074318392638983e+00	-3.069846332019679e+01
1	 5.760220649033241e-02	 1.073455628243843e+00	-3.106370010425522e+01
1	 7.704453306328185e-02	 1.072235580423771e+00	-3.137039705327511e+01
1	 9.659352075652999e-02	 1.070651526758527e+00	-3.161706109219268e+01
1	 1.162401465048565e-01	 1.068696976857348e+00	-3.180230953933371e+01
1	 1.359750321495821e-01	 1.066365692732341e+00	-3.192487940305168e+01
1	 1.557884507244799e-01	 1.063651709267006e+00	-3.198363657509475e+01
1	 1.756703340082879e-01	 1.060549354700820e+00	-3.197758486065420e+01
1	 1.956102813708955e-01	 1.057053271046453e+00	-3.190587478264082e+01
1	 0.000000000000000e+00	 1.068750000000000e+00	-2.931031660778069e+01
1	 1.896094168618722e-02	 1.068581791530452e+00	-2.977279033554463e+01
1	 3.805267370130877e-02	 1.068072355472424e+00	-3.018203142542948e+01
1	 5.726730993963130e-02	 1.067214607149281e+00	-3.053641630811062e+01
1	 7.659659972988130e-02	 1.066001652630393e+00	-3.083440811123298e+01
1	 9.603193051771425e-02	 1.064426808579356e+00	-3.107456553491844e+01
1	 1.155643316975931e-01	 1.062483622340241e+00	-3.125555173774331e+01
1	 1.351844796350185e-01	 1.060165892192520e+00	-3.137614318192996e+01
1	 1.548827039158945e-01	 1.057467687700608e+00	-3.143523838356041e+01
1	 1.746489948551305e-01	 1.054383370079331e+00	-3.143186651097832e+01
1	 1.944730122913973e-01	 1.050907612492446e+00	-3.136519577225054e+01
1	 0.000000000000000e+00	 1.062500000000000e+00	-2.882557458749372e+01
1	 1.885005898556716e-02	 1.062332775205699e+00	-2.927299638388065e+01
1	 3.783014344444251e-02	 1.061826318305864e+00	-2.966923663006969e+01
1	 5.693241338847256e-02	 1.060973586054718e+00	-3.001273463568475e+01
1	 7.614866639592580e-02	 1.059767724837014e+00	-3.030201135408598e+01
1	 9.547034027827499e-02	 1.058202090400186e+00	-3.053567779573488e+01
1	 1.148885168896669e-01	 1.056270267823132e+00	-3.071244345432033e+01
1	 1.343939271197828e-01	 1.053966091652700e+00	-3.083112469732706e+01
1	 1.539769571066580e-01	 1.051283666134210e+00	-3.089065306996059e+01
1	 1.736276557013745e-01	 1.048217385457841e+00	-3.089008345882861e+01
1	 1.933357432113846e-01	 1.044761953938440e+00	-3.082860205959416e+01
1	 2.047084339883523e-01	 1.106218539478505e+00	-3.637020698885473e+01
1	 2.256253760610303e-01	 1.102142542723649e+00	-3.619524806340299e+01
1	 2.465803392680860e-01	 1.097644349281292e+00	-3.594789876687188e+01
1	 2.675614657195627e-01	 1.092719462922627e+00	-3.562791708107453e+01
1	 2.885566005572319e-01	 1.087363798660611e+00	-3.523525954914455e+01
1	 3.095533081773752e-01	 1.081573702325846e+00	-3.477008815012849e+01
1	 3.305388898350104e-01	 1.075345969477739e+00	-3.423277645730339e+01
1	 3.515004026065428e-01	 1.068677863545342e+00	-3.362391501071564e+01
1	 3.724246796790915e-01	 1.061567133092149e+00	-3.294431583722231e+01
1	 3.932983519258346e-01	 1.054012028099855e+00	-3.219501605488153e+01
1	 4.141078707177027e-01	 1.046011315167551e+00	-3.137728050290143e+01
1	 2.035711649129715e-01	 1.100072880924498e+00	-3.579926482314525e+01
1	 2.243719017514075e-01	 1.096019528595820e+00	-3.563017041932401e+01
1	 2.452104484958098e-01	 1.091546325116872e+00	-3.538960114381674e+01
1	 2.660750131333902e-01	 1.086648799237897e+00	-3.507731469617438e+01
1	 2.869535083329124e-01	 1.081322888666228e+00	-3.469326363488580e+01
1	 3.078335675773473e-01	 1.075564959533408e+00	-3.423760211473126e+01
1	 3.287025626702978e-01	 1.069371825201293e+00	-3.371069192167506e+01
1	 3.495476225933023e-01	 1.062740764302108e+00	-3.311310773724760e+01
1	 3.703556536824418e-01	 1.055669537907329e+00	-3.244564156710319e+01
1	 3.911133610838226e-01	 1.048156405720976e+00	-3.170930627193772e+01
1	 4.118072714385381e-01	 1.040200141194367e+00	-3.090533814323908e+01
1	 2.024338958370761e-01	 1.093927222370491e+00	-3.523188431083781e+01
1	 2.231184274413607e-01	 1.089896514467986e+00	-3.506868141631832e+01
1	 2.438405577231815e-01	 1.085448300952432e+00	-3.483492874152232e+01
1	 2.645885605469185e-01	 1.080578135553125e+00	-3.453038380484620e+01
1	 2.853504161083272e-01	 1.075281978671769e+00	-3.415499526089229e+01
1	 3.061138269770675e-01	 1.069556216740850e+00	-3.370890949966449e+01
1	 3.268662355053272e-01	 1.063397680924673e+00	-3.319247655716838e+01
1	 3.475948425797770e-01	 1.056803665058637e+00	-3.260625527084302e+01
1	 3.682866276854598e-01	 1.049771942722199e+00	-3.195101761591658e+01
1	 3.889283702414100e-01	 1.042300783341702e+00	-3.122775216222198e+01
1	 4.095066721588839e-01	 1.034388967220695e+00	-3.043766659520435e+01
1	 2.012966267606660e-01	 1.087781563816485e+00	-3.466812581893842e+01
1	 2.218649531308900e-01	 1.083773500340148e+00	-3.451084187880988e+01
1	 2.424706669502012e-01	 1.079350276787974e+00	-3.428394300440885e+01
1	 2.631021079601477e-01	 1.074507471868310e+00	-3.398718663579398e+01
1	 2.837473238834763e-01	 1.069241068677234e+00	-3.362051760581296e+01
1	 3.043940863765359e-01	 1.063547473948173e+00	-3.318407460018861e+01
1	 3.250299083400983e-01	 1.057423536647881e+00	-3.267819594295553e+01
1	 3.456420625659667e-01	 1.050866565814929e+00	-3.210342464213016e+01
1	 3.662176016881457e-01	 1.043874347536757e+00	-3.146051263313646e+01
1	 3.867433793985972e-01	 1.036445160962033e+00	-3.075042416087367e+01
1	 4.072060728787398e-01	 1.028577793246532e+00	-2.997433824543430e+01
1	 2.001593576837412e-01	 1.081635905262479e+00	-3.410805108643024e+01
1	 2.206114788199952e-01	 1.077650486212304e+00	-3.395671401359692e+01
1	 2.411007761768689e-01	 1.073252252623498e+00	-3.373670677335922e+01
1	 2.616156553730778e-01	 1.068436808183453e+00	-3.344778683201156e+01
1	 2.821442316583599e-01	 1.063200158682623e+00	-3.308989528417393e+01
1	 3.026743457757524e-01	 1.057538731155375e+00	-3.266316317281888e+01
1	 3.231935811746113e-01	 1.051449392370915e+00	-3.216791714864358e+01
1	 3.436892825518716e-01	 1.044929466570985e+00	-3.160468440516076e+01
1	 3.641485756904992e-01	 1.037976752351005e+00	-3.097419682845098e+01
1	 3.845583885553838e-01	 1.030589538581969e+00	-3.027739430383069e+01
1	 4.049054735981059e-01	 1.022766619271880e+00	-2.951542712571771e+01
1	 1.990220886063018e-01	 1.075490246708472e+00	-3.355172326347412e+01
1	 2.193580045086765e-01	 1.071527472084456e+00	-3.340636144934686e+01
1	 2.397308854031847e-01	 1.067154228459002e+00	-3.319328432562016e+01
1	 2.601292027857087e-01	 1.062366144498552e+00	-3.291224949118860e+01
1	 2.805411394329779e-01	 1.057159248687934e+00	-3.256319438740629e+01
1	 3.009546051747168e-01	 1.051529988362458e+00	-3.214624247707756e+01
1	 3.213572540088659e-01	 1.045475248093776e+00	-3.166170877685926e+01
1	 3.417365025374915e-01	 1.038992367326803e+00	-3.111010468093545e+01
1	 3.620795496925205e-01	 1.032079157164943e+00	-3.049214201634181e+01
1	 3.823733977117700e-01	 1.024733916201510e+00	-2.980873627356664e+01
1	 4.026048743169826e-01	 1.016955445296738e+00	-2.906100895999758e+01
1	 1.978848195283477e-01	 1.069344588154466e+00	-3.299920695195735e+01
1	 2.181045301969338e-01	 1.065404457956603e+00	-3.285984927745474e+01
1	 2.383609946291483e-01	 1.061056204294487e+00	-3.265374141607586e+01
1	 2.586427501980406e-01	 1.056295480813610e+00	-3.238064120751391e+01
1	 2.789380472073302e-01	 1.051118338693170e+00	-3.204048252628333e+01
1	 2.992348645734295e-01	 1.045521245569422e+00	-3.163338131868194e+01
1	 3.195209268428623e-01	 1.039501103816464e+00	-3.115964100730168e+01
1	 3.397837225228267e-01	 1.033055268082385e+00	-3.061975720243348e+01
1	 3.600105236942100e-01	 1.026181561978569e+00	-3.001442166219841e+01
1	 3.801884068677560e-01	 1.018878293820656e+00	-2.934452544640527e+01
1	 4.003042750353694e-01	 1.011144271321107e+00	-2.861116121299818e+01
1	 1.967475504498789e-01	 1.063198929600459e+00	-3.245056824745316e+01
1	 2.168510558847671e-01	 1.059281443828746e+00	-3.231724409431910e+01
1	 2.369911038547600e-01	 1.054958180129953e+00	-3.211814531995462e+01
1	 2.571562976100733e-01	 1.050224817128624e+00	-3.185303011492636e+01
1	 2.773349549814169e-01	 1.045077428698330e+00	-3.152182887483334e+01
1	 2.975151239718903e-01	 1.039512502776266e+00	-3.112465009423366e+01
1	 3.176845996766007e-01	 1.033526959538979e+00	-3.066178564232133e+01
1	 3.378309425078769e-01	 1.027118168837730e+00	-3.013371536119859e+01
1	 3.579414976955669e-01	 1.020283966791885e+00	-2.954111093003165e+01
1	 3.780034160233416e-01	 1.013022671439408e+00	-2.888483894147568e+01
1	 3.980036757532665e-01	 1.005333097344985e+00	-2.816596314053532e+01
1	 1.956102813708955e-01	 1.057053271046453e+00	-3.190587478264082e+01
1	 2.155975815721764e-01	 1.053158429700884e+00	-3.177861404509185e+01
1	 2.356212130800196e-01	 1.048860155965401e+00	-3.158656487702480e+01
1	 2.556698450218070e-01	 1.044154153443596e+00	-3.132948593187493e+01
1	 2.757318627552379e-01	 1.039036518703414e+00	-3.100730421578254e+01
1	 2.957953833700992e-01	 1.033503759982990e+00	-3.062012083746425e+01
1	 3.158482725100809e-01	 1.027552815261320e+00	-3.016821615409138e+01
1	 3.358781624926422e-01	 1.021181069592838e+00	-2.965205425555578e+01
1	 3.558724716965918e-01	 1.014386371604890e+00	-2.907228673185298e+01
1	 3.758184251785266e-01	 1.007167049057764e+00	-2.842975567137466e+01
1	 3.957030764706738e-01	 9.995219233683744e-01	-2.772549584158311e+01
1	 1.944730122913973e-01	 1.050907612492446e+00	-3.136519577225054e+01
1	 2.143441072591617e-01	 1.047035415573017e+00	-3.124402886896349e+01
1	 2.342513223049273e-01	 1.042762131800830e+00	-3.105907053734183e+01
1	 2.541833924332414e-01	 1.038083489758525e+00	-3.081008000764859e+01
1	 2.741287705287933e-01	 1.032995608708421e+00	-3.049698098759466e+01
1	 2.940756427680563e-01	 1.027495017189594e+00	-3.011986726710448e+01
1	 3.140119453433026e-01	 1.021578670983489e+00	-2.967900773343197e+01
1	 3.339253824771227e-01	 1.015243970347710e+00	-2.917485074051534e+01
1	 3.538034456972844e-01	 1.008488776417584e+00	-2.860802777878483e+01
1	 3.736334343333112e-01	 1.001311426675725e+00	-2.797935639460870e+01
1	 3.934024771875915e-01	 9.937107493912738e-01	-2.728984231216854e+01
1	 1.933357432113846e-01	 1.044761953938440e+00	-3.082860205959416e+01
1	 2.130906329457231e-01	 1.040912401445146e+00	-3.071355994604614e+01
1	 2.328814315294829e-01	 1.036664107636240e+00	-3.053573440860915e+01
1	 2.526969398443769e-01	 1.032012826073412e+00	-3.029488537034449e+01
1	 2.725256783020832e-01	 1.026954698713353e+00	-2.999093333316686e+01
1	 2.923559021657614e-01	 1.021486274396079e+00	-2.962396483644457e+01
1	 3.121756181762663e-01	 1.015604526705484e+00	-2.919423734035897e+01
1	 3.319726024613182e-01	 1.009306871102345e+00	-2.870218347944082e+01
1	 3.517344196976449e-01	 1.002591181229967e+00	-2.814841463397686e+01
1	 3.714484434876956e-01	 9.954558042932905e-01	-2.753372376988301e+01
1	 3.911018779040194e-01	 9.878995754136833e-01	-2.685908750116567e+01
1	 4.141078707177027e-01	 1.046011315167551e+00	-3.137728050290143e+01
1	 4.348389869125469e-01	 1.037564510361637e+00	-3.040326843954505e+01
1	 4.554783787905097e-01	 1.028671254474488e+00	-2.938347832072843e+01
1	 4.760121073749708e-01	 1.019331943098569e+00	-2.831943452628197e+01
1	 4.964261565359374e-01	 1.009547536411432e+00	-2.721278187591592e+01
1	 5.167064609276211e-01	 9.993195675101514e-01	-2.606528209111229e+01
1	 5.368389346796447e-01	 9.886501491192041e-01	-2.487880963721026e+01
1	 5.568095007332894e-01	 9.775419786025497e-01	-2.365534695573443e+01
1	 5.766041207074594e-01	 9.659983412188325e-01	-2.239697910206916e+01
1	 5.962088251729557e-01	 9.540231115674662e-01	-2.110588780866114e+01
1	 6.156097442083479e-01	 9.416207531828905e-01	-1.978434499895442e+01
1	 4.118072714385381e-01	 1.040200141194367e+00	-3.090533814323908e+01
1	 4.324232147662097e-01	 1.031800263082327e+00	-2.994830966286359e+01
1	 4.529479433564012e-01	 1.022956414172729e+00	-2.894596842628344e+01
1	 4.733675956712493e-01	 1.013668987860299e+00	-2.789984414310878e+01
1	 4.936682334481484e-01	 1.003938938988270e+00	-2.681158507536183e+01
1	 5.138358694821190e-01	 9.937677921365076e-01	-2.568295441226697e+01
1	 5.338564961576173e-01	 9.831576482921305e-01	-2.451582603313213e+01
1	 5.537161146218051e-01	 9.721111898337413e-01	-2.331217966918070e+01
1	 5.734007644845921e-01	 9.606316837685465e-01	-2.207409548020774e+01
1	 5.928965539247181e-01	 9.487229831704073e-01	-2.080374806696085e+01
1	 6.121896900758709e-01	 9.363895267763493e-01	-1.950339994509738e+01
1	 4.095066721588839e-01	 1.034388967220695e+00	-3.043766659520435e+01
1	 4.300074426192921e-01	 1.026036015802442e+00	-2.949752867011151e+01
1	 4.504175079216407e-01	 1.017241573870338e+00	-2.851254870855628e+01
1	 4.707230839668241e-01	 1.008006032621370e+00	-2.748426197262174e+01
1	 4.909103103596236e-01	 9.983303415644492e-01	-2.641432037916593e+01
1	 5.109652780358687e-01	 9.882160167622380e-01	-2.530448878655601e+01
1	 5.308740576348494e-01	 9.776651474644927e-01	-2.415664067741357e+01
1	 5.506227285096088e-01	 9.666804010644615e-01	-2.297275324905593e+01
1	 5.701974082610610e-01	 9.552650263179121e-01	-2.175490192828376e+01
1	 5.895842826758855e-01	 9.434228547731532e-01	-2.050525433213440e+01
1	 6.087696359428887e-01	 9.311583003697974e-01	-1.922606370111416e+01
1	 4.072060728787398e-01	 1.028577793246532e+00	-2.997433824543430e+01
1	 4.275916704717944e-01	 1.020271768521982e+00	-2.905099627118471e+01
1	 4.478870724862289e-01	 1.011526733567314e+00	-2.808328849257530e+01
1	 4.680785722616956e-01	 1.002343077381781e+00	-2.707275595062775e+01
1	 4.881523872703631e-01	 9.927217441399716e-01	-2.602105443316402e+01
1	 5.080946865888702e-01	 9.826642413873424e-01	-2.492995067250697e+01
1	 5.278916191113412e-01	 9.721726466362910e-01	-2.380131794714520e+01
1	 5.475293423967000e-01	 9.612496122947098e-01	-2.263713109987649e+01
1	 5.669940520368659e-01	 9.498983688669291e-01	-2.143946098985661e+01
1	 5.862720114264579e-01	 9.381227263757045e-01	-2.021046840091048e+01
1	 6.053495818094008e-01	 9.259270739632340e-01	-1.895239743327634e+01
1	 4.049054735981059e-01	 1.022766619271880e+00	-2.951542712571771e+01
1	 4.251758983237164e-01	 1.014507521240946e+00	-2.860878488529601e+01
1	 4.453566370501658e-01	 1.005811893263659e+00	-2.765825867893786e+01
1	 4.654340605558636e-01	 9.966801221415315e-01	-2.666539555693028e+01
1	 4.853944641803671e-01	 9.871131467148361e-01	-2.563185539787012e+01
1	 5.052240951411239e-01	 9.771124660118208e-01	-2.455940701634035e+01
1	 5.249091805870928e-01	 9.666801458075255e-01	-2.344992368253391e+01
1	 5.444359562830787e-01	 9.558188235244861e-01	-2.230537806717024e+01
1	 5.637906958120069e-01	 9.445317114155966e-01	-2.112783662993008e+01
1	 5.829597401764355e-01	 9.328225979780604e-01	-1.991945347448887e+01
1	 6.019295276754079e-01	 9.206958475566606e-01	-1.868246369799826e+01
1	 4.026048743169826e-01	 1.016955445296738e+00	-2.906100895999758e+01
1	 4.227601261750583e-01	 1.008743273959336e+00	-2.817096858695371e+01
1	 4.428262016134508e-01	 1.000097052959371e+00	-2.723753178882625e+01
1	 4.627895488493282e-01	 9.910171669006226e-01	-2.626225185944210e+01
1	 4.826365410896355e-01	 9.815045492890427e-01	-2.524679299175297e+01
1	 5.023535036926295e-01	 9.715606906356734e-01	-2.419292629447730e+01
1	 5.219267420621041e-01	 9.611876449781955e-01	-2.310252522870491e+01
1	 5.413425701687453e-01	 9.503880347537911e-01	-2.197756047864890e+01
1	 5.605873395864841e-01	 9.391650539639160e-01	-2.082009427556548e+01
1	 5.796474689258182e-01	 9.275224695802211e-01	-1.963227419866792e+01
1	 5.985094735409098e-01	 9.154646211500769e-01	-1.841632648155539e+01
1	 4.003042750353694e-01	 1.011144271321107e+00	-2.861116121299818e+01
1	 4.203443540258200e-01	 1.002979026677149e+00	-2.773762315352912e+01
1	 4.402957661760845e-01	 9.943822126544506e-01	-2.682118201057632e+01
1	 4.601450371420894e-01	 9.853542116590541e-01	-2.586339755982125e+01
1	 4.798786179981683e-01	 9.758959518625918e-01	-2.486593853600451e+01
1	 4.994829122433870e-01	 9.660089152588996e-01	-2.383057855750856e+01
1	 5.189443035363750e-01	 9.556951441483023e-01	-2.275919147894775e+01
1	 5.382491840536995e-01	 9.449572459826241e-01	-2.165374618679861e+01
1	 5.573839833602973e-01	 9.337983965118860e-01	-2.051630085789431e+01
1	 5.763351976746057e-01	 9.222223411821865e-01	-1.934899670535653e+01
1	 5.950894194059063e-01	 9.102333947434822e-01	-1.815405124117180e+01
1	 3.980036757532665e-01	 1.005333097344985e+00	-2.816596314053531e+01
1	 4.179285818760014e-01	 9.972147793943880e-01	-2.730882611447117e+01
1	 4.377653307380666e-01	 9.886673723488986e-01	-2.640928524786127e+01
1	 4.575005254341471e-01	 9.796912564168255e-01	-2.546890704068916e+01
1	 4.771206949059651e-01	 9.702873544354828e-01	-2.448936500086185e+01
1	 4.966123207933965e-01	 9.604571398815003e-01	-2.347243547569195e+01
1	 5.159618650099055e-01	 9.502026433178444e-01	-2.241999291946010e+01
1	 5.351557979379413e-01	 9.395264572109855e-01	-2.133400461294979e+01
1	 5.541806271334465e-01	 9.284317390595078e-01	-2.021652485558897e+01
1	 5.730229264227985e-01	 9.169222127839569e-01	-1.906968865552511e+01
1	 5.916693652703974e-01	 9.050021683368771e-01	-1.789570494753353e+01
1	 3.957030764706738e-01	 9.995219233683744e-01	-2.772549584158311e+01
1	 4.155128097256028e-01	 9.914505321110509e-01	-2.688465680223899e+01
1	 4.352348952993971e-01	 9.829525320427138e-01	-2.600191916955633e+01
1	 4.548560137255013e-01	 9.740283011739372e-01	-2.507885641449546e+01
1	 4.743627718130264e-01	 9.646787570077157e-01	-2.411714705354450e+01
1	 4.937417293426579e-01	 9.549053645034747e-01	-2.311857038603594e+01
1	 5.129794264826959e-01	 9.447101424868225e-01	-2.208500167565365e+01
1	 5.320624118214708e-01	 9.340956684388754e-01	-2.101840679288185e+01
1	 5.509772709059320e-01	 9.230650816067805e-01	-1.992083633984876e+01
1	 5.697106551703962e-01	 9.116220843855323e-01	-1.879441928365520e+01
1	 5.882493111343832e-01	 8.997709419302610e-01	-1.764135612878440e+01
1	 3.934024771875915e-01	 9.937107493912738e-01	-2.728984231216854e+01
1	 4.130970375746239e-01	 9.856862848271386e-01	-2.646519640502257e+01
1	 4.327044598600763e-01	 9.772376917358973e-01	-2.559916326135203e+01
1	 4.522115020161521e-01	 9.683653459303896e-01	-2.469332357409808e+01
1	 4.716048487193521e-01	 9.590701595792913e-01	-2.374936110787304e+01
1	 4.908711378911713e-01	 9.493535891248229e-01	-2.276905834103410e+01
1	 5.099969879547458e-01	 9.392176416552367e-01	-2.175429156008456e+01
1	 5.289690257042882e-01	 9.286648796662935e-01	-2.070702542403050e+01
1	 5.477739146777533e-01	 9.176984241537044e-01	-1.962930702096561e+01
1	 5.663983839173991e-01	 9.063219559869126e-01	-1.852325944374807e+01
1	 5.848292569978638e-01	 8.945397155236345e-01	-1.739107491606600e+01
1	 3.911018779040194e-01	 9.878995754136833e-01	-2.685908750116567e+01
1	 4.106812654230647e-01	 9.799220375426506e-01	-2.605052802132169e+01
1	 4.301740244201037e-01	 9.715228514284484e-01	-2.520109887919123e+01
1	 4.495669903060996e-01	 9.627023906861818e-01	-2.431238824512829e+01
1	 4.688469256249421e-01	 9.534615621502089e-01	-2.338608537564116e+01
1	 4.880005464389367e-01	 9.438018137455458e-01	-2.242397615912132e+01
1	 5.070145494260555e-01	 9.337251408230870e-01	-2.142793812207496e+01
1	 5.258756395863931e-01	 9.232340908932398e-01	-2.039993491435891e+01
1	 5.445705584489109e-01	 9.123317667002798e-01	-1.934201029653236e+01
1	 5.630861126638069e-01	 9.010218275880978e-01	-1.825628165695788e+01
1	 5.814092028608389e-01	 8.893084891169974e-01	-1.714493309066422e+01
1	 6.156097442083479e-01	 9.416207531828905e-01	-1.978434499895442e+01
1	 6.347936172065917e-01	 9.287959994043036e-01	-1.838153599966926e+01
1	 6.537463612877449e-01	 9.155548087413472e-01	-1.694108462818904e+01
1	 6.724545884469753e-01	 9.019033905602073e-01	-1.546552084961692e+01
1	 6.909051325884170e-01	 8.878485225341313e-01	-1.395748624582543e+01
1	 7.090850794667932e-01	 8.733975407047344e-01	-1.241972566379744e+01
1	 7.269817960894578e-01	 8.585583276607190e-01	-1.085507827769256e+01
1	 7.445829594413018e-01	 8.433392988688471e-01	-9.266468114396757e+00
1	 7.618765843976170e-01	 8.277493872034515e-01	-7.656894097208074e+00
1	 7.788510506937329e-01	 8.117980257319894e-01	-6.029419666687979e+00
1	 7.954951288250000e-01	 7.954951288249998e-01	-4.387162041569663e+00
1	 6.121896900758709e-01	 9.363895267763493e-01	-1.950339994509739e+01
1	 6.312669860011524e-01	 9.236360216293305e-01	-1.812064961399981e+01
1	 6.501144370589494e-01	 9.104683931362529e-01	-1.669787724428008e+01
1	 6.687187296222356e-01	 8.968928161668229e-01	-1.523766406075278e+01
1	 6.870667707401228e-01	 8.829160307405503e-01	-1.374271170002229e+01
1	 7.051457179131420e-01	 8.685453321432626e-01	-1.221583367115403e+01
1	 7.229430083319400e-01	 8.537885591715036e-01	-1.065994618241432e+01
1	 7.404463874426035e-01	 8.386540805394423e-01	-9.078058384925200e+00
1	 7.576439367044505e-01	 8.231507794943327e-01	-7.473262089365427e+00
1	 7.745241004098367e-01	 8.072880366977007e-01	-5.848721016634095e+00
1	 7.910757114402501e-01	 7.910757114402501e-01	-4.207659647613277e+00
1	 6.087696359428887e-01	 9.311583003697974e-01	-1.922606370111416e+01
1	 6.277403547953077e-01	 9.184760438545322e-01	-1.786301767074148e+01
1	 6.464825128298493e-01	 9.053819775314891e-01	-1.645754463542189e+01
1	 6.649828707972920e-01	 8.918822417738965e-01	-1.501227766719594e+01
1	 6.832284088917254e-01	 8.779835389475232e-01	-1.352997911291272e+01
1	 7.012063563594884e-01	 8.636931235824117e-01	-1.201353186553109e+01
1	 7.189042205745206e-01	 8.490187906829457e-01	-1.046592995349551e+01
1	 7.363098154441038e-01	 8.339688622107010e-01	-8.890268500129888e+00
1	 7.534112890115829e-01	 8.185521717858525e-01	-7.289733110675023e+00
1	 7.701971501263402e-01	 8.027780476639967e-01	-5.667588749777856e+00
1	 7.866562940559998e-01	 7.866562940559998e-01	-4.027168176844812e+00
1	 6.053495818094008e-01	 9.259270739632340e-01	-1.895239743327634e+01
1	 6.242137235890578e-01	 9.133160660799082e-01	-1.760869532993870e+01
1	 6.428505886004442e-01	 9.002955619270561e-01	-1.622013552661896e+01
1	 6.612470119721441e-01	 8.868716673814273e-01	-1.478940354005641e+01
1	 6.793900470432245e-01	 8.730510471550504e-01	-1.331932309396938e+01
1	 6.972669948058321e-01	 8.588409150221812e-01	-1.181284719925413e+01
1	 7.148654328171991e-01	 8.442490221950445e-01	-1.027304850392826e+01
1	 7.321732434458030e-01	 8.292836438826231e-01	-8.703108965856268e+00
1	 7.491786413190151e-01	 8.139535640780119e-01	-7.106308907396678e+00
1	 7.658701998432437e-01	 7.982680586308776e-01	-5.486015516685216e+00
1	 7.822368766722498e-01	 7.822368766722498e-01	-3.845670865253497e+00
1	 6.019295276754079e-01	 9.206958475566606e-01	-1.868246369799825e+01
1	 6.206870923824026e-01	 9.081560883054592e-01	-1.735773900527261e+01
1	 6.392186643707345e-01	 8.952091463229540e-01	-1.598569975026156e+01
1	 6.575111531467920e-01	 8.818610929894153e-01	-1.456908450206099e+01
1	 6.755516851946203e-01	 8.681185553631316e-01	-1.311077903924393e+01
1	 6.933276332521729e-01	 8.539887064625716e-01	-1.161380723720178e+01
1	 7.108266450599758e-01	 8.394792537078007e-01	-1.008132117654571e+01
1	 7.280366714477011e-01	 8.245984255552088e-01	-8.516590526718304e+00
1	 7.449459936267468e-01	 8.093549563708106e-01	-6.922991265477869e+00
1	 7.615432495605471e-01	 7.937580695983431e-01	-5.303993800888971e+00
1	 7.778174592890001e-01	 7.778174592890001e-01	-3.663150567828162e+00
1	 5.985094735409098e-01	 9.154646211500769e-01	-1.841632648155539e+01
1	 6.171604611753427e-01	 9.029961105311853e-01	-1.711020639988029e+01
1	 6.355867401407199e-01	 8.901227307191827e-01	-1.575428827776671e+01
1	 6.537752943212357e-01	 8.768505185978606e-01	-1.435136435474113e+01
1	 6.717133233459126e-01	 8.631860635717667e-01	-1.290438315384058e+01
1	 6.893882716985112e-01	 8.491364979035827e-01	-1.141644017430712e+01
1	 7.067878573028504e-01	 8.347094852212139e-01	-9.890767756302747e+00
1	 7.239000994497982e-01	 8.199132072284574e-01	-8.330724172921579e+00
1	 7.407133459347780e-01	 8.047563486642487e-01	-6.739782011687734e+00
1	 7.572162992782500e-01	 7.892480805663937e-01	-5.121515914117217e+00
1	 7.733980419062499e-01	 7.733980419062499e-01	-3.479589747672003e+00
1	 5.950894194059063e-01	 9.102333947434822e-01	-1.815405124117181e+01
1	 6.136338299678772e-01	 8.978361327570861e-01	-1.686615654340764e+01
1	 6.319548159104005e-01	 8.850363151157425e-01	-1.552595325230781e+01
1	 6.500394354954753e-01	 8.718399442067634e-01	-1.413628790656015e+01
1	 6.678749614971010e-01	 8.582535717809555e-01	-1.270017247516509e+01
1	 6.854489101448468e-01	 8.442842893452142e-01	-1.122077485366202e+01
1	 7.027490695458233e-01	 8.299397167352843e-01	-9.701408482981007e+00
1	 7.197635274520939e-01	 8.152279889023697e-01	-8.145521147319833e+00
1	 7.364806982431086e-01	 8.001577409583263e-01	-6.556683014790218e+00
1	 7.528893489963530e-01	 7.847380915350289e-01	-4.938573991356328e+00
1	 7.689786245240000e-01	 7.689786245240000e-01	-3.294970464740989e+00
1	 5.916693652703974e-01	 9.050021683368771e-01	-1.789570494753353e+01
1	 6.101071987600067e-01	 8.926761549831616e-01	-1.662564983034771e+01
1	 6.283228916797765e-01	 8.799498995126328e-01	-1.530074802268070e+01
1	 6.463035766695104e-01	 8.668293698161234e-01	-1.392390100201529e+01
1	 6.640365996481863e-01	 8.533210799906987e-01	-1.249818489697902e+01
1	 6.815095485911797e-01	 8.394320807874665e-01	-1.102684078525149e+01
1	 6.987102817888945e-01	 8.251699482500121e-01	-9.513264064333642e+00
1	 7.156269554545884e-01	 8.105427705769455e-01	-7.960992952717386e+00
1	 7.322480505517387e-01	 7.955591332530429e-01	-6.373696186757699e+00
1	 7.485623987148557e-01	 7.802281025042490e-01	-4.755159985742353e+00
1	 7.645592071422498e-01	 7.645592071422498e-01	-3.109274364192536e+00
1	 5.882493111343832e-01	 8.997709419302610e-01	-1.764135612878440e+01
1	 6.065805675517313e-01	 8.875161772094119e-01	-1.638874805971699e+01
1	 6.246909674488474e-01	 8.748634839098544e-01	-1.507872717835092e+01
1	 6.425677178433417e-01	 8.618187954259405e-01	-1.371425055175503e+01
1	 6.601982377991682e-01	 8.483885882009959e-01	-1.229845919429447e+01
1	 6.775701870375100e-01	 8.345798722303394e-01	-1.083466816533851e+01
1	 6.946714940320634e-01	 8.204001797653967e-01	-9.326355689689674e+00
1	 7.114903834572820e-01	 8.058575522521846e-01	-7.777151359425184e+00
1	 7.280154028606679e-01	 7.909605255483986e-01	-6.190823484026756e+00
1	 7.442354484337586e-01	 7.757181134740541e-01	-4.571265663275074e+00
1	 7.601397897609998e-01	 7.601397897609998e-01	-2.922482664327179e+00
1	 5.848292569978638e-01	 8.945397155236345e-01	-1.739107491606600e+01
1	 6.030539363430505e-01	 8.823561994358368e-01	-1.615551447612257e+01
1	 6.210590432176138e-01	 8.697770683074064e-01	-1.485994658573090e+01
1	 6.388318590169686e-01	 8.568082210362155e-01	-1.350738456375254e+01
1	 6.563598759500462e-01	 8.434560964118467e-01	-1.210103504914110e+01
1	 6.736308254838375e-01	 8.297276636738327e-01	-1.064428789653178e+01
1	 6.906327062753307e-01	 8.156304112814388e-01	-9.140705044034744e+00
1	 7.073538114601743e-01	 8.011723339280870e-01	-7.594008413083712e+00
1	 7.237827551698968e-01	 7.863619178443939e-01	-6.008066908798737e+00
1	 7.399084981530613e-01	 7.712081244444440e-01	-4.386882597346445e+00
1	 7.557203723802500e-01	 7.557203723802500e-01	-2.734576144107598e+00
1	 5.814092028608389e-01	 8.893084891169974e-01	-1.714493309066422e+01
1	 5.995273051339643e-01	 8.771962216624367e-01	-1.592601381228020e+01
1	 6.174271189860754e-01	 8.646906527052896e-01	-1.464446342573658e+01
1	 6.350960001903916e-01	 8.517976466469476e-01	-1.330335217558069e+01
1	 6.525215141008213e-01	 8.385236046232520e-01	-1.190595307724348e+01
1	 6.696914639301623e-01	 8.248754551179471e-01	-1.045573160855979e+01
1	 6.865939185186961e-01	 8.108606427981377e-01	-8.956334322589745e+00
1	 7.032172394632655e-01	 7.964871156046529e-01	-7.411576442759634e+00
1	 7.195501074794252e-01	 7.817633101410284e-01	-5.825428510385943e+00
1	 7.355815478727636e-01	 7.666981354154186e-01	-4.202002163074708e+00
1	 7.513009550000000e-01	 7.513009550000000e-01	-2.545535130236922e+00
1	 7.954951288250000e-01	 7.954951288249998e-01	-4.387162041569663e+00
1	 8.117980174388175e-01	 7.788510633304829e-01	-2.828845177730691e+00
1	 8.277493541285117e-01	 7.618766348356980e-01	-1.292076902974425e+00
1	 8.433392246814813e-01	 7.445830726538936e-01	 2.207326949687733e-01
1	 8.585581962027985e-01	 7.269819968216206e-01	 1.707268738076114e+00
1	 8.733973360046002e-01	 7.090853921996618e-01	 3.165319046212195e+00
1	 8.878482288198695e-01	 6.909055815044373e-01	 4.592781054907939e+00
1	 9.019029922722358e-01	 6.724551973962973e-01	 5.987668124312265e+00
1	 9.155542905443046e-01	 6.537471537558835e-01	 7.348115206181102e+00
1	 9.287953461982282e-01	 6.347946162834576e-01	 8.672383841319556e+00
1	 9.416199501136904e-01	 6.156109725587410e-01	 9.958866465645652e+00
1	 7.910757114402501e-01	 7.910757114402501e-01	-4.207659647613277e+00
1	 8.072880284506020e-01	 7.745241129763825e-01	-2.653152492676461e+00
1	 8.231507466031422e-01	 7.576439868623196e-01	-1.121434671563791e+00
1	 8.386540067642286e-01	 7.404465000262364e-01	 3.851018429971080e-01
1	 8.537884284439048e-01	 7.229432079489241e-01	 1.864164793712095e+00
1	 8.685451285803518e-01	 7.051460289086059e-01	 3.313569023013065e+00
1	 8.829157386580344e-01	 6.870672171621655e-01	 4.731243264066152e+00
1	 8.968924200915626e-01	 6.687193351885059e-01	 6.115236301035263e+00
1	 9.104678778180822e-01	 6.501152251244872e-01	 7.463722466615508e+00
1	 9.236353720521777e-01	 6.312679795275911e-01	 8.775006450556548e+00
1	 9.363887281686443e-01	 6.121909116020952e-01	 1.004752739880165e+01
1	 7.866562940559998e-01	 7.866562940559998e-01	-4.027168176844812e+00
1	 8.027780394629711e-01	 7.701971626226819e-01	-2.476480963118969e+00
1	 8.185521390784121e-01	 7.534113388892409e-01	-9.498383919000297e-01
1	 8.339687888476395e-01	 7.363099273987781e-01	 5.503857409285648e-01
1	 8.490186606856687e-01	 7.189044190763257e-01	 2.021921897762394e+00
1	 8.636929211567236e-01	 7.012066656175474e-01	 3.462612079216064e+00
1	 8.779832484967537e-01	 6.832288528197903e-01	 4.870416487715282e+00
1	 8.918818479113469e-01	 6.649834729805103e-01	 6.243419538263535e+00
1	 9.053814650921910e-01	 6.464832964927861e-01	 7.579835185543656e+00
1	 9.184753979063017e-01	 6.277413427713193e-01	 8.878011542395456e+00
1	 9.311575062235876e-01	 6.087708506449441e-01	 1.013643477075325e+01
1	 7.822368766722498e-01	 7.822368766722498e-01	-3.845670865253497e+00
1	 7.982680504759252e-01	 7.658702122693812e-01	-2.298813998475684e+00
1	 8.139535315543214e-01	 7.491786909164615e-01	-7.772718936746339e-01
1	 8.292835709317136e-01	 7.321733547715183e-01	 7.165998929985286e-01
1	 8.442488929280894e-01	 7.148656302038259e-01	 2.180554644269073e+00
1	 8.588407137337161e-01	 6.972673023264860e-01	 3.612461656846871e+00
1	 8.730507583360263e-01	 6.793904884773114e-01	 5.010312776951512e+00
1	 8.868712757315887e-01	 6.612476107723108e-01	 6.372228260755251e+00
1	 9.002950523666307e-01	 6.428513678607805e-01	 7.696461930063622e+00
1	 9.133154237606007e-01	 6.242147060146425e-01	 8.981405599598119e+00
1	 9.259262842785205e-01	 6.053507896872874e-01	 1.022559275843638e+01
1	 7.778174592890001e-01	 7.778174592890001e-01	-3.663150567828162e+00
1	 7.937580614894639e-01	 7.615432619164804e-01	-2.120134631105017e+00
1	 8.093549240308696e-01	 7.449460429439816e-01	-6.037186390724856e-01
1	 8.245983530164512e-01	 7.280367821444579e-01	 8.837601558115921e-01
1	 8.394791251711673e-01	 7.108268413314238e-01	 2.340077958956550e+00
1	 8.539885063113294e-01	 6.933279390354222e-01	 3.763131503431663e+00
1	 8.681182681758535e-01	 6.755521241347289e-01	 5.150944456759325e+00
1	 8.818607035522876e-01	 6.575117485639067e-01	 6.501673130195012e+00
1	 8.952086396414007e-01	 6.392194392284698e-01	 7.813611461980246e+00
1	 9.081554496150747e-01	 6.206880692575605e-01	 9.085195252262084e+00
1	 9.206950623334426e-01	 6.019307287291257e-01	 1.031500563371719e+01
1	 7.733980419062499e-01	 7.733980419062499e-01	-3.479589747672003e+00
1	 7.892480725035876e-01	 7.572163115639794e-01	-1.940425505533899e+00
1	 8.047563165080572e-01	 7.407133949718011e-01	-4.291617122712073e-01
1	 8.199131351018519e-01	 7.239002095175956e-01	 1.051882748408823e+00
1	 8.347093574149023e-01	 7.067880524591198e-01	 2.500507108708786e+00
1	 8.491362988895633e-01	 6.893885757443556e-01	 3.914635680725902e+00
1	 8.631857780162345e-01	 6.717137597920434e-01	 5.292324133837120e+00
1	 8.768501313734439e-01	 6.537758863552987e-01	 6.631765051963193e+00
1	 8.901222269165020e-01	 6.355875105958544e-01	 7.931292743368415e+00
1	 9.029954754697231e-01	 6.171614325000733e-01	 9.189387282030131e+00
1	 9.154638403883540e-01	 5.985106677704584e-01	 1.040467776610451e+01
1	 7.689786245240000e-01	 7.689786245240000e-01	-3.294970464740989e+00
1	 7.847380835182962e-01	 7.528893612118780e-01	-1.759668867312717e+00
1	 8.001577089858843e-01	 7.364807469999203e-01	-2.535838085789761e-01
1	 8.152279171879164e-01	 7.197636368909329e-01	 1.220984262682838e+00
1	 8.299395896592946e-01	 7.027492635869141e-01	 2.661857711372441e+00
1	 8.442840914684180e-01	 6.854492124532864e-01	 4.066988573743579e+00
1	 8.582532878571693e-01	 6.678753954492540e-01	 5.434464704692450e+00
1	 8.718395591950575e-01	 6.500400241464864e-01	 6.762515182138271e+00
1	 8.850358141919342e-01	 6.319555819629344e-01	 8.049514942327429e+00
1	 8.978355013245467e-01	 6.136347957421808e-01	 9.293988626444522e+00
1	 9.102326184432551e-01	 5.950906068112862e-01	 1.049461362555576e+01
1	 7.645592071422498e-01	 7.645592071422498e-01	-3.109274364192536e+00
1	 7.802280945335894e-01	 7.485624108601767e-01	-1.577846551484512e+00
1	 7.955591014643505e-01	 7.322480990283385e-01	-7.696722319530602e-02
1	 8.105426992746437e-01	 7.156270642644684e-01	 1.391081674153672e+00
1	 8.251698219043437e-01	 6.987104747148063e-01	 2.824145745900842e+00
1	 8.394318840478932e-01	 6.815098491622145e-01	 4.220204900100278e+00
1	 8.533207976986584e-01	 6.640370311063615e-01	 5.577379364018216e+00
1	 8.668289870171287e-01	 6.463041619374701e-01	 6.893934934743026e+00
1	 8.799494014676974e-01	 6.283236533297095e-01	 8.168287438935875e+00
1	 8.926755271795448e-01	 6.101081589838833e-01	 9.399006383453486e+00
1	 9.050013964981455e-01	 5.916705458516083e-01	 1.058481778537977e+01
1	 7.601397897609998e-01	 7.601397897609998e-01	-2.922482664327179e+00
1	 7.757181055494677e-01	 7.442354605088755e-01	-1.394939970651413e+00
1	 7.909604939434561e-01	 7.280154510570566e-01	 1.007061604195119e-01
1	 8.058574813620351e-01	 7.114904916382032e-01	 1.562192353121195e+00
1	 8.204000541500504e-01	 6.946716858427967e-01	 2.987387562850049e+00
1	 8.345796766279890e-01	 6.775704858711398e-01	 4.374299719681821e+00
1	 8.483883075407015e-01	 6.601986667633654e-01	 5.721081613360306e+00
1	 8.618184148396573e-01	 6.425682997282495e-01	 7.026035989242450e+00
1	 8.748629887437911e-01	 6.246917246961800e-01	 8.287619831413750e+00
1	 8.875155530347176e-01	 6.065815222251805e-01	 9.504447816073341e+00
1	 8.997701745530252e-01	 5.882504848914254e-01	 1.067529492524162e+01
1	 7.557203723802500e-01	 7.557203723802500e-01	-2.734576144107598e+00
1	 7.712081165659306e-01	 7.399085101579738e-01	-1.210930102622627e+00
1	 7.863618864232010e-01	 7.237828030860737e-01	 2.794548825839680e-01
1	 8.011722634500894e-01	 7.073539190121366e-01	 1.734334076207791e+00
1	 8.156302863964140e-01	 6.906328969708853e-01	 3.151599895246348e+00
1	 8.297274692087055e-01	 6.736311225800626e-01	 4.529288444651910e+00
1	 8.434558173832983e-01	 6.563603024202657e-01	 5.865585270090437e+00
1	 8.568078426626429e-01	 6.388324375188247e-01	 7.158830298305373e+00
1	 8.697765760202159e-01	 6.210597960623455e-01	 8.407521942500811e+00
1	 8.823555788900656e-01	 6.030548854660728e-01	 9.610320357216066e+00
1	 8.945389526078943e-01	 5.848304239307369e-01	 1.076604983427209e+01
1	 7.513009550000000e-01	 7.513009550000000e-01	-2.545535130236922e+00
1	 7.666981275829785e-01	 7.355815598074720e-01	-1.025797477626684e+00
1	 7.817632789035854e-01	 7.195501551153904e-01	 4.592979198593998e-01
1	 7.964870455388072e-01	 7.032173463862689e-01	 1.907525038309411e+00
1	 8.108605186434349e-01	 6.865941080990721e-01	 3.316799869833326e+00
1	 8.248752617900428e-01	 6.696917592889827e-01	 4.685186849813274e+00
1	 8.385233272264494e-01	 6.525219380770627e-01	 6.010904476695026e+00
1	 8.517972704860858e-01	 6.350965753091957e-01	 7.292330095839997e+00
1	 8.646901632969713e-01	 6.174278674282064e-01	 8.528003826060125e+00
1	 8.771956047455881e-01	 5.995282487065597e-01	 9.716631614685328e+00
1	 8.893077306627529e-01	 5.814103629695435e-01	 1.085708741428754e+01
1	 9.416199501136904e-01	 6.156109725587410e-01	 9.958866465645654e+00
1	 9.540224695195425e-01	 5.962098017009262e-01	 1.075316152286426e+01
1	 9.659978541089433e-01	 5.766048437667730e-01	 1.152086444226013e+01
1	 9.775416402367315e-01	 5.568099690270316e-01	 1.225959984003065e+01
1	 9.886499532091959e-01	 5.368391472596017e-01	 1.296707937992674e+01
1	 9.993195076898076e-01	 5.167064171925493e-01	 1.364110936108595e+01
1	 1.009547606253047e+00	 4.964258562287497e-01	 1.427959772714416e+01
1	 1.019332136129044e+00	 4.760115505788748e-01	 1.488056046411059e+01
1	 1.028671564191268e+00	 4.554775659241303e-01	 1.544212736009557e+01
1	 1.037564930248352e+00	 4.348379187240831e-01	 1.596254710568013e+01
1	 1.046011838709305e+00	 4.141065482781622e-01	 1.644019171945692e+01
1	 9.363887281686443e-01	 6.121909116020952e-01	 1.004752739880165e+01
1	 9.487223446894164e-01	 5.928975250275331e-01	 1.083466702311642e+01
1	 9.606311993648236e-01	 5.734014835269096e-01	 1.159754139708319e+01
1	 9.721108533477332e-01	 5.537165803139155e-01	 1.233361641308666e+01
1	 9.831574534705110e-01	 5.338567075565743e-01	 1.304043950265300e+01
1	 9.937677326484988e-01	 5.138358259900196e-01	 1.371564800813047e+01
1	 1.003939008441876e+00	 4.936679348093340e-01	 1.435697698417808e+01
1	 1.013669179818383e+00	 4.733670419684649e-01	 1.496226639116686e+01
1	 1.022956722168860e+00	 4.529471350059461e-01	 1.552946764832055e+01
1	 1.031800680636339e+00	 4.324221525121261e-01	 1.605664952029414e+01
1	 1.040200661827557e+00	 4.118059563458839e-01	 1.654200331683796e+01
1	 9.311575062235876e-01	 6.087708506449441e-01	 1.013643477075325e+01
1	 9.434222198590955e-01	 5.895852483535454e-01	 1.091710380754073e+01
1	 9.552645446203550e-01	 5.701981232863821e-01	 1.167585698939257e+01
1	 9.666800664582633e-01	 5.506231916000869e-01	 1.240999999297402e+01
1	 9.776649537312624e-01	 5.308742678528068e-01	 1.311691449041389e+01
1	 9.882159576065644e-01	 5.109652347867418e-01	 1.379406731068746e+01
1	 9.983304106300467e-01	 4.909100133891826e-01	 1.443901903936588e+01
1	 1.008006223507062e+00	 4.707225333573514e-01	 1.504943201341836e+01
1	 1.017241880145820e+00	 4.504167040871099e-01	 1.562307767359801e+01
1	 1.026036431023750e+00	 4.300063862995889e-01	 1.615784324298266e+01
1	 1.034389484945319e+00	 4.095053644131161e-01	 1.665173770640530e+01
1	 9.259262842785205e-01	 6.053507896872874e-01	 1.022559275843638e+01
1	 9.381220950285795e-01	 5.862729716789622e-01	 1.100048766062083e+01
1	 9.498978898755379e-01	 5.669947630451908e-01	 1.175583899270990e+01
1	 9.612492795683215e-01	 5.475298028855463e-01	 1.248879069845644e+01
1	 9.721724539914496e-01	 5.278918281482988e-01	 1.319655713753475e+01
1	 9.826641825640042e-01	 5.080946435827162e-01	 1.387643304258090e+01
1	 9.927218128175598e-01	 4.881520919682955e-01	 1.452580292318542e+01
1	 1.002343267195081e+00	 4.680780247455344e-01	 1.514214986807159e+01
1	 1.011527038122148e+00	 4.478862731676225e-01	 1.572306370265675e+01
1	 1.020272181410586e+00	 4.275906200864715e-01	 1.626624846540648e+01
1	 1.028578308062591e+00	 4.072047724798583e-01	 1.676952917277055e+01
1	 9.206950623334426e-01	 6.019307287291257e-01	 1.031500563371719e+01
1	 9.328219701978682e-01	 5.829606950037843e-01	 1.108483472557843e+01
1	 9.445312351303716e-01	 5.637914028033355e-01	 1.183751581177330e+01
1	 9.558184926779082e-01	 5.444364141702933e-01	 1.257002956008768e+01
1	 9.666799542510729e-01	 5.249093884430507e-01	 1.327942143821202e+01
1	 9.771124075208180e-01	 5.052240523779424e-01	 1.396281247249439e+01
1	 9.871132150044155e-01	 4.853941705466729e-01	 1.461740946226188e+01
1	 9.966803108824405e-01	 4.654335161330141e-01	 1.524051459545149e+01
1	 1.005812196097844e+00	 4.453558422474835e-01	 1.582953441737854e+01
1	 1.014507931796846e+00	 4.251748538727739e-01	 1.638198811085518e+01
1	 1.022767131179374e+00	 4.049041805461108e-01	 1.689551505246845e+01
1	 9.154638403883540e-01	 5.985106677704584e-01	 1.040467776610450e+01
1	 9.275218453669616e-01	 5.796484183280115e-01	 1.117016151462345e+01
1	 9.391645803848568e-01	 5.605880425608165e-01	 1.192091650057214e+01
1	 9.503877057870230e-01	 5.413430254543278e-01	 1.265375854626282e+01
1	 9.611874545101320e-01	 5.219269487370621e-01	 1.336556262079512e+01
1	 9.715606324770054e-01	 5.023534611724205e-01	 1.405327440668138e+01
1	 9.815046171906130e-01	 4.826362491243143e-01	 1.471392133068609e+01
1	 9.910173545691400e-01	 4.627890075197903e-01	 1.534462299909041e+01
1	 1.000097354072907e+00	 4.428254113266930e-01	 1.594260098380258e+01
1	 1.008743682182532e+00	 4.227590876584962e-01	 1.650518791229371e+01
1	 1.016955954295666e+00	 4.026035886118736e-01	 1.702983582115463e+01
1	 9.102326184432551e-01	 5.950906068112862e-01	 1.049461362555576e+01
1	 9.222217205358605e-01	 5.763361416516439e-01	 1.125648491955657e+01
1	 9.337979256389933e-01	 5.573846823176334e-01	 1.200607078100344e+01
1	 9.449569188956665e-01	 5.382496367376502e-01	 1.274002059016765e+01
1	 9.556949547686273e-01	 5.189445090303332e-01	 1.345503718325097e+01
1	 9.660088574325674e-01	 4.994828699661508e-01	 1.414788923314843e+01
1	 9.758960193761529e-01	 4.798783277012202e-01	 1.481542310310282e+01
1	 9.853543982551802e-01	 4.601444989058631e-01	 1.545457410788931e+01
1	 9.943825120473381e-01	 4.402949804052509e-01	 1.606237712350926e+01
1	 1.002979432567641e+00	 4.203433214436381e-01	 1.663597649310001e+01
1	 1.011144777411470e+00	 4.003029966771468e-01	 1.717263518381029e+01
1	 9.050013964981455e-01	 5.916705458516083e-01	 1.058481778537977e+01
1	 9.169215957045638e-01	 5.730238649746811e-01	 1.134382222274056e+01
1	 9.284312708927808e-01	 5.541813220737865e-01	 1.209300906217591e+01
1	 9.395261320038381e-01	 5.351562480202601e-01	 1.282885961766281e+01
1	 9.502024550265584e-01	 5.159620693228640e-01	 1.354790292985759e+01
1	 9.604570823875032e-01	 4.966122787591328e-01	 1.424672896737057e+01
1	 9.702874215610351e-01	 4.771204062773905e-01	 1.492200130964002e+01
1	 9.796914419405601e-01	 4.574999902912325e-01	 1.557046924043490e+01
1	 9.886676700211368e-01	 4.377645494831573e-01	 1.618897918747968e+01
1	 9.972151829521755e-01	 4.179275552281999e-01	 1.677448545060312e+01
1	 1.005333600526783e+00	 3.980024047419303e-01	 1.732406016807528e+01
1	 8.997701745530252e-01	 5.882504848914254e-01	 1.067529492524162e+01
1	 9.116214708730721e-01	 5.697115882971234e-01	 1.143219110845357e+01
1	 9.230646161462198e-01	 5.509779618292756e-01	 1.218176246038656e+01
1	 9.340953451115379e-01	 5.320628593021577e-01	 1.292032057614055e+01
1	 9.447099552839260e-01	 5.129796296146547e-01	 1.364421900917881e+01
1	 9.549053073418129e-01	 4.937416875513668e-01	 1.434986729960101e+01
1	 9.646788237452593e-01	 4.743624848528251e-01	 1.503374449275413e+01
1	 9.740284856252802e-01	 4.548554816758984e-01	 1.569241207156000e+01
1	 9.829528279943035e-01	 4.352341185604123e-01	 1.632252623253186e+01
1	 9.914509333361348e-01	 4.155117890121817e-01	 1.692084944253517e+01
1	 9.995224236416068e-01	 3.957018128062239e-01	 1.748426122083702e+01
1	 8.945389526078943e-01	 5.848304239307369e-01	 1.076604983427209e+01
1	 9.063213460413851e-01	 5.663993116189707e-01	 1.152160967464098e+01
1	 9.176979613993100e-01	 5.477746015841010e-01	 1.227236281979939e+01
1	 9.286645582187663e-01	 5.289694705833431e-01	 1.301444946439419e+01
1	 9.392174555407290e-01	 5.099971899057049e-01	 1.374404595337037e+01
1	 9.493535322954966e-01	 4.908710963428530e-01	 1.445737964384198e+01
1	 9.590702259288257e-01	 4.716045634275239e-01	 1.515074326607029e+01
1	 9.683655293093408e-01	 4.522109730598609e-01	 1.582050870123985e+01
1	 9.772379859668381e-01	 4.327036876370157e-01	 1.646314010043864e+01
1	 9.856866837195182e-01	 4.130960227955831e-01	 1.707520627651672e+01
1	 9.937112467559407e-01	 3.934012208700279e-01	 1.765339230820847e+01
1	 8.893077306627529e-01	 5.814103629695435e-01	 1.085708741428754e+01
1	 9.010212212095035e-01	 5.630870349402234e-01	 1.161209644508222e+01
1	 9.123313066520512e-01	 5.445712413382624e-01	 1.236484273385256e+01
1	 9.232337713255228e-01	 5.258760818638161e-01	 1.311129336354141e+01
1	 9.337249557969681e-01	 5.070147501960147e-01	 1.384744571887431e+01
1	 9.438017572485544e-01	 4.880005051335909e-01	 1.456934318854260e+01
1	 9.534616281117342e-01	 4.688466420014871e-01	 1.527309037529888e+01
1	 9.627025729927415e-01	 4.495664644431200e-01	 1.595486772591962e+01
1	 9.715231439387405e-01	 4.301732567129676e-01	 1.661094549983829e+01
1	 9.799224341023265e-01	 4.106802565784043e-01	 1.723769700270091e+01
1	 9.879000698697851e-01	 3.911006289333422e-01	 1.783161101903485e+01
1	 1.046011838709305e+00	 4.141065482781622e-01	 1.644019171945692e+01
1	 1.054012448698681e+00	 3.932972896415816e-01	 1.721678522641334e+01
1	 1.061567462705180e+00	 3.724238474906104e-01	 1.795415215000223e+01
1	 1.068678113852559e+00	 3.514997710211837e-01	 1.865001194426351e+01
1	 1.075346151886618e+00	 3.305384299564655e-01	 1.930222999981341e+01
1	 1.081573827976446e+00	 3.095529917325722e-01	 1.990882195255911e+01
1	 1.087363878431055e+00	 2.885563999206454e-01	 2.046795715822929e+01
1	 1.092719507434896e+00	 2.675613539349599e-01	 2.097796134149680e+01
1	 1.097644368907272e+00	 2.465802900677319e-01	 2.143731843433387e+01
1	 1.102142547591368e+00	 2.256253638823921e-01	 2.184467162368927e+01
1	 1.106218539478505e+00	 2.047084339883523e-01	 2.219882363357877e+01
1	 1.040200661827557e+00	 4.118059563458839e-01	 1.654200331683796e+01
1	 1.048156823983143e+00	 3.911123047011488e-01	 1.732959977897907e+01
1	 1.055669865689176e+00	 3.703548261172301e-01	 1.807750922251338e+01
1	 1.062741013218729e+00	 3.495469945167508e-01	 1.878346552108381e+01
1	 1.069372006596789e+00	 3.287021053466337e-01	 1.944534885395917e+01
1	 1.075565084485949e+00	 3.078332528905708e-01	 2.006118994511879e+01
1	 1.081322967993503e+00	 2.869533088109735e-01	 2.062917346988509e+01
1	 1.086648843502876e+00	 2.660749019698129e-01	 2.114764063821239e+01
1	 1.091546344633818e+00	 2.452103995687910e-01	 2.161509096957006e+01
1	 1.096019533436495e+00	 2.243718896404284e-01	 2.203018327977616e+01
1	 1.100072880924498e+00	 2.035711649129715e-01	 2.239173590510411e+01
1	 1.034389484945319e+00	 4.095053644131161e-01	 1.665173770640530e+01
1	 1.042301199267208e+00	 3.889273197603154e-01	 1.745033045702298e+01
1	 1.049772268672862e+00	 3.682858047435174e-01	 1.820877375730324e+01
1	 1.056803912584663e+00	 3.475942180120330e-01	 1.892481594194593e+01
1	 1.063397861306787e+00	 3.268657807365440e-01	 1.959635202416109e+01
1	 1.069556340995332e+00	 3.061135140483179e-01	 2.022142786487201e+01
1	 1.075282057555875e+00	 2.853502177010361e-01	 2.079824351119022e+01
1	 1.080578179570813e+00	 2.645884500043668e-01	 2.132515571360370e+01
1	 1.085448320360346e+00	 2.438405090694980e-01	 2.180067963711809e+01
1	 1.089896519281619e+00	 2.231184153980408e-01	 2.222348978697321e+01
1	 1.093927222370491e+00	 2.024338958370760e-01	 2.259242017449145e+01
1	 1.028578308062591e+00	 4.072047724798583e-01	 1.676952917277055e+01
1	 1.036445574550879e+00	 3.867423348190815e-01	 1.757911143216207e+01
1	 1.043874671656237e+00	 3.662167833694726e-01	 1.834807977915505e+01
1	 1.050866811950360e+00	 3.456414415070303e-01	 1.907419705166282e+01
1	 1.057423716016612e+00	 3.250294561261960e-01	 1.975537314289317e+01
1	 1.063547597504596e+00	 3.043937752058128e-01	 2.038966910041360e+01
1	 1.069241147118170e+00	 2.837471265908329e-01	 2.097530039620438e+01
1	 1.074507515638708e+00	 2.631019980386216e-01	 2.151063937747615e+01
1	 1.079350296086854e+00	 2.424706185698530e-01	 2.199421691379348e+01
1	 1.083773505126738e+00	 2.218649411552291e-01	 2.242472326139680e+01
1	 1.087781563816485e+00	 2.012966267606660e-01	 2.280100817051315e+01
1	 1.022767131179374e+00	 4.049041805461108e-01	 1.689551505246845e+01
1	 1.030589949834155e+00	 3.845573498774475e-01	 1.771607992536816e+01
1	 1.037977074639302e+00	 3.641477619950954e-01	 1.849556435886969e+01
1	 1.044929711315819e+00	 3.436886650017427e-01	 1.923174573697509e+01
1	 1.051449570726263e+00	 3.231931315155895e-01	 1.992254887973127e+01
1	 1.057538854013740e+00	 3.026740363630560e-01	 2.056605007189724e+01
1	 1.063200236680390e+00	 2.821440354803642e-01	 2.116048026430675e+01
1	 1.068436851706560e+00	 2.616155460725771e-01	 2.170422745803963e+01
1	 1.073252271813344e+00	 2.411007280698561e-01	 2.219583828724834e+01
1	 1.077650490971851e+00	 2.206114669119935e-01	 2.263401882180223e+01
1	 1.081635905262478e+00	 2.001593576837412e-01	 2.301763461577708e+01
1	 1.016955954295666e+00	 4.026035886118736e-01	 1.702983582115463e+01
1	 1.024734325117036e+00	 3.823723649354129e-01	 1.786137629409267e+01
1	 1.032079477622055e+00	 3.620787406203863e-01	 1.865136770029514e+01
1	 1.038992610681042e+00	 3.417358884961702e-01	 1.939760201346315e+01
1	 1.045475425435741e+00	 3.213568069047251e-01	 2.009801902812715e+01
1	 1.051530110522764e+00	 3.009542975200472e-01	 2.075071031765160e+01
1	 1.057159326242533e+00	 2.805409443696298e-01	 2.135392236663369e+01
1	 1.062366187774369e+00	 2.601290941062337e-01	 2.190605888814881e+01
1	 1.067154247539815e+00	 2.397308375695071e-01	 2.240568234199519e+01
1	 1.071527476816960e+00	 2.193579926683338e-01	 2.285151467537318e+01
1	 1.075490246708472e+00	 1.990220886063018e-01	 2.324243731226482e+01
1	 1.011144777411470e+00	 4.003029966771468e-01	 1.717263518381029e+01
1	 1.018878700399522e+00	 3.801873799929780e-01	 1.801514412239500e+01
1	 1.026181880604498e+00	 3.600097192453448e-01	 1.881563323035632e+01
1	 1.033055510046029e+00	 3.397831119903129e-01	 1.957190911545634e+01
1	 1.039501280145047e+00	 3.195204822936025e-01	 2.028192659517513e+01
1	 1.045521367031669e+00	 2.992345586767866e-01	 2.094379258378286e+01
1	 1.051118415804600e+00	 2.789378532586298e-01	 2.155576915549696e+01
1	 1.056295523842136e+00	 2.586426421395911e-01	 2.211627579451687e+01
1	 1.061056223266267e+00	 2.383609470688060e-01	 2.262389084839729e+01
1	 1.065404462662065e+00	 2.181045184242502e-01	 2.307735220646985e+01
1	 1.069344588154466e+00	 1.978848195283477e-01	 2.347555722981931e+01
1	 1.005333600526783e+00	 3.980024047419303e-01	 1.732406016807528e+01
1	 1.013023075681613e+00	 3.780023950501427e-01	 1.817753031419751e+01
1	 1.020284283586631e+00	 3.579406978699712e-01	 1.898850769220771e+01
1	 1.027118409410778e+00	 3.378303354841707e-01	 1.975481358906059e+01
1	 1.033527134854179e+00	 3.176841576822215e-01	 2.047441789449203e+01
1	 1.039512623540453e+00	 2.975148198332739e-01	 2.114544291688528e+01
1	 1.045077505366590e+00	 2.773347621473641e-01	 2.176616637690342e+01
1	 1.050224859909860e+00	 2.571561901726495e-01	 2.233502359002377e+01
1	 1.054958198992700e+00	 2.369910565677530e-01	 2.285060885474520e+01
1	 1.059281448507164e+00	 2.168510441797426e-01	 2.331167606845481e+01
1	 1.063198929600459e+00	 1.967475504498789e-01	 2.371713859770163e+01
1	 9.995224236416068e-01	 3.957018128062239e-01	 1.748426122083702e+01
1	 1.007167450963309e+00	 3.758174101069069e-01	 1.834868518979276e+01
1	 1.014386686568452e+00	 3.558716764942654e-01	 1.917014124163538e+01
1	 1.021181308775291e+00	 3.358775589777435e-01	 1.994646538843071e+01
1	 1.027552989563138e+00	 3.158478330705823e-01	 2.067564264233681e+01
1	 1.033503880049119e+00	 2.957950809895096e-01	 2.135581075998540e+01
1	 1.039036594928505e+00	 2.757316710358328e-01	 2.198526316630172e+01
1	 1.044154195977542e+00	 2.556697382054086e-01	 2.256245106924412e+01
1	 1.048860174719115e+00	 2.356211660663479e-01	 2.308598478254543e+01
1	 1.053158434352260e+00	 2.155975699348111e-01	 2.355463427872208e+01
1	 1.057053271046453e+00	 1.956102813708955e-01	 2.396732899934146e+01
1	 9.937112467559407e-01	 3.934012208700279e-01	 1.765339230820847e+01
1	 1.001311826244610e+00	 3.736324251632709e-01	 1.852876258573767e+01
1	 1.008489089549963e+00	 3.538026551182273e-01	 1.936068754684149e+01
1	 1.015244208139567e+00	 3.339247824710316e-01	 2.014701797542110e+01
1	 1.021578844271924e+00	 3.140115084586850e-01	 2.088575405710323e+01
1	 1.027495136557664e+00	 2.940753421454933e-01	 2.157504905185313e+01
1	 1.032995684490343e+00	 2.741285799240361e-01	 2.221321214768913e+01
1	 1.038083532045181e+00	 2.541832862378688e-01	 2.279871050732734e+01
1	 1.042762150445510e+00	 2.342512755645909e-01	 2.333017052515239e+01
1	 1.047035420197350e+00	 2.143440956894554e-01	 2.380637831706065e+01
1	 1.050907612492446e+00	 1.944730122913974e-01	 2.422627947041216e+01
1	 9.879000698697851e-01	 3.911006289333422e-01	 1.783161101903485e+01
1	 9.954562015255157e-01	 3.714474402192344e-01	 1.871791995827301e+01
1	 1.002591492531163e+00	 3.517336337418570e-01	 1.956030389175077e+01
1	 1.009307107503605e+00	 3.319720059640346e-01	 2.035662842275336e+01
1	 1.015604698980536e+00	 3.121751838465295e-01	 2.110490896232364e+01
1	 1.021486393066090e+00	 2.923556033012252e-01	 2.180331432981755e+01
1	 1.026954774052105e+00	 2.725254888119736e-01	 2.245016953621558e+01
1	 1.032012868112777e+00	 2.526968342700297e-01	 2.304395776236734e+01
1	 1.036664126171887e+00	 2.328813850624818e-01	 2.358332154988158e+01
1	 1.040912406042436e+00	 2.130906214436759e-01	 2.406706322748964e+01
1	 1.044761953938440e+00	 1.933357432113846e-01	 2.449414460036745e+01
1	 1.106218539478505e+00	 2.047084339883523e-01	 2.219882363357877e+01
1	 1.109877231672738e+00	 1.838410472119971e-01	 2.271716752349743e+01
1	 1.113123881798189e+00	 1.630344251697315e-01	 2.317385858952698e+01
1	 1.115964097050903e+00	 1.422994522418954e-01	 2.356917121541698e+01
1	 1.118403812994213e+00	 1.216466649391038e-01	 2.390351538195166e+01
1	 1.120449272191891e+00	 1.010862426446089e-01	 2.417743046076642e+01
1	 1.122107002770802e+00	 8.062799971050828e-02	 2.439157872321077e+01
1	 1.123383797000342e+00	 6.028137887946551e-02	 2.454673861425711e+01
1	 1.124286689971457e+00	 4.005544599815154e-02	 2.464379784026107e+01
1	 1.124822938453228e+00	 1.995888598368898e-02	 2.468374631784202e+01
1	 1.125000000000000e+00	 0.000000000000000e+00	 2.466766902931665e+01
1	 1.100072880924498e+00	 2.035711649129715e-01	 2.239173590510411e+01
1	 1.103711247051248e+00	 1.828197080636284e-01	 2.291225124347371e+01
1	 1.106939860231792e+00	 1.621286783663531e-01	 2.337142339806344e+01
1	 1.109764296511083e+00	 1.415088997327085e-01	 2.376950618958292e+01
1	 1.112190458477105e+00	 1.209708501371425e-01	 2.410688810810592e+01
1	 1.114224554012720e+00	 1.005246524107813e-01	 2.438408623719084e+01
1	 1.115873074977423e+00	 8.018006638154723e-02	 2.460173989107449e+01
1	 1.117142775905779e+00	 5.994648233242563e-02	 2.476060401425567e+01
1	 1.118040652804898e+00	 3.983291574427596e-02	 2.486154239164942e+01
1	 1.118573922128475e+00	 1.984800328468466e-02	 2.490552071601877e+01
1	 1.118750000000000e+00	 0.000000000000000e+00	 2.489359955761659e+01
1	 1.093927222370491e+00	 2.024338958370760e-01	 2.259242017449145e+01
1	 1.097545262429759e+00	 1.817983689146612e-01	 2.311519294611782e+01
1	 1.100755838665394e+00	 1.612229315623238e-01	 2.357693679441783e+01
1	 1.103564495971262e+00	 1.407183472228495e-01	 2.397788474668163e+01
1	 1.105977103959997e+00	 1.202950353345185e-01	 2.431840356855739e+01
1	 1.107999835833550e+00	 9.996306217633016e-02	 2.459898781932533e+01
1	 1.109639147184044e+00	 7.973213305203124e-02	 2.482025361824735e+01
1	 1.110901754811217e+00	 5.961158578492809e-02	 2.498293217062020e+01
1	 1.111794615638339e+00	 3.961038549006808e-02	 2.508786310108743e+01
1	 1.112324905803722e+00	 1.973712058550080e-02	 2.513598764035116e+01
1	 1.112500000000000e+00	 0.000000000000000e+00	 2.512834170971482e+01
1	 1.087781563816485e+00	 2.012966267606660e-01	 2.280100817051315e+01
1	 1.091379277808269e+00	 1.807770297650954e-01	 2.332612581757324e+01
1	 1.094571817098995e+00	 1.603171847576436e-01	 2.379053350041562e+01
1	 1.097364695431442e+00	 1.399277947123184e-01	 2.419444321862696e+01
1	 1.099763749442888e+00	 1.196192205312316e-01	 2.453819977575306e+01
1	 1.101775117654379e+00	 9.940147194125558e-02	 2.482227496659171e+01
1	 1.103405219390665e+00	 7.928419972196031e-02	 2.504726147353581e+01
1	 1.104660733716655e+00	 5.927668923697291e-02	 2.521386651990562e+01
1	 1.105548578471779e+00	 3.938785523552791e-02	 2.532290532719417e+01
1	 1.106075889478969e+00	 1.962623788613743e-02	 2.537529442180075e+01
1	 1.106250000000000e+00	 0.000000000000000e+00	 2.537204483517880e+01
1	 1.081635905262478e+00	 2.001593576837412e-01	 2.301763461577708e+01
1	 1.085213293186779e+00	 1.797556906149309e-01	 2.354518607094103e+01
1	 1.088387795532598e+00	 1.594114379523125e-01	 2.401235129974195e+01
1	 1.091164894891622e+00	 1.391372422011152e-01	 2.441932103578526e+01
1	 1.093550394925781e+00	 1.189434057272820e-01	 2.476641787878658e+01
1	 1.095550399475209e+00	 9.883988170555739e-02	 2.505409061476231e+01
1	 1.097171291597287e+00	 7.883626639133443e-02	 2.528290824321946e+01
1	 1.098419712622093e+00	 5.894179268856006e-02	 2.545355375858886e+01
1	 1.099302541305220e+00	 3.916532498065542e-02	 2.556681773219407e+01
1	 1.099826873154216e+00	 1.951535518659453e-02	 2.562359173976053e+01
1	 1.100000000000000e+00	 0.000000000000000e+00	 2.562486167788491e+01
1	 1.075490246708472e+00	 1.990220886063018e-01	 2.324243731226482e+01
1	 1.079047308565290e+00	 1.787343514641679e-01	 2.377251303276451e+01
1	 1.082203773966200e+00	 1.585056911463306e-01	 2.424253112542316e+01
1	 1.084965094351802e+00	 1.383466896892400e-01	 2.465266081550266e+01
1	 1.087337040408672e+00	 1.182675909226697e-01	 2.500320225301653e+01
1	 1.089325681296038e+00	 9.827829146923577e-02	 2.529458096671308e+01
1	 1.090937363803908e+00	 7.838833306015364e-02	 2.552734202297874e+01
1	 1.092178691527530e+00	 5.860689613968957e-02	 2.570214393620941e+01
1	 1.093056504138661e+00	 3.894279472545065e-02	 2.581975237630560e+01
1	 1.093577856829463e+00	 1.940447248687210e-02	 2.588103371772437e+01
1	 1.093750000000000e+00	 0.000000000000000e+00	 2.588694847299857e+01
1	 1.069344588154466e+00	 1.978848195283477e-01	 2.347555722981931e+01
1	 1.072881323943800e+00	 1.777130123128063e-01	 2.400824923249582e+01
1	 1.076019752399802e+00	 1.575999443396977e-01	 2.448121715032530e+01
1	 1.078765293811981e+00	 1.375561371766926e-01	 2.489460845368500e+01
1	 1.081123685891564e+00	 1.175917761173946e-01	 2.524870059277541e+01
1	 1.083100963116868e+00	 9.771670123229056e-02	 2.554389558630566e+01
1	 1.084703436010529e+00	 7.794039972841788e-02	 2.578071431299273e+01
1	 1.085937670432968e+00	 5.827199959036142e-02	 2.595979055172177e+01
1	 1.086810466972102e+00	 3.872026446991360e-02	 2.608186481538487e+01
1	 1.087328840504711e+00	 1.929358978697015e-02	 2.614777802225536e+01
1	 1.087500000000000e+00	 0.000000000000000e+00	 2.615846504729883e+01
1	 1.063198929600459e+00	 1.967475504498789e-01	 2.371713859770163e+01
1	 1.066715339322310e+00	 1.766916731608462e-01	 2.425254049506560e+01
1	 1.069835730833404e+00	 1.566941975324140e-01	 2.472855688079088e+01
1	 1.072565493272161e+00	 1.367655846634732e-01	 2.514531321955381e+01
1	 1.074910331374456e+00	 1.169159613114567e-01	 2.550306400729363e+01
1	 1.076876244937697e+00	 9.715511099472186e-02	 2.580218749552587e+01
1	 1.078469508217150e+00	 7.749246639612718e-02	 2.604318011633501e+01
1	 1.079696649338405e+00	 5.793710304057563e-02	 2.622665065318958e+01
1	 1.080564429805542e+00	 3.849773421404423e-02	 2.635331420195546e+01
1	 1.081079824179958e+00	 1.918270708688867e-02	 2.642398596538683e+01
1	 1.081250000000000e+00	 0.000000000000000e+00	 2.643957492298211e+01
1	 1.057053271046453e+00	 1.956102813708955e-01	 2.396732899934146e+01
1	 1.060549354700820e+00	 1.756703340082873e-01	 2.450553603668179e+01
1	 1.063651709267006e+00	 1.557884507244794e-01	 2.498470125354249e+01
1	 1.066365692732340e+00	 1.359750321495816e-01	 2.540492785370789e+01
1	 1.068696976857348e+00	 1.162401465048560e-01	 2.576644711996974e+01
1	 1.070651526758527e+00	 9.659352075652966e-02	 2.606961327501048e+01
1	 1.072235580423771e+00	 7.704453306328157e-02	 2.631489804080209e+01
1	 1.073455628243843e+00	 5.760220649033218e-02	 2.650288494095727e+01
1	 1.074318392638983e+00	 3.827520395784257e-02	 2.663426338976298e+01
1	 1.074830807855205e+00	 1.907182438662767e-02	 2.670982261059514e+01
1	 1.075000000000000e+00	 0.000000000000000e+00	 2.673044542508723e+01
1	 1.050907612492446e+00	 1.944730122913974e-01	 2.422627947041216e+01
1	 1.054383370079331e+00	 1.746489948551299e-01	 2.476738856398973e+01
1	 1.057467687700608e+00	 1.548827039158939e-01	 2.524980473598611e+01
1	 1.060165892192520e+00	 1.351844796350180e-01	 2.567360866962548e+01
1	 1.062483622340241e+00	 1.155643316975926e-01	 2.603900817112412e+01
1	 1.064426808579356e+00	 9.603193051771390e-02	 2.634633316810142e+01
1	 1.066001652630393e+00	 7.659659972988100e-02	 2.659603040431456e+01
1	 1.067214607149281e+00	 5.726730993963109e-02	 2.678865787444207e+01
1	 1.068072355472423e+00	 3.805267370130860e-02	 2.692487904199773e+01
1	 1.068581791530452e+00	 1.896094168618714e-02	 2.700545688249123e+01
1	 1.068750000000000e+00	 0.000000000000000e+00	 2.703124779268958e+01
1	 1.044761953938440e+00	 1.933357432113846e-01	 2.449414460036745e+01
1	 1.048217385457841e+00	 1.736276557013739e-01	 2.503825437673220e+01
1	 1.051283666134210e+00	 1.539769571066575e-01	 2.552402543005486e+01
1	 1.053966091652700e+00	 1.343939271197823e-01	 2.595151565874903e+01
1	 1.056270267823132e+00	 1.148885168896664e-01	 2.632090912437870e+01
1	 1.058202090400186e+00	 9.547034027827463e-02	 2.663251118857220e+01
1	 1.059767724837014e+00	 7.614866639592550e-02	 2.688674334403848e+01
1	 1.060973586054718e+00	 5.693241338847237e-02	 2.708413778269480e+01
1	 1.061826318305864e+00	 3.783014344444236e-02	 2.722533174333727e+01
1	 1.062332775205699e+00	 1.885005898556709e-02	 2.731106168038313e+01
1	 1.062500000000000e+00	 0.000000000000000e+00	 2.734215729401994e+01
1	 0.000000000000000e+00	 1.062500000000000e+00	-2.882557458749372e+01
1	 1.885005898556716e-02	 1.062332775205699e+00	-2.927299638388065e+01
1	 3.783014344444251e-02	 1.061826318305864e+00	-2.966923663006969e+01
1	 5.693241338847256e-02	 1.060973586054718e+00	-3.001273463568475e+01
1	 7.614866639592580e-02	 1.059767724837014e+00	-3.030201135408598e+01
1	 9.547034027827499e-02	 1.058202090400186e+00	-3.053567779573488e+01
1	 1.148885168896669e-01	 1.056270267823132e+00	-3.071244345432033e+01
1	 1.343939271197828e-01	 1.053966091652700e+00	-3.083112469732706e+01
1	 1.539769571066580e-01	 1.051283666134210e+00	-3.089065306996059e+01
1	 1.736276557013745e-01	 1.048217385457841e+00	-3.089008345882861e+01
1	 1.933357432113846e-01	 1.044761953938440e+00	-3.082860205959416e+01
1	 0.000000000000000e+00	 1.056250000000000e+00	-2.827727174406016e+01
1	 1.873917628494711e-02	 1.056083758880946e+00	-2.871263633844843e+01
1	 3.760761318757626e-02	 1.055580281139305e+00	-2.909861327453886e+01
1	 5.659751683731380e-02	 1.054732564960156e+00	-2.943369558349261e+01
1	 7.570073306197027e-02	 1.053533797043635e+00	-2.971645344566089e+01
1	 9.490875003883571e-02	 1.051977372221015e+00	-2.994554219955253e+01
1	 1.142127020817406e-01	 1.050056913306024e+00	-3.011971036587220e+01
1	 1.336033746045470e-01	 1.047766291112880e+00	-3.023780764092300e+01
1	 1.530712102974217e-01	 1.045099644567812e+00	-3.029879281100736e+01
1	 1.726063165476185e-01	 1.042051400836352e+00	-3.030174153707874e+01
1	 1.921984741313718e-01	 1.038616295384433e+00	-3.024585395680378e+01
1	 0.000000000000000e+00	 1.050000000000000e+00	-2.773355381035536e+01
1	 1.862829358450659e-02	 1.049834742556193e+00	-2.815679133405992e+01
1	 3.738508293104230e-02	 1.049334243972746e+00	-2.853245649860618e+01
1	 5.626262028661271e-02	 1.048491543865594e+00	-2.885909659311397e+01
1	 7.525279972856971e-02	 1.047299869250256e+00	-2.913533153070300e+01
1	 9.434715980001999e-02	 1.045752654041845e+00	-2.935986145020298e+01
1	 1.135368872744772e-01	 1.043843558788917e+00	-2.953147433525720e+01
1	 1.328128220899834e-01	 1.041566490573060e+00	-2.964905360772352e+01
1	 1.521654634888362e-01	 1.038915623001414e+00	-2.971158564975883e+01
1	 1.715849773944611e-01	 1.035885416214862e+00	-2.971816720670368e+01
1	 1.910612050518737e-01	 1.032470636830427e+00	-2.966801262089022e+01
1	 0.000000000000000e+00	 1.043750000000000e+00	-2.719450315002400e+01
1	 1.851741088424558e-02	 1.043585726231440e+00	-2.760554247923447e+01
1	 3.716255267484064e-02	 1.043088206806186e+00	-2.797084654022704e+01
1	 5.592772373636928e-02	 1.042250522771031e+00	-2.828901742613750e+01
1	 7.480486639572408e-02	 1.041065941456877e+00	-2.855872529771641e+01
1	 9.378556956182775e-02	 1.039527935862674e+00	-2.877871557487421e+01
1	 1.128610724678765e-01	 1.037630204271808e+00	-2.894781614794534e+01
1	 1.320222695760919e-01	 1.035366690033239e+00	-2.906494456820542e+01
1	 1.512597166809016e-01	 1.032731601435016e+00	-2.912911517479698e+01
1	 1.705636382419024e-01	 1.029719431593373e+00	-2.913944611305862e+01
1	 1.899239359728903e-01	 1.026324978276420e+00	-2.909516619736714e+01
1	 0.000000000000000e+00	 1.037500000000000e+00	-2.666020411137671e+01
1	 1.840652818416411e-02	 1.037336709906688e+00	-2.705897283691363e+01
1	 3.694002241897128e-02	 1.036842169639627e+00	-2.741386557080075e+01
1	 5.559282718658347e-02	 1.036009501676469e+00	-2.772353976611722e+01
1	 7.435693306343340e-02	 1.034832013663499e+00	-2.798671635541127e+01
1	 9.322397932425903e-02	 1.033303217683504e+00	-2.820218652912103e+01
1	 1.121852576619387e-01	 1.031416849754701e+00	-2.836881853604473e+01
1	 1.312317170628725e-01	 1.029166889493419e+00	-2.848556446803836e+01
1	 1.503539698736178e-01	 1.026547579868618e+00	-2.855146698888689e+01
1	 1.695422990899421e-01	 1.023553446971883e+00	-2.856566596524164e+01
1	 1.887866668944215e-01	 1.020179319722414e+00	-2.852740495573739e+01
1	 0.000000000000000e+00	 1.031250000000000e+00	-2.613074308753148e+01
1	 1.829564548426216e-02	 1.031087693581935e+00	-2.651716748368573e+01
1	 3.671749216343421e-02	 1.030596132473068e+00	-2.686159775376125e+01
1	 5.525793063725532e-02	 1.029768480581907e+00	-2.716274727681479e+01
1	 7.390899973169765e-02	 1.028598085870120e+00	-2.741938829088952e+01
1	 9.266238908731385e-02	 1.027078499504333e+00	-2.763035825529888e+01
1	 1.115094428566635e-01	 1.025203495237592e+00	-2.779456623728966e+01
1	 1.304411645503251e-01	 1.022967088953598e+00	-2.791099928793761e+01
1	 1.494482230669850e-01	 1.020363558302220e+00	-2.797872877001147e+01
1	 1.685209599385805e-01	 1.017387462350393e+00	-2.799691659863315e+01
1	 1.876493978164674e-01	 1.014033661168407e+00	-2.796482135385463e+01
1	 0.000000000000000e+00	 1.025000000000000e+00	-2.560620857875488e+01
1	 1.818476278453973e-02	 1.024838677257182e+00	-2.598021357117679e+01
1	 3.649496190822944e-02	 1.024350095306508e+00	-2.631412930530829e+01
1	 5.492303408838484e-02	 1.023527459487344e+00	-2.660672566257068e+01
1	 7.346106640051682e-02	 1.022364158076741e+00	-2.685682672996328e+01
1	 9.210079885099220e-02	 1.020853781325163e+00	-2.706331674313735e+01
1	 1.108336280520512e-01	 1.018990140720484e+00	-2.722514605618975e+01
1	 1.296506120384499e-01	 1.016767288413778e+00	-2.734133710571020e+01
1	 1.485424762610030e-01	 1.014179536735822e+00	-2.741099033464258e+01
1	 1.674996207878175e-01	 1.011221477728904e+00	-2.743329003971933e+01
1	 1.865121287390279e-01	 1.007888002614401e+00	-2.740751010464318e+01
1	 0.000000000000000e+00	 1.018750000000000e+00	-2.508669125709917e+01
1	 1.807388008499683e-02	 1.018589660932429e+00	-2.544820038970465e+01
1	 3.627243165335697e-02	 1.018104058139949e+00	-2.577154855737598e+01
1	 5.458813753997201e-02	 1.017286438392782e+00	-2.605556273089961e+01
1	 7.301313306989096e-02	 1.016130230283362e+00	-2.629911939969151e+01
1	 9.153920861529403e-02	 1.014629063145992e+00	-2.650115009254346e+01
1	 1.101578132481016e-01	 1.012776786203376e+00	-2.666064692742457e+01
1	 1.288600595272467e-01	 1.010567487873958e+00	-2.677666816058062e+01
1	 1.476367294556720e-01	 1.007995515169424e+00	-2.684834370333546e+01
1	 1.664782816376531e-01	 1.005055493107414e+00	-2.687488057330621e+01
1	 1.853748596621032e-01	 1.001742344060394e+00	-2.685556824527027e+01
1	 0.000000000000000e+00	 1.012500000000000e+00	-2.457228403343203e+01
1	 1.796299738563345e-02	 1.012340644607676e+00	-2.492121943428340e+01
1	 3.604990139881679e-02	 1.011858020973390e+00	-2.523394602293525e+01
1	 5.425324099201681e-02	 1.011045417298220e+00	-2.550934845740267e+01
1	 7.256519973982002e-02	 1.009896302489984e+00	-2.574635619323368e+01
1	 9.097761838021941e-02	 1.008404344966822e+00	-2.594394857873158e+01
1	 1.094819984448148e-01	 1.006563431686268e+00	-2.610115998159318e+01
1	 1.280695070167156e-01	 1.004367687334138e+00	-2.621708491990352e+01
1	 1.467309826509918e-01	 1.001811493603026e+00	-2.629088316875956e+01
1	 1.654569424880872e-01	 9.988895084859244e-01	-2.632178481221939e+01
1	 1.842375905856931e-01	 9.955966855063875e-01	-2.630909520888378e+01
1	 0.000000000000000e+00	 1.006250000000000e+00	-2.406308212696593e+01
1	 1.785211468644960e-02	 1.006091628282923e+00	-2.439936447309730e+01
1	 3.582737114460891e-02	 1.005611983806831e+00	-2.470141446372407e+01
1	 5.391834444451928e-02	 1.004804396203657e+00	-2.496817505310009e+01
1	 7.211726641030401e-02	 1.003662374696605e+00	-2.519862923711808e+01
1	 9.041602814576830e-02	 1.002179626787651e+00	-2.539180471977711e+01
1	 1.088061836421908e-01	 1.000350077169160e+00	-2.554677861340882e+01
1	 1.272789545068566e-01	 9.981678867943174e-01	-2.566268214835813e+01
1	 1.458252358469624e-01	 9.956274720366279e-01	-2.573870536625887e+01
1	 1.644356033391200e-01	 9.927235238644347e-01	-2.577410176960284e+01
1	 1.831003215097977e-01	 9.894510269523812e-01	-2.576819289901891e+01
1	 0.000000000000000e+00	 1.000000000000000e+00	-2.355918313739271e+01
1	 1.774123198744527e-02	 9.998426119581704e-01	-2.388273161853312e+01
1	 3.560484089073333e-02	 9.993659466402712e-01	-2.417404896052522e+01
1	 5.358344789747940e-02	 9.985633751090949e-01	-2.443213703428629e+01
1	 7.166933308134298e-02	 9.974284469032260e-01	-2.465603296103759e+01
1	 8.985443791194071e-02	 9.959549086084809e-01	-2.484481334670789e+01
1	 1.081303688402295e-01	 9.941367226520526e-01	-2.499759855245182e+01
1	 1.264884019976696e-01	 9.919680862544972e-01	-2.511355697974146e+01
1	 1.449194890435840e-01	 9.894434504702300e-01	-2.519190934706020e+01
1	 1.634142641907513e-01	 9.865575392429451e-01	-2.523193293392968e+01
1	 1.819630524344169e-01	 9.833053683983746e-01	-2.523296576680101e+01
1	 1.933357432113846e-01	 1.044761953938440e+00	-3.082860205959416e+01
1	 2.130906329457231e-01	 1.040912401445146e+00	-3.071355994604614e+01
1	 2.328814315294829e-01	 1.036664107636240e+00	-3.053573440860915e+01
1	 2.526969398443769e-01	 1.032012826073412e+00	-3.029488537034449e+01
1	 2.725256783020832e-01	 1.026954698713353e+00	-2.999093333316686e+01
1	 2.923559021657614e-01	 1.021486274396079e+00	-2.962396483644457e+01
1	 3.121756181762663e-01	 1.015604526705484e+00	-2.919423734035897e+01
1	 3.319726024613182e-01	 1.009306871102345e+00	-2.870218347944082e+01
1	 3.517344196976449e-01	 1.002591181229967e+00	-2.814841463397686e+01
1	 3.714484434876956e-01	 9.954558042932905e-01	-2.753372376988301e+01
1	 3.911018779040194e-01	 9.878995754136833e-01	-2.685908750116567e+01
1	 1.921984741313718e-01	 1.038616295384433e+00	-3.024585395680378e+01
1	 2.118371586322820e-01	 1.034789387317274e+00	-3.013708279384203e+01
1	 2.315115407540291e-01	 1.030566083471650e+00	-2.996659875262664e+01
1	 2.512104872554910e-01	 1.025942162388299e+00	-2.973416328307479e+01
1	 2.709225860753349e-01	 1.020913788718284e+00	-2.943969428094158e+01
1	 2.906361615634068e-01	 1.015477531602564e+00	-2.908327138822486e+01
1	 3.103392910091434e-01	 1.009630382427480e+00	-2.866514073350312e+01
1	 3.300198224453954e-01	 1.003369771856979e+00	-2.818571905926275e+01
1	 3.496653936978499e-01	 9.966935860423510e-01	-2.764559718549576e+01
1	 3.692634526418824e-01	 9.896001819108566e-01	-2.704554276168113e+01
1	 3.888012786202024e-01	 9.820884014360928e-01	-2.638650226269779e+01
1	 1.910612050518737e-01	 1.032470636830427e+00	-2.966801262089022e+01
1	 2.105836843192603e-01	 1.028666373189408e+00	-2.956554392265699e+01
1	 2.301416499789085e-01	 1.024468059307079e+00	-2.940244515704394e+01
1	 2.497240346668616e-01	 1.019871498703228e+00	-2.917847943518122e+01
1	 2.693194938487760e-01	 1.014872878723291e+00	-2.889356215512715e+01
1	 2.889164209611843e-01	 1.009468788809169e+00	-2.854776614287965e+01
1	 3.085029638421054e-01	 1.003656238149648e+00	-2.814132624857223e+01
1	 3.280670424295205e-01	 9.974326726118505e-01	-2.767464334656321e+01
1	 3.475963676980764e-01	 9.907959908550451e-01	-2.714828769028932e+01
1	 3.670784617960745e-01	 9.837445595288178e-01	-2.656300157552964e+01
1	 3.865006793363855e-01	 9.762772274589921e-01	-2.591970126906056e+01
1	 1.899239359728903e-01	 1.026324978276420e+00	-2.909516619736714e+01
1	 2.093302100066580e-01	 1.022543359061546e+00	-2.899903204412756e+01
1	 2.287717592041210e-01	 1.018370035142527e+00	-2.884336311995308e+01
1	 2.482375820784887e-01	 1.013800835018200e+00	-2.862792433395900e+01
1	 2.677164016224066e-01	 1.008831968728375e+00	-2.835262869691767e+01
1	 2.871966803590940e-01	 1.003460046015893e+00	-2.801754230165866e+01
1	 3.066666366751526e-01	 9.976820938719897e-01	-2.762288877398537e+01
1	 3.261142624136938e-01	 9.914955733669590e-01	-2.716905314447199e+01
1	 3.455273416983244e-01	 9.848983956680502e-01	-2.665658509362747e+01
1	 3.648934709502721e-01	 9.778889371471738e-01	-2.608620152559869e+01
1	 3.842000800525686e-01	 9.704660534823814e-01	-2.545878842884578e+01
1	 1.887866668944215e-01	 1.020179319722414e+00	-2.852740495573739e+01
1	 2.080767356944749e-01	 1.016420344933688e+00	-2.843763800751977e+01
1	 2.274018684296667e-01	 1.012272010977993e+00	-2.828944429602690e+01
1	 2.467511294903722e-01	 1.007730171333215e+00	-2.808259066760171e+01
1	 2.661133093962266e-01	 1.002791058733535e+00	-2.781698785813800e+01
1	 2.854769397571360e-01	 9.974513032227366e-01	-2.749269531162577e+01
1	 3.048303095082848e-01	 9.917079495945044e-01	-2.710992548462905e+01
1	 3.241614823979152e-01	 9.855584741223039e-01	-2.666904758872423e+01
1	 3.434583156985938e-01	 9.790008004813658e-01	-2.617059072500382e+01
1	 3.627084801044750e-01	 9.720333147659248e-01	-2.561524636736469e+01
1	 3.818994807687515e-01	 9.646548795062599e-01	-2.500387015446747e+01
1	 1.876493978164674e-01	 1.014033661168407e+00	-2.796482135385463e+01
1	 2.068232613827111e-01	 1.010297330805836e+00	-2.788145486450652e+01
1	 2.260319776555456e-01	 1.006173986813478e+00	-2.774078256186942e+01
1	 2.452646769025122e-01	 1.001659507648272e+00	-2.754257337129028e+01
1	 2.645102171702361e-01	 9.967501487387709e-01	-2.728673586823376e+01
1	 2.837571991553102e-01	 9.914425604297001e-01	-2.697332293371290e+01
1	 3.029939823415020e-01	 9.857338053171925e-01	-2.660253591114562e+01
1	 3.222087023821846e-01	 9.796213748778858e-01	-2.617472821834616e+01
1	 3.413892896988848e-01	 9.731032052949924e-01	-2.569040837038446e+01
1	 3.605234892586834e-01	 9.661776923850708e-01	-2.515024237158720e+01
1	 3.795988814849346e-01	 9.588437055306284e-01	-2.455505543803441e+01
1	 1.865121287390279e-01	 1.007888002614401e+00	-2.740751010464318e+01
1	 2.055697870713666e-01	 1.004174316677988e+00	-2.733057793631294e+01
1	 2.246620868817576e-01	 1.000075962648983e+00	-2.719747408375790e+01
1	 2.437782243149087e-01	 9.955888439633719e-01	-2.700796969569712e+01
1	 2.629071249444350e-01	 9.907092387440832e-01	-2.676197130370989e+01
1	 2.820374585536166e-01	 9.854338176367832e-01	-2.645952531326538e+01
1	 3.011576551748044e-01	 9.797596610400535e-01	-2.610082201175368e+01
1	 3.202559223665021e-01	 9.736842756337049e-01	-2.568619904892537e+01
1	 3.393202636991972e-01	 9.672056101089295e-01	-2.521614434710060e+01
1	 3.583384984128972e-01	 9.603220700046120e-01	-2.469129840099722e+01
1	 3.772982822011176e-01	 9.530325315554864e-01	-2.411245592999896e+01
1	 1.853748596621032e-01	 1.001742344060394e+00	-2.685556824527027e+01
1	 2.043163127604413e-01	 9.980513025501441e-01	-2.678510488333690e+01
1	 2.232921961083029e-01	 9.939779384845057e-01	-2.665961738787954e+01
1	 2.422917717275616e-01	 9.895181802785145e-01	-2.647887927801540e+01
1	 2.613040327188232e-01	 9.846683287494713e-01	-2.624279516012702e+01
1	 2.803177179520553e-01	 9.794250748439861e-01	-2.595140505318203e+01
1	 2.993213280081917e-01	 9.737855167630879e-01	-2.560488824671384e+01
1	 3.183031423508675e-01	 9.677471763897602e-01	-2.520356664857928e+01
1	 3.372512376995310e-01	 9.613080149231776e-01	-2.474790758149771e+01
1	 3.561535075671162e-01	 9.544664476245480e-01	-2.423852598980199e+01
1	 3.749976829173007e-01	 9.472213575808344e-01	-2.367618602070272e+01
1	 1.842375905856931e-01	 9.955966855063875e-01	-2.630909520888378e+01
1	 2.030628384499355e-01	 9.919282884223054e-01	-2.624513577734331e+01
1	 2.219223053351812e-01	 9.878799143200475e-01	-2.612731343316575e+01
1	 2.408053191404711e-01	 9.834475165936996e-01	-2.595540421561483e+01
1	 2.597009404934010e-01	 9.786274187549361e-01	-2.572931092676323e+01
1	 2.785979773506261e-01	 9.734163320513086e-01	-2.544906728976770e+01
1	 2.974850008416641e-01	 9.678113724862952e-01	-2.511484165555325e+01
1	 3.163503623352811e-01	 9.618100771460524e-01	-2.472694021673680e+01
1	 3.351822116998862e-01	 9.554104197377361e-01	-2.428580968946096e+01
1	 3.539685167213408e-01	 9.486108252448792e-01	-2.379203942614122e+01
1	 3.726970836334838e-01	 9.414101836066719e-01	-2.324636292493993e+01
1	 1.831003215097977e-01	 9.894510269523812e-01	-2.576819289901891e+01
1	 2.018093641398489e-01	 9.858052742944714e-01	-2.571077317635228e+01
1	 2.205524145623929e-01	 9.817818901556085e-01	-2.560066568684541e+01
1	 2.393188665536370e-01	 9.773768529089273e-01	-2.543764914244648e+01
1	 2.580978482681682e-01	 9.725865087604770e-01	-2.522162466405909e+01
1	 2.768782367493292e-01	 9.674075892587506e-01	-2.495261977140928e+01
1	 2.956486736752214e-01	 9.618372282096757e-01	-2.463079193716503e+01
1	 3.143975823197428e-01	 9.558729779025819e-01	-2.425643166585696e+01
1	 3.331131857002630e-01	 9.495128245526055e-01	-2.382996505994117e+01
1	 3.517835258755707e-01	 9.427552028656052e-01	-2.335195583761143e+01
1	 3.703964843496668e-01	 9.355990096329994e-01	-2.282310676967342e+01
1	 1.819630524344169e-01	 9.833053683983746e-01	-2.523296576680101e+01
1	 2.005558898301816e-01	 9.796822601666423e-01	-2.518212220233477e+01
1	 2.191825237899375e-01	 9.756838659911878e-01	-2.507978020282717e+01
1	 2.378324139670594e-01	 9.713061892241978e-01	-2.492572130831065e+01
1	 2.564947560431247e-01	 9.665455987660938e-01	-2.471984508396683e+01
1	 2.751584961481644e-01	 9.613988464663125e-01	-2.446217294020399e+01
1	 2.938123465088638e-01	 9.558630839332296e-01	-2.415285153291676e+01
1	 3.124448023042525e-01	 9.499358786593476e-01	-2.379215570620972e+01
1	 3.310441597006611e-01	 9.436152293677856e-01	-2.338049094161230e+01
1	 3.495985350298059e-01	 9.368995804867262e-01	-2.291839527999867e+01
1	 3.680958850658499e-01	 9.297878356598163e-01	-2.240654068504097e+01
1	 3.911018779040194e-01	 9.878995754136833e-01	-2.685908750116567e+01
1	 4.106812654230647e-01	 9.799220375426506e-01	-2.605052802132169e+01
1	 4.301740244201037e-01	 9.715228514284484e-01	-2.520109887919123e+01
1	 4.495669903060996e-01	 9.627023906861818e-01	-2.431238824512829e+01
1	 4.688469256249421e-01	 9.534615621502089e-01	-2.338608537564116e+01
1	 4.880005464389367e-01	 9.438018137455458e-01	-2.242397615912132e+01
1	 5.070145494260555e-01	 9.337251408230870e-01	-2.142793812207496e+01
1	 5.258756395863931e-01	 9.232340908932398e-01	-2.039993491435891e+01
1	 5.445705584489109e-01	 9.123317667002798e-01	-1.934201029653236e+01
1	 5.630861126638069e-01	 9.010218275880978e-01	-1.825628165695788e+01
1	 5.814092028608389e-01	 8.893084891169974e-01	-1.714493309066422e+01
1	 3.888012786202024e-01	 9.820884014360928e-01	-2.638650226269779e+01
1	 4.082654932712178e-01	 9.741577902581628e-01	-2.559480093412916e+01
1	 4.276435889798152e-01	 9.658080111209993e-01	-2.476325340861943e+01
1	 4.469224785957173e-01	 9.570394354419742e-01	-2.389344861975875e+01
1	 4.660890025302029e-01	 9.478529647211262e-01	-2.298707251111934e+01
1	 4.851299549863892e-01	 9.382500383662683e-01	-2.204590346833534e+01
1	 5.040321108970832e-01	 9.282326399909374e-01	-2.107180723050780e+01
1	 5.227822534682621e-01	 9.178033021201863e-01	-2.006673130067202e+01
1	 5.413672022198941e-01	 9.069651092468548e-01	-1.903269887955825e+01
1	 5.597738414101173e-01	 8.957216991892828e-01	-1.797180235125595e+01
1	 5.779891487238087e-01	 8.840772627103605e-01	-1.688619635361228e+01
1	 3.865006793363855e-01	 9.762772274589921e-01	-2.591970126906056e+01
1	 4.058497211193758e-01	 9.683935429742504e-01	-2.514479996716303e+01
1	 4.251131535395460e-01	 9.600931708141829e-01	-2.433108887095625e+01
1	 4.442779668853784e-01	 9.513764801984261e-01	-2.348015790918872e+01
1	 4.633310794355420e-01	 9.422443672927018e-01	-2.259368991564896e+01
1	 4.822593635339635e-01	 9.326982629876168e-01	-2.167345594627492e+01
1	 5.010496723682871e-01	 9.227401391593514e-01	-2.072131009451711e+01
1	 5.196888673503717e-01	 9.123725133476044e-01	-1.973918382594249e+01
1	 5.381638459911924e-01	 9.015984517937791e-01	-1.872907985744171e+01
1	 5.564615701568275e-01	 8.904215707906631e-01	-1.769306561063133e+01
1	 5.745690945872735e-01	 8.788460363037338e-01	-1.663326627311054e+01
1	 3.842000800525686e-01	 9.704660534823814e-01	-2.545878842884578e+01
1	 4.034339489675387e-01	 9.626292956909134e-01	-2.470062798486144e+01
1	 4.225827180992962e-01	 9.543783305079983e-01	-2.390470731889167e+01
1	 4.416334551750831e-01	 9.457135249555377e-01	-2.307261759093198e+01
1	 4.605731563409585e-01	 9.366357698649349e-01	-2.220603873178990e+01
1	 4.793887720816601e-01	 9.271464876095911e-01	-2.130673464387743e+01
1	 4.980672338396673e-01	 9.172476383283298e-01	-2.037654791929437e+01
1	 5.165954812327221e-01	 9.069417245754943e-01	-1.941739409745777e+01
1	 5.349604897628057e-01	 8.962317943410518e-01	-1.843125548877340e+01
1	 5.531492989039374e-01	 8.851214423922381e-01	-1.742017459493477e+01
1	 5.711490404512327e-01	 8.736148098971181e-01	-1.638624716035186e+01
1	 3.818994807687515e-01	 9.646548795062599e-01	-2.500387015446747e+01
1	 4.010181768157063e-01	 9.568650484081520e-01	-2.426239033032320e+01
1	 4.200522826590655e-01	 9.486634902024459e-01	-2.348421326421609e+01
1	 4.389889434648318e-01	 9.400505697133096e-01	-2.267093158774397e+01
1	 4.578152332464531e-01	 9.310271724378260e-01	-2.182422253927289e+01
1	 4.765181806294787e-01	 9.215947122321917e-01	-2.094584304704216e+01
1	 4.950847953112238e-01	 9.117551374978721e-01	-2.003762434871008e+01
1	 5.135020951153132e-01	 9.015109358038559e-01	-1.910146617087394e+01
1	 5.317571335347344e-01	 8.908651368886734e-01	-1.813933049620531e+01
1	 5.498370276514472e-01	 8.798213139940088e-01	-1.715323494979577e+01
1	 5.677289863156866e-01	 8.683835834905127e-01	-1.614524584005180e+01
1	 3.795988814849346e-01	 9.588437055306284e-01	-2.455505543803441e+01
1	 3.986024046638788e-01	 9.511008011259654e-01	-2.383019490041929e+01
1	 4.175218472188544e-01	 9.429486498975260e-01	-2.306971375233970e+01
1	 4.363444317546239e-01	 9.343876144717409e-01	-2.227520634171924e+01
1	 4.550573101520257e-01	 9.254185750113748e-01	-2.144834742885147e+01
1	 4.736475891774192e-01	 9.160429368554183e-01	-2.059088715041765e+01
1	 4.921023567829566e-01	 9.062626366679781e-01	-1.970464553921345e+01
1	 5.104087089981447e-01	 8.960801470326889e-01	-1.879150662440696e+01
1	 5.285537773069781e-01	 8.854984794366438e-01	-1.785341214112048e+01
1	 5.465247563993567e-01	 8.745211855959745e-01	-1.689235488195030e+01
1	 5.643089321806354e-01	 8.631523570839182e-01	-1.591037172661550e+01
1	 3.772982822011176e-01	 9.530325315554864e-01	-2.411245592999896e+01
1	 3.961866325120559e-01	 9.453365538443546e-01	-2.340415222365234e+01
1	 4.149914117786624e-01	 9.372338095932381e-01	-2.266131843953605e+01
1	 4.336999200444597e-01	 9.287246592308324e-01	-2.188555089110120e+01
1	 4.522993870576759e-01	 9.198099775855815e-01	-2.107852207885892e+01
1	 4.707769977254818e-01	 9.104911614792706e-01	-2.024197553388741e+01
1	 4.891199182548658e-01	 9.007701358386486e-01	-1.937772023643551e+01
1	 5.073153228812169e-01	 8.906493582619939e-01	-1.848762463574266e+01
1	 5.253504210795370e-01	 8.801318219849630e-01	-1.757361030103294e+01
1	 5.432124851476661e-01	 8.692210571981352e-01	-1.663764523732200e+01
1	 5.608888780460786e-01	 8.579211306773340e-01	-1.568173690309203e+01
1	 3.749976829173007e-01	 9.472213575808344e-01	-2.367618602070272e+01
1	 3.937708603602381e-01	 9.395723065633189e-01	-2.298437554087992e+01
1	 4.124609763384898e-01	 9.315189692895822e-01	-2.225913967302911e+01
1	 4.310554083343390e-01	 9.230617039905832e-01	-2.150207694991831e+01
1	 4.495414639634041e-01	 9.142013801604458e-01	-2.071485783458212e+01
1	 4.679064062736666e-01	 9.049393861037491e-01	-1.989921944187169e+01
1	 4.861374797269510e-01	 8.952776350098828e-01	-1.905695985461076e+01
1	 5.042219367645299e-01	 8.852185694917706e-01	-1.818993206177324e+01
1	 5.221470648524108e-01	 8.747651645336308e-01	-1.730003754983761e+01
1	 5.399002138963752e-01	 8.639209288004910e-01	-1.638921958197987e+01
1	 5.574688239120166e-01	 8.526899042707606e-01	-1.545945620303372e+01
1	 3.726970836334838e-01	 9.414101836066719e-01	-2.324636292493993e+01
1	 3.913550882084249e-01	 9.338080592828587e-01	-2.257098088903111e+01
1	 4.099305408983365e-01	 9.258041289865587e-01	-2.186329257405050e+01
1	 4.284108966242621e-01	 9.173987487509939e-01	-2.112489899056985e+01
1	 4.467835408692102e-01	 9.085927827359682e-01	-2.035746879057202e+01
1	 4.650358148219733e-01	 8.993876107288533e-01	-1.956273286556747e+01
1	 4.831550411992128e-01	 8.897851341816810e-01	-1.874247855894302e+01
1	 5.011285506480834e-01	 8.797877807220186e-01	-1.789854352128845e+01
1	 5.189437086255998e-01	 8.693985070826473e-01	-1.703280924103085e+01
1	 5.365879426454840e-01	 8.586208004030418e-01	-1.614719428609390e+01
1	 5.540487697784493e-01	 8.474586778641980e-01	-1.524364729538951e+01
1	 3.703964843496668e-01	 9.355990096329994e-01	-2.282310676967342e+01
1	 3.889393160566166e-01	 9.280438120029740e-01	-2.216408718793956e+01
1	 4.074001054582026e-01	 9.200892886841676e-01	-2.147389512398488e+01
1	 4.257663849142288e-01	 9.117357935120645e-01	-2.075413432949046e+01
1	 4.440256177750941e-01	 9.029841853121484e-01	-2.000647187602976e+01
1	 4.621652233704021e-01	 8.938358353545839e-01	-1.923263262824962e+01
1	 4.801726026716508e-01	 8.842926333540435e-01	-1.843439335103864e+01
1	 4.980351645318775e-01	 8.743569919527385e-01	-1.761357648075060e+01
1	 5.157403523991042e-01	 8.640318496320131e-01	-1.677204359403418e+01
1	 5.332756713949930e-01	 8.533206720057880e-01	-1.591168861101646e+01
1	 5.506287156453767e-01	 8.422274514576459e-01	-1.503443077255992e+01
1	 3.680958850658499e-01	 9.297878356598163e-01	-2.240654068504097e+01
1	 3.865235439048131e-01	 9.222795647236649e-01	-2.176381633043461e+01
1	 4.048696700180880e-01	 9.143744483824082e-01	-2.109106825375235e+01
1	 4.231218732042392e-01	 9.060728382737947e-01	-2.038990321602505e+01
1	 4.412676946810558e-01	 8.973755878889862e-01	-1.966198694338368e+01
1	 4.592946319189529e-01	 8.882840599809401e-01	-1.890903847377586e+01
1	 4.771901641442650e-01	 8.788001325269700e-01	-1.813282415754269e+01
1	 4.949417784159122e-01	 8.689262031839300e-01	-1.733515134328363e+01
1	 5.125369961729235e-01	 8.586651921817273e-01	-1.651786178375494e+01
1	 5.299634001449015e-01	 8.480205436087291e-01	-1.568282479963462e+01
1	 5.472086615127988e-01	 8.369962250511043e-01	-1.483193024175531e+01
1	 5.814092028608389e-01	 8.893084891169974e-01	-1.714493309066422e+01
1	 5.995273051339643e-01	 8.771962216624367e-01	-1.592601381228020e+01
1	 6.174271189860754e-01	 8.646906527052896e-01	-1.464446342573658e+01
1	 6.350960001903916e-01	 8.517976466469476e-01	-1.330335217558069e+01
1	 6.525215141008213e-01	 8.385236046232520e-01	-1.190595307724348e+01
1	 6.696914639301623e-01	 8.248754551179471e-01	-1.045573160855979e+01
1	 6.865939185186961e-01	 8.108606427981377e-01	-8.956334322589745e+00
1	 7.032172394632655e-01	 7.964871156046529e-01	-7.411576442759634e+00
1	 7.195501074794252e-01	 7.817633101410284e-01	-5.825428510385943e+00
1	 7.355815478727636e-01	 7.666981354154186e-01	-4.202002163074708e+00
1	 7.513009550000000e-01	 7.513009550000000e-01	-2.545535130236922e+00
1	 5.779891487238087e-01	 8.840772627103605e-01	-1.688619635361228e+01
1	 5.960006739249657e-01	 8.720362438890390e-01	-1.568847918395926e+01
1	 6.137951947547025e-01	 8.596042371031826e-01	-1.442543580708851e+01
1	 6.313601413640429e-01	 8.467870722577020e-01	-1.310022302678733e+01
1	 6.486831522518732e-01	 8.335911128346971e-01	-1.171621011722615e+01
1	 6.657521023767976e-01	 8.200232465621237e-01	-1.027696817790422e+01
1	 6.825551307623900e-01	 8.060908743149267e-01	-8.786258357039475e+00
1	 6.990806674666884e-01	 7.918018972813406e-01	-7.248019006499520e+00
1	 7.153174597892729e-01	 7.771647024378229e-01	-5.666351840850579e+00
1	 7.312545975927585e-01	 7.621881463865958e-01	-4.045507181976268e+00
1	 7.468815376199999e-01	 7.468815376199999e-01	-2.389868378845119e+00
1	 5.745690945872735e-01	 8.788460363037338e-01	-1.663326627311054e+01
1	 5.924740427165472e-01	 8.668762661154716e-01	-1.545617797210329e+01
1	 6.101632705239651e-01	 8.545178215007645e-01	-1.421103848197695e+01
1	 6.276242825383560e-01	 8.417764978680439e-01	-1.290109215514434e+01
1	 6.448447904035826e-01	 8.286586210456672e-01	-1.152980559581747e+01
1	 6.618127408240561e-01	 8.151710380058040e-01	-1.010085667532538e+01
1	 6.785163430066431e-01	 8.013211058312381e-01	-8.618122362609924e+00
1	 6.949440954705757e-01	 7.871166789576106e-01	-7.085665435086494e+00
1	 7.110848120994610e-01	 7.725660947342980e-01	-5.507720144990109e+00
1	 7.269276473129380e-01	 7.576781573575931e-01	-3.888676925626829e+00
1	 7.424621202400001e-01	 7.424621202400001e-01	-2.233066230493020e+00
1	 5.711490404512327e-01	 8.736148098971181e-01	-1.638624716035186e+01
1	 5.889474115087083e-01	 8.617162883417343e-01	-1.522920419017870e+01
1	 6.065313462938635e-01	 8.494314058980357e-01	-1.400135462932402e+01
1	 6.238884237133304e-01	 8.367659234779731e-01	-1.270603138598582e+01
1	 6.410064285559492e-01	 8.237261292561637e-01	-1.134679948496432e+01
1	 6.578733792719378e-01	 8.103188294489887e-01	-9.927444740245498e+00
1	 6.744775552514548e-01	 7.965513373470722e-01	-8.451961189076950e+00
1	 6.908075234749277e-01	 7.824314606334615e-01	-6.924537354830743e+00
1	 7.068521644099885e-01	 7.679674870304535e-01	-5.349541416338258e+00
1	 7.226006970333029e-01	 7.531681683284103e-01	-3.731505371112182e+00
1	 7.380427028600001e-01	 7.380427028600001e-01	-2.075108288821743e+00
1	 5.677289863156866e-01	 8.683835834905127e-01	-1.614524584005180e+01
1	 5.854207803014495e-01	 8.565563105678273e-01	-1.500765411703614e+01
1	 6.028994220643973e-01	 8.443449902949958e-01	-1.379646943236317e+01
1	 6.201525648889665e-01	 8.317553490874897e-01	-1.251511427537669e+01
1	 6.371680667089734e-01	 8.187936374661856e-01	-1.116725320172073e+01
1	 6.539340177204432e-01	 8.054666208916773e-01	-9.756781160024804e+00
1	 6.704387674968262e-01	 7.917815688624287e-01	-8.287810525970171e+00
1	 6.866709514797442e-01	 7.777462423088940e-01	-6.764656913157927e+00
1	 7.026195167208560e-01	 7.633688793262897e-01	-5.191823841044669e+00
1	 7.182737467538526e-01	 7.486581792990478e-01	-3.573986350387467e+00
1	 7.336232854800000e-01	 7.336232854800000e-01	-1.915973665993766e+00
1	 5.643089321806354e-01	 8.631523570839182e-01	-1.591037172661550e+01
1	 5.818941490947709e-01	 8.513963327937503e-01	-1.479162636555865e+01
1	 5.992674978355668e-01	 8.392585746916443e-01	-1.359647013937574e+01
1	 6.164167060652640e-01	 8.267447746965939e-01	-1.232841616255910e+01
1	 6.333297048626551e-01	 8.138611456757335e-01	-1.099122965203906e+01
1	 6.499946561695715e-01	 8.006144123338700e-01	-9.588915904747317e+00
1	 6.663999797427561e-01	 7.870118003773077e-01	-8.125706928020751e+00
1	 6.825343794850253e-01	 7.730610239839077e-01	-6.606046794401500e+00
1	 6.983868690320634e-01	 7.587702716218062e-01	-5.034575803710453e+00
1	 7.139467964745874e-01	 7.441481902695054e-01	-3.416113545879689e+00
1	 7.292038680999998e-01	 7.292038680999999e-01	-1.755640967799578e+00
1	 5.608888780460786e-01	 8.579211306773340e-01	-1.568173690309203e+01
1	 5.783675178886720e-01	 8.462363550195033e-01	-1.458122195382201e+01
1	 5.956355736073720e-01	 8.341721590879827e-01	-1.340144612664944e+01
1	 6.126808472422232e-01	 8.217342003052857e-01	-1.214601422431790e+01
1	 6.294913430169941e-01	 8.089286538848068e-01	-1.081879327616287e+01
1	 6.460552946193235e-01	 7.957622037755665e-01	-9.423900163279352e+00
1	 6.623611919892450e-01	 7.822420318917090e-01	-7.965687841537566e+00
1	 6.783978074907709e-01	 7.683758056585025e-01	-6.448730236170862e+00
1	 6.941542213436107e-01	 7.541716639170036e-01	-4.877805893439710e+00
1	 7.096198461955070e-01	 7.396382012397831e-01	-3.257880485928224e+00
1	 7.247844507200000e-01	 7.247844507200001e-01	-1.594088278219746e+00
1	 5.574688239120166e-01	 8.526899042707606e-01	-1.545945620303372e+01
1	 5.748408866831533e-01	 8.410763772450868e-01	-1.437654437887182e+01
1	 5.920036493798129e-01	 8.290857434840098e-01	-1.321148896375545e+01
1	 6.089449884198436e-01	 8.167236259135645e-01	-1.196798753134618e+01
1	 6.256529811719908e-01	 8.039961620934060e-01	-1.065001009569193e+01
1	 6.421159330696986e-01	 7.909099952167671e-01	-9.261786380656449e+00
1	 6.583224042362933e-01	 7.774722634056334e-01	-7.807791631758166e+00
1	 6.742612354969811e-01	 7.636905873326790e-01	-6.292731046324084e+00
1	 6.899215736554977e-01	 7.495730562118815e-01	-4.721522910112041e+00
1	 7.052928959166118e-01	 7.351282122098811e-01	-3.099280540059165e+00
1	 7.203650333400000e-01	 7.203650333400000e-01	-1.431293143418189e+00
1	 5.540487697784493e-01	 8.474586778641980e-01	-1.524364729538952e+01
1	 5.713142554782142e-01	 8.359163994705003e-01	-1.417769969323697e+01
1	 5.883717251528892e-01	 8.239993278797256e-01	-1.302669248124175e+01
1	 6.052091295981258e-01	 8.117130515214309e-01	-1.179441710670005e+01
1	 6.218146193276447e-01	 7.990636703015306e-01	-1.048494776238851e+01
1	 6.381765715206971e-01	 7.860577866574717e-01	-9.102628296852787e+00
1	 6.542836164839004e-01	 7.727024949190801e-01	-7.652057611210003e+00
1	 6.701246635036557e-01	 7.590053690064370e-01	-6.138073620567257e+00
1	 6.856889259677246e-01	 7.449744485064401e-01	-4.565735870887737e+00
1	 7.009659456379015e-01	 7.306182231797991e-01	-2.940306914082877e+00
1	 7.159456159599999e-01	 7.159456159599999e-01	-1.267232555143177e+00
1	 5.506287156453767e-01	 8.422274514576459e-01	-1.503443077255991e+01
1	 5.677876242738553e-01	 8.307564216957439e-01	-1.398479658429122e+01
1	 5.847398009266012e-01	 8.189129122751307e-01	-1.284715284084982e+01
1	 6.014732707770695e-01	 8.067024771288849e-01	-1.162538598643090e+01
1	 6.179762574839562e-01	 7.941311785091811e-01	-1.032367560880381e+01
1	 6.342372099723189e-01	 7.812055780976803e-01	-8.946480986997518e+00
1	 6.502448287320667e-01	 7.679327264320492e-01	-7.498526069128776e+00
1	 6.659880915107951e-01	 7.543201506797762e-01	-5.984782960710962e+00
1	 6.814562782802914e-01	 7.403758408006790e-01	-4.410454016956516e+00
1	 6.966389953593761e-01	 7.261082341495374e-01	-2.780952645010161e+00
1	 7.115261985799999e-01	 7.115261985799999e-01	-1.101882933509054e+00
1	 5.472086615127988e-01	 8.369962250511043e-01	-1.483193024175531e+01
1	 5.642609930700763e-01	 8.255964439208178e-01	-1.379794645659186e+01
1	 5.811078767009489e-01	 8.138264966702249e-01	-1.267296860836409e+01
1	 5.977374119566745e-01	 8.016919027359262e-01	-1.146097928249056e+01
1	 6.141378956409251e-01	 7.891986867163574e-01	-1.016626470080392e+01
1	 6.302978484245640e-01	 7.763533695373930e-01	-8.793400903097407e+00
1	 6.462060409807919e-01	 7.631629579445409e-01	-7.347238301981652e+00
1	 6.618515195183989e-01	 7.496349323526968e-01	-5.832884693611661e+00
1	 6.772236305931981e-01	 7.357772330945985e-01	-4.255686820536996e+00
1	 6.923120450810357e-01	 7.215982451190956e-01	-2.621210595776861e+00
1	 7.071067811999999e-01	 7.071067811999999e-01	-9.352201091328753e-01
1	 7.513009550000000e-01	 7.513009550000000e-01	-2.545535130236922e+00
1	 7.666981275829785e-01	 7.355815598074720e-01	-1.025797477626684e+00
1	 7.817632789035854e-01	 7.195501551153904e-01	 4.592979198593998e-01
1	 7.964870455388072e-01	 7.032173463862689e-01	 1.907525038309411e+00
1	 8.108605186434349e-01	 6.865941080990721e-01	 3.316799869833326e+00
1	 8.248752617900428e-01	 6.696917592889827e-01	 4.685186849813274e+00
1	 8.385233272264494e-01	 6.525219380770627e-01	 6.010904476695026e+00
1	 8.517972704860858e-01	 6.350965753091957e-01	 7.292330095839997e+00
1	 8.646901632969713e-01	 6.174278674282064e-01	 8.528003826060125e+00
1	 8.771956047455881e-01	 5.995282487065597e-01	 9.716631614685328e+00
1	 8.893077306627529e-01	 5.814103629695435e-01	 1.085708741428754e+01
1	 7.468815376199999e-01	 7.468815376199999e-01	-2.389868378845119e+00
1	 7.621881386002288e-01	 7.312546094572627e-01	-8.797881035263955e-01
1	 7.771646713841293e-01	 7.153175071450270e-01	 5.945257525307579e-01
1	 7.918018276276478e-01	 6.990807737607333e-01	 2.030892884786378e+00
1	 8.060907508905456e-01	 6.825553192275873e-01	 3.427278792562579e+00
1	 8.200230543714423e-01	 6.657523959982131e-01	 4.781800997835457e+00
1	 8.335908370696403e-01	 6.486835737341364e-01	 6.092734438617495e+00
1	 8.467866983095513e-01	 6.313607130997951e-01	 7.358516010040431e+00
1	 8.596037505737367e-01	 6.137959387942326e-01	 8.577748233478641e+00
1	 8.720356306011129e-01	 5.960016119471339e-01	 9.749202041382896e+00
1	 8.840765087176115e-01	 5.779903020083444e-01	 1.087181867285383e+01
1	 7.424621202400001e-01	 7.424621202400001e-01	-2.233066230493020e+00
1	 7.576781496172992e-01	 7.269276591072382e-01	-7.327684804036345e-01
1	 7.725660638643541e-01	 7.110848591750033e-01	 7.306243177700962e-01
1	 7.871166097160696e-01	 6.949442011356616e-01	 2.154977861668659e+00
1	 8.013209831371788e-01	 6.785165303566614e-01	 3.538307476245163e+00
1	 8.151708469523459e-01	 6.618130327080667e-01	 4.878784122853327e+00
1	 8.286583469123570e-01	 6.448452093918682e-01	 6.174739564814837e+00
1	 8.417761261326041e-01	 6.276248508910566e-01	 7.424670664179061e+00
1	 8.545173378501913e-01	 6.101640101608944e-01	 8.627242791740571e+00
1	 8.668756564564682e-01	 5.924749751882884e-01	 9.781292339817146e+00
1	 8.788452867724807e-01	 5.745702410476402e-01	 1.088582833473864e+01
1	 7.380427028600001e-01	 7.380427028600001e-01	-2.075108288821743e+00
1	 7.531681606341901e-01	 7.226007087573990e-01	-5.847204600676728e-01
1	 7.679674563442594e-01	 7.068522112053193e-01	 8.676092574828458e-01
1	 7.824313918040723e-01	 6.908076285110547e-01	 2.279792851539536e+00
1	 7.965512153833345e-01	 6.744777414862949e-01	 3.649895796825690e+00
1	 8.103186395327531e-01	 6.578736694185437e-01	 4.976142853193483e+00
1	 8.237258567545990e-01	 6.410068450502568e-01	 6.256923001946122e+00
1	 8.367655539552441e-01	 6.238889886829792e-01	 7.490793496691618e+00
1	 8.494309251263348e-01	 6.065320815281918e-01	 8.676483012529490e+00
1	 8.617156823116539e-01	 5.889483384300228e-01	 9.812893884919676e+00
1	 8.736140648273604e-01	 5.711501800874307e-01	 1.089910343711599e+01
1	 7.336232854800000e-01	 7.336232854800000e-01	-1.915973665993766e+00
1	 7.486581716509005e-01	 7.182737584077445e-01	-4.356254570219722e-01
1	 7.633688488238455e-01	 7.026195632359753e-01	 1.005496590487445e+00
1	 7.777461738916567e-01	 6.866710558869124e-01	 2.405351047405836e+00
1	 7.917814476290130e-01	 6.704389526164870e-01	 3.762053868223251e+00
1	 8.054664321126649e-01	 6.539343061296441e-01	 5.073883976901120e+00
1	 8.187933665963667e-01	 6.371684807093032e-01	 6.339287972493542e+00
1	 8.317549817774721e-01	 6.201531264755635e-01	 7.556883932482203e+00
1	 8.443445124021675e-01	 6.029001528961251e-01	 8.725464299377011e+00
1	 8.565557081666691e-01	 5.854217016723370e-01	 9.843997843789031e+00
1	 8.683828428822506e-01	 5.677301191277158e-01	 1.091163070480251e+01
1	 7.292038680999998e-01	 7.292038680999999e-01	-1.755640967799578e+00
1	 7.441481826674313e-01	 7.139468080582748e-01	-2.854644352124551e-01
1	 7.587702413031117e-01	 6.983869152669709e-01	 1.144302723937989e+00
1	 7.730609559788225e-01	 6.825344832632346e-01	 2.531665962105067e+00
1	 7.870116798742136e-01	 6.664001637472385e-01	 3.874792049542658e+00
1	 8.006142246920803e-01	 6.499949428413681e-01	 5.172014446580389e+00
1	 8.138608764376607e-01	 6.333301163690070e-01	 6.421837777060225e+00
1	 8.267444095992872e-01	 6.164172642688092e-01	 7.622941382513067e+00
1	 8.392580996776888e-01	 5.992682242646937e-01	 8.774181944384999e+00
1	 8.513957340215146e-01	 5.818950649152311e-01	 9.874595169393022e+00
1	 8.631516209371516e-01	 5.643100581684956e-01	 1.092339654079226e+01
1	 7.247844507200000e-01	 7.247844507200001e-01	-1.594088278219746e+00
1	 7.396381936837823e-01	 7.096198577089906e-01	-1.342178942912198e-01
1	 7.541716337820586e-01	 6.941542672983068e-01	 1.284044465162252e+00
1	 7.683757380655695e-01	 6.783979106400214e-01	 2.658751438055702e+00
1	 7.822419121189370e-01	 6.623613748785490e-01	 3.988120952549884e+00
1	 7.957620172709999e-01	 6.460555795537148e-01	 5.270541384410789e+00
1	 8.089283862784797e-01	 6.294917520293682e-01	 6.504575796751562e+00
1	 8.217338374206895e-01	 6.126814020627164e-01	 7.688965243379514e+00
1	 8.341716869528994e-01	 5.956362956338982e-01	 8.822631124828789e+00
1	 8.462357598761907e-01	 5.783684281587053e-01	 9.904676594039845e+00
1	 8.579203989920633e-01	 5.608899972097702e-01	 1.093438701644508e+01
1	 7.203650333400000e-01	 7.203650333400000e-01	-1.431293143418189e+00
1	 7.351282046999534e-01	 7.052929073598911e-01	 1.813414462650798e-02
1	 7.495730262606861e-01	 6.899216193299822e-01	 1.424739033938769e+00
1	 7.636905201518982e-01	 6.742613380172728e-01	 2.786621657368079e+00
1	 7.774721443631829e-01	 6.583225860104185e-01	 4.102051449422587e+00
1	 7.909098098494234e-01	 6.421162162666852e-01	 5.369472087349459e+00
1	 8.039958961188247e-01	 6.256533876903870e-01	 6.587505495644917e+00
1	 8.167232652416797e-01	 6.089455398572854e-01	 7.754954896869908e+00
1	 8.290852742277989e-01	 5.920043670037383e-01	 8.870806899634367e+00
1	 8.410757857306966e-01	 5.748417914027594e-01	 9.934232622610082e+00
1	 8.526891770469852e-01	 5.574699362515393e-01	 1.094458786131381e+01
1	 7.159456159599999e-01	 7.159456159599999e-01	-1.267232555143177e+00
1	 7.306182157159445e-01	 7.009659570109766e-01	 1.716121537308930e-01
1	 7.449744187389942e-01	 6.856889713619975e-01	 1.566404075225068e+00
1	 7.590053022378078e-01	 6.701247653949886e-01	 2.915291152327823e+00
1	 7.727023766069515e-01	 6.542837971428470e-01	 4.216594680787223e+00
1	 7.860576024273510e-01	 6.381768529802788e-01	 5.468814032525199e+00
1	 7.990634059586956e-01	 6.218150233520632e-01	 6.670630423350667e+00
1	 8.117126930622569e-01	 6.052096776525158e-01	 7.820909709507475e+00
1	 8.239988615023874e-01	 5.883724383742140e-01	 8.918704205726231e+00
1	 8.359158115850329e-01	 5.713151546473936e-01	 9.963253525536743e+00
1	 8.474579551019181e-01	 5.540498752938033e-01	 1.095398445259457e+01
1	 7.115261985799999e-01	 7.115261985799999e-01	-1.101882933509054e+00
1	 7.261082267317558e-01	 6.966390066622471e-01	 3.262371138375801e-01
1	 7.403758112169828e-01	 6.814563233943527e-01	 1.709057672363509e+00
1	 7.543200843232991e-01	 6.659881927731689e-01	 3.044774816270958e+00
1	 7.679326088502424e-01	 6.502450082758346e-01	 4.331762064055524e+00
1	 7.812053950047827e-01	 6.342374896944958e-01	 5.568574882834335e+00
1	 7.941309157980918e-01	 6.179766590143968e-01	 6.753954217667662e+00
1	 8.067021208824219e-01	 6.014738154484076e-01	 7.886829032077501e+00
1	 8.189124487766648e-01	 5.847405097453252e-01	 8.966317854237756e+00
1	 8.307558374391991e-01	 5.677885178926076e-01	 9.991729331524313e+00
1	 8.422267331568614e-01	 5.506298143365619e-01	 1.096256180418383e+01
1	 7.071067811999999e-01	 7.071067811999999e-01	-9.352201091328753e-01
1	 7.215982377473874e-01	 6.923120563137024e-01	 4.820305302838501e-01
1	 7.357772036946522e-01	 6.772236754270479e-01	 1.852718360778909e+00
1	 7.496348664083717e-01	 6.618516201518141e-01	 3.175087914867680e+00
1	 7.631628410930560e-01	 6.462062194093813e-01	 4.447565302075088e+00
1	 7.763531875817185e-01	 6.302981264093361e-01	 5.668762492745048e+00
1	 7.891984256370139e-01	 6.141382946773880e-01	 6.837480607340677e+00
1	 8.016915487021741e-01	 5.977379532449609e-01	 7.952712199134549e+00
1	 8.138260360506314e-01	 5.811085811170723e-01	 9.013642526581272e+00
1	 8.255958632931957e-01	 5.642618811384016e-01	 1.001964981999530e+01
1	 8.369955112118157e-01	 5.472097533798153e-01	 1.097030455532599e+01
1	 8.893077306627529e-01	 5.814103629695435e-01	 1.085708741428754e+01
1	 9.010212212095035e-01	 5.630870349402234e-01	 1.161209644508222e+01
1	 9.123313066520512e-01	 5.445712413382624e-01	 1.236484273385256e+01
1	 9.232337713255228e-01	 5.258760818638161e-01	 1.311129336354141e+01
1	 9.337249557969681e-01	 5.070147501960147e-01	 1.384744571887431e+01
1	 9.438017572485544e-01	 4.880005051335909e-01	 1.456934318854260e+01
1	 9.534616281117342e-01	 4.688466420014871e-01	 1.527309037529888e+01
1	 9.627025729927415e-01	 4.495664644431200e-01	 1.595486772591962e+01
1	 9.715231439387405e-01	 4.301732567129676e-01	 1.661094549983829e+01
1	 9.799224341023265e-01	 4.106802565784043e-01	 1.723769700270091e+01
1	 9.879000698697851e-01	 3.911006289333422e-01	 1.783161101903485e+01
1	 8.840765087176115e-01	 5.779903020083444e-01	 1.087181867285383e+01
1	 8.957210963776212e-01	 5.597747582613783e-01	 1.162543710880922e+01
1	 9.069646519047927e-01	 5.413678810922495e-01	 1.238004746009734e+01
1	 9.178029844322796e-01	 5.227826931440532e-01	 1.313137881313905e+01
1	 9.282324560532074e-01	 5.040323104860427e-01	 1.387518344630330e+01
1	 9.382499822016123e-01	 4.851299139240159e-01	 1.460725366860385e+01
1	 9.478530302946430e-01	 4.660887205751213e-01	 1.532343817400638e+01
1	 9.570396166761426e-01	 4.469219558260492e-01	 1.601965781567060e+01
1	 9.658083019106427e-01	 4.276428257886034e-01	 1.669192071150859e+01
1	 9.741581844851347e-01	 4.082644903609378e-01	 1.733633660015547e+01
1	 9.820888929836293e-01	 3.888000369964117e-01	 1.794913037472688e+01
1	 8.788452867724807e-01	 5.745702410476402e-01	 1.088582833473864e+01
1	 8.904209715459346e-01	 5.564624815829332e-01	 1.163914507291206e+01
1	 9.015979971578826e-01	 5.381645208465514e-01	 1.239674159087281e+01
1	 9.123721975395074e-01	 5.196893044245310e-01	 1.315410662999822e+01
1	 9.227399563100105e-01	 5.010498707762467e-01	 1.390674496385135e+01
1	 9.326982071552958e-01	 4.822593227145630e-01	 1.465019538250289e+01
1	 9.422444324782094e-01	 4.633307991488335e-01	 1.538004820018253e+01
1	 9.513766603602029e-01	 4.442774472090222e-01	 1.609196218289998e+01
1	 9.600934598831773e-01	 4.251123948642584e-01	 1.678168079993497e+01
1	 9.683939348685183e-01	 4.058487241434762e-01	 1.744504771109071e+01
1	 9.762777160979634e-01	 3.864994450594811e-01	 1.807802141021373e+01
1	 8.736140648273604e-01	 5.711501800874307e-01	 1.089910343711599e+01
1	 8.851208467144430e-01	 5.531502049048878e-01	 1.165322693559175e+01
1	 8.962313424113219e-01	 5.349611606011688e-01	 1.241495188194124e+01
1	 9.069414106472076e-01	 5.165959157052495e-01	 1.317952428178821e+01
1	 9.172474565673776e-01	 4.980674310666272e-01	 1.394219896235485e+01
1	 9.271464321096059e-01	 4.793887315052322e-01	 1.469825871168356e+01
1	 9.366358346624335e-01	 4.605728777226235e-01	 1.544303294893128e+01
1	 9.457137040449233e-01	 4.416329385920386e-01	 1.617191581462976e+01
1	 9.543786178563443e-01	 4.225819639399329e-01	 1.688038357727808e+01
1	 9.626296852524773e-01	 4.034329579260195e-01	 1.756401126090362e+01
1	 9.704665392127868e-01	 3.841988531225505e-01	 1.821848840717547e+01
1	 8.683828428822506e-01	 5.677301191277158e-01	 1.091163070480250e+01
1	 8.798207218831460e-01	 5.498379282272421e-01	 1.166768945404165e+01
1	 8.908646876651093e-01	 5.317578003561012e-01	 1.243470573378154e+01
1	 9.015106237553792e-01	 5.135025269862086e-01	 1.320768037997754e+01
1	 9.117549568253088e-01	 4.950849913571840e-01	 1.398161578785069e+01
1	 9.215946570645414e-01	 4.765181402960234e-01	 1.475153621545580e+01
1	 9.310272368473157e-01	 4.578149562964914e-01	 1.551250762608187e+01
1	 9.400507477303034e-01	 4.389884299750986e-01	 1.625965695058146e+01
1	 9.486637758301429e-01	 4.200515330156266e-01	 1.698819065840143e+01
1	 9.568654356370117e-01	 4.010171917085674e-01	 1.769341253463978e+01
1	 9.646553623281005e-01	 3.818982611856199e-01	 1.837074056974245e+01
1	 8.631516209371516e-01	 5.643100581684956e-01	 1.092339654079225e+01
1	 8.745205970520447e-01	 5.465256515499962e-01	 1.168253954926573e+01
1	 8.854980329192456e-01	 5.285544401113487e-01	 1.245603121112723e+01
1	 8.960798368640223e-01	 5.104091382674082e-01	 1.323862471449442e+01
1	 9.062624570838039e-01	 4.921025516479171e-01	 1.402506749173450e+01
1	 9.160428820201031e-01	 4.736475490869365e-01	 1.481012269699143e+01
1	 9.254186390328555e-01	 4.550570348704370e-01	 1.558859023033180e+01
1	 9.343877914163435e-01	 4.363439213582026e-01	 1.635532718174238e+01
1	 9.429489338045740e-01	 4.175211020913397e-01	 1.710526757610456e+01
1	 9.511011860221213e-01	 3.986014254911202e-01	 1.783344130910323e+01
1	 9.588441854439035e-01	 3.795976692486892e-01	 1.853499217366041e+01
1	 8.579203989920633e-01	 5.608899972097702e-01	 1.093438701644507e+01
1	 8.692204722211384e-01	 5.432133748731502e-01	 1.169778431107327e+01
1	 8.801313781737309e-01	 5.253510798669113e-01	 1.247895706321708e+01
1	 8.906490499731375e-01	 5.073157495488486e-01	 1.327240828965561e+01
1	 9.007699573428635e-01	 4.891201119388265e-01	 1.407262788275257e+01
1	 9.104911069762909e-01	 4.707769578779718e-01	 1.487411527173479e+01
1	 9.198100412190531e-01	 4.522991134444607e-01	 1.567140163839584e+01
1	 9.287248351030430e-01	 4.336994127413499e-01	 1.645907155253845e+01
1	 9.372340917796376e-01	 4.149906711670722e-01	 1.723178390057214e+01
1	 9.453369364078066e-01	 3.961856592736779e-01	 1.798429198980065e+01
1	 9.530330085601965e-01	 3.772970773117586e-01	 1.871146272091291e+01
1	 8.526891770469852e-01	 5.574699362515393e-01	 1.094458786131380e+01
1	 8.639203473904270e-01	 5.399010981967041e-01	 1.171343100325662e+01
1	 8.747647234285648e-01	 5.221477196227892e-01	 1.250351274479259e+01
1	 8.852182630827241e-01	 5.042223608305296e-01	 1.330908336141701e+01
1	 8.952774576024866e-01	 4.861376722299121e-01	 1.412437258090872e+01
1	 9.049393319331045e-01	 4.679063666691293e-01	 1.494361343833100e+01
1	 9.142014434059088e-01	 4.495411920185622e-01	 1.576106569328817e+01
1	 9.230618787904024e-01	 4.310549041245411e-01	 1.657103866676807e+01
1	 9.315192497553331e-01	 4.124602402428239e-01	 1.736791336322083e+01
1	 9.395726867940669e-01	 3.937698930562403e-01	 1.814616375292622e+01
1	 9.472218316769789e-01	 3.749964853748281e-01	 1.890037710003549e+01
1	 8.474579551019181e-01	 5.540498752938033e-01	 1.095398445259457e+01
1	 8.586202225599111e-01	 5.365888215206577e-01	 1.172948706896052e+01
1	 8.693980686837477e-01	 5.189443593789821e-01	 1.252972843787287e+01
1	 8.797874761927823e-01	 5.011289721124513e-01	 1.334870347600566e+01
1	 8.897849578626738e-01	 4.831552325211741e-01	 1.418037907336760e+01
1	 8.993875568905441e-01	 4.650357754604086e-01	 1.501871915218194e+01
1	 9.085928455934221e-01	 4.467832705927415e-01	 1.585770929587521e+01
1	 9.173989224784217e-01	 4.284103955077758e-01	 1.669138079745930e+01
1	 9.258044077316606e-01	 4.099298093185951e-01	 1.751383398513132e+01
1	 9.338084371809028e-01	 3.913541268388075e-01	 1.831926069260467e+01
1	 9.414106547942513e-01	 3.726958934378975e-01	 1.910196575236708e+01
1	 8.422267331568614e-01	 5.506298143365619e-01	 1.096256180418383e+01
1	 8.533200977295899e-01	 5.332765448450111e-01	 1.174596013625290e+01
1	 8.640314139392792e-01	 5.157409991354902e-01	 1.255763507434067e+01
1	 8.743566893033125e-01	 4.980355833946136e-01	 1.339132350998876e+01
1	 8.842924581234252e-01	 4.801727928126123e-01	 1.424072677244018e+01
1	 8.938357818486097e-01	 4.621651842518100e-01	 1.509953690174294e+01
1	 9.029842477815930e-01	 4.440253491669987e-01	 1.596146249983981e+01
1	 9.117359661671007e-01	 4.257658868910541e-01	 1.682025400082048e+01
1	 9.200895657086205e-01	 4.073993783943854e-01	 1.766972821026902e+01
1	 9.280441875683141e-01	 3.889383606213797e-01	 1.850379197362259e+01
1	 9.355994779120133e-01	 3.703953015009668e-01	 1.931646484449760e+01
1	 8.369955112118157e-01	 5.472097533798153e-01	 1.097030455532600e+01
1	 8.480199728994640e-01	 5.299642681697643e-01	 1.176285802390339e+01
1	 8.586647591951594e-01	 5.125376388923134e-01	 1.258726435937602e+01
1	 8.689259024143139e-01	 4.949421946770164e-01	 1.343699971184824e+01
1	 8.787999583847405e-01	 4.771903531042268e-01	 1.430549707574536e+01
1	 8.882840068073012e-01	 4.592945930433335e-01	 1.518617378767994e+01
1	 8.973756499704221e-01	 4.412674277413337e-01	 1.607245861020669e+01
1	 9.060730098564393e-01	 4.231213782743761e-01	 1.695781823446578e+01
1	 9.143747236862125e-01	 4.048689474701951e-01	 1.783578304369779e+01
1	 9.222799379563007e-01	 3.865225944039565e-01	 1.869997198988590e+01
1	 9.297883010302648e-01	 3.680947095640363e-01	 1.954411644718166e+01
1	 9.879000698697851e-01	 3.911006289333422e-01	 1.783161101903485e+01
1	 9.954562015255157e-01	 3.714474402192344e-01	 1.871791995827301e+01
1	 1.002591492531163e+00	 3.517336337418570e-01	 1.956030389175077e+01
1	 1.009307107503605e+00	 3.319720059640346e-01	 2.035662842275336e+01
1	 1.015604698980536e+00	 3.121751838465295e-01	 2.110490896232364e+01
1	 1.021486393066090e+00	 2.923556033012252e-01	 2.180331432981755e+01
1	 1.026954774052105e+00	 2.725254888119736e-01	 2.245016953621558e+01
1	 1.032012868112777e+00	 2.526968342700297e-01	 2.304395776236734e+01
1	 1.036664126171887e+00	 2.328813850624818e-01	 2.358332154988158e+01
1	 1.040912406042436e+00	 2.130906214436759e-01	 2.406706322748964e+01
1	 1.044761953938440e+00	 1.933357432113846e-01	 2.449414460036745e+01
1	 9.820888929836293e-01	 3.888000369964117e-01	 1.794913037472688e+01
1	 9.896005768064213e-01	 3.692624552750003e-01	 1.884840641916726e+01
1	 9.966938955123626e-01	 3.496646123653315e-01	 1.970323798757905e+01
1	 1.003370006867644e+00	 3.300192294569193e-01	 2.051151518326690e+01
1	 1.009630553689149e+00	 3.103388592342874e-01	 2.127127792690998e+01
1	 1.015477649574516e+00	 2.906358644568971e-01	 2.198071946110953e+01
1	 1.020913863613867e+00	 2.709223976998730e-01	 2.263818904247723e+01
1	 1.025942204180374e+00	 2.512103823021694e-01	 2.324219383378842e+01
1	 1.030566101898264e+00	 2.315114945603633e-01	 2.379140001420477e+01
1	 1.034789391887521e+00	 2.118371471978940e-01	 2.428463313062671e+01
1	 1.038616295384433e+00	 1.921984741313718e-01	 2.472087771783927e+01
1	 9.762777160979634e-01	 3.864994450594811e-01	 1.807802141021373e+01
1	 9.837449520877226e-01	 3.670774703307718e-01	 1.899020228064439e+01
1	 9.907962984938737e-01	 3.475955909888275e-01	 1.985741788072130e+01
1	 9.974329062319202e-01	 3.280664529498521e-01	 2.067758294360422e+01
1	 1.003656408397935e+00	 3.085025346221302e-01	 2.144876202962802e+01
1	 1.009468906083062e+00	 2.889161256127013e-01	 2.216917293440441e+01
1	 1.014872953175706e+00	 2.693193065879619e-01	 2.283718928926420e+01
1	 1.019871540248013e+00	 2.497239303345656e-01	 2.345134236691354e+01
1	 1.024468077624660e+00	 2.301416040585780e-01	 2.401032211060125e+01
1	 1.028666377732611e+00	 2.105836729525313e-01	 2.451297741009328e+01
1	 1.032470636830427e+00	 1.910612050518737e-01	 2.495831565229645e+01
1	 9.704665392127868e-01	 3.841988531225505e-01	 1.821848840717548e+01
1	 9.778893273694181e-01	 3.648924853865484e-01	 1.914351070559556e+01
1	 9.848987014756951e-01	 3.455265696123447e-01	 2.002304559149451e+01
1	 9.914958055964326e-01	 3.261136764428329e-01	 2.085503256005523e+01
1	 9.976822631068939e-01	 3.066662100100583e-01	 2.163756094362329e+01
1	 1.003460162591727e+00	 2.871963867686377e-01	 2.236887322291712e+01
1	 1.008832042737620e+00	 2.677162154762401e-01	 2.304736753539371e+01
1	 1.013800876315694e+00	 2.482374783672182e-01	 2.367159939399436e+01
1	 1.018370053351074e+00	 2.287717135571258e-01	 2.424028263486247e+01
1	 1.022543363577707e+00	 2.093301987075880e-01	 2.475228961756604e+01
1	 1.026324978276420e+00	 1.899239359728903e-01	 2.520665070584702e+01
1	 9.646553623281005e-01	 3.818982611856199e-01	 1.837074056974245e+01
1	 9.720337026515095e-01	 3.627075004423307e-01	 1.930853975240349e+01
1	 9.790011044578273e-01	 3.434575482358835e-01	 2.020032800817534e+01
1	 9.855587049611823e-01	 3.241608999358618e-01	 2.104406972882064e+01
1	 9.917081178160257e-01	 3.048298853980713e-01	 2.183787915344250e+01
1	 9.974514191005123e-01	 2.854766479247065e-01	 2.258002358234993e+01
1	 1.002791132299611e+00	 2.661131243647079e-01	 2.326892579290765e+01
1	 1.007730212383418e+00	 2.467510264001273e-01	 2.390316567095147e+01
1	 1.012272029077507e+00	 2.274018230560069e-01	 2.448148107665466e+01
1	 1.016420349422807e+00	 2.080767244630641e-01	 2.500276796861768e+01
1	 1.020179319722414e+00	 1.887866668944215e-01	 2.546607981438502e+01
1	 9.588441854439035e-01	 3.795976692486892e-01	 1.853499217366041e+01
1	 9.661780779339952e-01	 3.605225154981182e-01	 1.948550252329066e+01
1	 9.731035074402701e-01	 3.413885268594438e-01	 2.038947703451401e+01
1	 9.796216043261683e-01	 3.222081234289387e-01	 2.124490513267582e+01
1	 9.857339725253311e-01	 3.029935607861693e-01	 2.204992610083393e+01
1	 9.914426756094170e-01	 2.837569090809073e-01	 2.280283219581627e+01
1	 9.967502218616779e-01	 2.645100332533650e-01	 2.350207097110981e+01
1	 1.001659548451185e+00	 2.452645744332929e-01	 2.414624682051599e+01
1	 1.006174004803960e+00	 2.260319325552210e-01	 2.473412176175744e+01
1	 1.010297335267911e+00	 2.068232502189594e-01	 2.526461548404731e+01
1	 1.014033661168407e+00	 1.876493978164674e-01	 2.573680468800835e+01
1	 9.530330085601965e-01	 3.772970773117586e-01	 1.871146272091291e+01
1	 9.603224532168761e-01	 3.583375305539112e-01	 1.967461731809473e+01
1	 9.672059104230240e-01	 3.393195054830255e-01	 2.059070974264488e+01
1	 9.736845036913913e-01	 3.202553469220638e-01	 2.145775459300073e+01
1	 9.797598272348097e-01	 3.011572361743524e-01	 2.227391633588116e+01
1	 9.854339321184410e-01	 2.820371702372405e-01	 2.303751232406677e+01
1	 9.907093114238209e-01	 2.629069421422116e-01	 2.374701502587251e+01
1	 9.955888845189945e-01	 2.437781224667149e-01	 2.440105348060773e+01
1	 1.000075980530431e+00	 2.246620420547684e-01	 2.499841399950625e+01
1	 1.004174321113020e+00	 2.055697759752740e-01	 2.553804013638105e+01
1	 1.007888002614401e+00	 1.865121287390279e-01	 2.601903195657373e+01
1	 9.472218316769789e-01	 3.749964853748281e-01	 1.890037710003549e+01
1	 9.544668285001521e-01	 3.561525456097094e-01	 1.987610779370500e+01
1	 9.613083134060882e-01	 3.372504841066286e-01	 2.080424853162641e+01
1	 9.677474030568514e-01	 3.183025704152369e-01	 2.168283922740566e+01
1	 9.737856819444611e-01	 2.993209115626206e-01	 2.251006967370081e+01
1	 9.794251886275849e-01	 2.803174313937058e-01	 2.328428246124488e+01
1	 9.846684009860401e-01	 2.613038510312476e-01	 2.400397511443967e+01
1	 9.895182205868466e-01	 2.422916705003934e-01	 2.466780145817570e+01
1	 9.939779562569203e-01	 2.232921515546489e-01	 2.527457223566244e+01
1	 9.980513069581338e-01	 2.043163017320078e-01	 2.582325500176576e+01
1	 1.001742344060394e+00	 1.853748596621032e-01	 2.631297332060954e+01
1	 9.414106547942513e-01	 3.726958934378975e-01	 1.910196575236707e+01
1	 9.486112037838231e-01	 3.539675606655132e-01	 2.009020312940314e+01
1	 9.554107163894634e-01	 3.351814627302532e-01	 2.103032129185160e+01
1	 9.618103024225481e-01	 3.163497939084580e-01	 2.192038561319504e+01
1	 9.678115366542858e-01	 2.974845869509737e-01	 2.275861135694350e+01
1	 9.734164451368483e-01	 2.785976925503033e-01	 2.354336649641151e+01
1	 9.786274905483356e-01	 2.597007599204731e-01	 2.427317375596245e+01
1	 9.834475566547414e-01	 2.408052185343285e-01	 2.494671188873565e+01
1	 9.878799319834292e-01	 2.219222610548625e-01	 2.556281621094455e+01
1	 9.919282928032523e-01	 2.030628274891611e-01	 2.612047841748796e+01
1	 9.955966855063877e-01	 1.842375905856931e-01	 2.661884570781810e+01
1	 9.355994779120133e-01	 3.703953015009668e-01	 1.931646484449759e+01
1	 9.427555790678890e-01	 3.517825757213223e-01	 2.031713819836616e+01
1	 9.495131193731493e-01	 3.331124413538993e-01	 2.126916157558700e+01
1	 9.558732017884815e-01	 3.143970174017272e-01	 2.217062595692356e+01
1	 9.618373913642838e-01	 2.956482623394119e-01	 2.301977222435071e+01
1	 9.674077016462318e-01	 2.768779537070331e-01	 2.381499388108887e+01
1	 9.725865801107074e-01	 2.580976688098879e-01	 2.455483899801862e+01
1	 9.773768927226787e-01	 2.393187665685200e-01	 2.523801140185379e+01
1	 9.817819077099565e-01	 2.205523705554094e-01	 2.586337112546827e+01
1	 9.858052786483756e-01	 2.018093532467336e-01	 2.642993414536342e+01
1	 9.894510269523811e-01	 1.831003215097976e-01	 2.693687143541026e+01
1	 9.297883010302648e-01	 3.680947095640363e-01	 1.954411644718165e+01
1	 9.368999543523499e-01	 3.495975907771367e-01	 2.055715374560076e+01
1	 9.436155223571460e-01	 3.310434199775669e-01	 2.152100877390589e+01
1	 9.499361011546518e-01	 3.124442408950445e-01	 2.243379827030990e+01
1	 9.558632460744551e-01	 2.938119377279352e-01	 2.329378888563268e+01
1	 9.613989581557346e-01	 2.751582148638951e-01	 2.409939980308749e+01
1	 9.665456696731551e-01	 2.564945776994922e-01	 2.484920458937553e+01
1	 9.713062287906588e-01	 2.378323146029679e-01	 2.554193229283586e+01
1	 9.756838834365028e-01	 2.191824800562894e-01	 2.617646780935252e+01
1	 9.796822644935033e-01	 2.005558790047254e-01	 2.675185154125370e+01
1	 9.833053683983746e-01	 1.819630524344169e-01	 2.726727837852746e+01
1	 1.044761953938440e+00	 1.933357432113846e-01	 2.449414460036745e+01
1	 1.048217385457841e+00	 1.736276557013739e-01	 2.503825437673220e+01
1	 1.051283666134210e+00	 1.539769571066575e-01	 2.552402543005486e+01
1	 1.053966091652700e+00	 1.343939271197823e-01	 2.595151565874903e+01
1	 1.056270267823132e+00	 1.148885168896664e-01	 2.632090912437870e+01
1	 1.058202090400186e+00	 9.547034027827463e-02	 2.663251118857220e+01
1	 1.059767724837014e+00	 7.614866639592550e-02	 2.688674334403848e+01
1	 1.060973586054718e+00	 5.693241338847237e-02	 2.708413778269480e+01
1	 1.061826318305864e+00	 3.783014344444236e-02	 2.722533174333727e+01
1	 1.062332775205699e+00	 1.885005898556709e-02	 2.731106168038313e+01
1	 1.062500000000000e+00	 0.000000000000000e+00	 2.734215729401994e+01
1	 1.038616295384433e+00	 1.921984741313718e-01	 2.472087771783927e+01
1	 1.042051400836352e+00	 1.726063165476180e-01	 2.527010630682731e+01
1	 1.045099644567812e+00	 1.530712102974212e-01	 2.576104527965420e+01
1	 1.047766291112880e+00	 1.336033746045466e-01	 2.619369457975537e+01
1	 1.050056913306024e+00	 1.142127020817402e-01	 2.656818157191978e+01
1	 1.051977372221016e+00	 9.490875003883541e-02	 2.688475635456918e+01
1	 1.053533797043635e+00	 7.570073306196999e-02	 2.714378675176989e+01
1	 1.054732564960156e+00	 5.659751683731360e-02	 2.734575302775131e+01
1	 1.055580281139305e+00	 3.760761318757612e-02	 2.749124236624637e+01
1	 1.056083758880946e+00	 1.873917628494704e-02	 2.758094315618101e+01
1	 1.056250000000000e+00	 0.000000000000000e+00	 2.761563912415184e+01
1	 1.032470636830427e+00	 1.910612050518737e-01	 2.495831565229645e+01
1	 1.035885416214862e+00	 1.715849773944606e-01	 2.551299593187150e+01
1	 1.038915623001414e+00	 1.521654634888356e-01	 2.600943723660134e+01
1	 1.041566490573059e+00	 1.328128220899830e-01	 2.644758098622380e+01
1	 1.043843558788917e+00	 1.135368872744768e-01	 2.682749729395613e+01
1	 1.045752654041845e+00	 9.434715980001965e-02	 2.714938045537624e+01
1	 1.047299869250256e+00	 7.525279972856942e-02	 2.741354410255129e+01
1	 1.048491543865594e+00	 5.626262028661251e-02	 2.762041606595074e+01
1	 1.049334243972746e+00	 3.738508293104215e-02	 2.777053298634416e+01
1	 1.049834742556193e+00	 1.862829358450651e-02	 2.786453471820987e+01
1	 1.050000000000000e+00	 0.000000000000000e+00	 2.790315856520010e+01
1	 1.026324978276420e+00	 1.899239359728903e-01	 2.520665070584702e+01
1	 1.029719431593372e+00	 1.705636382419018e-01	 2.576712153381459e+01
1	 1.032731601435016e+00	 1.512597166809010e-01	 2.626940559025232e+01
1	 1.035366690033239e+00	 1.320222695760914e-01	 2.671338519226493e+01
1	 1.037630204271809e+00	 1.128610724678761e-01	 2.709907263673451e+01
1	 1.039527935862675e+00	 9.378556956182743e-02	 2.742660586706395e+01
1	 1.041065941456878e+00	 7.480486639572381e-02	 2.769624379056312e+01
1	 1.042250522771031e+00	 5.592772373636906e-02	 2.790836128877833e+01
1	 1.043088206806186e+00	 3.716255267484049e-02	 2.806344396285082e+01
1	 1.043585726231440e+00	 1.851741088424552e-02	 2.816208265543093e+01
1	 1.043750000000000e+00	 0.000000000000000e+00	 2.820496778980064e+01
1	 1.020179319722414e+00	 1.887866668944215e-01	 2.546607981438502e+01
1	 1.023553446971883e+00	 1.695422990899416e-01	 2.603268617248483e+01
1	 1.026547579868618e+00	 1.503539698736173e-01	 2.654115955259853e+01
1	 1.029166889493419e+00	 1.312317170628720e-01	 2.699132257979930e+01
1	 1.031416849754700e+00	 1.121852576619383e-01	 2.738312915966419e+01
1	 1.033303217683504e+00	 9.322397932425873e-02	 2.771666032416218e+01
1	 1.034832013663499e+00	 7.435693306343312e-02	 2.799211971345962e+01
1	 1.036009501676469e+00	 5.559282718658326e-02	 2.820982873570631e+01
1	 1.036842169639627e+00	 3.694002241897112e-02	 2.837022144677449e+01
1	 1.037336709906687e+00	 1.840652818416404e-02	 2.847383919147835e+01
1	 1.037500000000000e+00	 0.000000000000000e+00	 2.852132504703753e+01
1	 1.014033661168407e+00	 1.876493978164674e-01	 2.573680468800835e+01
1	 1.017387462350394e+00	 1.685209599385800e-01	 2.630989783037328e+01
1	 1.020363558302220e+00	 1.494482230669845e-01	 2.682491340743727e+01
1	 1.022967088953598e+00	 1.304411645503247e-01	 2.728161375212726e+01
1	 1.025203495237593e+00	 1.115094428566631e-01	 2.767989379329146e+01
1	 1.027078499504333e+00	 9.266238908731354e-02	 2.801977708203777e+01
1	 1.028598085870120e+00	 7.390899973169737e-02	 2.830141143914099e+01
1	 1.029768480581907e+00	 5.525793063725513e-02	 2.852506426534531e+01
1	 1.030596132473068e+00	 3.671749216343406e-02	 2.869111755641974e+01
1	 1.031087693581935e+00	 1.829564548426208e-02	 2.880006266449798e+01
1	 1.031250000000000e+00	 0.000000000000000e+00	 2.885249484657775e+01
1	 1.007888002614401e+00	 1.865121287390279e-01	 2.601903195657373e+01
1	 1.011221477728904e+00	 1.674996207878170e-01	 2.659896956271485e+01
1	 1.014179536735822e+00	 1.485424762610025e-01	 2.712088666500005e+01
1	 1.016767288413778e+00	 1.296506120384494e-01	 2.758448469311763e+01
1	 1.018990140720485e+00	 1.108336280520508e-01	 2.798959900305402e+01
1	 1.020853781325163e+00	 9.210079885099187e-02	 2.833619508521249e+01
1	 1.022364158076741e+00	 7.346106640051656e-02	 2.862436437862651e+01
1	 1.023527459487344e+00	 5.492303408838464e-02	 2.885431973285688e+01
1	 1.024350095306508e+00	 3.649496190822930e-02	 2.902639055931756e+01
1	 1.024838677257182e+00	 1.818476278453965e-02	 2.914101771356527e+01
1	 1.025000000000000e+00	 0.000000000000000e+00	 2.919874814954272e+01
1	 1.001742344060394e+00	 1.853748596621032e-01	 2.631297332060954e+01
1	 1.005055493107414e+00	 1.664782816376525e-01	 2.690011965309409e+01
1	 1.007995515169424e+00	 1.476367294556715e-01	 2.742930422227272e+01
1	 1.010567487873958e+00	 1.288600595272462e-01	 2.790016693225548e+01
1	 1.012776786203377e+00	 1.101578132481012e-01	 2.831248295906263e+01
1	 1.014629063145992e+00	 9.153920861529372e-02	 2.866615914187726e+01
1	 1.016130230283362e+00	 7.301313306989071e-02	 2.896122996529141e+01
1	 1.017286438392782e+00	 5.458813753997180e-02	 2.919785317389683e+01
1	 1.018104058139949e+00	 3.627243165335682e-02	 2.937630506085172e+01
1	 1.018589660932429e+00	 1.807388008499675e-02	 2.949697547196521e+01
1	 1.018750000000000e+00	 0.000000000000000e+00	 2.956036256640549e+01
1	 9.955966855063877e-01	 1.842375905856931e-01	 2.661884570781810e+01
1	 9.988895084859244e-01	 1.654569424880867e-01	 2.721357177481392e+01
1	 1.001811493603026e+00	 1.467309826509912e-01	 2.775039652925324e+01
1	 1.004367687334138e+00	 1.280695070167151e-01	 2.822889771580353e+01
1	 1.006563431686268e+00	 1.094819984448144e-01	 2.864878971217161e+01
1	 1.008404344966822e+00	 9.097761838021909e-02	 2.900992010486933e+01
1	 1.009896302489984e+00	 7.256519973981976e-02	 2.931226584074204e+01
1	 1.011045417298220e+00	 5.425324099201662e-02	 2.955592899537121e+01
1	 1.011858020973390e+00	 3.604990139881664e-02	 2.974113219987156e+01
1	 1.012340644607676e+00	 1.796299738563338e-02	 2.986821376763107e+01
1	 1.012500000000000e+00	 0.000000000000000e+00	 2.993762256221768e+01
1	 9.894510269523811e-01	 1.831003215097976e-01	 2.693687143541026e+01
1	 9.927235238644349e-01	 1.644356033391194e-01	 2.753955515827827e+01
1	 9.956274720366280e-01	 1.458252358469619e-01	 2.808439976140548e+01
1	 9.981678867943176e-01	 1.272789545068561e-01	 2.857092018434147e+01
1	 1.000350077169160e+00	 1.088061836421904e-01	 2.899876937661021e+01
1	 1.002179626787651e+00	 9.041602814576796e-02	 2.936773505939439e+01
1	 1.003662374696605e+00	 7.211726641030376e-02	 2.967773604761801e+01
1	 1.004804396203657e+00	 5.391834444451908e-02	 2.992881817330111e+01
1	 1.005611983806831e+00	 3.582737114460877e-02	 3.012114985159474e+01
1	 1.006091628282923e+00	 1.785211468644953e-02	 3.025501733105246e+01
1	 1.006250000000000e+00	 0.000000000000000e+00	 3.033081966948463e+01
1	 9.833053683983746e-01	 1.819630524344169e-01	 2.726727837852746e+01
1	 9.865575392429453e-01	 1.634142641907508e-01	 2.787830476465138e+01
1	 9.894434504702300e-01	 1.449194890435835e-01	 2.843155599858016e+01
1	 9.919680862544974e-01	 1.264884019976692e-01	 2.892648355696351e+01
1	 9.941367226520526e-01	 1.081303688402291e-01	 2.936267831946346e+01
1	 9.959549086084809e-01	 8.985443791194039e-02	 2.973986751778801e+01
1	 9.974284469032260e-01	 7.166933308134271e-02	 3.005791122962453e+01
1	 9.985633751090949e-01	 5.358344789747919e-02	 3.031679845810778e+01
1	 9.993659466402712e-01	 3.560484089073318e-02	 3.051664283811852e+01
1	 9.998426119581703e-01	 1.774123198744520e-02	 3.065767801098049e+01
1	 1.000000000000000e+00	 0.000000000000000e+00	 3.074025270902312e+01
